    1C
    1U meshsolid_t.inp                                                  
    1UUSER                                                              
    1UDATE              05.july.2016                                    
    1UTIME              01:20:22                                        
    1UHOST                                                              
    1UPGM               CalculiX                                        
    1UVERSION           Version 2.10                             
    1UCOMPILETIME       Sa 5. MÃ¤r 12:23:33 CET 2016                    
    1UDIR                                                               
    1UDBN                                                               
    1UMAT    1PDMS                                                      
    2C                          4030                                     1
 -1         1 2.32070E+00-4.61617E-01 5.00000E-01
 -1         2 2.32070E+00-4.61617E-01 2.45000E+00
 -1         3-5.06195E+00 1.58259E+00 2.45000E+00
 -1         4-7.69674E+00 2.67396E+00 2.45000E+00
 -1         5-5.24373E+00 1.14375E+00 2.45000E+00
 -1         6-7.87852E+00 2.23512E+00 2.45000E+00
 -1         7-2.89912E+00 4.51663E+00 2.45000E+00
 -1         8-5.41583E+00 6.08758E+00 2.45000E+00
 -1         9-5.28227E+00 4.74999E-01 2.45000E+00
 -1        10-5.28227E+00-4.74999E-01 2.45000E+00
 -1        11-2.32070E+00-4.61617E-01 2.45000E+00
 -1        12-2.38798E+00 4.74999E-01 2.45000E+00
 -1        13-4.69840E+00 2.46028E+00 2.45000E+00
 -1        14 1.14375E+00 5.24373E+00 2.45000E+00
 -1        15 4.68498E+00 1.00693E+01 2.45000E+00
 -1        16 1.58259E+00 5.06195E+00 2.45000E+00
 -1        17 2.46028E+00 4.69840E+00 2.45000E+00
 -1        18 1.31457E+00 1.96740E+00 2.45000E+00
 -1        19 4.74999E-01 2.38798E+00 2.45000E+00
 -1        20 1.35268E+00 2.02443E+00 2.45000E+00
 -1        21 2.02443E+00 1.35268E+00 2.45000E+00
 -1        22 3.39925E+00 4.07100E+00 2.45000E+00
 -1        23 2.38798E+00 4.74999E-01 2.45000E+00
 -1        24 2.32070E+00 4.61617E-01 2.45000E+00
 -1        25 2.38798E+00-4.74999E-01 2.45000E+00
 -1        26 8.13414E+00 9.50000E-01 2.45000E+00
 -1        27 5.28227E+00-4.74999E-01 2.45000E+00
 -1        28 5.28227E+00 4.74999E-01 2.45000E+00
 -1        29 1.10957E+01 4.74999E-01 2.45000E+00
 -1        30 8.13414E+00 4.74999E-01 2.45000E+00
 -1        31 3.55164E+00-7.33319E+00 2.45000E+00
 -1        32 5.41583E+00 6.08758E+00 2.45000E+00
 -1        33 1.00693E+01 4.68498E+00 2.45000E+00
 -1        34 5.06195E+00 1.58259E+00 2.45000E+00
 -1        35 7.15142E+00 3.99049E+00 2.45000E+00
 -1        36 4.51663E+00 2.89912E+00 2.45000E+00
 -1        37 4.07100E+00 3.39925E+00 2.45000E+00
 -1        38 4.40688E+00 3.06338E+00 2.45000E+00
 -1        39 3.06338E+00 4.40688E+00 2.45000E+00
 -1        40 2.89912E+00-4.51663E+00 2.45000E+00
 -1        41 3.80730E+00-1.04329E+01 2.45000E+00
 -1        42 2.46028E+00-4.69840E+00 2.45000E+00
 -1        43 2.67396E+00-7.69674E+00 2.45000E+00
 -1        44 1.58259E+00-5.06195E+00 2.45000E+00
 -1        45 4.74999E-01-5.28227E+00 2.45000E+00
 -1        46 4.74999E-01-2.38798E+00 2.45000E+00
 -1        47-4.74999E-01-2.38798E+00 2.45000E+00
 -1        48-4.74999E-01-5.28227E+00 2.45000E+00
 -1        49 5.06195E+00-1.58259E+00 2.45000E+00
 -1        50 4.69840E+00-2.46028E+00 2.45000E+00
 -1        51 2.02443E+00-1.35268E+00 2.45000E+00
 -1        52 1.96740E+00-1.31457E+00 2.45000E+00
 -1        53 7.69674E+00-2.67396E+00 2.45000E+00
 -1        54 7.33319E+00-3.55164E+00 2.45000E+00
 -1        55 3.39925E+00-4.07100E+00 2.45000E+00
 -1        56 1.35268E+00-2.02443E+00 2.45000E+00
 -1        57 4.07100E+00-3.39925E+00 2.45000E+00
 -1        58 5.41583E+00-6.08758E+00 2.45000E+00
 -1        59 6.42346E+00-5.07995E+00 2.45000E+00
 -1        60 6.08758E+00-5.41583E+00 2.45000E+00
 -1        61 7.50997E+00-8.18172E+00 2.45000E+00
 -1        62 1.14375E+00-5.24373E+00 2.45000E+00
 -1        63-4.74999E-01-8.13414E+00 2.45000E+00
 -1        64-2.89912E+00-4.51663E+00 2.45000E+00
 -1        65-4.74999E-01 5.28227E+00 2.45000E+00
 -1        66-9.50000E-01 8.13414E+00 2.45000E+00
 -1        67 4.74999E-01 1.10957E+01 2.45000E+00
 -1        68-4.74999E-01 8.13414E+00 2.45000E+00
 -1        69 4.61617E-01 2.32070E+00 2.45000E+00
 -1        70-1.58259E+00 5.06195E+00 2.45000E+00
 -1        71-3.80730E+00 1.04329E+01 2.45000E+00
 -1        72-4.68498E+00 1.00693E+01 2.45000E+00
 -1        73 9.50000E-01 5.28227E+00 2.45000E+00
 -1        74 4.74999E-01 8.13414E+00 2.45000E+00
 -1        75 9.50000E-01-8.13414E+00 2.45000E+00
 -1        76-1.96740E+00-1.31457E+00 2.45000E+00
 -1        77-3.39925E+00-4.07100E+00 2.45000E+00
 -1        78-3.39925E+00 4.07100E+00 2.45000E+00
 -1        79-5.41583E+00-6.08758E+00 2.45000E+00
 -1        80-4.07100E+00-3.39925E+00 2.45000E+00
 -1        81-3.06338E+00-4.40688E+00 2.45000E+00
 -1        82-6.08758E+00-5.41583E+00 2.45000E+00
 -1        83-4.69840E+00-2.46028E+00 2.45000E+00
 -1        84-5.06195E+00-1.58259E+00 2.45000E+00
 -1        85-5.24373E+00-1.14375E+00 2.45000E+00
 -1        86-7.33319E+00-3.55164E+00 2.45000E+00
 -1        87-7.69674E+00-2.67396E+00 2.45000E+00
 -1        88-1.00693E+01 4.68498E+00 2.45000E+00
 -1        89-1.04329E+01 3.80730E+00 2.45000E+00
 -1        90-6.08758E+00 5.41583E+00 2.45000E+00
 -1        91-8.18172E+00 7.50997E+00 2.45000E+00
 -1        92-8.13414E+00 4.74999E-01 2.45000E+00
 -1        93-7.50997E+00-8.18172E+00 2.45000E+00
 -1        94-1.00693E+01-4.68498E+00 2.45000E+00
 -1        95 5.28227E+00 4.74999E-01 5.00000E-01
 -1        96 8.13414E+00-4.74999E-01 5.00000E-01
 -1        97 1.10957E+01-4.74999E-01 2.45000E+00
 -1        98 5.28227E+00-4.74999E-01 5.00000E-01
 -1        99 8.13414E+00-4.74999E-01 2.45000E+00
 -1       100 5.28227E+00-9.50000E-01 5.00000E-01
 -1       101 5.28227E+00-9.50000E-01 2.45000E+00
 -1       102 8.13414E+00-9.50000E-01 2.45000E+00
 -1       103 8.13414E+00 9.50000E-01 5.00000E-01
 -1       104 5.28227E+00 9.50000E-01 2.45000E+00
 -1       105 1.96740E+00 1.31457E+00 2.45000E+00
 -1       106 2.32070E+00 4.61617E-01 5.00000E-01
 -1       107 1.04329E+01 3.80730E+00 2.45000E+00
 -1       108 1.00693E+01 4.68498E+00 5.00000E-01
 -1       109 7.33319E+00 3.55164E+00 2.45000E+00
 -1       110 4.69840E+00 2.46028E+00 2.45000E+00
 -1       111 7.69674E+00 2.67396E+00 5.00000E-01
 -1       112 7.69674E+00 2.67396E+00 2.45000E+00
 -1       113 5.24373E+00 1.14375E+00 5.00000E-01
 -1       114 5.06195E+00 1.58259E+00 5.00000E-01
 -1       115 5.24373E+00 1.14375E+00 2.45000E+00
 -1       116 4.51663E+00 2.89912E+00 5.00000E-01
 -1       117 4.69840E+00 2.46028E+00 5.00000E-01
 -1       118 7.87852E+00 2.23512E+00 2.45000E+00
 -1       119 1.31457E+00 1.96740E+00 5.00000E-01
 -1       120 5.41583E+00 6.08758E+00 5.00000E-01
 -1       121 7.50997E+00 8.18172E+00 2.45000E+00
 -1       122 4.07100E+00 3.39925E+00 5.00000E-01
 -1       123 8.18172E+00 7.50997E+00 2.45000E+00
 -1       124 6.08758E+00 5.41583E+00 2.45000E+00
 -1       125 3.39925E+00 4.07100E+00 5.00000E-01
 -1       126 6.08758E+00 5.41583E+00 5.00000E-01
 -1       127 6.42346E+00 5.07995E+00 2.45000E+00
 -1       128 5.07995E+00 6.42346E+00 2.45000E+00
 -1       129 4.61617E-01 2.32070E+00 5.00000E-01
 -1       130 4.68498E+00 1.00693E+01 5.00000E-01
 -1       131 3.80730E+00 1.04329E+01 2.45000E+00
 -1       132 2.67396E+00 7.69674E+00 2.45000E+00
 -1       133 1.58259E+00 5.06195E+00 5.00000E-01
 -1       134 4.74999E-01 2.38798E+00 5.00000E-01
 -1       135 3.55164E+00 7.33319E+00 5.00000E-01
 -1       136 2.46028E+00 4.69840E+00 5.00000E-01
 -1       137 2.89912E+00 4.51663E+00 2.45000E+00
 -1       138 3.55164E+00 7.33319E+00 2.45000E+00
 -1       139 3.99049E+00 7.15142E+00 2.45000E+00
 -1       140 2.67396E+00 7.69674E+00 5.00000E-01
 -1       141 3.99049E+00 7.15142E+00 5.00000E-01
 -1       142 2.23512E+00 7.87852E+00 2.45000E+00
 -1       143 1.14375E+00 5.24373E+00 5.00000E-01
 -1       144-4.61617E-01 2.32070E+00 2.45000E+00
 -1       145-4.74999E-01 1.10957E+01 2.45000E+00
 -1       146-4.74999E-01 8.13414E+00 5.00000E-01
 -1       147-4.74999E-01 5.28227E+00 5.00000E-01
 -1       148 4.74999E-01 5.28227E+00 5.00000E-01
 -1       149 4.74999E-01 5.28227E+00 2.45000E+00
 -1       150 4.74999E-01 1.10957E+01 5.00000E-01
 -1       151 4.74999E-01 8.13414E+00 5.00000E-01
 -1       152-9.50000E-01 5.28227E+00 2.45000E+00
 -1       153 9.50000E-01 8.13414E+00 5.00000E-01
 -1       154 9.50000E-01 8.13414E+00 2.45000E+00
 -1       155-1.31457E+00 1.96740E+00 2.45000E+00
 -1       156-4.68498E+00 1.00693E+01 5.00000E-01
 -1       157-3.55164E+00 7.33319E+00 2.45000E+00
 -1       158-1.35268E+00 2.02443E+00 2.45000E+00
 -1       159-4.74999E-01 2.38798E+00 2.45000E+00
 -1       160-2.67396E+00 7.69674E+00 5.00000E-01
 -1       161-2.46028E+00 4.69840E+00 2.45000E+00
 -1       162-2.89912E+00 4.51663E+00 5.00000E-01
 -1       163-2.67396E+00 7.69674E+00 2.45000E+00
 -1       164-3.99049E+00 7.15142E+00 2.45000E+00
 -1       165-2.23512E+00 7.87852E+00 2.45000E+00
 -1       166-1.14375E+00 5.24373E+00 2.45000E+00
 -1       167-8.18172E+00 7.50997E+00 5.00000E-01
 -1       168-2.02443E+00 1.35268E+00 2.45000E+00
 -1       169-3.39925E+00 4.07100E+00 5.00000E-01
 -1       170-1.35268E+00 2.02443E+00 5.00000E-01
 -1       171-7.50997E+00 8.18172E+00 2.45000E+00
 -1       172-3.06338E+00 4.40688E+00 5.00000E-01
 -1       173-4.07100E+00 3.39925E+00 5.00000E-01
 -1       174-4.07100E+00 3.39925E+00 2.45000E+00
 -1       175-4.40688E+00 3.06338E+00 2.45000E+00
 -1       176-5.41583E+00 6.08758E+00 5.00000E-01
 -1       177-5.07995E+00 6.42346E+00 2.45000E+00
 -1       178-3.06338E+00 4.40688E+00 2.45000E+00
 -1       179-6.42346E+00 5.07995E+00 2.45000E+00
 -1       180-1.96740E+00 1.31457E+00 5.00000E-01
 -1       181-1.96740E+00 1.31457E+00 2.45000E+00
 -1       182-2.32070E+00 4.61617E-01 2.45000E+00
 -1       183-2.32070E+00 4.61617E-01 5.00000E-01
 -1       184-7.69674E+00 2.67396E+00 5.00000E-01
 -1       185-5.06195E+00 1.58259E+00 5.00000E-01
 -1       186-2.02443E+00 1.35268E+00 5.00000E-01
 -1       187-4.69840E+00 2.46028E+00 5.00000E-01
 -1       188-4.51663E+00 2.89912E+00 2.45000E+00
 -1       189-5.24373E+00 1.14375E+00 5.00000E-01
 -1       190-7.33319E+00 3.55164E+00 5.00000E-01
 -1       191-7.15142E+00 3.99049E+00 2.45000E+00
 -1       192-7.33319E+00 3.55164E+00 2.45000E+00
 -1       193-7.87852E+00 2.23512E+00 5.00000E-01
 -1       194-1.10957E+01 4.74999E-01 2.45000E+00
 -1       195-1.10957E+01-4.74999E-01 2.45000E+00
 -1       196-1.10957E+01-4.74999E-01 5.00000E-01
 -1       197-2.38798E+00-4.74999E-01 2.45000E+00
 -1       198-5.28227E+00-4.74999E-01 5.00000E-01
 -1       199-5.28227E+00 9.50000E-01 5.00000E-01
 -1       200-5.28227E+00 4.74999E-01 5.00000E-01
 -1       201-5.28227E+00-9.50000E-01 2.45000E+00
 -1       202-5.28227E+00-9.50000E-01 5.00000E-01
 -1       203-8.13414E+00 9.50000E-01 2.45000E+00
 -1       204-8.13414E+00-4.74999E-01 5.00000E-01
 -1       205-8.13414E+00-4.74999E-01 2.45000E+00
 -1       206-5.28227E+00 9.50000E-01 2.45000E+00
 -1       207-8.13414E+00 9.50000E-01 5.00000E-01
 -1       208-8.13414E+00-9.50000E-01 2.45000E+00
 -1       209-2.32070E+00-4.61617E-01 5.00000E-01
 -1       210-1.04329E+01-3.80730E+00 2.45000E+00
 -1       211-1.00693E+01-4.68498E+00 5.00000E-01
 -1       212-2.02443E+00-1.35268E+00 2.45000E+00
 -1       213-4.69840E+00-2.46028E+00 5.00000E-01
 -1       214-2.38798E+00-4.74999E-01 5.00000E-01
 -1       215-5.24373E+00-1.14375E+00 5.00000E-01
 -1       216-7.87852E+00-2.23512E+00 5.00000E-01
 -1       217-7.69674E+00-2.67396E+00 5.00000E-01
 -1       218-7.15142E+00-3.99049E+00 2.45000E+00
 -1       219-7.87852E+00-2.23512E+00 2.45000E+00
 -1       220-7.15142E+00-3.99049E+00 5.00000E-01
 -1       221-4.51663E+00-2.89912E+00 2.45000E+00
 -1       222-8.18172E+00-7.50997E+00 2.45000E+00
 -1       223-7.50997E+00-8.18172E+00 5.00000E-01
 -1       224-3.39925E+00-4.07100E+00 5.00000E-01
 -1       225-6.42346E+00-5.07995E+00 2.45000E+00
 -1       226-6.08758E+00-5.41583E+00 5.00000E-01
 -1       227-5.07995E+00-6.42346E+00 2.45000E+00
 -1       228-4.40688E+00-3.06338E+00 2.45000E+00
 -1       229-5.07995E+00-6.42346E+00 5.00000E-01
 -1       230-1.31457E+00-1.96740E+00 2.45000E+00
 -1       231-1.31457E+00-1.96740E+00 5.00000E-01
 -1       232-4.68498E+00-1.00693E+01 2.45000E+00
 -1       233-3.80730E+00-1.04329E+01 2.45000E+00
 -1       234-4.74999E-01-2.38798E+00 5.00000E-01
 -1       235-1.58259E+00-5.06195E+00 2.45000E+00
 -1       236-1.35268E+00-2.02443E+00 2.45000E+00
 -1       237-2.46028E+00-4.69840E+00 2.45000E+00
 -1       238-3.55164E+00-7.33319E+00 2.45000E+00
 -1       239-2.46028E+00-4.69840E+00 5.00000E-01
 -1       240-1.14375E+00-5.24373E+00 2.45000E+00
 -1       241-3.99049E+00-7.15142E+00 5.00000E-01
 -1       242-3.99049E+00-7.15142E+00 2.45000E+00
 -1       243-2.67396E+00-7.69674E+00 2.45000E+00
 -1       244-2.23512E+00-7.87852E+00 2.45000E+00
 -1       245 4.61617E-01-2.32070E+00 5.00000E-01
 -1       246 4.61617E-01-2.32070E+00 2.45000E+00
 -1       247-4.61617E-01-2.32070E+00 2.45000E+00
 -1       248-4.61617E-01-2.32070E+00 5.00000E-01
 -1       249 4.74999E-01-1.10957E+01 2.45000E+00
 -1       250 4.74999E-01-2.38798E+00 5.00000E-01
 -1       251-4.74999E-01-1.10957E+01 5.00000E-01
 -1       252-4.74999E-01-8.13414E+00 5.00000E-01
 -1       253-4.74999E-01-1.10957E+01 2.45000E+00
 -1       254 9.50000E-01-5.28227E+00 2.45000E+00
 -1       255 4.74999E-01-5.28227E+00 5.00000E-01
 -1       256-9.50000E-01-8.13414E+00 5.00000E-01
 -1       257-9.50000E-01-8.13414E+00 2.45000E+00
 -1       258 4.74999E-01-8.13414E+00 2.45000E+00
 -1       259 4.74999E-01-8.13414E+00 5.00000E-01
 -1       260 9.50000E-01-8.13414E+00 5.00000E-01
 -1       261-9.50000E-01-5.28227E+00 5.00000E-01
 -1       262-9.50000E-01-5.28227E+00 2.45000E+00
 -1       263 9.50000E-01-5.28227E+00 5.00000E-01
 -1       264 1.31457E+00-1.96740E+00 5.00000E-01
 -1       265 4.68498E+00-1.00693E+01 2.45000E+00
 -1       266 1.35268E+00-2.02443E+00 5.00000E-01
 -1       267 1.58259E+00-5.06195E+00 5.00000E-01
 -1       268 2.23512E+00-7.87852E+00 2.45000E+00
 -1       269 3.55164E+00-7.33319E+00 5.00000E-01
 -1       270 3.99049E+00-7.15142E+00 2.45000E+00
 -1       271 3.99049E+00-7.15142E+00 5.00000E-01
 -1       272 2.23512E+00-7.87852E+00 5.00000E-01
 -1       273 1.31457E+00-1.96740E+00 2.45000E+00
 -1       274 8.18172E+00-7.50997E+00 2.45000E+00
 -1       275 6.08758E+00-5.41583E+00 5.00000E-01
 -1       276 5.41583E+00-6.08758E+00 5.00000E-01
 -1       277 3.06338E+00-4.40688E+00 2.45000E+00
 -1       278 4.07100E+00-3.39925E+00 5.00000E-01
 -1       279 4.40688E+00-3.06338E+00 2.45000E+00
 -1       280 5.07995E+00-6.42346E+00 2.45000E+00
 -1       281 3.06338E+00-4.40688E+00 5.00000E-01
 -1       282 4.40688E+00-3.06338E+00 5.00000E-01
 -1       283 6.42346E+00-5.07995E+00 5.00000E-01
 -1       284 1.96740E+00-1.31457E+00 5.00000E-01
 -1       285 1.00693E+01-4.68498E+00 2.45000E+00
 -1       286 1.04329E+01-3.80730E+00 2.45000E+00
 -1       287 7.69674E+00-2.67396E+00 5.00000E-01
 -1       288 7.33319E+00-3.55164E+00 5.00000E-01
 -1       289 5.24373E+00-1.14375E+00 2.45000E+00
 -1       290 5.06195E+00-1.58259E+00 5.00000E-01
 -1       291 7.15142E+00-3.99049E+00 2.45000E+00
 -1       292 4.51663E+00-2.89912E+00 2.45000E+00
 -1       293 7.87852E+00-2.23512E+00 2.45000E+00
 -1       294 1.47118E+01-2.92635E+00 5.00000E-01
 -1       295 1.50000E+01 0.00000E+00-5.00000E-01
 -1       296-2.92635E+00-1.47118E+01 5.00000E-01
 -1       297-5.74025E+00-1.38582E+01-5.00000E-01
 -1       298-2.92635E+00-1.47118E+01-5.00000E-01
 -1       299 1.24720E+01 8.33355E+00 5.00000E-01
 -1       300 1.06066E+01 1.06066E+01-5.00000E-01
 -1       301-5.74025E+00 1.38582E+01 5.00000E-01
 -1       302-1.24720E+01 8.33355E+00 5.00000E-01
 -1       303 1.47118E+01 2.92635E+00-5.00000E-01
 -1       304-1.47118E+01 2.92635E+00 5.00000E-01
 -1       305-1.50000E+01 0.00000E+00-5.00000E-01
 -1       306-8.33355E+00 1.24720E+01 5.00000E-01
 -1       307-5.74025E+00 1.38582E+01-5.00000E-01
 -1       308-2.92635E+00 1.47118E+01 5.00000E-01
 -1       309-8.33355E+00 1.24720E+01-5.00000E-01
 -1       310 5.74025E+00-1.38582E+01 5.00000E-01
 -1       311 0.00000E+00-1.50000E+01 5.00000E-01
 -1       312-8.33355E+00-1.24720E+01 5.00000E-01
 -1       313-1.50000E+01 0.00000E+00 5.00000E-01
 -1       314 1.38582E+01 5.74025E+00-5.00000E-01
 -1       315 1.24720E+01 8.33355E+00-5.00000E-01
 -1       316 8.33355E+00 1.24720E+01-5.00000E-01
 -1       317 5.74025E+00-1.38582E+01-5.00000E-01
 -1       318 2.92635E+00-1.47118E+01-5.00000E-01
 -1       319 0.00000E+00-1.50000E+01-5.00000E-01
 -1       320 2.92635E+00 1.47118E+01-5.00000E-01
 -1       321 0.00000E+00 1.50000E+01-5.00000E-01
 -1       322-2.92635E+00 1.47118E+01-5.00000E-01
 -1       323-1.06066E+01-1.06066E+01-5.00000E-01
 -1       324-1.06066E+01 1.06066E+01-5.00000E-01
 -1       325-1.24720E+01-8.33355E+00-5.00000E-01
 -1       326-1.24720E+01 8.33355E+00-5.00000E-01
 -1       327-1.38582E+01 5.74025E+00-5.00000E-01
 -1       328-1.38582E+01-5.74025E+00-5.00000E-01
 -1       329 5.74025E+00 1.38582E+01-5.00000E-01
 -1       330 2.92635E+00 1.47118E+01 5.00000E-01
 -1       331-5.06195E+00-1.58259E+00 5.00000E-01
 -1       332-4.40688E+00-3.06338E+00 5.00000E-01
 -1       333-4.07100E+00-3.39925E+00 5.00000E-01
 -1       334-4.51663E+00-2.89912E+00 5.00000E-01
 -1       335-2.02443E+00-1.35268E+00 5.00000E-01
 -1       336-6.42346E+00-5.07995E+00 5.00000E-01
 -1       337-2.89912E+00-4.51663E+00 5.00000E-01
 -1       338-3.06338E+00-4.40688E+00 5.00000E-01
 -1       339-1.35268E+00-2.02443E+00 5.00000E-01
 -1       340-3.55164E+00-7.33319E+00 5.00000E-01
 -1       341-4.68498E+00-1.00693E+01 5.00000E-01
 -1       342-3.55164E+00 7.33319E+00 5.00000E-01
 -1       343-3.99049E+00 7.15142E+00 5.00000E-01
 -1       344-5.07995E+00 6.42346E+00 5.00000E-01
 -1       345-2.46028E+00 4.69840E+00 5.00000E-01
 -1       346-4.74999E-01-5.28227E+00 5.00000E-01
 -1       347-1.58259E+00-5.06195E+00 5.00000E-01
 -1       348 1.14375E+00-5.24373E+00 5.00000E-01
 -1       349 3.39925E+00-4.07100E+00 5.00000E-01
 -1       350 2.89912E+00-4.51663E+00 5.00000E-01
 -1       351 2.46028E+00-4.69840E+00 5.00000E-01
 -1       352 2.02443E+00-1.35268E+00 5.00000E-01
 -1       353 4.69840E+00-2.46028E+00 5.00000E-01
 -1       354 2.38798E+00-4.74999E-01 5.00000E-01
 -1       355 5.24373E+00-1.14375E+00 5.00000E-01
 -1       356 4.51663E+00-2.89912E+00 5.00000E-01
 -1       357 1.04329E+01 3.80730E+00 5.00000E-01
 -1       358 1.06066E+01 1.06066E+01 5.00000E-01
 -1       359 5.74025E+00 1.38582E+01 5.00000E-01
 -1       360 7.50997E+00 8.18172E+00 5.00000E-01
 -1       361 3.80730E+00 1.04329E+01 5.00000E-01
 -1       362 2.23512E+00 7.87852E+00 5.00000E-01
 -1       363 0.00000E+00 1.50000E+01 5.00000E-01
 -1       364-9.50000E-01 8.13414E+00 5.00000E-01
 -1       365-2.23512E+00 7.87852E+00 5.00000E-01
 -1       366-4.74999E-01 1.10957E+01 5.00000E-01
 -1       367-3.80730E+00 1.04329E+01 5.00000E-01
 -1       368-7.50997E+00 8.18172E+00 5.00000E-01
 -1       369-1.06066E+01 1.06066E+01 5.00000E-01
 -1       370 8.33355E+00 1.24720E+01 5.00000E-01
 -1       371 7.15142E+00 3.99049E+00 5.00000E-01
 -1       372 7.33319E+00 3.55164E+00 5.00000E-01
 -1       373 8.18172E+00 7.50997E+00 5.00000E-01
 -1       374 1.47118E+01 2.92635E+00 5.00000E-01
 -1       375 1.10957E+01 4.74999E-01 5.00000E-01
 -1       376 1.38582E+01 5.74025E+00 5.00000E-01
 -1       377 1.50000E+01 0.00000E+00 5.00000E-01
 -1       378 1.10957E+01-4.74999E-01 5.00000E-01
 -1       379 8.13414E+00 4.74999E-01 5.00000E-01
 -1       380 1.04329E+01-3.80730E+00 5.00000E-01
 -1       381 8.13414E+00-9.50000E-01 5.00000E-01
 -1       382 7.87852E+00-2.23512E+00 5.00000E-01
 -1       383 1.00693E+01-4.68498E+00 5.00000E-01
 -1       384 7.15142E+00-3.99049E+00 5.00000E-01
 -1       385 8.18172E+00-7.50997E+00 5.00000E-01
 -1       386 4.68498E+00-1.00693E+01 5.00000E-01
 -1       387 7.50997E+00-8.18172E+00 5.00000E-01
 -1       388 5.07995E+00-6.42346E+00 5.00000E-01
 -1       389 8.33355E+00-1.24720E+01 5.00000E-01
 -1       390 3.80730E+00-1.04329E+01 5.00000E-01
 -1       391 2.67396E+00-7.69674E+00 5.00000E-01
 -1       392 4.74999E-01-1.10957E+01 5.00000E-01
 -1       393 2.92635E+00-1.47118E+01 5.00000E-01
 -1       394-2.23512E+00-7.87852E+00 5.00000E-01
 -1       395-1.14375E+00-5.24373E+00 5.00000E-01
 -1       396-2.67396E+00-7.69674E+00 5.00000E-01
 -1       397-3.80730E+00-1.04329E+01 5.00000E-01
 -1       398-5.41583E+00-6.08758E+00 5.00000E-01
 -1       399-5.74025E+00-1.38582E+01 5.00000E-01
 -1       400 5.28227E+00 9.50000E-01 5.00000E-01
 -1       401 7.87852E+00 2.23512E+00 5.00000E-01
 -1       402 2.38798E+00 4.74999E-01 5.00000E-01
 -1       403 6.42346E+00 5.07995E+00 5.00000E-01
 -1       404 5.07995E+00 6.42346E+00 5.00000E-01
 -1       405 3.06338E+00 4.40688E+00 5.00000E-01
 -1       406 2.02443E+00 1.35268E+00 5.00000E-01
 -1       407 4.40688E+00 3.06338E+00 5.00000E-01
 -1       408 2.89912E+00 4.51663E+00 5.00000E-01
 -1       409 1.35268E+00 2.02443E+00 5.00000E-01
 -1       410 9.50000E-01 5.28227E+00 5.00000E-01
 -1       411-9.50000E-01 5.28227E+00 5.00000E-01
 -1       412-4.74999E-01 2.38798E+00 5.00000E-01
 -1       413-1.14375E+00 5.24373E+00 5.00000E-01
 -1       414-1.58259E+00 5.06195E+00 5.00000E-01
 -1       415-7.33319E+00-3.55164E+00 5.00000E-01
 -1       416-8.18172E+00-7.50997E+00 5.00000E-01
 -1       417-1.06066E+01-1.06066E+01 5.00000E-01
 -1       418-1.04329E+01-3.80730E+00 5.00000E-01
 -1       419-6.08758E+00 5.41583E+00 5.00000E-01
 -1       420-7.15142E+00 3.99049E+00 5.00000E-01
 -1       421-4.40688E+00 3.06338E+00 5.00000E-01
 -1       422-6.42346E+00 5.07995E+00 5.00000E-01
 -1       423-4.51663E+00 2.89912E+00 5.00000E-01
 -1       424-8.13414E+00 4.74999E-01 5.00000E-01
 -1       425-1.04329E+01 3.80730E+00 5.00000E-01
 -1       426-1.00693E+01 4.68498E+00 5.00000E-01
 -1       427-2.38798E+00 4.74999E-01 5.00000E-01
 -1       428-8.13414E+00-9.50000E-01 5.00000E-01
 -1       429-1.10957E+01 4.74999E-01 5.00000E-01
 -1       430 1.96740E+00 1.31457E+00 5.00000E-01
 -1       431-4.61617E-01 2.32070E+00 5.00000E-01
 -1       432-1.31457E+00 1.96740E+00 5.00000E-01
 -1       433-1.96740E+00-1.31457E+00 5.00000E-01
 -1       434-1.38582E+01 5.74025E+00 5.00000E-01
 -1       435-1.47118E+01 2.92635E+00-5.00000E-01
 -1       436 1.06066E+01-1.06066E+01 5.00000E-01
 -1       437 1.24720E+01-8.33355E+00 5.00000E-01
 -1       438 8.33355E+00-1.24720E+01-5.00000E-01
 -1       439 1.06066E+01-1.06066E+01-5.00000E-01
 -1       440-8.33355E+00-1.24720E+01-5.00000E-01
 -1       441-1.47118E+01-2.92635E+00 5.00000E-01
 -1       442-1.47118E+01-2.92635E+00-5.00000E-01
 -1       443-1.38582E+01-5.74025E+00 5.00000E-01
 -1       444-1.24720E+01-8.33355E+00 5.00000E-01
 -1       445 1.38582E+01-5.74025E+00-5.00000E-01
 -1       446 1.24720E+01-8.33355E+00-5.00000E-01
 -1       447 1.47118E+01-2.92635E+00-5.00000E-01
 -1       448 1.38582E+01-5.74025E+00 5.00000E-01
 -1       449 2.32070E+00 4.61617E-01 1.47500E+00
 -1       450 2.32070E+00-4.61617E-01 1.47500E+00
 -1       451-5.83402E+00 3.44480E+00 2.45000E+00
 -1       452-6.56112E+00 1.68944E+00 2.45000E+00
 -1       453-3.44480E+00-5.83402E+00 2.45000E+00
 -1       454-3.44480E+00 5.83402E+00 2.45000E+00
 -1       455-4.07166E+00 5.41517E+00 2.45000E+00
 -1       456-5.41517E+00 4.07166E+00 2.45000E+00
 -1       457-3.83512E+00 4.74999E-01 2.45000E+00
 -1       458-3.83512E+00-4.74999E-01 2.45000E+00
 -1       459-3.36141E+00-1.90648E+00 2.45000E+00
 -1       460-3.72497E+00-1.02879E+00 2.45000E+00
 -1       461-1.68944E+00-6.56112E+00 2.45000E+00
 -1       462-3.36141E+00 1.90648E+00 2.45000E+00
 -1       463-3.72497E+00 1.02879E+00 2.45000E+00
 -1       464-1.68944E+00 6.56112E+00 2.45000E+00
 -1       465 1.68944E+00 6.56112E+00 2.45000E+00
 -1       466 4.11831E+00 8.70125E+00 2.45000E+00
 -1       467 3.24063E+00 9.06482E+00 2.45000E+00
 -1       468 1.90648E+00 3.36141E+00 2.45000E+00
 -1       469 1.02879E+00 3.72497E+00 2.45000E+00
 -1       470 3.44480E+00 5.83402E+00 2.45000E+00
 -1       471 3.04771E+00 2.37597E+00 2.45000E+00
 -1       472 2.37597E+00 3.04771E+00 2.45000E+00
 -1       473 3.72497E+00 1.02879E+00 2.45000E+00
 -1       474 3.36141E+00 1.90648E+00 2.45000E+00
 -1       475 3.83512E+00 4.74999E-01 2.45000E+00
 -1       476 3.83512E+00-4.74999E-01 2.45000E+00
 -1       477 6.70821E+00 9.50000E-01 2.45000E+00
 -1       478 6.70821E+00-9.50000E-01 2.45000E+00
 -1       479 9.61492E+00 4.74999E-01 2.45000E+00
 -1       480 9.61492E+00-4.74999E-01 2.45000E+00
 -1       481 3.44480E+00-5.83402E+00 2.45000E+00
 -1       482 7.13465E+00 6.46290E+00 2.45000E+00
 -1       483 6.46290E+00 7.13465E+00 2.45000E+00
 -1       484 9.06482E+00 3.24063E+00 2.45000E+00
 -1       485 8.70125E+00 4.11831E+00 2.45000E+00
 -1       486 6.56112E+00 1.68944E+00 2.45000E+00
 -1       487 5.83402E+00 3.44480E+00 2.45000E+00
 -1       488 5.41517E+00 4.07166E+00 2.45000E+00
 -1       489 4.07166E+00 5.41517E+00 2.45000E+00
 -1       490 4.11831E+00-8.70125E+00 2.45000E+00
 -1       491 3.24063E+00-9.06482E+00 2.45000E+00
 -1       492 1.90648E+00-3.36141E+00 2.45000E+00
 -1       493 1.02879E+00-3.72497E+00 2.45000E+00
 -1       494 4.74999E-01-3.83512E+00 2.45000E+00
 -1       495-4.74999E-01-3.83512E+00 2.45000E+00
 -1       496 4.74999E-01-9.61492E+00 2.45000E+00
 -1       497-4.74999E-01-9.61492E+00 2.45000E+00
 -1       498 3.72497E+00-1.02879E+00 2.45000E+00
 -1       499 3.36141E+00-1.90648E+00 2.45000E+00
 -1       500 6.56112E+00-1.68944E+00 2.45000E+00
 -1       501 5.83402E+00-3.44480E+00 2.45000E+00
 -1       502 9.06482E+00-3.24063E+00 2.45000E+00
 -1       503 8.70125E+00-4.11831E+00 2.45000E+00
 -1       504 3.04771E+00-2.37597E+00 2.45000E+00
 -1       505 2.37597E+00-3.04771E+00 2.45000E+00
 -1       506 5.41517E+00-4.07166E+00 2.45000E+00
 -1       507 4.07166E+00-5.41517E+00 2.45000E+00
 -1       508 7.13465E+00-6.46290E+00 2.45000E+00
 -1       509 6.46290E+00-7.13465E+00 2.45000E+00
 -1       510 1.68944E+00-6.56112E+00 2.45000E+00
 -1       511-9.50000E-01-6.70821E+00 2.45000E+00
 -1       512-1.02879E+00-3.72497E+00 2.45000E+00
 -1       513-1.90648E+00-3.36141E+00 2.45000E+00
 -1       514-3.24063E+00-9.06482E+00 2.45000E+00
 -1       515-4.11831E+00-8.70125E+00 2.45000E+00
 -1       516-9.50000E-01 6.70821E+00 2.45000E+00
 -1       517 4.74999E-01 9.61492E+00 2.45000E+00
 -1       518 4.74999E-01 3.83512E+00 2.45000E+00
 -1       519-4.74999E-01 3.83512E+00 2.45000E+00
 -1       520-4.74999E-01 9.61492E+00 2.45000E+00
 -1       521-1.02879E+00 3.72497E+00 2.45000E+00
 -1       522-1.90648E+00 3.36141E+00 2.45000E+00
 -1       523-3.24063E+00 9.06482E+00 2.45000E+00
 -1       524-4.11831E+00 8.70125E+00 2.45000E+00
 -1       525 9.50000E-01 6.70821E+00 2.45000E+00
 -1       526 9.50000E-01-6.70821E+00 2.45000E+00
 -1       527-2.37597E+00-3.04771E+00 2.45000E+00
 -1       528-3.04771E+00-2.37597E+00 2.45000E+00
 -1       529-2.37597E+00 3.04771E+00 2.45000E+00
 -1       530-3.04771E+00 2.37597E+00 2.45000E+00
 -1       531-4.07166E+00-5.41517E+00 2.45000E+00
 -1       532-5.41517E+00-4.07166E+00 2.45000E+00
 -1       533-5.83402E+00-3.44480E+00 2.45000E+00
 -1       534-6.56112E+00-1.68944E+00 2.45000E+00
 -1       535-9.61492E+00 4.74999E-01 2.45000E+00
 -1       536-9.61492E+00-4.74999E-01 2.45000E+00
 -1       537-8.70125E+00 4.11831E+00 2.45000E+00
 -1       538-9.06482E+00 3.24063E+00 2.45000E+00
 -1       539-6.46290E+00 7.13465E+00 2.45000E+00
 -1       540-7.13465E+00 6.46290E+00 2.45000E+00
 -1       541-6.70821E+00 9.50000E-01 2.45000E+00
 -1       542-6.70821E+00-9.50000E-01 2.45000E+00
 -1       543-6.46290E+00-7.13465E+00 2.45000E+00
 -1       544-7.13465E+00-6.46290E+00 2.45000E+00
 -1       545-8.70125E+00-4.11831E+00 2.45000E+00
 -1       546-9.06482E+00-3.24063E+00 2.45000E+00
 -1       547 1.10957E+01 4.74999E-01 1.47500E+00
 -1       548 1.10957E+01-4.74999E-01 1.47500E+00
 -1       549 9.61492E+00 4.74999E-01 5.00000E-01
 -1       550 8.13414E+00 4.74999E-01 1.47500E+00
 -1       551 5.28227E+00 4.74999E-01 1.47500E+00
 -1       552 3.83512E+00 4.74999E-01 5.00000E-01
 -1       553 2.38798E+00 4.74999E-01 1.47500E+00
 -1       554 2.38798E+00-4.74999E-01 1.47500E+00
 -1       555 3.83512E+00-4.74999E-01 5.00000E-01
 -1       556 5.28227E+00-4.74999E-01 1.47500E+00
 -1       557 8.13414E+00-4.74999E-01 1.47500E+00
 -1       558 9.61492E+00-4.74999E-01 5.00000E-01
 -1       559 5.28227E+00-9.50000E-01 1.47500E+00
 -1       560 5.28227E+00 9.50000E-01 1.47500E+00
 -1       561 8.13414E+00-9.50000E-01 1.47500E+00
 -1       562 8.13414E+00 9.50000E-01 1.47500E+00
 -1       563 6.70821E+00-9.50000E-01 5.00000E-01
 -1       564 6.70821E+00 9.50000E-01 5.00000E-01
 -1       565 1.96740E+00 1.31457E+00 1.47500E+00
 -1       566 1.00693E+01 4.68498E+00 1.47500E+00
 -1       567 1.04329E+01 3.80730E+00 1.47500E+00
 -1       568 8.70125E+00 4.11831E+00 5.00000E-01
 -1       569 7.33319E+00 3.55164E+00 1.47500E+00
 -1       570 4.69840E+00 2.46028E+00 1.47500E+00
 -1       571 3.36141E+00 1.90648E+00 5.00000E-01
 -1       572 2.02443E+00 1.35268E+00 1.47500E+00
 -1       573 3.72497E+00 1.02879E+00 5.00000E-01
 -1       574 5.06195E+00 1.58259E+00 1.47500E+00
 -1       575 7.69674E+00 2.67396E+00 1.47500E+00
 -1       576 9.06482E+00 3.24063E+00 5.00000E-01
 -1       577 5.24373E+00 1.14375E+00 1.47500E+00
 -1       578 4.51663E+00 2.89912E+00 1.47500E+00
 -1       579 7.87852E+00 2.23512E+00 1.47500E+00
 -1       580 7.15142E+00 3.99049E+00 1.47500E+00
 -1       581 6.56112E+00 1.68944E+00 5.00000E-01
 -1       582 5.83402E+00 3.44480E+00 5.00000E-01
 -1       583 1.31457E+00 1.96740E+00 1.47500E+00
 -1       584 7.50997E+00 8.18172E+00 1.47500E+00
 -1       585 8.18172E+00 7.50997E+00 1.47500E+00
 -1       586 6.46290E+00 7.13465E+00 5.00000E-01
 -1       587 5.41583E+00 6.08758E+00 1.47500E+00
 -1       588 3.39925E+00 4.07100E+00 1.47500E+00
 -1       589 2.37597E+00 3.04771E+00 5.00000E-01
 -1       590 1.35268E+00 2.02443E+00 1.47500E+00
 -1       591 4.07100E+00 3.39925E+00 1.47500E+00
 -1       592 3.04771E+00 2.37597E+00 5.00000E-01
 -1       593 6.08758E+00 5.41583E+00 1.47500E+00
 -1       594 7.13465E+00 6.46290E+00 5.00000E-01
 -1       595 4.40688E+00 3.06338E+00 1.47500E+00
 -1       596 3.06338E+00 4.40688E+00 1.47500E+00
 -1       597 6.42346E+00 5.07995E+00 1.47500E+00
 -1       598 5.07995E+00 6.42346E+00 1.47500E+00
 -1       599 5.41517E+00 4.07166E+00 5.00000E-01
 -1       600 4.07166E+00 5.41517E+00 5.00000E-01
 -1       601 4.61617E-01 2.32070E+00 1.47500E+00
 -1       602 4.68498E+00 1.00693E+01 1.47500E+00
 -1       603 3.80730E+00 1.04329E+01 1.47500E+00
 -1       604 3.24063E+00 9.06482E+00 5.00000E-01
 -1       605 2.67396E+00 7.69674E+00 1.47500E+00
 -1       606 1.58259E+00 5.06195E+00 1.47500E+00
 -1       607 1.02879E+00 3.72497E+00 5.00000E-01
 -1       608 4.74999E-01 2.38798E+00 1.47500E+00
 -1       609 2.46028E+00 4.69840E+00 1.47500E+00
 -1       610 1.90648E+00 3.36141E+00 5.00000E-01
 -1       611 3.55164E+00 7.33319E+00 1.47500E+00
 -1       612 4.11831E+00 8.70125E+00 5.00000E-01
 -1       613 2.89912E+00 4.51663E+00 1.47500E+00
 -1       614 1.14375E+00 5.24373E+00 1.47500E+00
 -1       615 3.99049E+00 7.15142E+00 1.47500E+00
 -1       616 2.23512E+00 7.87852E+00 1.47500E+00
 -1       617 3.44480E+00 5.83402E+00 5.00000E-01
 -1       618 1.68944E+00 6.56112E+00 5.00000E-01
 -1       619-4.61617E-01 2.32070E+00 1.47500E+00
 -1       620 4.74999E-01 1.10957E+01 1.47500E+00
 -1       621-4.74999E-01 1.10957E+01 1.47500E+00
 -1       622-4.74999E-01 9.61492E+00 5.00000E-01
 -1       623-4.74999E-01 8.13414E+00 1.47500E+00
 -1       624-4.74999E-01 5.28227E+00 1.47500E+00
 -1       625-4.74999E-01 3.83512E+00 5.00000E-01
 -1       626-4.74999E-01 2.38798E+00 1.47500E+00
 -1       627 4.74999E-01 5.28227E+00 1.47500E+00
 -1       628 4.74999E-01 3.83512E+00 5.00000E-01
 -1       629 4.74999E-01 8.13414E+00 1.47500E+00
 -1       630 4.74999E-01 9.61492E+00 5.00000E-01
 -1       631 9.50000E-01 5.28227E+00 1.47500E+00
 -1       632-9.50000E-01 5.28227E+00 1.47500E+00
 -1       633 9.50000E-01 8.13414E+00 1.47500E+00
 -1       634-9.50000E-01 8.13414E+00 1.47500E+00
 -1       635 9.50000E-01 6.70821E+00 5.00000E-01
 -1       636-9.50000E-01 6.70821E+00 5.00000E-01
 -1       637-1.31457E+00 1.96740E+00 1.47500E+00
 -1       638-3.80730E+00 1.04329E+01 1.47500E+00
 -1       639-4.68498E+00 1.00693E+01 1.47500E+00
 -1       640-4.11831E+00 8.70125E+00 5.00000E-01
 -1       641-3.55164E+00 7.33319E+00 1.47500E+00
 -1       642-2.46028E+00 4.69840E+00 1.47500E+00
 -1       643-1.90648E+00 3.36141E+00 5.00000E-01
 -1       644-1.35268E+00 2.02443E+00 1.47500E+00
 -1       645-1.58259E+00 5.06195E+00 1.47500E+00
 -1       646-1.02879E+00 3.72497E+00 5.00000E-01
 -1       647-2.67396E+00 7.69674E+00 1.47500E+00
 -1       648-3.24063E+00 9.06482E+00 5.00000E-01
 -1       649-1.14375E+00 5.24373E+00 1.47500E+00
 -1       650-2.89912E+00 4.51663E+00 1.47500E+00
 -1       651-2.23512E+00 7.87852E+00 1.47500E+00
 -1       652-3.99049E+00 7.15142E+00 1.47500E+00
 -1       653-1.68944E+00 6.56112E+00 5.00000E-01
 -1       654-3.44480E+00 5.83402E+00 5.00000E-01
 -1       655-1.96740E+00 1.31457E+00 1.47500E+00
 -1       656-7.50997E+00 8.18172E+00 1.47500E+00
 -1       657-8.18172E+00 7.50997E+00 1.47500E+00
 -1       658-7.13465E+00 6.46290E+00 5.00000E-01
 -1       659-6.08758E+00 5.41583E+00 1.47500E+00
 -1       660-4.07100E+00 3.39925E+00 1.47500E+00
 -1       661-3.04771E+00 2.37597E+00 5.00000E-01
 -1       662-2.02443E+00 1.35268E+00 1.47500E+00
 -1       663-3.39925E+00 4.07100E+00 1.47500E+00
 -1       664-2.37597E+00 3.04771E+00 5.00000E-01
 -1       665-5.41583E+00 6.08758E+00 1.47500E+00
 -1       666-6.46290E+00 7.13465E+00 5.00000E-01
 -1       667-3.06338E+00 4.40688E+00 1.47500E+00
 -1       668-4.40688E+00 3.06338E+00 1.47500E+00
 -1       669-5.07995E+00 6.42346E+00 1.47500E+00
 -1       670-6.42346E+00 5.07995E+00 1.47500E+00
 -1       671-4.07166E+00 5.41517E+00 5.00000E-01
 -1       672-5.41517E+00 4.07166E+00 5.00000E-01
 -1       673-2.32070E+00 4.61617E-01 1.47500E+00
 -1       674-1.00693E+01 4.68498E+00 1.47500E+00
 -1       675-1.04329E+01 3.80730E+00 1.47500E+00
 -1       676-9.06482E+00 3.24063E+00 5.00000E-01
 -1       677-7.69674E+00 2.67396E+00 1.47500E+00
 -1       678-5.06195E+00 1.58259E+00 1.47500E+00
 -1       679-3.72497E+00 1.02879E+00 5.00000E-01
 -1       680-2.38798E+00 4.74999E-01 1.47500E+00
 -1       681-3.36141E+00 1.90648E+00 5.00000E-01
 -1       682-4.69840E+00 2.46028E+00 1.47500E+00
 -1       683-7.33319E+00 3.55164E+00 1.47500E+00
 -1       684-8.70125E+00 4.11831E+00 5.00000E-01
 -1       685-4.51663E+00 2.89912E+00 1.47500E+00
 -1       686-5.24373E+00 1.14375E+00 1.47500E+00
 -1       687-7.15142E+00 3.99049E+00 1.47500E+00
 -1       688-7.87852E+00 2.23512E+00 1.47500E+00
 -1       689-5.83402E+00 3.44480E+00 5.00000E-01
 -1       690-6.56112E+00 1.68944E+00 5.00000E-01
 -1       691-2.32070E+00-4.61617E-01 1.47500E+00
 -1       692-1.10957E+01 4.74999E-01 1.47500E+00
 -1       693-1.10957E+01-4.74999E-01 1.47500E+00
 -1       694-9.61492E+00-4.74999E-01 5.00000E-01
 -1       695-8.13414E+00-4.74999E-01 1.47500E+00
 -1       696-5.28227E+00-4.74999E-01 1.47500E+00
 -1       697-3.83512E+00-4.74999E-01 5.00000E-01
 -1       698-2.38798E+00-4.74999E-01 1.47500E+00
 -1       699-3.83512E+00 4.74999E-01 5.00000E-01
 -1       700-5.28227E+00 4.74999E-01 1.47500E+00
 -1       701-8.13414E+00 4.74999E-01 1.47500E+00
 -1       702-9.61492E+00 4.74999E-01 5.00000E-01
 -1       703-5.28227E+00 9.50000E-01 1.47500E+00
 -1       704-5.28227E+00-9.50000E-01 1.47500E+00
 -1       705-8.13414E+00 9.50000E-01 1.47500E+00
 -1       706-8.13414E+00-9.50000E-01 1.47500E+00
 -1       707-6.70821E+00 9.50000E-01 5.00000E-01
 -1       708-6.70821E+00-9.50000E-01 5.00000E-01
 -1       709-1.96740E+00-1.31457E+00 1.47500E+00
 -1       710-1.04329E+01-3.80730E+00 1.47500E+00
 -1       711-1.00693E+01-4.68498E+00 1.47500E+00
 -1       712-8.70125E+00-4.11831E+00 5.00000E-01
 -1       713-7.33319E+00-3.55164E+00 1.47500E+00
 -1       714-4.69840E+00-2.46028E+00 1.47500E+00
 -1       715-3.36141E+00-1.90648E+00 5.00000E-01
 -1       716-2.02443E+00-1.35268E+00 1.47500E+00
 -1       717-3.72497E+00-1.02879E+00 5.00000E-01
 -1       718-5.06195E+00-1.58259E+00 1.47500E+00
 -1       719-7.69674E+00-2.67396E+00 1.47500E+00
 -1       720-9.06482E+00-3.24063E+00 5.00000E-01
 -1       721-5.24373E+00-1.14375E+00 1.47500E+00
 -1       722-4.51663E+00-2.89912E+00 1.47500E+00
 -1       723-7.87852E+00-2.23512E+00 1.47500E+00
 -1       724-7.15142E+00-3.99049E+00 1.47500E+00
 -1       725-6.56112E+00-1.68944E+00 5.00000E-01
 -1       726-5.83402E+00-3.44480E+00 5.00000E-01
 -1       727-1.31457E+00-1.96740E+00 1.47500E+00
 -1       728-8.18172E+00-7.50997E+00 1.47500E+00
 -1       729-7.50997E+00-8.18172E+00 1.47500E+00
 -1       730-5.41583E+00-6.08758E+00 1.47500E+00
 -1       731-6.46290E+00-7.13465E+00 5.00000E-01
 -1       732-1.35268E+00-2.02443E+00 1.47500E+00
 -1       733-3.39925E+00-4.07100E+00 1.47500E+00
 -1       734-2.37597E+00-3.04771E+00 5.00000E-01
 -1       735-3.04771E+00-2.37597E+00 5.00000E-01
 -1       736-4.07100E+00-3.39925E+00 1.47500E+00
 -1       737-6.08758E+00-5.41583E+00 1.47500E+00
 -1       738-7.13465E+00-6.46290E+00 5.00000E-01
 -1       739-4.40688E+00-3.06338E+00 1.47500E+00
 -1       740-3.06338E+00-4.40688E+00 1.47500E+00
 -1       741-6.42346E+00-5.07995E+00 1.47500E+00
 -1       742-5.07995E+00-6.42346E+00 1.47500E+00
 -1       743-5.41517E+00-4.07166E+00 5.00000E-01
 -1       744-4.07166E+00-5.41517E+00 5.00000E-01
 -1       745-4.61617E-01-2.32070E+00 1.47500E+00
 -1       746-4.68498E+00-1.00693E+01 1.47500E+00
 -1       747-3.80730E+00-1.04329E+01 1.47500E+00
 -1       748-2.67396E+00-7.69674E+00 1.47500E+00
 -1       749-3.24063E+00-9.06482E+00 5.00000E-01
 -1       750-4.74999E-01-2.38798E+00 1.47500E+00
 -1       751-1.58259E+00-5.06195E+00 1.47500E+00
 -1       752-1.02879E+00-3.72497E+00 5.00000E-01
 -1       753-1.90648E+00-3.36141E+00 5.00000E-01
 -1       754-2.46028E+00-4.69840E+00 1.47500E+00
 -1       755-3.55164E+00-7.33319E+00 1.47500E+00
 -1       756-4.11831E+00-8.70125E+00 5.00000E-01
 -1       757-2.89912E+00-4.51663E+00 1.47500E+00
 -1       758-1.14375E+00-5.24373E+00 1.47500E+00
 -1       759-3.99049E+00-7.15142E+00 1.47500E+00
 -1       760-2.23512E+00-7.87852E+00 1.47500E+00
 -1       761-3.44480E+00-5.83402E+00 5.00000E-01
 -1       762-1.68944E+00-6.56112E+00 5.00000E-01
 -1       763 4.61617E-01-2.32070E+00 1.47500E+00
 -1       764-4.74999E-01-1.10957E+01 1.47500E+00
 -1       765 4.74999E-01-1.10957E+01 1.47500E+00
 -1       766 4.74999E-01-8.13414E+00 1.47500E+00
 -1       767 4.74999E-01-9.61492E+00 5.00000E-01
 -1       768 4.74999E-01-2.38798E+00 1.47500E+00
 -1       769 4.74999E-01-5.28227E+00 1.47500E+00
 -1       770 4.74999E-01-3.83512E+00 5.00000E-01
 -1       771-4.74999E-01-3.83512E+00 5.00000E-01
 -1       772-4.74999E-01-5.28227E+00 1.47500E+00
 -1       773-4.74999E-01-8.13414E+00 1.47500E+00
 -1       774-4.74999E-01-9.61492E+00 5.00000E-01
 -1       775-9.50000E-01-5.28227E+00 1.47500E+00
 -1       776 9.50000E-01-5.28227E+00 1.47500E+00
 -1       777-9.50000E-01-8.13414E+00 1.47500E+00
 -1       778 9.50000E-01-8.13414E+00 1.47500E+00
 -1       779-9.50000E-01-6.70821E+00 5.00000E-01
 -1       780 9.50000E-01-6.70821E+00 5.00000E-01
 -1       781 1.31457E+00-1.96740E+00 1.47500E+00
 -1       782 3.80730E+00-1.04329E+01 1.47500E+00
 -1       783 4.68498E+00-1.00693E+01 1.47500E+00
 -1       784 3.55164E+00-7.33319E+00 1.47500E+00
 -1       785 4.11831E+00-8.70125E+00 5.00000E-01
 -1       786 1.35268E+00-2.02443E+00 1.47500E+00
 -1       787 2.46028E+00-4.69840E+00 1.47500E+00
 -1       788 1.90648E+00-3.36141E+00 5.00000E-01
 -1       789 1.02879E+00-3.72497E+00 5.00000E-01
 -1       790 1.58259E+00-5.06195E+00 1.47500E+00
 -1       791 2.67396E+00-7.69674E+00 1.47500E+00
 -1       792 3.24063E+00-9.06482E+00 5.00000E-01
 -1       793 1.14375E+00-5.24373E+00 1.47500E+00
 -1       794 2.89912E+00-4.51663E+00 1.47500E+00
 -1       795 2.23512E+00-7.87852E+00 1.47500E+00
 -1       796 3.99049E+00-7.15142E+00 1.47500E+00
 -1       797 1.68944E+00-6.56112E+00 5.00000E-01
 -1       798 3.44480E+00-5.83402E+00 5.00000E-01
 -1       799 1.96740E+00-1.31457E+00 1.47500E+00
 -1       800 8.18172E+00-7.50997E+00 1.47500E+00
 -1       801 7.50997E+00-8.18172E+00 1.47500E+00
 -1       802 6.08758E+00-5.41583E+00 1.47500E+00
 -1       803 7.13465E+00-6.46290E+00 5.00000E-01
 -1       804 2.02443E+00-1.35268E+00 1.47500E+00
 -1       805 4.07100E+00-3.39925E+00 1.47500E+00
 -1       806 3.04771E+00-2.37597E+00 5.00000E-01
 -1       807 2.37597E+00-3.04771E+00 5.00000E-01
 -1       808 3.39925E+00-4.07100E+00 1.47500E+00
 -1       809 5.41583E+00-6.08758E+00 1.47500E+00
 -1       810 6.46290E+00-7.13465E+00 5.00000E-01
 -1       811 3.06338E+00-4.40688E+00 1.47500E+00
 -1       812 4.40688E+00-3.06338E+00 1.47500E+00
 -1       813 5.07995E+00-6.42346E+00 1.47500E+00
 -1       814 6.42346E+00-5.07995E+00 1.47500E+00
 -1       815 4.07166E+00-5.41517E+00 5.00000E-01
 -1       816 5.41517E+00-4.07166E+00 5.00000E-01
 -1       817 1.04329E+01-3.80730E+00 1.47500E+00
 -1       818 1.00693E+01-4.68498E+00 1.47500E+00
 -1       819 9.06482E+00-3.24063E+00 5.00000E-01
 -1       820 7.69674E+00-2.67396E+00 1.47500E+00
 -1       821 5.06195E+00-1.58259E+00 1.47500E+00
 -1       822 3.72497E+00-1.02879E+00 5.00000E-01
 -1       823 3.36141E+00-1.90648E+00 5.00000E-01
 -1       824 4.69840E+00-2.46028E+00 1.47500E+00
 -1       825 7.33319E+00-3.55164E+00 1.47500E+00
 -1       826 8.70125E+00-4.11831E+00 5.00000E-01
 -1       827 4.51663E+00-2.89912E+00 1.47500E+00
 -1       828 5.24373E+00-1.14375E+00 1.47500E+00
 -1       829 7.15142E+00-3.99049E+00 1.47500E+00
 -1       830 7.87852E+00-2.23512E+00 1.47500E+00
 -1       831 5.83402E+00-3.44480E+00 5.00000E-01
 -1       832 6.56112E+00-1.68944E+00 5.00000E-01
 -1       833 9.47007E+00 1.15393E+01 5.00000E-01
 -1       834 9.47007E+00 1.15393E+01-5.00000E-01
 -1       835 1.48559E+01-1.46318E+00 5.00000E-01
 -1       836 1.48559E+01-1.46318E+00-5.00000E-01
 -1       837-4.33330E+00-1.42850E+01 5.00000E-01
 -1       838-4.33330E+00-1.42850E+01-5.00000E-01
 -1       839 1.15393E+01 9.47007E+00 5.00000E-01
 -1       840 1.15393E+01 9.47007E+00-5.00000E-01
 -1       841-4.33330E+00 1.42850E+01 5.00000E-01
 -1       842-4.33330E+00 1.42850E+01-5.00000E-01
 -1       843-1.31651E+01 7.03690E+00-5.00000E-01
 -1       844-1.31651E+01 7.03690E+00 5.00000E-01
 -1       845-1.31651E+01-7.03690E+00-5.00000E-01
 -1       846-1.31651E+01-7.03690E+00 5.00000E-01
 -1       847 1.42850E+01 4.33330E+00 5.00000E-01
 -1       848 1.42850E+01 4.33330E+00-5.00000E-01
 -1       849 1.31651E+01 7.03690E+00 5.00000E-01
 -1       850 1.31651E+01 7.03690E+00-5.00000E-01
 -1       851 7.03690E+00 1.31651E+01 5.00000E-01
 -1       852 7.03690E+00 1.31651E+01-5.00000E-01
 -1       853 1.46318E+00 1.48559E+01 5.00000E-01
 -1       854 1.46318E+00 1.48559E+01-5.00000E-01
 -1       855-1.48559E+01 1.46318E+00-5.00000E-01
 -1       856-1.48559E+01 1.46318E+00 5.00000E-01
 -1       857-1.15393E+01 9.47007E+00-5.00000E-01
 -1       858-1.15393E+01 9.47007E+00 5.00000E-01
 -1       859-7.03690E+00 1.31651E+01 5.00000E-01
 -1       860-7.03690E+00 1.31651E+01-5.00000E-01
 -1       861-1.46318E+00 1.48559E+01 5.00000E-01
 -1       862-1.46318E+00 1.48559E+01-5.00000E-01
 -1       863-9.47007E+00 1.15393E+01 5.00000E-01
 -1       864-9.47007E+00 1.15393E+01-5.00000E-01
 -1       865 1.48559E+01 1.46318E+00 5.00000E-01
 -1       866 1.48559E+01 1.46318E+00-5.00000E-01
 -1       867 1.46318E+00-1.48559E+01 5.00000E-01
 -1       868 1.46318E+00-1.48559E+01-5.00000E-01
 -1       869 4.33330E+00-1.42850E+01 5.00000E-01
 -1       870 4.33330E+00-1.42850E+01-5.00000E-01
 -1       871 7.03690E+00-1.31651E+01 5.00000E-01
 -1       872 7.03690E+00-1.31651E+01-5.00000E-01
 -1       873-1.46318E+00-1.48559E+01 5.00000E-01
 -1       874-1.46318E+00-1.48559E+01-5.00000E-01
 -1       875-9.47007E+00-1.15393E+01 5.00000E-01
 -1       876-9.47007E+00-1.15393E+01-5.00000E-01
 -1       877-1.48559E+01-1.46318E+00-5.00000E-01
 -1       878-1.48559E+01-1.46318E+00 5.00000E-01
 -1       879 1.42850E+01-4.33330E+00-5.00000E-01
 -1       880 1.31651E+01-7.03690E+00-5.00000E-01
 -1       881 1.15393E+01-9.47007E+00-5.00000E-01
 -1       882 9.47007E+00-1.15393E+01-5.00000E-01
 -1       883 4.33330E+00 1.42850E+01-5.00000E-01
 -1       884-7.03690E+00-1.31651E+01-5.00000E-01
 -1       885-1.15393E+01-9.47007E+00-5.00000E-01
 -1       886-1.42850E+01-4.33330E+00-5.00000E-01
 -1       887-1.42850E+01 4.33330E+00-5.00000E-01
 -1       888 4.33330E+00 1.42850E+01 5.00000E-01
 -1       889 1.42850E+01-4.33330E+00 5.00000E-01
 -1       890 1.31651E+01-7.03690E+00 5.00000E-01
 -1       891 1.15393E+01-9.47007E+00 5.00000E-01
 -1       892 9.47007E+00-1.15393E+01 5.00000E-01
 -1       893-7.03690E+00-1.31651E+01 5.00000E-01
 -1       894-1.42850E+01 4.33330E+00 5.00000E-01
 -1       895-1.15393E+01-9.47007E+00 5.00000E-01
 -1       896-1.42850E+01-4.33330E+00 5.00000E-01
 -1       897-3.71765E+00-6.49272E+00 2.45000E+00
 -1       898-4.57581E+00 5.91931E+00 2.45000E+00
 -1       899-4.55870E+00 4.74999E-01 2.45000E+00
 -1       900-3.11155E+00-4.74999E-01 2.45000E+00
 -1       901-4.39346E+00-1.30569E+00 2.45000E+00
 -1       902-1.41659E+00-5.90243E+00 2.45000E+00
 -1       903-1.96228E+00 7.21982E+00 2.45000E+00
 -1       904 2.95729E+00 8.38078E+00 2.45000E+00
 -1       905 3.71765E+00 6.49272E+00 2.45000E+00
 -1       906 3.55936E+00 2.88761E+00 2.45000E+00
 -1       907 1.86432E+00 2.53607E+00 2.45000E+00
 -1       908 2.69292E+00 1.62958E+00 2.45000E+00
 -1       909 4.55870E+00-4.74999E-01 2.45000E+00
 -1       910 5.99524E+00 9.50000E-01 2.45000E+00
 -1       911 8.87453E+00 4.74999E-01 2.45000E+00
 -1       912 1.03553E+01-4.74999E-01 2.45000E+00
 -1       913 3.17196E+00-5.17533E+00 2.45000E+00
 -1       914 9.74886E+00 3.52396E+00 2.45000E+00
 -1       915 6.49272E+00 3.71765E+00 2.45000E+00
 -1       916 5.17533E+00 3.17196E+00 2.45000E+00
 -1       917 3.56752E+00 4.91103E+00 2.45000E+00
 -1       918 1.30569E+00-4.39346E+00 2.45000E+00
 -1       919 4.74999E-01-3.11155E+00 2.45000E+00
 -1       920-4.74999E-01-1.03553E+01 2.45000E+00
 -1       921 4.02991E+00-2.18338E+00 2.45000E+00
 -1       922 8.38078E+00-2.95729E+00 2.45000E+00
 -1       923 9.38527E+00-4.40165E+00 2.45000E+00
 -1       924 2.53607E+00-1.86432E+00 2.45000E+00
 -1       925 2.88761E+00-3.55936E+00 2.45000E+00
 -1       926 6.61111E+00-5.93936E+00 2.45000E+00
 -1       927 6.98643E+00-7.65819E+00 2.45000E+00
 -1       928 1.41659E+00-5.90243E+00 2.45000E+00
 -1       929 1.96228E+00-7.21982E+00 2.45000E+00
 -1       930-9.50000E-01-7.42117E+00 2.45000E+00
 -1       931 4.74999E-01 4.55870E+00 2.45000E+00
 -1       932-4.74999E-01 3.11155E+00 2.45000E+00
 -1       933-5.91931E+00-4.57581E+00 2.45000E+00
 -1       934-9.38527E+00 4.40165E+00 2.45000E+00
 -1       935-8.38078E+00 2.95729E+00 2.45000E+00
 -1       936-6.98643E+00 7.65819E+00 2.45000E+00
 -1       937-7.42117E+00 9.50000E-01 2.45000E+00
 -1       938-5.93936E+00-6.61111E+00 2.45000E+00
 -1       939-7.65819E+00-6.98643E+00 2.45000E+00
 -1       940-9.74886E+00-3.52396E+00 2.45000E+00
 -1       941 8.87453E+00 4.74999E-01 5.00000E-01
 -1       942 3.11155E+00 4.74999E-01 5.00000E-01
 -1       943 4.55870E+00-4.74999E-01 5.00000E-01
 -1       944 1.03553E+01-4.74999E-01 5.00000E-01
 -1       945 7.42117E+00-9.50000E-01 5.00000E-01
 -1       946 7.42117E+00 9.50000E-01 5.00000E-01
 -1       947 5.99524E+00 9.50000E-01 5.00000E-01
 -1       948 8.01722E+00 3.83498E+00 5.00000E-01
 -1       949 2.69292E+00 1.62958E+00 5.00000E-01
 -1       950 4.39346E+00 1.30569E+00 5.00000E-01
 -1       951 9.74886E+00 3.52396E+00 5.00000E-01
 -1       952 5.90243E+00 1.41659E+00 5.00000E-01
 -1       953 7.21982E+00 1.96228E+00 5.00000E-01
 -1       954 6.49272E+00 3.71765E+00 5.00000E-01
 -1       955 5.17533E+00 3.17196E+00 5.00000E-01
 -1       956 5.93936E+00 6.61111E+00 5.00000E-01
 -1       957 1.86432E+00 2.53607E+00 5.00000E-01
 -1       958 3.55936E+00 2.88761E+00 5.00000E-01
 -1       959 7.65819E+00 6.98643E+00 5.00000E-01
 -1       960 5.91931E+00 4.57581E+00 5.00000E-01
 -1       961 4.57581E+00 5.91931E+00 5.00000E-01
 -1       962 3.56752E+00 4.91103E+00 5.00000E-01
 -1       963 2.95729E+00 8.38078E+00 5.00000E-01
 -1       964 7.51897E-01 3.05647E+00 5.00000E-01
 -1       965 2.18338E+00 4.02991E+00 5.00000E-01
 -1       966 4.40165E+00 9.38527E+00 5.00000E-01
 -1       967 3.17196E+00 5.17533E+00 5.00000E-01
 -1       968 3.71765E+00 6.49272E+00 5.00000E-01
 -1       969 1.96228E+00 7.21982E+00 5.00000E-01
 -1       970 1.41659E+00 5.90243E+00 5.00000E-01
 -1       971-4.74999E-01 8.87453E+00 5.00000E-01
 -1       972-4.74999E-01 3.11155E+00 5.00000E-01
 -1       973 4.74999E-01 4.55870E+00 5.00000E-01
 -1       974 4.74999E-01 1.03553E+01 5.00000E-01
 -1       975 9.50000E-01 5.99524E+00 5.00000E-01
 -1       976 9.50000E-01 7.42117E+00 5.00000E-01
 -1       977-9.50000E-01 7.42117E+00 5.00000E-01
 -1       978-9.50000E-01 5.99524E+00 5.00000E-01
 -1       979-4.40165E+00 9.38527E+00 5.00000E-01
 -1       980-3.83498E+00 8.01722E+00 5.00000E-01
 -1       981-1.62958E+00 2.69292E+00 5.00000E-01
 -1       982-1.30569E+00 4.39346E+00 5.00000E-01
 -1       983-3.52396E+00 9.74886E+00 5.00000E-01
 -1       984-1.41659E+00 5.90243E+00 5.00000E-01
 -1       985-1.96228E+00 7.21982E+00 5.00000E-01
 -1       986-3.71765E+00 6.49272E+00 5.00000E-01
 -1       987-3.17196E+00 5.17533E+00 5.00000E-01
 -1       988-7.65819E+00 6.98643E+00 5.00000E-01
 -1       989-6.61111E+00 5.93936E+00 5.00000E-01
 -1       990-2.53607E+00 1.86432E+00 5.00000E-01
 -1       991-2.88761E+00 3.55936E+00 5.00000E-01
 -1       992-6.98643E+00 7.65819E+00 5.00000E-01
 -1       993-3.56752E+00 4.91103E+00 5.00000E-01
 -1       994-4.57581E+00 5.91931E+00 5.00000E-01
 -1       995-5.91931E+00 4.57581E+00 5.00000E-01
 -1       996-4.91103E+00 3.56752E+00 5.00000E-01
 -1       997-9.74886E+00 3.52396E+00 5.00000E-01
 -1       998-8.38078E+00 2.95729E+00 5.00000E-01
 -1       999-3.05647E+00 7.51897E-01 5.00000E-01
 -1      1000-4.02991E+00 2.18338E+00 5.00000E-01
 -1      1001-9.38527E+00 4.40165E+00 5.00000E-01
 -1      1002-5.17533E+00 3.17196E+00 5.00000E-01
 -1      1003-6.49272E+00 3.71765E+00 5.00000E-01
 -1      1004-7.21982E+00 1.96228E+00 5.00000E-01
 -1      1005-5.90243E+00 1.41659E+00 5.00000E-01
 -1      1006-1.03553E+01-4.74999E-01 5.00000E-01
 -1      1007-8.87453E+00-4.74999E-01 5.00000E-01
 -1      1008-3.11155E+00-4.74999E-01 5.00000E-01
 -1      1009-4.55870E+00 4.74999E-01 5.00000E-01
 -1      1010-1.03553E+01 4.74999E-01 5.00000E-01
 -1      1011-5.99524E+00 9.50000E-01 5.00000E-01
 -1      1012-7.42117E+00 9.50000E-01 5.00000E-01
 -1      1013-7.42117E+00-9.50000E-01 5.00000E-01
 -1      1014-5.99524E+00-9.50000E-01 5.00000E-01
 -1      1015-9.38527E+00-4.40165E+00 5.00000E-01
 -1      1016-8.01722E+00-3.83498E+00 5.00000E-01
 -1      1017-2.69292E+00-1.62958E+00 5.00000E-01
 -1      1018-4.39346E+00-1.30569E+00 5.00000E-01
 -1      1019-9.74886E+00-3.52396E+00 5.00000E-01
 -1      1020-5.90243E+00-1.41659E+00 5.00000E-01
 -1      1021-7.21982E+00-1.96228E+00 5.00000E-01
 -1      1022-6.49272E+00-3.71765E+00 5.00000E-01
 -1      1023-5.17533E+00-3.17196E+00 5.00000E-01
 -1      1024-6.98643E+00-7.65819E+00 5.00000E-01
 -1      1025-5.93936E+00-6.61111E+00 5.00000E-01
 -1      1026-1.86432E+00-2.53607E+00 5.00000E-01
 -1      1027-3.55936E+00-2.88761E+00 5.00000E-01
 -1      1028-7.65819E+00-6.98643E+00 5.00000E-01
 -1      1029-4.91103E+00-3.56752E+00 5.00000E-01
 -1      1030-5.91931E+00-4.57581E+00 5.00000E-01
 -1      1031-4.57581E+00-5.91931E+00 5.00000E-01
 -1      1032-3.56752E+00-4.91103E+00 5.00000E-01
 -1      1033-2.95729E+00-8.38078E+00 5.00000E-01
 -1      1034-7.51897E-01-3.05647E+00 5.00000E-01
 -1      1035-2.18338E+00-4.02991E+00 5.00000E-01
 -1      1036-4.40165E+00-9.38527E+00 5.00000E-01
 -1      1037-3.71765E+00-6.49272E+00 5.00000E-01
 -1      1038-1.96228E+00-7.21982E+00 5.00000E-01
 -1      1039-1.41659E+00-5.90243E+00 5.00000E-01
 -1      1040 4.74999E-01-8.87453E+00 5.00000E-01
 -1      1041 4.74999E-01-3.11155E+00 5.00000E-01
 -1      1042-4.74999E-01-4.55870E+00 5.00000E-01
 -1      1043-4.74999E-01-1.03553E+01 5.00000E-01
 -1      1044-9.50000E-01-5.99524E+00 5.00000E-01
 -1      1045-9.50000E-01-7.42117E+00 5.00000E-01
 -1      1046 9.50000E-01-7.42117E+00 5.00000E-01
 -1      1047 9.50000E-01-5.99524E+00 5.00000E-01
 -1      1048 4.40165E+00-9.38527E+00 5.00000E-01
 -1      1049 3.83498E+00-8.01722E+00 5.00000E-01
 -1      1050 1.62958E+00-2.69292E+00 5.00000E-01
 -1      1051 1.30569E+00-4.39346E+00 5.00000E-01
 -1      1052 3.52396E+00-9.74886E+00 5.00000E-01
 -1      1053 1.41659E+00-5.90243E+00 5.00000E-01
 -1      1054 1.96228E+00-7.21982E+00 5.00000E-01
 -1      1055 3.71765E+00-6.49272E+00 5.00000E-01
 -1      1056 3.17196E+00-5.17533E+00 5.00000E-01
 -1      1057 7.65819E+00-6.98643E+00 5.00000E-01
 -1      1058 6.61111E+00-5.93936E+00 5.00000E-01
 -1      1059 2.53607E+00-1.86432E+00 5.00000E-01
 -1      1060 2.88761E+00-3.55936E+00 5.00000E-01
 -1      1061 6.98643E+00-7.65819E+00 5.00000E-01
 -1      1062 3.56752E+00-4.91103E+00 5.00000E-01
 -1      1063 4.57581E+00-5.91931E+00 5.00000E-01
 -1      1064 5.91931E+00-4.57581E+00 5.00000E-01
 -1      1065 4.91103E+00-3.56752E+00 5.00000E-01
 -1      1066 8.38078E+00-2.95729E+00 5.00000E-01
 -1      1067 3.05647E+00-7.51897E-01 5.00000E-01
 -1      1068 4.02991E+00-2.18338E+00 5.00000E-01
 -1      1069 9.38527E+00-4.40165E+00 5.00000E-01
 -1      1070 6.49272E+00-3.71765E+00 5.00000E-01
 -1      1071 7.21982E+00-1.96228E+00 5.00000E-01
 -1      1072 5.90243E+00-1.41659E+00 5.00000E-01
 -1      1073 1.00383E+01 1.10730E+01 5.00000E-01
 -1      1074 1.00383E+01 1.10730E+01-5.00000E-01
 -1      1075 8.90181E+00 1.20056E+01-5.00000E-01
 -1      1076-5.03678E+00-1.40716E+01 5.00000E-01
 -1      1077 1.20056E+01 8.90181E+00 5.00000E-01
 -1      1078-3.62983E+00 1.44984E+01 5.00000E-01
 -1      1079-1.28186E+01-7.68523E+00-5.00000E-01
 -1      1080 1.44984E+01 3.62983E+00 5.00000E-01
 -1      1081 1.35117E+01 6.38858E+00 5.00000E-01
 -1      1082 1.28186E+01 7.68523E+00-5.00000E-01
 -1      1083 6.38858E+00 1.35117E+01 5.00000E-01
 -1      1084 7.68523E+00 1.28186E+01 5.00000E-01
 -1      1085 6.38858E+00 1.35117E+01-5.00000E-01
 -1      1086-1.20056E+01 8.90181E+00-5.00000E-01
 -1      1087-1.10730E+01 1.00383E+01 5.00000E-01
 -1      1088-7.68523E+00 1.28186E+01 5.00000E-01
 -1      1089-6.38858E+00 1.35117E+01 5.00000E-01
 -1      1090-7.68523E+00 1.28186E+01-5.00000E-01
 -1      1091-7.31588E-01 1.49279E+01 5.00000E-01
 -1      1092-2.19476E+00 1.47838E+01-5.00000E-01
 -1      1093-1.00383E+01 1.10730E+01 5.00000E-01
 -1      1094-8.90181E+00 1.20056E+01 5.00000E-01
 -1      1095-1.00383E+01 1.10730E+01-5.00000E-01
 -1      1096 1.47838E+01 2.19476E+00 5.00000E-01
 -1      1097 1.49279E+01 7.31588E-01 5.00000E-01
 -1      1098 1.47838E+01 2.19476E+00-5.00000E-01
 -1      1099 7.31588E-01-1.49279E+01 5.00000E-01
 -1      1100 3.62983E+00-1.44984E+01 5.00000E-01
 -1      1101 5.03678E+00-1.40716E+01-5.00000E-01
 -1      1102 6.38858E+00-1.35117E+01 5.00000E-01
 -1      1103 7.68523E+00-1.28186E+01-5.00000E-01
 -1      1104-2.19476E+00-1.47838E+01 5.00000E-01
 -1      1105-7.31588E-01-1.49279E+01-5.00000E-01
 -1      1106-1.00383E+01-1.10730E+01 5.00000E-01
 -1      1107 1.40716E+01-5.03678E+00-5.00000E-01
 -1      1108 1.28186E+01-7.68523E+00-5.00000E-01
 -1      1109 1.10730E+01-1.00383E+01-5.00000E-01
 -1      1110 1.00383E+01-1.10730E+01-5.00000E-01
 -1      1111 8.90181E+00-1.20056E+01-5.00000E-01
 -1      1112 3.62983E+00 1.44984E+01-5.00000E-01
 -1      1113 5.03678E+00 1.40716E+01-5.00000E-01
 -1      1114-6.38858E+00-1.35117E+01-5.00000E-01
 -1      1115-7.68523E+00-1.28186E+01-5.00000E-01
 -1      1116-1.10730E+01-1.00383E+01-5.00000E-01
 -1      1117-1.20056E+01-8.90181E+00-5.00000E-01
 -1      1118-1.40716E+01-5.03678E+00-5.00000E-01
 -1      1119-1.44984E+01-3.62983E+00-5.00000E-01
 -1      1120-1.40716E+01 5.03678E+00-5.00000E-01
 -1      1121 5.03678E+00 1.40716E+01 5.00000E-01
 -1      1122 1.44984E+01-3.62983E+00 5.00000E-01
 -1      1123 1.35117E+01-6.38858E+00 5.00000E-01
 -1      1124 1.20056E+01-8.90181E+00 5.00000E-01
 -1      1125 1.00383E+01-1.10730E+01 5.00000E-01
 -1      1126-6.38858E+00-1.35117E+01 5.00000E-01
 -1      1127-1.44984E+01 3.62983E+00 5.00000E-01
 -1      1128-1.10730E+01-1.00383E+01 5.00000E-01
 -1      1129-1.40716E+01-5.03678E+00 5.00000E-01
 -1      1130-6.49272E+00 3.71765E+00 2.45000E+00
 -1      1131-5.17533E+00 3.17196E+00 2.45000E+00
 -1      1132-5.90243E+00 1.41659E+00 2.45000E+00
 -1      1133-7.21982E+00 1.96228E+00 2.45000E+00
 -1      1134-3.17196E+00-5.17533E+00 2.45000E+00
 -1      1135-3.17196E+00 5.17533E+00 2.45000E+00
 -1      1136-3.71765E+00 6.49272E+00 2.45000E+00
 -1      1137-3.56752E+00 4.91103E+00 2.45000E+00
 -1      1138-4.91103E+00 3.56752E+00 2.45000E+00
 -1      1139-5.91931E+00 4.57581E+00 2.45000E+00
 -1      1140-3.11155E+00 4.74999E-01 2.45000E+00
 -1      1141-4.55870E+00-4.74999E-01 2.45000E+00
 -1      1142-2.69292E+00-1.62958E+00 2.45000E+00
 -1      1143-4.02991E+00-2.18338E+00 2.45000E+00
 -1      1144-3.05647E+00-7.51897E-01 2.45000E+00
 -1      1145-1.96228E+00-7.21982E+00 2.45000E+00
 -1      1146-3.05647E+00 7.51897E-01 2.45000E+00
 -1      1147-4.02991E+00 2.18338E+00 2.45000E+00
 -1      1148-2.69292E+00 1.62958E+00 2.45000E+00
 -1      1149-4.39346E+00 1.30569E+00 2.45000E+00
 -1      1150-1.41659E+00 5.90243E+00 2.45000E+00
 -1      1151 1.41659E+00 5.90243E+00 2.45000E+00
 -1      1152 1.96228E+00 7.21982E+00 2.45000E+00
 -1      1153 4.40165E+00 9.38527E+00 2.45000E+00
 -1      1154 3.83498E+00 8.01722E+00 2.45000E+00
 -1      1155 3.52396E+00 9.74886E+00 2.45000E+00
 -1      1156 7.51897E-01 3.05647E+00 2.45000E+00
 -1      1157 2.18338E+00 4.02991E+00 2.45000E+00
 -1      1158 1.62958E+00 2.69292E+00 2.45000E+00
 -1      1159 1.30569E+00 4.39346E+00 2.45000E+00
 -1      1160 3.17196E+00 5.17533E+00 2.45000E+00
 -1      1161 2.53607E+00 1.86432E+00 2.45000E+00
 -1      1162 2.88761E+00 3.55936E+00 2.45000E+00
 -1      1163 4.39346E+00 1.30569E+00 2.45000E+00
 -1      1164 3.05647E+00 7.51897E-01 2.45000E+00
 -1      1165 4.02991E+00 2.18338E+00 2.45000E+00
 -1      1166 3.11155E+00 4.74999E-01 2.45000E+00
 -1      1167 4.55870E+00 4.74999E-01 2.45000E+00
 -1      1168 3.11155E+00-4.74999E-01 2.45000E+00
 -1      1169 7.42117E+00 9.50000E-01 2.45000E+00
 -1      1170 7.42117E+00-9.50000E-01 2.45000E+00
 -1      1171 5.99524E+00-9.50000E-01 2.45000E+00
 -1      1172 1.03553E+01 4.74999E-01 2.45000E+00
 -1      1173 8.87453E+00-4.74999E-01 2.45000E+00
 -1      1174 3.71765E+00-6.49272E+00 2.45000E+00
 -1      1175 7.65819E+00 6.98643E+00 2.45000E+00
 -1      1176 6.61111E+00 5.93936E+00 2.45000E+00
 -1      1177 5.93936E+00 6.61111E+00 2.45000E+00
 -1      1178 6.98643E+00 7.65819E+00 2.45000E+00
 -1      1179 8.38078E+00 2.95729E+00 2.45000E+00
 -1      1180 8.01722E+00 3.83498E+00 2.45000E+00
 -1      1181 9.38527E+00 4.40165E+00 2.45000E+00
 -1      1182 7.21982E+00 1.96228E+00 2.45000E+00
 -1      1183 5.90243E+00 1.41659E+00 2.45000E+00
 -1      1184 4.57581E+00 5.91931E+00 2.45000E+00
 -1      1185 5.91931E+00 4.57581E+00 2.45000E+00
 -1      1186 4.91103E+00 3.56752E+00 2.45000E+00
 -1      1187 3.83498E+00-8.01722E+00 2.45000E+00
 -1      1188 4.40165E+00-9.38527E+00 2.45000E+00
 -1      1189 3.52396E+00-9.74886E+00 2.45000E+00
 -1      1190 2.95729E+00-8.38078E+00 2.45000E+00
 -1      1191 1.62958E+00-2.69292E+00 2.45000E+00
 -1      1192 2.18338E+00-4.02991E+00 2.45000E+00
 -1      1193 7.51897E-01-3.05647E+00 2.45000E+00
 -1      1194 4.74999E-01-4.55870E+00 2.45000E+00
 -1      1195 4.74999E-01-8.87453E+00 2.45000E+00
 -1      1196-4.74999E-01-4.55870E+00 2.45000E+00
 -1      1197-4.74999E-01-3.11155E+00 2.45000E+00
 -1      1198 4.74999E-01-1.03553E+01 2.45000E+00
 -1      1199-4.74999E-01-8.87453E+00 2.45000E+00
 -1      1200 3.05647E+00-7.51897E-01 2.45000E+00
 -1      1201 4.39346E+00-1.30569E+00 2.45000E+00
 -1      1202 2.69292E+00-1.62958E+00 2.45000E+00
 -1      1203 5.90243E+00-1.41659E+00 2.45000E+00
 -1      1204 7.21982E+00-1.96228E+00 2.45000E+00
 -1      1205 6.49272E+00-3.71765E+00 2.45000E+00
 -1      1206 5.17533E+00-3.17196E+00 2.45000E+00
 -1      1207 9.74886E+00-3.52396E+00 2.45000E+00
 -1      1208 8.01722E+00-3.83498E+00 2.45000E+00
 -1      1209 3.55936E+00-2.88761E+00 2.45000E+00
 -1      1210 1.86432E+00-2.53607E+00 2.45000E+00
 -1      1211 4.91103E+00-3.56752E+00 2.45000E+00
 -1      1212 5.91931E+00-4.57581E+00 2.45000E+00
 -1      1213 4.57581E+00-5.91931E+00 2.45000E+00
 -1      1214 3.56752E+00-4.91103E+00 2.45000E+00
 -1      1215 7.65819E+00-6.98643E+00 2.45000E+00
 -1      1216 5.93936E+00-6.61111E+00 2.45000E+00
 -1      1217-9.50000E-01-5.99524E+00 2.45000E+00
 -1      1218-2.18338E+00-4.02991E+00 2.45000E+00
 -1      1219-7.51897E-01-3.05647E+00 2.45000E+00
 -1      1220-1.30569E+00-4.39346E+00 2.45000E+00
 -1      1221-1.62958E+00-2.69292E+00 2.45000E+00
 -1      1222-4.40165E+00-9.38527E+00 2.45000E+00
 -1      1223-2.95729E+00-8.38078E+00 2.45000E+00
 -1      1224-3.52396E+00-9.74886E+00 2.45000E+00
 -1      1225-3.83498E+00-8.01722E+00 2.45000E+00
 -1      1226-9.50000E-01 5.99524E+00 2.45000E+00
 -1      1227-9.50000E-01 7.42117E+00 2.45000E+00
 -1      1228 4.74999E-01 1.03553E+01 2.45000E+00
 -1      1229 4.74999E-01 8.87453E+00 2.45000E+00
 -1      1230 4.74999E-01 3.11155E+00 2.45000E+00
 -1      1231-4.74999E-01 4.55870E+00 2.45000E+00
 -1      1232-4.74999E-01 8.87453E+00 2.45000E+00
 -1      1233-4.74999E-01 1.03553E+01 2.45000E+00
 -1      1234 9.50000E-01 7.42117E+00 2.45000E+00
 -1      1235-1.30569E+00 4.39346E+00 2.45000E+00
 -1      1236-7.51897E-01 3.05647E+00 2.45000E+00
 -1      1237-1.62958E+00 2.69292E+00 2.45000E+00
 -1      1238-2.18338E+00 4.02991E+00 2.45000E+00
 -1      1239-3.52396E+00 9.74886E+00 2.45000E+00
 -1      1240-2.95729E+00 8.38078E+00 2.45000E+00
 -1      1241-3.83498E+00 8.01722E+00 2.45000E+00
 -1      1242-4.40165E+00 9.38527E+00 2.45000E+00
 -1      1243 9.50000E-01 5.99524E+00 2.45000E+00
 -1      1244-4.91103E+00-3.56752E+00 2.45000E+00
 -1      1245 9.50000E-01-5.99524E+00 2.45000E+00
 -1      1246 9.50000E-01-7.42117E+00 2.45000E+00
 -1      1247-2.53607E+00 1.86432E+00 2.45000E+00
 -1      1248-3.55936E+00-2.88761E+00 2.45000E+00
 -1      1249-1.86432E+00-2.53607E+00 2.45000E+00
 -1      1250-2.88761E+00-3.55936E+00 2.45000E+00
 -1      1251-2.53607E+00-1.86432E+00 2.45000E+00
 -1      1252-2.88761E+00 3.55936E+00 2.45000E+00
 -1      1253-1.86432E+00 2.53607E+00 2.45000E+00
 -1      1254-3.55936E+00 2.88761E+00 2.45000E+00
 -1      1255-3.56752E+00-4.91103E+00 2.45000E+00
 -1      1256-4.57581E+00-5.91931E+00 2.45000E+00
 -1      1257-5.17533E+00-3.17196E+00 2.45000E+00
 -1      1258-6.49272E+00-3.71765E+00 2.45000E+00
 -1      1259-7.21982E+00-1.96228E+00 2.45000E+00
 -1      1260-5.90243E+00-1.41659E+00 2.45000E+00
 -1      1261-1.03553E+01 4.74999E-01 2.45000E+00
 -1      1262-8.87453E+00 4.74999E-01 2.45000E+00
 -1      1263-8.87453E+00-4.74999E-01 2.45000E+00
 -1      1264-1.03553E+01-4.74999E-01 2.45000E+00
 -1      1265-8.01722E+00 3.83498E+00 2.45000E+00
 -1      1266-9.74886E+00 3.52396E+00 2.45000E+00
 -1      1267-5.93936E+00 6.61111E+00 2.45000E+00
 -1      1268-6.61111E+00 5.93936E+00 2.45000E+00
 -1      1269-7.65819E+00 6.98643E+00 2.45000E+00
 -1      1270-5.99524E+00 9.50000E-01 2.45000E+00
 -1      1271-5.99524E+00-9.50000E-01 2.45000E+00
 -1      1272-7.42117E+00-9.50000E-01 2.45000E+00
 -1      1273-6.98643E+00-7.65819E+00 2.45000E+00
 -1      1274-6.61111E+00-5.93936E+00 2.45000E+00
 -1      1275-8.01722E+00-3.83498E+00 2.45000E+00
 -1      1276-9.38527E+00-4.40165E+00 2.45000E+00
 -1      1277-8.38078E+00-2.95729E+00 2.45000E+00
 -1      1278 1.03553E+01 4.74999E-01 5.00000E-01
 -1      1279 4.55870E+00 4.74999E-01 5.00000E-01
 -1      1280 3.11155E+00-4.74999E-01 5.00000E-01
 -1      1281 8.87453E+00-4.74999E-01 5.00000E-01
 -1      1282 5.99524E+00-9.50000E-01 5.00000E-01
 -1      1283 9.38527E+00 4.40165E+00 5.00000E-01
 -1      1284 4.02991E+00 2.18338E+00 5.00000E-01
 -1      1285 3.05647E+00 7.51897E-01 5.00000E-01
 -1      1286 8.38078E+00 2.95729E+00 5.00000E-01
 -1      1287 6.98643E+00 7.65819E+00 5.00000E-01
 -1      1288 2.88761E+00 3.55936E+00 5.00000E-01
 -1      1289 2.53607E+00 1.86432E+00 5.00000E-01
 -1      1290 6.61111E+00 5.93936E+00 5.00000E-01
 -1      1291 4.91103E+00 3.56752E+00 5.00000E-01
 -1      1292 3.52396E+00 9.74886E+00 5.00000E-01
 -1      1293 1.30569E+00 4.39346E+00 5.00000E-01
 -1      1294 1.62958E+00 2.69292E+00 5.00000E-01
 -1      1295 3.83498E+00 8.01722E+00 5.00000E-01
 -1      1296-4.74999E-01 1.03553E+01 5.00000E-01
 -1      1297-4.74999E-01 4.55870E+00 5.00000E-01
 -1      1298 4.74999E-01 3.11155E+00 5.00000E-01
 -1      1299 4.74999E-01 8.87453E+00 5.00000E-01
 -1      1300-2.18338E+00 4.02991E+00 5.00000E-01
 -1      1301-7.51897E-01 3.05647E+00 5.00000E-01
 -1      1302-2.95729E+00 8.38078E+00 5.00000E-01
 -1      1303-3.55936E+00 2.88761E+00 5.00000E-01
 -1      1304-1.86432E+00 2.53607E+00 5.00000E-01
 -1      1305-5.93936E+00 6.61111E+00 5.00000E-01
 -1      1306-4.39346E+00 1.30569E+00 5.00000E-01
 -1      1307-2.69292E+00 1.62958E+00 5.00000E-01
 -1      1308-8.01722E+00 3.83498E+00 5.00000E-01
 -1      1309-4.55870E+00-4.74999E-01 5.00000E-01
 -1      1310-3.11155E+00 4.74999E-01 5.00000E-01
 -1      1311-8.87453E+00 4.74999E-01 5.00000E-01
 -1      1312-4.02991E+00-2.18338E+00 5.00000E-01
 -1      1313-3.05647E+00-7.51897E-01 5.00000E-01
 -1      1314-8.38078E+00-2.95729E+00 5.00000E-01
 -1      1315-2.88761E+00-3.55936E+00 5.00000E-01
 -1      1316-2.53607E+00-1.86432E+00 5.00000E-01
 -1      1317-6.61111E+00-5.93936E+00 5.00000E-01
 -1      1318-3.52396E+00-9.74886E+00 5.00000E-01
 -1      1319-1.30569E+00-4.39346E+00 5.00000E-01
 -1      1320-1.62958E+00-2.69292E+00 5.00000E-01
 -1      1321-3.83498E+00-8.01722E+00 5.00000E-01
 -1      1322-3.17196E+00-5.17533E+00 5.00000E-01
 -1      1323 4.74999E-01-1.03553E+01 5.00000E-01
 -1      1324 4.74999E-01-4.55870E+00 5.00000E-01
 -1      1325-4.74999E-01-3.11155E+00 5.00000E-01
 -1      1326-4.74999E-01-8.87453E+00 5.00000E-01
 -1      1327 2.18338E+00-4.02991E+00 5.00000E-01
 -1      1328 7.51897E-01-3.05647E+00 5.00000E-01
 -1      1329 2.95729E+00-8.38078E+00 5.00000E-01
 -1      1330 3.55936E+00-2.88761E+00 5.00000E-01
 -1      1331 1.86432E+00-2.53607E+00 5.00000E-01
 -1      1332 5.93936E+00-6.61111E+00 5.00000E-01
 -1      1333 9.74886E+00-3.52396E+00 5.00000E-01
 -1      1334 4.39346E+00-1.30569E+00 5.00000E-01
 -1      1335 2.69292E+00-1.62958E+00 5.00000E-01
 -1      1336 8.01722E+00-3.83498E+00 5.00000E-01
 -1      1337 5.17533E+00-3.17196E+00 5.00000E-01
 -1      1338 8.90181E+00 1.20056E+01 5.00000E-01
 -1      1339 1.47838E+01-2.19476E+00 5.00000E-01
 -1      1340 1.49279E+01-7.31588E-01 5.00000E-01
 -1      1341 1.49279E+01-7.31588E-01-5.00000E-01
 -1      1342 1.47838E+01-2.19476E+00-5.00000E-01
 -1      1343-3.62983E+00-1.44984E+01 5.00000E-01
 -1      1344-3.62983E+00-1.44984E+01-5.00000E-01
 -1      1345-5.03678E+00-1.40716E+01-5.00000E-01
 -1      1346 1.10730E+01 1.00383E+01 5.00000E-01
 -1      1347 1.10730E+01 1.00383E+01-5.00000E-01
 -1      1348 1.20056E+01 8.90181E+00-5.00000E-01
 -1      1349-5.03678E+00 1.40716E+01 5.00000E-01
 -1      1350-5.03678E+00 1.40716E+01-5.00000E-01
 -1      1351-3.62983E+00 1.44984E+01-5.00000E-01
 -1      1352-1.35117E+01 6.38858E+00-5.00000E-01
 -1      1353-1.28186E+01 7.68523E+00-5.00000E-01
 -1      1354-1.28186E+01 7.68523E+00 5.00000E-01
 -1      1355-1.35117E+01 6.38858E+00 5.00000E-01
 -1      1356-1.35117E+01-6.38858E+00-5.00000E-01
 -1      1357-1.35117E+01-6.38858E+00 5.00000E-01
 -1      1358-1.28186E+01-7.68523E+00 5.00000E-01
 -1      1359 1.40716E+01 5.03678E+00 5.00000E-01
 -1      1360 1.40716E+01 5.03678E+00-5.00000E-01
 -1      1361 1.44984E+01 3.62983E+00-5.00000E-01
 -1      1362 1.28186E+01 7.68523E+00 5.00000E-01
 -1      1363 1.35117E+01 6.38858E+00-5.00000E-01
 -1      1364 7.68523E+00 1.28186E+01-5.00000E-01
 -1      1365 2.19476E+00 1.47838E+01 5.00000E-01
 -1      1366 7.31588E-01 1.49279E+01 5.00000E-01
 -1      1367 7.31588E-01 1.49279E+01-5.00000E-01
 -1      1368 2.19476E+00 1.47838E+01-5.00000E-01
 -1      1369-1.49279E+01 7.31588E-01-5.00000E-01
 -1      1370-1.47838E+01 2.19476E+00-5.00000E-01
 -1      1371-1.47838E+01 2.19476E+00 5.00000E-01
 -1      1372-1.49279E+01 7.31588E-01 5.00000E-01
 -1      1373-1.10730E+01 1.00383E+01-5.00000E-01
 -1      1374-1.20056E+01 8.90181E+00 5.00000E-01
 -1      1375-6.38858E+00 1.35117E+01-5.00000E-01
 -1      1376-2.19476E+00 1.47838E+01 5.00000E-01
 -1      1377-7.31588E-01 1.49279E+01-5.00000E-01
 -1      1378-8.90181E+00 1.20056E+01-5.00000E-01
 -1      1379 1.49279E+01 7.31588E-01-5.00000E-01
 -1      1380 2.19476E+00-1.47838E+01 5.00000E-01
 -1      1381 2.19476E+00-1.47838E+01-5.00000E-01
 -1      1382 7.31588E-01-1.49279E+01-5.00000E-01
 -1      1383 5.03678E+00-1.40716E+01 5.00000E-01
 -1      1384 3.62983E+00-1.44984E+01-5.00000E-01
 -1      1385 7.68523E+00-1.28186E+01 5.00000E-01
 -1      1386 6.38858E+00-1.35117E+01-5.00000E-01
 -1      1387-7.31588E-01-1.49279E+01 5.00000E-01
 -1      1388-2.19476E+00-1.47838E+01-5.00000E-01
 -1      1389-8.90181E+00-1.20056E+01 5.00000E-01
 -1      1390-8.90181E+00-1.20056E+01-5.00000E-01
 -1      1391-1.00383E+01-1.10730E+01-5.00000E-01
 -1      1392-1.47838E+01-2.19476E+00-5.00000E-01
 -1      1393-1.49279E+01-7.31588E-01-5.00000E-01
 -1      1394-1.49279E+01-7.31588E-01 5.00000E-01
 -1      1395-1.47838E+01-2.19476E+00 5.00000E-01
 -1      1396 1.44984E+01-3.62983E+00-5.00000E-01
 -1      1397 1.35117E+01-6.38858E+00-5.00000E-01
 -1      1398 1.20056E+01-8.90181E+00-5.00000E-01
 -1      1399-1.44984E+01 3.62983E+00-5.00000E-01
 -1      1400 3.62983E+00 1.44984E+01 5.00000E-01
 -1      1401 1.40716E+01-5.03678E+00 5.00000E-01
 -1      1402 1.28186E+01-7.68523E+00 5.00000E-01
 -1      1403 1.10730E+01-1.00383E+01 5.00000E-01
 -1      1404 8.90181E+00-1.20056E+01 5.00000E-01
 -1      1405-7.68523E+00-1.28186E+01 5.00000E-01
 -1      1406-1.40716E+01 5.03678E+00 5.00000E-01
 -1      1407-1.20056E+01-8.90181E+00 5.00000E-01
 -1      1408-1.44984E+01-3.62983E+00 5.00000E-01
 -1      1409-2.38798E+00 4.74999E-01 1.96250E+00
 -1      1410-2.32070E+00 4.61617E-01 1.96250E+00
 -1      1411 4.74999E-01 2.38798E+00 9.87500E-01
 -1      1412 4.61617E-01 2.32070E+00 9.87500E-01
 -1      1413-2.02443E+00 1.35268E+00 9.87500E-01
 -1      1414-1.96740E+00 1.31457E+00 9.87500E-01
 -1      1415-1.35268E+00 2.02443E+00 1.96250E+00
 -1      1416-1.31457E+00 1.96740E+00 1.96250E+00
 -1      1417 1.35268E+00-2.02443E+00 9.87500E-01
 -1      1418 1.31457E+00-1.96740E+00 9.87500E-01
 -1      1419-2.38798E+00-4.74999E-01 9.87500E-01
 -1      1420-2.32070E+00-4.61617E-01 9.87500E-01
 -1      1421-2.02443E+00-1.35268E+00 1.96250E+00
 -1      1422-1.96740E+00-1.31457E+00 1.96250E+00
 -1      1423-4.74999E-01 2.38798E+00 9.87500E-01
 -1      1424-4.61617E-01 2.32070E+00 9.87500E-01
 -1      1425-4.74999E-01-2.38798E+00 9.87500E-01
 -1      1426-4.61617E-01-2.32070E+00 9.87500E-01
 -1      1427-2.38798E+00-4.74999E-01 1.96250E+00
 -1      1428-2.32070E+00-4.61617E-01 1.96250E+00
 -1      1429-4.74999E-01-2.38798E+00 1.96250E+00
 -1      1430-4.61617E-01-2.32070E+00 1.96250E+00
 -1      1431-2.02443E+00-1.35268E+00 9.87500E-01
 -1      1432-1.96740E+00-1.31457E+00 9.87500E-01
 -1      1433-8.88093E-01-2.14405E+00 2.45000E+00
 -1      1434 0.00000E+00-2.32070E+00 5.00000E-01
 -1      1435-2.32070E+00 0.00000E+00 5.00000E-01
 -1      1436-1.35268E+00 2.02443E+00 9.87500E-01
 -1      1437-1.31457E+00 1.96740E+00 9.87500E-01
 -1      1438-2.14405E+00 8.88093E-01 2.45000E+00
 -1      1439 1.35268E+00 2.02443E+00 1.96250E+00
 -1      1440 1.31457E+00 1.96740E+00 1.96250E+00
 -1      1441-1.64099E+00 1.64099E+00 5.00000E-01
 -1      1442-8.88093E-01 2.14405E+00 5.00000E-01
 -1      1443-1.31457E+00-1.96740E+00 1.96250E+00
 -1      1444-1.35268E+00-2.02443E+00 1.96250E+00
 -1      1445 4.74999E-01 2.38798E+00 1.96250E+00
 -1      1446 4.61617E-01 2.32070E+00 1.96250E+00
 -1      1447 2.02443E+00 1.35268E+00 1.96250E+00
 -1      1448 1.96740E+00 1.31457E+00 1.96250E+00
 -1      1449 8.88093E-01-2.14405E+00 5.00000E-01
 -1      1450 4.74999E-01-2.38798E+00 1.96250E+00
 -1      1451 4.61617E-01-2.32070E+00 1.96250E+00
 -1      1452 2.38798E+00-4.74999E-01 9.87500E-01
 -1      1453 2.32070E+00-4.61617E-01 9.87500E-01
 -1      1454 2.02443E+00 1.35268E+00 9.87500E-01
 -1      1455 1.96740E+00 1.31457E+00 9.87500E-01
 -1      1456 2.02443E+00-1.35268E+00 9.87500E-01
 -1      1457 1.96740E+00-1.31457E+00 9.87500E-01
 -1      1458-2.38798E+00 4.74999E-01 1.71875E+00
 -1      1459-2.32070E+00 4.61617E-01 1.71875E+00
 -1      1460 1.35268E+00 2.02443E+00 9.87500E-01
 -1      1461 1.31457E+00 1.96740E+00 9.87500E-01
 -1      1462 2.38798E+00 4.74999E-01 1.96250E+00
 -1      1463 2.32070E+00 4.61617E-01 1.96250E+00
 -1      1464 2.38798E+00-4.74999E-01 1.96250E+00
 -1      1465 2.32070E+00-4.61617E-01 1.96250E+00
 -1      1466-2.38798E+00-4.74999E-01 1.71875E+00
 -1      1467-2.32070E+00-4.61617E-01 1.71875E+00
 -1      1468 2.02443E+00-1.35268E+00 1.96250E+00
 -1      1469 1.96740E+00-1.31457E+00 1.96250E+00
 -1      1470-2.02443E+00 1.35268E+00 1.96250E+00
 -1      1471-1.96740E+00 1.31457E+00 1.96250E+00
 -1      1472 2.32070E+00 0.00000E+00 2.45000E+00
 -1      1473 2.38798E+00-4.74999E-01 1.71875E+00
 -1      1474 2.32070E+00-4.61617E-01 1.71875E+00
 -1      1475-8.88093E-01 2.14405E+00 2.45000E+00
 -1      1476-1.64099E+00-1.64099E+00 2.45000E+00
 -1      1477 1.35268E+00-2.02443E+00 1.96250E+00
 -1      1478 1.31457E+00-1.96740E+00 1.96250E+00
 -1      1479 4.74999E-01-2.38798E+00 9.87500E-01
 -1      1480 4.61617E-01-2.32070E+00 9.87500E-01
 -1      1481-4.74999E-01 2.38798E+00 1.96250E+00
 -1      1482-4.61617E-01 2.32070E+00 1.96250E+00
 -1      1483 1.64099E+00 1.64099E+00 5.00000E-01
 -1      1484 1.31457E+00-1.96740E+00 7.43750E-01
 -1      1485 1.35268E+00-2.02443E+00 7.43750E-01
 -1      1486 0.00000E+00 2.32070E+00 2.45000E+00
 -1      1487-2.28025E+00-1.60850E+00 2.45000E+00
 -1      1488 2.38798E+00 4.74999E-01 9.87500E-01
 -1      1489 2.32070E+00 4.61617E-01 9.87500E-01
 -1      1490 0.00000E+00-2.32070E+00 2.45000E+00
 -1      1491 2.32070E+00 0.00000E+00 5.00000E-01
 -1      1492 8.88093E-01 2.14405E+00 2.45000E+00
 -1      1493-2.32070E+00 0.00000E+00 2.45000E+00
 -1      1494-1.35268E+00-2.02443E+00 9.87500E-01
 -1      1495-1.31457E+00-1.96740E+00 9.87500E-01
 -1      1496-1.64099E+00 1.64099E+00 2.45000E+00
 -1      1497 2.14405E+00-8.88093E-01 5.00000E-01
 -1      1498-4.74999E-01 2.38798E+00 1.23125E+00
 -1      1499-4.61617E-01 2.32070E+00 1.23125E+00
 -1      1500 1.35268E+00 2.02443E+00 1.71875E+00
 -1      1501 1.31457E+00 1.96740E+00 1.71875E+00
 -1      1502 1.64099E+00-1.64099E+00 2.45000E+00
 -1      1503-1.31457E+00 1.96740E+00 7.43750E-01
 -1      1504-1.35268E+00 2.02443E+00 7.43750E-01
 -1      1505-2.32070E+00 4.61617E-01 9.87500E-01
 -1      1506-2.38798E+00 4.74999E-01 9.87500E-01
 -1      1507 2.38798E+00 4.74999E-01 1.71875E+00
 -1      1508 2.32070E+00 4.61617E-01 1.71875E+00
 -1      1509-1.60850E+00-2.28025E+00 2.45000E+00
 -1      1510 2.38798E+00-4.74999E-01 1.23125E+00
 -1      1511 2.32070E+00-4.61617E-01 1.23125E+00
 -1      1512 2.14405E+00 8.88093E-01 5.00000E-01
 -1      1513 1.35268E+00-2.02443E+00 1.23125E+00
 -1      1514 1.31457E+00-1.96740E+00 1.23125E+00
 -1      1515 2.02443E+00-1.35268E+00 1.23125E+00
 -1      1516 1.96740E+00-1.31457E+00 1.23125E+00
 -1      1517-1.35268E+00-2.02443E+00 1.23125E+00
 -1      1518-1.31457E+00-1.96740E+00 1.23125E+00
 -1      1519 4.74999E-01 2.38798E+00 1.23125E+00
 -1      1520 4.61617E-01 2.32070E+00 1.23125E+00
 -1      1521 1.64099E+00-1.64099E+00 5.00000E-01
 -1      1522-4.74999E-01 2.38798E+00 1.71875E+00
 -1      1523-4.61617E-01 2.32070E+00 1.71875E+00
 -1      1524-2.14405E+00 8.88093E-01 5.00000E-01
 -1      1525-2.38798E+00-4.74999E-01 1.23125E+00
 -1      1526-2.32070E+00-4.61617E-01 1.23125E+00
 -1      1527-2.28025E+00 1.60850E+00 2.45000E+00
 -1      1528 4.74999E-01-2.38798E+00 1.23125E+00
 -1      1529 4.61617E-01-2.32070E+00 1.23125E+00
 -1      1530 1.96740E+00 1.31457E+00 7.43750E-01
 -1      1531 2.02443E+00 1.35268E+00 7.43750E-01
 -1      1532-6.74855E-01 2.23237E+00 2.45000E+00
 -1      1533 2.38798E+00-4.74999E-01 7.43750E-01
 -1      1534 2.32070E+00-4.61617E-01 7.43750E-01
 -1      1535 8.88093E-01-2.14405E+00 2.45000E+00
 -1      1536-2.38798E+00-4.74999E-01 1.59687E+00
 -1      1537-2.32070E+00-4.61617E-01 1.59687E+00
 -1      1538 2.38798E+00 4.74999E-01 1.23125E+00
 -1      1539 2.32070E+00 4.61617E-01 1.23125E+00
 -1      1540-2.02443E+00 1.35268E+00 1.23125E+00
 -1      1541-1.96740E+00 1.31457E+00 1.23125E+00
 -1      1542-8.88093E-01-2.14405E+00 5.00000E-01
 -1      1543 4.74999E-01-2.38798E+00 1.71875E+00
 -1      1544 4.61617E-01-2.32070E+00 1.71875E+00
 -1      1545-6.74855E-01-2.23237E+00 5.00000E-01
 -1      1546 1.35268E+00 2.02443E+00 1.23125E+00
 -1      1547 1.31457E+00 1.96740E+00 1.23125E+00
 -1      1548-1.64099E+00-1.64099E+00 5.00000E-01
 -1      1549 4.74999E-01 2.38798E+00 2.20625E+00
 -1      1550 4.61617E-01 2.32070E+00 2.20625E+00
 -1      1551 1.35268E+00-2.02443E+00 2.20625E+00
 -1      1552 1.31457E+00-1.96740E+00 2.20625E+00
 -1      1553-2.38798E+00-4.74999E-01 1.84063E+00
 -1      1554-2.32070E+00-4.61617E-01 1.84063E+00
 -1      1555 6.74855E-01 2.23237E+00 2.45000E+00
 -1      1556-2.02443E+00-1.35268E+00 1.23125E+00
 -1      1557-1.96740E+00-1.31457E+00 1.23125E+00
 -1      1558 6.13448E-01 2.72223E+00 2.45000E+00
 -1      1559-1.35268E+00-2.02443E+00 1.71875E+00
 -1      1560-1.31457E+00-1.96740E+00 1.71875E+00
 -1      1561 2.30808E-01-2.32070E+00 2.45000E+00
 -1      1562-1.35268E+00 2.02443E+00 1.71875E+00
 -1      1563-1.31457E+00 1.96740E+00 1.71875E+00
 -1      1564-2.02443E+00 1.35268E+00 7.43750E-01
 -1      1565-1.96740E+00 1.31457E+00 7.43750E-01
 -1      1566 1.10133E+00-2.05573E+00 2.45000E+00
 -1      1567 1.80419E+00-1.47778E+00 5.00000E-01
 -1      1568-1.47778E+00 1.80419E+00 5.00000E-01
 -1      1569 1.35268E+00 2.02443E+00 7.43750E-01
 -1      1570 1.31457E+00 1.96740E+00 7.43750E-01
 -1      1571-2.02443E+00 1.35268E+00 1.71875E+00
 -1      1572-1.96740E+00 1.31457E+00 1.71875E+00
 -1      1573-1.80419E+00 1.47778E+00 5.00000E-01
 -1      1574 2.02443E+00 1.35268E+00 1.23125E+00
 -1      1575 1.96740E+00 1.31457E+00 1.23125E+00
 -1      1576-2.05573E+00 1.10133E+00 5.00000E-01
 -1      1577-6.74855E-01 2.23237E+00 5.00000E-01
 -1      1578-4.74999E-01-2.38798E+00 1.23125E+00
 -1      1579-4.61617E-01-2.32070E+00 1.23125E+00
 -1      1580 8.88093E-01 2.14405E+00 5.00000E-01
 -1      1581 4.74999E-01-2.38798E+00 2.20625E+00
 -1      1582 4.61617E-01-2.32070E+00 2.20625E+00
 -1      1583 2.38798E+00 4.74999E-01 7.43750E-01
 -1      1584 2.32070E+00 4.61617E-01 7.43750E-01
 -1      1585 0.00000E+00 2.32070E+00 5.00000E-01
 -1      1586 2.02443E+00-1.35268E+00 1.71875E+00
 -1      1587 1.96740E+00-1.31457E+00 1.71875E+00
 -1      1588 1.35268E+00-2.02443E+00 1.71875E+00
 -1      1589 1.31457E+00-1.96740E+00 1.71875E+00
 -1      1590-4.74999E-01 2.38798E+00 2.20625E+00
 -1      1591-4.61617E-01 2.32070E+00 2.20625E+00
 -1      1592-4.74999E-01 2.38798E+00 7.43750E-01
 -1      1593-4.61617E-01 2.32070E+00 7.43750E-01
 -1      1594 4.74999E-01-2.38798E+00 7.43750E-01
 -1      1595 4.61617E-01-2.32070E+00 7.43750E-01
 -1      1596-2.02443E+00-1.35268E+00 1.71875E+00
 -1      1597-1.96740E+00-1.31457E+00 1.71875E+00
 -1      1598-1.35268E+00 2.02443E+00 1.23125E+00
 -1      1599-1.31457E+00 1.96740E+00 1.23125E+00
 -1      1600 2.02443E+00 1.35268E+00 1.71875E+00
 -1      1601 1.96740E+00 1.31457E+00 1.71875E+00
 -1      1602 1.64099E+00 1.64099E+00 2.45000E+00
 -1      1603-1.35268E+00 2.02443E+00 2.20625E+00
 -1      1604-1.31457E+00 1.96740E+00 2.20625E+00
 -1      1605-2.30808E-01 2.32070E+00 5.00000E-01
 -1      1606 1.35268E+00 2.02443E+00 1.59687E+00
 -1      1607 1.31457E+00 1.96740E+00 1.59687E+00
 -1      1608 2.05573E+00-1.10133E+00 5.00000E-01
 -1      1609-4.74999E-01-2.38798E+00 2.20625E+00
 -1      1610-4.61617E-01-2.32070E+00 2.20625E+00
 -1      1611 2.38798E+00 4.74999E-01 1.59687E+00
 -1      1612 2.32070E+00 4.61617E-01 1.59687E+00
 -1      1613-2.38798E+00-4.74999E-01 7.43750E-01
 -1      1614-2.32070E+00-4.61617E-01 7.43750E-01
 -1      1615-4.74999E-01-2.38798E+00 1.35312E+00
 -1      1616-4.61617E-01-2.32070E+00 1.35312E+00
 -1      1617-2.30808E-01-2.32070E+00 2.45000E+00
 -1      1618-2.32070E+00-2.30808E-01 5.00000E-01
 -1      1619 2.32070E+00 2.30808E-01 5.00000E-01
 -1      1620-2.14405E+00-8.88093E-01 5.00000E-01
 -1      1621-1.10133E+00 2.05573E+00 5.00000E-01
 -1      1622-2.38798E+00 4.74999E-01 1.84063E+00
 -1      1623-2.32070E+00 4.61617E-01 1.84063E+00
 -1      1624 2.38798E+00 4.74999E-01 1.35312E+00
 -1      1625 2.32070E+00 4.61617E-01 1.35312E+00
 -1      1626-2.14405E+00-8.88093E-01 2.45000E+00
 -1      1627 2.23237E+00-6.74855E-01 5.00000E-01
 -1      1628-2.74977E+00-4.74999E-01 2.45000E+00
 -1      1629-2.32070E+00-4.61617E-01 6.21875E-01
 -1      1630-2.38798E+00-4.74999E-01 6.21875E-01
 -1      1631 2.14405E+00-8.88093E-01 2.45000E+00
 -1      1632 2.02443E+00-1.35268E+00 1.59687E+00
 -1      1633 1.96740E+00-1.31457E+00 1.59687E+00
 -1      1634-4.74999E-01 2.38798E+00 6.21875E-01
 -1      1635-4.61617E-01 2.32070E+00 6.21875E-01
 -1      1636-2.02443E+00-1.35268E+00 1.10938E+00
 -1      1637-1.96740E+00-1.31457E+00 1.10938E+00
 -1      1638-1.31457E+00 1.96740E+00 1.84063E+00
 -1      1639-1.35268E+00 2.02443E+00 1.84063E+00
 -1      1640-2.38798E+00 4.74999E-01 2.20625E+00
 -1      1641-2.32070E+00 4.61617E-01 2.20625E+00
 -1      1642 2.02443E+00 1.35268E+00 1.10938E+00
 -1      1643 1.96740E+00 1.31457E+00 1.10938E+00
 -1      1644-1.47778E+00-1.80419E+00 2.45000E+00
 -1      1645-2.38798E+00 4.74999E-01 1.59687E+00
 -1      1646-2.32070E+00 4.61617E-01 1.59687E+00
 -1      1647-6.13448E-01 2.72223E+00 2.45000E+00
 -1      1648 2.02443E+00-1.35268E+00 1.10938E+00
 -1      1649 1.96740E+00-1.31457E+00 1.10938E+00
 -1      1650-1.10133E+00 2.05573E+00 2.45000E+00
 -1      1651 1.47778E+00-1.80419E+00 5.00000E-01
 -1      1652 6.74855E-01-2.23237E+00 5.00000E-01
 -1      1653 4.61617E-01-2.32070E+00 1.10938E+00
 -1      1654 4.74999E-01-2.38798E+00 1.10938E+00
 -1      1655 1.35268E+00 2.02443E+00 1.84063E+00
 -1      1656 1.31457E+00 1.96740E+00 1.84063E+00
 -1      1657 1.35268E+00 2.02443E+00 2.20625E+00
 -1      1658 1.31457E+00 1.96740E+00 2.20625E+00
 -1      1659 4.74999E-01 2.38798E+00 1.10938E+00
 -1      1660 4.61617E-01 2.32070E+00 1.10938E+00
 -1      1661 2.30808E-01 2.32070E+00 5.00000E-01
 -1      1662-1.47778E+00 1.80419E+00 2.45000E+00
 -1      1663 2.30808E-01 2.32070E+00 2.45000E+00
 -1      1664-6.74855E-01-2.23237E+00 2.45000E+00
 -1      1665-4.74999E-01-2.38798E+00 1.71875E+00
 -1      1666-4.61617E-01-2.32070E+00 1.71875E+00
 -1      1667 4.74999E-01 2.38798E+00 7.43750E-01
 -1      1668 4.61617E-01 2.32070E+00 7.43750E-01
 -1      1669-1.35268E+00-2.02443E+00 7.43750E-01
 -1      1670-1.31457E+00-1.96740E+00 7.43750E-01
 -1      1671-2.38798E+00 4.74999E-01 7.43750E-01
 -1      1672-2.32070E+00 4.61617E-01 7.43750E-01
 -1      1673-4.74999E-01-2.38798E+00 2.32812E+00
 -1      1674-4.61617E-01-2.32070E+00 2.32812E+00
 -1      1675 6.74855E-01-2.23237E+00 2.45000E+00
 -1      1676 2.38798E+00 4.74999E-01 1.84063E+00
 -1      1677 2.32070E+00 4.61617E-01 1.84063E+00
 -1      1678-2.30808E-01 2.32070E+00 2.45000E+00
 -1      1679 4.74999E-01-2.38798E+00 2.08437E+00
 -1      1680 4.61617E-01-2.32070E+00 2.08437E+00
 -1      1681-2.38798E+00-4.74999E-01 1.10938E+00
 -1      1682-2.32070E+00-4.61617E-01 1.10938E+00
 -1      1683 4.74999E-01 2.38798E+00 1.71875E+00
 -1      1684 4.61617E-01 2.32070E+00 1.71875E+00
 -1      1685-4.74999E-01-2.38798E+00 2.08437E+00
 -1      1686-4.61617E-01-2.32070E+00 2.08437E+00
 -1      1687-1.35268E+00-2.02443E+00 2.20625E+00
 -1      1688-1.31457E+00-1.96740E+00 2.20625E+00
 -1      1689 1.35268E+00-2.02443E+00 1.35312E+00
 -1      1690 1.31457E+00-1.96740E+00 1.35312E+00
 -1      1691 2.14405E+00 8.88093E-01 2.45000E+00
 -1      1692 2.35868E+00 1.49113E+00 2.45000E+00
 -1      1693 1.10133E+00 2.05573E+00 5.00000E-01
 -1      1694-2.38798E+00 4.74999E-01 1.23125E+00
 -1      1695-2.32070E+00 4.61617E-01 1.23125E+00
 -1      1696-2.02443E+00 1.35268E+00 6.21875E-01
 -1      1697-1.96740E+00 1.31457E+00 6.21875E-01
 -1      1698-4.74999E-01-2.38798E+00 1.59687E+00
 -1      1699-4.61617E-01-2.32070E+00 1.59687E+00
 -1      1700 1.49113E+00 2.35868E+00 2.45000E+00
 -1      1701 2.05573E+00 1.10133E+00 5.00000E-01
 -1      1702 2.38798E+00-4.74999E-01 2.20625E+00
 -1      1703 2.32070E+00-4.61617E-01 2.20625E+00
 -1      1704 1.35268E+00-2.02443E+00 1.10938E+00
 -1      1705 1.31457E+00-1.96740E+00 1.10938E+00
 -1      1706-2.23237E+00 6.74855E-01 2.45000E+00
 -1      1707-2.38798E+00 4.74999E-01 1.35312E+00
 -1      1708-2.32070E+00 4.61617E-01 1.35312E+00
 -1      1709-2.32070E+00 2.30808E-01 2.45000E+00
 -1      1710-4.74999E-01 2.74977E+00 2.45000E+00
 -1      1711 2.23237E+00 6.74855E-01 5.00000E-01
 -1      1712-1.35268E+00 2.02443E+00 2.32812E+00
 -1      1713-1.31457E+00 1.96740E+00 2.32812E+00
 -1      1714-1.35268E+00 2.02443E+00 1.59687E+00
 -1      1715-1.31457E+00 1.96740E+00 1.59687E+00
 -1      1716-5.68236E-01-2.27654E+00 2.45000E+00
 -1      1717-2.05573E+00 1.10133E+00 2.45000E+00
 -1      1718 2.30808E-01-2.32070E+00 5.00000E-01
 -1      1719 2.38798E+00-4.74999E-01 8.65625E-01
 -1      1720 2.32070E+00-4.61617E-01 8.65625E-01
 -1      1721 1.10133E+00-2.05573E+00 5.00000E-01
 -1      1722-4.74999E-01 2.38798E+00 1.59687E+00
 -1      1723-4.61617E-01 2.32070E+00 1.59687E+00
 -1      1724 6.74855E-01 2.23237E+00 5.00000E-01
 -1      1725-4.74999E-01 2.38798E+00 2.08437E+00
 -1      1726-4.61617E-01 2.32070E+00 2.08437E+00
 -1      1727-1.20795E+00 2.01156E+00 2.45000E+00
 -1      1728-2.02443E+00 1.35268E+00 2.20625E+00
 -1      1729-1.96740E+00 1.31457E+00 2.20625E+00
 -1      1730-2.38798E+00 4.74999E-01 8.65625E-01
 -1      1731-2.32070E+00 4.61617E-01 8.65625E-01
 -1      1732 4.74999E-01-2.74977E+00 2.45000E+00
 -1      1733 2.38798E+00 4.74999E-01 2.20625E+00
 -1      1734 2.32070E+00 4.61617E-01 2.20625E+00
 -1      1735 4.65895E+00 3.31545E+00 5.00000E-01
 -1      1736 4.78531E+00 3.01041E+00 5.00000E-01
 -1      1737 2.38798E+00-4.74999E-01 1.84063E+00
 -1      1738 2.32070E+00-4.61617E-01 1.84063E+00
 -1      1739-2.02443E+00 1.35268E+00 1.10938E+00
 -1      1740-1.96740E+00 1.31457E+00 1.10938E+00
 -1      1741-2.05573E+00-1.10133E+00 5.00000E-01
 -1      1742-2.38798E+00 4.74999E-01 2.08437E+00
 -1      1743-2.32070E+00 4.61617E-01 2.08437E+00
 -1      1744-1.49113E+00 2.35868E+00 2.45000E+00
 -1      1745 1.80419E+00-1.47778E+00 2.45000E+00
 -1      1746-1.10133E+00-2.05573E+00 2.45000E+00
 -1      1747-1.60850E+00 2.28025E+00 2.45000E+00
 -1      1748-2.02443E+00-1.35268E+00 1.59687E+00
 -1      1749-1.96740E+00-1.31457E+00 1.59687E+00
 -1      1750 2.32070E+00 2.30808E-01 2.45000E+00
 -1      1751-1.88580E+00 1.39617E+00 5.00000E-01
 -1      1752 2.02443E+00-1.35268E+00 7.43750E-01
 -1      1753 1.96740E+00-1.31457E+00 7.43750E-01
 -1      1754 2.23237E+00 6.74855E-01 2.45000E+00
 -1      1755-2.23237E+00-6.74855E-01 5.00000E-01
 -1      1756-4.74999E-01-2.38798E+00 7.43750E-01
 -1      1757-4.61617E-01-2.32070E+00 7.43750E-01
 -1      1758 4.74999E-01 2.38798E+00 2.32812E+00
 -1      1759 4.61617E-01 2.32070E+00 2.32812E+00
 -1      1760-2.72223E+00-6.13448E-01 2.45000E+00
 -1      1761-2.35868E+00 1.49113E+00 2.45000E+00
 -1      1762-2.02443E+00-1.35268E+00 2.20625E+00
 -1      1763-1.96740E+00-1.31457E+00 2.20625E+00
 -1      1764-1.35268E+00 2.02443E+00 8.65625E-01
 -1      1765-1.31457E+00 1.96740E+00 8.65625E-01
 -1      1766-1.35268E+00-2.02443E+00 1.10938E+00
 -1      1767-1.31457E+00-1.96740E+00 1.10938E+00
 -1      1768-2.38798E+00 4.74999E-01 1.10938E+00
 -1      1769-2.32070E+00 4.61617E-01 1.10938E+00
 -1      1770-2.05573E+00-1.10133E+00 2.45000E+00
 -1      1771-5.68236E-01 2.27654E+00 5.00000E-01
 -1      1772-4.74999E-01-2.74977E+00 2.45000E+00
 -1      1773-2.02443E+00 1.35268E+00 8.65625E-01
 -1      1774-1.96740E+00 1.31457E+00 8.65625E-01
 -1      1775 2.32070E+00-2.30808E-01 2.45000E+00
 -1      1776 1.49113E+00-2.35868E+00 2.45000E+00
 -1      1777-2.02443E+00 1.35268E+00 1.84063E+00
 -1      1778-1.96740E+00 1.31457E+00 1.84063E+00
 -1      1779-2.30808E-01-2.32070E+00 5.00000E-01
 -1      1780 6.13448E-01-2.72223E+00 2.45000E+00
 -1      1781-1.35268E+00-2.02443E+00 1.84063E+00
 -1      1782-1.31457E+00-1.96740E+00 1.84063E+00
 -1      1783-4.74999E-01-2.38798E+00 1.10938E+00
 -1      1784-4.61617E-01-2.32070E+00 1.10938E+00
 -1      1785 2.38798E+00 4.74999E-01 1.10938E+00
 -1      1786 2.32070E+00 4.61617E-01 1.10938E+00
 -1      1787-6.13448E-01-2.72223E+00 2.45000E+00
 -1      1788-2.38798E+00-4.74999E-01 1.35312E+00
 -1      1789-2.32070E+00-4.61617E-01 1.35312E+00
 -1      1790 1.47778E+00 1.80419E+00 5.00000E-01
 -1      1791-2.38798E+00-4.74999E-01 8.65625E-01
 -1      1792-2.32070E+00-4.61617E-01 8.65625E-01
 -1      1793-4.65895E+00 3.31545E+00 5.00000E-01
 -1      1794-4.78531E+00 3.01041E+00 5.00000E-01
 -1      1795-2.02443E+00-1.35268E+00 7.43750E-01
 -1      1796-1.96740E+00-1.31457E+00 7.43750E-01
 -1      1797 2.32070E+00-2.30808E-01 5.00000E-01
 -1      1798 1.35268E+00-2.02443E+00 1.84063E+00
 -1      1799 1.31457E+00-1.96740E+00 1.84063E+00
 -1      1800 2.72223E+00 6.13448E-01 2.45000E+00
 -1      1801 1.35268E+00 2.02443E+00 1.35312E+00
 -1      1802 1.31457E+00 1.96740E+00 1.35312E+00
 -1      1803 5.63875E+00-9.50000E-01 5.00000E-01
 -1      1804 5.51240E+00-1.25504E+00 5.00000E-01
 -1      1805-2.27654E+00-5.68236E-01 5.00000E-01
 -1      1806-2.32070E+00 2.30808E-01 5.00000E-01
 -1      1807-2.02443E+00-1.35268E+00 1.35312E+00
 -1      1808-1.96740E+00-1.31457E+00 1.35312E+00
 -1      1809-1.80419E+00-1.47778E+00 2.45000E+00
 -1      1810 2.02443E+00 1.35268E+00 1.35312E+00
 -1      1811 1.96740E+00 1.31457E+00 1.35312E+00
 -1      1812-1.96740E+00-1.31457E+00 1.84063E+00
 -1      1813-2.02443E+00-1.35268E+00 1.84063E+00
 -1      1814 2.74977E+00 4.74999E-01 2.45000E+00
 -1      1815-5.68236E-01-2.27654E+00 5.00000E-01
 -1      1816-4.74999E-01 2.38798E+00 1.10938E+00
 -1      1817-4.61617E-01 2.32070E+00 1.10938E+00
 -1      1818-1.35268E+00 2.02443E+00 6.21875E-01
 -1      1819-1.31457E+00 1.96740E+00 6.21875E-01
 -1      1820 1.47778E+00 1.80419E+00 2.45000E+00
 -1      1821-2.74977E+00 4.74999E-01 2.45000E+00
 -1      1822 1.35268E+00-2.02443E+00 1.59687E+00
 -1      1823 1.31457E+00-1.96740E+00 1.59687E+00
 -1      1824 2.02443E+00 1.35268E+00 2.20625E+00
 -1      1825 1.96740E+00 1.31457E+00 2.20625E+00
 -1      1826-2.32070E+00 3.46213E-01 5.00000E-01
 -1      1827 4.74999E-01 2.74977E+00 2.45000E+00
 -1      1828 2.02443E+00 1.35268E+00 1.84063E+00
 -1      1829 1.96740E+00 1.31457E+00 1.84063E+00
 -1      1830-4.74999E-01 2.38798E+00 1.84063E+00
 -1      1831-4.61617E-01 2.32070E+00 1.84063E+00
 -1      1832-1.35268E+00-2.02443E+00 8.65625E-01
 -1      1833-1.31457E+00-1.96740E+00 8.65625E-01
 -1      1834 2.74977E+00-4.74999E-01 2.45000E+00
 -1      1835 1.80419E+00 1.47778E+00 2.45000E+00
 -1      1836-2.72223E+00 6.13448E-01 2.45000E+00
 -1      1837 2.38798E+00 4.74999E-01 2.08437E+00
 -1      1838 2.32070E+00 4.61617E-01 2.08437E+00
 -1      1839-3.46213E-01-2.32070E+00 2.45000E+00
 -1      1840-1.35268E+00-2.02443E+00 1.35312E+00
 -1      1841-1.31457E+00-1.96740E+00 1.35312E+00
 -1      1842 2.02443E+00 1.35268E+00 1.59687E+00
 -1      1843 1.96740E+00 1.31457E+00 1.59687E+00
 -1      1844 1.60850E+00 2.28025E+00 2.45000E+00
 -1      1845-1.47778E+00-1.80419E+00 5.00000E-01
 -1      1846-3.46213E-01 2.32070E+00 5.00000E-01
 -1      1847 1.35268E+00 2.02443E+00 6.21875E-01
 -1      1848 1.31457E+00 1.96740E+00 6.21875E-01
 -1      1849 2.02443E+00-1.35268E+00 1.35312E+00
 -1      1850 1.96740E+00-1.31457E+00 1.35312E+00
 -1      1851-2.23237E+00 6.74855E-01 5.00000E-01
 -1      1852 2.32070E+00-4.61617E-01 2.08437E+00
 -1      1853 2.38798E+00-4.74999E-01 2.08437E+00
 -1      1854 2.02443E+00-1.35268E+00 1.84063E+00
 -1      1855 1.96740E+00-1.31457E+00 1.84063E+00
 -1      1856 2.38798E+00 4.74999E-01 6.21875E-01
 -1      1857 2.32070E+00 4.61617E-01 6.21875E-01
 -1      1858-1.10133E+00-2.05573E+00 5.00000E-01
 -1      1859 5.68236E-01 2.27654E+00 5.00000E-01
 -1      1860-4.74999E-01 2.56887E+00 2.45000E+00
 -1      1861-1.35268E+00-2.02443E+00 1.59687E+00
 -1      1862-1.31457E+00-1.96740E+00 1.59687E+00
 -1      1863-2.02443E+00 1.35268E+00 1.35312E+00
 -1      1864-1.96740E+00 1.31457E+00 1.35312E+00
 -1      1865-1.80419E+00-1.47778E+00 5.00000E-01
 -1      1866-2.56887E+00 4.74999E-01 2.45000E+00
 -1      1867 4.74999E-01 2.38798E+00 1.35312E+00
 -1      1868 4.61617E-01 2.32070E+00 1.35312E+00
 -1      1869 2.28025E+00 1.60850E+00 2.45000E+00
 -1      1870 4.74999E-01-2.38798E+00 1.84063E+00
 -1      1871 4.61617E-01-2.32070E+00 1.84063E+00
 -1      1872 5.68236E-01-2.27654E+00 2.45000E+00
 -1      1873 2.35868E+00-1.49113E+00 2.45000E+00
 -1      1874 2.02443E+00 1.35268E+00 8.65625E-01
 -1      1875 1.96740E+00 1.31457E+00 8.65625E-01
 -1      1876-1.39617E+00 1.88580E+00 5.00000E-01
 -1      1877 4.65895E+00-3.31545E+00 5.00000E-01
 -1      1878 4.78531E+00-3.01041E+00 5.00000E-01
 -1      1879-2.27654E+00 5.68236E-01 2.45000E+00
 -1      1880 4.74999E-01 2.38798E+00 1.59687E+00
 -1      1881 4.61617E-01 2.32070E+00 1.59687E+00
 -1      1882 1.20795E+00 2.01156E+00 5.00000E-01
 -1      1883 2.02443E+00 1.35268E+00 2.08437E+00
 -1      1884 1.96740E+00 1.31457E+00 2.08437E+00
 -1      1885-2.01156E+00 1.20795E+00 5.00000E-01
 -1      1886-2.02443E+00-1.35268E+00 8.65625E-01
 -1      1887-1.96740E+00-1.31457E+00 8.65625E-01
 -1      1888-1.35268E+00 2.02443E+00 2.08437E+00
 -1      1889-1.31457E+00 1.96740E+00 2.08437E+00
 -1      1890-1.49113E+00-2.35868E+00 2.45000E+00
 -1      1891 2.32070E+00 3.46213E-01 5.00000E-01
 -1      1892-1.80419E+00 1.47778E+00 2.45000E+00
 -1      1893-1.39617E+00 1.88580E+00 2.45000E+00
 -1      1894 2.72223E+00-6.13448E-01 2.45000E+00
 -1      1895 2.38798E+00-4.74999E-01 1.35312E+00
 -1      1896 2.32070E+00-4.61617E-01 1.35312E+00
 -1      1897-4.74999E-01 2.38798E+00 2.32812E+00
 -1      1898-4.61617E-01 2.32070E+00 2.32812E+00
 -1      1899 1.39617E+00 1.88580E+00 5.00000E-01
 -1      1900-4.74999E-01-2.38798E+00 8.65625E-01
 -1      1901-4.61617E-01-2.32070E+00 8.65625E-01
 -1      1902 3.46213E-01 2.32070E+00 2.45000E+00
 -1      1903 4.74999E-01 2.38798E+00 1.84063E+00
 -1      1904 4.61617E-01 2.32070E+00 1.84063E+00
 -1      1905-1.20795E+00 2.01156E+00 5.00000E-01
 -1      1906-2.38798E+00 4.74999E-01 2.32812E+00
 -1      1907-2.32070E+00 4.61617E-01 2.32812E+00
 -1      1908 2.02443E+00 1.35268E+00 2.32812E+00
 -1      1909 1.96740E+00 1.31457E+00 2.32812E+00
 -1      1910 1.10133E+00 2.05573E+00 2.45000E+00
 -1      1911 2.05573E+00 1.10133E+00 2.45000E+00
 -1      1912 1.31457E+00-1.96740E+00 6.21875E-01
 -1      1913 1.35268E+00-2.02443E+00 6.21875E-01
 -1      1914-5.68236E-01 2.27654E+00 2.45000E+00
 -1      1915-1.35268E+00-2.02443E+00 6.21875E-01
 -1      1916-1.31457E+00-1.96740E+00 6.21875E-01
 -1      1917 2.38798E+00-4.74999E-01 1.10938E+00
 -1      1918 2.32070E+00-4.61617E-01 1.10938E+00
 -1      1919 2.32070E+00 3.46213E-01 2.45000E+00
 -1      1920 2.02443E+00-1.35268E+00 2.20625E+00
 -1      1921 1.96740E+00-1.31457E+00 2.20625E+00
 -1      1922-4.74999E-01-2.38798E+00 6.21875E-01
 -1      1923-4.61617E-01-2.32070E+00 6.21875E-01
 -1      1924-4.74999E-01-2.38798E+00 1.84063E+00
 -1      1925-4.61617E-01-2.32070E+00 1.84063E+00
 -1      1926-1.20795E+00-2.01156E+00 2.45000E+00
 -1      1927 2.05573E+00-1.10133E+00 2.45000E+00
 -1      1928 2.28025E+00-1.60850E+00 2.45000E+00
 -1      1929-2.02443E+00 1.35268E+00 1.59687E+00
 -1      1930-1.96740E+00 1.31457E+00 1.59687E+00
 -1      1931 1.39617E+00 1.88580E+00 2.45000E+00
 -1      1932 1.88580E+00 1.39617E+00 2.45000E+00
 -1      1933-4.74999E-01 2.38798E+00 8.65625E-01
 -1      1934-4.61617E-01 2.32070E+00 8.65625E-01
 -1      1935 3.46213E-01-2.32070E+00 2.45000E+00
 -1      1936 2.38798E+00-4.74999E-01 2.32812E+00
 -1      1937 2.32070E+00-4.61617E-01 2.32812E+00
 -1      1938 1.47778E+00-1.80419E+00 2.45000E+00
 -1      1939-2.02443E+00 1.35268E+00 2.32812E+00
 -1      1940-1.96740E+00 1.31457E+00 2.32812E+00
 -1      1941 1.96740E+00-1.31457E+00 6.21875E-01
 -1      1942 2.02443E+00-1.35268E+00 6.21875E-01
 -1      1943 2.02443E+00-1.35268E+00 8.65625E-01
 -1      1944 1.96740E+00-1.31457E+00 8.65625E-01
 -1      1945-2.01156E+00 1.20795E+00 2.45000E+00
 -1      1946 2.01156E+00 1.20795E+00 2.45000E+00
 -1      1947 2.32070E+00 4.61617E-01 2.32812E+00
 -1      1948 2.38798E+00 4.74999E-01 2.32812E+00
 -1      1949-9.50000E-01-5.63875E+00 5.00000E-01
 -1      1950-1.25504E+00-5.51240E+00 5.00000E-01
 -1      1951-1.39617E+00-1.88580E+00 5.00000E-01
 -1      1952-2.32070E+00-3.46213E-01 5.00000E-01
 -1      1953-2.23237E+00-6.74855E-01 2.45000E+00
 -1      1954-1.20795E+00-2.01156E+00 5.00000E-01
 -1      1955 2.02443E+00-1.35268E+00 2.08437E+00
 -1      1956 1.96740E+00-1.31457E+00 2.08437E+00
 -1      1957 1.20795E+00-2.01156E+00 2.45000E+00
 -1      1958 1.35268E+00 2.02443E+00 8.65625E-01
 -1      1959 1.31457E+00 1.96740E+00 8.65625E-01
 -1      1960-2.02443E+00-1.35268E+00 2.32812E+00
 -1      1961-1.96740E+00-1.31457E+00 2.32812E+00
 -1      1962 3.46213E-01-2.32070E+00 5.00000E-01
 -1      1963-3.46213E-01 2.32070E+00 2.45000E+00
 -1      1964-1.88580E+00 1.39617E+00 2.45000E+00
 -1      1965-3.46213E-01-2.32070E+00 5.00000E-01
 -1      1966-2.01156E+00-1.20795E+00 5.00000E-01
 -1      1967 2.27654E+00 5.68236E-01 2.45000E+00
 -1      1968-2.01156E+00-1.20795E+00 2.45000E+00
 -1      1969-2.35868E+00-1.49113E+00 2.45000E+00
 -1      1970 2.32070E+00-3.46213E-01 2.45000E+00
 -1      1971 1.20795E+00-2.01156E+00 5.00000E-01
 -1      1972-1.96740E+00-1.31457E+00 2.08437E+00
 -1      1973-2.02443E+00-1.35268E+00 2.08437E+00
 -1      1974 2.32070E+00-3.46213E-01 5.00000E-01
 -1      1975 3.31545E+00-4.65895E+00 5.00000E-01
 -1      1976 3.01041E+00-4.78531E+00 5.00000E-01
 -1      1977 2.01156E+00-1.20795E+00 5.00000E-01
 -1      1978-4.74999E-01 2.38798E+00 1.35312E+00
 -1      1979-4.61617E-01 2.32070E+00 1.35312E+00
 -1      1980-4.74999E-01-2.56887E+00 2.45000E+00
 -1      1981 1.60850E+00-2.28025E+00 2.45000E+00
 -1      1982-2.38798E+00-4.74999E-01 2.20625E+00
 -1      1983-2.32070E+00-4.61617E-01 2.20625E+00
 -1      1984 4.74999E-01-2.38798E+00 2.32812E+00
 -1      1985 4.61617E-01-2.32070E+00 2.32812E+00
 -1      1986 1.80419E+00 1.47778E+00 5.00000E-01
 -1      1987 2.38798E+00-4.74999E-01 6.21875E-01
 -1      1988 2.32070E+00-4.61617E-01 6.21875E-01
 -1      1989-4.65895E+00-3.31545E+00 5.00000E-01
 -1      1990-4.78531E+00-3.01041E+00 5.00000E-01
 -1      1991-1.35268E+00-2.02443E+00 2.08437E+00
 -1      1992-1.31457E+00-1.96740E+00 2.08437E+00
 -1      1993 2.23237E+00-6.74855E-01 2.45000E+00
 -1      1994 1.88580E+00-1.39617E+00 5.00000E-01
 -1      1995 2.02443E+00 1.35268E+00 6.21875E-01
 -1      1996 1.96740E+00 1.31457E+00 6.21875E-01
 -1      1997 9.50000E-01 5.63875E+00 5.00000E-01
 -1      1998 1.25504E+00 5.51240E+00 5.00000E-01
 -1      1999 5.68236E-01-2.27654E+00 5.00000E-01
 -1      2000-1.35268E+00-2.02443E+00 2.32812E+00
 -1      2001-1.31457E+00-1.96740E+00 2.32812E+00
 -1      2002 1.88580E+00 1.39617E+00 5.00000E-01
 -1      2003 1.35268E+00 2.02443E+00 2.32812E+00
 -1      2004 1.31457E+00 1.96740E+00 2.32812E+00
 -1      2005 1.20795E+00 2.01156E+00 2.45000E+00
 -1      2006-1.39617E+00-1.88580E+00 2.45000E+00
 -1      2007 2.27654E+00-5.68236E-01 2.45000E+00
 -1      2008 2.27654E+00-5.68236E-01 5.00000E-01
 -1      2009 2.38798E+00-4.74999E-01 1.59687E+00
 -1      2010 2.32070E+00-4.61617E-01 1.59687E+00
 -1      2011 2.01156E+00 1.20795E+00 5.00000E-01
 -1      2012-5.63875E+00 9.50000E-01 5.00000E-01
 -1      2013-5.51240E+00 1.25504E+00 5.00000E-01
 -1      2014-5.63875E+00-9.50000E-01 5.00000E-01
 -1      2015-5.51240E+00-1.25504E+00 5.00000E-01
 -1      2016-2.32070E+00-2.30808E-01 2.45000E+00
 -1      2017-2.02443E+00-1.35268E+00 6.21875E-01
 -1      2018-1.96740E+00-1.31457E+00 6.21875E-01
 -1      2019 1.88580E+00-1.39617E+00 2.45000E+00
 -1      2020 3.31545E+00 4.65895E+00 5.00000E-01
 -1      2021 3.01041E+00 4.78531E+00 5.00000E-01
 -1      2022-2.38798E+00-4.74999E-01 2.08437E+00
 -1      2023-2.32070E+00-4.61617E-01 2.08437E+00
 -1      2024 4.74999E-01 2.38798E+00 8.65625E-01
 -1      2025 4.61617E-01 2.32070E+00 8.65625E-01
 -1      2026-1.88580E+00-1.39617E+00 5.00000E-01
 -1      2027-2.27654E+00-5.68236E-01 2.45000E+00
 -1      2028-2.32070E+00 3.46213E-01 2.45000E+00
 -1      2029 2.19155E+00 1.42191E+00 2.45000E+00
 -1      2030-2.32070E+00-3.46213E-01 2.45000E+00
 -1      2031 9.50000E-01-5.63875E+00 5.00000E-01
 -1      2032 1.25504E+00-5.51240E+00 5.00000E-01
 -1      2033 5.63875E+00 9.50000E-01 5.00000E-01
 -1      2034 5.51240E+00 1.25504E+00 5.00000E-01
 -1      2035-3.31545E+00 4.65895E+00 5.00000E-01
 -1      2036-3.01041E+00 4.78531E+00 5.00000E-01
 -1      2037-9.50000E-01 5.63875E+00 5.00000E-01
 -1      2038-1.25504E+00 5.51240E+00 5.00000E-01
 -1      2039-3.31545E+00-4.65895E+00 5.00000E-01
 -1      2040-3.01041E+00-4.78531E+00 5.00000E-01
 -1      2041-2.27654E+00 5.68236E-01 5.00000E-01
 -1      2042 2.65265E+00 2.65265E+00-5.00000E-01
 -1      2043-4.30523E+00-1.03939E+01-5.00000E-01
 -1      2044 9.35357E+00 6.24987E+00-5.00000E-01
 -1      2045-5.62656E+00-1.32265E+00-5.00000E-01
 -1      2046-7.95528E+00 7.95528E+00-5.00000E-01
 -1      2047 1.27016E+00-9.14579E+00-5.00000E-01
 -1      2048-1.12497E+01 0.00000E+00-5.00000E-01
 -1      2049 9.20579E+00 9.20579E+00 5.00000E-01
 -1      2050 7.01632E+00 1.05007E+01 5.00000E-01
 -1      2051 4.98223E+00 1.20279E+01 5.00000E-01
 -1      2052 2.46379E+00 1.23864E+01 5.00000E-01
 -1      2053 0.00000E+00 1.30190E+01 5.00000E-01
 -1      2054-2.46379E+00 1.23864E+01 5.00000E-01
 -1      2055-4.98223E+00 1.20279E+01 5.00000E-01
 -1      2056-7.01632E+00 1.05007E+01 5.00000E-01
 -1      2057 1.20279E+01 4.98223E+00 5.00000E-01
 -1      2058 1.05007E+01 7.01632E+00 5.00000E-01
 -1      2059 1.30190E+01 0.00000E+00 5.00000E-01
 -1      2060 1.23864E+01-2.46379E+00 5.00000E-01
 -1      2061 1.23864E+01 2.46379E+00 5.00000E-01
 -1      2062 1.20279E+01-4.98223E+00 5.00000E-01
 -1      2063 1.05007E+01-7.01632E+00 5.00000E-01
 -1      2064 9.08919E+00-6.07320E+00 5.00000E-01
 -1      2065 9.20579E+00-9.20579E+00 5.00000E-01
 -1      2066 7.01632E+00-1.05007E+01 5.00000E-01
 -1      2067 4.98223E+00-1.20279E+01 5.00000E-01
 -1      2068 2.46379E+00-1.23864E+01 5.00000E-01
 -1      2069 0.00000E+00-1.30190E+01 5.00000E-01
 -1      2070-2.46379E+00-1.23864E+01 5.00000E-01
 -1      2071-4.98223E+00-1.20279E+01 5.00000E-01
 -1      2072-7.01632E+00-1.05007E+01 5.00000E-01
 -1      2073-9.20579E+00-9.20579E+00 5.00000E-01
 -1      2074 3.66092E+00 1.17710E+01 5.00000E-01
 -1      2075-1.05007E+01-7.01632E+00 5.00000E-01
 -1      2076-1.20279E+01-4.98223E+00 5.00000E-01
 -1      2077-9.20579E+00 9.20579E+00 5.00000E-01
 -1      2078-6.95122E+00-1.02082E+01-5.00000E-01
 -1      2079-1.05007E+01 7.01632E+00 5.00000E-01
 -1      2080-1.20279E+01 4.98223E+00 5.00000E-01
 -1      2081-1.23864E+01-2.46379E+00 5.00000E-01
 -1      2082-1.23864E+01 2.46379E+00 5.00000E-01
 -1      2083-1.30190E+01 0.00000E+00 5.00000E-01
 -1      2084-1.29168E+01-3.82402E+00 5.00000E-01
 -1      2085 0.00000E+00 0.00000E+00 5.00000E-01
 -1      2086-4.85213E+00-1.21967E+01-5.00000E-01
 -1      2087 6.24987E+00-9.35357E+00-5.00000E-01
 -1      2088 4.30523E+00 1.03939E+01-5.00000E-01
 -1      2089 1.07215E+01 2.13262E+00 5.00000E-01
 -1      2090-8.67628E+00-9.99263E+00-5.00000E-01
 -1      2091 1.22759E+01 1.12232E+00 5.00000E-01
 -1      2092-3.82402E+00 1.29168E+01 5.00000E-01
 -1      2093-1.09119E+01 5.73466E+00 5.00000E-01
 -1      2094-1.33969E+01 1.41013E+00 5.00000E-01
 -1      2095-1.17710E+01 3.66092E+00 5.00000E-01
 -1      2096 1.12232E+00-1.22759E+01 5.00000E-01
 -1      2097 1.83484E+00-9.22438E+00 5.00000E-01
 -1      2098 5.65611E+00-8.46496E+00 5.00000E-01
 -1      2099 1.17710E+01 3.66092E+00 5.00000E-01
 -1      2100 6.07320E+00 9.08919E+00 5.00000E-01
 -1      2101-2.13262E+00 1.07215E+01 5.00000E-01
 -1      2102 0.00000E+00 1.12497E+01-5.00000E-01
 -1      2103-1.26926E+01 1.61946E+00-5.00000E-01
 -1      2104 1.03939E+01-4.30523E+00-5.00000E-01
 -1      2105 1.38684E+00 6.96987E+00-5.00000E-01
 -1      2106 1.17710E+01-3.66092E+00 5.00000E-01
 -1      2107 1.12497E+01 0.00000E+00-5.00000E-01
 -1      2108-1.16768E+01-3.52396E+00 5.00000E-01
 -1      2109 1.04702E+01-8.47592E+00 5.00000E-01
 -1      2110-9.86346E+00-4.08553E+00-5.00000E-01
 -1      2111 1.07215E+01-2.13262E+00 5.00000E-01
 -1      2112-3.66092E+00-1.17710E+01 5.00000E-01
 -1      2113 1.18375E+01-6.42965E+00 5.00000E-01
 -1      2114-1.12232E+00-1.22759E+01 5.00000E-01
 -1      2115 8.73672E+00-8.90749E+00-5.00000E-01
 -1      2116-5.73466E+00 1.09119E+01 5.00000E-01
 -1      2117-7.88674E+00 9.47394E+00 5.00000E-01
 -1      2118-5.73466E+00-1.09119E+01 5.00000E-01
 -1      2119 3.82402E+00-1.29168E+01 5.00000E-01
 -1      2120 3.60439E+00 1.31330E+01 5.00000E-01
 -1      2121 4.12763E+00 1.23408E+01-5.00000E-01
 -1      2122-1.18351E+01 6.73765E+00 5.00000E-01
 -1      2123 8.46496E+00 5.65611E+00 5.00000E-01
 -1      2124-9.88372E+00-9.53787E+00-5.00000E-01
 -1      2125 1.20554E+01-5.19336E+00-5.00000E-01
 -1      2126-4.30523E+00 1.03939E+01-5.00000E-01
 -1      2127-1.12232E+00 1.22759E+01 5.00000E-01
 -1      2128-1.01187E+01 4.99173E+00-5.00000E-01
 -1      2129 5.36353E+00 6.53610E+00-5.00000E-01
 -1      2130 2.13262E+00 1.07215E+01 5.00000E-01
 -1      2131-8.35386E+00-1.07586E+01 5.00000E-01
 -1      2132 2.84620E+00 1.31814E+01-5.00000E-01
 -1      2133-2.31557E+00 1.22603E+01-5.00000E-01
 -1      2134 5.95152E+00-9.73986E+00 5.00000E-01
 -1      2135 1.22570E+01-2.81795E+00-5.00000E-01
 -1      2136-8.16999E+00-6.81803E+00-5.00000E-01
 -1      2137 6.86620E+00-5.63450E+00-5.00000E-01
 -1      2138 7.88674E+00 9.47394E+00 5.00000E-01
 -1      2139-1.09033E+01-6.24469E+00-5.00000E-01
 -1      2140-1.37339E+01 9.83336E-01-5.00000E-01
 -1      2141-1.52770E+00-1.17609E+01-5.00000E-01
 -1      2142-1.07128E+01-2.13090E+00 5.00000E-01
 -1      2143 9.33865E+00-1.85757E+00 5.00000E-01
 -1      2144-6.73765E+00-1.18351E+01 5.00000E-01
 -1      2145 1.04702E+01 8.47592E+00 5.00000E-01
 -1      2146-1.04702E+01 8.47592E+00 5.00000E-01
 -1      2147-3.63810E+00 4.10766E+00-5.00000E-01
 -1      2148 1.18375E+01 6.42965E+00 5.00000E-01
 -1      2149 2.27767E+00-1.18754E+01-5.00000E-01
 -1      2150 1.33969E+01-1.41013E+00 5.00000E-01
 -1      2151-2.13262E+00-1.07215E+01 5.00000E-01
 -1      2152-9.09453E+00-6.07092E+00 5.00000E-01
 -1      2153 1.31249E+01 1.84671E-01-5.00000E-01
 -1      2154-1.07215E+01 2.13262E+00 5.00000E-01
 -1      2155 3.85198E+00-7.04558E+00-5.00000E-01
 -1      2156-1.20913E+01-2.51551E+00-5.00000E-01
 -1      2157 3.20117E+00 5.15766E+00-5.00000E-01
 -1      2158-1.17449E+01 5.86096E+00-5.00000E-01
 -1      2159 7.29288E+00 9.13942E+00-5.00000E-01
 -1      2160-9.08919E+00 6.07320E+00 5.00000E-01
 -1      2161 7.91689E+00-5.28990E+00 5.00000E-01
 -1      2162 1.31330E+01 3.60439E+00 5.00000E-01
 -1      2163-7.73776E-01-3.99611E+00-5.00000E-01
 -1      2164 1.89586E+00-1.10840E+01 5.00000E-01
 -1      2165-7.93796E+00-1.10945E+01-5.00000E-01
 -1      2166-7.18176E+00 2.32605E+00-5.00000E-01
 -1      2167 9.33865E+00 1.85757E+00 5.00000E-01
 -1      2168-1.01203E+01 7.83009E+00-5.00000E-01
 -1      2169 7.07590E+00 2.45286E+00-5.00000E-01
 -1      2170 2.44735E+00 1.35984E+01 5.00000E-01
 -1      2171 3.52268E+00 8.10513E+00-5.00000E-01
 -1      2172-1.96872E+00 9.89679E+00-5.00000E-01
 -1      2173 1.12981E+01 6.45571E+00-5.00000E-01
 -1      2174-7.03214E+00 1.03068E+01-5.00000E-01
 -1      2175 8.71357E+00 1.00381E+01-5.00000E-01
 -1      2176-9.40287E-01-1.32968E+01-5.00000E-01
 -1      2177-5.60610E+00 8.39001E+00-5.00000E-01
 -1      2178 8.76929E+00 1.04369E+01 5.00000E-01
 -1      2179 6.35347E+00 1.11068E+01-5.00000E-01
 -1      2180-9.87273E+00 2.31200E+00-5.00000E-01
 -1      2181 4.90579E+00 3.47184E+00-5.00000E-01
 -1      2182-8.80166E+00 9.64451E+00-5.00000E-01
 -1      2183 7.25346E+00 4.92799E+00-5.00000E-01
 -1      2184 1.02735E+01 3.11639E+00-5.00000E-01
 -1      2185 5.62647E+00 4.93050E+00-5.00000E-01
 -1      2186-9.94464E+00-1.83512E+00-5.00000E-01
 -1      2187 9.43936E+00-7.72426E+00 5.00000E-01
 -1      2188 1.23727E+01 5.36301E+00-5.00000E-01
 -1      2189-1.20962E+01 6.88230E+00-5.00000E-01
 -1      2190-1.40585E+00 1.11866E+01-5.00000E-01
 -1      2191 5.72946E+00 9.60088E+00-5.00000E-01
 -1      2192-5.19336E+00 1.20554E+01-5.00000E-01
 -1      2193-6.45413E+00 5.29380E+00-5.00000E-01
 -1      2194 4.76484E+00 3.51348E-01-5.00000E-01
 -1      2195-1.75370E+00-8.71483E+00-5.00000E-01
 -1      2196-5.65253E+00 9.84433E+00-5.00000E-01
 -1      2197-1.79331E+00 6.71095E+00-5.00000E-01
 -1      2198-7.91689E+00 5.28990E+00 5.00000E-01
 -1      2199-1.26672E+01 3.45845E+00-5.00000E-01
 -1      2200 9.04104E+00 1.01920E+00-5.00000E-01
 -1      2201-7.61799E+00-8.53374E+00-5.00000E-01
 -1      2202 4.88603E+00-1.14804E+01-5.00000E-01
 -1      2203-9.33865E+00 1.85757E+00 5.00000E-01
 -1      2204 7.44525E+00-1.08102E+01-5.00000E-01
 -1      2205 1.07486E+01 5.76486E+00 5.00000E-01
 -1      2206-5.99319E+00 9.51464E+00 5.00000E-01
 -1      2207-8.35581E+00 1.07539E+01 5.00000E-01
 -1      2208 1.07153E+01 4.80769E+00-5.00000E-01
 -1      2209-1.33969E+01-1.41013E+00 5.00000E-01
 -1      2210-1.31365E+01 3.60081E+00 5.00000E-01
 -1      2211-1.08179E+01 6.75088E+00-5.00000E-01
 -1      2212 8.97248E+00 4.52611E+00-5.00000E-01
 -1      2213-4.46122E+00 1.32985E+00-5.00000E-01
 -1      2214 4.18692E+00 1.94088E+00-5.00000E-01
 -1      2215 1.35126E+01 1.69567E+00 5.00000E-01
 -1      2216-3.56836E+00 1.30296E+01-5.00000E-01
 -1      2217 2.46805E+00 1.12078E+01-5.00000E-01
 -1      2218-7.88674E+00-9.47394E+00 5.00000E-01
 -1      2219 1.58353E+00 9.17660E+00-5.00000E-01
 -1      2220-6.07320E+00-9.08919E+00 5.00000E-01
 -1      2221 7.46988E+00 1.04319E+01-5.00000E-01
 -1      2222-1.70042E+00-1.35146E+01 5.00000E-01
 -1      2223 6.42965E+00-1.18375E+01 5.00000E-01
 -1      2224 8.47592E+00-1.04702E+01 5.00000E-01
 -1      2225 3.77732E+00 3.06746E+00-5.00000E-01
 -1      2226-1.25810E+01 2.66402E-01-5.00000E-01
 -1      2227 1.03697E+01-8.03472E+00-5.00000E-01
 -1      2228 2.82097E+00 3.92835E+00-5.00000E-01
 -1      2229 7.55919E+00-9.49787E+00-5.00000E-01
 -1      2230-2.53598E+00-1.03043E+01-5.00000E-01
 -1      2231-3.52396E+00 1.16768E+01 5.00000E-01
 -1      2232-3.87194E+00 1.16936E+01-5.00000E-01
 -1      2233 5.63141E+00 2.19687E+00-5.00000E-01
 -1      2234-1.85757E+00-9.33865E+00 5.00000E-01
 -1      2235-3.60439E+00-1.31330E+01 5.00000E-01
 -1      2236 1.07486E+01-5.76486E+00 5.00000E-01
 -1      2237 6.66165E+00 5.86904E-01-5.00000E-01
 -1      2238 3.52652E+00-1.28916E+01-5.00000E-01
 -1      2239-9.32997E+00-1.85585E+00 5.00000E-01
 -1      2240 8.70764E+00 2.62587E+00-5.00000E-01
 -1      2241 5.08694E+00 1.14467E+01-5.00000E-01
 -1      2242-7.67246E-01 1.26499E+01-5.00000E-01
 -1      2243-2.60968E+00-1.30550E+01-5.00000E-01
 -1      2244 5.48796E+00-1.26065E+01-5.00000E-01
 -1      2245-8.51625E+00 2.14293E-01-5.00000E-01
 -1      2246-9.07022E+00 8.45330E+00-5.00000E-01
 -1      2247-1.14888E+01 4.38433E+00-5.00000E-01
 -1      2248 3.81366E+00 6.58212E+00-5.00000E-01
 -1      2249-9.10916E+00 6.41148E+00-5.00000E-01
 -1      2250 4.49108E+00 9.05216E+00-5.00000E-01
 -1      2251-2.72233E+00 1.09934E+01-5.00000E-01
 -1      2252-4.35496E+00-5.71352E+00-5.00000E-01
 -1      2253 4.61728E+00 7.52496E+00-5.00000E-01
 -1      2254-6.56136E+00 6.98741E+00-5.00000E-01
 -1      2255-7.84206E+00 1.12937E+01-5.00000E-01
 -1      2256-8.20459E+00 4.14990E+00-5.00000E-01
 -1      2257-1.12659E+01-1.39312E+00-5.00000E-01
 -1      2258-1.01739E+01 9.11660E+00-5.00000E-01
 -1      2259-1.27571E+01 5.02212E+00-5.00000E-01
 -1      2260-3.35429E+00-1.16587E+01-5.00000E-01
 -1      2261-8.52399E+00 1.69672E+00-5.00000E-01
 -1      2262 9.89332E+00 9.54575E+00-5.00000E-01
 -1      2263-1.17103E+01-1.48933E+00 5.00000E-01
 -1      2264 5.22520E+00 7.82006E+00 5.00000E-01
 -1      2265 1.05898E+00-6.24914E+00-5.00000E-01
 -1      2266 1.68064E+00-1.33138E+01-5.00000E-01
 -1      2267-3.79360E+00-1.27896E+01-5.00000E-01
 -1      2268 1.85757E+00 9.33865E+00 5.00000E-01
 -1      2269 8.79772E+00 8.03303E+00-5.00000E-01
 -1      2270 1.19622E+00-8.04058E-01-5.00000E-01
 -1      2271 7.31799E+00-7.54730E+00-5.00000E-01
 -1      2272-5.35379E+00 3.10519E+00-5.00000E-01
 -1      2273-7.46491E+00 1.16267E+01 5.00000E-01
 -1      2274 3.68086E-01-1.36281E+01-5.00000E-01
 -1      2275-1.21365E+01 1.21273E+00 5.00000E-01
 -1      2276-5.86758E+00 8.25351E+00 5.00000E-01
 -1      2277 1.31330E+01-3.60439E+00 5.00000E-01
 -1      2278 6.42965E+00 1.18375E+01 5.00000E-01
 -1      2279-9.43936E+00 7.72426E+00 5.00000E-01
 -1      2280 1.12232E+00 1.22759E+01 5.00000E-01
 -1      2281 5.76486E+00 1.07486E+01 5.00000E-01
 -1      2282-5.08349E+00 4.61200E+00-5.00000E-01
 -1      2283 1.70042E+00-1.35146E+01 5.00000E-01
 -1      2284 1.30275E+00 5.07135E+00-5.00000E-01
 -1      2285 9.33548E+00 7.97036E+00 5.00000E-01
 -1      2286-1.18375E+01-6.42965E+00 5.00000E-01
 -1      2287-1.04702E+01-8.47592E+00 5.00000E-01
 -1      2288-9.43936E+00-7.72426E+00 5.00000E-01
 -1      2289 1.36689E+01-9.76935E-01-5.00000E-01
 -1      2290 1.33547E+01 1.68467E+00-5.00000E-01
 -1      2291 1.03786E+01 5.85380E+00-5.00000E-01
 -1      2292-6.71993E+00 3.78926E+00-5.00000E-01
 -1      2293-6.37730E+00-1.17045E+01-5.00000E-01
 -1      2294 6.62487E+00-1.18808E+01-5.00000E-01
 -1      2295-6.52240E-01 1.00900E+01-5.00000E-01
 -1      2296 1.30024E+01-4.32832E+00-5.00000E-01
 -1      2297 1.36149E+01-2.54935E+00 5.00000E-01
 -1      2298-7.69199E+00 6.06563E+00-5.00000E-01
 -1      2299 5.99876E+00 1.23147E+01-5.00000E-01
 -1      2300-7.30927E-01 2.35029E+00-5.00000E-01
 -1      2301-1.09085E+01-2.52060E+00-5.00000E-01
 -1      2302-7.75473E+00-1.83895E+00-5.00000E-01
 -1      2303-7.36065E+00 9.61563E-01-5.00000E-01
 -1      2304-5.28990E+00-7.91689E+00 5.00000E-01
 -1      2305 1.06961E+00 1.28446E+00-5.00000E-01
 -1      2306 9.58421E+00 6.18446E+00 5.00000E-01
 -1      2307 8.90990E+00-1.02773E+01-5.00000E-01
 -1      2308 8.35849E+00-1.98829E+00-5.00000E-01
 -1      2309 1.16934E+01-6.66702E+00-5.00000E-01
 -1      2310 3.97230E+00 4.24571E+00-5.00000E-01
 -1      2311-7.61923E+00 9.18031E+00-5.00000E-01
 -1      2312-5.30798E+00 1.09260E+01-5.00000E-01
 -1      2313-1.30610E+01-3.57788E+00-5.00000E-01
 -1      2314-3.42313E+00-3.06410E+00-5.00000E-01
 -1      2315 1.16453E+01-3.96229E+00-5.00000E-01
 -1      2316 1.34815E+01-2.93724E+00-5.00000E-01
 -1      2317-1.07486E+01-5.76486E+00 5.00000E-01
 -1      2318 1.20571E+01 3.55386E+00-5.00000E-01
 -1      2319 5.63738E+00-6.93450E+00-5.00000E-01
 -1      2320-5.74429E+00-3.73631E+00-5.00000E-01
 -1      2321 1.14779E+01-7.78286E+00-5.00000E-01
 -1      2322-1.37286E+01-2.93531E-01-5.00000E-01
 -1      2323-4.58384E+00 9.15055E+00-5.00000E-01
 -1      2324-1.35074E+00-6.33740E+00-5.00000E-01
 -1      2325 9.10407E+00-6.16169E+00-5.00000E-01
 -1      2326-9.35405E+00-5.66084E+00-5.00000E-01
 -1      2327-9.67038E+00-7.16888E+00-5.00000E-01
 -1      2328-9.67959E+00 9.49451E-01-5.00000E-01
 -1      2329 1.25498E+00 1.24633E+01-5.00000E-01
 -1      2330 6.17223E+00 3.34863E+00-5.00000E-01
 -1      2331 7.97036E+00-9.33548E+00 5.00000E-01
 -1      2332-1.85757E+00 9.33865E+00 5.00000E-01
 -1      2333-1.69567E+00 1.35126E+01 5.00000E-01
 -1      2334 5.98344E+00-1.70662E+00-5.00000E-01
 -1      2335 3.31874E+00-9.94040E+00-5.00000E-01
 -1      2336 6.62076E-01 1.01141E+01-5.00000E-01
 -1      2337 4.84574E+00-9.95388E+00-5.00000E-01
 -1      2338-7.92874E-01-1.01749E+01-5.00000E-01
 -1      2339 8.29946E+00-4.09261E+00-5.00000E-01
 -1      2340-1.41850E-01 6.08645E+00-5.00000E-01
 -1      2341 6.16920E+00-8.08692E+00-5.00000E-01
 -1      2342 3.52396E+00-1.16768E+01 5.00000E-01
 -1      2343-1.14960E+01-4.04431E+00-5.00000E-01
 -1      2344-1.34274E+01-2.26969E+00-5.00000E-01
 -1      2345 1.30586E+01-4.67683E+00 5.00000E-01
 -1      2346 3.77869E-01-1.17222E+01-5.00000E-01
 -1      2347-4.82370E+00-2.57151E+00-5.00000E-01
 -1      2348-6.46977E+00-2.49122E+00-5.00000E-01
 -1      2349-7.44573E+00-4.89259E+00-5.00000E-01
 -1      2350-1.04349E+01-5.14032E+00-5.00000E-01
 -1      2351 3.52441E+00-1.12986E+01-5.00000E-01
 -1      2352 1.94344E+00-1.04480E+01-5.00000E-01
 -1      2353 2.76069E+00-8.34108E+00-5.00000E-01
 -1      2354 1.06595E+01 8.27258E+00-5.00000E-01
 -1      2355 2.07526E+00-3.55048E+00-5.00000E-01
 -1      2356-8.27499E+00 2.91168E+00-5.00000E-01
 -1      2357 2.30328E+00 1.22624E+01-5.00000E-01
 -1      2358-8.85159E+00-2.92235E+00-5.00000E-01
 -1      2359-1.03020E+01-7.07629E-01-5.00000E-01
 -1      2360-8.89056E+00 5.18722E+00-5.00000E-01
 -1      2361-9.54772E+00 3.69299E+00-5.00000E-01
 -1      2362-6.56965E+00 1.18552E+01-5.00000E-01
 -1      2363-8.76049E+00 1.07243E+01-5.00000E-01
 -1      2364 6.19292E+00 7.93802E+00-5.00000E-01
 -1      2365 3.06797E+00 9.53875E+00-5.00000E-01
 -1      2366-1.06910E+00 8.34858E+00-5.00000E-01
 -1      2367 5.03657E+00 1.34997E+00-5.00000E-01
 -1      2368-6.80390E+00 8.29804E+00-5.00000E-01
 -1      2369 2.77630E+00 9.09681E-01-5.00000E-01
 -1      2370 3.61325E+00 1.13123E+01-5.00000E-01
 -1      2371-2.39911E+00 1.35290E+01-5.00000E-01
 -1      2372 9.04534E-01 6.04011E+00-5.00000E-01
 -1      2373 1.43989E+00-7.67739E+00-5.00000E-01
 -1      2374-2.60664E+00-4.83985E+00-5.00000E-01
 -1      2375-6.20697E+00-6.45749E+00-5.00000E-01
 -1      2376-4.46835E+00-3.79854E+00-5.00000E-01
 -1      2377 1.04177E+01-1.88638E+00-5.00000E-01
 -1      2378 5.98821E+00-1.06838E+01-5.00000E-01
 -1      2379 9.27506E+00-4.90422E+00-5.00000E-01
 -1      2380 1.06069E+01 1.50973E+00-5.00000E-01
 -1      2381-1.14192E+01 2.52159E+00-5.00000E-01
 -1      2382 4.55952E+00 5.58010E+00-5.00000E-01
 -1      2383-1.35225E+01 2.55056E+00-5.00000E-01
 -1      2384-3.10967E+00-7.26214E+00-5.00000E-01
 -1      2385-8.88839E+00-8.72547E+00-5.00000E-01
 -1      2386-5.51347E+00-8.66569E+00-5.00000E-01
 -1      2387-6.73107E+00-1.41416E+00-5.00000E-01
 -1      2388-7.74553E+00-9.55451E+00-5.00000E-01
 -1      2389-1.24842E+00 1.37109E+01-5.00000E-01
 -1      2390-6.16554E+00 1.23147E+01 5.00000E-01
 -1      2391 1.20870E+01 1.11127E+00-5.00000E-01
 -1      2392 7.53776E+00 5.03657E+00 5.00000E-01
 -1      2393-1.06611E+01-8.27391E+00-5.00000E-01
 -1      2394 1.07420E+01-5.65207E+00-5.00000E-01
 -1      2395 8.31150E+00 5.57624E+00-5.00000E-01
 -1      2396 1.02520E+01 7.05051E+00-5.00000E-01
 -1      2397-8.84836E+00-1.07672E+00-5.00000E-01
 -1      2398 9.28939E+00 3.51337E+00-5.00000E-01
 -1      2399-2.72942E+00 2.32755E+00-5.00000E-01
 -1      2400 3.42659E+00-1.60408E+00-5.00000E-01
 -1      2401-5.64682E+00-1.05661E+01-5.00000E-01
 -1      2402 1.18287E+01-1.38205E+00-5.00000E-01
 -1      2403 5.97049E+00-1.08388E+01 5.00000E-01
 -1      2404 4.59966E-01-2.55360E+00-5.00000E-01
 -1      2405-1.74851E+00 3.95025E+00-5.00000E-01
 -1      2406-2.85486E+00 1.35541E+01 5.00000E-01
 -1      2407 7.50044E+00 7.84514E+00-5.00000E-01
 -1      2408 1.15458E+00 1.36005E+01 5.00000E-01
 -1      2409 1.71423E+00 1.36549E+01-5.00000E-01
 -1      2410 1.00948E+01 3.99945E-01-5.00000E-01
 -1      2411-1.38176E+00-5.08802E+00-5.00000E-01
 -1      2412 2.51670E+00 8.57498E+00-5.00000E-01
 -1      2413-7.29689E+00-6.04751E+00-5.00000E-01
 -1      2414-1.07716E+01 1.48962E+00-5.00000E-01
 -1      2415 4.61611E+00-3.87222E+00-5.00000E-01
 -1      2416-1.73582E+00 2.83475E+00-5.00000E-01
 -1      2417 2.00468E+00-2.05919E+00-5.00000E-01
 -1      2418 4.72890E+00-1.05971E+00-5.00000E-01
 -1      2419 6.44145E+00 5.88829E+00-5.00000E-01
 -1      2420 1.34609E+01 2.93101E+00-5.00000E-01
 -1      2421-1.87730E+00-7.47101E+00-5.00000E-01
 -1      2422 7.77436E+00 3.64669E+00-5.00000E-01
 -1      2423 1.21365E+01-1.21273E+00 5.00000E-01
 -1      2424-3.36978E+00-7.31895E-01-5.00000E-01
 -1      2425-1.26283E+01-1.13687E+00-5.00000E-01
 -1      2426 5.81888E+00-3.81480E-01-5.00000E-01
 -1      2427-1.22186E+01-6.11421E+00-5.00000E-01
 -1      2428-3.27224E+00 9.50950E+00-5.00000E-01
 -1      2429-7.91954E+00-5.29167E+00 5.00000E-01
 -1      2430 2.55594E+00 7.34714E+00-5.00000E-01
 -1      2431-1.14298E+01 7.82443E+00 5.00000E-01
 -1      2432-3.79669E+00-1.88884E+00-5.00000E-01
 -1      2433-2.99482E+00 7.86361E-01-5.00000E-01
 -1      2434 8.10587E+00-5.38560E+00-5.00000E-01
 -1      2435 7.80615E-01-4.60363E+00-5.00000E-01
 -1      2436 9.77077E-01-3.52281E+00-5.00000E-01
 -1      2437 7.98729E+00 1.63846E+00-5.00000E-01
 -1      2438 2.06303E+00 1.73495E+00-5.00000E-01
 -1      2439-3.39963E+00-8.89198E+00-5.00000E-01
 -1      2440-1.35153E+01 2.53501E+00 5.00000E-01
 -1      2441-1.37188E+01-2.45922E+00 5.00000E-01
 -1      2442-1.13444E+01 7.85627E+00-5.00000E-01
 -1      2443 6.52440E-02 7.49244E+00-5.00000E-01
 -1      2444-6.41106E+00-5.34630E+00-5.00000E-01
 -1      2445-7.04781E+00-7.40364E+00-5.00000E-01
 -1      2446-3.88107E+00 7.13864E+00-5.00000E-01
 -1      2447 3.65746E+00-3.26434E-01-5.00000E-01
 -1      2448-1.58038E+00-2.05739E+00-5.00000E-01
 -1      2449 3.42962E+00-3.04848E+00-5.00000E-01
 -1      2450 9.99219E+00-9.29246E+00-5.00000E-01
 -1      2451-5.85288E+00 1.74222E+00-5.00000E-01
 -1      2452 1.14256E+01-7.76577E+00 5.00000E-01
 -1      2453 9.06284E+00-7.55365E+00-5.00000E-01
 -1      2454-3.44192E+00-4.14833E+00-5.00000E-01
 -1      2455 6.48106E+00 1.60595E+00-5.00000E-01
 -1      2456 2.33767E-01 1.36234E+01-5.00000E-01
 -1      2457-1.43160E-01-8.23841E+00-5.00000E-01
 -1      2458-5.26645E+00-4.87727E+00-5.00000E-01
 -1      2459 8.93363E-01 3.25682E+00-5.00000E-01
 -1      2460-6.85915E-01-2.82240E+00-5.00000E-01
 -1      2461 4.61620E-01 1.11444E+00 5.00000E-01
 -1      2462 8.52957E-01-8.52957E-01 5.00000E-01
 -1      2463 2.21252E+00 5.98218E+00-5.00000E-01
 -1      2464-2.09866E+00-3.53069E+00-5.00000E-01
 -1      2465 1.16206E+01 2.32705E+00-5.00000E-01
 -1      2466 3.85161E+00 9.19144E-01-5.00000E-01
 -1      2467-1.72154E+00 1.57993E+00-5.00000E-01
 -1      2468 2.46676E+00-7.70953E-01-5.00000E-01
 -1      2469-2.93059E-01-1.20702E+00-5.00000E-01
 -1      2470 2.85792E+00-1.35556E+01 5.00000E-01
 -1      2471 6.79244E-01-1.38533E+01 5.00000E-01
 -1      2472 5.17683E+00-8.78601E+00-5.00000E-01
 -1      2473 1.04978E+01-6.83433E+00-5.00000E-01
 -1      2474 9.38978E+00-3.77415E+00-5.00000E-01
 -1      2475 1.28677E+00-1.23072E+01-5.00000E-01
 -1      2476 5.07187E+00 1.29490E+01-5.00000E-01
 -1      2477 2.50105E-02 9.00727E+00-5.00000E-01
 -1      2478 8.23978E+00 6.83001E+00-5.00000E-01
 -1      2479 9.33544E+00-8.73266E-01-5.00000E-01
 -1      2480-1.68233E-01-5.68296E+00-5.00000E-01
 -1      2481 8.58592E+00-3.04766E+00-5.00000E-01
 -1      2482-6.59692E+00-9.09712E+00-5.00000E-01
 -1      2483-5.22346E+00 7.10281E+00-5.00000E-01
 -1      2484-1.56033E+00-9.70076E-02-5.00000E-01
 -1      2485-1.15715E+01-5.17906E+00-5.00000E-01
 -1      2486 1.30414E+01 4.31425E+00-5.00000E-01
 -1      2487-3.09289E+00 5.67659E+00-5.00000E-01
 -1      2488-2.66393E+00-1.64959E+00-5.00000E-01
 -1      2489 9.38642E+00-1.90343E+00-5.00000E-01
 -1      2490-2.64156E+00 3.38226E+00-5.00000E-01
 -1      2491 7.93491E+00 3.43144E-01-5.00000E-01
 -1      2492 2.81933E+00-5.37138E+00-5.00000E-01
 -1      2493-7.75269E+00-6.70353E-01-5.00000E-01
 -1      2494-3.84172E-01 8.82306E-01-5.00000E-01
 -1      2495 5.73310E-01-1.03312E+01-5.00000E-01
 -1      2496 2.36564E+00-6.66558E+00-5.00000E-01
 -1      2497-2.31123E+00 8.66229E+00-5.00000E-01
 -1      2498-5.85207E-01-1.12344E+01-5.00000E-01
 -1      2499-7.04110E+00-3.65803E+00-5.00000E-01
 -1      2500-8.68288E+00-4.57378E+00-5.00000E-01
 -1      2501 1.92509E+00 3.39760E+00-5.00000E-01
 -1      2502 1.15901E+01 7.57900E+00-5.00000E-01
 -1      2503 1.14396E+01 7.96178E+00 5.00000E-01
 -1      2504-8.10491E+00-3.68040E+00-5.00000E-01
 -1      2505-5.81815E+00 6.18426E+00-5.00000E-01
 -1      2506 1.74291E+00 2.77178E-01-5.00000E-01
 -1      2507-3.48426E+00 8.30034E+00-5.00000E-01
 -1      2508-4.73217E+00-1.33346E-01-5.00000E-01
 -1      2509-1.07171E+01 3.48050E+00-5.00000E-01
 -1      2510 6.48441E+00-3.53739E+00-5.00000E-01
 -1      2511 9.60186E+00 1.97350E+00-5.00000E-01
 -1      2512-6.29004E+00-2.60043E-02-5.00000E-01
 -1      2513-4.71299E+00-7.27642E+00-5.00000E-01
 -1      2514-2.59515E+00-6.10561E+00-5.00000E-01
 -1      2515-4.41325E+00-8.37438E+00-5.00000E-01
 -1      2516-1.15689E+01-7.35319E+00-5.00000E-01
 -1      2517-4.01949E+00 2.79100E+00-5.00000E-01
 -1      2518 7.98807E+00-6.56709E+00-5.00000E-01
 -1      2519-7.64276E-01-7.29891E+00-5.00000E-01
 -1      2520-7.61608E-01-9.10818E+00-5.00000E-01
 -1      2521-2.64233E+00 4.64083E+00-5.00000E-01
 -1      2522 1.04456E+01-7.71981E-01-5.00000E-01
 -1      2523-2.04755E-01 4.46147E+00-5.00000E-01
 -1      2524-1.36902E+00 5.33712E+00-5.00000E-01
 -1      2525 4.49247E+00-2.32404E+00-5.00000E-01
 -1      2526-4.72933E+00-9.40391E+00-5.00000E-01
 -1      2527-1.17686E+01 1.01452E+00-5.00000E-01
 -1      2528 4.65573E+00-5.56044E+00-5.00000E-01
 -1      2529 1.91661E+00-4.67779E+00-5.00000E-01
 -1      2530 6.78117E+00 6.96941E+00-5.00000E-01
 -1      2531-1.20626E+00 0.00000E+00 5.00000E-01
 -1      2532 1.07352E+00 8.10993E+00-5.00000E-01
 -1      2533-9.55585E-01 7.31943E+00-5.00000E-01
 -1      2534-4.61620E-01-1.11444E+00 5.00000E-01
 -1      2535 4.07280E-01 2.21933E+00-5.00000E-01
 -1      2536 1.19813E+00 2.38320E-01 5.00000E-01
 -1      2537 2.72568E+00-1.36366E+01-5.00000E-01
 -1      2538 3.91896E+00-8.83395E+00-5.00000E-01
 -1      2539 4.78926E+00-7.70657E+00-5.00000E-01
 -1      2540 4.86496E+00-7.75536E+00 5.00000E-01
 -1      2541 5.11009E+00 1.30471E+01 5.00000E-01
 -1      2542-1.28059E+01-4.83405E+00-5.00000E-01
 -1      2543-2.20545E-01 3.34425E+00-5.00000E-01
 -1      2544-5.03080E+00 7.52913E+00 5.00000E-01
 -1      2545 1.30586E+01 4.67683E+00 5.00000E-01
 -1      2546 5.69030E-01 1.91888E-01-5.00000E-01
 -1      2547-4.08752E+00 5.14304E+00-5.00000E-01
 -1      2548 3.44414E+00-4.29391E+00-5.00000E-01
 -1      2549 7.17374E+00-8.86014E-01-5.00000E-01
 -1      2550-2.60709E+00 7.53936E+00-5.00000E-01
 -1      2551-4.57959E+00-1.17904E+00-5.00000E-01
 -1      2552-5.39133E+00 7.45402E-01-5.00000E-01
 -1      2553 7.40791E+00-2.74645E+00-5.00000E-01
 -1      2554 7.18446E+00-4.49325E+00-5.00000E-01
 -1      2555 5.85018E+00-4.73616E+00-5.00000E-01
 -1      2556-5.17552E+00-6.34801E+00-5.00000E-01
 -1      2557-1.17335E+01-7.52200E+00 5.00000E-01
 -1      2558 5.42901E+00-3.02828E+00-5.00000E-01
 -1      2559 8.25355E+00-7.04440E-01-5.00000E-01
 -1      2560 3.68315E+00-5.99415E+00-5.00000E-01
 -1      2561-6.78683E-01 1.01573E+00 5.00000E-01
 -1      2562-1.30540E+01-4.84953E+00 5.00000E-01
 -1      2563-4.52762E+00 6.19704E+00-5.00000E-01
 -1      2564 5.72587E+00-5.83360E+00-5.00000E-01
 -1      2565 6.35172E+00-9.50000E-01 1.47500E+00
 -1      2566-9.50000E-01 6.35172E+00 1.47500E+00
 -1      2567 3.81959E+00 5.16310E+00 1.47500E+00
 -1      2568-8.88093E-01 2.14405E+00 1.71875E+00
 -1      2569 5.66724E+00-4.32374E+00 1.47500E+00
 -1      2570-1.04686E+00 6.18905E+00-5.00000E-01
 -1      2571 9.50000E-01 6.35172E+00 1.47500E+00
 -1      2572 3.29517E+00 4.45514E+00-5.00000E-01
 -1      2573-1.82900E+00-1.07456E+00-5.00000E-01
 -1      2574 5.66724E+00 4.32374E+00 1.47500E+00
 -1      2575-8.88093E-01-2.14405E+00 1.23125E+00
 -1      2576-2.14405E+00-8.88093E-01 1.23125E+00
 -1      2577-2.14405E+00 8.88093E-01 1.23125E+00
 -1      2578-2.12961E+00-9.22963E-01 1.71875E+00
 -1      2579-8.88093E-01 2.14405E+00 9.62301E-01
 -1      2580-1.61682E+00 2.66212E+00 1.23125E+00
 -1      2581-6.16337E+00 3.58123E+00 1.47500E+00
 -1      2582 0.00000E+00-2.32070E+00 1.71875E+00
 -1      2583 3.58123E+00 6.16337E+00 1.47500E+00
 -1      2584-2.32070E+00 0.00000E+00 1.71875E+00
 -1      2585 6.16337E+00-3.58123E+00 1.47500E+00
 -1      2586-5.16310E+00 3.81959E+00 1.47500E+00
 -1      2587 0.00000E+00 2.32070E+00 1.23125E+00
 -1      2588 8.88093E-01 2.14405E+00 1.23125E+00
 -1      2589 1.54642E+00 5.73774E+00-5.00000E-01
 -1      2590 2.32070E+00 0.00000E+00 1.23125E+00
 -1      2591-3.02717E+00 1.76803E+00 1.47500E+00
 -1      2592-3.32912E+00 8.64831E-01 1.47500E+00
 -1      2593 1.64099E+00-1.64099E+00 1.23125E+00
 -1      2594 2.14405E+00-8.88093E-01 1.23125E+00
 -1      2595 2.02320E+00 9.79662E-01-5.00000E-01
 -1      2596 6.16337E+00 3.58123E+00 1.47500E+00
 -1      2597-2.52580E+00 1.56035E+00 1.71875E+00
 -1      2598 2.12961E+00-9.22963E-01 1.71875E+00
 -1      2599 6.35172E+00 9.50000E-01 1.47500E+00
 -1      2600 6.23178E+00 1.55301E+00 1.47500E+00
 -1      2601 1.64099E+00 1.64099E+00 1.71875E+00
 -1      2602 2.14405E+00 8.88093E-01 1.71875E+00
 -1      2603 2.32070E+00 3.77457E-02 1.71875E+00
 -1      2604-9.82419E-01 2.10498E+00 2.08437E+00
 -1      2605 8.53224E-01 2.15849E+00 1.71875E+00
 -1      2606 3.02717E+00-1.76803E+00 1.47500E+00
 -1      2607 3.32912E+00-8.64831E-01 1.47500E+00
 -1      2608 6.08782E-01-1.58654E+00-5.00000E-01
 -1      2609 1.64099E+00 1.64099E+00 9.62307E-01
 -1      2610-8.88093E-01-2.14405E+00 1.98770E+00
 -1      2611 9.50000E-01-7.06469E+00 1.47500E+00
 -1      2612 8.88093E-01-2.14405E+00 1.23125E+00
 -1      2613 3.77457E-02 2.32070E+00 1.71875E+00
 -1      2614 6.89047E+00-1.82586E+00 1.47500E+00
 -1      2615-1.02100E-01-2.32070E+00 2.08437E+00
 -1      2616-7.39140E-01 3.02567E+00 1.23125E+00
 -1      2617-3.47334E+00-4.74999E-01 1.47500E+00
 -1      2618-3.40666E+00 4.74999E-01 1.47500E+00
 -1      2619-7.21281E-01-1.95834E+00-5.00000E-01
 -1      2620 1.36043E+00 2.40538E+00-5.00000E-01
 -1      2621-2.20496E+00-7.41036E-01 1.48878E+00
 -1      2622-2.32070E+00-2.30808E-01 1.59687E+00
 -1      2623-1.64099E+00-1.64099E+00 1.23125E+00
 -1      2624 2.22515E+00-6.92290E-01 1.59687E+00
 -1      2625-1.64099E+00 1.64099E+00 1.23125E+00
 -1      2626 1.06898E-01 2.32070E+00 2.08892E+00
 -1      2627-6.16337E+00-3.58123E+00 1.47500E+00
 -1      2628 2.85855E+00-6.69915E-01 1.23125E+00
 -1      2629-2.56668E+00-1.24804E-01-5.00000E-01
 -1      2630 1.82586E+00 6.89047E+00 1.47500E+00
 -1      2631 0.00000E+00-2.32070E+00 9.62304E-01
 -1      2632-7.34225E-01 2.20778E+00 1.96232E+00
 -1      2633 4.32374E+00-5.66724E+00 1.47500E+00
 -1      2634-2.08474E+00 6.57818E-01-5.00000E-01
 -1      2635-1.61429E+00-1.66768E+00 1.71875E+00
 -1      2636-2.32070E+00 1.02100E-01 2.08437E+00
 -1      2637 9.76642E-01 2.10737E+00 2.07845E+00
 -1      2638 9.82419E-01-2.10498E+00 8.65625E-01
 -1      2639-6.89047E+00-1.82586E+00 1.47500E+00
 -1      2640 1.76803E+00 3.02717E+00 1.47500E+00
 -1      2641 8.64831E-01 3.32912E+00 1.47500E+00
 -1      2642 2.32070E+00-1.59175E-01 1.48879E+00
 -1      2643 2.16315E-01-2.32070E+00 2.19253E+00
 -1      2644-5.16310E+00-3.81959E+00 1.47500E+00
 -1      2645 2.32070E+00-2.30808E-01 1.26655E+00
 -1      2646-7.07007E-01 2.94810E+00 1.84338E+00
 -1      2647 2.23237E+00 6.74855E-01 1.59687E+00
 -1      2648 1.47778E+00-1.80419E+00 1.35312E+00
 -1      2649 2.79189E+00-2.12014E+00 1.47500E+00
 -1      2650 2.07300E+00-2.74475E+00 1.47500E+00
 -1      2651-3.81959E+00 5.16310E+00 1.47500E+00
 -1      2652 2.58033E+00-1.58294E+00 1.09984E+00
 -1      2653-3.58123E+00 6.16337E+00 1.47500E+00
 -1      2654-1.82586E+00 6.89047E+00 1.47500E+00
 -1      2655-2.32070E+00 7.37907E-02 1.29951E+00
 -1      2656 7.62003E-01 4.23991E+00-5.00000E-01
 -1      2657-6.89047E+00 1.82586E+00 1.47500E+00
 -1      2658 2.32070E+00 9.66977E-02 1.46897E+00
 -1      2659 3.47334E+00 4.74999E-01 1.47500E+00
 -1      2660 3.40666E+00-4.74999E-01 1.47500E+00
 -1      2661 2.32070E+00 2.49681E-01 1.63693E+00
 -1      2662-6.35172E+00-9.50000E-01 1.47500E+00
 -1      2663-2.45314E+00 1.33551E+00-5.00000E-01
 -1      2664-7.06469E+00 9.50000E-01 1.47500E+00
 -1      2665-4.74999E-01 3.47334E+00 1.47500E+00
 -1      2666 4.74999E-01 3.40666E+00 1.47500E+00
 -1      2667-1.59175E-01 2.32070E+00 1.48879E+00
 -1      2668-1.18230E-01 2.66369E+00-5.00000E-01
 -1      2669 1.71318E+00-1.56879E+00 8.65625E-01
 -1      2670-1.64099E+00 1.64099E+00 1.74258E+00
 -1      2671-4.32374E+00-5.66724E+00 1.47500E+00
 -1      2672 2.32070E+00-1.57872E-01 9.71247E-01
 -1      2673 2.32070E+00-3.07295E-01 1.41387E+00
 -1      2674-2.32070E+00-5.69116E-02 9.08414E-01
 -1      2675-1.55301E+00-6.23178E+00 1.47500E+00
 -1      2676-3.58123E+00-6.16337E+00 1.47500E+00
 -1      2677 2.07794E+00-1.04769E+00 1.46309E+00
 -1      2678 1.82586E+00-6.89047E+00 1.47500E+00
 -1      2679 3.30838E+00-5.50468E+00 1.47500E+00
 -1      2680-2.32070E+00 2.24156E-01 1.85322E+00
 -1      2681-1.87746E-01-2.36926E+00-5.00000E-01
 -1      2682 2.23237E+00-6.74855E-01 1.34170E+00
 -1      2683 2.92796E+00-6.98665E-01 1.87573E+00
 -1      2684-1.07806E+00 4.51215E+00-5.00000E-01
 -1      2685-4.05289E+00-2.61727E+00-5.00000E-01
 -1      2686-1.52098E+00 2.43075E+00 8.53448E-01
 -1      2687 2.96557E+00 1.74251E+00 1.47500E+00
 -1      2688 3.32912E+00 8.64831E-01 1.47500E+00
 -1      2689-9.50000E-01-7.06469E+00 1.47500E+00
 -1      2690-2.18312E+00 7.93767E-01 1.59687E+00
 -1      2691 4.54281E+00 2.70802E+00-5.00000E-01
 -1      2692-2.10498E+00 9.82419E-01 8.65625E-01
 -1      2693 1.80841E+00 1.47356E+00 8.65625E-01
 -1      2694 2.98968E+00 4.74999E-01 1.09984E+00
 -1      2695-1.59905E-01 2.32070E+00 1.94722E+00
 -1      2696-2.32070E+00-2.21372E-01 1.85850E+00
 -1      2697-2.13342E+00 9.13759E-01 2.01400E+00
 -1      2698-9.54478E-02-2.32070E+00 1.34053E+00
 -1      2699 2.13659E+00 9.06103E-01 1.18321E+00
 -1      2700 2.32070E+00 1.06898E-01 2.08892E+00
 -1      2701 6.88243E-01-2.22683E+00 7.57472E-01
 -1      2702-8.06061E-01 2.17803E+00 1.34053E+00
 -1      2703 2.32070E+00 2.79418E-01 1.45619E+00
 -1      2704 2.22405E+00 6.94954E-01 1.32748E+00
 -1      2705 2.32070E+00-2.13957E-01 2.19029E+00
 -1      2706 2.32070E+00-2.11936E-01 1.73326E+00
 -1      2707 2.09951E+00 9.95623E-01 8.38560E-01
 -1      2708 9.22963E-01-2.12961E+00 1.71875E+00
 -1      2709 9.66977E-02 2.32070E+00 1.46897E+00
 -1      2710-4.52137E+00 3.64995E+00-5.00000E-01
 -1      2711-5.17427E+00-7.31829E-01-5.00000E-01
 -1      2712-1.52773E+00 1.75424E+00 1.48691E+00
 -1      2713 2.12014E+00 2.79189E+00 1.47500E+00
 -1      2714 2.74475E+00 2.07300E+00 1.47500E+00
 -1      2715 1.30154E+00-5.36181E+00-5.00000E-01
 -1      2716 4.50851E+00 9.57376E-01-5.00000E-01
 -1      2717 9.86852E-01-2.10314E+00 2.08892E+00
 -1      2718 2.26166E+00-6.04144E-01 1.47565E+00
 -1      2719 2.94431E+00 4.74999E-01 1.65768E+00
 -1      2720 1.18892E+00-2.17079E+00-5.00000E-01
 -1      2721-1.74251E+00-2.96557E+00 1.47500E+00
 -1      2722-8.90346E-01-3.39072E+00 1.47500E+00
 -1      2723 2.44990E+00-1.77815E+00 1.09984E+00
 -1      2724 2.57514E+00 7.79080E-02-5.00000E-01
 -1      2725 1.84418E+00-1.27463E+00-5.00000E-01
 -1      2726-2.98968E+00-4.74999E-01 1.85016E+00
 -1      2727-4.65723E+00 6.09462E-01-5.00000E-01
 -1      2728 2.38459E+00 1.71284E+00 1.23125E+00
 -1      2729-1.04411E+00 2.07943E+00 1.47957E+00
 -1      2730 8.90346E-01-3.39072E+00 1.47500E+00
 -1      2731 1.74251E+00-2.96557E+00 1.47500E+00
 -1      2732 4.74999E-01-3.40666E+00 1.47500E+00
 -1      2733-4.74999E-01-3.40666E+00 1.47500E+00
 -1      2734-2.22683E+00 6.88243E-01 7.57472E-01
 -1      2735-3.39072E+00-8.90346E-01 1.47500E+00
 -1      2736-2.96557E+00-1.74251E+00 1.47500E+00
 -1      2737-1.53416E+00 2.46257E+00 1.71875E+00
 -1      2738-1.03076E+00 2.08496E+00 1.19809E+00
 -1      2739-2.17995E-01-2.32070E+00 1.57261E+00
 -1      2740 2.05701E+00 1.09822E+00 1.05573E+00
 -1      2741 2.69966E+00 4.04032E+00 5.00000E-01
 -1      2742-1.71318E+00 1.56879E+00 8.65625E-01
 -1      2743 2.22500E+00 6.92666E-01 7.62004E-01
 -1      2744-4.76589E+00-9.47992E-01 5.00000E-01
 -1      2745 5.84911E+00 9.68435E-01-5.00000E-01
 -1      2746 1.16758E+00-2.02828E+00 8.65625E-01
 -1      2747 2.92796E+00 6.98665E-01 1.87573E+00
 -1      2748 5.50571E+00-1.09316E+00-5.00000E-01
 -1      2749-1.57635E+00-2.56441E+00 1.07427E+00
 -1      2750-6.81637E-01 2.22957E+00 1.10938E+00
 -1      2751-4.47034E+00-3.13415E+00-5.00000E-01
 -1      2752-6.87928E-01 2.22696E+00 1.57008E+00
 -1      2753-3.55284E+00-5.13253E+00-5.00000E-01
 -1      2754 1.07500E+00-2.06663E+00 1.09067E+00
 -1      2755 1.79949E+00-1.48248E+00 1.09678E+00
 -1      2756 9.62297E-01 1.91049E+00-5.00000E-01
 -1      2757-4.74999E-01 2.98968E+00 1.09984E+00
 -1      2758-1.72865E+00 1.55332E+00 1.48691E+00
 -1      2759 4.64914E+00-3.09056E+00-5.00000E-01
 -1      2760-9.30110E-01-5.70188E+00-5.00000E-01
 -1      2761-5.15095E-01-4.85536E+00-5.00000E-01
 -1      2762 4.76589E+00-9.47994E-01 5.00000E-01
 -1      2763-2.64313E+00-8.18585E+00-5.00000E-01
 -1      2764 5.02244E+00 8.17531E-01-5.00000E-01
 -1      2765 2.30304E-01 2.32070E+00 1.87432E+00
 -1      2766 9.47994E-01-4.76589E+00 5.00000E-01
 -1      2767-2.22515E+00-6.92290E-01 1.77969E+00
 -1      2768 1.57635E+00-2.56441E+00 1.07427E+00
 -1      2769-2.66748E+00-4.06311E+00-5.00000E-01
 -1      2770 2.21834E+00-7.08737E-01 1.87709E+00
 -1      2771-2.94431E+00-4.74999E-01 1.29232E+00
 -1      2772 2.25704E+00-6.15300E-01 1.74284E+00
 -1      2773-1.41736E+00 2.21088E+00-5.00000E-01
 -1      2774-4.95045E+00 1.07611E+00-5.00000E-01
 -1      2775 3.05166E-01 2.32070E+00 2.08437E+00
 -1      2776-5.47263E+00 1.31302E+00-5.00000E-01
 -1      2777-4.04032E+00 2.69966E+00 5.00000E-01
 -1      2778-3.38558E+00 4.83250E+00-5.00000E-01
 -1      2779-2.41473E+00 4.01168E+00-5.00000E-01
 -1      2780 4.04819E+00-2.81412E+00-5.00000E-01
 -1      2781-1.56539E+00-1.71658E+00 2.08892E+00
 -1      2782-2.23237E+00-6.74855E-01 1.26655E+00
 -1      2783-2.25277E+00-6.25605E-01 1.61636E+00
 -1      2784-2.97245E+00 4.74999E-01 1.87573E+00
 -1      2785-2.32070E+00-2.01198E-01 1.32252E+00
 -1      2786 2.70540E+00-4.58542E+00-5.00000E-01
 -1      2787-2.68794E+00-4.74999E-01 1.90156E+00
 -1      2788-1.09519E+00 2.05827E+00 1.85322E+00
 -1      2789 1.73641E+00 2.40816E+00 1.35312E+00
 -1      2790 1.47778E+00 1.80419E+00 1.59687E+00
 -1      2791-2.32070E+00-7.85928E-02 1.13305E+00
 -1      2792 1.70378E+00 1.57819E+00 1.34053E+00
 -1      2793 1.75408E+00-2.42583E+00 1.10938E+00
 -1      2794 2.04800E+00-2.86137E-01-5.00000E-01
 -1      2795 2.32070E+00 2.20293E-01 1.87619E+00
 -1      2796-2.05827E+00 1.09519E+00 1.09678E+00
 -1      2797 1.58294E+00 2.58033E+00 1.09984E+00
 -1      2798-2.04816E+00 1.11960E+00 7.12428E-01
 -1      2799 1.50994E+00-1.77203E+00 1.71875E+00
 -1      2800-2.22178E+00 7.00439E-01 1.85711E+00
 -1      2801-1.80419E+00 1.47778E+00 1.27722E+00
 -1      2802-1.74765E+00 1.53432E+00 1.07630E+00
 -1      2803-9.70126E-01-2.11007E+00 1.60947E+00
 -1      2804-1.47859E+00 1.80338E+00 1.70845E+00
 -1      2805 3.97951E+00 2.50322E+00-5.00000E-01
 -1      2806 1.48445E+00 1.79752E+00 1.85850E+00
 -1      2807-1.54762E-01 1.59912E+00 5.00000E-01
 -1      2808 2.56441E+00 1.57635E+00 1.07427E+00
 -1      2809 1.67353E-01-2.32070E+00 1.20569E+00
 -1      2810-2.12014E+00 2.79189E+00 1.47500E+00
 -1      2811-2.74475E+00 2.07300E+00 1.47500E+00
 -1      2812-2.38459E+00 1.71284E+00 1.59687E+00
 -1      2813-2.94997E+00-7.07784E-01 1.85260E+00
 -1      2814-2.56441E+00-1.57635E+00 1.07427E+00
 -1      2815 1.68410E+00-1.59787E+00 2.04543E+00
 -1      2816-1.02100E-01 2.32070E+00 8.65625E-01
 -1      2817-2.74475E+00-2.07300E+00 1.47500E+00
 -1      2818-2.07300E+00-2.74475E+00 1.47500E+00
 -1      2819 1.21228E-01-2.32070E+00 1.94967E+00
 -1      2820-1.55989E+00 1.72208E+00 2.09629E+00
 -1      2821-2.32070E+00-3.07762E-01 1.73063E+00
 -1      2822 2.17719E+00 8.08091E-01 9.67436E-01
 -1      2823-6.31083E-01 2.25051E+00 1.29606E+00
 -1      2824-2.32070E+00-3.01105E-01 1.45051E+00
 -1      2825-2.85602E-01-2.32070E+00 1.38851E+00
 -1      2826-1.75354E+00-1.52843E+00 1.48879E+00
 -1      2827-6.74855E-01-2.23237E+00 1.35312E+00
 -1      2828-2.29836E-01 1.69371E+00-5.00000E-01
 -1      2829-1.71318E+00-1.56879E+00 8.65625E-01
 -1      2830-2.30808E-01 2.32070E+00 1.26655E+00
 -1      2831 2.73396E+00 4.74999E-01 1.35981E+00
 -1      2832 9.82419E-01 2.10498E+00 8.65625E-01
 -1      2833-2.67019E+00-5.91896E-01 1.77969E+00
 -1      2834-1.79228E+00-1.48969E+00 2.19029E+00
 -1      2835-2.10704E+00-9.77433E-01 1.46897E+00
 -1      2836 7.05259E-01-2.94388E+00 1.85016E+00
 -1      2837 1.09519E+00 2.05827E+00 1.09678E+00
 -1      2838-1.31015E-01 2.32070E+00 2.21485E+00
 -1      2839-1.76596E+00-2.43771E+00 1.07427E+00
 -1      2840 2.88860E-01-2.32070E+00 2.02408E+00
 -1      2841-2.08032E+00 1.04196E+00 1.47482E+00
 -1      2842-2.97245E+00 4.74999E-01 1.07427E+00
 -1      2843-1.41893E+00 1.86304E+00 1.56032E+00
 -1      2844-2.94388E+00-7.05259E-01 1.09984E+00
 -1      2845-1.37586E+00 9.19317E-01 5.00000E-01
 -1      2846-1.42224E+00 1.85973E+00 2.08437E+00
 -1      2847-6.60304E-01 5.55600E+00-5.00000E-01
 -1      2848 1.51921E+00-1.76276E+00 2.21716E+00
 -1      2849-1.77815E+00 2.44990E+00 1.09984E+00
 -1      2850 7.28119E-01 2.21031E+00 1.97370E+00
 -1      2851 2.10498E+00-9.82419E-01 8.65625E-01
 -1      2852 1.72806E+00-1.55391E+00 1.55704E+00
 -1      2853-4.74999E-01-2.95565E+00 1.10938E+00
 -1      2854-2.57160E+00-8.89985E-01-5.00000E-01
 -1      2855 0.00000E+00-2.85877E+00 2.45000E+00
 -1      2856-7.77236E-01 2.18997E+00 2.21653E+00
 -1      2857-2.03492E+00 1.15157E+00 9.16750E-01
 -1      2858-2.92796E+00 6.98665E-01 1.87573E+00
 -1      2859-6.88950E-01-2.22654E+00 1.66151E+00
 -1      2860-1.79949E+00-1.48248E+00 1.09678E+00
 -1      2861-2.78937E+00-4.74999E-01 1.58568E+00
 -1      2862-2.32070E+00-2.23468E-01 7.38103E-01
 -1      2863-1.59396E+00 1.68801E+00 1.01561E+00
 -1      2864-2.32070E+00 2.85185E-01 2.03325E+00
 -1      2865-7.30953E-01 1.58962E+00 5.00000E-01
 -1      2866-1.08826E+00-2.06114E+00 1.37992E+00
 -1      2867-1.09400E+00 2.64116E+00 2.45000E+00
 -1      2868-2.50583E-01 2.32070E+00 7.12428E-01
 -1      2869 2.32070E+00 1.15404E-01 8.00729E-01
 -1      2870-2.04648E+00-1.65244E+00-5.00000E-01
 -1      2871 2.49500E+00 1.54760E+00 1.59128E+00
 -1      2872-1.79085E+00-1.49112E+00 1.73327E+00
 -1      2873 2.04850E+00-1.11877E+00 1.66719E+00
 -1      2874 1.03515E+00 2.08314E+00 1.48878E+00
 -1      2875-2.24907E+00 6.34548E-01 1.67970E+00
 -1      2876 2.26027E+00 6.07520E-01 1.45541E+00
 -1      2877 2.21111E+00-7.26196E-01 7.83771E-01
 -1      2878 1.50859E+00-4.99968E-01 5.00000E-01
 -1      2879 1.73106E-01-2.32070E+00 7.31152E-01
 -1      2880 7.12792E-01-2.21666E+00 1.03161E+00
 -1      2881 7.41036E-01-2.20496E+00 1.48878E+00
 -1      2882-4.74999E-01 2.98968E+00 1.85016E+00
 -1      2883-2.27017E+00 5.83618E-01 1.80490E+00
 -1      2884-2.44016E+00-1.76841E+00 1.07322E+00
 -1      2885 1.06008E+00 5.53783E+00-5.00000E-01
 -1      2886-7.28165E-01-2.21029E+00 2.21885E+00
 -1      2887-2.48326E+00 1.81151E+00 1.05477E+00
 -1      2888-6.27322E-01 2.75572E+00 1.50299E+00
 -1      2889-2.85855E+00 6.69915E-01 1.35872E+00
 -1      2890-9.94713E-01 2.09989E+00 7.31151E-01
 -1      2891 2.20796E+00 7.33804E-01 1.14093E+00
 -1      2892 2.32070E+00 1.76540E-01 1.29797E+00
 -1      2893-4.47710E-01 1.88872E+00 5.00000E-01
 -1      2894-1.48803E+00-1.79394E+00 7.57476E-01
 -1      2895-2.63754E+00-4.74999E-01 1.35312E+00
 -1      2896-2.32070E+00-2.81977E-01 1.13584E+00
 -1      2897-2.56887E+00-2.07113E-01 2.45000E+00
 -1      2898-2.21054E+00 7.27581E-01 2.22005E+00
 -1      2899 1.08390E+00 2.06295E+00 1.83068E+00
 -1      2900 2.80171E-01-2.32070E+00 1.81762E+00
 -1      2901-2.81759E+00 4.74999E-01 1.47500E+00
 -1      2902 4.74999E-01 2.97245E+00 1.87573E+00
 -1      2903-1.15097E+00-2.03516E+00 1.56812E+00
 -1      2904-1.84700E+00 1.43497E+00 1.44013E+00
 -1      2905 2.00922E+00 1.21362E+00 1.04844E+00
 -1      2906 2.32070E+00 3.03880E-01 8.65625E-01
 -1      2907 7.35109E-01-2.20742E+00 2.20461E+00
 -1      2908 2.16315E-01 2.32070E+00 7.57474E-01
 -1      2909-7.11633E-01 2.48576E+00 2.45000E+00
 -1      2910 1.21228E-01 2.32070E+00 1.00033E+00
 -1      2911-1.53798E+00 1.74399E+00 7.56853E-01
 -1      2912 1.51707E+00-1.76490E+00 7.83776E-01
 -1      2913-1.49883E+00 1.78314E+00 1.91093E+00
 -1      2914-1.86762E+00 1.41435E+00 1.12515E+00
 -1      2915 6.92290E-01-2.22515E+00 1.73326E+00
 -1      2916 6.82463E-01-2.22922E+00 1.97226E+00
 -1      2917-9.82419E-01-2.10498E+00 8.65625E-01
 -1      2918 1.57671E+00-1.70526E+00 1.00880E+00
 -1      2919 1.79321E+00-1.48876E+00 1.33605E+00
 -1      2920 1.71877E+00-2.39052E+00 1.63196E+00
 -1      2921 2.66572E+00 4.74999E-01 1.63121E+00
 -1      2922 9.68358E-01-1.45798E+00 5.00000E-01
 -1      2923 2.30808E-01 2.32070E+00 1.20514E+00
 -1      2924-1.41655E+00 1.86542E+00 1.82412E+00
 -1      2925 4.74999E-01 2.89732E+00 1.35872E+00
 -1      2926-1.45771E+00 1.82426E+00 9.33072E-01
 -1      2927 4.74999E-01-2.97245E+00 1.87573E+00
 -1      2928-2.93362E-01 2.32070E+00 2.09700E+00
 -1      2929-2.56441E+00-1.57635E+00 1.87573E+00
 -1      2930 2.05564E+00 1.10153E+00 1.29492E+00
 -1      2931-2.69684E+00 6.02933E-01 1.64812E+00
 -1      2932-1.81818E+00 1.46379E+00 7.12428E-01
 -1      2933-2.50583E-01-2.32070E+00 2.23757E+00
 -1      2934 1.51858E+00 1.76339E+00 7.31154E-01
 -1      2935-7.03621E-01-2.93992E+00 1.10938E+00
 -1      2936 2.22513E+00 1.55338E+00 1.04844E+00
 -1      2937-2.27809E+00 1.60634E+00 1.26910E+00
 -1      2938 5.76565E-01-2.27309E+00 1.84742E+00
 -1      2939-6.73879E-01-2.23278E+00 1.99445E+00
 -1      2940-2.43454E+00 1.52255E+00 8.65625E-01
 -1      2941 4.74999E-01-2.97591E+00 1.07322E+00
 -1      2942 1.90284E+00-2.30808E-01 5.00000E-01
 -1      2943 1.52099E+00 1.76098E+00 1.20168E+00
 -1      2944 2.30359E-01-2.32070E+00 9.83140E-01
 -1      2945-1.57635E+00-2.56441E+00 1.87573E+00
 -1      2946 2.09899E-01 2.32070E+00 2.25537E+00
 -1      2947-2.41599E-01-2.32070E+00 1.16213E+00
 -1      2948-7.05259E-01-2.94388E+00 1.85016E+00
 -1      2949 1.42591E+00-1.85606E+00 6.61694E-01
 -1      2950-1.11960E+00 2.04816E+00 2.23757E+00
 -1      2951-1.55527E+00-1.72670E+00 1.00033E+00
 -1      2952-2.82794E+00-4.74999E-01 8.53948E-01
 -1      2953 2.05573E+00-1.10133E+00 1.23955E+00
 -1      2954 1.66628E+00-2.33803E+00 2.08555E+00
 -1      2955 5.97916E-01-2.26424E+00 2.11787E+00
 -1      2956-1.75741E+00 1.52456E+00 1.99141E+00
 -1      2957 2.41783E+00-1.74608E+00 1.65766E+00
 -1      2958-1.46005E+00-2.28365E+00 1.84063E+00
 -1      2959-1.49137E+00 2.35925E+00 2.08437E+00
 -1      2960-1.82713E+00-1.45484E+00 1.30465E+00
 -1      2961-2.32070E+00 1.84609E-01 1.04509E+00
 -1      2962-1.10338E+00 2.05488E+00 9.34258E-01
 -1      2963 2.36484E+00 5.68979E-01-5.00000E-01
 -1      2964-2.32070E+00 2.18023E-01 1.60938E+00
 -1      2965 9.77433E-01-2.10704E+00 1.46897E+00
 -1      2966-2.38459E+00-1.71284E+00 1.58927E+00
 -1      2967 1.19681E+00 2.01618E+00 1.90156E+00
 -1      2968-2.64116E+00 1.09400E+00 2.45000E+00
 -1      2969 7.07784E-01-2.94997E+00 1.09740E+00
 -1      2970-1.47778E+00-1.80419E+00 1.20514E+00
 -1      2971 2.32070E+00-1.09570E-01 1.96223E+00
 -1      2972 2.32070E+00-2.85638E-01 1.90358E+00
 -1      2973-2.10314E+00-9.86852E-01 2.08892E+00
 -1      2974-9.47994E-01 4.76589E+00 5.00000E-01
 -1      2975 4.74999E-01 3.24934E+00 9.90457E-01
 -1      2976 1.58547E+00 2.58642E+00 1.85260E+00
 -1      2977-2.18312E+00-7.93767E-01 8.65625E-01
 -1      2978 2.03876E+00-1.14228E+00 1.04844E+00
 -1      2979 2.97245E+00-4.74999E-01 1.87573E+00
 -1      2980 2.86397E+00 6.72158E-01 1.36507E+00
 -1      2981 1.84427E+00-1.43770E+00 1.49586E+00
 -1      2982-1.87536E+00-1.40661E+00 1.18421E+00
 -1      2983-4.74999E-01-2.95565E+00 1.84063E+00
 -1      2984-6.47957E-01 2.24352E+00 1.77493E+00
 -1      2985 1.47703E+00 1.80494E+00 9.55553E-01
 -1      2986 6.57420E-01 2.23960E+00 1.76962E+00
 -1      2987 0.00000E+00 2.85877E+00 2.45000E+00
 -1      2988 1.42890E-01-2.32070E+00 1.48154E+00
 -1      2989 1.45352E+00-1.82845E+00 1.13860E+00
 -1      2990-6.22081E-01 2.25423E+00 2.11592E+00
 -1      2991-1.45051E+00 2.26062E+00 1.85181E+00
 -1      2992 5.14178E+00-5.08273E-01-5.00000E-01
 -1      2993 1.06547E+00-2.07058E+00 1.29168E+00
 -1      2994-7.54502E-01 2.19938E+00 7.45726E-01
 -1      2995-1.80554E+00 1.47643E+00 1.76749E+00
 -1      2996 2.01376E+00-1.20265E+00 1.16429E+00
 -1      2997-6.19068E-02-2.32070E+00 1.89853E+00
 -1      2998 2.30808E-01-1.60495E+00 5.00000E-01
 -1      2999-2.32070E+00 2.61684E-01 1.40056E+00
 -1      3000 2.17884E+00-8.04107E-01 1.00880E+00
 -1      3001 1.55877E+00 1.72320E+00 1.41227E+00
 -1      3002 3.51630E-01 2.32070E+00 1.17031E+00
 -1      3003-2.23699E+00-6.63707E-01 1.04156E+00
 -1      3004-1.57261E+00-1.70936E+00 1.46897E+00
 -1      3005-2.19044E+00 7.76090E-01 1.00033E+00
 -1      3006 5.80912E-01-2.27129E+00 6.34867E-01
 -1      3007 3.03525E-01-2.32070E+00 1.12405E+00
 -1      3008-2.60279E+00 4.74999E-01 1.53594E+00
 -1      3009-1.46169E+00-1.82028E+00 2.24039E+00
 -1      3010 2.26908E+00-1.59733E+00 1.35981E+00
 -1      3011 2.20933E+00-7.30493E-01 1.17116E+00
 -1      3012-2.58185E+00 4.24238E-01-5.00000E-01
 -1      3013 5.85435E-01-2.65460E+00 1.84063E+00
 -1      3014-4.67867E+00 2.98194E+00-5.00000E-01
 -1      3015-1.78281E+00 2.45456E+00 1.85260E+00
 -1      3016-1.07140E+00-1.26109E+00-5.00000E-01
 -1      3017-1.09519E+00-2.05827E+00 1.09678E+00
 -1      3018-1.71568E+00-3.46213E-01 5.00000E-01
 -1      3019-1.13669E+00 2.04108E+00 1.65566E+00
 -1      3020 2.30156E+00-1.46747E+00 1.04844E+00
 -1      3021-2.25459E+00 6.21221E-01 9.25917E-01
 -1      3022 1.44899E+00-1.83298E+00 9.48180E-01
 -1      3023 2.62741E+00 5.74172E-01 1.29219E+00
 -1      3024 2.32070E+00-3.53474E-01 1.29638E+00
 -1      3025-6.33493E-01-2.77062E+00 1.48084E+00
 -1      3026-1.15681E+00 2.03275E+00 2.04998E+00
 -1      3027 6.98665E-01 2.92796E+00 1.87573E+00
 -1      3028-1.47778E+00 1.80419E+00 1.18436E+00
 -1      3029 2.85693E+00 6.69243E-01 9.05604E-01
 -1      3030-2.04850E+00-1.11877E+00 1.63693E+00
 -1      3031 1.67765E+00-1.60432E+00 1.79612E+00
 -1      3032 1.47390E+00-2.31708E+00 8.65625E-01
 -1      3033-1.64937E+00 2.32112E+00 1.47785E+00
 -1      3034 2.27654E+00 5.68236E-01 1.56683E+00
 -1      3035-2.93795E-01 2.56887E+00 2.45000E+00
 -1      3036 1.14074E+00 2.03940E+00 1.64617E+00
 -1      3037 2.23296E+00-1.56121E+00 1.84063E+00
 -1      3038 2.32070E+00-1.24604E-01 7.20324E-01
 -1      3039-2.32070E+00 2.37867E-01 1.21963E+00
 -1      3040 2.32070E+00-2.86543E-01 8.26521E-01
 -1      3041 3.21382E-01-2.32070E+00 6.45388E-01
 -1      3042 2.24967E+00 6.33097E-01 9.41922E-01
 -1      3043 2.26045E+00-6.07085E-01 6.61692E-01
 -1      3044 1.39323E+00-1.88874E+00 1.04615E+00
 -1      3045 2.20302E+00-7.45714E-01 2.18288E+00
 -1      3046 1.51656E+00-1.76541E+00 1.96788E+00
 -1      3047 2.32070E+00 1.65658E-01 1.05984E+00
 -1      3048 2.22586E+00 6.90576E-01 1.84414E+00
 -1      3049 2.89732E+00-4.74999E-01 1.35312E+00
 -1      3050 6.74855E-01-2.23237E+00 1.26655E+00
 -1      3051 6.02910E-01-2.26218E+00 9.04782E-01
 -1      3052 7.98754E-01 2.18106E+00 1.46897E+00
 -1      3053 1.54760E+00-2.49500E+00 1.59128E+00
 -1      3054-2.26009E+00-1.58834E+00 1.29844E+00
 -1      3055-5.97926E-01 2.26424E+00 1.97050E+00
 -1      3056-2.32070E+00 1.72545E-01 7.32216E-01
 -1      3057 1.74782E+00 2.41957E+00 1.91382E+00
 -1      3058 3.31957E-01 2.32070E+00 2.21134E+00
 -1      3059 2.32070E+00-3.09881E-01 9.76831E-01
 -1      3060 1.41894E+00 1.86303E+00 8.14150E-01
 -1      3061 2.32070E+00 3.21170E-01 1.76714E+00
 -1      3062-1.86705E+00 1.41492E+00 1.61414E+00
 -1      3063-1.15676E+00 2.03276E+00 6.74338E-01
 -1      3064 1.58113E+00-2.25288E+00 8.65625E-01
 -1      3065-2.68250E+00 4.74999E-01 1.82020E+00
 -1      3066 3.41910E-01-2.32070E+00 2.14677E+00
 -1      3067-2.07359E+00 1.05819E+00 1.28409E+00
 -1      3068-1.76596E+00-2.43771E+00 1.87573E+00
 -1      3069-1.18317E+00 2.02183E+00 1.10938E+00
 -1      3070 2.31708E+00 1.47390E+00 8.65625E-01
 -1      3071-1.10335E+00-2.05489E+00 1.80811E+00
 -1      3072 5.96932E-01 2.26465E+00 1.91056E+00
 -1      3073 2.26185E+00 6.03688E-01 1.20720E+00
 -1      3074 1.11960E+00 2.04816E+00 7.12428E-01
 -1      3075 1.17556E+00 2.02498E+00 1.49861E+00
 -1      3076-2.53315E-01-2.32070E+00 1.78986E+00
 -1      3077 1.69474E+00 1.58723E+00 2.08437E+00
 -1      3078 5.96220E-01 2.68063E+00 2.08437E+00
 -1      3079 1.59676E+00 2.26851E+00 1.63939E+00
 -1      3080-1.47813E+00-1.80384E+00 1.87432E+00
 -1      3081-1.84665E+00 1.43532E+00 9.00018E-01
 -1      3082 1.41391E+00-1.86806E+00 8.08730E-01
 -1      3083 2.33135E+00 1.47981E+00 1.30158E+00
 -1      3084-1.40671E+00 1.87526E+00 1.06846E+00
 -1      3085-2.06127E+00-1.08794E+00 7.57472E-01
 -1      3086-5.69968E-01 2.27582E+00 1.53594E+00
 -1      3087-1.56925E+00 2.24100E+00 1.19038E+00
 -1      3088-9.58534E-01 1.41194E+00-5.00000E-01
 -1      3089 2.88860E-01 2.32070E+00 9.25921E-01
 -1      3090 1.41712E+00-1.86485E+00 1.84843E+00
 -1      3091 1.67813E+00 2.34988E+00 8.89909E-01
 -1      3092-2.01195E+00 1.20702E+00 8.01494E-01
 -1      3093-1.16489E+00-2.02940E+00 1.24045E+00
 -1      3094-2.06497E+00 1.07902E+00 2.19598E+00
 -1      3095 1.81822E+00-1.46375E+00 1.72523E+00
 -1      3096 2.32070E+00 3.05166E-01 2.08437E+00
 -1      3097-9.84592E-01 3.10856E+00-5.00000E-01
 -1      3098-3.07295E-01 2.32070E+00 1.41387E+00
 -1      3099 1.10086E+00-2.05592E+00 1.87432E+00
 -1      3100-2.32070E+00 3.29643E-01 1.52375E+00
 -1      3101-2.23521E+00-1.56346E+00 1.00208E+00
 -1      3102-2.32070E+00 3.10644E-01 1.72905E+00
 -1      3103 6.74855E-01 2.23237E+00 1.17031E+00
 -1      3104-2.22456E+00 6.93731E-01 1.36957E+00
 -1      3105-2.24352E+00 6.47961E-01 1.16223E+00
 -1      3106 1.84264E+00-1.43933E+00 9.16752E-01
 -1      3107 1.88134E+00-1.40063E+00 1.03566E+00
 -1      3108 2.27032E+00-5.83244E-01 1.87420E+00
 -1      3109 1.11877E+00-2.04850E+00 1.63693E+00
 -1      3110 2.32070E+00 3.20783E-01 1.31674E+00
 -1      3111 2.23665E+00-1.56490E+00 1.05894E+00
 -1      3112 6.83930E-01 2.22862E+00 2.20955E+00
 -1      3113 6.69915E-01 2.85855E+00 1.35872E+00
 -1      3114-2.27010E+00 5.83774E-01 1.28842E+00
 -1      3115 2.68639E+00-4.74999E-01 1.10938E+00
 -1      3116 1.19314E+00 2.01770E+00 1.76760E+00
 -1      3117-2.24627E+00 6.41302E-01 2.04495E+00
 -1      3118-1.44271E+00-1.83926E+00 1.39635E+00
 -1      3119 2.63201E+00-4.74999E-01 1.36958E+00
 -1      3120-7.26196E-01-2.21111E+00 7.83771E-01
 -1      3121 2.72144E+00-6.13122E-01 1.57517E+00
 -1      3122 4.74999E-01-2.67931E+00 1.04844E+00
 -1      3123-1.57034E+00 2.24209E+00 1.76903E+00
 -1      3124-1.73106E-01-2.32070E+00 7.31152E-01
 -1      3125-2.32070E+00 2.77428E-01 8.84841E-01
 -1      3126 1.48290E+00 2.33880E+00 2.09156E+00
 -1      3127-1.53702E+00 2.20877E+00 9.26562E-01
 -1      3128-2.27489E+00 5.72211E-01 8.03227E-01
 -1      3129-1.97860E+00 1.97860E+00 2.45000E+00
 -1      3130-2.23553E+00 6.67231E-01 1.03975E+00
 -1      3131 6.03616E-01-2.69849E+00 8.65625E-01
 -1      3132 2.26749E+00-5.90088E-01 8.10237E-01
 -1      3133 2.57666E+00 4.74999E-01 1.46454E+00
 -1      3134-1.84917E+00-1.43280E+00 1.58753E+00
 -1      3135-1.18677E+00-2.02034E+00 1.70197E+00
 -1      3136-5.91275E-01-2.66869E+00 1.19548E+00
 -1      3137-2.01398E+00 1.20212E+00 1.03566E+00
 -1      3138-6.33515E-01 2.24950E+00 2.28573E+00
 -1      3139-5.21422E+00-3.20905E+00-5.00000E-01
 -1      3140-6.83573E-01-2.22876E+00 1.09151E+00
 -1      3141-2.32070E+00 3.17870E-01 1.09982E+00
 -1      3142 2.49681E-01 2.32070E+00 1.63693E+00
 -1      3143-2.32070E+00 3.39904E-01 1.91434E+00
 -1      3144 3.25894E+00-4.90641E+00-5.00000E-01
 -1      3145-2.22593E+00-6.90422E-01 2.19030E+00
 -1      3146 5.98896E-01 2.26384E+00 2.32622E+00
 -1      3147 7.26196E-01 2.21111E+00 7.83771E-01
 -1      3148 1.42001E+00-1.86196E+00 2.09460E+00
 -1      3149-2.23702E+00 6.63644E-01 1.52453E+00
 -1      3150 9.94713E-01-2.09989E+00 2.28780E+00
 -1      3151 1.16205E+00-2.03057E+00 2.28108E+00
 -1      3152 1.15681E+00 2.03275E+00 9.00017E-01
 -1      3153 2.26966E+00 5.84829E-01 6.38881E-01
 -1      3154-2.27220E+00 5.78711E-01 1.42431E+00
 -1      3155-2.42876E-01 2.32070E+00 1.04156E+00
 -1      3156 2.58033E+00-1.58294E+00 1.85016E+00
 -1      3157 2.32070E+00 2.60977E-01 6.84085E-01
 -1      3158-2.23804E-01-2.32070E+00 1.96079E+00
 -1      3159 1.30290E+00 9.76484E-01 5.00000E-01
 -1      3160 2.80406E-01 2.32070E+00 1.39635E+00
 -1      3161 2.69613E+00 6.02637E-01 1.64974E+00
 -1      3162 4.74999E-01 2.81886E+00 9.31338E-01
 -1      3163-2.09766E+00-1.00010E+00 1.00033E+00
 -1      3164 2.32070E+00 3.12215E-01 1.01785E+00
 -1      3165-2.27167E+00-5.79980E-01 1.73580E+00
 -1      3166-3.11765E-01-2.32070E+00 8.65625E-01
 -1      3167-2.03712E+00-1.14624E+00 1.45620E+00
 -1      3168 1.55366E+00-2.22541E+00 1.82661E+00
 -1      3169 2.48822E+00 4.70471E+00-5.00000E-01
 -1      3170-2.23994E+00-6.56587E-01 7.12428E-01
 -1      3171-2.01438E+00 1.20114E+00 2.08437E+00
 -1      3172-2.59415E+00-1.58867E+00 1.47500E+00
 -1      3173-1.65646E+00-2.32821E+00 1.47500E+00
 -1      3174 2.26378E+00-5.99033E-01 1.21682E+00
 -1      3175-2.03351E+00-1.15497E+00 9.25917E-01
 -1      3176-2.66335E+00-4.74999E-01 1.07707E+00
 -1      3177 1.54868E+00 2.22043E+00 1.91268E+00
 -1      3178-2.67604E-01 2.32070E+00 8.77480E-01
 -1      3179-1.16097E+00 2.03102E+00 1.33197E+00
 -1      3180-2.09395E+00 1.00906E+00 1.75310E+00
 -1      3181 2.24134E+00 1.44253E+00 1.08678E+00
 -1      3182-2.03483E+00 1.15179E+00 1.63146E+00
 -1      3183-1.48475E+00 2.34328E+00 1.18812E+00
 -1      3184 1.48549E+00 2.15724E+00 1.74535E+00
 -1      3185-8.88095E-01-1.54092E+00 5.00000E-01
 -1      3186-2.32070E+00-2.55978E-01 9.36494E-01
 -1      3187-1.06452E+00-2.07097E+00 2.18112E+00
 -1      3188 2.16438E+00-1.49263E+00 1.22845E+00
 -1      3189-2.95660E-02-3.04356E+00-5.00000E-01
 -1      3190-4.74999E-01-2.73294E+00 2.10485E+00
 -1      3191-6.15465E-01-2.25697E+00 1.51087E+00
 -1      3192-1.96223E-01-2.62440E+00 2.45000E+00
 -1      3193-1.84264E+00-1.43933E+00 9.16752E-01
 -1      3194 5.16310E+00 3.81959E+00 1.18301E+00
 -1      3195 2.49550E-01 2.32070E+00 1.06339E+00
 -1      3196-2.32070E+00-3.33213E-01 1.32246E+00
 -1      3197-2.03123E+00 1.16048E+00 1.80233E+00
 -1      3198-1.19742E+00 2.01592E+00 1.92540E+00
 -1      3199 2.56976E+00-1.53489E+00-5.00000E-01
 -1      3200 1.56035E+00-2.52580E+00 2.03905E+00
 -1      3201-4.74999E-01 2.80578E+00 1.47500E+00
 -1      3202-1.44913E+00 2.25727E+00 1.59979E+00
 -1      3203-1.17985E+00 2.02320E+00 1.51252E+00
 -1      3204-2.69570E+00 4.74999E-01 9.26562E-01
 -1      3205-1.55938E+00 1.72259E+00 2.29197E+00
 -1      3206 1.16000E+00-2.03143E+00 2.05391E+00
 -1      3207-5.60898E-01 2.59536E+00 1.65781E+00
 -1      3208 1.44489E+00-1.83708E+00 1.54455E+00
 -1      3209 4.24032E-01 1.70091E+00 5.00000E-01
 -1      3210-1.68968E+00 2.00198E+00 2.45000E+00
 -1      3211 1.51325E+00 2.41207E+00 1.47785E+00
 -1      3212-2.52580E+00 1.56035E+00 2.10675E+00
 -1      3213-2.66110E+00 5.88127E-01 1.94191E+00
 -1      3214-1.42543E+00 1.85654E+00 7.78993E-01
 -1      3215 7.11633E-01-2.48576E+00 2.45000E+00
 -1      3216-2.04702E+00-1.12235E+00 2.24039E+00
 -1      3217 6.42009E-01-2.79118E+00 2.13195E+00
 -1      3218-1.42449E+00 1.85748E+00 1.36148E+00
 -1      3219-2.66541E+00-5.89913E-01 2.11764E+00
 -1      3220-2.72563E+00-6.14858E-01 1.41406E+00
 -1      3221-1.56756E+00-2.23931E+00 1.19613E+00
 -1      3222-2.32070E+00 3.20752E-01 6.45984E-01
 -1      3223-1.46137E+00 9.44867E-01-5.00000E-01
 -1      3224 2.06734E+00-1.07329E+00 1.92621E+00
 -1      3225 2.70409E+00-6.05937E-01 9.26562E-01
 -1      3226 5.60652E-01-2.59477E+00 2.05666E+00
 -1      3227 2.85877E+00 0.00000E+00 2.45000E+00
 -1      3228-1.46352E+00-2.29201E+00 1.04844E+00
 -1      3229 6.03455E-01-2.26195E+00 1.13199E+00
 -1      3230-1.80524E+00-1.47673E+00 1.96169E+00
 -1      3231 2.03039E+00 1.16251E+00 1.17430E+00
 -1      3232-2.02368E+00 1.17871E+00 1.21404E+00
 -1      3233-6.10912E-01 2.71610E+00 2.09475E+00
 -1      3234-2.81999E+00 6.53942E-01 8.92223E-01
 -1      3235-2.07649E+00-1.05120E+00 1.29797E+00
 -1      3236-1.43673E+00-1.84524E+00 9.25925E-01
 -1      3237-7.19180E-01 2.21402E+00 9.27811E-01
 -1      3238 1.16020E+00 2.03134E+00 2.09715E+00
 -1      3239 1.11680E+00 2.04932E+00 1.30204E+00
 -1      3240 2.25265E+00 6.25916E-01 1.07554E+00
 -1      3241-3.38154E-01-1.73915E+00 5.00000E-01
 -1      3242-6.08046E-01 2.70918E+00 1.15587E+00
 -1      3243-1.43465E+00 1.84732E+00 2.26237E+00
 -1      3244 2.06344E+00 1.08270E+00 1.55869E+00
 -1      3245 1.75867E+00 3.53730E-01 5.00000E-01
 -1      3246 4.74999E-01-2.69570E+00 2.02344E+00
 -1      3247 1.79419E+00 1.48778E+00 1.57008E+00
 -1      3248 1.79545E+00 1.48652E+00 1.86405E+00
 -1      3249 2.11697E+00 9.53480E-01 2.08437E+00
 -1      3250 2.06093E+00 1.08877E+00 1.86637E+00
 -1      3251-2.26078E+00 1.58903E+00 9.26562E-01
 -1      3252-8.89818E-01 5.04233E+00-5.00000E-01
 -1      3253 2.93795E-01-2.56887E+00 2.45000E+00
 -1      3254-2.33080E+00-1.47958E+00 1.29624E+00
 -1      3255 4.74999E-01-2.62184E+00 2.24951E+00
 -1      3256 2.02130E+00-1.18444E+00 1.38222E+00
 -1      3257 1.46956E+00 2.30659E+00 1.78267E+00
 -1      3258 2.22120E+00 7.01845E-01 2.11834E+00
 -1      3259 1.43513E+00 1.84684E+00 1.43161E+00
 -1      3260 6.07085E-01 2.26045E+00 6.61692E-01
 -1      3261-4.74999E-01 2.73976E+00 2.09810E+00
 -1      3262 1.42336E+00 1.85861E+00 1.73063E+00
 -1      3263-2.26895E+00-5.86549E-01 1.15886E+00
 -1      3264-2.26161E+00-6.04275E-01 1.41384E+00
 -1      3265-2.01636E+00 1.19638E+00 2.21235E+00
 -1      3266-1.22212E+00 1.38533E+00 5.00000E-01
 -1      3267 2.25830E+00 6.12263E-01 1.98528E+00
 -1      3268 2.69259E+00 6.01171E-01 2.10725E+00
 -1      3269 4.74999E-01 2.67161E+00 1.17926E+00
 -1      3270-1.19908E+00 2.01524E+00 1.77491E+00
 -1      3271 2.79234E+00 4.74999E-01 2.04041E+00
 -1      3272-2.77365E+00 4.74999E-01 2.12895E+00
 -1      3273-3.27427E-01-2.32070E+00 1.66631E+00
 -1      3274-5.74700E-01 2.27386E+00 1.17681E+00
 -1      3275-2.26963E+00-1.59788E+00 1.90156E+00
 -1      3276-2.42065E+00 1.51680E+00 1.29965E+00
 -1      3277 4.74999E-01 2.71768E+00 2.10725E+00
 -1      3278 1.20124E+00-2.01434E+00 1.93680E+00
 -1      3279 2.02990E+00-1.16369E+00 8.53209E-01
 -1      3280-6.04030E-01-2.26171E+00 1.82388E+00
 -1      3281 1.72259E+00-1.55938E+00 6.64841E-01
 -1      3282-1.79753E-01-2.32070E+00 9.90941E-01
 -1      3283-1.10427E+00 2.05451E+00 7.98089E-01
 -1      3284-2.68613E+00-5.98497E-01 9.26562E-01
 -1      3285-1.44340E+00 2.24346E+00 9.76823E-01
 -1      3286-2.05975E+00-1.09161E+00 1.87619E+00
 -1      3287-1.56756E+00-2.23931E+00 1.75387E+00
 -1      3288-1.84983E+00-1.43214E+00 1.44427E+00
 -1      3289-6.03760E-01-2.26182E+00 1.21937E+00
 -1      3290-2.63235E+00 4.74999E-01 1.17031E+00
 -1      3291-2.24646E+00-6.40861E-01 8.77480E-01
 -1      3292-2.32070E+00-3.42788E-01 1.02654E+00
 -1      3293 2.28699E+00 1.61524E+00 1.59687E+00
 -1      3294-1.11864E+00-2.60788E+00 2.45000E+00
 -1      3295-1.06275E+00-2.07170E+00 1.99203E+00
 -1      3296 2.68811E+00 4.74999E-01 1.05895E+00
 -1      3297 1.50271E+00 1.77926E+00 2.13320E+00
 -1      3298-2.60807E+00-4.74999E-01 8.64022E-01
 -1      3299-2.01321E+00-1.20398E+00 8.03227E-01
 -1      3300-2.32513E+00-1.47723E+00 1.62267E+00
 -1      3301-1.46443E+00-1.81754E+00 1.63692E+00
 -1      3302-4.04032E+00-2.69966E+00 5.00000E-01
 -1      3303-1.38595E+00-9.48819E-01 5.00000E-01
 -1      3304-2.48576E+00 7.11633E-01 2.45000E+00
 -1      3305-1.46453E+00-1.81744E+00 1.06339E+00
 -1      3306-1.18354E+00-2.02168E+00 1.92606E+00
 -1      3307 1.81223E+00 1.46974E+00 2.22961E+00
 -1      3308 1.54455E+00 2.21630E+00 1.29219E+00
 -1      3309-1.46975E+00 1.81222E+00 6.46303E-01
 -1      3310 1.53819E+00-2.20994E+00 1.56299E+00
 -1      3311 2.27464E+00 5.72815E-01 8.17027E-01
 -1      3312 2.61039E+00 5.67124E-01 8.65625E-01
 -1      3313 2.03304E+00 1.15610E+00 1.71090E+00
 -1      3314-1.87460E+00-1.40737E+00 2.31314E+00
 -1      3315-1.39922E+00-1.88275E+00 8.03231E-01
 -1      3316 2.02725E+00-1.17009E+00 1.52970E+00
 -1      3317-2.32070E+00 2.44189E-01 2.23982E+00
 -1      3318-1.53514E+00-2.46493E+00 1.47500E+00
 -1      3319 2.56887E+00 2.93795E-01 2.45000E+00
 -1      3320 2.27273E+00 5.77436E-01 1.33124E+00
 -1      3321-2.32070E+00-3.14111E-01 6.21733E-01
 -1      3322 1.18651E+00-2.02044E+00 1.76240E+00
 -1      3323 9.46954E-01 1.43999E+00 5.00000E-01
 -1      3324-2.27484E+00 1.45640E+00 1.07691E+00
 -1      3325-5.75012E-01-2.27373E+00 1.63031E+00
 -1      3326-4.74999E-01-2.78956E+00 1.47500E+00
 -1      3327-1.88515E+00-1.39682E+00 1.05767E+00
 -1      3328 1.40148E+00-1.88049E+00 1.42827E+00
 -1      3329-2.20841E+00 1.53666E+00 1.51287E+00
 -1      3330-1.14849E+00-2.03619E+00 9.18506E-01
 -1      3331-2.60148E+00 5.63433E-01 9.26562E-01
 -1      3332-1.94053E-01 2.32070E+00 1.71795E+00
 -1      3333 1.83461E+00 1.44736E+00 1.38786E+00
 -1      3334 2.72690E+00-4.74999E-01 2.11082E+00
 -1      3335-4.74999E-01-2.67911E+00 1.20429E+00
 -1      3336-1.40104E+00-1.88093E+00 1.27903E+00
 -1      3337 5.44228E-01 4.97311E+00-5.00000E-01
 -1      3338 2.99755E-01-2.32070E+00 1.35644E+00
 -1      3339-2.32070E+00-3.31633E-01 8.22237E-01
 -1      3340 1.76959E-01-2.32070E+00 1.66370E+00
 -1      3341 1.84982E+00 1.43215E+00 1.71660E+00
 -1      3342-2.95317E-01 2.32070E+00 1.85021E+00
 -1      3343-2.88511E-01 2.32070E+00 6.01763E-01
 -1      3344-3.26391E-01 2.32070E+00 1.15886E+00
 -1      3345 1.78268E+00 1.49929E+00 1.11479E+00
 -1      3346 1.14624E+00-2.03712E+00 1.45620E+00
 -1      3347-2.32070E+00 3.41913E-01 2.15186E+00
 -1      3348-1.75983E+00-8.53857E-01 5.00000E-01
 -1      3349-1.86322E+00-1.41875E+00 1.83927E+00
 -1      3350-2.07888E+00 1.04542E+00 1.91951E+00
 -1      3351-1.43288E+00-1.84909E+00 2.05391E+00
 -1      3352-2.07229E+00-2.07229E+00 2.45000E+00
 -1      3353 6.49691E-01-2.80973E+00 1.47247E+00
 -1      3354 1.48062E+00-2.33329E+00 1.30188E+00
 -1      3355 1.85853E+00 1.42344E+00 1.00321E+00
 -1      3356 2.02605E+00 1.17298E+00 1.43356E+00
 -1      3357-3.31023E-01-2.32070E+00 1.26222E+00
 -1      3358 2.62327E+00-5.72457E-01 1.32533E+00
 -1      3359-2.02920E+00-3.46213E-01 5.00000E-01
 -1      3360-2.28903E+00 1.46228E+00 1.56334E+00
 -1      3361-1.19532E+00-2.01680E+00 1.44447E+00
 -1      3362 2.03670E+00 1.14727E+00 8.91603E-01
 -1      3363 1.19742E+00 2.01592E+00 1.02460E+00
 -1      3364-2.03985E+00-1.13965E+00 1.11459E+00
 -1      3365 2.02627E+00-1.17243E+00 1.81241E+00
 -1      3366 2.03705E+00 1.14642E+00 2.06647E+00
 -1      3367-4.74999E-01 2.68987E+00 1.77969E+00
 -1      3368 2.32070E+00 2.09899E-01 2.25537E+00
 -1      3369 6.48681E-01 2.24322E+00 9.68974E-01
 -1      3370 2.25021E+00-6.31808E-01 1.01801E+00
 -1      3371 1.07081E+00 2.58516E+00 2.45000E+00
 -1      3372-1.50687E+00-2.17862E+00 1.40260E+00
 -1      3373 2.33433E+00-1.48105E+00 2.09156E+00
 -1      3374-2.59450E+00 4.74999E-01 2.01401E+00
 -1      3375 1.42893E+00-1.85304E+00 1.97127E+00
 -1      3376-2.28009E+00 1.45858E+00 2.18588E+00
 -1      3377 6.09787E-01 2.25933E+00 2.07050E+00
 -1      3378-1.25076E+00 2.26570E+00 2.45000E+00
 -1      3379 1.40866E+00-1.87331E+00 1.25875E+00
 -1      3380-2.02743E+00 1.16965E+00 1.39138E+00
 -1      3381 1.96223E-01 2.62440E+00 2.45000E+00
 -1      3382-1.41176E+00 1.87021E+00 1.95458E+00
 -1      3383-1.61847E+00 2.29022E+00 2.10626E+00
 -1      3384 2.32070E+00-2.28868E-01 1.11037E+00
 -1      3385 1.42829E+00 1.85368E+00 2.00453E+00
 -1      3386-6.21546E-01-2.25446E+00 2.31282E+00
 -1      3387-2.40420E-01-2.32070E+00 2.09887E+00
 -1      3388 2.19447E-01 2.32070E+00 1.51082E+00
 -1      3389 5.97066E-01-2.26460E+00 1.58308E+00
 -1      3390 2.42341E+00 1.51794E+00 2.02000E+00
 -1      3391-6.02190E-01-2.26247E+00 2.13466E+00
 -1      3392 7.27565E-01 2.21054E+00 1.61901E+00
 -1      3393 1.41018E+00 1.87179E+00 1.11035E+00
 -1      3394-2.20400E+00-1.53225E+00 1.54517E+00
 -1      3395 2.02421E+00 1.60872E+00 2.45000E+00
 -1      3396-2.98191E-01 2.32070E+00 2.28265E+00
 -1      3397 1.34193E+00 1.37488E+00 5.00000E-01
 -1      3398 2.32070E+00-2.34302E-01 2.04306E+00
 -1      3399-1.40611E+00-1.87586E+00 1.52521E+00
 -1      3400-5.85025E-01 2.82067E+00-5.00000E-01
 -1      3401 6.30156E-01 2.25089E+00 1.47006E+00
 -1      3402 5.81700E+00-9.50000E-01 1.11784E+00
 -1      3403 2.32070E+00 2.76069E-01 1.16845E+00
 -1      3404 1.18339E+00-2.02174E+00 1.00808E+00
 -1      3405 2.56887E+00-2.93795E-01 2.45000E+00
 -1      3406-2.22948E+00 1.43762E+00 8.60394E-01
 -1      3407-1.20218E+00-2.01395E+00 1.03579E+00
 -1      3408-1.11478E+00-2.05015E+00 7.10591E-01
 -1      3409 5.77933E-01-2.27252E+00 1.70775E+00
 -1      3410 3.42622E-01 2.32070E+00 1.54796E+00
 -1      3411-6.18917E-01-2.25555E+00 9.23688E-01
 -1      3412-1.81366E+00-1.46831E+00 7.10177E-01
 -1      3413 1.41225E+00-1.86972E+00 1.68031E+00
 -1      3414 3.13241E-01-2.32070E+00 8.31811E-01
 -1      3415-5.70840E-01-2.27546E+00 1.04389E+00
 -1      3416 3.32491E-01 2.32070E+00 6.34868E-01
 -1      3417-2.24107E+00-6.53866E-01 1.98479E+00
 -1      3418 1.17669E+00-2.02451E+00 1.19709E+00
 -1      3419 6.02933E-01 2.69684E+00 1.64812E+00
 -1      3420 2.24569E+00-6.42718E-01 2.04196E+00
 -1      3421-1.39896E+00-1.88301E+00 1.14776E+00
 -1      3422-1.58490E+00-2.25664E+00 8.68628E-01
 -1      3423-1.85796E+00 1.42401E+00 1.91233E+00
 -1      3424 2.02146E+00-2.02146E+00 2.45000E+00
 -1      3425 2.25175E+00-1.58000E+00 1.60032E+00
 -1      3426-2.26508E+00 5.95907E-01 2.18361E+00
 -1      3427 6.04191E-01-2.26164E+00 1.41387E+00
 -1      3428-6.21546E-01 2.25446E+00 6.58229E-01
 -1      3429-1.25450E+00-2.26090E+00 2.45000E+00
 -1      3430 1.85070E+00-1.43127E+00 6.68869E-01
 -1      3431-1.40131E+00-1.88066E+00 1.93680E+00
 -1      3432 8.63076E-02 1.92480E+00 5.00000E-01
 -1      3433-2.63215E+00 5.76137E-01 2.20435E+00
 -1      3434 2.63505E+00-1.05305E+00 2.45000E+00
 -1      3435 1.87638E+00 1.40559E+00 1.50647E+00
 -1      3436 1.85604E+00 1.42593E+00 1.23330E+00
 -1      3437 1.07500E+00-2.06663E+00 6.95434E-01
 -1      3438 2.32070E+00 3.45771E-01 1.89108E+00
 -1      3439 1.19190E+00 2.01821E+00 1.18881E+00
 -1      3440 2.07152E+00-1.06321E+00 6.90940E-01
 -1      3441-2.62360E+00-5.72595E-01 1.17812E+00
 -1      3442-1.68696E+00 3.86621E-01 5.00000E-01
 -1      3443-1.43768E+00 2.22963E+00 2.26695E+00
 -1      3444-2.32070E+00 2.90100E-01 7.63782E-01
 -1      3445 5.73304E-01-2.27444E+00 7.82078E-01
 -1      3446-1.20425E+00-2.01310E+00 8.00754E-01
 -1      3447-2.32764E+00 1.65589E+00 2.02227E+00
 -1      3448 2.32070E+00-3.39857E-01 1.77901E+00
 -1      3449 2.28674E+00 1.46133E+00 1.77190E+00
 -1      3450-1.44919E+00-2.25743E+00 1.58993E+00
 -1      3451 1.87868E+00-1.40329E+00 1.37765E+00
 -1      3452 2.04721E+00 1.12189E+00 6.96133E-01
 -1      3453-2.64475E+00 5.81356E-01 1.20206E+00
 -1      3454-6.58518E-01 2.23914E+00 1.43331E+00
 -1      3455-1.45370E+00-2.26830E+00 1.31404E+00
 -1      3456-2.21322E+00-1.43088E+00 1.45712E+00
 -1      3457 1.50488E+00-2.17663E+00 2.04750E+00
 -1      3458 3.23002E-01 2.32070E+00 1.76240E+00
 -1      3459 2.68258E+00-4.74999E-01 1.81875E+00
 -1      3460 2.41043E+00-1.51257E+00 1.47500E+00
 -1      3461 1.45041E+00-2.26036E+00 1.65781E+00
 -1      3462-6.09618E-01-2.71298E+00 2.09810E+00
 -1      3463-4.78499E+00 3.44149E+00 1.11784E+00
 -1      3464-4.74999E-01 2.69359E+00 1.18736E+00
 -1      3465 5.72263E-01 2.62280E+00 1.40201E+00
 -1      3466 6.07228E-01 2.70721E+00 1.04844E+00
 -1      3467-1.41259E+00-1.86938E+00 1.76240E+00
 -1      3468-2.60328E+00 5.64179E-01 1.43433E+00
 -1      3469-2.30873E+00-1.47044E+00 9.26562E-01
 -1      3470 1.44270E+00-2.24177E+00 1.08738E+00
 -1      3471 5.39057E-01 2.54263E+00 1.04844E+00
 -1      3472 2.03886E+00 2.88511E-01 5.00000E-01
 -1      3473 2.27149E+00 5.80415E-01 2.11226E+00
 -1      3474-1.86414E+00 1.41783E+00 2.09543E+00
 -1      3475 2.01821E+00 1.19189E+00 1.94134E+00
 -1      3476 5.85802E-01 2.26926E+00 8.26535E-01
 -1      3477-3.21382E-01-2.32070E+00 6.45388E-01
 -1      3478 2.32070E+00-3.01365E-01 1.58603E+00
 -1      3479 3.88578E-01 2.01410E+00 5.00000E-01
 -1      3480-4.03328E-01-2.02919E+00 5.00000E-01
 -1      3481-3.21263E-01-2.32070E+00 1.03658E+00
 -1      3482-2.03140E+00-1.16007E+00 2.05413E+00
 -1      3483-8.28787E-01-2.50045E+00 2.45000E+00
 -1      3484 7.90763E-01 1.78142E+00 5.00000E-01
 -1      3485-5.70287E-01-2.61803E+00 1.84063E+00
 -1      3486 2.70110E+00-6.04696E-01 2.11082E+00
 -1      3487 5.61527E-01-2.27932E+00 1.29638E+00
 -1      3488-4.74999E-01-2.58877E+00 1.53594E+00
 -1      3489 5.92365E-01-2.67133E+00 1.17589E+00
 -1      3490-5.91672E-01-2.26683E+00 7.81072E-01
 -1      3491 2.32070E+00-3.35537E-01 2.13207E+00
 -1      3492 2.26199E+00-6.03360E-01 2.19022E+00
 -1      3493-2.32070E+00 3.42906E-01 1.29784E+00
 -1      3494 1.70911E+00 7.95619E-01 5.00000E-01
 -1      3495 3.48991E-01 2.32070E+00 1.87827E+00
 -1      3496-5.76338E-01-2.63263E+00 9.26562E-01
 -1      3497 2.48576E+00 7.11633E-01 2.45000E+00
 -1      3498-4.74999E-01-2.72041E+00 8.74323E-01
 -1      3499 2.26265E+00 6.01763E-01 1.72654E+00
 -1      3500-3.42314E-01-2.32070E+00 2.01656E+00
 -1      3501-5.55841E-01-2.58315E+00 2.26719E+00
 -1      3502 2.68039E+00-5.96117E-01 1.84162E+00
 -1      3503 1.60872E+00 2.02421E+00 2.45000E+00
 -1      3504-2.47843E+00 3.18715E-01 2.45000E+00
 -1      3505 5.46757E-01-3.12985E+00-5.00000E-01
 -1      3506 2.42702E-03-1.76614E+00-5.00000E-01
 -1      3507 1.39575E+00-1.06767E+00 5.00000E-01
 -1      3508 2.23943E+00 1.56768E+00 2.14531E+00
 -1      3509-2.22163E+00-1.43436E+00 1.11827E+00
 -1      3510-1.15464E+00 2.03364E+00 2.34824E+00
 -1      3511 1.49816E+00 2.16991E+00 1.48759E+00
 -1      3512-2.28988E+00 1.46263E+00 1.85084E+00
 -1      3513 2.42297E+00 1.12854E+00 2.45000E+00
 -1      3514 5.92337E-01 2.26655E+00 1.63966E+00
 -1      3515 1.40308E+00 1.87889E+00 2.14107E+00
 -1      3516-5.44268E-01-2.55521E+00 2.01701E+00
 -1      3517 1.55338E+00-2.22513E+00 1.14959E+00
 -1      3518 1.39617E+00 1.88580E+00 1.54536E+00
 -1      3519 1.18293E+00-2.02192E+00 1.32960E+00
 -1      3520 2.32070E+00-3.15012E-01 1.18740E+00
 -1      3521 1.46312E+00 2.29105E+00 1.10938E+00
 -1      3522 4.74999E-01 2.68292E+00 1.81307E+00
 -1      3523-2.01695E+00-1.19493E+00 6.34846E-01
 -1      3524-6.03091E-01 2.26210E+00 1.65768E+00
 -1      3525 1.43698E+00 1.84499E+00 6.37183E-01
 -1      3526-4.74999E-01 2.59167E+00 1.95819E+00
 -1      3527-1.52935E+00-2.90315E+00-5.00000E-01
 -1      3528 7.94931E-01 2.49620E+00 2.45000E+00
 -1      3529 2.58696E+00-4.74999E-01 9.26562E-01
 -1      3530 1.42196E+00 1.86001E+00 1.27474E+00
 -1      3531 1.80069E+00-1.48128E+00 2.21415E+00
 -1      3532 2.27341E+00 5.75793E-01 1.86555E+00
 -1      3533 4.78499E+00 3.44149E+00 1.02756E+00
 -1      3534-2.17710E+00 1.50535E+00 1.10717E+00
 -1      3535 2.24994E+00-1.44609E+00 1.29343E+00
 -1      3536-8.87770E-01-5.19765E+00-5.00000E-01
 -1      3537 1.78692E+00-1.49505E+00 1.91529E+00
 -1      3538 1.80684E+00-1.47513E+00 1.60500E+00
 -1      3539 7.13696E-01 2.21629E+00 1.33087E+00
 -1      3540-4.74999E-01 2.60803E+00 1.57416E+00
 -1      3541-2.97610E-01 2.32070E+00 1.57861E+00
 -1      3542-3.53474E-01 2.32070E+00 1.29638E+00
 -1      3543-4.74999E-01 2.63279E+00 1.37677E+00
 -1      3544 1.09895E+00 1.71596E+00 5.00000E-01
 -1      3545-1.88976E-01 2.02925E+00 5.00000E-01
 -1      3546 5.82411E-01 2.27067E+00 1.08173E+00
 -1      3547 1.85676E+00-6.44185E-01 5.00000E-01
 -1      3548 1.86110E+00-1.42087E+00 1.21981E+00
 -1      3549-1.75429E+00-1.98424E+00 2.45000E+00
 -1      3550 2.45385E+00-7.88674E-01 2.45000E+00
 -1      3551 2.24924E+00 6.34131E-01 2.27900E+00
 -1      3552 1.79796E+00-1.48401E+00 7.89642E-01
 -1      3553-1.58080E+00-2.25255E+00 2.09471E+00
 -1      3554-2.26112E+00 6.05448E-01 1.92690E+00
 -1      3555 1.43730E+00 2.22872E+00 1.57731E+00
 -1      3556-2.81189E-01 2.32070E+00 1.97350E+00
 -1      3557-1.88276E+00-1.39921E+00 7.98140E-01
 -1      3558-1.94375E+00-6.26164E-01 5.00000E-01
 -1      3559 1.39758E+00 1.88439E+00 1.88630E+00
 -1      3560 2.06777E+00-1.07226E+00 2.18905E+00
 -1      3561 1.82263E+00 1.45934E+00 2.04510E+00
 -1      3562 1.78917E+00-1.49280E+00 2.06515E+00
 -1      3563-1.87835E+00-1.40362E+00 1.70709E+00
 -1      3564-1.29310E+00-1.37610E+00 5.00000E-01
 -1      3565 2.02342E+00-1.17933E+00 2.05813E+00
 -1      3566 1.87530E+00 1.40667E+00 1.93468E+00
 -1      3567-5.68416E-01 2.61351E+00 9.26562E-01
 -1      3568-4.74999E-01 2.64598E+00 9.26562E-01
 -1      3569 1.33662E+00-1.43207E+00 5.00000E-01
 -1      3570 2.01283E+00 1.20489E+00 7.83171E-01
 -1      3571 2.02019E+00-1.18712E+00 1.93490E+00
 -1      3572-2.02285E+00-1.18069E+00 1.25446E+00
 -1      3573 1.45991E+00-2.28330E+00 1.93798E+00
 -1      3574 1.88415E+00 1.39782E+00 2.14488E+00
 -1      3575 1.88790E+00 1.39407E+00 8.04688E-01
 -1      3576-2.60788E+00-1.11864E+00 2.45000E+00
 -1      3577 4.74999E-01-2.73403E+00 1.59687E+00
 -1      3578 1.44194E+00 2.23992E+00 1.33657E+00
 -1      3579-1.17475E+00-1.66530E+00 5.00000E-01
 -1      3580 2.58593E+00 4.74999E-01 2.02344E+00
 -1      3581 2.02031E+00-1.18682E+00 2.30647E+00
 -1      3582 6.63951E-03-1.92775E+00 5.00000E-01
 -1      3583 1.19206E+00-2.01815E+00 7.35428E-01
 -1      3584-2.02115E+00-1.18481E+00 1.76715E+00
 -1      3585-1.59939E+00 1.19137E+00 5.00000E-01
 -1      3586-1.81100E+00 1.06242E+00 5.00000E-01
 -1      3587-2.01534E+00-1.19882E+00 1.93226E+00
 -1      3588-6.26407E-01 2.25244E+00 8.11671E-01
 -1      3589-1.72538E+00 1.55659E+00 2.23593E+00
 -1      3590-2.02504E+00 1.17540E+00 1.94426E+00
 -1      3591-2.24300E+00 1.57125E+00 1.77928E+00
 -1      3592 5.65023E-01 2.60532E+00 1.86261E+00
 -1      3593-5.61062E-01 2.59576E+00 1.90156E+00
 -1      3594 2.32070E+00-2.80229E-01 6.59582E-01
 -1      3595-1.64259E+00-1.17573E+00 5.00000E-01
 -1      3596 1.88476E+00-1.39721E+00 7.82028E-01
 -1      3597-1.98506E+00-1.75129E+00 2.45000E+00
 -1      3598-2.10350E+00-5.59018E-01 5.00000E-01
 -1      3599-3.29055E-01-2.32070E+00 1.89095E+00
 -1      3600 2.22320E+00 1.55145E+00 1.86415E+00
 -1      3601 1.14623E+00-2.69733E+00 2.45000E+00
 -1      3602-2.32893E+00-1.20162E+00 2.45000E+00
 -1      3603-2.25446E+00-6.21546E-01 6.01763E-01
 -1      3604-2.59021E+00-5.58763E-01 1.57774E+00
 -1      3605 2.59436E+00 5.60483E-01 1.90156E+00
 -1      3606-5.97522E-01 2.26441E+00 9.93669E-01
 -1      3607 2.01620E+00 1.19677E+00 1.59108E+00
 -1      3608 1.87077E+00-1.41120E+00 1.98773E+00
 -1      3609-2.22398E+00-1.55223E+00 2.17776E+00
 -1      3610 2.32070E+00 3.31957E-01 2.21134E+00
 -1      3611-5.43133E-01 2.55247E+00 2.07366E+00
 -1      3612-2.26340E+00-5.99960E-01 1.86619E+00
 -1      3613-1.88026E+00-1.40171E+00 2.18895E+00
 -1      3614-1.15464E+00-2.03364E+00 6.01810E-01
 -1      3615 2.01689E+00-1.19508E+00 6.82813E-01
 -1      3616 1.41444E+00-1.86753E+00 2.30367E+00
 -1      3617-1.49519E+00-2.16694E+00 1.93043E+00
 -1      3618-1.19981E+00 2.01493E+00 8.66907E-01
 -1      3619-2.34954E+00 1.18560E+00 2.45000E+00
 -1      3620-2.00198E+00 1.68968E+00 2.45000E+00
 -1      3621 5.16310E+00-3.81959E+00 1.18301E+00
 -1      3622-3.27862E-01 2.32070E+00 1.70924E+00
 -1      3623 1.64753E+00 2.31928E+00 2.16599E+00
 -1      3624-1.06285E+00 1.69500E+00 5.00000E-01
 -1      3625 1.87546E+00-1.40651E+00 2.12720E+00
 -1      3626-4.74999E-01 2.56205E+00 2.13787E+00
 -1      3627 3.80331E-01-1.94802E+00 5.00000E-01
 -1      3628 2.07128E+00 1.06378E+00 2.24996E+00
 -1      3629 2.82392E+00-3.80395E+00-5.00000E-01
 -1      3630-3.34675E-01-2.32070E+00 1.51100E+00
 -1      3631-1.84499E+00 1.43698E+00 2.28390E+00
 -1      3632-1.83544E+00-1.44653E+00 2.08015E+00
 -1      3633 1.51359E+00 2.18534E+00 9.26562E-01
 -1      3634 2.28136E+00 1.45911E+00 1.53366E+00
 -1      3635-2.00032E+00 4.53823E-01 5.00000E-01
 -1      3636-9.09346E-01 1.89379E+00 5.00000E-01
 -1      3637 2.05082E+00-4.56559E-01 5.00000E-01
 -1      3638-2.29402E+00-1.46435E+00 1.91620E+00
 -1      3639-3.15223E-01-2.49428E+00 2.45000E+00
 -1      3640 6.21546E-01-2.25446E+00 2.30330E+00
 -1      3641 3.81959E+00-5.16310E+00 1.18301E+00
 -1      3642 2.11177E+00-2.55230E-01 5.00000E-01
 -1      3643-9.47994E-01-4.76589E+00 5.00000E-01
 -1      3644-2.27115E+00 5.81253E-01 6.34846E-01
 -1      3645 5.62593E-01-2.59945E+00 1.59104E+00
 -1      3646-2.15625E+00 1.48450E+00 1.34125E+00
 -1      3647 2.32070E+00-3.13282E-01 2.30324E+00
 -1      3648 3.21820E-01-2.32070E+00 1.67813E+00
 -1      3649-2.26956E+00 5.85072E-01 2.31717E+00
 -1      3650-1.50597E+00-2.39451E+00 2.13473E+00
 -1      3651 4.74999E-01-2.61934E+00 1.80157E+00
 -1      3652 3.14569E-01-2.32070E+00 2.30446E+00
 -1      3653 8.67999E-01-1.79397E+00 5.00000E-01
 -1      3654 1.86981E+00-1.41216E+00 1.84241E+00
 -1      3655 1.49555E+00 2.16730E+00 2.11938E+00
 -1      3656-2.03601E+00 1.14892E+00 1.51039E+00
 -1      3657 1.43698E+00 1.84499E+00 2.29721E+00
 -1      3658 4.78499E+00-3.44149E+00 1.02756E+00
 -1      3659-1.43260E+00-2.21738E+00 2.04142E+00
 -1      3660-4.74999E-01-2.67181E+00 1.80917E+00
 -1      3661-2.03364E+00 1.15464E+00 6.01763E-01
 -1      3662 1.25450E+00 2.26090E+00 2.45000E+00
 -1      3663 4.74999E-01 2.64806E+00 1.44056E+00
 -1      3664 1.05358E+00 2.07550E+00 2.25849E+00
 -1      3665 1.87624E+00 1.40573E+00 2.32163E+00
 -1      3666 2.17825E+00-1.41639E+00 2.14531E+00
 -1      3667-2.27751E+00-1.45751E+00 2.19003E+00
 -1      3668-7.03555E-01-1.84248E+00 5.00000E-01
 -1      3669 4.74999E-01 2.57002E+00 1.65781E+00
 -1      3670-1.08956E+00 1.87429E+00 5.00000E-01
 -1      3671-1.49527E+00-2.16702E+00 2.26719E+00
 -1      3672 1.18100E+00 2.02272E+00 2.30681E+00
 -1      3673 2.56437E+00-5.48062E-01 1.98761E+00
 -1      3674 1.16698E+00-2.37351E+00 2.45000E+00
 -1      3675 2.58065E+00-4.74999E-01 1.98362E+00
 -1      3676-1.71103E-01-2.08856E+00 5.00000E-01
 -1      3677 2.26352E+00 1.45171E+00 2.21251E+00
 -1      3678 4.04032E+00-2.69966E+00 5.00000E-01
 -1      3679 2.02421E+00-1.60872E+00 2.45000E+00
 -1      3680-1.15464E+00-2.03364E+00 2.30406E+00
 -1      3681 2.02105E+00 1.18505E+00 2.20040E+00
 -1      3682 5.26050E-01-5.33657E+00-5.00000E-01
 -1      3683-1.43698E+00-1.84499E+00 6.32395E-01
 -1      3684 1.62190E+00 1.14634E+00 5.00000E-01
 -1      3685-1.50710E+00 2.17885E+00 1.56766E+00
 -1      3686 3.44149E+00-4.78499E+00 1.02756E+00
 -1      3687 2.61750E+00-4.74999E-01 1.59865E+00
 -1      3688 1.58252E+00 1.38385E+00 5.00000E-01
 -1      3689 4.76589E+00 9.47994E-01 5.00000E-01
 -1      3690-3.01341E+00-4.48096E+00-5.00000E-01
 -1      3691-2.32070E+00-3.41258E-01 1.84638E+00
 -1      3692 2.02027E+00-1.18693E+00 2.18216E+00
 -1      3693-2.32070E+00-1.80065E-01 2.14390E+00
 -1      3694-1.17390E+00-2.02567E+00 2.08537E+00
 -1      3695-2.69966E+00-4.04032E+00 5.00000E-01
 -1      3696 1.82712E+00 1.01117E+00 5.00000E-01
 -1      3697 9.23079E-01-5.06379E+00-5.00000E-01
 -1      3698-2.69967E+00 4.04032E+00 5.00000E-01
 -1      3699-1.50644E+00 2.17819E+00 2.26719E+00
 -1      3700 2.27293E+00-5.76954E-01 1.62238E+00
 -1      3701 3.41910E-01 2.32070E+00 8.03229E-01
 -1      3702-3.01943E+00 4.14866E+00-5.00000E-01
 -1      3703-1.84499E+00 1.43698E+00 6.01763E-01
 -1      3704 4.04032E+00 2.69966E+00 5.00000E-01
 -1      3705 1.16193E+00-1.69878E+00 5.00000E-01
 -1      3706-2.20646E+00 1.53471E+00 2.21453E+00
 -1      3707-2.32070E+00-2.96245E-01 2.01502E+00
 -1      3708-2.66762E+00-4.74999E-01 2.18156E+00
 -1      3709 3.00994E+00-4.08956E-01-5.00000E-01
 -1      3710-5.81700E+00-9.50000E-01 1.11784E+00
 -1      3711-2.48576E+00-7.11633E-01 2.45000E+00
 -1      3712 1.80731E+00 1.20446E+00 5.00000E-01
 -1      3713 1.05303E+00-1.86391E+00 5.00000E-01
 -1      3714 4.74999E-01 2.59914E+00 9.26562E-01
 -1      3715 1.15464E+00 2.03364E+00 6.01763E-01
 -1      3716-6.61198E-01-2.23803E+00 6.50222E-01
 -1      3717 2.20748E+00 1.53573E+00 1.30973E+00
 -1      3718-9.50000E-01-6.35172E+00 1.18301E+00
 -1      3719-4.74999E-01-2.58626E+00 1.02510E+00
 -1      3720-2.32070E+00-2.97220E-01 2.28173E+00
 -1      3721-2.26801E+00-5.88833E-01 2.10491E+00
 -1      3722-9.50000E-01-5.81700E+00 1.02756E+00
 -1      3723 2.25446E+00-6.21546E-01 2.32577E+00
 -1      3724 1.84499E+00-1.43698E+00 2.33081E+00
 -1      3725 5.87751E-01 2.26845E+00 1.28078E+00
 -1      3726-2.32070E+00-3.14531E-01 2.14831E+00
 -1      3727 2.30324E+00-1.46817E+00 1.78689E+00
 -1      3728-2.25446E+00-6.21546E-01 2.31586E+00
 -1      3729-6.13138E-01-2.03183E+00 5.00000E-01
 -1      3730-4.76589E+00 9.47994E-01 5.00000E-01
 -1      3731-9.67162E-01-1.82838E+00 5.00000E-01
 -1      3732-4.78499E+00-3.44149E+00 1.11784E+00
 -1      3733 2.16431E+00-1.49256E+00 2.02344E+00
 -1      3734-1.92131E+00 5.80481E-02 5.00000E-01
 -1      3735-2.88511E-01-2.32070E+00 2.34824E+00
 -1      3736-1.30362E+00 1.62304E+00 5.00000E-01
 -1      3737-2.08335E+00 2.31475E-01 5.00000E-01
 -1      3738 2.69966E+00-4.04032E+00 5.00000E-01
 -1      3739-2.32070E+00 2.88511E-01 2.34816E+00
 -1      3740 9.50000E-01 5.81700E+00 1.11784E+00
 -1      3741 9.47994E-01 4.76589E+00 5.00000E-01
 -1      3742 2.61067E-01-2.32070E+00 1.55370E+00
 -1      3743 1.70355E+00-1.13827E+00 5.00000E-01
 -1      3744 1.84499E+00 1.43698E+00 6.52923E-01
 -1      3745 2.23188E+00 1.21576E+00 2.45000E+00
 -1      3746-6.30769E+00 9.03775E-01-5.00000E-01
 -1      3747-6.35172E+00 9.50000E-01 1.18301E+00
 -1      3748-1.83569E+00-1.06378E+00 5.00000E-01
 -1      3749 3.44149E+00 4.78499E+00 1.11784E+00
 -1      3750-1.84499E+00-1.43698E+00 6.01841E-01
 -1      3751 1.88272E+00-9.04759E-01 5.00000E-01
 -1      3752 1.57972E+00-1.35965E+00 5.00000E-01
 -1      3753 2.03116E+00 1.16064E+00 2.32906E+00
 -1      3754 9.50000E-01-6.35172E+00 1.18301E+00
 -1      3755-5.81700E+00 9.50000E-01 1.02756E+00
 -1      3756 5.81700E+00 9.50000E-01 1.11784E+00
 -1      3757 5.37693E+00 1.07292E-01-5.00000E-01
 -1      3758-5.91491E+00 4.46173E-01-5.00000E-01
 -1      3759-3.44149E+00 4.78499E+00 1.11784E+00
 -1      3760-9.50000E-01 5.81700E+00 1.11784E+00
 -1      3761-3.81959E+00-5.16310E+00 1.18301E+00
 -1      3762 1.87600E+00-1.08509E+00 5.00000E-01
 -1      3763 9.50000E-01-5.81700E+00 1.02756E+00
 -1      3764 4.94707E+00-8.11965E-02-5.00000E-01
 -1      3765 7.19937E+00-5.16260E-02-5.00000E-01
 -1      3766-1.18606E-01 5.13939E+00-5.00000E-01
 -1      3767 4.10576E-01 6.72333E+00-5.00000E-01
 -1      3768-3.44149E+00-4.78499E+00 1.02756E+00
 -1      3769 6.48340E+00-1.08883E-01-5.00000E-01
 -1      3770-3.49924E-01 6.84395E+00-5.00000E-01
 -1      3771 1.39048E-01 4.76221E+00-5.00000E-01
 -1      3772 6.82094E+00 1.75368E-01-5.00000E-01
 -1      3773 2.22784E-01 5.09601E+00-5.00000E-01
 -1      3774 6.97798E-02 7.03240E+00-5.00000E-01
 -1      3775-2.84102E-01 7.25895E+00-5.00000E-01
 -1      3776 1.15789E-01 5.61896E+00-5.00000E-01
 -1      3777 1.86137E+00 1.53496E+00-1.04249E-02
 -1      3778-1.73062E+00-1.73062E+00 4.99052E-02
 -1      3779-1.86137E+00 1.53496E+00 1.91182E-02
 -1      3780-7.05808E-01-2.30710E+00-3.10298E-02
 -1      3781 4.78031E+00 3.19409E+00 3.18202E-02
 -1      3782-9.60858E-01-2.62129E+00 2.99723E-01
 -1      3783-2.40158E+00-2.30808E-01 1.06586E-02
 -1      3784-5.63875E+00-1.12162E+00 5.79864E-02
 -1      3785-7.05808E-01 2.30710E+00 2.86587E-02
 -1      3786 2.30710E+00-7.05808E-01 1.50400E-02
 -1      3787-1.13229E+00 2.13046E+00 1.01738E-01
 -1      3788-1.34861E-01 2.42066E+00 2.87103E-02
 -1      3789 1.13229E+00 2.13046E+00-8.73390E-03
 -1      3790 7.05808E-01-2.30710E+00-3.06924E-02
 -1      3791 6.26266E-01 2.32292E+00-1.57859E-02
 -1      3792 3.19409E+00 4.78031E+00 2.02897E-02
 -1      3793-4.28071E+00-2.86029E+00-2.68964E-02
 -1      3794-1.53496E+00-1.86137E+00 2.79877E-01
 -1      3795 2.62129E+00-9.60858E-01 3.28956E-01
 -1      3796-2.13046E+00-1.13229E+00-1.71988E-02
 -1      3797-5.02388E+00-9.99311E-01-1.24833E-02
 -1      3798-1.95807E+00 2.02416E+00 8.68072E-01
 -1      3799-1.68988E+00 2.07031E+00 5.13895E-02
 -1      3800-1.17410E+00 2.53296E+00 5.32044E-01
 -1      3801-2.77993E+00 3.34340E-02 1.03050E+00
 -1      3802-3.46213E-01 2.37862E+00 2.32779E-01
 -1      3803 1.13229E+00-2.13046E+00 9.02460E-02
 -1      3804-4.68393E-02-2.75398E+00 1.15164E+00
 -1      3805-9.41916E-01 2.57266E+00 1.81933E+00
 -1      3806 1.73161E+00-2.09402E+00 3.63265E-02
 -1      3807 2.40158E+00-2.30808E-01 7.73648E-02
 -1      3808-5.90404E-01 2.33006E+00 2.81601E-01
 -1      3809 1.53496E+00 1.86137E+00 9.46375E-02
 -1      3810 3.46213E-01 2.37862E+00 1.79233E-01
 -1      3811 2.68208E+00 1.65658E-01 1.05984E+00
 -1      3812-2.64731E+00-1.81446E-01 1.71429E+00
 -1      3813-1.23012E+00 2.06508E+00 3.04420E-01
 -1      3814 2.56900E+00-1.00070E+00 1.12539E+00
 -1      3815 1.13789E+00 2.58187E+00 6.79408E-01
 -1      3816 2.33006E+00-5.90404E-01 2.60436E-01
 -1      3817 4.31870E+00 2.88567E+00-2.12123E-02
 -1      3818-2.78946E+00-1.15404E-01 5.32513E-01
 -1      3819-5.90404E-01-2.33006E+00 2.37148E-01
 -1      3820-1.12162E+00-5.63875E+00 5.79365E-02
 -1      3821-2.35687E+00 1.26645E+00 5.19589E-02
 -1      3822-2.02973E+00 1.86652E+00 3.25805E-01
 -1      3823 2.82432E+00-5.73678E-02 6.12953E-01
 -1      3824 4.78031E+00-3.19409E+00 6.43039E-02
 -1      3825-7.52719E-01-2.49620E+00 1.53594E+00
 -1      3826 1.92041E+00 1.98628E+00 1.28252E+00
 -1      3827 1.42941E+00-1.93191E+00 1.56923E-01
 -1      3828 2.53296E+00 1.17410E+00 5.50759E-01
 -1      3829 5.11981E+00-1.01839E+00-6.17213E-02
 -1      3830-2.40158E+00 2.30808E-01 9.87144E-02
 -1      3831-2.57381E+00-1.00323E+00 1.04513E+00
 -1      3832 2.86959E+00 4.29463E+00-4.31870E-02
 -1      3833 9.60858E-01-2.62129E+00 2.99933E-01
 -1      3834 2.57825E+00 1.08335E+00 1.05183E+00
 -1      3835-4.78031E+00 3.19409E+00 5.05977E-02
 -1      3836-2.00806E+00-4.57030E-01 1.44703E-01
 -1      3837 1.43713E+00-1.92675E+00 3.52635E-01
 -1      3838-2.37862E+00 3.46213E-01 3.02881E-01
 -1      3839-2.46747E+00-7.29852E-01 1.90156E+00
 -1      3840-1.80605E+00 8.73003E-01-4.75057E-03
 -1      3841-3.46213E-01 2.37862E+00 3.97587E-01
 -1      3842 1.29609E-01 2.76918E+00 1.64130E+00
 -1      3843 2.21691E+00 7.93362E-01-2.89738E-02
 -1      3844 1.19837E+00-2.40799E+00 1.99143E+00
 -1      3845 2.05405E+00-1.89084E+00 3.62844E-01
 -1      3846 2.81167E+00-1.50347E-02 1.57445E+00
 -1      3847 2.06508E+00-1.23012E+00-1.70528E-02
 -1      3848-7.61403E-01 2.48032E+00 1.20421E+00
 -1      3849-2.37862E+00-3.46213E-01 2.58219E-01
 -1      3850-4.78031E+00-3.19409E+00 4.25018E-02
 -1      3851-1.14299E+00 2.40462E+00 8.65484E-01
 -1      3852-6.32423E-02 2.82079E+00 6.79408E-01
 -1      3853-4.79768E-01 2.35206E+00 3.64675E-01
 -1      3854-1.76918E+00-1.96924E+00 1.12122E+00
 -1      3855 5.90404E-01 2.33006E+00 2.68982E-01
 -1      3856-1.78165E+00 1.94485E+00 5.82553E-01
 -1      3857 2.59490E+00 1.11755E+00 1.89430E+00
 -1      3858-2.37450E+00 7.42427E-01-5.75298E-02
 -1      3859-2.63381E+00-8.26903E-01 1.47673E-01
 -1      3860-2.91208E-01-2.55745E+00 2.14531E+00
 -1      3861 2.50742E+00 7.91723E-01 1.11306E+00
 -1      3862 5.90404E-01-2.33006E+00 2.37319E-01
 -1      3863 1.12162E+00 5.63875E+00 7.12802E-02
 -1      3864 3.63341E-02-2.77215E+00 1.90020E+00
 -1      3865-1.93674E+00-1.42218E+00 1.35981E-01
 -1      3866-9.99311E-01 5.02388E+00 2.84330E-02
 -1      3867 1.64702E+00-1.98965E+00 1.45170E+00
 -1      3868 3.46213E-01 2.37862E+00 3.65606E-01
 -1      3869 1.19974E+00-2.39181E+00 1.53481E+00
 -1      3870 2.06508E+00-1.23012E+00 2.57597E-01
 -1      3871-2.07108E-01-2.56866E+00 1.28294E+00
 -1      3872 1.17488E+00 2.47090E+00 1.21035E+00
 -1      3873-8.49230E-01-2.47399E+00 1.22462E+00
 -1      3874-2.56215E+00 1.09510E+00 1.86454E+00
 -1      3875 2.47517E+00 7.03386E-01 1.61584E+00
 -1      3876 1.85304E+00 1.98395E+00 1.77952E+00
 -1      3877 2.33006E+00 5.90404E-01 2.00237E-01
 -1      3878 1.90574E+00-1.92917E+00 7.56930E-01
 -1      3879-2.49115E+00 7.71191E-01 1.76923E+00
 -1      3880 2.02517E+00 1.95536E+00 7.44940E-01
 -1      3881-2.53296E+00 1.17410E+00 5.43404E-01
 -1      3882-4.31510E+00 2.88326E+00-2.75124E-02
 -1      3883 2.60441E+00 1.95046E-01 1.75165E+00
 -1      3884 9.89979E-01 2.53988E+00 1.58399E+00
 -1      3885 1.82661E-01 2.59263E+00 1.41776E+00
 -1      3886-1.67119E+00 2.02862E+00 1.96058E+00
 -1      3887-1.43713E+00-1.92675E+00 3.96361E-01
 -1      3888 2.47275E+00-7.03228E-01 9.26562E-01
 -1      3889-1.12502E+00-1.99205E+00-2.00925E-02
 -1      3890-2.60764E+00 1.82877E-01 1.73227E+00
 -1      3891-2.35080E+00 1.20635E+00 1.37093E+00
 -1      3892-1.99485E+00-1.67520E+00 1.20404E+00
 -1      3893 1.56884E-01 2.63850E+00 1.08986E+00
 -1      3894-4.15237E-01 2.06648E+00 2.36260E-01
 -1      3895-2.55946E+00-2.38582E-01 1.04013E+00
 -1      3896 1.27904E+00 2.03239E+00 2.20409E-01
 -1      3897-2.01499E+00 1.14691E+00 1.33763E-01
 -1      3898 1.23012E+00-2.06508E+00 2.98575E-01
 -1      3899 2.06508E+00 1.23012E+00 1.29442E-01
 -1      3900 2.66575E+00-1.08406E-01 2.10069E+00
 -1      3901-2.80220E+00 5.35147E-01 1.07719E-01
 -1      3902-2.43955E-01-2.74977E+00 1.55691E-01
 -1      3903-3.46213E-01-2.37862E+00 2.82376E-01
 -1      3904 7.12892E-01 2.46451E+00 1.65781E+00
 -1      3905-1.46634E-01 2.56155E+00 6.14970E-01
 -1      3906 2.01490E+00 1.67305E+00 1.47787E+00
 -1      3907 1.96595E+00 1.71707E+00 9.83989E-01
 -1      3908-2.35855E+00-6.64663E-01 2.01699E-01
 -1      3909 2.37862E+00-3.46213E-01 2.92029E-01
 -1      3910-2.06508E+00-1.23012E+00 2.67601E-01
 -1      3911-1.69884E+00 1.97705E+00 1.05326E+00
 -1      3912 1.99177E+00-1.88159E+00 1.20513E+00
 -1      3913 2.28574E+00-1.21148E+00 1.14204E+00
 -1      3914 2.31756E+00 1.20500E+00 1.97329E+00
 -1      3915-2.60416E+00 2.12825E-01 8.16886E-01
 -1      3916-1.38821E+00 1.95944E+00 3.23809E-01
 -1      3917 1.81961E-01 2.81467E+00 2.72420E-01
 -1      3918 1.09563E+00-2.51813E+00 7.19520E-01
 -1      3919-1.11109E+00-2.42840E+00 1.87288E+00
 -1      3920 3.46213E-01-2.37862E+00 2.82405E-01
 -1      3921 1.77654E+00-1.61333E+00 3.74623E-02
 -1      3922 4.85732E-01 2.35087E+00 3.63069E-01
 -1      3923 2.58805E+00 2.88511E-01 2.11851E-01
 -1      3924 1.64816E+00-1.98730E+00 1.90055E+00
 -1      3925-1.98422E+00 1.57621E+00 2.85871E-01
 -1      3926-1.98331E+00-1.70410E+00 1.84968E+00
 -1      3927-2.03239E+00 1.27904E+00 3.00127E-01
 -1      3928 4.32306E+00-2.88858E+00-2.17598E-02
 -1      3929-1.89084E+00-2.05405E+00 5.50844E-01
 -1      3930 2.36715E+00 4.03915E-01 2.98967E-01
 -1      3931-5.91809E-01 2.80269E+00 8.55127E-02
 -1      3932-2.34153E+00-5.32702E-01 3.30373E-01
 -1      3933 1.99038E+00-1.63716E+00 1.00510E+00
 -1      3934 1.96856E+00 2.77290E-01-2.29254E-02
 -1      3935-1.68031E+00-1.97566E+00 1.52047E+00
 -1      3936 2.64180E+00-1.46847E-01 1.18949E+00
 -1      3937 1.98792E+00-1.69952E+00 1.52274E+00
 -1      3938 1.24105E+00 1.81227E+00 3.23676E-01
 -1      3939 3.19409E+00-4.78031E+00 6.82112E-02
 -1      3940-8.81382E-01 2.43493E+00 1.47491E+00
 -1      3941 1.20671E+00 2.29670E+00 9.89440E-01
 -1      3942-5.32702E-01-2.34153E+00 3.72428E-01
 -1      3943 1.18053E+00-2.32140E+00 9.49913E-01
 -1      3944-1.20033E+00 2.28753E+00 1.95972E+00
 -1      3945-2.36655E+00-4.06919E-01 3.81722E-01
 -1      3946 2.54581E-01 2.58038E+00 2.18805E+00
 -1      3947 4.84150E-01-2.35119E+00 3.49055E-01
 -1      3948 2.47592E+00 7.32785E-01 2.18396E+00
 -1      3949-1.22134E+00-2.28475E+00 1.44909E+00
 -1      3950 2.32017E+00-1.22535E+00 1.48606E+00
 -1      3951-2.31260E+00 1.19879E+00 2.03467E+00
 -1      3952-1.27904E+00-2.03239E+00 3.00230E-01
 -1      3953 2.32068E+00 1.17099E+00 1.15519E+00
 -1      3954 1.97732E+00-1.80378E+00 2.15003E+00
 -1      3955 1.18777E+00 2.32337E+00 1.97786E+00
 -1      3956-2.57384E+00 2.52405E-01 1.30975E+00
 -1      3957-1.95944E+00 1.38821E+00 3.70656E-01
 -1      3958-2.53296E+00-1.17410E+00 4.69069E-01
 -1      3959 2.88275E+00-4.31433E+00-3.18740E-02
 -1      3960 1.38821E+00 1.95944E+00 3.39182E-01
 -1      3961 4.05728E-01-2.07895E+00 2.17585E-01
 -1      3962 1.01434E+00 5.09943E+00-2.32000E-02
 -1      3963 2.35238E+00-4.78181E-01 3.55560E-01
 -1      3964 2.49693E+00-8.29758E-01 1.48061E+00
 -1      3965-2.32444E-01 2.55695E+00 1.90546E+00
 -1      3966 1.98956E+00 1.64904E+00 1.95391E+00
 -1      3967-2.56623E+00 2.34229E-01 2.13049E+00
 -1      3968 2.33006E+00 5.90404E-01 3.77930E-01
 -1      3969 4.16263E-01 2.10742E+00 2.32086E-01
 -1      3970-2.46480E+00 8.85542E-01 1.46839E+00
 -1      3971 1.95944E+00-1.38821E+00 3.15541E-01
 -1      3972 2.34966E+00-1.59558E+00 1.20272E-01
 -1      3973 2.02788E+00-1.28580E+00 3.78801E-01
 -1      3974-3.41378E-01-1.95612E+00 2.08995E-03
 -1      3975 1.64299E+00-1.12335E+00 1.20272E-01
 -1      3976-2.29048E+00 1.10746E+00 6.14969E-01
 -1      3977 2.06508E+00 1.23012E+00 3.37219E-01
 -1      3978 2.48724E+00-1.06611E+00 7.21876E-01
 -1      3979-2.49342E+00 8.73432E-01 1.11840E+00
 -1      3980-2.52071E+00-1.11974E+00 1.46348E+00
 -1      3981 1.15404E-01-2.78946E+00 4.76460E-01
 -1      3982 2.57980E+00 2.51864E-01 2.18051E+00
 -1      3983 1.95944E+00 1.38821E+00 3.24411E-01
 -1      3984-1.92675E+00-1.43713E+00 3.40448E-01
 -1      3985-2.00536E+00-1.31950E+00 3.62090E-01
 -1      3986-1.74074E+00 1.22842E+00 2.34285E-01
 -1      3987-5.27475E+00 1.04921E+00-4.79957E-02
 -1      3988-1.08798E+00-2.47570E+00 6.80939E-01
 -1      3989 1.12162E+00-5.63875E+00 2.37319E-02
 -1      3990 2.28721E+00 1.20943E+00 7.97339E-01
 -1      3991 5.63875E+00 1.12162E+00 4.44095E-02
 -1      3992 2.50885E+00-9.41075E-01 2.01906E+00
 -1      3993-1.76974E+00-1.18947E+00 2.27761E-01
 -1      3994-3.19409E+00 4.78031E+00 5.85696E-02
 -1      3995 5.17702E-01-2.84171E+00 2.35848E-03
 -1      3996 7.36252E-01-2.47501E+00 8.28344E-01
 -1      3997-1.98434E+00-1.67271E+00 2.12185E+00
 -1      3998-2.33006E+00 5.90404E-01 2.86498E-01
 -1      3999 1.46732E+00 1.24273E+00 4.15335E-02
 -1      4000-1.01971E+00-5.12645E+00 3.33071E-03
 -1      4001-9.90089E-01 1.79748E+00 1.56114E-01
 -1      4002-1.12162E+00 5.63875E+00 1.34668E-02
 -1      4003 2.80810E+00-5.35335E-01 9.66997E-02
 -1      4004-3.19409E+00-4.78031E+00 1.71388E-02
 -1      4005 1.00424E+00-1.71326E+00 9.33249E-02
 -1      4006 1.11573E+00 2.31045E+00 6.14969E-01
 -1      4007 8.32123E-01-2.52155E+00 1.37805E+00
 -1      4008-2.34359E+00-1.18186E+00 1.75165E+00
 -1      4009-2.35347E+00 4.72672E-01 3.62306E-01
 -1      4010 1.63669E+00-1.99605E+00 1.04291E+00
 -1      4011 1.84041E+00-4.33107E-01 2.50468E-03
 -1      4012 8.44504E-01 2.51126E+00 1.24300E+00
 -1      4013 5.11243E+00 1.01693E+00-7.26674E-03
 -1      4014-2.84949E+00-4.26455E+00-3.84770E-03
 -1      4015 2.87660E-01 2.56132E+00 1.93599E+00
 -1      4016 9.99311E-01-5.02388E+00 3.08957E-02
 -1      4017 2.27090E+00 1.21951E+00 1.63099E+00
 -1      4018 1.27904E+00 2.03239E+00 3.83043E-01
 -1      4019-1.98430E+00 1.82883E+00 1.39052E+00
 -1      4020-2.43453E-01-2.56825E+00 1.87617E+00
 -1      4021 2.44378E+00 9.29878E-01 2.89084E-01
 -1      4022 2.27788E+00-1.22247E+00 1.99229E+00
 -1      4023-2.15875E+00-1.82911E+00 2.20102E-01
 -1      4024-2.84581E+00 4.25904E+00 1.34320E-02
 -1      4025-1.91138E+00 1.70401E+00 6.14971E-01
 -1      4026-2.09496E+00 4.11298E-01 2.13902E-01
 -1      4027-1.35353E+00 1.47311E+00 1.93325E-02
 -1      4028 1.69484E-01-2.63060E+00 1.57083E+00
 -1      4029-0.00000E+00 6.62621E+00 3.69683E-01
 -1      4030 7.06469E+00 1.52789E-01 3.51351E-01
 -3
    3C                         13297                                     1
 -1         1    3    0    1
 -2      2075      2152      2288      2327
 -1         2    3    0    1
 -2      3259      3826      3308      3511
 -1         3    3    0    1
 -2       539       992       988       936
 -1         4    3    0    1
 -2      1033       749      2439      2763
 -1         5    3    0    1
 -2      1077      2145      2354      2503
 -1         6    3    0    1
 -2      1638      1639      2924      3382
 -1         7    3    0    1
 -2       791       391      1049      1329
 -1         8    3    0    1
 -2       975      2372      3863      3776
 -1         9    3    0    1
 -2      1027      1312      2432      2685
 -1        10    3    0    1
 -2         9       696       700       899
 -1        11    3    0    1
 -2       933       737      2644      2671
 -1        12    3    0    1
 -2       659         8       665      1267
 -1        13    3    0    1
 -2       993      2487       987      3994
 -1        14    3    0    1
 -2        72       639      1239      1242
 -1        15    3    0    1
 -2       618       967       970      2463
 -1        16    3    0    1
 -2       699      1009      2617      2618
 -1        17    3    0    1
 -2      2217       361      2365      2370
 -1        18    3    0    1
 -2       347       239       751      1035
 -1        19    3    0    1
 -2       185      1000      1306      2213
 -1        20    3    0    1
 -2      2089      2167      2184      2511
 -1        21    3    0    1
 -2      1687      3009      2000      2001
 -1        22    3    0    1
 -2      2535      2668      3788      3810
 -1        23    3    0    1
 -2       229       398      1031      2556
 -1        24    3    0    1
 -2       479      1278       944       549
 -1        25    3    0    1
 -2      1090       309      2255      2273
 -1        26    3    0    1
 -2       514       749       756      1033
 -1        27    3    0    1
 -2       580       569       915      2596
 -1        28    3    0    1
 -2       940       711      1015      1276
 -1        29    3    0    1
 -2       185       187       682      1000
 -1        30    3    0    1
 -2       251      2141      2151      2498
 -1        31    3    0    1
 -2        68        74       629      1229
 -1        32    3    0    1
 -2       517      1233       974      1296
 -1        33    3    0    1
 -2       151      2443      2477      2532
 -1        34    3    0    1
 -2      2885      3337      3962      3776
 -1        35    3    0    1
 -2      2663      2634      3821      3858
 -1        36    3    0    1
 -2      2854      3783      3859      3908
 -1        37    3    0    1
 -2       836      1342      2150      2289
 -1        38    3    0    1
 -2      1592      1593      1934      3588
 -1        39    3    0    1
 -2       497      1043       774       496
 -1        40    3    0    1
 -2      1728      1939      3631      3706
 -1        41    3    0    1
 -2       934       674       997      1266
 -1        42    3    0    1
 -2       489       488      2567      2574
 -1        43    3    0    1
 -2       713       415      1021      1022
 -1        44    3    0    1
 -2      2277       879      2296      2316
 -1        45    3    0    1
 -2      1511      1510      3174      1918
 -1        46    3    0    1
 -2       735       734      2314      2488
 -1        47    3    0    1
 -2       739       736      1244      2644
 -1        48    3    0    1
 -2       398      1025      2375      2556
 -1        49    3    0    1
 -2        27      1167        28       551
 -1        50    3    0    1
 -2      2077      2182      2246      2258
 -1        51    3    0    1
 -2       535      1263       536      1007
 -1        52    3    0    1
 -2         3       678       682      1147
 -1        53    3    0    1
 -2      2061      2162      2215      2420
 -1        54    3    0    1
 -2      3013      2916      3226      3844
 -1        55    3    0    1
 -2      1323       767      2097      2352
 -1        56    3    0    1
 -2      1778      1777      3197      3590
 -1        57    3    0    1
 -2      1421      1422      3230      3349
 -1        58    3    0    1
 -2      1472      3227      3900      3982
 -1        59    3    0    1
 -2      1344       837      1343      2235
 -1        60    3    0    1
 -2       768       763      3389      3427
 -1        61    3    0    1
 -2      2966      3173      3854      3935
 -1        62    3    0    1
 -2       718       534      1260      2639
 -1        63    3    0    1
 -2      2118      2086      2293      2401
 -1        64    3    0    1
 -2      2789      3079      3826      3876
 -1        65    3    0    1
 -2       801       385       387      1061
 -1        66    3    0    1
 -2      2103      2094      2226      2275
 -1        67    3    0    1
 -2      2058      2148      2502      2503
 -1        68    3    0    1
 -2       660      2586      2651      3463
 -1        69    3    0    1
 -2      1468      1469      3565      3571
 -1        70    3    0    1
 -2       223       416       728      1028
 -1        71    3    0    1
 -2       609       606       618       970
 -1        72    3    0    1
 -2      1015       712      2429      2500
 -1        73    3    0    1
 -2       622      1299       630       517
 -1        74    3    0    1
 -2      2127      2053      2242      2333
 -1        75    3    0    1
 -2       389      1103      1385      2294
 -1        76    3    0    1
 -2       398      1031      2252      2458
 -1        77    3    0    1
 -2       889      2277      2296      2345
 -1        78    3    0    1
 -2       653       984      2197      2570
 -1        79    3    0    1
 -2      1549      1445      1550      2775
 -1        80    3    0    1
 -2      2052      2170      2357      2409
 -1        81    3    0    1
 -2      2707      2740      3953      3990
 -1        82    3    0    1
 -2      2162      1361      2420      2486
 -1        83    3    0    1
 -2      3812      2636      3890      3967
 -1        84    3    0    1
 -2       922      1336      1066       503
 -1        85    3    0    1
 -2        17        16       609      1157
 -1        86    3    0    1
 -2       342       160       641       985
 -1        87    3    0    1
 -2       223       416      1028      2445
 -1        88    3    0    1
 -2      3782      3496      1922      3988
 -1        89    3    0    1
 -2        54        53       825      1204
 -1        90    3    0    1
 -2      1378      1094      2207      2255
 -1        91    3    0    1
 -2      2326      2136      2413      2429
 -1        92    3    0    1
 -2      3147      1667      3260      3476
 -1        93    3    0    1
 -2      1283       568      2212      2398
 -1        94    3    0    1
 -2       798       797      2678      2679
 -1        95    3    0    1
 -2      3871      2825      3488      3630
 -1        96    3    0    1
 -2      2066      2204      2294      2378
 -1        97    3    0    1
 -2      3206      1551      3844      3573
 -1        98    3    0    1
 -2       371       372       569       954
 -1        99    3    0    1
 -2      2181      2233      2330      3781
 -1       100    3    0    1
 -2      2088       361      2241      2370
 -1       101    3    0    1
 -2      1383      1101      2119      2244
 -1       102    3    0    1
 -2       996       672      2710      3835
 -1       103    3    0    1
 -2      2305      2595      3777      3999
 -1       104    3    0    1
 -2      2164      1323      2352      2495
 -1       105    3    0    1
 -2       595        37        38      1186
 -1       106    3    0    1
 -2       503      1066       922       502
 -1       107    3    0    1
 -2      1556      1636      1637      2982
 -1       108    3    0    1
 -2      1033      1321      2384      2763
 -1       109    3    0    1
 -2      1608      3870      3973      3762
 -1       110    3    0    1
 -2      1152       611      2583      2630
 -1       111    3    0    1
 -2      1279      2194      2466      2716
 -1       112    3    0    1
 -2      2056      2116      2174      2362
 -1       113    3    0    1
 -2      4003       822      1280      1067
 -1       114    3    0    1
 -2       802      1213        58      1212
 -1       115    3    0    1
 -2       779      1039      1044      2324
 -1       116    3    0    1
 -2      3482      3638      3667      4008
 -1       117    3    0    1
 -2       503      1336      1066       826
 -1       118    3    0    1
 -2      2094      2103      2383      2440
 -1       119    3    0    1
 -2        96       941      1281      2491
 -1       120    3    0    1
 -2      2091      2061      2215      2290
 -1       121    3    0    1
 -2      1384       318      2470      2537
 -1       122    3    0    1
 -2      1001      2128      2360      2361
 -1       123    3    0    1
 -2       362       153      2219      2532
 -1       124    3    0    1
 -2      2201      2218      2388      2482
 -1       125    3    0    1
 -2      2055       156      2116      2312
 -1       126    3    0    1
 -2       620      1233        67       621
 -1       127    3    0    1
 -2       877       878      2209      2322
 -1       128    3    0    1
 -2       617       962       967      2157
 -1       129    3    0    1
 -2      2182      2117      2246      2311
 -1       130    3    0    1
 -2      1564      1565      2932      3081
 -1       131    3    0    1
 -2      2523       973      2656      3771
 -1       132    3    0    1
 -2       394       256      2195      2421
 -1       133    3    0    1
 -2       535       694      1006      1010
 -1       134    3    0    1
 -2      3504      1906      2028      3739
 -1       135    3    0    1
 -2       714        83       718      1260
 -1       136    3    0    1
 -2       780       779      1046      2611
 -1       137    3    0    1
 -2       599       582      1291      2181
 -1       138    3    0    1
 -2      3804      3335      3871      3719
 -1       139    3    0    1
 -2       685       682      1002      1794
 -1       140    3    0    1
 -2      1036      2220      2386      2526
 -1       141    3    0    1
 -2       581       582       953      2169
 -1       142    3    0    1
 -2      2469      2085      2484      2531
 -1       143    3    0    1
 -2       839      1347       840      2145
 -1       144    3    0    1
 -2       782       783      1052      1189
 -1       145    3    0    1
 -2       676       998      2203      2356
 -1       146    3    0    1
 -2      3130      3105      1768      1769
 -1       147    3    0    1
 -2       696       198      1009      1309
 -1       148    3    0    1
 -2      2054      2333      2371      2406
 -1       149    3    0    1
 -2       803      2137      2434      2518
 -1       150    3    0    1
 -2        17       609      1151      1160
 -1       151    3    0    1
 -2      2057      2173      2188      2205
 -1       152    3    0    1
 -2      2718       450      1895      1896
 -1       153    3    0    1
 -2      2663      2433      3012      3858
 -1       154    3    0    1
 -2        77       733      1248      1250
 -1       155    3    0    1
 -2       609       470      1160      2583
 -1       156    3    0    1
 -2       810       803      1061      2271
 -1       157    3    0    1
 -2       604       467       466       966
 -1       158    3    0    1
 -2      2072      2118      2144      2293
 -1       159    3    0    1
 -2       719       217      1016      1314
 -1       160    3    0    1
 -2      1540      3232      1863      3891
 -1       161    3    0    1
 -2       461       453      2675      2676
 -1       162    3    0    1
 -2      1303       173      2147      2517
 -1       163    3    0    1
 -2       823       822      1068      2400
 -1       164    3    0    1
 -2       226       398       730      1025
 -1       165    3    0    1
 -2      2313      2081      2344      2441
 -1       166    3    0    1
 -2      2168      2146      2246      2258
 -1       167    3    0    1
 -2      1361       847       848      2162
 -1       168    3    0    1
 -2      1640      1742      1743      3347
 -1       169    3    0    1
 -2      2043      1318      2230      2439
 -1       170    3    0    1
 -2      1408      2084      2313      2441
 -1       171    3    0    1
 -2      3508      3876      3623      1161
 -1       172    3    0    1
 -2       577       574       952      2034
 -1       173    3    0    1
 -2       126       403       960      2185
 -1       174    3    0    1
 -2       767       496       774      1043
 -1       175    3    0    1
 -2        92      1263      1262       695
 -1       176    3    0    1
 -2       958       592      2042      2225
 -1       177    3    0    1
 -2       708      1014      1020      2387
 -1       178    3    0    1
 -2       617       600      2157      2382
 -1       179    3    0    1
 -2       515       514      1033      1223
 -1       180    3    0    1
 -2      2314      1315      2454      2769
 -1       181    3    0    1
 -2       482      1178       959      1287
 -1       182    3    0    1
 -2       309       306      2255      2273
 -1       183    3    0    1
 -2      2084      2313      2542      2562
 -1       184    3    0    1
 -2      2097       792      2335      2353
 -1       185    3    0    1
 -2      2130      2052      2217      2280
 -1       186    3    0    1
 -2       380       818       817      1333
 -1       187    3    0    1
 -2       125      2225      2228      2310
 -1       188    3    0    1
 -2       360      2159      2269      2407
 -1       189    3    0    1
 -2      1033       755       396      1321
 -1       190    3    0    1
 -2        53       820       825      1204
 -1       191    3    0    1
 -2      3819      3903      3480      3942
 -1       192    3    0    1
 -2        83        84       718      1260
 -1       193    3    0    1
 -2      2694      2831      3811      3846
 -1       194    3    0    1
 -2       881       891      1124      2109
 -1       195    3    0    1
 -2      3429      3187      3919      3659
 -1       196    3    0    1
 -2      2257      2156      2263      2425
 -1       197    3    0    1
 -2      2080      2158      2247      2259
 -1       198    3    0    1
 -2       648      2428      2497      2507
 -1       199    3    0    1
 -2       965      1293       607      2640
 -1       200    3    0    1
 -2       515      1321      1225      1033
 -1       201    3    0    1
 -2       588       122       591       958
 -1       202    3    0    1
 -2      1037       755      1038      2676
 -1       203    3    0    1
 -2       296      1344      1343      2243
 -1       204    3    0    1
 -2       132       138       611      1154
 -1       205    3    0    1
 -2      2266      2068      2470      2537
 -1       206    3    0    1
 -2       912      1278       944       479
 -1       207    3    0    1
 -2       263       255      2031      3763
 -1       208    3    0    1
 -2      1662      3205      3210      3243
 -1       209    3    0    1
 -2      2070      2114      2141      2151
 -1       210    3    0    1
 -2       213       714      1020      1023
 -1       211    3    0    1
 -2      1350      2055       301      2192
 -1       212    3    0    1
 -2      1323       920       764      1198
 -1       213    3    0    1
 -2       266      1721      3898      3918
 -1       214    3    0    1
 -2       851      1364      1084      2278
 -1       215    3    0    1
 -2       640       980      2323      2507
 -1       216    3    0    1
 -2      3401      1867      3465      3725
 -1       217    3    0    1
 -2      2309      2063      2321      2452
 -1       218    3    0    1
 -2       731       738      2375      2445
 -1       219    3    0    1
 -2      1411      1412      1660      3195
 -1       220    3    0    1
 -2       681       679      1000      2213
 -1       221    3    0    1
 -2       385      2115      2271      2453
 -1       222    3    0    1
 -2       994       671       995      2282
 -1       223    3    0    1
 -2       713       724      1022      2627
 -1       224    3    0    1
 -2      1435      3783      3818      3830
 -1       225    3    0    1
 -2      2405       643      2416      3097
 -1       226    3    0    1
 -2       706       205       208      1272
 -1       227    3    0    1
 -2      3833      2720      3505      3995
 -1       228    3    0    1
 -2      1405       312      2144      2165
 -1       229    3    0    1
 -2        33       567       107       914
 -1       230    3    0    1
 -2      1500      1501      1607      3262
 -1       231    3    0    1
 -2       322      1351      2371      2406
 -1       232    3    0    1
 -2       377      2059      2153      2289
 -1       233    3    0    1
 -2       605       611      1152      2630
 -1       234    3    0    1
 -2      2142      2081      2156      2301
 -1       235    3    0    1
 -2       390      2202      2342      2351
 -1       236    3    0    1
 -2      1296       366      2102      2295
 -1       237    3    0    1
 -2      2920      2957      3924      3954
 -1       238    3    0    1
 -2       728       729      1024      1273
 -1       239    3    0    1
 -2       730       933      1256      2671
 -1       240    3    0    1
 -2      2939      3280      3485      3919
 -1       241    3    0    1
 -2       538       998       676       537
 -1       242    3    0    1
 -2      1321       756      2304      2515
 -1       243    3    0    1
 -2      2130      1292      2268      2365
 -1       244    3    0    1
 -2       667       663      1137      2651
 -1       245    3    0    1
 -2       714      1312      2735      2736
 -1       246    3    0    1
 -2       125       122      1288      2225
 -1       247    3    0    1
 -2       588      1186       917        22
 -1       248    3    0    1
 -2       587       120       960       961
 -1       249    3    0    1
 -2       582       581       955      2233
 -1       250    3    0    1
 -2      2399       664      2416      2490
 -1       251    3    0    1
 -2      2148      2057      2173      2188
 -1       252    3    0    1
 -2      1461      1460      3152      3363
 -1       253    3    0    1
 -2      1317      2375      2413      2444
 -1       254    3    0    1
 -2      1452      3370      3888      1917
 -1       255    3    0    1
 -2        30      1170       557        99
 -1       256    3    0    1
 -2      2578      2973      3839      4008
 -1       257    3    0    1
 -2       470      1152      2583      2630
 -1       258    3    0    1
 -2      1503      1504      3063      1818
 -1       259    3    0    1
 -2      1302       648      2497      2507
 -1       260    3    0    1
 -2      2668      2535      3788      2828
 -1       261    3    0    1
 -2      2844      3831      3284      3441
 -1       262    3    0    1
 -2       173      2147      2517      2710
 -1       263    3    0    1
 -2       993       169       996      2710
 -1       264    3    0    1
 -2      2042       589      2228      2501
 -1       265    3    0    1
 -2       783        41       265      1189
 -1       266    3    0    1
 -2       576       951      2184      2398
 -1       267    3    0    1
 -2       582       581       953      2596
 -1       268    3    0    1
 -2      2622      1536      1537      2821
 -1       269    3    0    1
 -2      2148       850      2173      2502
 -1       270    3    0    1
 -2       641      1240       163       647
 -1       271    3    0    1
 -2       116       117      3781      1736
 -1       272    3    0    1
 -2      3233      3805      3593      3611
 -1       273    3    0    1
 -2       887      1127      1399      2210
 -1       274    3    0    1
 -2      3766       148      3773      3776
 -1       275    3    0    1
 -2       694      1311       702       535
 -1       276    3    0    1
 -2      1655      1656      3262      3559
 -1       277    3    0    1
 -2       607       628      1293      2656
 -1       278    3    0    1
 -2      1342       835       836      2150
 -1       279    3    0    1
 -2      1813      1812      3584      3587
 -1       280    3    0    1
 -2      1298       625       628      2543
 -1       281    3    0    1
 -2       535      1311      1262      1007
 -1       282    3    0    1
 -2        29       548        97       912
 -1       283    3    0    1
 -2      1041      1325      2941      3804
 -1       284    3    0    1
 -2       343       342       986      2446
 -1       285    3    0    1
 -2      2225       958      2805      3817
 -1       286    3    0    1
 -2      2438      2305      2595      3777
 -1       287    3    0    1
 -2        65       624       931      1231
 -1       288    3    0    1
 -2       112      1180       569       109
 -1       289    3    0    1
 -2      1031       398      2252      2556
 -1       290    3    0    1
 -2       187      2213      3014      3882
 -1       291    3    0    1
 -2       176       419       659       989
 -1       292    3    0    1
 -2       766       252      1040      1326
 -1       293    3    0    1
 -2      1417      1418      1705      3044
 -1       294    3    0    1
 -2       975       635      2372      3767
 -1       295    3    0    1
 -2      2770      2598      3964      3992
 -1       296    3    0    1
 -2      1311       207      2245      2261
 -1       297    3    0    1
 -2       751       347      1035      1319
 -1       298    3    0    1
 -2      1058       803      2137      2161
 -1       299    3    0    1
 -2       915       569      1182      2596
 -1       300    3    0    1
 -2       167       368       656       992
 -1       301    3    0    1
 -2       271       269      1055      2155
 -1       302    3    0    1
 -2      2634      3012      3830      3858
 -1       303    3    0    1
 -2       993       996      2282      2710
 -1       304    3    0    1
 -2       993      2778      2487      3994
 -1       305    3    0    1
 -2      1347       840      2145      2262
 -1       306    3    0    1
 -2       832       831      2334      2510
 -1       307    3    0    1
 -2      3078      1549      3112      3528
 -1       308    3    0    1
 -2      3027      3078      3884      3955
 -1       309    3    0    1
 -2       510       481      2678      2679
 -1       310    3    0    1
 -2       324       369      2077      2182
 -1       311    3    0    1
 -2       199       200       700      3755
 -1       312    3    0    1
 -2      3224      2598      3992      4022
 -1       313    3    0    1
 -2      2135      2060      2277      2316
 -1       314    3    0    1
 -2      2838      2987      3946      3965
 -1       315    3    0    1
 -2      2148      2058      2173      2205
 -1       316    3    0    1
 -2       814       802      1212      2569
 -1       317    3    0    1
 -2        32      1185       593       124
 -1       318    3    0    1
 -2       153      1299      2219      2532
 -1       319    3    0    1
 -2      1315       224      2314      2454
 -1       320    3    0    1
 -2      2199      2210      2383      2440
 -1       321    3    0    1
 -2       950       573      2466      2716
 -1       322    3    0    1
 -2       110        34       570      1183
 -1       323    3    0    1
 -2       577        34       115      1183
 -1       324    3    0    1
 -2      2138      2159      2175      2269
 -1       325    3    0    1
 -2       569      1179       112       575
 -1       326    3    0    1
 -2      2084       886      2313      2562
 -1       327    3    0    1
 -2       678      1306      2591      2592
 -1       328    3    0    1
 -2       683       677       935       998
 -1       329    3    0    1
 -2       609       618       967       970
 -1       330    3    0    1
 -2      2117      2077      2182      2246
 -1       331    3    0    1
 -2       696       704      2662      3710
 -1       332    3    0    1
 -2      2673      3024      1895      1896
 -1       333    3    0    1
 -2       459      2736      2813      2929
 -1       334    3    0    1
 -2      2214       117      2233      2691
 -1       335    3    0    1
 -2       939       728      1024      1273
 -1       336    3    0    1
 -2      1355      2122      2158      2189
 -1       337    3    0    1
 -2       748      1145      2675      2676
 -1       338    3    0    1
 -2       133       136       609       965
 -1       339    3    0    1
 -2       237       754       902      1134
 -1       340    3    0    1
 -2      2087       387      2134      2331
 -1       341    3    0    1
 -2      1362      1082      2148      2502
 -1       342    3    0    1
 -2      1911      1691      3628      3745
 -1       343    3    0    1
 -2       962       599      1291      2310
 -1       344    3    0    1
 -2      1322      4004      2039      2040
 -1       345    3    0    1
 -2      2854      2488      3796      3859
 -1       346    3    0    1
 -2      2116      2055      2192      2390
 -1       347    3    0    1
 -2      3087      3911      3685      4019
 -1       348    3    0    1
 -2       755      1033      1223      1225
 -1       349    3    0    1
 -2       377       295      1340      2289
 -1       350    3    0    1
 -2       709      1807      1808      3288
 -1       351    3    0    1
 -2      3037      3537      3937      3954
 -1       352    3    0    1
 -2       733       740      1255      3761
 -1       353    3    0    1
 -2      2180       676      2203      2356
 -1       354    3    0    1
 -2       779       762      1039      2324
 -1       355    3    0    1
 -2       261       395      3820      1950
 -1       356    3    0    1
 -2       661       664       991      2810
 -1       357    3    0    1
 -2       173       996      2710      1793
 -1       358    3    0    1
 -2      1648      1456      1649      2978
 -1       359    3    0    1
 -2      2918      2912      3878      4010
 -1       360    3    0    1
 -2      2115       385      2187      2453
 -1       361    3    0    1
 -2         9      1271       696        10
 -1       362    3    0    1
 -2       771      1042      1319      2163
 -1       363    3    0    1
 -2       821      1334      2606      2607
 -1       364    3    0    1
 -2      2732      3804      3864      4028
 -1       365    3    0    1
 -2      1491      3823      1797      3909
 -1       366    3    0    1
 -2       567        33       566       914
 -1       367    3    0    1
 -2      1364      2179      2221      2278
 -1       368    3    0    1
 -2       304      1371      2383      2440
 -1       369    3    0    1
 -2      2851      3814      3913      3978
 -1       370    3    0    1
 -2       719      1275      1016       713
 -1       371    3    0    1
 -2        61       800       801       927
 -1       372    3    0    1
 -2      3323      2756      3484      3938
 -1       373    3    0    1
 -2       835       836      2150      2289
 -1       374    3    0    1
 -2       401       111      1286      2240
 -1       375    3    0    1
 -2       791      1187      1049       784
 -1       376    3    0    1
 -2      1234       623       516      1227
 -1       377    3    0    1
 -2       641       652       986      2653
 -1       378    3    0    1
 -2      1589      1588      3090      1799
 -1       379    3    0    1
 -2      1874      2693      3907      3575
 -1       380    3    0    1
 -2       529       530      2810      3015
 -1       381    3    0    1
 -2      2103      2082      2275      2381
 -1       382    3    0    1
 -2      2768      3869      3943      4007
 -1       383    3    0    1
 -2       599       600       961      2185
 -1       384    3    0    1
 -2       121       585       123      1175
 -1       385    3    0    1
 -2       557        96       945      4030
 -1       386    3    0    1
 -2      1413      2914      1739      1740
 -1       387    3    0    1
 -2      3825      1698      3191      3325
 -1       388    3    0    1
 -2      2114      2070      2141      2243
 -1       389    3    0    1
 -2      2277      2106      2296      2345
 -1       390    3    0    1
 -2       641       163       903       647
 -1       391    3    0    1
 -2       480      1281      1173       479
 -1       392    3    0    1
 -2       505      1210      2649      2650
 -1       393    3    0    1
 -2       992       666      2254      2368
 -1       394    3    0    1
 -2       125       122       962      3533
 -1       395    3    0    1
 -2       691       698      1536      2824
 -1       396    3    0    1
 -2      2827      1615      3825      3873
 -1       397    3    0    1
 -2       391      1049      1329      2353
 -1       398    3    0    1
 -2       149        65       627       931
 -1       399    3    0    1
 -2      1035      1319       752      2722
 -1       400    3    0    1
 -2      1406       434      2080      2259
 -1       401    3    0    1
 -2       832       831      1337      2334
 -1       402    3    0    1
 -2      1844       907      3503      3623
 -1       403    3    0    1
 -2      1354       843      1353      2189
 -1       404    3    0    1
 -2      1312      2347      2685      3793
 -1       405    3    0    1
 -2      2180      2203      2261      2356
 -1       406    3    0    1
 -2       338       224      2039      3768
 -1       407    3    0    1
 -2       712      2110      2358      2500
 -1       408    3    0    1
 -2      2054      2127      2133      2333
 -1       409    3    0    1
 -2       167       988      2249      2298
 -1       410    3    0    1
 -2       793       790      1053      2032
 -1       411    3    0    1
 -2       121       584      1175      1178
 -1       412    3    0    1
 -2       117       955      2233      3781
 -1       413    3    0    1
 -2      2781      3080      3351      3617
 -1       414    3    0    1
 -2      2111      2060      2402      2423
 -1       415    3    0    1
 -2        65       624       627       931
 -1       416    3    0    1
 -2       759       755      1037      2676
 -1       417    3    0    1
 -2      1409      1410      2864      3143
 -1       418    3    0    1
 -2      1783      1425      3481      3719
 -1       419    3    0    1
 -2       308       322      1092      2371
 -1       420    3    0    1
 -2       726       725      1021      2639
 -1       421    3    0    1
 -2       429      2048      2226      2527
 -1       422    3    0    1
 -2       147       632       624      3760
 -1       423    3    0    1
 -2       790       928      2678      2679
 -1       424    3    0    1
 -2      1433      2886      1664      3483
 -1       425    3    0    1
 -2       482      1290      1176       956
 -1       426    3    0    1
 -2      2186       694      2239      2397
 -1       427    3    0    1
 -2      1709      3317      3504      3739
 -1       428    3    0    1
 -2      1248       527      1250      2818
 -1       429    3    0    1
 -2      2072      2078      2218      2482
 -1       430    3    0    1
 -2       642       645       653      2654
 -1       431    3    0    1
 -2      3788      3802      3905      3917
 -1       432    3    0    1
 -2       255       346       772      1042
 -1       433    3    0    1
 -2       659       176       665       994
 -1       434    3    0    1
 -2      1050      3803      3806      3833
 -1       435    3    0    1
 -2      2347      1312      2432      2551
 -1       436    3    0    1
 -2       763       768      1543      3648
 -1       437    3    0    1
 -2       700       899      2617      2618
 -1       438    3    0    1
 -2      1417      1484      1485      2746
 -1       439    3    0    1
 -2      2990      1725      3055      3611
 -1       440    3    0    1
 -2        96       379       550       941
 -1       441    3    0    1
 -2      2079      2146      2168      2431
 -1       442    3    0    1
 -2      2186      1019      2301      2358
 -1       443    3    0    1
 -2      1300       345      2405      2779
 -1       444    3    0    1
 -2       429       196      2083      2226
 -1       445    3    0    1
 -2       829       825      1070      2585
 -1       446    3    0    1
 -2       220      1016      2349      2429
 -1       447    3    0    1
 -2      1669      1670      1833      3446
 -1       448    3    0    1
 -2       839      1077      2145      2354
 -1       449    3    0    1
 -2       100       355      3829      1804
 -1       450    3    0    1
 -2       942      1285      2369      3923
 -1       451    3    0    1
 -2       792      2335      2353      2538
 -1       452    3    0    1
 -2      1598      3028      3218      3911
 -1       453    3    0    1
 -2      1397      2113      2125      2309
 -1       454    3    0    1
 -2       617       609       618       967
 -1       455    3    0    1
 -2      1045       766      1046      2611
 -1       456    3    0    1
 -2       785       490       792      1048
 -1       457    3    0    1
 -2      1387      1105      2176      2274
 -1       458    3    0    1
 -2       825      1071      2585      2614
 -1       459    3    0    1
 -2        27       551       556       909
 -1       460    3    0    1
 -2      1038       396      2384      2421
 -1       461    3    0    1
 -2       258        63       766      1195
 -1       462    3    0    1
 -2       587        32       593      1176
 -1       463    3    0    1
 -2        55      1209        57       805
 -1       464    3    0    1
 -2        98       100      2762      3829
 -1       465    3    0    1
 -2      1098       866      2215      2290
 -1       466    3    0    1
 -2       550      1170       557        30
 -1       467    3    0    1
 -2       662      1863      3380      3891
 -1       468    3    0    1
 -2      1416      1415      3026      3198
 -1       469    3    0    1
 -2       942      2369      2724      3923
 -1       470    3    0    1
 -2       551        95       556       943
 -1       471    3    0    1
 -2      1459      1458      1623      2883
 -1       472    3    0    1
 -2       625       982      1297      2684
 -1       473    3    0    1
 -2      1906        12      3504      2028
 -1       474    3    0    1
 -2      2133      2127      2242      2333
 -1       475    3    0    1
 -2       768       763      1528      3338
 -1       476    3    0    1
 -2      2792      3001      3247      3906
 -1       477    3    0    1
 -2      3899      3977      3983      3712
 -1       478    3    0    1
 -2       353      1068      2525      3928
 -1       479    3    0    1
 -2      2067      2202      2223      2244
 -1       480    3    0    1
 -2      1065       816      2415      3824
 -1       481    3    0    1
 -2       480       944       479       912
 -1       482    3    0    1
 -2      1606      1607      3036      3075
 -1       483    3    0    1
 -2      2077      2117      2182      2207
 -1       484    3    0    1
 -2      1641      1640      1743      3347
 -1       485    3    0    1
 -2      1315      1027       734      2314
 -1       486    3    0    1
 -2      2878      3507      3975      3751
 -1       487    3    0    1
 -2      1053      2492      2496      2715
 -1       488    3    0    1
 -2      1488      1489      1584      2906
 -1       489    3    0    1
 -2       622       517       974      1296
 -1       490    3    0    1
 -2       196      1006      2142      2257
 -1       491    3    0    1
 -2       473       474      1165      2688
 -1       492    3    0    1
 -2      1133       683      2581      2657
 -1       493    3    0    1
 -2      2072      2118      2293      2401
 -1       494    3    0    1
 -2      3627      1652      3961      3653
 -1       495    3    0    1
 -2       586       482       594       959
 -1       496    3    0    1
 -2       726      1021      2627      2639
 -1       497    3    0    1
 -2      1391      1106      2090      2124
 -1       498    3    0    1
 -2      2083       429      2226      2275
 -1       499    3    0    1
 -2      1240       641       163      1241
 -1       500    3    0    1
 -2       732      1840      3361      3949
 -1       501    3    0    1
 -2       190      1003      2166      2292
 -1       502    3    0    1
 -2       841      1350       842      2092
 -1       503    3    0    1
 -2      2218       223      2220      2482
 -1       504    3    0    1
 -2      2404      3790      3506      3961
 -1       505    3    0    1
 -2       967       136      3792      2021
 -1       506    3    0    1
 -2        16       606      1157      1159
 -1       507    3    0    1
 -2       904      1295       963       466
 -1       508    3    0    1
 -2      1021       217      2302      2348
 -1       509    3    0    1
 -2       367       156      2055      2312
 -1       510    3    0    1
 -2       403       954       960      2183
 -1       511    3    0    1
 -2      3058      1549      1758      1759
 -1       512    3    0    1
 -2        74       633       154      1234
 -1       513    3    0    1
 -2       496      1323      1043       767
 -1       514    3    0    1
 -2       979       523       983      1239
 -1       515    3    0    1
 -2       843      1354       844      2189
 -1       516    3    0    1
 -2       756      1036      2304      2386
 -1       517    3    0    1
 -2      1810      1574      1811      3436
 -1       518    3    0    1
 -2       204       424       701      1012
 -1       519    3    0    1
 -2        53        54       825      1208
 -1       520    3    0    1
 -2      1524      1576      3821      3976
 -1       521    3    0    1
 -2      2415       816      2558      3824
 -1       522    3    0    1
 -2      1691      3513      3628      3745
 -1       523    3    0    1
 -2      1006       694      2186      2359
 -1       524    3    0    1
 -2       516      1234       525       629
 -1       525    3    0    1
 -2       133       970      2463      2589
 -1       526    3    0    1
 -2       185       187      1000      2213
 -1       527    3    0    1
 -2      3906      3436      3907      3717
 -1       528    3    0    1
 -2      2855      1197      1772      3190
 -1       529    3    0    1
 -2      3314      2834      3597      3997
 -1       530    3    0    1
 -2      3848      2580      3851      3940
 -1       531    3    0    1
 -2        22       588       591       906
 -1       532    3    0    1
 -2      2923      2709      3160      3885
 -1       533    3    0    1
 -2       623      1234       629        68
 -1       534    3    0    1
 -2      1351       841       842      2216
 -1       535    3    0    1
 -2      1510      1511      3174      1896
 -1       536    3    0    1
 -2       571      1285       573      3834
 -1       537    3    0    1
 -2      2150      2059      2289      2423
 -1       538    3    0    1
 -2      3809      3397      3938      3999
 -1       539    3    0    1
 -2      2115       387      2229      2331
 -1       540    3    0    1
 -2      3306      2958      3919      3659
 -1       541    3    0    1
 -2      1702      2705      3491      3647
 -1       542    3    0    1
 -2       638       639       983      1239
 -1       543    3    0    1
 -2      3847      3921      3971      3975
 -1       544    3    0    1
 -2       589      1288      2042      2228
 -1       545    3    0    1
 -2      1621      3800      3813      1905
 -1       546    3    0    1
 -2      1003       683      1004      2581
 -1       547    3    0    1
 -2       643      1301       646      2616
 -1       548    3    0    1
 -2      1815      1545      1922      3716
 -1       549    3    0    1
 -2       689       690      1004      2166
 -1       550    3    0    1
 -2       114       570       574       952
 -1       551    3    0    1
 -2      1364      2179      2278      2299
 -1       552    3    0    1
 -2       198      1014      2014      3710
 -1       553    3    0    1
 -2       587      1185      1184      2574
 -1       554    3    0    1
 -2       258        75       766      1246
 -1       555    3    0    1
 -2      1083       851      2278      2299
 -1       556    3    0    1
 -2      3815      1569      3941      4006
 -1       557    3    0    1
 -2      2083      2140      2226      2322
 -1       558    3    0    1
 -2       367      2055      2231      2232
 -1       559    3    0    1
 -2       984      4002      2037      2038
 -1       560    3    0    1
 -2      1286       568       576      2398
 -1       561    3    0    1
 -2       147      2340      4029      3776
 -1       562    3    0    1
 -2       851      1085       852      2299
 -1       563    3    0    1
 -2      1441      3779      3799      3916
 -1       564    3    0    1
 -2      3428      1592      3567      3588
 -1       565    3    0    1
 -2       774      1043      2234      2338
 -1       566    3    0    1
 -2       886      1408       896      2313
 -1       567    3    0    1
 -2      3075      2874      3555      3578
 -1       568    3    0    1
 -2       412      3343      1635      1846
 -1       569    3    0    1
 -2      2150      2289      2402      2423
 -1       570    3    0    1
 -2      1127      1399      2210      2383
 -1       571    3    0    1
 -2      2841      3180      3891      3970
 -1       572    3    0    1
 -2       566       914      1181      1283
 -1       573    3    0    1
 -2       727       732      2903      1861
 -1       574    3    0    1
 -2      2285      2269      2354      2396
 -1       575    3    0    1
 -2      2961      2674      3801      3915
 -1       576    3    0    1
 -2      3778      2448      2870      3016
 -1       577    3    0    1
 -2        70       642       645      1238
 -1       578    3    0    1
 -2      1479      2880      3051      3229
 -1       579    3    0    1
 -2      2116      2056      2273      2362
 -1       580    3    0    1
 -2      1545      1542      3782      3988
 -1       581    3    0    1
 -2       216       217      1314      2358
 -1       582    3    0    1
 -2      1335      1067       823      2400
 -1       583    3    0    1
 -2       582       953       954      2596
 -1       584    3    0    1
 -2      2177       979      2206      2276
 -1       585    3    0    1
 -2        67      1233       145       621
 -1       586    3    0    1
 -2       863      1378      1094      2363
 -1       587    3    0    1
 -2      3253        46      3255      1984
 -1       588    3    0    1
 -2       855      1372      1369      2140
 -1       589    3    0    1
 -2      1096       303      1098      2420
 -1       590    3    0    1
 -2      3237      2994      3567      3588
 -1       591    3    0    1
 -2      2052      2280      2329      2357
 -1       592    3    0    1
 -2      1053       267      2492      2715
 -1       593    3    0    1
 -2        78       660       663      1252
 -1       594    3    0    1
 -2      1128       885       895      2287
 -1       595    3    0    1
 -2      2146      2168      2431      2442
 -1       596    3    0    1
 -2      2144      1115      2165      2293
 -1       597    3    0    1
 -2       466      1295       963       612
 -1       598    3    0    1
 -2      2375      1025      2513      2556
 -1       599    3    0    1
 -2      2133      2054      2333      2371
 -1       600    3    0    1
 -2      2151      2230      2234      2338
 -1       601    3    0    1
 -2       658       989      2198      2298
 -1       602    3    0    1
 -2      2056      2174      2207      2255
 -1       603    3    0    1
 -2       120       126       593       960
 -1       604    3    0    1
 -2      1499      1498      1817      3274
 -1       605    3    0    1
 -2      1141       696       899      2617
 -1       606    3    0    1
 -2       187       185       682      1005
 -1       607    3    0    1
 -2      2042       957      2501      2620
 -1       608    3    0    1
 -2      3709      1280      3823      4003
 -1       609    3    0    1
 -2      2637      3238      3955      3664
 -1       610    3    0    1
 -2      2119      1101      2238      2244
 -1       611    3    0    1
 -2      2089       357      2099      2184
 -1       612    3    0    1
 -2      1368       320      2170      2409
 -1       613    3    0    1
 -2      2713      2714      3826      3880
 -1       614    3    0    1
 -2       747       746      1224      1318
 -1       615    3    0    1
 -2      1024       223      2201      2482
 -1       616    3    0    1
 -2      3962      3337      3773      3776
 -1       617    3    0    1
 -2       808       925      2649      2650
 -1       618    3    0    1
 -2       397      2043      2230      2260
 -1       619    3    0    1
 -2       821        49       824      1203
 -1       620    3    0    1
 -2      2497      1302      2507      2550
 -1       621    3    0    1
 -2      1506      1505      1768      3141
 -1       622    3    0    1
 -2       366       150      1296      2102
 -1       623    3    0    1
 -2       341      2043      2071      2118
 -1       624    3    0    1
 -2      1425      1783      1784      3415
 -1       625    3    0    1
 -2       641       163       157       903
 -1       626    3    0    1
 -2       720       712      1015      2110
 -1       627    3    0    1
 -2       575       111       948      1286
 -1       628    3    0    1
 -2      1003       689      2166      2292
 -1       629    3    0    1
 -2      2152      2075      2326      2327
 -1       630    3    0    1
 -2       368       167      2077      2246
 -1       631    3    0    1
 -2       809       813      1213      2633
 -1       632    3    0    1
 -2       306      1090      1088      2273
 -1       633    3    0    1
 -2       237        64       754      1134
 -1       634    3    0    1
 -2      3859       214      3932      3945
 -1       635    3    0    1
 -2       581       582      2169      2330
 -1       636    3    0    1
 -2       719       723      1259      2639
 -1       637    3    0    1
 -2      2227      2109      2321      2452
 -1       638    3    0    1
 -2      2117      2046      2246      2311
 -1       639    3    0    1
 -2      2340       975      4029      3776
 -1       640    3    0    1
 -2      1066       382      2308      2481
 -1       641    3    0    1
 -2      3826      2728      3906      3717
 -1       642    3    0    1
 -2       480       944       558       479
 -1       643    3    0    1
 -2       832       945      1071      2549
 -1       644    3    0    1
 -2       780      1046      2265      2373
 -1       645    3    0    1
 -2       160       365       985      2550
 -1       646    3    0    1
 -2      3828       949      3899      3977
 -1       647    3    0    1
 -2       252       259       766      1040
 -1       648    3    0    1
 -2       275       283      2137      2555
 -1       649    3    0    1
 -2       294      1122      2297      2316
 -1       650    3    0    1
 -2       820       825      1204      2614
 -1       651    3    0    1
 -2      2108      2081      2156      2313
 -1       652    3    0    1
 -2      2106      2062      2296      2345
 -1       653    3    0    1
 -2       904      1295       611       963
 -1       654    3    0    1
 -2      2226      2103      2275      2527
 -1       655    3    0    1
 -2      1665      1698      3273      3488
 -1       656    3    0    1
 -2       658       992       539       666
 -1       657    3    0    1
 -2        16       606       609      1157
 -1       658    3    0    1
 -2      2076      2286      2427      2485
 -1       659    3    0    1
 -2       236      2000      3671      2006
 -1       660    3    0    1
 -2      1478      1477      1552      3206
 -1       661    3    0    1
 -2      1801      3259      3308      3511
 -1       662    3    0    1
 -2      1031       761      1037      2252
 -1       663    3    0    1
 -2       886       896      2084      2313
 -1       664    3    0    1
 -2      2886      3386      3483      3501
 -1       665    3    0    1
 -2       418       211      2076      2343
 -1       666    3    0    1
 -2      3148      2848      3457      3924
 -1       667    3    0    1
 -2        77        80       736      1244
 -1       668    3    0    1
 -2       380       383      1333      2104
 -1       669    3    0    1
 -2      2150      2289      2297      2316
 -1       670    3    0    1
 -2        49       821       921      1201
 -1       671    3    0    1
 -2       570       952       955      2600
 -1       672    3    0    1
 -2       773       777       930      2689
 -1       673    3    0    1
 -2       361      2130      2217      2365
 -1       674    3    0    1
 -2      3016      3185      3303      3564
 -1       675    3    0    1
 -2       822       823      1067      2400
 -1       676    3    0    1
 -2      3003      3831      3263      3441
 -1       677    3    0    1
 -2      2399      1303      2490      2517
 -1       678    3    0    1
 -2      2898      1706      3304      3649
 -1       679    3    0    1
 -2       514       515       756      1036
 -1       680    3    0    1
 -2       628       973      2665      2666
 -1       681    3    0    1
 -2       684      2198      2256      2360
 -1       682    3    0    1
 -2       624      1243        65       627
 -1       683    3    0    1
 -2        95        98       556       943
 -1       684    3    0    1
 -2      1230       932      2882      2987
 -1       685    3    0    1
 -2       788      1050      2436      3833
 -1       686    3    0    1
 -2      2085      2469      2494      2546
 -1       687    3    0    1
 -2      3025      2948      3825      3919
 -1       688    3    0    1
 -2      1363       849       850      2148
 -1       689    3    0    1
 -2      3145      3219      3839      3711
 -1       690    3    0    1
 -2      1525      1788      1789      3196
 -1       691    3    0    1
 -2      1009       699      2508      2727
 -1       692    3    0    1
 -2      2177      2254      2276      2368
 -1       693    3    0    1
 -2       211       418       710      1019
 -1       694    3    0    1
 -2      2087      2134      2337      2378
 -1       695    3    0    1
 -2      2911      2742      3798      3856
 -1       696    3    0    1
 -2      1350       841      1349      2092
 -1       697    3    0    1
 -2      3359       209      3945      3598
 -1       698    3    0    1
 -2       622      1299       971      2477
 -1       699    3    0    1
 -2      3282      3166      3498      3719
 -1       700    3    0    1
 -2      1365      1368      2170      2409
 -1       701    3    0    1
 -2      1316       735      2488      4023
 -1       702    3    0    1
 -2       620      1233      1228        67
 -1       703    3    0    1
 -2      3166      1756      1900      1901
 -1       704    3    0    1
 -2      3946      2626      3965      4015
 -1       705    3    0    1
 -2        30      1173        99       557
 -1       706    3    0    1
 -2      3232      1540      1863      1864
 -1       707    3    0    1
 -2       642       464       645      2654
 -1       708    3    0    1
 -2       642       654      2653      2654
 -1       709    3    0    1
 -2       184       193       998      2356
 -1       710    3    0    1
 -2       353       290       824      1072
 -1       711    3    0    1
 -2      2063      2109      2227      2452
 -1       712    3    0    1
 -2       548       375       378       944
 -1       713    3    0    1
 -2      3247      1842      3341      3435
 -1       714    3    0    1
 -2      2087      2134      2229      2331
 -1       715    3    0    1
 -2       333       224      2376      2454
 -1       716    3    0    1
 -2       117       114      1284      2214
 -1       717    3    0    1
 -2       217       415       713      1016
 -1       718    3    0    1
 -2       573       571      1284      2214
 -1       719    3    0    1
 -2       615       611       968      2583
 -1       720    3    0    1
 -2       776        45       769      1245
 -1       721    3    0    1
 -2         8      1268      1267       659
 -1       722    3    0    1
 -2      1865       335      3984      4023
 -1       723    3    0    1
 -2      2159      2100      2191      2364
 -1       724    3    0    1
 -2       651       647       985      2654
 -1       725    3    0    1
 -2       124       597       127      1185
 -1       726    3    0    1
 -2      2129       961       120       404
 -1       727    3    0    1
 -2       168       181      1940      1964
 -1       728    3    0    1
 -2       587      1185       593        32
 -1       729    3    0    1
 -2       839      1348      1077      2354
 -1       730    3    0    1
 -2      2289      1342      2297      2316
 -1       731    3    0    1
 -2       454       642      1135      2653
 -1       732    3    0    1
 -2       419       995      2193      2282
 -1       733    3    0    1
 -2      2882      2666      2902      3842
 -1       734    3    0    1
 -2      3825      3025      3318      3873
 -1       735    3    0    1
 -2      3048      2647      3875      3499
 -1       736    3    0    1
 -2       190       184       683      1308
 -1       737    3    0    1
 -2      2794      2725      3786      4011
 -1       738    3    0    1
 -2       190      1308      2256      2356
 -1       739    3    0    1
 -2       989       419      2193      2505
 -1       740    3    0    1
 -2       672       671       996      2282
 -1       741    3    0    1
 -2       946       564      2237      4030
 -1       742    3    0    1
 -2       378      2107      2402      2522
 -1       743    3    0    1
 -2      3376      3265      1939      3619
 -1       744    3    0    1
 -2       966       130      2100      2191
 -1       745    3    0    1
 -2       209       214      1952      3945
 -1       746    3    0    1
 -2      1270       700      2662      3747
 -1       747    3    0    1
 -2      2118      2071      2144      2293
 -1       748    3    0    1
 -2       135       141       968      2248
 -1       749    3    0    1
 -2       660       169       663       991
 -1       750    3    0    1
 -2      1323       767      2352      2495
 -1       751    3    0    1
 -2        94       711       940      1276
 -1       752    3    0    1
 -2      2003      1657      2004      3672
 -1       753    3    0    1
 -2      1768      1505      1769      3141
 -1       754    3    0    1
 -2       333      2314      2376      2751
 -1       755    3    0    1
 -2       744       743      1032      2376
 -1       756    3    0    1
 -2       957      2620      3809      3896
 -1       757    3    0    1
 -2      1008      3783      3849      3859
 -1       758    3    0    1
 -2       336       220      2349      2429
 -1       759    3    0    1
 -2      2241      2051      2278      2299
 -1       760    3    0    1
 -2       952       114      3991      2034
 -1       761    3    0    1
 -2        93       728       939      1273
 -1       762    3    0    1
 -2       491       792      1048      1052
 -1       763    3    0    1
 -2      1398       437       446      2321
 -1       764    3    0    1
 -2       960       599      2185      2330
 -1       765    3    0    1
 -2       375       944      1278      2107
 -1       766    3    0    1
 -2      2807      2461      2828      3209
 -1       767    3    0    1
 -2       132       605       611      1152
 -1       768    3    0    1
 -2      3266      3624      4001      4027
 -1       769    3    0    1
 -2       173       169      1303      2147
 -1       770    3    0    1
 -2       566       108       951      1283
 -1       771    3    0    1
 -2      3098       626      3543      1978
 -1       772    3    0    1
 -2      1286       576      2167      2240
 -1       773    3    0    1
 -2       653       984       987      2487
 -1       774    3    0    1
 -2       970      2372      2589      3863
 -1       775    3    0    1
 -2      1480      1479      3051      3229
 -1       776    3    0    1
 -2      1621      2890      3800      3063
 -1       777    3    0    1
 -2       805       278      1060      1330
 -1       778    3    0    1
 -2       130      2088      2191      2250
 -1       779    3    0    1
 -2      2386       731      2375      2445
 -1       780    3    0    1
 -2      1475      1532      2856      2909
 -1       781    3    0    1
 -2      1071       831      2585      2614
 -1       782    3    0    1
 -2       879      1122      1396      2277
 -1       783    3    0    1
 -2      1691      3249      3513      3948
 -1       784    3    0    1
 -2      2092      2055      2192      2232
 -1       785    3    0    1
 -2      1755      3859      3908      3958
 -1       786    3    0    1
 -2      1075       833      1338      2178
 -1       787    3    0    1
 -2       997       538       934      1266
 -1       788    3    0    1
 -2       641       160       647       985
 -1       789    3    0    1
 -2      2238      2149      2342      2351
 -1       790    3    0    1
 -2      3809       957      3896      3960
 -1       791    3    0    1
 -2        92       695       701       937
 -1       792    3    0    1
 -2       689       682       690      1002
 -1       793    3    0    1
 -2      2848      3457      3924      3954
 -1       794    3    0    1
 -2      1479      1654      3007      3122
 -1       795    3    0    1
 -2      3833      3131      3918      3996
 -1       796    3    0    1
 -2      1995      3452      1996      2011
 -1       797    3    0    1
 -2       416       223      2073      2385
 -1       798    3    0    1
 -2      2739      2582      3076      4020
 -1       799    3    0    1
 -2      3354      2993      3470      3943
 -1       800    3    0    1
 -2       597       124       593      1185
 -1       801    3    0    1
 -2       733        77      1244      1255
 -1       802    3    0    1
 -2       656       936       988       992
 -1       803    3    0    1
 -2       690      1002      1005      2451
 -1       804    3    0    1
 -2       660       169       991      1303
 -1       805    3    0    1
 -2       623        68       629      1229
 -1       806    3    0    1
 -2      1511      1510      3024      1896
 -1       807    3    0    1
 -2       713       217       719      1021
 -1       808    3    0    1
 -2       647       160       980      1302
 -1       809    3    0    1
 -2       724       713      1258      2627
 -1       810    3    0    1
 -2       368       992      2046      2368
 -1       811    3    0    1
 -2      1695      1694      1769      3141
 -1       812    3    0    1
 -2       476      2659      2660      2979
 -1       813    3    0    1
 -2      1201       821      2606      2607
 -1       814    3    0    1
 -2       372       111      2169      2422
 -1       815    3    0    1
 -2       255      1047      3989      2031
 -1       816    3    0    1
 -2      1405       884      1115      2144
 -1       817    3    0    1
 -2       641       647       903      2654
 -1       818    3    0    1
 -2       671       654      2547      2563
 -1       819    3    0    1
 -2       646      2405      2684      3097
 -1       820    3    0    1
 -2       674       934       997      1001
 -1       821    3    0    1
 -2      2418       290      2525      3829
 -1       822    3    0    1
 -2       210        94       710       940
 -1       823    3    0    1
 -2       133       143      3962      3741
 -1       824    3    0    1
 -2      1725      2928      1726      3556
 -1       825    3    0    1
 -2      2090      2131      2165      2388
 -1       826    3    0    1
 -2       111       569       575       948
 -1       827    3    0    1
 -2       802       814      1064      2569
 -1       828    3    0    1
 -2      2669      3106      3933      3552
 -1       829    3    0    1
 -2      1137       660      2586      2651
 -1       830    3    0    1
 -2      1983      1982      2023      3721
 -1       831    3    0    1
 -2       167       988      2160      2249
 -1       832    3    0    1
 -2       397       341      1318      2043
 -1       833    3    0    1
 -2       821       832      1072      2614
 -1       834    3    0    1
 -2       948       569      1179      1180
 -1       835    3    0    1
 -2       960       403      2183      2185
 -1       836    3    0    1
 -2      1903      3458      3495      4015
 -1       837    3    0    1
 -2      2057      2099      2318      2486
 -1       838    3    0    1
 -2      1075      2175      2178      2221
 -1       839    3    0    1
 -2       585       584       959      1175
 -1       840    3    0    1
 -2       867      1382      1099      2471
 -1       841    3    0    1
 -2       549       558      1281      2479
 -1       842    3    0    1
 -2      1863      3232      1864      3380
 -1       843    3    0    1
 -2      1298       972      2543      3917
 -1       844    3    0    1
 -2      2060      2135      2150      2316
 -1       845    3    0    1
 -2      2156      2081      2263      2425
 -1       846    3    0    1
 -2      1523      1522      2984      1831
 -1       847    3    0    1
 -2      2269      2044      2285      2478
 -1       848    3    0    1
 -2      1022       726      1030      2320
 -1       849    3    0    1
 -2       584       959      1175      1178
 -1       850    3    0    1
 -2       761      1037      1038      2676
 -1       851    3    0    1
 -2      3494      3843      3934      3999
 -1       852    3    0    1
 -2        78      1138       660       174
 -1       853    3    0    1
 -2      2202      2223      2378      2403
 -1       854    3    0    1
 -2       652       157       164      1136
 -1       855    3    0    1
 -2       574       577       952      2600
 -1       856    3    0    1
 -2       670        90       179      1139
 -1       857    3    0    1
 -2       680       673      1707      3154
 -1       858    3    0    1
 -2      1309      2551      2744      3797
 -1       859    3    0    1
 -2      2807      3432      3894      3545
 -1       860    3    0    1
 -2       653       654       985      2197
 -1       861    3    0    1
 -2      1955      1920      3625      3733
 -1       862    3    0    1
 -2      1123      1397      2113      2125
 -1       863    3    0    1
 -2      1006      2142      2186      2239
 -1       864    3    0    1
 -2      2091      2059      2107      2391
 -1       865    3    0    1
 -2      2094      2103      2140      2383
 -1       866    3    0    1
 -2       567       108       357       951
 -1       867    3    0    1
 -2       636       653      2197      2570
 -1       868    3    0    1
 -2      1308       998       684      2356
 -1       869    3    0    1
 -2       539      1269       988       540
 -1       870    3    0    1
 -2      3091      2713      3826      3880
 -1       871    3    0    1
 -2      2966      3892      3926      3935
 -1       872    3    0    1
 -2      2044      2123      2212      2306
 -1       873    3    0    1
 -2      2895      2824      1788      3196
 -1       874    3    0    1
 -2      2122      2093      2158      2211
 -1       875    3    0    1
 -2      2997      2582      3864      4020
 -1       876    3    0    1
 -2       455      1139       898       659
 -1       877    3    0    1
 -2       641       903      1136      2653
 -1       878    3    0    1
 -2       147       148       627       973
 -1       879    3    0    1
 -2       400       113      3991      4013
 -1       880    3    0    1
 -2       278       805       808      3686
 -1       881    3    0    1
 -2       654       985       986      2653
 -1       882    3    0    1
 -2      1048       491      1052      1189
 -1       883    3    0    1
 -2      2949      1485      3064      3082
 -1       884    3    0    1
 -2      3035      1590      1897      3626
 -1       885    3    0    1
 -2      2968      2858      3874      3433
 -1       886    3    0    1
 -2       797       780      1053      2265
 -1       887    3    0    1
 -2        56      1551      1552      3616
 -1       888    3    0    1
 -2       950      2214      2367      2716
 -1       889    3    0    1
 -2       981      1301       643      2616
 -1       890    3    0    1
 -2       110       570       916      1183
 -1       891    3    0    1
 -2      2063      2325      2236      2473
 -1       892    3    0    1
 -2      1816      3155      1817      1423
 -1       893    3    0    1
 -2       751       754      1218      2722
 -1       894    3    0    1
 -2        79      1274        82       737
 -1       895    3    0    1
 -2      2704      3023      3861      3875
 -1       896    3    0    1
 -2      1730      1731      3125      3444
 -1       897    3    0    1
 -2      2230      2195      2234      2338
 -1       898    3    0    1
 -2      2196      2177      2206      2368
 -1       899    3    0    1
 -2       832       831      1071      2614
 -1       900    3    0    1
 -2      1479      1480      1653      3229
 -1       901    3    0    1
 -2       661       664      2399      2490
 -1       902    3    0    1
 -2      2150      2135      2289      2316
 -1       903    3    0    1
 -2      1007       695      1262      1263
 -1       904    3    0    1
 -2       111       372       569       948
 -1       905    3    0    1
 -2      2069      2114      2176      2222
 -1       906    3    0    1
 -2      3008      3100      3890      3956
 -1       907    3    0    1
 -2       882      1404       892      2224
 -1       908    3    0    1
 -2       371       569       580       954
 -1       909    3    0    1
 -2      3356      3083      3634      4017
 -1       910    3    0    1
 -2      3857      3268      3948      3605
 -1       911    3    0    1
 -2      1127       304      2383      2440
 -1       912    3    0    1
 -2      3366      3249      3914      3628
 -1       913    3    0    1
 -2      2224      2204      2229      2307
 -1       914    3    0    1
 -2      2335      1048      2337      2538
 -1       915    3    0    1
 -2      1748       716      3134      3394
 -1       916    3    0    1
 -2        37        22       591       906
 -1       917    3    0    1
 -2      3405      1936      1970      3647
 -1       918    3    0    1
 -2      1936         2      1937      2007
 -1       919    3    0    1
 -2      1348      1077      2354      2503
 -1       920    3    0    1
 -2       382       381      2143      2308
 -1       921    3    0    1
 -2       559        27       101      1171
 -1       922    3    0    1
 -2       566       567       914       951
 -1       923    3    0    1
 -2      2902      3277      3946      4015
 -1       924    3    0    1
 -2       749      1318      2230      2234
 -1       925    3    0    1
 -2       755      1033      1225      1321
 -1       926    3    0    1
 -2       695        92       701      1262
 -1       927    3    0    1
 -2      2062      1123      2125      2345
 -1       928    3    0    1
 -2       428       204      1013      2493
 -1       929    3    0    1
 -2        84        83       718      1143
 -1       930    3    0    1
 -2       602       966      1155      1292
 -1       931    3    0    1
 -2       226       730       737      1317
 -1       932    3    0    1
 -2      1924      3076      3599      4020
 -1       933    3    0    1
 -2      3561      1447      3566      3966
 -1       934    3    0    1
 -2       235       751      1218      1220
 -1       935    3    0    1
 -2       496      1199      1195      1040
 -1       936    3    0    1
 -2       599       600      2185      2382
 -1       937    3    0    1
 -2       730       737       933      2671
 -1       938    3    0    1
 -2      2104       380      2315      2377
 -1       939    3    0    1
 -2       538      1001       934       537
 -1       940    3    0    1
 -2      1498      1499      1817      3344
 -1       941    3    0    1
 -2      1702      3492      1936      1937
 -1       942    3    0    1
 -2       251      2151      2338      2498
 -1       943    3    0    1
 -2       912      1278       547       944
 -1       944    3    0    1
 -2      1035      2464      2769      3695
 -1       945    3    0    1
 -2       626      3848      3454      3940
 -1       946    3    0    1
 -2       679       681      1000      2591
 -1       947    3    0    1
 -2       386      2067      2202      2403
 -1       948    3    0    1
 -2       824       353      1337      1878
 -1       949    3    0    1
 -2      2044       108      2291      2306
 -1       950    3    0    1
 -2       887      1406       894      2259
 -1       951    3    0    1
 -2      3910      1741      1966      3748
 -1       952    3    0    1
 -2      2133      2231      2232      2251
 -1       953    3    0    1
 -2       550      1170        30      1169
 -1       954    3    0    1
 -2       561        99       557      1170
 -1       955    3    0    1
 -2      2043      2071      2086      2112
 -1       956    3    0    1
 -2       992       988      2046      2254
 -1       957    3    0    1
 -2       117       114       570      1284
 -1       958    3    0    1
 -2      1472      1750      3319      3368
 -1       959    3    0    1
 -2        63       766       773       930
 -1       960    3    0    1
 -2       148      3863      3962      3776
 -1       961    3    0    1
 -2       276       275       809      1332
 -1       962    3    0    1
 -2      1001       426      2128      2361
 -1       963    3    0    1
 -2       211       710       711      1019
 -1       964    3    0    1
 -2      3166      3282      3481      3719
 -1       965    3    0    1
 -2      1085       851      1083      2299
 -1       966    3    0    1
 -2      1334       822      2606      2607
 -1       967    3    0    1
 -2      1912      1913      3583      1971
 -1       968    3    0    1
 -2       825        54      1204      1205
 -1       969    3    0    1
 -2       253       249       764       920
 -1       970    3    0    1
 -2      1734      1733      1838      3473
 -1       971    3    0    1
 -2      2160      2093      2211      2249
 -1       972    3    0    1
 -2      2094      2082      2103      2440
 -1       973    3    0    1
 -2      1319      1035       752      2464
 -1       974    3    0    1
 -2       587      1185        32      1184
 -1       975    3    0    1
 -2       682       690      1002      1005
 -1       976    3    0    1
 -2      2127      2102      2190      2242
 -1       977    3    0    1
 -2       569       372       953       954
 -1       978    3    0    1
 -2      1638      1639      3198      3270
 -1       979    3    0    1
 -2      1293      2284      2501      2656
 -1       980    3    0    1
 -2       550      1173       911        30
 -1       981    3    0    1
 -2      3897      3927      3586      3986
 -1       982    3    0    1
 -2       160       342      2507      2550
 -1       983    3    0    1
 -2      1725      1481      1726      3055
 -1       984    3    0    1
 -2       943       556      2659      2660
 -1       985    3    0    1
 -2      2529      2435      3697      4016
 -1       986    3    0    1
 -2       550        96       941      1281
 -1       987    3    0    1
 -2      1032       744      2376      2753
 -1       988    3    0    1
 -2      2220       341      2401      2526
 -1       989    3    0    1
 -2      1410      1409      1743      3117
 -1       990    3    0    1
 -2       956       587      1176      1177
 -1       991    3    0    1
 -2       324      1087      1373      2258
 -1       992    3    0    1
 -2      1290       594      2183      2419
 -1       993    3    0    1
 -2      1293       133      3962      3741
 -1       994    3    0    1
 -2       749      2195      2439      2763
 -1       995    3    0    1
 -2      2378      2223      2066      2403
 -1       996    3    0    1
 -2       320      1365      1368      2170
 -1       997    3    0    1
 -2       866      1379      2215      2290
 -1       998    3    0    1
 -2      1187       791      1049      1190
 -1       999    3    0    1
 -2       260      1040      2047      2097
 -1      1000    3    0    1
 -2       501      1204      2585      2614
 -1      1001    3    0    1
 -2       117       955      3781      1736
 -1      1002    3    0    1
 -2      3818      1435      1806      3915
 -1      1003    3    0    1
 -2      2938      2915      3013      3409
 -1      1004    3    0    1
 -2       452       682      1131      1132
 -1      1005    3    0    1
 -2        31        43       791      1187
 -1      1006    3    0    1
 -2       521       522       643      2616
 -1      1007    3    0    1
 -2      1353       326      2431      2442
 -1      1008    3    0    1
 -2       549       479       558       944
 -1      1009    3    0    1
 -2      2123      1283      2212      2306
 -1      1010    3    0    1
 -2      1851      1524      3881      3976
 -1      1011    3    0    1
 -2      1451      1450      2900      1871
 -1      1012    3    0    1
 -2       408       405      3792      2021
 -1      1013    3    0    1
 -2      2817      2818      3068      3352
 -1      1014    3    0    1
 -2      1648      1649      3107      3548
 -1      1015    3    0    1
 -2       700      3710       198       696
 -1      1016    3    0    1
 -2      2051       361      2074      2241
 -1      1017    3    0    1
 -2       767       774      1326      2520
 -1      1018    3    0    1
 -2       524      1302       640       523
 -1      1019    3    0    1
 -2       607       610      2797      3815
 -1      1020    3    0    1
 -2       312      1389      2131      2165
 -1      1021    3    0    1
 -2       382       287      2308      2481
 -1      1022    3    0    1
 -2       880      1402       890      2309
 -1      1023    3    0    1
 -2      2973      3482      3667      4008
 -1      1024    3    0    1
 -2       997      1001       676      2361
 -1      1025    3    0    1
 -2      3662      1910      3664      3672
 -1      1026    3    0    1
 -2       565      1842      1843      3607
 -1      1027    3    0    1
 -2       518       519      2665      2882
 -1      1028    3    0    1
 -2       570        34       574      1183
 -1      1029    3    0    1
 -2      1179       569       112      1180
 -1      1030    3    0    1
 -2      1002       187      2272      3835
 -1      1031    3    0    1
 -2      2426        98      2992      3829
 -1      1032    3    0    1
 -2      3352      3275      3609      3997
 -1      1033    3    0    1
 -2      1345       837       838      2235
 -1      1034    3    0    1
 -2      1355      1352      2158      2259
 -1      1035    3    0    1
 -2      1432      1431      3175      1887
 -1      1036    3    0    1
 -2      1001       684      2256      2360
 -1      1037    3    0    1
 -2       502      1333      1069       819
 -1      1038    3    0    1
 -2      2400       822      2418      2447
 -1      1039    3    0    1
 -2      1579      1578      1784      3357
 -1      1040    3    0    1
 -2       975       148      4029      3776
 -1      1041    3    0    1
 -2       388       276      1332      2319
 -1      1042    3    0    1
 -2      2062       383      2104      2236
 -1      1043    3    0    1
 -2      1422      1421      3230      3632
 -1      1044    3    0    1
 -2       524       523       640       979
 -1      1045    3    0    1
 -2      1142       459      1144      2813
 -1      1046    3    0    1
 -2      1977      1608      3973      3762
 -1      1047    3    0    1
 -2       290      2334      2748      1804
 -1      1048    3    0    1
 -2       640       523       648       979
 -1      1049    3    0    1
 -2       904       611       132       605
 -1      1050    3    0    1
 -2       641       342       985       986
 -1      1051    3    0    1
 -2       582       955      2181      2330
 -1      1052    3    0    1
 -2       514      1318      1224      1036
 -1      1053    3    0    1
 -2      1363      1081      2148      2188
 -1      1054    3    0    1
 -2       375      2091      2107      2391
 -1      1055    3    0    1
 -2      2138       360      2159      2269
 -1      1056    3    0    1
 -2      2277      2060      2297      2316
 -1      1057    3    0    1
 -2      2060      2150      2297      2316
 -1      1058    3    0    1
 -2      1289       957      2438      3777
 -1      1059    3    0    1
 -2      3804      3282      3498      3719
 -1      1060    3    0    1
 -2       547       548       912       944
 -1      1061    3    0    1
 -2        29       547       912      1172
 -1      1062    3    0    1
 -2       486       487      2596      2600
 -1      1063    3    0    1
 -2      1477      1551      3206      3573
 -1      1064    3    0    1
 -2       645       982      1238      1300
 -1      1065    3    0    1
 -2      3803      3806      3827      3898
 -1      1066    3    0    1
 -2       930       511      2611      2689
 -1      1067    3    0    1
 -2       551      1171        27       556
 -1      1068    3    0    1
 -2       899       457      2617      2618
 -1      1069    3    0    1
 -2        44        42       790      1192
 -1      1070    3    0    1
 -2        55       805       808       925
 -1      1071    3    0    1
 -2      2149      2068      2238      2342
 -1      1072    3    0    1
 -2       685       187       682      1794
 -1      1073    3    0    1
 -2      1358       845       846      2286
 -1      1074    3    0    1
 -2       303      1080      1361      2420
 -1      1075    3    0    1
 -2      2101      2054      2127      2190
 -1      1076    3    0    1
 -2      1513      2989      1705      3379
 -1      1077    3    0    1
 -2      2769      2454      3690      4014
 -1      1078    3    0    1
 -2       351      1056      2492      3939
 -1      1079    3    0    1
 -2       640      2177      2323      2544
 -1      1080    3    0    1
 -2      2484      2469      2531      3016
 -1      1081    3    0    1
 -2       136       133       609       970
 -1      1082    3    0    1
 -2      1442      3785      3787      3800
 -1      1083    3    0    1
 -2       459      1143      2735      2736
 -1      1084    3    0    1
 -2      1034      1325      2163      2460
 -1      1085    3    0    1
 -2       108       567       566       951
 -1      1086    3    0    1
 -2      3249      1691      3513      3628
 -1      1087    3    0    1
 -2      1248       733      2817      2818
 -1      1088    3    0    1
 -2       689       996      1002      2272
 -1      1089    3    0    1
 -2      2889      2591      3970      3891
 -1      1090    3    0    1
 -2       699       679      2433      2727
 -1      1091    3    0    1
 -2      2172      2101      2251      2428
 -1      1092    3    0    1
 -2      2220      1024      2304      2386
 -1      1093    3    0    1
 -2      2462      2469      2608      2998
 -1      1094    3    0    1
 -2       375       378       944      2107
 -1      1095    3    0    1
 -2       850      1363      2148      2188
 -1      1096    3    0    1
 -2       690      1004      2166      2303
 -1      1097    3    0    1
 -2      2160      2249      2298      2360
 -1      1098    3    0    1
 -2      1299       153      2219      2268
 -1      1099    3    0    1
 -2      2885      2284      3863      3962
 -1      1100    3    0    1
 -2       630       622       974      2295
 -1      1101    3    0    1
 -2       369      1093      2077      2182
 -1      1102    3    0    1
 -2       838      1345      2235      2267
 -1      1103    3    0    1
 -2      2731      2836      3053      3869
 -1      1104    3    0    1
 -2      1714      3019      1715      3203
 -1      1105    3    0    1
 -2       807      2650      2723      2793
 -1      1106    3    0    1
 -2       749      2195      2234      2439
 -1      1107    3    0    1
 -2      1019       720      2186      2239
 -1      1108    3    0    1
 -2       361      2074      2241      2370
 -1      1109    3    0    1
 -2      2154       997      2180      2509
 -1      1110    3    0    1
 -2       267       351      1053      2492
 -1      1111    3    0    1
 -2      2207      1378      2255      2363
 -1      1112    3    0    1
 -2       408       405      2741      3832
 -1      1113    3    0    1
 -2      3354      1513      3418      3519
 -1      1114    3    0    1
 -2      1295       141      2171      2253
 -1      1115    3    0    1
 -2       979       156       983      2126
 -1      1116    3    0    1
 -2      3887      1845      1951      3579
 -1      1117    3    0    1
 -2       964      2459      2620      3791
 -1      1118    3    0    1
 -2       582       954      2169      2330
 -1      1119    3    0    1
 -2      1109       436      1403      2450
 -1      1120    3    0    1
 -2      2459      2668      3791      3917
 -1      1121    3    0    1
 -2       800       801       927      1061
 -1      1122    3    0    1
 -2       726      1023      1029      2320
 -1      1123    3    0    1
 -2       784      1055      2678      2679
 -1      1124    3    0    1
 -2       320      1400       330      2170
 -1      1125    3    0    1
 -2      2125      2113      2236      2394
 -1      1126    3    0    1
 -2      2573      3778      2870      3016
 -1      1127    3    0    1
 -2      1947        23      1948      1967
 -1      1128    3    0    1
 -2       295       377      2153      2289
 -1      1129    3    0    1
 -2      1578      1579      1784      3289
 -1      1130    3    0    1
 -2      3641       805      3658      3686
 -1      1131    3    0    1
 -2      1519      1659      3002      3269
 -1      1132    3    0    1
 -2       618       635       976      2105
 -1      1133    3    0    1
 -2       805       278       808      1060
 -1      1134    3    0    1
 -2      1560      1559      3135      1782
 -1      1135    3    0    1
 -2       703       700      3747      3755
 -1      1136    3    0    1
 -2       610      1294      2459      2501
 -1      1137    3    0    1
 -2       784        31       791      1187
 -1      1138    3    0    1
 -2      2051      2241      2278      2281
 -1      1139    3    0    1
 -2       652       641      1136      2653
 -1      1140    3    0    1
 -2       671       659       672      2586
 -1      1141    3    0    1
 -2        22       588       906      1162
 -1      1142    3    0    1
 -2       555       943      2418      2447
 -1      1143    3    0    1
 -2      1312      2347      2432      2685
 -1      1144    3    0    1
 -2      2088      2191      2241      2281
 -1      1145    3    0    1
 -2      2057      2099      2208      2318
 -1      1146    3    0    1
 -2        79       730       933      1256
 -1      1147    3    0    1
 -2      2317       211      2326      2350
 -1      1148    3    0    1
 -2       418      2108      2142      2301
 -1      1149    3    0    1
 -2       581      2169      2233      2330
 -1      1150    3    0    1
 -2      2461      2536      2546      3159
 -1      1151    3    0    1
 -2      1047      1044      3754      3763
 -1      1152    3    0    1
 -2       971       146      2366      2477
 -1      1153    3    0    1
 -2      2253      2250      2264      2364
 -1      1154    3    0    1
 -2       211       418      2110      2350
 -1      1155    3    0    1
 -2       600       961      2185      2382
 -1      1156    3    0    1
 -2      3883      2700      3900      3982
 -1      1157    3    0    1
 -2       803       810      2137      2271
 -1      1158    3    0    1
 -2      1473      1474      2772      1738
 -1      1159    3    0    1
 -2      2109      1124      2321      2452
 -1      1160    3    0    1
 -2      2168      2079      2211      2249
 -1      1161    3    0    1
 -2       553       449      2703      1611
 -1      1162    3    0    1
 -2        58       802       926      1216
 -1      1163    3    0    1
 -2        42       787       790      1192
 -1      1164    3    0    1
 -2        60        58       802       926
 -1      1165    3    0    1
 -2      1128      2073      2124      2287
 -1      1166    3    0    1
 -2      2320      1030      2444      2458
 -1      1167    3    0    1
 -2       552       555       943      2659
 -1      1168    3    0    1
 -2      1321      2304      2513      2515
 -1      1169    3    0    1
 -2         8       659       665       898
 -1      1170    3    0    1
 -2       582       599       960      2330
 -1      1171    3    0    1
 -2       264       266      2949      1913
 -1      1172    3    0    1
 -2      1040       767      2047      2097
 -1      1173    3    0    1
 -2       569       575      1182      2596
 -1      1174    3    0    1
 -2       388      2319      2528      2564
 -1      1175    3    0    1
 -2       667       663      2651      3759
 -1      1176    3    0    1
 -2      2599      2565      3402      4030
 -1      1177    3    0    1
 -2       954       582       960      2330
 -1      1178    3    0    1
 -2       935      1308       683       998
 -1      1179    3    0    1
 -2       386      1048      2134      2337
 -1      1180    3    0    1
 -2       546      1314       545       720
 -1      1181    3    0    1
 -2       417      1128      2073      2124
 -1      1182    3    0    1
 -2        49       821       824       921
 -1      1183    3    0    1
 -2       594      2123      2395      2478
 -1      1184    3    0    1
 -2       646       625      2543      2684
 -1      1185    3    0    1
 -2       702       694      1010      2359
 -1      1186    3    0    1
 -2       353       290      1072      2334
 -1      1187    3    0    1
 -2       239       347       751      1039
 -1      1188    3    0    1
 -2       509      1332      1216       508
 -1      1189    3    0    1
 -2      1053      3989      2031      2032
 -1      1190    3    0    1
 -2      2196       979      2206      2323
 -1      1191    3    0    1
 -2      2066      2087      2204      2378
 -1      1192    3    0    1
 -2      1090       859      1088      2362
 -1      1193    3    0    1
 -2      1024      2201      2445      2482
 -1      1194    3    0    1
 -2       190       184      1308      2356
 -1      1195    3    0    1
 -2       714       726      1023      2627
 -1      1196    3    0    1
 -2      1508      1507      2661      1612
 -1      1197    3    0    1
 -2       120       956      1290      2419
 -1      1198    3    0    1
 -2      2179      2050      2221      2278
 -1      1199    3    0    1
 -2       217       713       719      1016
 -1      1200    3    0    1
 -2       736       733      1244      2644
 -1      1201    3    0    1
 -2       278       349       808      1060
 -1      1202    3    0    1
 -2      1053       351      1056      2492
 -1      1203    3    0    1
 -2      2139      2317      2326      2350
 -1      1204    3    0    1
 -2       436       439      1110      2307
 -1      1205    3    0    1
 -2      2067      2202      2238      2342
 -1      1206    3    0    1
 -2      2080       425      2095      2247
 -1      1207    3    0    1
 -2       605       616       969      2630
 -1      1208    3    0    1
 -2       287       382      2308      2553
 -1      1209    3    0    1
 -2       245       250      1594      3041
 -1      1210    3    0    1
 -2       358       300      1346      2262
 -1      1211    3    0    1
 -2       346      2761      3536      4000
 -1      1212    3    0    1
 -2       654       986      2487      2563
 -1      1213    3    0    1
 -2      2142      1019      2186      2239
 -1      1214    3    0    1
 -2      1428      1427      2023      3707
 -1      1215    3    0    1
 -2       695       204      1012      1013
 -1      1216    3    0    1
 -2       120       126       960      2185
 -1      1217    3    0    1
 -2      3820      1039      1949      1950
 -1      1218    3    0    1
 -2      1223       755       243       748
 -1      1219    3    0    1
 -2      2939      1685      3391      3516
 -1      1220    3    0    1
 -2       766       930      2611      2689
 -1      1221    3    0    1
 -2       544      1028       738       543
 -1      1222    3    0    1
 -2      2187      2064      2325      2453
 -1      1223    3    0    1
 -2       517      1299      1229       971
 -1      1224    3    0    1
 -2        87        86       719      1259
 -1      1225    3    0    1
 -2      3453      2889      3970      3979
 -1      1226    3    0    1
 -2       367       983      2126      2428
 -1      1227    3    0    1
 -2      1304      2399      2416      3799
 -1      1228    3    0    1
 -2      3815      2641      3113      3872
 -1      1229    3    0    1
 -2      2149      2096      2164      2475
 -1      1230    3    0    1
 -2       787       794       913      2679
 -1      1231    3    0    1
 -2      2068      2149      2266      2475
 -1      1232    3    0    1
 -2       334       332      3793      3302
 -1      1233    3    0    1
 -2      2386      2220      2401      2526
 -1      1234    3    0    1
 -2      1292       966       604      2250
 -1      1235    3    0    1
 -2      2199       887      2210      2259
 -1      1236    3    0    1
 -2       622      1296      2295      2332
 -1      1237    3    0    1
 -2      2467      2399      2663      3779
 -1      1238    3    0    1
 -2       835      1342      1339      2150
 -1      1239    3    0    1
 -2       586       482       959      1287
 -1      1240    3    0    1
 -2       822       555      1334      2418
 -1      1241    3    0    1
 -2       726      1021      1022      2627
 -1      1242    3    0    1
 -2       269       784       791      1049
 -1      1243    3    0    1
 -2      2200       941      2491      2559
 -1      1244    3    0    1
 -2      2153      2091      2290      2391
 -1      1245    3    0    1
 -2      2703       553      1611      3133
 -1      1246    3    0    1
 -2       967       136      2463      3169
 -1      1247    3    0    1
 -2      2147       993      2282      2710
 -1      1248    3    0    1
 -2      1057       803      2161      2518
 -1      1249    3    0    1
 -2      2053      2242      2333      2389
 -1      1250    3    0    1
 -2       362      2219      2268      2412
 -1      1251    3    0    1
 -2       534       533       714      1257
 -1      1252    3    0    1
 -2      2092      2192      2216      2232
 -1      1253    3    0    1
 -2       942       552      2447      2466
 -1      1254    3    0    1
 -2        45       776       254      1245
 -1      1255    3    0    1
 -2       590      3259      3511      3518
 -1      1256    3    0    1
 -2      1406      2080      2210      2259
 -1      1257    3    0    1
 -2       290       353       824      1068
 -1      1258    3    0    1
 -2        95      2194      3757      3764
 -1      1259    3    0    1
 -2      3223      3779      3840      4027
 -1      1260    3    0    1
 -2      2073      2090      2124      2385
 -1      1261    3    0    1
 -2       960       599       961      2185
 -1      1262    3    0    1
 -2       884      1115      2144      2293
 -1      1263    3    0    1
 -2      1290       594      2419      2530
 -1      1264    3    0    1
 -2      2202      2238      2342      2351
 -1      1265    3    0    1
 -2       600       599       961      2574
 -1      1266    3    0    1
 -2      2070      2112      2151      2260
 -1      1267    3    0    1
 -2      3831      2814      3254      3980
 -1      1268    3    0    1
 -2      1613      2862      3298      3339
 -1      1269    3    0    1
 -2      1528      2809      3007      3122
 -1      1270    3    0    1
 -2      1588      1589      1823      3322
 -1      1271    3    0    1
 -2       514       515      1036      1222
 -1      1272    3    0    1
 -2       997       676      2180      2361
 -1      1273    3    0    1
 -2      2065      1125      2224      2307
 -1      1274    3    0    1
 -2       213       714       718      1020
 -1      1275    3    0    1
 -2      2931      3879      3468      3970
 -1      1276    3    0    1
 -2      3551      1947      1948      1967
 -1      1277    3    0    1
 -2      1522      1830      1831      3622
 -1      1278    3    0    1
 -2       797       798      1056      2679
 -1      1279    3    0    1
 -2       733       333       736      1027
 -1      1280    3    0    1
 -2       288       384      2510      2554
 -1      1281    3    0    1
 -2       345       987      2487      3994
 -1      1282    3    0    1
 -2       751       239       754      1035
 -1      1283    3    0    1
 -2       950       573      2214      2466
 -1      1284    3    0    1
 -2       803      1057      1061      2271
 -1      1285    3    0    1
 -2      1338       316      1075      2221
 -1      1286    3    0    1
 -2      3156      3373      3434      3992
 -1      1287    3    0    1
 -2       117       570       952       955
 -1      1288    3    0    1
 -2      2046       167      2246      2279
 -1      1289    3    0    1
 -2       903       454      2653      2654
 -1      1290    3    0    1
 -2      2092      2054      2216      2406
 -1      1291    3    0    1
 -2       149        73       627      1243
 -1      1292    3    0    1
 -2       151       153       976      2532
 -1      1293    3    0    1
 -2       705       701      1012      2664
 -1      1294    3    0    1
 -2      1684      1683      2986      3514
 -1      1295    3    0    1
 -2       167      2077      2246      2279
 -1      1296    3    0    1
 -2       798       797      2492      2496
 -1      1297    3    0    1
 -2       747       341       746      1318
 -1      1298    3    0    1
 -2       831      2334      2510      2558
 -1      1299    3    0    1
 -2       755       897      1145      2676
 -1      1300    3    0    1
 -2      2203      2180      2261      2328
 -1      1301    3    0    1
 -2       315      1348      2502      2503
 -1      1302    3    0    1
 -2       604       466       612       966
 -1      1303    3    0    1
 -2       721        84        85      1260
 -1      1304    3    0    1
 -2       624       147       627       973
 -1      1305    3    0    1
 -2      2374      1035      2411      2769
 -1      1306    3    0    1
 -2       500       821       824      1203
 -1      1307    3    0    1
 -2       696       704      1271      2662
 -1      1308    3    0    1
 -2      1285       571       573      2369
 -1      1309    3    0    1
 -2      1287      2364      2407      2530
 -1      1310    3    0    1
 -2      3282      3871      3481      3719
 -1      1311    3    0    1
 -2       290       821       824      1072
 -1      1312    3    0    1
 -2        32       124       593      1176
 -1      1313    3    0    1
 -2      2246      2168      2249      2279
 -1      1314    3    0    1
 -2       582       581      2596      2600
 -1      1315    3    0    1
 -2       810      1061      2098      2341
 -1      1316    3    0    1
 -2      1078      2092      2216      2406
 -1      1317    3    0    1
 -2      1050       788      1328      3833
 -1      1318    3    0    1
 -2        42        44       790       928
 -1      1319    3    0    1
 -2      1288       958      2042      2225
 -1      1320    3    0    1
 -2       514      1318      1036       749
 -1      1321    3    0    1
 -2      2083      1372      2094      2140
 -1      1322    3    0    1
 -2      1068      1330      2780      3678
 -1      1323    3    0    1
 -2      3800       170      3813      1905
 -1      1324    3    0    1
 -2      2066       389      2204      2224
 -1      1325    3    0    1
 -2       750       745      2825      1615
 -1      1326    3    0    1
 -2       783      1048      1052      1189
 -1      1327    3    0    1
 -2       631       627      2571      3740
 -1      1328    3    0    1
 -2      2106       380      2111      2315
 -1      1329    3    0    1
 -2      2170      2132      2357      2409
 -1      1330    3    0    1
 -2      1290       586       594      2530
 -1      1331    3    0    1
 -2      3876      2601      3906      3966
 -1      1332    3    0    1
 -2       855      1371       856      2094
 -1      1333    3    0    1
 -2      3390      1447      3449      3914
 -1      1334    3    0    1
 -2      3765      2491      3772      4030
 -1      1335    3    0    1
 -2      2235      2070      2243      2267
 -1      1336    3    0    1
 -2       609       606       965      2640
 -1      1337    3    0    1
 -2       133       606       609       970
 -1      1338    3    0    1
 -2      1134       754      2675      2676
 -1      1339    3    0    1
 -2       927       800      1057      1215
 -1      1340    3    0    1
 -2      1087      2077      2146      2258
 -1      1341    3    0    1
 -2       611       963       140       605
 -1      1342    3    0    1
 -2       586      1290       594       482
 -1      1343    3    0    1
 -2      3470      3404      3418      1704
 -1      1344    3    0    1
 -2       186      1307      3821      3881
 -1      1345    3    0    1
 -2      1640      1641      1743      3426
 -1      1346    3    0    1
 -2       380      2111      2315      2377
 -1      1347    3    0    1
 -2      1645      2875      1646      3149
 -1      1348    3    0    1
 -2      2634      2663      3821      3897
 -1      1349    3    0    1
 -2       570       116       578      1736
 -1      1350    3    0    1
 -2      3710      1014      3747      3755
 -1      1351    3    0    1
 -2      2228       125      2310      2572
 -1      1352    3    0    1
 -2      2817      2818      2966      3068
 -1      1353    3    0    1
 -2      1830      1481      3342      3965
 -1      1354    3    0    1
 -2      1114      2071       399      2086
 -1      1355    3    0    1
 -2       840      2145      2262      2354
 -1      1356    3    0    1
 -2      1311      2203      2261      2328
 -1      1357    3    0    1
 -2       963       611       140      1295
 -1      1358    3    0    1
 -2      2787      1427      3691      3707
 -1      1359    3    0    1
 -2      1312       213      3793      3302
 -1      1360    3    0    1
 -2       885      1128      1116      2287
 -1      1361    3    0    1
 -2       611       615       905      2583
 -1      1362    3    0    1
 -2      2186      2239      2358      2397
 -1      1363    3    0    1
 -2       642       345       645      1300
 -1      1364    3    0    1
 -2       351      2492      2529      2786
 -1      1365    3    0    1
 -2      1334      2418      2762      3829
 -1      1366    3    0    1
 -2      1943      3106      1944      3596
 -1      1367    3    0    1
 -2       661      2810      2811      2887
 -1      1368    3    0    1
 -2      1598       637      1599      3179
 -1      1369    3    0    1
 -2       813        58       809      1213
 -1      1370    3    0    1
 -2      1310      3818      3838      3915
 -1      1371    3    0    1
 -2      2822      2707      3953      3990
 -1      1372    3    0    1
 -2       972      1298      3852      3917
 -1      1373    3    0    1
 -2      1296      2172      2295      2332
 -1      1374    3    0    1
 -2      1543      1544      2900      1871
 -1      1375    3    0    1
 -2      2113      2062      2125      2236
 -1      1376    3    0    1
 -2       800       927      1057      1061
 -1      1377    3    0    1
 -2       769      1196        45      1194
 -1      1378    3    0    1
 -2       183       427      1671      3644
 -1      1379    3    0    1
 -2       612      1295      2171      2253
 -1      1380    3    0    1
 -2       172       169      3994      4024
 -1      1381    3    0    1
 -2       551      1171       556      2565
 -1      1382    3    0    1
 -2       784       791       929      2678
 -1      1383    3    0    1
 -2      1170       478       557      2565
 -1      1384    3    0    1
 -2       694       702      2245      2328
 -1      1385    3    0    1
 -2       283      1064      2554      2555
 -1      1386    3    0    1
 -2       714       726      2627      2639
 -1      1387    3    0    1
 -2      1165       474      2687      2688
 -1      1388    3    0    1
 -2      2902      2987      3842      3946
 -1      1389    3    0    1
 -2      1397       880      2113      2309
 -1      1390    3    0    1
 -2       245      1594      1595      3041
 -1      1391    3    0    1
 -2       857      1374      1086      2146
 -1      1392    3    0    1
 -2       712      1015      2110      2500
 -1      1393    3    0    1
 -2      1264       692      1006       693
 -1      1394    3    0    1
 -2      2174      2116      2312      2362
 -1      1395    3    0    1
 -2       500       821      1203      2614
 -1      1396    3    0    1
 -2       642       653       984       987
 -1      1397    3    0    1
 -2       959       373      2123      2478
 -1      1398    3    0    1
 -2       426      1001      2128      2360
 -1      1399    3    0    1
 -2        90       670       659      1139
 -1      1400    3    0    1
 -2       345       414       645      1300
 -1      1401    3    0    1
 -2      3462      3294      3483      3919
 -1      1402    3    0    1
 -2       642       653       654      2654
 -1      1403    3    0    1
 -2      1657      1658      2004      3672
 -1      1404    3    0    1
 -2       426       674       997      1001
 -1      1405    3    0    1
 -2       754        64       757      1134
 -1      1406    3    0    1
 -2      2049      2175      2178      2262
 -1      1407    3    0    1
 -2      3109      1588      1823      3322
 -1      1408    3    0    1
 -2      1020       725      2045      2348
 -1      1409    3    0    1
 -2      2105       618      2372      2589
 -1      1410    3    0    1
 -2      1027      1315       734      2818
 -1      1411    3    0    1
 -2       130      2088      2241      2281
 -1      1412    3    0    1
 -2       323       417      1106      2124
 -1      1413    3    0    1
 -2      2211      2122      2431      2442
 -1      1414    3    0    1
 -2      1035       753      2721      2722
 -1      1415    3    0    1
 -2      1124       437      2321      2452
 -1      1416    3    0    1
 -2      2076      2084      2108      2343
 -1      1417    3    0    1
 -2       390      2335      2337      2351
 -1      1418    3    0    1
 -2        28        27       551       910
 -1      1419    3    0    1
 -2      2162       374      2215      2420
 -1      1420    3    0    1
 -2      2201      2218      2385      2388
 -1      1421    3    0    1
 -2       725      1020      2045      2387
 -1      1422    3    0    1
 -2      3166      1900      3498      3719
 -1      1423    3    0    1
 -2       239       751       754      1039
 -1      1424    3    0    1
 -2       604      1292      2250      2365
 -1      1425    3    0    1
 -2       394       396      1038      2421
 -1      1426    3    0    1
 -2      2119      2067      2238      2342
 -1      1427    3    0    1
 -2      3013      1543      3409      3645
 -1      1428    3    0    1
 -2       187      1002      2272      2451
 -1      1429    3    0    1
 -2      1295       904       611      1154
 -1      1430    3    0    1
 -2      2216      2054      2371      2406
 -1      1431    3    0    1
 -2      3124      3804      3282      3498
 -1      1432    3    0    1
 -2      1689      1513      1690      3379
 -1      1433    3    0    1
 -2      2271       385      2453      2518
 -1      1434    3    0    1
 -2      2291      2044      2306      2396
 -1      1435    3    0    1
 -2      2333      2133      2371      2389
 -1      1436    3    0    1
 -2      1854      1468      1855      3654
 -1      1437    3    0    1
 -2      2591       462      2858      3874
 -1      1438    3    0    1
 -2       401      2169      2240      2437
 -1      1439    3    0    1
 -2      2070      2222      2235      2243
 -1      1440    3    0    1
 -2      2059      2107      2153      2423
 -1      1441    3    0    1
 -2      1394      2083      2209      2322
 -1      1442    3    0    1
 -2        41       783       782      1189
 -1      1443    3    0    1
 -2       725       726      1021      2348
 -1      1444    3    0    1
 -2       256      2195      2421      2519
 -1      1445    3    0    1
 -2       275       276      2528      2564
 -1      1446    3    0    1
 -2      2071      1114       399      1126
 -1      1447    3    0    1
 -2      1574      1642      3436      3717
 -1      1448    3    0    1
 -2       821       500       824      2614
 -1      1449    3    0    1
 -2       659       455      2586      2651
 -1      1450    3    0    1
 -2      3830      3818      3838      3901
 -1      1451    3    0    1
 -2      2048       196      2257      2359
 -1      1452    3    0    1
 -2       616       605      1152      2630
 -1      1453    3    0    1
 -2       936       656       988      1269
 -1      1454    3    0    1
 -2       956      2129      2264      2364
 -1      1455    3    0    1
 -2       185       678       682      1005
 -1      1456    3    0    1
 -2      3343       412      1635      1634
 -1      1457    3    0    1
 -2        99       561       102      1170
 -1      1458    3    0    1
 -2      3065      2784      3890      3967
 -1      1459    3    0    1
 -2       537      1308       998       684
 -1      1460    3    0    1
 -2       822      2606      2607      2652
 -1      1461    3    0    1
 -2      3190      1772      3192      3860
 -1      1462    3    0    1
 -2        63       766      1195      1199
 -1      1463    3    0    1
 -2       214      1755      1805      3603
 -1      1464    3    0    1
 -2       156       979      2196      2323
 -1      1465    3    0    1
 -2       386       782       783      1052
 -1      1466    3    0    1
 -2      3783      1435      3818      3849
 -1      1467    3    0    1
 -2       824       831       832      2614
 -1      1468    3    0    1
 -2        82        79       737       933
 -1      1469    3    0    1
 -2       618       617       969      2630
 -1      1470    3    0    1
 -2      1335      1067      2400      3795
 -1      1471    3    0    1
 -2       925       505      2649      2650
 -1      1472    3    0    1
 -2      1342       447      2297      2316
 -1      1473    3    0    1
 -2       644       637      3179      3203
 -1      1474    3    0    1
 -2      1828      1447      1829      3475
 -1      1475    3    0    1
 -2       204      1007      1311      2245
 -1      1476    3    0    1
 -2       517      1233      1228       974
 -1      1477    3    0    1
 -2       797      1054      2373      2496
 -1      1478    3    0    1
 -2      2149      2164      2352      2475
 -1      1479    3    0    1
 -2       848      1361      2162      2486
 -1      1480    3    0    1
 -2      1551      1477      3148      3457
 -1      1481    3    0    1
 -2       564       947      2237      4030
 -1      1482    3    0    1
 -2      3836      3018      3359      3558
 -1      1483    3    0    1
 -2      2663      3779      3821      3897
 -1      1484    3    0    1
 -2       714       213       718      1312
 -1      1485    3    0    1
 -2       766       773       930      2689
 -1      1486    3    0    1
 -2       620      1233       974      1228
 -1      1487    3    0    1
 -2       659       176       989      1305
 -1      1488    3    0    1
 -2       654       986      2197      2487
 -1      1489    3    0    1
 -2      2739      3076      3273      4020
 -1      1490    3    0    1
 -2       224       333      1027      2314
 -1      1491    3    0    1
 -2       676       997      2180      2203
 -1      1492    3    0    1
 -2      2649      1210      3424      2650
 -1      1493    3    0    1
 -2      2044       108      2212      2291
 -1      1494    3    0    1
 -2       887      1399      2199      2210
 -1      1495    3    0    1
 -2       426      2080      2093      2247
 -1      1496    3    0    1
 -2       454       464       642      2654
 -1      1497    3    0    1
 -2      2087      2066      2204      2229
 -1      1498    3    0    1
 -2      3189      1041      3505      3995
 -1      1499    3    0    1
 -2       966       467      1153      1155
 -1      1500    3    0    1
 -2       157       641       903      1136
 -1      1501    3    0    1
 -2       823       822      1067      2652
 -1      1502    3    0    1
 -2      1337       353      2334      2558
 -1      1503    3    0    1
 -2       821       828      1072      1804
 -1      1504    3    0    1
 -2       641       903      2653      2654
 -1      1505    3    0    1
 -2      1011       198      1014      2512
 -1      1506    3    0    1
 -2       162       345      3994      2036
 -1      1507    3    0    1
 -2       386      2202      2378      2403
 -1      1508    3    0    1
 -2      2068      2149      2164      2342
 -1      1509    3    0    1
 -2       699      1009       697      2617
 -1      1510    3    0    1
 -2       870      1384      2119      2238
 -1      1511    3    0    1
 -2       156       367       638       983
 -1      1512    3    0    1
 -2       345       642       984       987
 -1      1513    3    0    1
 -2      1659      3002      3269      3893
 -1      1514    3    0    1
 -2       660        78       663      1137
 -1      1515    3    0    1
 -2       467       963       604       466
 -1      1516    3    0    1
 -2       163      1241       641       157
 -1      1517    3    0    1
 -2       980       641      1240      1241
 -1      1518    3    0    1
 -2      1114       884      2144      2293
 -1      1519    3    0    1
 -2       523      1302       640       648
 -1      1520    3    0    1
 -2       140       362      2412      2430
 -1      1521    3    0    1
 -2       465       606       609      1151
 -1      1522    3    0    1
 -2       388       271      2155      2539
 -1      1523    3    0    1
 -2       345       642       645       984
 -1      1524    3    0    1
 -2       630      1299      2219      2268
 -1      1525    3    0    1
 -2      1367       854      2408      2409
 -1      1526    3    0    1
 -2       715       735      2432      2488
 -1      1527    3    0    1
 -2       744       761      1031      2252
 -1      1528    3    0    1
 -2      1059       806      1331      2417
 -1      1529    3    0    1
 -2       537       676       684       998
 -1      1530    3    0    1
 -2       654       653       985      2654
 -1      1531    3    0    1
 -2       989      2193      2198      2298
 -1      1532    3    0    1
 -2       985       641      2653      2654
 -1      1533    3    0    1
 -2       624       632      1226      2566
 -1      1534    3    0    1
 -2      1882      1693      3715      4006
 -1      1535    3    0    1
 -2       654       985      2653      2654
 -1      1536    3    0    1
 -2       454       642      2653      2654
 -1      1537    3    0    1
 -2       791       784      1054      2678
 -1      1538    3    0    1
 -2      2325      2236      2379      2064
 -1      1539    3    0    1
 -2      3818      2952      3298      3895
 -1      1540    3    0    1
 -2      2101      1296      2172      2295
 -1      1541    3    0    1
 -2       730       742      1031      2671
 -1      1542    3    0    1
 -2        76      3314      1960      1961
 -1      1543    3    0    1
 -2      1840      3118      3336      3372
 -1      1544    3    0    1
 -2       645       464      1150      2654
 -1      1545    3    0    1
 -2       539      1268       989      1267
 -1      1546    3    0    1
 -2       656       657       988      1269
 -1      1547    3    0    1
 -2       656        91       657      1269
 -1      1548    3    0    1
 -2       676       684       998      2356
 -1      1549    3    0    1
 -2      1681      2896      3292      3895
 -1      1550    3    0    1
 -2      2262      2049      2269      2285
 -1      1551    3    0    1
 -2       668       174       660      1138
 -1      1552    3    0    1
 -2      2446       980      2507      2544
 -1      1553    3    0    1
 -2      2209       877      2322      2344
 -1      1554    3    0    1
 -2      1413      1414      2914      1740
 -1      1555    3    0    1
 -2       300      1073      1074      2262
 -1      1556    3    0    1
 -2      1073       358      2178      2262
 -1      1557    3    0    1
 -2      1033       394      2195      2763
 -1      1558    3    0    1
 -2       717      2424      2432      2551
 -1      1559    3    0    1
 -2        13         3       682      1147
 -1      1560    3    0    1
 -2        77       733       736      1248
 -1      1561    3    0    1
 -2       973       628      2523      2656
 -1      1562    3    0    1
 -2      1149       678      2591      2592
 -1      1563    3    0    1
 -2        80        77       736      1248
 -1      1564    3    0    1
 -2       769      1196      1194      2733
 -1      1565    3    0    1
 -2       167       656       988       992
 -1      1566    3    0    1
 -2       299      1348       315      2503
 -1      1567    3    0    1
 -2      1512      2743      3828      3990
 -1      1568    3    0    1
 -2      2072      2131      2218      2388
 -1      1569    3    0    1
 -2       160       342       641       980
 -1      1570    3    0    1
 -2       385      2065      2115      2187
 -1      1571    3    0    1
 -2       160       641       647       980
 -1      1572    3    0    1
 -2       174       668       175      1138
 -1      1573    3    0    1
 -2      2089      2091      2391      2465
 -1      1574    3    0    1
 -2         9      1141        10       696
 -1      1575    3    0    1
 -2       385      2064      2187      2453
 -1      1576    3    0    1
 -2       761       762      2675      2676
 -1      1577    3    0    1
 -2       785      2472      2538      2539
 -1      1578    3    0    1
 -2       678       185       682      1000
 -1      1579    3    0    1
 -2      2543       972      3097      3931
 -1      1580    3    0    1
 -2       383      2104      2236      2394
 -1      1581    3    0    1
 -2       550       477      1169      2599
 -1      1582    3    0    1
 -2      1092       862      2333      2389
 -1      1583    3    0    1
 -2       970       975      2372      3863
 -1      1584    3    0    1
 -2       259       260      1040      2047
 -1      1585    3    0    1
 -2      2086      2071      2118      2293
 -1      1586    3    0    1
 -2      2393      2075      2516      2557
 -1      1587    3    0    1
 -2       659       665       671       994
 -1      1588    3    0    1
 -2      1590      2928      1725      3626
 -1      1589    3    0    1
 -2      1087       369      2077      2258
 -1      1590    3    0    1
 -2       688       677      1133      2657
 -1      1591    3    0    1
 -2      2130       150      2217      2336
 -1      1592    3    0    1
 -2       546      1019      1015       940
 -1      1593    3    0    1
 -2      1381      2266      2283      2537
 -1      1594    3    0    1
 -2      2433      3012      3858      3901
 -1      1595    3    0    1
 -2      1029       743      2320      2376
 -1      1596    3    0    1
 -2      1515      1516      1649      3548
 -1      1597    3    0    1
 -2       171        91       656       936
 -1      1598    3    0    1
 -2      3017      2917      3873      3988
 -1      1599    3    0    1
 -2       452       678       682      1132
 -1      1600    3    0    1
 -2       959      1287      2407      2530
 -1      1601    3    0    1
 -2      1074       834      2175      2178
 -1      1602    3    0    1
 -2      1074       833       834      2178
 -1      1603    3    0    1
 -2       678       686      1132      2657
 -1      1604    3    0    1
 -2      2408      1367      2409      2456
 -1      1605    3    0    1
 -2        87       719      1275      1277
 -1      1606    3    0    1
 -2         3        13       682      1132
 -1      1607    3    0    1
 -2       678         3       682      1132
 -1      1608    3    0    1
 -2       284      3973      3743      3762
 -1      1609    3    0    1
 -2       306      1378       309      2255
 -1      1610    3    0    1
 -2       727       732      1861      3399
 -1      1611    3    0    1
 -2       679       999      2591      2592
 -1      1612    3    0    1
 -2       326      1086      2431      2442
 -1      1613    3    0    1
 -2       606       609      1157      2640
 -1      1614    3    0    1
 -2         4       677       683      1133
 -1      1615    3    0    1
 -2      3796      1620      3910      3993
 -1      1616    3    0    1
 -2      3799      3787      3916      4027
 -1      1617    3    0    1
 -2      3910      1966      3993      3748
 -1      1618    3    0    1
 -2       699      1009      1306      2727
 -1      1619    3    0    1
 -2      3055      1481      3593      3611
 -1      1620    3    0    1
 -2      2087      2098      2341      2472
 -1      1621    3    0    1
 -2      1816      1498      3344      3464
 -1      1622    3    0    1
 -2      2156      2108      2313      2343
 -1      1623    3    0    1
 -2      1002       187      3835      1794
 -1      1624    3    0    1
 -2      2047      1040      2457      2520
 -1      1625    3    0    1
 -2       451       452       682      1131
 -1      1626    3    0    1
 -2      1092      2333      2371      2389
 -1      1627    3    0    1
 -2      3221      2839      3854      3422
 -1      1628    3    0    1
 -2      1411      3089      2024      2025
 -1      1629    3    0    1
 -2      1348       839       840      2354
 -1      1630    3    0    1
 -2       789       788      1328      2969
 -1      1631    3    0    1
 -2      2047       260      2373      2457
 -1      1632    3    0    1
 -2       556       909      2659      2660
 -1      1633    3    0    1
 -2      1291       122      2310      3781
 -1      1634    3    0    1
 -2      2126       156      2196      2323
 -1      1635    3    0    1
 -2      3595      3348      3993      3748
 -1      1636    3    0    1
 -2      1006       535      1010      1261
 -1      1637    3    0    1
 -2       535      1263      1007      1262
 -1      1638    3    0    1
 -2       709       716      1748      3167
 -1      1639    3    0    1
 -2       730      1274       938        79
 -1      1640    3    0    1
 -2       682       678       690      1005
 -1      1641    3    0    1
 -2       979       156      2126      2323
 -1      1642    3    0    1
 -2      3029      3834      3312      3861
 -1      1643    3    0    1
 -2       205       706       695      1272
 -1      1644    3    0    1
 -2       754       757      1322      2676
 -1      1645    3    0    1
 -2      2424       715      2432      2488
 -1      1646    3    0    1
 -2      3069      1598      3179      3183
 -1      1647    3    0    1
 -2      2288      2327      2385      2393
 -1      1648    3    0    1
 -2      2071      2112      2235      2267
 -1      1649    3    0    1
 -2      2618      2771      2901      3812
 -1      1650    3    0    1
 -2      2101       983      2172      2332
 -1      1651    3    0    1
 -2       704        10       696      1271
 -1      1652    3    0    1
 -2       770      1041      1325      2941
 -1      1653    3    0    1
 -2      2591       999      3234      2592
 -1      1654    3    0    1
 -2      3037      1586      3095      3654
 -1      1655    3    0    1
 -2      3542      3098      3543      1978
 -1      1656    3    0    1
 -2      2492       267      2529      2715
 -1      1657    3    0    1
 -2      2987      3842      3946      3965
 -1      1658    3    0    1
 -2       543       939      1024      1273
 -1      1659    3    0    1
 -2       789       770      1041      2436
 -1      1660    3    0    1
 -2      1728      1729      3474      3631
 -1      1661    3    0    1
 -2      2062      2125      2296      2345
 -1      1662    3    0    1
 -2      2535      2756      3791      3969
 -1      1663    3    0    1
 -2      3789      2756      3484      3969
 -1      1664    3    0    1
 -2       701       705       937      2664
 -1      1665    3    0    1
 -2       964      1298      2459      3917
 -1      1666    3    0    1
 -2       718       331      1020      2015
 -1      1667    3    0    1
 -2       544      1317      1274       543
 -1      1668    3    0    1
 -2       523       648       979       983
 -1      1669    3    0    1
 -2       755      1033       396       748
 -1      1670    3    0    1
 -2      3395      1824      1908      3665
 -1      1671    3    0    1
 -2      1508      1507      1677      3061
 -1      1672    3    0    1
 -2      2111      2060      2135      2402
 -1      1673    3    0    1
 -2       358      1346      2049      2262
 -1      1674    3    0    1
 -2       695       701       937      2664
 -1      1675    3    0    1
 -2       339      1916       231      1951
 -1      1676    3    0    1
 -2      1014      1020      2387      3784
 -1      1677    3    0    1
 -2      1704      1417      1705      3044
 -1      1678    3    0    1
 -2      1039       754      1322      2675
 -1      1679    3    0    1
 -2      1531      1530      3575      3744
 -1      1680    3    0    1
 -2       887       894      1127      2210
 -1      1681    3    0    1
 -2       843      1355      1352      2189
 -1      1682    3    0    1
 -2      1124      1398      2109      2321
 -1      1683    3    0    1
 -2       187       682      1002      1005
 -1      1684    3    0    1
 -2      1015       546       940      1276
 -1      1685    3    0    1
 -2       536       535       694      1006
 -1      1686    3    0    1
 -2        83       714      1257      1260
 -1      1687    3    0    1
 -2      1525      2896      1681      3895
 -1      1688    3    0    1
 -2       184       998      1308      2356
 -1      1689    3    0    1
 -2       731       543       738      1028
 -1      1690    3    0    1
 -2      2152      1015      2429      2500
 -1      1691    3    0    1
 -2       711       710       940      1019
 -1      1692    3    0    1
 -2       728       939      1024      1028
 -1      1693    3    0    1
 -2       730       226      1025      1317
 -1      1694    3    0    1
 -2      2836      2731      3053      3200
 -1      1695    3    0    1
 -2       751       235       754       902
 -1      1696    3    0    1
 -2       806       807      1060      2649
 -1      1697    3    0    1
 -2      1327       789       788      2355
 -1      1698    3    0    1
 -2       714       725      1020      1023
 -1      1699    3    0    1
 -2      3023      3029      3312      3861
 -1      1700    3    0    1
 -2       204       424      1012      2493
 -1      1701    3    0    1
 -2      1409      1622      1623      3143
 -1      1702    3    0    1
 -2      1049       785      2539      2540
 -1      1703    3    0    1
 -2       194      1264       195       693
 -1      1704    3    0    1
 -2      3814      3000      3888      3978
 -1      1705    3    0    1
 -2      1280      3115      3823      3529
 -1      1706    3    0    1
 -2       464       454       642      1135
 -1      1707    3    0    1
 -2       235       237       754       902
 -1      1708    3    0    1
 -2      1038       748      2675      2676
 -1      1709    3    0    1
 -2       198      1009      1309      2508
 -1      1710    3    0    1
 -2      1434      3902      3920      3981
 -1      1711    3    0    1
 -2       941       379      2200      2491
 -1      1712    3    0    1
 -2      2219       630      2268      2336
 -1      1713    3    0    1
 -2      1282       563      2334      2426
 -1      1714    3    0    1
 -2      1295       963       612      2171
 -1      1715    3    0    1
 -2      1028      2136      2413      2445
 -1      1716    3    0    1
 -2      2494      2561      2828      2865
 -1      1717    3    0    1
 -2       303       374      1080      2420
 -1      1718    3    0    1
 -2       788      1050      2355      2436
 -1      1719    3    0    1
 -2      1163       473      1165      2688
 -1      1720    3    0    1
 -2      1390       312       440      2165
 -1      1721    3    0    1
 -2      2424       697      2508      2551
 -1      1722    3    0    1
 -2       462       463      2591      2858
 -1      1723    3    0    1
 -2      3335      3326      3871      3488
 -1      1724    3    0    1
 -2      3037      3095      3537      3654
 -1      1725    3    0    1
 -2       714       534      1257      1260
 -1      1726    3    0    1
 -2      1477      1478      3090      1799
 -1      1727    3    0    1
 -2       220       415       713      1022
 -1      1728    3    0    1
 -2       207      1311      2203      2261
 -1      1729    3    0    1
 -2       555       822      1280      2447
 -1      1730    3    0    1
 -2      2325      2063      2236      2064
 -1      1731    3    0    1
 -2      2079      2093      2122      2211
 -1      1732    3    0    1
 -2       956       586      2129      2364
 -1      1733    3    0    1
 -2       746       341      1036      1318
 -1      1734    3    0    1
 -2      3623      3508      1161      3395
 -1      1735    3    0    1
 -2       692      1264      1261       194
 -1      1736    3    0    1
 -2      2063      2236      2309      2473
 -1      1737    3    0    1
 -2      2304       756      2386      2515
 -1      1738    3    0    1
 -2       148       147      4029      3776
 -1      1739    3    0    1
 -2      2152      2136      2326      2429
 -1      1740    3    0    1
 -2       360       373       959      2407
 -1      1741    3    0    1
 -2       120       126      2185      2419
 -1      1742    3    0    1
 -2      3806      2417      3921      3972
 -1      1743    3    0    1
 -2      2304      2386      2513      2515
 -1      1744    3    0    1
 -2       680      3149      3154      3468
 -1      1745    3    0    1
 -2       531       532      2644      2671
 -1      1746    3    0    1
 -2      2092      2216      2231      2232
 -1      1747    3    0    1
 -2      2534      3016      3185      3303
 -1      1748    3    0    1
 -2      2056      2255      2273      2362
 -1      1749    3    0    1
 -2       136       609       967       970
 -1      1750    3    0    1
 -2      1021       725      2348      2387
 -1      1751    3    0    1
 -2      3145      2973      3839      3417
 -1      1752    3    0    1
 -2      2055      2092      2231      2232
 -1      1753    3    0    1
 -2      2835      2578      3980      4008
 -1      1754    3    0    1
 -2      2979      3846      3459      3900
 -1      1755    3    0    1
 -2      1534      1533      1720      3132
 -1      1756    3    0    1
 -2      1921      1920      1956      3692
 -1      1757    3    0    1
 -2      1824      1908      3681      3745
 -1      1758    3    0    1
 -2      1840      3118      1841      3336
 -1      1759    3    0    1
 -2       222        93       728       939
 -1      1760    3    0    1
 -2      1054       798      1055      2496
 -1      1761    3    0    1
 -2      1063       815      1064      2528
 -1      1762    3    0    1
 -2       379        96       550      4030
 -1      1763    3    0    1
 -2       537      1001       684       676
 -1      1764    3    0    1
 -2       316      1338       370      2221
 -1      1765    3    0    1
 -2      1494      1495      1767      3407
 -1      1766    3    0    1
 -2      2229      2224      2307      2331
 -1      1767    3    0    1
 -2      3062      1571      1929      1930
 -1      1768    3    0    1
 -2       701       695      1012      2664
 -1      1769    3    0    1
 -2      1390       875      1389      2131
 -1      1770    3    0    1
 -2      2175      2138      2178      2221
 -1      1771    3    0    1
 -2      2753      2374      3690      4004
 -1      1772    3    0    1
 -2       730       226       737      1030
 -1      1773    3    0    1
 -2       784       269      1054      1055
 -1      1774    3    0    1
 -2      2124      2287      2385      2393
 -1      1775    3    0    1
 -2      2111      2135      2377      2402
 -1      1776    3    0    1
 -2       747       232       233      1224
 -1      1777    3    0    1
 -2      1036       514      1222      1224
 -1      1778    3    0    1
 -2       974      2295      2102      2336
 -1      1779    3    0    1
 -2      1035       751      1319      2722
 -1      1780    3    0    1
 -2        16        17       609      1151
 -1      1781    3    0    1
 -2       754       751      1035      2722
 -1      1782    3    0    1
 -2      2078      2220      2401      2482
 -1      1783    3    0    1
 -2      2112      2070      2235      2267
 -1      1784    3    0    1
 -2      3434      1873      1927      3581
 -1      1785    3    0    1
 -2       850       849      1082      2148
 -1      1786    3    0    1
 -2      1114      2071      2086      2293
 -1      1787    3    0    1
 -2      1563      1562      1638      3270
 -1      1788    3    0    1
 -2       850      2148      2173      2188
 -1      1789    3    0    1
 -2      2159       360      2364      2407
 -1      1790    3    0    1
 -2       749       514       756      1036
 -1      1791    3    0    1
 -2      1092       861      1376      2333
 -1      1792    3    0    1
 -2      2133      2054      2216      2231
 -1      1793    3    0    1
 -2      1447      1448      1829      3475
 -1      1794    3    0    1
 -2      2302      1013      2387      2493
 -1      1795    3    0    1
 -2      1425      3166      3481      3719
 -1      1796    3    0    1
 -2       807       806      1331      2723
 -1      1797    3    0    1
 -2       449       553      1624      2876
 -1      1798    3    0    1
 -2      3392      2605      3884      3904
 -1      1799    3    0    1
 -2      2202      2067      2223      2403
 -1      1800    3    0    1
 -2       751      1218      1220      2722
 -1      1801    3    0    1
 -2      1402      2309      2321      2452
 -1      1802    3    0    1
 -2      2156      2257      2263      2301
 -1      1803    3    0    1
 -2       453      1134      2675      2676
 -1      1804    3    0    1
 -2         8      1139       659       898
 -1      1805    3    0    1
 -2      2187      2227      2453      2473
 -1      1806    3    0    1
 -2       865      1098       866      2215
 -1      1807    3    0    1
 -2       513      1218      2721      2722
 -1      1808    3    0    1
 -2      1318      1036       749      2439
 -1      1809    3    0    1
 -2       720      2186      2239      2358
 -1      1810    3    0    1
 -2      2134      2087      2337      2472
 -1      1811    3    0    1
 -2       337       338      4004      2040
 -1      1812    3    0    1
 -2       430      3977      2011      3712
 -1      1813    3    0    1
 -2       653       645       984      2654
 -1      1814    3    0    1
 -2       659       455       665       898
 -1      1815    3    0    1
 -2       708       725      1013      2387
 -1      1816    3    0    1
 -2       647       641       985      2654
 -1      1817    3    0    1
 -2       894      1406      2210      2259
 -1      1818    3    0    1
 -2      1522      1722      3540      3622
 -1      1819    3    0    1
 -2      2242      2133      2333      2389
 -1      1820    3    0    1
 -2      2058      2291      2306      2396
 -1      1821    3    0    1
 -2      1739      1413      1740      3137
 -1      1822    3    0    1
 -2       135       140      1295      2171
 -1      1823    3    0    1
 -2      2154      2180      2381      2509
 -1      1824    3    0    1
 -2      2278      1083      2299      2541
 -1      1825    3    0    1
 -2      3823       555      2447       552
 -1      1826    3    0    1
 -2       678       682       690      2657
 -1      1827    3    0    1
 -2      2845      3840      3442      3586
 -1      1828    3    0    1
 -2       713      1259      2627      2639
 -1      1829    3    0    1
 -2      1042       769      2732      2733
 -1      1830    3    0    1
 -2       235       751       754      1218
 -1      1831    3    0    1
 -2      3025      2749      3318      3873
 -1      1832    3    0    1
 -2        83       714       718      1143
 -1      1833    3    0    1
 -2       446       437      1108      2321
 -1      1834    3    0    1
 -2       761       762      1322      2675
 -1      1835    3    0    1
 -2       766        75       778      1246
 -1      1836    3    0    1
 -2      1196       494      1194      2733
 -1      1837    3    0    1
 -2      2080      1355      2122      2158
 -1      1838    3    0    1
 -2      1783      1578      1784      3289
 -1      1839    3    0    1
 -2       237       235       754      1218
 -1      1840    3    0    1
 -2      2115      2229      2307      2331
 -1      1841    3    0    1
 -2       611       905      1152      2583
 -1      1842    3    0    1
 -2      3531      1920      3625      3724
 -1      1843    3    0    1
 -2      3821      1524      3858      3897
 -1      1844    3    0    1
 -2       497      1326      1199       496
 -1      1845    3    0    1
 -2      1088       859      2273      2362
 -1      1846    3    0    1
 -2      2183       594      2392      2395
 -1      1847    3    0    1
 -2        50        49       824       921
 -1      1848    3    0    1
 -2       780      1047      1053      2265
 -1      1849    3    0    1
 -2       217       216      2302      2358
 -1      1850    3    0    1
 -2      2667      3332      3540      3541
 -1      1851    3    0    1
 -2       622       517       630       974
 -1      1852    3    0    1
 -2      1080       374      2162      2420
 -1      1853    3    0    1
 -2       386       390       782      1052
 -1      1854    3    0    1
 -2      1424      1423      3155      3178
 -1      1855    3    0    1
 -2      1525      1681      1682      3263
 -1      1856    3    0    1
 -2      2064      2063      2187      2325
 -1      1857    3    0    1
 -2      1762      1763      3314      3613
 -1      1858    3    0    1
 -2       795       791      1054      2678
 -1      1859    3    0    1
 -2       941      1281      2491      2559
 -1      1860    3    0    1
 -2      1528       768      3338      4028
 -1      1861    3    0    1
 -2       686       678      1005      2657
 -1      1862    3    0    1
 -2      2384      1321      2439      2763
 -1      1863    3    0    1
 -2       689      2166      2272      2451
 -1      1864    3    0    1
 -2      2127      2054      2133      2190
 -1      1865    3    0    1
 -2       784       269       791      1054
 -1      1866    3    0    1
 -2       125       405      3792      3832
 -1      1867    3    0    1
 -2       482      1178      1175       959
 -1      1868    3    0    1
 -2       779      1045      2421      2519
 -1      1869    3    0    1
 -2      2102       366      2190      2295
 -1      1870    3    0    1
 -2      2180      2154      2381      2414
 -1      1871    3    0    1
 -2        31       784       791       929
 -1      1872    3    0    1
 -2       927       508      1057      1061
 -1      1873    3    0    1
 -2      2673      3024      3119      1895
 -1      1874    3    0    1
 -2      1763      1762      3482      1972
 -1      1875    3    0    1
 -2      2859      3825      3191      3325
 -1      1876    3    0    1
 -2      2070      2114      2222      2243
 -1      1877    3    0    1
 -2      1344       296       298      2243
 -1      1878    3    0    1
 -2      3232      1540      3324      3891
 -1      1879    3    0    1
 -2      3939      1056      1975      1976
 -1      1880    3    0    1
 -2        58       813       280      1213
 -1      1881    3    0    1
 -2        61      1215       800       927
 -1      1882    3    0    1
 -2      3830      3858      3998      4026
 -1      1883    3    0    1
 -2      2286      1079      2516      2557
 -1      1884    3    0    1
 -2      1027       734      2817      2818
 -1      1885    3    0    1
 -2       772       769      1042      2733
 -1      1886    3    0    1
 -2       770      1042      2732      2733
 -1      1887    3    0    1
 -2       769       255       772      1042
 -1      1888    3    0    1
 -2        63      1246       766       930
 -1      1889    3    0    1
 -2      1634      1592      3905      3568
 -1      1890    3    0    1
 -2      2157       617      2248      2463
 -1      1891    3    0    1
 -2      1028       738      2413      2429
 -1      1892    3    0    1
 -2      1348       299      1077      2503
 -1      1893    3    0    1
 -2       945       563      2565      4030
 -1      1894    3    0    1
 -2       779      2324      2480      2519
 -1      1895    3    0    1
 -2      1010      2048      2328      2359
 -1      1896    3    0    1
 -2        43       791      1187      1190
 -1      1897    3    0    1
 -2       606       133       609       965
 -1      1898    3    0    1
 -2      1312       715      2735      2736
 -1      1899    3    0    1
 -2      3170      1613      3284      3291
 -1      1900    3    0    1
 -2        43        31       791       929
 -1      1901    3    0    1
 -2       389      1385      2223      2294
 -1      1902    3    0    1
 -2      2059       378      2107      2423
 -1      1903    3    0    1
 -2      2349      2326      2429      2500
 -1      1904    3    0    1
 -2       612       604       966      2250
 -1      1905    3    0    1
 -2      1053       790      2678      2679
 -1      1906    3    0    1
 -2       269       391       791      1054
 -1      1907    3    0    1
 -2       551       910      2565      2599
 -1      1908    3    0    1
 -2      1055       798      2678      2679
 -1      1909    3    0    1
 -2      1053       797      1056      2679
 -1      1910    3    0    1
 -2       794       787      1056      2679
 -1      1911    3    0    1
 -2      1174       784      2678      2679
 -1      1912    3    0    1
 -2       269       796       271      1055
 -1      1913    3    0    1
 -2      2719      2921      3846      3883
 -1      1914    3    0    1
 -2      1427      1428      1554      3691
 -1      1915    3    0    1
 -2       448       445      2125      2345
 -1      1916    3    0    1
 -2      3271      2719      3846      3883
 -1      1917    3    0    1
 -2      1336       922       825      1208
 -1      1918    3    0    1
 -2       772        45        48      1217
 -1      1919    3    0    1
 -2       988       658      2198      2298
 -1      1920    3    0    1
 -2      2521      3994      3702      4024
 -1      1921    3    0    1
 -2      1259       533      2627      2639
 -1      1922    3    0    1
 -2       802       275      1063      1064
 -1      1923    3    0    1
 -2      1372      1369      2140      2322
 -1      1924    3    0    1
 -2      1213       802        58       809
 -1      1925    3    0    1
 -2       811        55       277      1214
 -1      1926    3    0    1
 -2      1417      1704      1705      3404
 -1      1927    3    0    1
 -2       824       821       832      1072
 -1      1928    3    0    1
 -2       384      1070      2510      2554
 -1      1929    3    0    1
 -2      3476      1411      3471      2024
 -1      1930    3    0    1
 -2      1347       839      1346      2145
 -1      1931    3    0    1
 -2      2487       414      2521      2524
 -1      1932    3    0    1
 -2       772       769        45      1217
 -1      1933    3    0    1
 -2       508       927      1057      1215
 -1      1934    3    0    1
 -2      2043       397      2071      2112
 -1      1935    3    0    1
 -2      1412      1411      3089      3195
 -1      1936    3    0    1
 -2      1511      1510      1918      3520
 -1      1937    3    0    1
 -2       490       491      1048      1188
 -1      1938    3    0    1
 -2       391       269       791      1049
 -1      1939    3    0    1
 -2       509      1061       810       508
 -1      1940    3    0    1
 -2       148       975      1997      3776
 -1      1941    3    0    1
 -2       787       790      1053      2679
 -1      1942    3    0    1
 -2       581       582       955      2600
 -1      1943    3    0    1
 -2       837      1345      1076      2235
 -1      1944    3    0    1
 -2      1006       196      1010      2048
 -1      1945    3    0    1
 -2      2164       390      2342      2351
 -1      1946    3    0    1
 -2       275       802       809      1332
 -1      1947    3    0    1
 -2      2100      2050      2138      2159
 -1      1948    3    0    1
 -2      2175      1074      2178      2262
 -1      1949    3    0    1
 -2       200      1009      2508      2727
 -1      1950    3    0    1
 -2      2239      2302      2358      2397
 -1      1951    3    0    1
 -2       362       140       969      2430
 -1      1952    3    0    1
 -2      1780      3215      3217      3226
 -1      1953    3    0    1
 -2       503      1069       826       502
 -1      1954    3    0    1
 -2      1032      2376      2454      2753
 -1      1955    3    0    1
 -2       136       133       970      2463
 -1      1956    3    0    1
 -2      2784      2726      3812      3967
 -1      1957    3    0    1
 -2       817       818      1207      1333
 -1      1958    3    0    1
 -2       821       290      1068      1334
 -1      1959    3    0    1
 -2      1702      2705      3900      3491
 -1      1960    3    0    1
 -2      1667      2908      3416      3701
 -1      1961    3    0    1
 -2       769       255      1042      1324
 -1      1962    3    0    1
 -2      1061       810      2271      2341
 -1      1963    3    0    1
 -2       977      2366       146      2533
 -1      1964    3    0    1
 -2      2622      1536      2821      3812
 -1      1965    3    0    1
 -2       879      1401       889      2345
 -1      1966    3    0    1
 -2       809       802      1216      1332
 -1      1967    3    0    1
 -2        50       824      1203      1206
 -1      1968    3    0    1
 -2       672       995      2282      2292
 -1      1969    3    0    1
 -2      2419       594      2478      2530
 -1      1970    3    0    1
 -2      2288      2075      2327      2393
 -1      1971    3    0    1
 -2       409      1790      1899      3960
 -1      1972    3    0    1
 -2       437      1398      1124      2321
 -1      1973    3    0    1
 -2       819       502       826      1069
 -1      1974    3    0    1
 -2      1366       321      1367      2456
 -1      1975    3    0    1
 -2       821       290       824      1068
 -1      1976    3    0    1
 -2        54       829       291      1205
 -1      1977    3    0    1
 -2       425      2128      2361      2509
 -1      1978    3    0    1
 -2      1023       726      2348      3139
 -1      1979    3    0    1
 -2       285       286       817      1207
 -1      1980    3    0    1
 -2       455       659       665      2651
 -1      1981    3    0    1
 -2       156       367      2126      2312
 -1      1982    3    0    1
 -2        58        60       802      1212
 -1      1983    3    0    1
 -2       586       956      2129      2530
 -1      1984    3    0    1
 -2       245       250      1962      3947
 -1      1985    3    0    1
 -2      1523      1522      1831      3622
 -1      1986    3    0    1
 -2      1333       923       818      1207
 -1      1987    3    0    1
 -2      1158      1156      2976      3371
 -1      1988    3    0    1
 -2       923      1333      1069       502
 -1      1989    3    0    1
 -2       731      2386      2375      2304
 -1      1990    3    0    1
 -2      3492      3045      3550      3723
 -1      1991    3    0    1
 -2      1060      2355      3629      3738
 -1      1992    3    0    1
 -2      1102       310      2067      2244
 -1      1993    3    0    1
 -2       187       685       423      1794
 -1      1994    3    0    1
 -2      2256      2198      2298      2360
 -1      1995    3    0    1
 -2       538      1001       537       676
 -1      1996    3    0    1
 -2       125       122      2225      2310
 -1      1997    3    0    1
 -2       581       952       955      2233
 -1      1998    3    0    1
 -2      2132      2052      2170      2357
 -1      1999    3    0    1
 -2       842       841      2092      2216
 -1      2000    3    0    1
 -2      1308       684      2256      2356
 -1      2001    3    0    1
 -2      2136       416      2201      2445
 -1      2002    3    0    1
 -2       797      1053      2492      2496
 -1      2003    3    0    1
 -2       418      2108      2301      2343
 -1      2004    3    0    1
 -2       250       245      3006      1999
 -1      2005    3    0    1
 -2      2418       943      2992      3764
 -1      2006    3    0    1
 -2       961       600      2248      2382
 -1      2007    3    0    1
 -2       169       993       996      3759
 -1      2008    3    0    1
 -2      1355       327      1352      2259
 -1      2009    3    0    1
 -2      3781       955      1735      1736
 -1      2010    3    0    1
 -2       715       717      2424      2432
 -1      2011    3    0    1
 -2      2155       388      2319      2528
 -1      2012    3    0    1
 -2       792      1052      2097      2335
 -1      2013    3    0    1
 -2       743       726      1029      2320
 -1      2014    3    0    1
 -2       342       652       343       986
 -1      2015    3    0    1
 -2       696       198       700      1009
 -1      2016    3    0    1
 -2       447       294      2297      2316
 -1      2017    3    0    1
 -2       211       418      1019      2110
 -1      2018    3    0    1
 -2      2366       146      2443      2477
 -1      2019    3    0    1
 -2       223       728      1024      1028
 -1      2020    3    0    1
 -2      2216      2133      2231      2232
 -1      2021    3    0    1
 -2       117       114      2214      2367
 -1      2022    3    0    1
 -2      2129       120      2185      2419
 -1      2023    3    0    1
 -2      1343      1344      2235      2243
 -1      2024    3    0    1
 -2       555       943      2659      2660
 -1      2025    3    0    1
 -2      1716      1664      3386      3483
 -1      2026    3    0    1
 -2      3850      1023      1989      1990
 -1      2027    3    0    1
 -2       694       702      2328      2359
 -1      2028    3    0    1
 -2       582       581      2233      2330
 -1      2029    3    0    1
 -2      2106      2135      2277      2315
 -1      2030    3    0    1
 -2      2270      2462      2469      2608
 -1      2031    3    0    1
 -2      1779       234      3498      1922
 -1      2032    3    0    1
 -2       211      2110      2326      2350
 -1      2033    3    0    1
 -2      1340       835      2150      2289
 -1      2034    3    0    1
 -2       951       576      2184      2511
 -1      2035    3    0    1
 -2      2100      2050      2191      2281
 -1      2036    3    0    1
 -2       151       976      2443      2532
 -1      2037    3    0    1
 -2       341      2043      2401      2526
 -1      2038    3    0    1
 -2      2050      2159      2191      2221
 -1      2039    3    0    1
 -2      2332       648      2428      2497
 -1      2040    3    0    1
 -2      2136      1028      2413      2429
 -1      2041    3    0    1
 -2      1061       387      2098      2341
 -1      2042    3    0    1
 -2       711       940      1015      1019
 -1      2043    3    0    1
 -2      2068      2096      2149      2475
 -1      2044    3    0    1
 -2      2079      2168      2211      2442
 -1      2045    3    0    1
 -2       226      1025      1317      2375
 -1      2046    3    0    1
 -2       125       122       588      1288
 -1      2047    3    0    1
 -2       130       361      2051      2241
 -1      2048    3    0    1
 -2      2110       418      2343      2350
 -1      2049    3    0    1
 -2      1354      2122      2189      2431
 -1      2050    3    0    1
 -2      2528      1062      2415      2548
 -1      2051    3    0    1
 -2      2129      2253      2264      2364
 -1      2052    3    0    1
 -2       419       176       995      2282
 -1      2053    3    0    1
 -2      3768       333       733       224
 -1      2054    3    0    1
 -2      1067       354      3795      3225
 -1      2055    3    0    1
 -2       383      1069      1333      2104
 -1      2056    3    0    1
 -2      3709      1280       822      2447
 -1      2057    3    0    1
 -2       341      2118      2220      2401
 -1      2058    3    0    1
 -2       671       659       994       995
 -1      2059    3    0    1
 -2      2693      3345      3355      3907
 -1      2060    3    0    1
 -2      1388       296      1104      2222
 -1      2061    3    0    1
 -2      3916      3813      3670      4001
 -1      2062    3    0    1
 -2      2110       418      2301      2343
 -1      2063    3    0    1
 -2      2180       676      2356      2361
 -1      2064    3    0    1
 -2       998       193      2203      2261
 -1      2065    3    0    1
 -2      1194       494      2732      2733
 -1      2066    3    0    1
 -2        34       110       570      1165
 -1      2067    3    0    1
 -2       958       591      2713      2714
 -1      2068    3    0    1
 -2      2091       375      2380      2391
 -1      2069    3    0    1
 -2       640      2323      2428      2507
 -1      2070    3    0    1
 -2      2227      2063      2321      2473
 -1      2071    3    0    1
 -2      1071      2334      2549      2553
 -1      2072    3    0    1
 -2      2101       367      2231      2251
 -1      2073    3    0    1
 -2      1067      1335      2652      3814
 -1      2074    3    0    1
 -2       318       393      1100      2470
 -1      2075    3    0    1
 -2      2084      2081      2313      2441
 -1      2076    3    0    1
 -2      2225      2181      3781      3817
 -1      2077    3    0    1
 -2      2061      2099      2318      2465
 -1      2078    3    0    1
 -2      2309      2236      2394      2473
 -1      2079    3    0    1
 -2      2117      2182      2207      2363
 -1      2080    3    0    1
 -2      1318      1036      2439      2526
 -1      2081    3    0    1
 -2       599      2181      2185      2330
 -1      2082    3    0    1
 -2      1353      1354      2189      2431
 -1      2083    3    0    1
 -2       331       213       718      1020
 -1      2084    3    0    1
 -2       404       956      2129      2264
 -1      2085    3    0    1
 -2      1076      1345      2086      2267
 -1      2086    3    0    1
 -2       211      2076      2343      2485
 -1      2087    3    0    1
 -2      2706      2642      3846      3478
 -1      2088    3    0    1
 -2       702      1010      2203      2328
 -1      2089    3    0    1
 -2       126       120      1290      2419
 -1      2090    3    0    1
 -2      1531      2936      3880      3907
 -1      2091    3    0    1
 -2      3277      1445      3946      4015
 -1      2092    3    0    1
 -2       774      1043      2338      2495
 -1      2093    3    0    1
 -2       712       545       720      1015
 -1      2094    3    0    1
 -2       389      2066      2204      2223
 -1      2095    3    0    1
 -2      1128       323      1116      2124
 -1      2096    3    0    1
 -2       360      2100      2159      2364
 -1      2097    3    0    1
 -2       327      1406      1120      2259
 -1      2098    3    0    1
 -2       563      1282      2565      4030
 -1      2099    3    0    1
 -2       204       428      2397      2493
 -1      2100    3    0    1
 -2      2128      2093      2158      2247
 -1      2101    3    0    1
 -2      1287       586      2264      2364
 -1      2102    3    0    1
 -2       882      1125      1110      2307
 -1      2103    3    0    1
 -2       448       445      1123      2125
 -1      2104    3    0    1
 -2       678       185      1000      1306
 -1      2105    3    0    1
 -2       308      1092      1376      2371
 -1      2106    3    0    1
 -2       896      1408      2084      2313
 -1      2107    3    0    1
 -2      2084      2081      2108      2313
 -1      2108    3    0    1
 -2      2295       971      2366      2477
 -1      2109    3    0    1
 -2       600       617      2248      2382
 -1      2110    3    0    1
 -2       600       962      2157      2310
 -1      2111    3    0    1
 -2       223      1024      2220      2482
 -1      2112    3    0    1
 -2       190      2256      2292      2356
 -1      2113    3    0    1
 -2      2106      2111      2135      2315
 -1      2114    3    0    1
 -2      1106      2073      2090      2124
 -1      2115    3    0    1
 -2      2241      2051      2299      2476
 -1      2116    3    0    1
 -2      3273      2739      3488      3630
 -1      2117    3    0    1
 -2      2055      1350       301      1349
 -1      2118    3    0    1
 -2      1040       259      2047      2457
 -1      2119    3    0    1
 -2       256       252      1326      2520
 -1      2120    3    0    1
 -2       392      1323      2164      2495
 -1      2121    3    0    1
 -2       211       711      1015      1019
 -1      2122    3    0    1
 -2      1734      1733      3551      1947
 -1      2123    3    0    1
 -2       295      1097      1379      2153
 -1      2124    3    0    1
 -2      3830      3838      3737      4026
 -1      2125    3    0    1
 -2       323      1128       417      2124
 -1      2126    3    0    1
 -2       689       672      2272      2292
 -1      2127    3    0    1
 -2       351       787      1053      1056
 -1      2128    3    0    1
 -2       130       966      1292      2088
 -1      2129    3    0    1
 -2      1590      1591      2990      1726
 -1      2130    3    0    1
 -2       845      1358      1079      2286
 -1      2131    3    0    1
 -2       818       380       383      1333
 -1      2132    3    0    1
 -2      1571      2995      1777      1778
 -1      2133    3    0    1
 -2      2160       988      2198      2298
 -1      2134    3    0    1
 -2       196       692      1006      1010
 -1      2135    3    0    1
 -2       451      1133      2581      2657
 -1      2136    3    0    1
 -2      2112      2086      2260      2267
 -1      2137    3    0    1
 -2      1445      1549      1550      3377
 -1      2138    3    0    1
 -2      2204      2066      2224      2229
 -1      2139    3    0    1
 -2      1544      1543      2900      3648
 -1      2140    3    0    1
 -2      1035       239      2374      2411
 -1      2141    3    0    1
 -2      1021       726      1022      2348
 -1      2142    3    0    1
 -2       517       520       622       971
 -1      2143    3    0    1
 -2      2048       196      2226      2425
 -1      2144    3    0    1
 -2        12      3304      1879      1906
 -1      2145    3    0    1
 -2      2062      2106      2296      2315
 -1      2146    3    0    1
 -2      1488      1489      3164      1786
 -1      2147    3    0    1
 -2      2063      2227      2321      2452
 -1      2148    3    0    1
 -2      2073      2287      2288      2385
 -1      2149    3    0    1
 -2       939       543      1024      1028
 -1      2150    3    0    1
 -2       433      3984      3993      2026
 -1      2151    3    0    1
 -2       114       117      2233      2367
 -1      2152    3    0    1
 -2       320      2132      2170      2409
 -1      2153    3    0    1
 -2      2072      2078      2220      2401
 -1      2154    3    0    1
 -2      2083      2209      2322      2425
 -1      2155    3    0    1
 -2       251      2114      2141      2498
 -1      2156    3    0    1
 -2      2236      2325      2379      2394
 -1      2157    3    0    1
 -2      2078      2072      2220      2482
 -1      2158    3    0    1
 -2       948      2183      2212      2422
 -1      2159    3    0    1
 -2       922      1336       825      1066
 -1      2160    3    0    1
 -2       226       398      2375      2444
 -1      2161    3    0    1
 -2       714       718       725      2639
 -1      2162    3    0    1
 -2       803       508       810      1061
 -1      2163    3    0    1
 -2      1331       807      2723      2793
 -1      2164    3    0    1
 -2      1093       863      2207      2363
 -1      2165    3    0    1
 -2      2167       549      2200      2511
 -1      2166    3    0    1
 -2      1377      1091      2389      2456
 -1      2167    3    0    1
 -2       552      1279      2194      2466
 -1      2168    3    0    1
 -2      2427      2076      2485      2542
 -1      2169    3    0    1
 -2      2078      2072      2293      2401
 -1      2170    3    0    1
 -2      2943      3308      3393      3530
 -1      2171    3    0    1
 -2      2138      2050      2178      2221
 -1      2172    3    0    1
 -2       992       368      2276      2368
 -1      2173    3    0    1
 -2       427      1851      3881      3644
 -1      2174    3    0    1
 -2       979       640      2177      2323
 -1      2175    3    0    1
 -2      1001       684       676      2361
 -1      2176    3    0    1
 -2       361      1292      2130      2365
 -1      2177    3    0    1
 -2       140       963      2171      2412
 -1      2178    3    0    1
 -2      1311       702      2203      2328
 -1      2179    3    0    1
 -2      1356      1357      2427      2562
 -1      2180    3    0    1
 -2      1322       761      2675      2676
 -1      2181    3    0    1
 -2         3       678      1147      1149
 -1      2182    3    0    1
 -2       976      2443      3767      3774
 -1      2183    3    0    1
 -2       683      1004      2581      2657
 -1      2184    3    0    1
 -2       238       759       242       897
 -1      2185    3    0    1
 -2       759       238       755       897
 -1      2186    3    0    1
 -2         8      1139        90       659
 -1      2187    3    0    1
 -2         8       669       177       898
 -1      2188    3    0    1
 -2       669         8       665       898
 -1      2189    3    0    1
 -2      2572      3792      3169      3832
 -1      2190    3    0    1
 -2      2171       141      2248      2253
 -1      2191    3    0    1
 -2      1295       141      2253      2264
 -1      2192    3    0    1
 -2       647       651       903      2654
 -1      2193    3    0    1
 -2       235       758       240       902
 -1      2194    3    0    1
 -2       758       235       751       902
 -1      2195    3    0    1
 -2       163       651       165       903
 -1      2196    3    0    1
 -2       651       163       647       903
 -1      2197    3    0    1
 -2       603        15       131      1155
 -1      2198    3    0    1
 -2       467       963       466       904
 -1      2199    3    0    1
 -2       467       466       966      1153
 -1      2200    3    0    1
 -2       138       615       139       905
 -1      2201    3    0    1
 -2       615       138       611       905
 -1      2202    3    0    1
 -2       577       574      1183      2600
 -1      2203    3    0    1
 -2       284      1977      3973      3762
 -1      2204    3    0    1
 -2        34       570       574      1165
 -1      2205    3    0    1
 -2      3378      2950      3443      3944
 -1      2206    3    0    1
 -2      2616      2580      3800      3851
 -1      2207    3    0    1
 -2      1171       551        27       910
 -1      2208    3    0    1
 -2        28       560       104       910
 -1      2209    3    0    1
 -2       560        28       551       910
 -1      2210    3    0    1
 -2      2902      3842      3522      4015
 -1      2211    3    0    1
 -2       548        29       547       912
 -1      2212    3    0    1
 -2       550      1173        30       557
 -1      2213    3    0    1
 -2        25      1936      3550      2007
 -1      2214    3    0    1
 -2       599       582      2181      2330
 -1      2215    3    0    1
 -2       796       784      1174      2679
 -1      2216    3    0    1
 -2        40       787       794       913
 -1      2217    3    0    1
 -2        40        42       787       913
 -1      2218    3    0    1
 -2      1630      1614      1629      3321
 -1      2219    3    0    1
 -2       569        35       580       915
 -1      2220    3    0    1
 -2       109        35       569       915
 -1      2221    3    0    1
 -2       575       569       953      2596
 -1      2222    3    0    1
 -2        36       570       578       916
 -1      2223    3    0    1
 -2        36       110       570       916
 -1      2224    3    0    1
 -2        22      1186        37       591
 -1      2225    3    0    1
 -2        22       596        39       917
 -1      2226    3    0    1
 -2       596        22       588       917
 -1      2227    3    0    1
 -2      3187      3295      3919      3694
 -1      2228    3    0    1
 -2       787      1327      2730      2731
 -1      2229    3    0    1
 -2      2648      2593      3867      4010
 -1      2230    3    0    1
 -2       920      1323      1043       496
 -1      2231    3    0    1
 -2       249       764       920      1198
 -1      2232    3    0    1
 -2      2721       513      2722      2948
 -1      2233    3    0    1
 -2      2195      2234      2338      2520
 -1      2234    3    0    1
 -2       766        63       773      1199
 -1      2235    3    0    1
 -2       357      2184      2208      2318
 -1      2236    3    0    1
 -2       497      1043       496       920
 -1      2237    3    0    1
 -2      1698       750      3825      3191
 -1      2238    3    0    1
 -2       502      1066       819       826
 -1      2239    3    0    1
 -2       807      1060      2649      2650
 -1      2240    3    0    1
 -2       503      1069       502       923
 -1      2241    3    0    1
 -2       707      2512      3746      3758
 -1      2242    3    0    1
 -2        57        55       805      1211
 -1      2243    3    0    1
 -2       533       714      1257      2627
 -1      2244    3    0    1
 -2      2188      2057      2318      2486
 -1      2245    3    0    1
 -2      2241      2179      2278      2281
 -1      2246    3    0    1
 -2      2308      1071      2549      2553
 -1      2247    3    0    1
 -2      3362      1454      1874      1875
 -1      2248    3    0    1
 -2       818       383      1069      1333
 -1      2249    3    0    1
 -2        61      1215       274       800
 -1      2250    3    0    1
 -2       983       367      2251      2428
 -1      2251    3    0    1
 -2        42       787       913       928
 -1      2252    3    0    1
 -2       787        42       790       928
 -1      2253    3    0    1
 -2       793        44        62       928
 -1      2254    3    0    1
 -2        44       793       790       928
 -1      2255    3    0    1
 -2        43       795       268       929
 -1      2256    3    0    1
 -2       795        43       791       929
 -1      2257    3    0    1
 -2        63      1246       258       766
 -1      2258    3    0    1
 -2        63       777       257       930
 -1      2259    3    0    1
 -2       777        63       773       930
 -1      2260    3    0    1
 -2       971       623      1229      1232
 -1      2261    3    0    1
 -2       623        68      1229      1232
 -1      2262    3    0    1
 -2      2347      1023      3139      3850
 -1      2263    3    0    1
 -2      1634      1577      1771      3428
 -1      2264    3    0    1
 -2        79       730       737       933
 -1      2265    3    0    1
 -2        82       741       225       933
 -1      2266    3    0    1
 -2       741        82       737       933
 -1      2267    3    0    1
 -2       675        88        89      1266
 -1      2268    3    0    1
 -2       538       998       537       935
 -1      2269    3    0    1
 -2       644       637      1598      3179
 -1      2270    3    0    1
 -2       696         9       700      1270
 -1      2271    3    0    1
 -2      3395      3077      3503      3966
 -1      2272    3    0    1
 -2      1024       731      2304      2386
 -1      2273    3    0    1
 -2        92      1272       695       937
 -1      2274    3    0    1
 -2        92      1272       205       695
 -1      2275    3    0    1
 -2        92       705       203       937
 -1      2276    3    0    1
 -2       705        92       701       937
 -1      2277    3    0    1
 -2        86        87       719      1275
 -1      2278    3    0    1
 -2       730      1274        79       737
 -1      2279    3    0    1
 -2       713        86       719      1275
 -1      2280    3    0    1
 -2       710        94       711       940
 -1      2281    3    0    1
 -2      2056      2174      2255      2362
 -1      2282    3    0    1
 -2       167      2046      2249      2279
 -1      2283    3    0    1
 -2      1466      2783      1537      3165
 -1      2284    3    0    1
 -2      2700      1472      3900      3982
 -1      2285    3    0    1
 -2      2126       979      2323      2428
 -1      2286    3    0    1
 -2       480      1281       479       558
 -1      2287    3    0    1
 -2       103      2167      2200      2437
 -1      2288    3    0    1
 -2      2748      1072      1803      1804
 -1      2289    3    0    1
 -2       416      1028      2136      2152
 -1      2290    3    0    1
 -2       941       103      2167      2200
 -1      2291    3    0    1
 -2      3693      2787      3707      3708
 -1      2292    3    0    1
 -2       624      1243       627      2571
 -1      2293    3    0    1
 -2       955      2181      2330      3781
 -1      2294    3    0    1
 -2      2326      2152      2429      2500
 -1      2295    3    0    1
 -2      2494      2561      2865      3088
 -1      2296    3    0    1
 -2       714       534       718      2639
 -1      2297    3    0    1
 -2       695       706      1013      2662
 -1      2298    3    0    1
 -2        27      1167       551       909
 -1      2299    3    0    1
 -2      2661      1507      1611      1612
 -1      2300    3    0    1
 -2       375       548       547       944
 -1      2301    3    0    1
 -2       756      1036      2386      2515
 -1      2302    3    0    1
 -2       570       916      1183      2600
 -1      2303    3    0    1
 -2      2108      2156      2301      2343
 -1      2304    3    0    1
 -2       561        96       381       945
 -1      2305    3    0    1
 -2        96       561       557       945
 -1      2306    3    0    1
 -2       767      2047      2097      2352
 -1      2307    3    0    1
 -2      1070       825      1071      2585
 -1      2308    3    0    1
 -2      2077       324      2182      2258
 -1      2309    3    0    1
 -2      1108      1402      2309      2321
 -1      2310    3    0    1
 -2      2043       397      2112      2260
 -1      2311    3    0    1
 -2       103       550       562       946
 -1      2312    3    0    1
 -2       103       379       550       946
 -1      2313    3    0    1
 -2       989       658      2254      2298
 -1      2314    3    0    1
 -2       311      1105      1387      2274
 -1      2315    3    0    1
 -2       569       111       575       953
 -1      2316    3    0    1
 -2      2968      2858      1148      3874
 -1      2317    3    0    1
 -2      2076      2084      2343      2542
 -1      2318    3    0    1
 -2       617      2157      2248      2382
 -1      2319    3    0    1
 -2       485       948      1179      1180
 -1      2320    3    0    1
 -2      1299       630      2219      2477
 -1      2321    3    0    1
 -2      2201       223      2218      2482
 -1      2322    3    0    1
 -2      1694      1707      3114      3453
 -1      2323    3    0    1
 -2      2617      2618      2726      3812
 -1      2324    3    0    1
 -2       108      2208      2212      2291
 -1      2325    3    0    1
 -2      2174      2116      2196      2312
 -1      2326    3    0    1
 -2      2181      1291      2310      3781
 -1      2327    3    0    1
 -2       825       820      1071      2614
 -1      2328    3    0    1
 -2       570      1165      2687      2688
 -1      2329    3    0    1
 -2      3795      2468      3199      3847
 -1      2330    3    0    1
 -2       700       696      1270      2662
 -1      2331    3    0    1
 -2      2079      2160      2249      2279
 -1      2332    3    0    1
 -2       114       117       570       952
 -1      2333    3    0    1
 -2      2107      2059      2153      2391
 -1      2334    3    0    1
 -2       390       386      2202      2337
 -1      2335    3    0    1
 -2       156       367       983      2126
 -1      2336    3    0    1
 -2      1404       882      1111      2224
 -1      2337    3    0    1
 -2       967       617      2157      2463
 -1      2338    3    0    1
 -2      2651      3463       996      3759
 -1      2339    3    0    1
 -2       690       707      2303      3746
 -1      2340    3    0    1
 -2       372       111       569       953
 -1      2341    3    0    1
 -2       296      1388       298      2222
 -1      2342    3    0    1
 -2       579       111       401       953
 -1      2343    3    0    1
 -2       111       579       575       953
 -1      2344    3    0    1
 -2      1311       694       702      2245
 -1      2345    3    0    1
 -2      3092      1564      1773      1774
 -1      2346    3    0    1
 -2       570       578       955      1736
 -1      2347    3    0    1
 -2      1671      1730      3128      3331
 -1      2348    3    0    1
 -2      2147      2778      3994      3702
 -1      2349    3    0    1
 -2      3101      2829      3193      3892
 -1      2350    3    0    1
 -2      2079      2160      2211      2249
 -1      2351    3    0    1
 -2       482       483       586       956
 -1      2352    3    0    1
 -2       341      1036      1318      2043
 -1      2353    3    0    1
 -2       752      2163      2464      3527
 -1      2354    3    0    1
 -2       260       259      1046      2373
 -1      2355    3    0    1
 -2      2059       375      2091      2107
 -1      2356    3    0    1
 -2       587        32      1176      1177
 -1      2357    3    0    1
 -2      3341      1600      3600      3966
 -1      2358    3    0    1
 -2       126       120       593      1290
 -1      2359    3    0    1
 -2      1318       397      2043      2230
 -1      2360    3    0    1
 -2      2189      1353      2431      2442
 -1      2361    3    0    1
 -2       643      1300      2405      2779
 -1      2362    3    0    1
 -2      3297      3503      3655      3657
 -1      2363    3    0    1
 -2       193       207      2203      2261
 -1      2364    3    0    1
 -2      2177      2276      2483      2544
 -1      2365    3    0    1
 -2      1271       541      1270      2662
 -1      2366    3    0    1
 -2      1845      2894      3929      3683
 -1      2367    3    0    1
 -2       585       360       373       959
 -1      2368    3    0    1
 -2       360       585       584       959
 -1      2369    3    0    1
 -2      1042      1319      2163      3643
 -1      2370    3    0    1
 -2       483      1287      1178       482
 -1      2371    3    0    1
 -2      1111       389      1404      2204
 -1      2372    3    0    1
 -2      2262      2145      2285      2354
 -1      2373    3    0    1
 -2       637       644      1714      3203
 -1      2374    3    0    1
 -2       587       120       593       960
 -1      2375    3    0    1
 -2       597       126       403       960
 -1      2376    3    0    1
 -2       126       597       593       960
 -1      2377    3    0    1
 -2       779      1045      1046      2611
 -1      2378    3    0    1
 -2       120       598       404       961
 -1      2379    3    0    1
 -2       598       120       587       961
 -1      2380    3    0    1
 -2      2250      2100      2264      2364
 -1      2381    3    0    1
 -2       136       408      3792      2021
 -1      2382    3    0    1
 -2      3792       405      2020      2021
 -1      2383    3    0    1
 -2       335      2017      4023      3750
 -1      2384    3    0    1
 -2       882      1111      2224      2307
 -1      2385    3    0    1
 -2      1908        21      1909      1946
 -1      2386    3    0    1
 -2       702      1311      2245      2328
 -1      2387    3    0    1
 -2       345      2487      2521      3994
 -1      2388    3    0    1
 -2       611       605       904       963
 -1      2389    3    0    1
 -2       466       604       612       963
 -1      2390    3    0    1
 -2      2275      2381      2414      2527
 -1      2391    3    0    1
 -2       625      1298       972      2543
 -1      2392    3    0    1
 -2       467      1292      1155       966
 -1      2393    3    0    1
 -2       620      1233       621      1296
 -1      2394    3    0    1
 -2      2461      2085      2494      2546
 -1      2395    3    0    1
 -2       151       146       629      1299
 -1      2396    3    0    1
 -2       761      1037      2252      2514
 -1      2397    3    0    1
 -2      2146      2079      2168      2279
 -1      2398    3    0    1
 -2       847       848      2162      2486
 -1      2399    3    0    1
 -2      1094      1378      2207      2363
 -1      2400    3    0    1
 -2       469      1159      2640      2641
 -1      2401    3    0    1
 -2      1340       295      1341      2289
 -1      2402    3    0    1
 -2      3103      1659      3471      3546
 -1      2403    3    0    1
 -2      3335      1783      3871      3719
 -1      2404    3    0    1
 -2       436      1125      2065      2307
 -1      2405    3    0    1
 -2       467      1292       966       604
 -1      2406    3    0    1
 -2       954       960      2183      2330
 -1      2407    3    0    1
 -2      3547      2878      3975      3751
 -1      2408    3    0    1
 -2       810      2137      2271      2319
 -1      2409    3    0    1
 -2      2404      2720      3790      3995
 -1      2410    3    0    1
 -2      3920      3862      3947      3995
 -1      2411    3    0    1
 -2      2404      3790      3920      3995
 -1      2412    3    0    1
 -2       401      1286      2167      2240
 -1      2413    3    0    1
 -2       997      2154      2180      2203
 -1      2414    3    0    1
 -2      1338      1075      2178      2221
 -1      2415    3    0    1
 -2       615       135       141       968
 -1      2416    3    0    1
 -2       135       615       611       968
 -1      2417    3    0    1
 -2      1454      1642      1643      2905
 -1      2418    3    0    1
 -2      1004      2261       207       193
 -1      2419    3    0    1
 -2      1072       832      1337      2334
 -1      2420    3    0    1
 -2       611       140       135       969
 -1      2421    3    0    1
 -2       611       135       968       969
 -1      2422    3    0    1
 -2       140       616       362       969
 -1      2423    3    0    1
 -2      2145      2049      2262      2285
 -1      2424    3    0    1
 -2       616       140       605       969
 -1      2425    3    0    1
 -2       314       376      1081      2188
 -1      2426    3    0    1
 -2      2054      2092      2216      2231
 -1      2427    3    0    1
 -2      2683      3156      3434      3992
 -1      2428    3    0    1
 -2      2176      2114      2346      2498
 -1      2429    3    0    1
 -2       734      1315      2314      2464
 -1      2430    3    0    1
 -2       173       169       660      1303
 -1      2431    3    0    1
 -2       666      2254      2276      2483
 -1      2432    3    0    1
 -2       305      1394      1393      2322
 -1      2433    3    0    1
 -2       416      2073      2288      2385
 -1      2434    3    0    1
 -2      2098      2341      2472      2539
 -1      2435    3    0    1
 -2      1694      1695      1708      3493
 -1      2436    3    0    1
 -2       618      2105      2463      2589
 -1      2437    3    0    1
 -2       549      2200      2380      2410
 -1      2438    3    0    1
 -2      1106       875      2090      2131
 -1      2439    3    0    1
 -2       520      1296       517       622
 -1      2440    3    0    1
 -2      1810       572      3356      3634
 -1      2441    3    0    1
 -2       520      1296      1233       517
 -1      2442    3    0    1
 -2       310      1386       317      2244
 -1      2443    3    0    1
 -2      3863       970      1997      1998
 -1      2444    3    0    1
 -2       143       133      3863      1998
 -1      2445    3    0    1
 -2       945        96      3765      4030
 -1      2446    3    0    1
 -2       623      1234       516       629
 -1      2447    3    0    1
 -2      2237       947      3769      4030
 -1      2448    3    0    1
 -2       563      3765      3769      4030
 -1      2449    3    0    1
 -2      2174      2117      2207      2363
 -1      2450    3    0    1
 -2      1060       805      1330      2649
 -1      2451    3    0    1
 -2       633       151       153       976
 -1      2452    3    0    1
 -2       151       633       629       976
 -1      2453    3    0    1
 -2       141       135      1295      2171
 -1      2454    3    0    1
 -2       947      1282      3769      4030
 -1      2455    3    0    1
 -2      3769      3765      3772      4030
 -1      2456    3    0    1
 -2      1371       855      1370      2094
 -1      2457    3    0    1
 -2       146       634       364       977
 -1      2458    3    0    1
 -2       634       146       623       977
 -1      2459    3    0    1
 -2       223       416      2201      2385
 -1      2460    3    0    1
 -2       645       414       984      2038
 -1      2461    3    0    1
 -2      2166       689      2272      2292
 -1      2462    3    0    1
 -2       414       345       645       984
 -1      2463    3    0    1
 -2       606        16       609      1151
 -1      2464    3    0    1
 -2      2349      2326      2413      2429
 -1      2465    3    0    1
 -2       420      1308      2198      2256
 -1      2466    3    0    1
 -2       524       980      1240      1241
 -1      2467    3    0    1
 -2      1076      2086      2235      2267
 -1      2468    3    0    1
 -2      1756      3477      1922      1923
 -1      2469    3    0    1
 -2       402      3923      3930      3968
 -1      2470    3    0    1
 -2       639       979       983      1239
 -1      2471    3    0    1
 -2       156       638       639       983
 -1      2472    3    0    1
 -2       156       639       979       983
 -1      2473    3    0    1
 -2       645       642       653       984
 -1      2474    3    0    1
 -2      2072      2144      2165      2293
 -1      2475    3    0    1
 -2      2191      2179      2241      2281
 -1      2476    3    0    1
 -2      1334      1068       822      2400
 -1      2477    3    0    1
 -2      2093      2079      2160      2211
 -1      2478    3    0    1
 -2      3791      1580      4006      3855
 -1      2479    3    0    1
 -2       427      1851      3644      2041
 -1      2480    3    0    1
 -2      3863      2885      3962      3776
 -1      2481    3    0    1
 -2      3973      3975      3762      3870
 -1      2482    3    0    1
 -2       651       160       365       985
 -1      2483    3    0    1
 -2       160       651       647       985
 -1      2484    3    0    1
 -2      1608      1497      3795      3870
 -1      2485    3    0    1
 -2       652       342       641       986
 -1      2486    3    0    1
 -2       550       562       946      2599
 -1      2487    3    0    1
 -2       653       642       654       987
 -1      2488    3    0    1
 -2       962       125      3533      3749
 -1      2489    3    0    1
 -2      2733      2732      2941      3804
 -1      2490    3    0    1
 -2      2726      3812      3967      3708
 -1      2491    3    0    1
 -2      2960      1556      1807      1808
 -1      2492    3    0    1
 -2       658       992       988       539
 -1      2493    3    0    1
 -2       540       539       658       988
 -1      2494    3    0    1
 -2       167       656       657       988
 -1      2495    3    0    1
 -2       584       959      1178      1287
 -1      2496    3    0    1
 -2       539      1269       936       988
 -1      2497    3    0    1
 -2      2094      2083      2226      2275
 -1      2498    3    0    1
 -2       539       540       658       989
 -1      2499    3    0    1
 -2       989       659      1267      1268
 -1      2500    3    0    1
 -2       658      1305       666       539
 -1      2501    3    0    1
 -2      1105       873      1387      2176
 -1      2502    3    0    1
 -2       176       659       665      1305
 -1      2503    3    0    1
 -2       863      1095       864      2363
 -1      2504    3    0    1
 -2      1278       549      2380      2410
 -1      2505    3    0    1
 -2        78      1254       660      1252
 -1      2506    3    0    1
 -2       108      2044      2212      2306
 -1      2507    3    0    1
 -2       779       780      1046      2519
 -1      2508    3    0    1
 -2       396      1033      2384      2763
 -1      2509    3    0    1
 -2      1126       884       893      2144
 -1      2510    3    0    1
 -2      1063       815      2528      2560
 -1      2511    3    0    1
 -2       352      1335      3972      3973
 -1      2512    3    0    1
 -2      1712       155      1713      1727
 -1      2513    3    0    1
 -2      2116       156      2196      2312
 -1      2514    3    0    1
 -2       345       987      3994      2036
 -1      2515    3    0    1
 -2      1182       486      2596      2600
 -1      2516    3    0    1
 -2      2077      1093      2207      2363
 -1      2517    3    0    1
 -2       754       751       902      2675
 -1      2518    3    0    1
 -2       669       176       344       994
 -1      2519    3    0    1
 -2       176       669       665       994
 -1      2520    3    0    1
 -2      1757      1756      3166      1901
 -1      2521    3    0    1
 -2       659       671       672       995
 -1      2522    3    0    1
 -2       419       176       659       995
 -1      2523    3    0    1
 -2       659       176       994       995
 -1      2524    3    0    1
 -2       419       670       422       995
 -1      2525    3    0    1
 -2       670       419       659       995
 -1      2526    3    0    1
 -2       187       423      3835      1794
 -1      2527    3    0    1
 -2      3155      2830      3893      3464
 -1      2528    3    0    1
 -2      2892      2590      3811      3936
 -1      2529    3    0    1
 -2      3835       421      1793      1794
 -1      2530    3    0    1
 -2      1001       538       997       676
 -1      2531    3    0    1
 -2       539      1268       540       989
 -1      2532    3    0    1
 -2       538      1001       997       934
 -1      2533    3    0    1
 -2       425       426       674       997
 -1      2534    3    0    1
 -2       425       674       675       997
 -1      2535    3    0    1
 -2      1581      2955      1679      1680
 -1      2536    3    0    1
 -2      2205      2058      2291      2306
 -1      2537    3    0    1
 -2      1298       628      2459      2543
 -1      2538    3    0    1
 -2      2534      2531      3016      3303
 -1      2539    3    0    1
 -2      2087       387      2229      2341
 -1      2540    3    0    1
 -2       674       675       997      1266
 -1      2541    3    0    1
 -2       156      2126      2196      2312
 -1      2542    3    0    1
 -2      1321      1033      2439      2763
 -1      2543    3    0    1
 -2      3193      1886      1887      3557
 -1      2544    3    0    1
 -2      1108       437      1402      2321
 -1      2545    3    0    1
 -2       665       659      1267      1305
 -1      2546    3    0    1
 -2      1310       697      1008      3801
 -1      2547    3    0    1
 -2       659       989      1267      1305
 -1      2548    3    0    1
 -2      2107       378      2402      2423
 -1      2549    3    0    1
 -2       571       573      2369      2466
 -1      2550    3    0    1
 -2       558       549       944      2410
 -1      2551    3    0    1
 -2       750       745      1615      3191
 -1      2552    3    0    1
 -2      3987      1005      2012      2013
 -1      2553    3    0    1
 -2       311       319      2274      2471
 -1      2554    3    0    1
 -2      2090      2073      2218      2385
 -1      2555    3    0    1
 -2      2224      2065      2307      2331
 -1      2556    3    0    1
 -2       687       190       420      1003
 -1      2557    3    0    1
 -2       190       687       683      1003
 -1      2558    3    0    1
 -2      2179      2050      2191      2221
 -1      2559    3    0    1
 -2       677       184       683      1004
 -1      2560    3    0    1
 -2      1051      1327       789      2730
 -1      2561    3    0    1
 -2       184       190       683      1004
 -1      2562    3    0    1
 -2       683       190      1003      1004
 -1      2563    3    0    1
 -2       184       688       193      1004
 -1      2564    3    0    1
 -2       949      1289      2042      2438
 -1      2565    3    0    1
 -2       688       184       677      1004
 -1      2566    3    0    1
 -2       347       751      1039      1950
 -1      2567    3    0    1
 -2      3531      1920      3954      3625
 -1      2568    3    0    1
 -2       196       692       693      1006
 -1      2569    3    0    1
 -2        10       704       201      1271
 -1      2570    3    0    1
 -2       951       357      2089      2184
 -1      2571    3    0    1
 -2      1426      1425      1784      3415
 -1      2572    3    0    1
 -2       535       536       694      1007
 -1      2573    3    0    1
 -2      1606       590      3075      3555
 -1      2574    3    0    1
 -2       880       890      1123      2113
 -1      2575    3    0    1
 -2       998       193      2261      2356
 -1      2576    3    0    1
 -2      2072      2218      2220      2482
 -1      2577    3    0    1
 -2      2222       296      2235      2243
 -1      2578    3    0    1
 -2       198       200       700      1009
 -1      2579    3    0    1
 -2       424       204       701      1311
 -1      2580    3    0    1
 -2      1562      3019      1714      3202
 -1      2581    3    0    1
 -2       719      1016      1277      1314
 -1      2582    3    0    1
 -2       216       428      1021      2302
 -1      2583    3    0    1
 -2      3825      2859      3280      3325
 -1      2584    3    0    1
 -2      1358      1079      2286      2557
 -1      2585    3    0    1
 -2      1019      2142      2186      2301
 -1      2586    3    0    1
 -2       788      2730      2731      2969
 -1      2587    3    0    1
 -2      1692      3390      3513      3677
 -1      2588    3    0    1
 -2         9      1141       696       899
 -1      2589    3    0    1
 -2      2215      1098      2290      2420
 -1      2590    3    0    1
 -2       694       535       702      1010
 -1      2591    3    0    1
 -2       196       429       692      1010
 -1      2592    3    0    1
 -2      2061      2318      2420      2465
 -1      2593    3    0    1
 -2      2046      2246      2249      2279
 -1      2594    3    0    1
 -2       189       185      3987      2013
 -1      2595    3    0    1
 -2       199      3987      2012      2013
 -1      2596    3    0    1
 -2       695       204       701      1012
 -1      2597    3    0    1
 -2      2828      2494      2865      3088
 -1      2598    3    0    1
 -2       534       714       718      1260
 -1      2599    3    0    1
 -2       424       207       701      1012
 -1      2600    3    0    1
 -2       701       207       705      1012
 -1      2601    3    0    1
 -2       628       973       625      2665
 -1      2602    3    0    1
 -2       141       135      2171      2248
 -1      2603    3    0    1
 -2       804       799      1849      3451
 -1      2604    3    0    1
 -2      1974         1      1987      1988
 -1      2605    3    0    1
 -2      1388       298      2222      2243
 -1      2606    3    0    1
 -2       204       706       428      1013
 -1      2607    3    0    1
 -2       706       204       695      1013
 -1      2608    3    0    1
 -2       721       718      1020      2015
 -1      2609    3    0    1
 -2      1020       331      3784      2015
 -1      2610    3    0    1
 -2       415       217       713      1021
 -1      2611    3    0    1
 -2       367      2055      2126      2312
 -1      2612    3    0    1
 -2       545       546       720      1015
 -1      2613    3    0    1
 -2      2099      2162      2486      2545
 -1      2614    3    0    1
 -2       360      2100      2138      2159
 -1      2615    3    0    1
 -2       692      1006      1010      1261
 -1      2616    3    0    1
 -2       546      1019       720      1015
 -1      2617    3    0    1
 -2       547       375       944      1278
 -1      2618    3    0    1
 -2       953       581      2169      2455
 -1      2619    3    0    1
 -2       951      2089      2167      2184
 -1      2620    3    0    1
 -2       618       635      2105      2372
 -1      2621    3    0    1
 -2      1297      2523      3766      3771
 -1      2622    3    0    1
 -2       730      1274       737      1317
 -1      2623    3    0    1
 -2      2888       626      3848      1978
 -1      2624    3    0    1
 -2      1894        25      1936      3550
 -1      2625    3    0    1
 -2       617       968       969      2583
 -1      2626    3    0    1
 -2      1297       973      2523      3771
 -1      2627    3    0    1
 -2      1056      1062      3144      3939
 -1      2628    3    0    1
 -2       193       184      2166      2356
 -1      2629    3    0    1
 -2      3823      1280      3529      1987
 -1      2630    3    0    1
 -2      1143       714      2735      2736
 -1      2631    3    0    1
 -2       718       714       725      1020
 -1      2632    3    0    1
 -2       720      1019      2186      2358
 -1      2633    3    0    1
 -2       114       950      1284      2214
 -1      2634    3    0    1
 -2      2464      1315      2769      3695
 -1      2635    3    0    1
 -2      1035      1315      2464      3695
 -1      2636    3    0    1
 -2      3821      3779      3925      3927
 -1      2637    3    0    1
 -2       314      1081      1363      2188
 -1      2638    3    0    1
 -2       196      2257      2263      2425
 -1      2639    3    0    1
 -2       217       216       719      1021
 -1      2640    3    0    1
 -2       719       216       723      1021
 -1      2641    3    0    1
 -2      2380      2089      2391      2465
 -1      2642    3    0    1
 -2       220       713       724      1022
 -1      2643    3    0    1
 -2       725       714       726      1023
 -1      2644    3    0    1
 -2       349      1060      3629      3959
 -1      2645    3    0    1
 -2       349      2548      3939      3959
 -1      2646    3    0    1
 -2       350       281      3939      3959
 -1      2647    3    0    1
 -2       494      1196       495      2733
 -1      2648    3    0    1
 -2      1885      1576      3927      3586
 -1      2649    3    0    1
 -2       544      1028       543       939
 -1      2650    3    0    1
 -2       332       334      3850      1990
 -1      2651    3    0    1
 -2       223       728       729      1024
 -1      2652    3    0    1
 -2      1461      1460      2985      3060
 -1      2653    3    0    1
 -2       769        45      1217      1245
 -1      2654    3    0    1
 -2       130      2100      2191      2281
 -1      2655    3    0    1
 -2      3093      1517      1766      3228
 -1      2656    3    0    1
 -2      2093      2080      2158      2247
 -1      2657    3    0    1
 -2      3804      2853      3326      3335
 -1      2658    3    0    1
 -2       635      2105      2372      3767
 -1      2659    3    0    1
 -2       387      1061      2271      2341
 -1      2660    3    0    1
 -2      2095       425      2154      2509
 -1      2661    3    0    1
 -2       338       337      4004      4014
 -1      2662    3    0    1
 -2       176       994      2282      2563
 -1      2663    3    0    1
 -2      2077      2146      2246      2279
 -1      2664    3    0    1
 -2       983       367      2101      2251
 -1      2665    3    0    1
 -2        98       100      3829      1803
 -1      2666    3    0    1
 -2       425       997      2154      2509
 -1      2667    3    0    1
 -2      2074      2217      2357      2370
 -1      2668    3    0    1
 -2       543       731      1024      1028
 -1      2669    3    0    1
 -2       213      1023      3850      1990
 -1      2670    3    0    1
 -2       334       213      3850      1990
 -1      2671    3    0    1
 -2       341       747       397      1318
 -1      2672    3    0    1
 -2       290       353      1068      2525
 -1      2673    3    0    1
 -2       224      1032      2376      2454
 -1      2674    3    0    1
 -2       741       226       336      1030
 -1      2675    3    0    1
 -2       226       741       737      1030
 -1      2676    3    0    1
 -2      1317      2349      2413      2429
 -1      2677    3    0    1
 -2       511       526      2611      3754
 -1      2678    3    0    1
 -2      1598      1436      1599      3084
 -1      2679    3    0    1
 -2       398       226       730      1031
 -1      2680    3    0    1
 -2       730       226      1030      1031
 -1      2681    3    0    1
 -2       229       730       742      1031
 -1      2682    3    0    1
 -2       229       398       730      1031
 -1      2683    3    0    1
 -2       576      2240      2398      2511
 -1      2684    3    0    1
 -2       765       764      1198      1323
 -1      2685    3    0    1
 -2      2108      2084      2313      2343
 -1      2686    3    0    1
 -2       383       380      2062      2104
 -1      2687    3    0    1
 -2       298       296      2222      2243
 -1      2688    3    0    1
 -2      3977       430      3983      3712
 -1      2689    3    0    1
 -2       515       514       756      1033
 -1      2690    3    0    1
 -2       497      1326       496       774
 -1      2691    3    0    1
 -2       682       689       690      2657
 -1      2692    3    0    1
 -2       766      1040      1199      1326
 -1      2693    3    0    1
 -2      1218       512      1220      2722
 -1      2694    3    0    1
 -2       440       312      1115      2165
 -1      2695    3    0    1
 -2      1303       661      2810      2811
 -1      2696    3    0    1
 -2       875       876      2090      2131
 -1      2697    3    0    1
 -2       733      1027      2817      2818
 -1      2698    3    0    1
 -2      2209      2081      2344      2425
 -1      2699    3    0    1
 -2       969       617      2583      2630
 -1      2700    3    0    1
 -2       397       341      2043      2071
 -1      2701    3    0    1
 -2      2203       998      2261      2356
 -1      2702    3    0    1
 -2       966      1292      2088      2250
 -1      2703    3    0    1
 -2      2354      2058      2502      2503
 -1      2704    3    0    1
 -2       754      1322      2675      2676
 -1      2705    3    0    1
 -2       340       241       755      1037
 -1      2706    3    0    1
 -2       755       241       759      1037
 -1      2707    3    0    1
 -2      2638      3918      3943      3996
 -1      2708    3    0    1
 -2       426       425      2080      2247
 -1      2709    3    0    1
 -2      2199      2080      2247      2259
 -1      2710    3    0    1
 -2      2205      2173      2208      2291
 -1      2711    3    0    1
 -2       755       396       340      1038
 -1      2712    3    0    1
 -2       755       340      1037      1038
 -1      2713    3    0    1
 -2      1237      2646      2867      3805
 -1      2714    3    0    1
 -2       394       396       748      1038
 -1      2715    3    0    1
 -2       394       748       760      1038
 -1      2716    3    0    1
 -2      1317       226      2375      2444
 -1      2717    3    0    1
 -2       748       755      1145      2676
 -1      2718    3    0    1
 -2       353      2525      2558      3824
 -1      2719    3    0    1
 -2       351       267       787      1327
 -1      2720    3    0    1
 -2       491      1329       490       792
 -1      2721    3    0    1
 -2      3319      1472      3368      3982
 -1      2722    3    0    1
 -2      2966      3275      3352      3926
 -1      2723    3    0    1
 -2      3783      2854      3836      3908
 -1      2724    3    0    1
 -2       496      1199      1040      1326
 -1      2725    3    0    1
 -2       791      1049      1190      1329
 -1      2726    3    0    1
 -2      2107       944      2410      2522
 -1      2727    3    0    1
 -2       347      1035      1319      2411
 -1      2728    3    0    1
 -2      2896      1525      1681      1682
 -1      2729    3    0    1
 -2      2305      2461      2546      3159
 -1      2730    3    0    1
 -2       752       753      1035      2722
 -1      2731    3    0    1
 -2      1418      1417      3022      3044
 -1      2732    3    0    1
 -2      1367       853      1366      2408
 -1      2733    3    0    1
 -2      1398       881      2109      2321
 -1      2734    3    0    1
 -2      1783      1578      3289      3873
 -1      2735    3    0    1
 -2      1303      2517      2777      3882
 -1      2736    3    0    1
 -2       347      1039      3820      1950
 -1      2737    3    0    1
 -2      1427      1428      3691      3707
 -1      2738    3    0    1
 -2      2632      2604      2856      3805
 -1      2739    3    0    1
 -2       766       252       773      1045
 -1      2740    3    0    1
 -2       130       966      2088      2250
 -1      2741    3    0    1
 -2       790       787       928      2679
 -1      2742    3    0    1
 -2       777       252       256      1045
 -1      2743    3    0    1
 -2       252       777       773      1045
 -1      2744    3    0    1
 -2      3857      3390      3914      3513
 -1      2745    3    0    1
 -2      1687      3187      3659      3694
 -1      2746    3    0    1
 -2       169       173       996      2710
 -1      2747    3    0    1
 -2       259       252       766      1046
 -1      2748    3    0    1
 -2       766       252      1045      1046
 -1      2749    3    0    1
 -2       259       778       260      1046
 -1      2750    3    0    1
 -2       778       259       766      1046
 -1      2751    3    0    1
 -2       957       589      2042      2501
 -1      2752    3    0    1
 -2       481      1174      2678      2679
 -1      2753    3    0    1
 -2       943      1279      2194      2447
 -1      2754    3    0    1
 -2       490       491       792      1048
 -1      2755    3    0    1
 -2       491      1048      1188      1189
 -1      2756    3    0    1
 -2       252      1040      1326      2457
 -1      2757    3    0    1
 -2       790       267      1053      2032
 -1      2758    3    0    1
 -2       787      1053      1056      2679
 -1      2759    3    0    1
 -2      1081      2057      2148      2188
 -1      2760    3    0    1
 -2      2091      2061      2290      2391
 -1      2761    3    0    1
 -2       169       993      2147      2710
 -1      2762    3    0    1
 -2      1574      1642      1643      3436
 -1      2763    3    0    1
 -2      1042       769      1324      2732
 -1      2764    3    0    1
 -2       381       382      1071      2308
 -1      2765    3    0    1
 -2      2121      2074      2132      2357
 -1      2766    3    0    1
 -2      1684      1683      1881      3410
 -1      2767    3    0    1
 -2       770       771      1042      2733
 -1      2768    3    0    1
 -2       573      1285      2369      2466
 -1      2769    3    0    1
 -2      2217       150      2280      2329
 -1      2770    3    0    1
 -2      2070      2112      2260      2267
 -1      2771    3    0    1
 -2      2181      2691      3781      3817
 -1      2772    3    0    1
 -2       386       783      1048      1052
 -1      2773    3    0    1
 -2       267       787       790      1053
 -1      2774    3    0    1
 -2      1636      1637      2982      3327
 -1      2775    3    0    1
 -2       267       351       787      1053
 -1      2776    3    0    1
 -2       752      1034      2749      2935
 -1      2777    3    0    1
 -2       169       660       663      3759
 -1      2778    3    0    1
 -2        95      2194      4013      3757
 -1      2779    3    0    1
 -2       947       952      3991      2033
 -1      2780    3    0    1
 -2      2065       436      2307      2450
 -1      2781    3    0    1
 -2       391       272       791      1054
 -1      2782    3    0    1
 -2       791       272       795      1054
 -1      2783    3    0    1
 -2      2114      2176      2222      2243
 -1      2784    3    0    1
 -2       787       913       928      2679
 -1      2785    3    0    1
 -2       796       269       784      1055
 -1      2786    3    0    1
 -2      1972      1762      1973      3613
 -1      2787    3    0    1
 -2       275       276       809      1063
 -1      2788    3    0    1
 -2      2552       200      2727      3987
 -1      2789    3    0    1
 -2       361       130      2088      2241
 -1      2790    3    0    1
 -2       509      1061       508       927
 -1      2791    3    0    1
 -2      2078      2072      2165      2293
 -1      2792    3    0    1
 -2       371       372       954      2330
 -1      2793    3    0    1
 -2       731      1024      1028      2445
 -1      2794    3    0    1
 -2      3799      1441      3822      3925
 -1      2795    3    0    1
 -2      3732       733      3761      3768
 -1      2796    3    0    1
 -2       368      2206      2276      2368
 -1      2797    3    0    1
 -2      2136      2152      2326      2327
 -1      2798    3    0    1
 -2       743      1029      1032      2376
 -1      2799    3    0    1
 -2       425       426       997      2361
 -1      2800    3    0    1
 -2      1060       808      2649      2650
 -1      2801    3    0    1
 -2      1192       787      2730      2731
 -1      2802    3    0    1
 -2       945       381      2308      2549
 -1      2803    3    0    1
 -2        55      1209       805       925
 -1      2804    3    0    1
 -2      3842      3946      3965      4015
 -1      2805    3    0    1
 -2       385       800      1057      1061
 -1      2806    3    0    1
 -2       385       801       800      1061
 -1      2807    3    0    1
 -2       508       803      1057      1061
 -1      2808    3    0    1
 -2       294      1396      1122      2316
 -1      2809    3    0    1
 -2      2081      2209      2263      2425
 -1      2810    3    0    1
 -2       351      1056      3939      1976
 -1      2811    3    0    1
 -2       350       351      3939      1976
 -1      2812    3    0    1
 -2      2122      2158      2189      2211
 -1      2813    3    0    1
 -2      1310      3801      3818      3915
 -1      2814    3    0    1
 -2       802       275       809      1063
 -1      2815    3    0    1
 -2       375      1278      2380      2410
 -1      2816    3    0    1
 -2       813       276       388      1063
 -1      2817    3    0    1
 -2       276       813       809      1063
 -1      2818    3    0    1
 -2       734       735      2817      2884
 -1      2819    3    0    1
 -2       275       814       283      1064
 -1      2820    3    0    1
 -2       814       275       802      1064
 -1      2821    3    0    1
 -2       689       690      2166      2451
 -1      2822    3    0    1
 -2      1337      3824      1877      1878
 -1      2823    3    0    1
 -2      1337       353      3824      1878
 -1      2824    3    0    1
 -2       108      2205      2208      2291
 -1      2825    3    0    1
 -2      2059      2153      2289      2423
 -1      2826    3    0    1
 -2       825       820       922      1066
 -1      2827    3    0    1
 -2      2097      1052      2164      2352
 -1      2828    3    0    1
 -2      2047       272      2353      2373
 -1      2829    3    0    1
 -2       824       353      1072      1337
 -1      2830    3    0    1
 -2      2825       750      3488      3630
 -1      2831    3    0    1
 -2       503      1066       502       826
 -1      2832    3    0    1
 -2      1093      2077      2182      2363
 -1      2833    3    0    1
 -2      2118      2086      2043      2071
 -1      2834    3    0    1
 -2       288       287       825      1336
 -1      2835    3    0    1
 -2        96       550       557      1281
 -1      2836    3    0    1
 -2       993      2147      2282      2547
 -1      2837    3    0    1
 -2      2665       628      2666      2975
 -1      2838    3    0    1
 -2      1342       294      1339      2297
 -1      2839    3    0    1
 -2       726       725      1023      2348
 -1      2840    3    0    1
 -2       666      1305      2254      2483
 -1      2841    3    0    1
 -2       744       743      1031      2671
 -1      2842    3    0    1
 -2      2068      2096      2266      2283
 -1      2843    3    0    1
 -2       290       821      1072      1804
 -1      2844    3    0    1
 -2      1577      3808      1771      3894
 -1      2845    3    0    1
 -2       360      1287      2364      2407
 -1      2846    3    0    1
 -2       829       288       384      1070
 -1      2847    3    0    1
 -2       288       829       825      1070
 -1      2848    3    0    1
 -2       944      1278      2107      2410
 -1      2849    3    0    1
 -2       820       287       825      1071
 -1      2850    3    0    1
 -2      2729      3019      3202      3203
 -1      2851    3    0    1
 -2       287       288       825      1071
 -1      2852    3    0    1
 -2       825       288      1070      1071
 -1      2853    3    0    1
 -2       287       830       382      1071
 -1      2854    3    0    1
 -2       830       287       820      1071
 -1      2855    3    0    1
 -2      1504      1503      1764      3214
 -1      2856    3    0    1
 -2       418       211      2343      2350
 -1      2857    3    0    1
 -2      1378       863       864      2363
 -1      2858    3    0    1
 -2       426       425      2128      2361
 -1      2859    3    0    1
 -2      3810      3855      3922      3969
 -1      2860    3    0    1
 -2       207       424      2245      2303
 -1      2861    3    0    1
 -2      1395       877       878      2209
 -1      2862    3    0    1
 -2      1312       717       715      2432
 -1      2863    3    0    1
 -2      1334      2400      2418      2525
 -1      2864    3    0    1
 -2       425      2095      2247      2509
 -1      2865    3    0    1
 -2       404      2129      2253      2264
 -1      2866    3    0    1
 -2       974       150      2130      2336
 -1      2867    3    0    1
 -2      2066      2224      2229      2331
 -1      2868    3    0    1
 -2      2245       694      2328      2359
 -1      2869    3    0    1
 -2      2096      2266      2283      2471
 -1      2870    3    0    1
 -2       960       587       961      2574
 -1      2871    3    0    1
 -2       774       767      1043      2495
 -1      2872    3    0    1
 -2       403      2183      2185      2419
 -1      2873    3    0    1
 -2       211      2152      2317      2326
 -1      2874    3    0    1
 -2      2061      2099      2162      2318
 -1      2875    3    0    1
 -2      1001      2160      2198      2360
 -1      2876    3    0    1
 -2       661      1304       990      2399
 -1      2877    3    0    1
 -2      1378       306      1094      2255
 -1      2878    3    0    1
 -2       451       452      1133      2657
 -1      2879    3    0    1
 -2       604       963      2268      2412
 -1      2880    3    0    1
 -2       859      2273      2362      2390
 -1      2881    3    0    1
 -2       606       614       970      1998
 -1      2882    3    0    1
 -2      2099      2184      2318      2465
 -1      2883    3    0    1
 -2      1015       211      2110      2326
 -1      2884    3    0    1
 -2      2247      2095      2381      2509
 -1      2885    3    0    1
 -2       544      1317       543       738
 -1      2886    3    0    1
 -2      2064       385      2325      2453
 -1      2887    3    0    1
 -2      1342      2150      2289      2297
 -1      2888    3    0    1
 -2       994       671      2547      2563
 -1      2889    3    0    1
 -2      2549       381        96       945
 -1      2890    3    0    1
 -2      1062       349      2415      2548
 -1      2891    3    0    1
 -2      2131      2072      2165      2388
 -1      2892    3    0    1
 -2      2054      2101      2231      2251
 -1      2893    3    0    1
 -2       604      2268      2365      2412
 -1      2894    3    0    1
 -2       963       362      2268      2412
 -1      2895    3    0    1
 -2       708       707      2664      3747
 -1      2896    3    0    1
 -2      2081      2142      2156      2263
 -1      2897    3    0    1
 -2      2067       390      2202      2342
 -1      2898    3    0    1
 -2      2100       966      2250      2264
 -1      2899    3    0    1
 -2       770      1324      2163      2435
 -1      2900    3    0    1
 -2      2116      2192      2312      2362
 -1      2901    3    0    1
 -2      2384      1321      2513      2515
 -1      2902    3    0    1
 -2       196       429      1010      2048
 -1      2903    3    0    1
 -2       684      1001      2198      2360
 -1      2904    3    0    1
 -2       735      2314      2432      2488
 -1      2905    3    0    1
 -2      1603      2846      1888      1889
 -1      2906    3    0    1
 -2       425       426      2128      2247
 -1      2907    3    0    1
 -2      1033       749      2195      2234
 -1      2908    3    0    1
 -2      1376      1092      2333      2371
 -1      2909    3    0    1
 -2      2086      2118      2043      2401
 -1      2910    3    0    1
 -2       108      2205      2291      2306
 -1      2911    3    0    1
 -2      3989       263      2031      2032
 -1      2912    3    0    1
 -2      2067      2119      2238      2244
 -1      2913    3    0    1
 -2      2049       360      2269      2285
 -1      2914    3    0    1
 -2       733       740      3761      3768
 -1      2915    3    0    1
 -2      2814      2736      3172      3980
 -1      2916    3    0    1
 -2       768       763      1543      3389
 -1      2917    3    0    1
 -2      1050      1331      2355      3806
 -1      2918    3    0    1
 -2      2085      2461      2494      2561
 -1      2919    3    0    1
 -2      2157       600      2310      2382
 -1      2920    3    0    1
 -2       290      1068      1334      2525
 -1      2921    3    0    1
 -2       111       372       948      2422
 -1      2922    3    0    1
 -2      2071      1076      2086      2235
 -1      2923    3    0    1
 -2      2613      3842      3965      4015
 -1      2924    3    0    1
 -2       963       604      2171      2412
 -1      2925    3    0    1
 -2      2117      2174      2182      2363
 -1      2926    3    0    1
 -2      1444      1443      1781      3431
 -1      2927    3    0    1
 -2       368      2117      2206      2311
 -1      2928    3    0    1
 -2      2061      2089      2099      2465
 -1      2929    3    0    1
 -2       752      1034      2163      2460
 -1      2930    3    0    1
 -2      1333      2104      2377       380
 -1      2931    3    0    1
 -2      1619       402      3823      3923
 -1      2932    3    0    1
 -2      1057       385      1061      2271
 -1      2933    3    0    1
 -2      1283       568      2123      2212
 -1      2934    3    0    1
 -2      1748      3030      3167      3456
 -1      2935    3    0    1
 -2      2196      2206      2311      2368
 -1      2936    3    0    1
 -2      1346       300      1347      2262
 -1      2937    3    0    1
 -2      1900      3411      1901      3490
 -1      2938    3    0    1
 -2      1009       697      1309      2508
 -1      2939    3    0    1
 -2      2735       459      2736      2813
 -1      2940    3    0    1
 -2      2085      2461      2536      2546
 -1      2941    3    0    1
 -2       341      1036      2043      2526
 -1      2942    3    0    1
 -2       592       958       589      2713
 -1      2943    3    0    1
 -2      1318      2151      2230      2234
 -1      2944    3    0    1
 -2       484      1286       568       576
 -1      2945    3    0    1
 -2       551        95       943      1279
 -1      2946    3    0    1
 -2       320       330      1365      2170
 -1      2947    3    0    1
 -2      2128       425      2247      2509
 -1      2948    3    0    1
 -2      2189      2122      2211      2442
 -1      2949    3    0    1
 -2       217      1016      1314      2504
 -1      2950    3    0    1
 -2      2081      2108      2156      2301
 -1      2951    3    0    1
 -2      3798      3822      3856      4025
 -1      2952    3    0    1
 -2      2049       360      2138      2269
 -1      2953    3    0    1
 -2      1006       196      2048      2359
 -1      2954    3    0    1
 -2       389       438      1103      2294
 -1      2955    3    0    1
 -2      2102       150      2217      2329
 -1      2956    3    0    1
 -2      2641       964      3815      3113
 -1      2957    3    0    1
 -2      2271       810      2319      2341
 -1      2958    3    0    1
 -2      2059      2091      2153      2391
 -1      2959    3    0    1
 -2       122       125       962      2310
 -1      2960    3    0    1
 -2       404       961       968      2248
 -1      2961    3    0    1
 -2      2233      2181      2691      3781
 -1      2962    3    0    1
 -2      1430      1429      3280      1925
 -1      2963    3    0    1
 -2       370      1338      2050      2221
 -1      2964    3    0    1
 -2      1030       743      1031      2458
 -1      2965    3    0    1
 -2      2134      2066      2229      2331
 -1      2966    3    0    1
 -2      2113      2063      2236      2309
 -1      2967    3    0    1
 -2       509      1332       508       810
 -1      2968    3    0    1
 -2        95       560       551      3756
 -1      2969    3    0    1
 -2      1112       883      2120      2132
 -1      2970    3    0    1
 -2       340       396      1321      2384
 -1      2971    3    0    1
 -2      2166      1004      2261      2303
 -1      2972    3    0    1
 -2      1052      2097      2335      2352
 -1      2973    3    0    1
 -2      2085      2462      2469      2546
 -1      2974    3    0    1
 -2       436      1110      1125      2307
 -1      2975    3    0    1
 -2       988      2160      2249      2298
 -1      2976    3    0    1
 -2      1048      1052      2335      2337
 -1      2977    3    0    1
 -2      2236      2325      2394      2473
 -1      2978    3    0    1
 -2       600       617       961      2248
 -1      2979    3    0    1
 -2      1324      2163      2435      2761
 -1      2980    3    0    1
 -2       822      1334      2400      2418
 -1      2981    3    0    1
 -2      2466      1279       573       552
 -1      2982    3    0    1
 -2      1103       871      1385      2294
 -1      2983    3    0    1
 -2      2305      2461      2494      2546
 -1      2984    3    0    1
 -2      1376       308      2371      2406
 -1      2985    3    0    1
 -2      1357       845      1356      2427
 -1      2986    3    0    1
 -2      1960       212      1968      3602
 -1      2987    3    0    1
 -2       388      2155      2319      2539
 -1      2988    3    0    1
 -2      2139      2286      2427      2516
 -1      2989    3    0    1
 -2       319      1382      2274      2471
 -1      2990    3    0    1
 -2      1019       720      1015      2110
 -1      2991    3    0    1
 -2      1402       880      1108      2309
 -1      2992    3    0    1
 -2       367      2126      2232      2251
 -1      2993    3    0    1
 -2      2324       779      2480      2760
 -1      2994    3    0    1
 -2      2206       368      2311      2368
 -1      2995    3    0    1
 -2       424      2245      2303      2493
 -1      2996    3    0    1
 -2      2346      2164      2352      2495
 -1      2997    3    0    1
 -2      1045       256      2421      2519
 -1      2998    3    0    1
 -2       215       331      3784      3797
 -1      2999    3    0    1
 -2       702      1010      2328      2359
 -1      3000    3    0    1
 -2      2047       272      2097      2353
 -1      3001    3    0    1
 -2       862       861      1092      2333
 -1      3002    3    0    1
 -2       216      1314      2239      2358
 -1      3003    3    0    1
 -2      2075      2286      2516      2557
 -1      3004    3    0    1
 -2      2054      2133      2216      2371
 -1      3005    3    0    1
 -2      2116      2192      2362      2390
 -1      3006    3    0    1
 -2       200       199      3987      2012
 -1      3007    3    0    1
 -2       366      1296      2101      2190
 -1      3008    3    0    1
 -2      1036      2220      2304      2386
 -1      3009    3    0    1
 -2      3167      3235      3456      3980
 -1      3010    3    0    1
 -2      1399      2199      2210      2383
 -1      3011    3    0    1
 -2      2188      2057      2486      2545
 -1      3012    3    0    1
 -2       628       625      2523      2543
 -1      3013    3    0    1
 -2      1645       680      3149      3154
 -1      3014    3    0    1
 -2      2114       251      2141      2151
 -1      3015    3    0    1
 -2      2438      2305      3777      3809
 -1      3016    3    0    1
 -2      2324       779      2421      2519
 -1      3017    3    0    1
 -2      1380      2283      2470      2537
 -1      3018    3    0    1
 -2       213      1312      2347      2551
 -1      3019    3    0    1
 -2       752       771      1319      2163
 -1      3020    3    0    1
 -2      1486      2838      1678      3035
 -1      3021    3    0    1
 -2       949      1285      3828      4021
 -1      3022    3    0    1
 -2       555       552       943      2447
 -1      3023    3    0    1
 -2      1856      1711       106      3153
 -1      3024    3    0    1
 -2       953       582       954      2169
 -1      3025    3    0    1
 -2       822       555      2418      2447
 -1      3026    3    0    1
 -2      1082       849      1362      2148
 -1      3027    3    0    1
 -2      2254      2177      2276      2483
 -1      3028    3    0    1
 -2      1291       599      2181      2310
 -1      3029    3    0    1
 -2      1292       604      2268      2365
 -1      3030    3    0    1
 -2       658       992       666      2254
 -1      3031    3    0    1
 -2      2174      2117      2182      2311
 -1      3032    3    0    1
 -2       312      1390      1389      2165
 -1      3033    3    0    1
 -2       873      1387      2176      2222
 -1      3034    3    0    1
 -2      2080      2199      2210      2259
 -1      3035    3    0    1
 -2       395      3820      1950      4000
 -1      3036    3    0    1
 -2       120      2129      2185      2382
 -1      3037    3    0    1
 -2      2091      2059      2153      2215
 -1      3038    3    0    1
 -2      1386      2223       871      2294
 -1      3039    3    0    1
 -2      2045       331      2347      2551
 -1      3040    3    0    1
 -2       872       871      1103      2294
 -1      3041    3    0    1
 -2      2071      1126      2144      2293
 -1      3042    3    0    1
 -2      2202      2223      2294      2378
 -1      3043    3    0    1
 -2       515      1321      1033       756
 -1      3044    3    0    1
 -2      2266       868      2283      2471
 -1      3045    3    0    1
 -2      2149      2164      2351      2352
 -1      3046    3    0    1
 -2       217      2302      2499      2504
 -1      3047    3    0    1
 -2      3482      1421      1973      3638
 -1      3048    3    0    1
 -2      2813      2833      3839      3980
 -1      3049    3    0    1
 -2      2219       630      2336      2477
 -1      3050    3    0    1
 -2       622       971      2295      2477
 -1      3051    3    0    1
 -2       974       630      2295      2336
 -1      3052    3    0    1
 -2       301       307      2192      2390
 -1      3053    3    0    1
 -2       308      1351       322      2406
 -1      3054    3    0    1
 -2      1025       731      1317      2375
 -1      3055    3    0    1
 -2       816       815      1065      2415
 -1      3056    3    0    1
 -2      2091      2061      2391      2465
 -1      3057    3    0    1
 -2      1391       875       876      2090
 -1      3058    3    0    1
 -2       207      1004      1012      2303
 -1      3059    3    0    1
 -2      2063      2187      2325      2473
 -1      3060    3    0    1
 -2       810      1332      2319      2540
 -1      3061    3    0    1
 -2      1341       835      1340      2289
 -1      3062    3    0    1
 -2      2231       367      2232      2251
 -1      3063    3    0    1
 -2      1590      3396      1897      1898
 -1      3064    3    0    1
 -2      1379       865       866      2215
 -1      3065    3    0    1
 -2      2446       343      2483      2563
 -1      3066    3    0    1
 -2       111       401      2169      2240
 -1      3067    3    0    1
 -2       140       135       969      2430
 -1      3068    3    0    1
 -2      2874      3075      3239      3578
 -1      3069    3    0    1
 -2       804       799      1632      3316
 -1      3070    3    0    1
 -2       859      1375      1089      2390
 -1      3071    3    0    1
 -2      1352      1355      2158      2189
 -1      3072    3    0    1
 -2      3038      1491      3823      1797
 -1      3073    3    0    1
 -2       387       385      2115      2271
 -1      3074    3    0    1
 -2       720       712      2110      2358
 -1      3075    3    0    1
 -2      1522      1523      1723      3622
 -1      3076    3    0    1
 -2      1346      1347      2145      2262
 -1      3077    3    0    1
 -2      2290      2061      2420      2465
 -1      3078    3    0    1
 -2      1571      3182      1929      1930
 -1      3079    3    0    1
 -2      1995       406      1996      2002
 -1      3080    3    0    1
 -2      1752      1943      1944      3596
 -1      3081    3    0    1
 -2      1372       305      1369      2322
 -1      3082    3    0    1
 -2      2329      2053      2408      2456
 -1      3083    3    0    1
 -2      2131      2072      2144      2165
 -1      3084    3    0    1
 -2      3834      2980      3857      3875
 -1      3085    3    0    1
 -2       191       683       687      1130
 -1      3086    3    0    1
 -2       191       192       683      1130
 -1      3087    3    0    1
 -2       685        13       188      1131
 -1      3088    3    0    1
 -2        13       685       682      1131
 -1      3089    3    0    1
 -2       682        13      1131      1132
 -1      3090    3    0    1
 -2         3       686         5      1132
 -1      3091    3    0    1
 -2       686         3       678      1132
 -1      3092    3    0    1
 -2       192         4       683      1133
 -1      3093    3    0    1
 -2       192       683      1130      1133
 -1      3094    3    0    1
 -2       688         4         6      1133
 -1      3095    3    0    1
 -2         4       688       677      1133
 -1      3096    3    0    1
 -2      2618      2617      2842      3801
 -1      3097    3    0    1
 -2      3093      3017      1766      3407
 -1      3098    3    0    1
 -2         7       642       650      1135
 -1      3099    3    0    1
 -2         7       161       642      1135
 -1      3100    3    0    1
 -2       157       652       641      1136
 -1      3101    3    0    1
 -2        78      1138      1137       660
 -1      3102    3    0    1
 -2       713       719      1259      2639
 -1      3103    3    0    1
 -2       667        78       178      1137
 -1      3104    3    0    1
 -2        78       667       663      1137
 -1      3105    3    0    1
 -2       697      1009      1309      2617
 -1      3106    3    0    1
 -2       455      1139       659       456
 -1      3107    3    0    1
 -2       599      2185      2310      2382
 -1      3108    3    0    1
 -2       762       761      1038      2676
 -1      3109    3    0    1
 -2      2467      2399      3779      3799
 -1      3110    3    0    1
 -2       805      1214       808      3641
 -1      3111    3    0    1
 -2      3298      1791      3339      3895
 -1      3112    3    0    1
 -2        96      2491      3765      4030
 -1      3113    3    0    1
 -2      1501      1500      1607      3036
 -1      3114    3    0    1
 -2        84       718       901      1143
 -1      3115    3    0    1
 -2      3174      2682      1895      1896
 -1      3116    3    0    1
 -2       238       755       897      1145
 -1      3117    3    0    1
 -2       755       243       748      1145
 -1      3118    3    0    1
 -2       760       243       244      1145
 -1      3119    3    0    1
 -2       243       760       748      1145
 -1      3120    3    0    1
 -2      1791      3186      3339      3895
 -1      3121    3    0    1
 -2      3779      3925      3957      3986
 -1      3122    3    0    1
 -2       618       970      2372      2589
 -1      3123    3    0    1
 -2       642       464      1135      1150
 -1      3124    3    0    1
 -2       464       642       645      1150
 -1      3125    3    0    1
 -2       642        70       645      1150
 -1      3126    3    0    1
 -2       161        70       642      1150
 -1      3127    3    0    1
 -2       161       642      1135      1150
 -1      3128    3    0    1
 -2       649        70       166      1150
 -1      3129    3    0    1
 -2        70       649       645      1150
 -1      3130    3    0    1
 -2        14       606       614      1151
 -1      3131    3    0    1
 -2        14        16       606      1151
 -1      3132    3    0    1
 -2      2722      2721      2948      3025
 -1      3133    3    0    1
 -2       138       132       611      1152
 -1      3134    3    0    1
 -2       138       611       905      1152
 -1      3135    3    0    1
 -2       616       132       142      1152
 -1      3136    3    0    1
 -2       132       616       605      1152
 -1      3137    3    0    1
 -2       611       904       132      1154
 -1      3138    3    0    1
 -2        15       603       602      1155
 -1      3139    3    0    1
 -2       602       966      1153      1155
 -1      3140    3    0    1
 -2        15       602      1153      1155
 -1      3141    3    0    1
 -2      3078      3027      3884      3592
 -1      3142    3    0    1
 -2      1577      1634      3800      3428
 -1      3143    3    0    1
 -2      2990      2909      3138      3611
 -1      3144    3    0    1
 -2      1917      3384      3520      3936
 -1      3145    3    0    1
 -2       553       449      1611      3034
 -1      3146    3    0    1
 -2       470       465       609      1160
 -1      3147    3    0    1
 -2       609       465      1151      1160
 -1      3148    3    0    1
 -2       613        17       137      1160
 -1      3149    3    0    1
 -2        17       613       609      1160
 -1      3150    3    0    1
 -2      2136       416      2152      2288
 -1      3151    3    0    1
 -2       661      1304       664      3798
 -1      3152    3    0    1
 -2      2573      2629      2854      3836
 -1      3153    3    0    1
 -2       550      1170       477       557
 -1      3154    3    0    1
 -2       570       574      1165      2688
 -1      3155    3    0    1
 -2      1284       570      2687      2688
 -1      3156    3    0    1
 -2        18        20      2003      2005
 -1      3157    3    0    1
 -2       182        12      1879      1907
 -1      3158    3    0    1
 -2      3794      3889      3579      3952
 -1      3159    3    0    1
 -2        34       574      1163      1165
 -1      3160    3    0    1
 -2      3180      3197      3512      3951
 -1      3161    3    0    1
 -2       477      1170       478       557
 -1      3162    3    0    1
 -2      1170       550       477      1169
 -1      3163    3    0    1
 -2       550        26       562      1169
 -1      3164    3    0    1
 -2        30        26       550      1169
 -1      3165    3    0    1
 -2        27       559       556      1171
 -1      3166    3    0    1
 -2       608       601      1867      3401
 -1      3167    3    0    1
 -2      1278       912       547      1172
 -1      3168    3    0    1
 -2       756      1321      2439      2515
 -1      3169    3    0    1
 -2        31       784       929      1174
 -1      3170    3    0    1
 -2       796        31       270      1174
 -1      3171    3    0    1
 -2        31       796       784      1174
 -1      3172    3    0    1
 -2       585       121       584      1175
 -1      3173    3    0    1
 -2       690       707      1012      2303
 -1      3174    3    0    1
 -2       482      1177       483       956
 -1      3175    3    0    1
 -2       588       122       958      1288
 -1      3176    3    0    1
 -2       482      1177       956      1176
 -1      3177    3    0    1
 -2       483      1287       482       586
 -1      3178    3    0    1
 -2      2803      3825      3919      3949
 -1      3179    3    0    1
 -2       485      1286       568       484
 -1      3180    3    0    1
 -2        33       566       914      1181
 -1      3181    3    0    1
 -2      1286       485       948      1179
 -1      3182    3    0    1
 -2       584       360       959      1287
 -1      3183    3    0    1
 -2       485      1286       948       568
 -1      3184    3    0    1
 -2       485      1283      1181       484
 -1      3185    3    0    1
 -2       485      1283       484       568
 -1      3186    3    0    1
 -2       352      1567      3845      1942
 -1      3187    3    0    1
 -2       569       109       915      1182
 -1      3188    3    0    1
 -2       569       112       109      1182
 -1      3189    3    0    1
 -2       112       579       118      1182
 -1      3190    3    0    1
 -2       579       112       575      1182
 -1      3191    3    0    1
 -2        34       577       574      1183
 -1      3192    3    0    1
 -2       598        32       128      1184
 -1      3193    3    0    1
 -2        32       598       587      1184
 -1      3194    3    0    1
 -2        37       595       591      1186
 -1      3195    3    0    1
 -2       588      1186        22       591
 -1      3196    3    0    1
 -2      2535      3791      3810      3969
 -1      3197    3    0    1
 -2       769      1196       772        45
 -1      3198    3    0    1
 -2      2109       881      2227      2321
 -1      3199    3    0    1
 -2       491      1329      1190       490
 -1      3200    3    0    1
 -2       783       265      1188      1189
 -1      3201    3    0    1
 -2      1048       783      1188      1189
 -1      3202    3    0    1
 -2      2174      2196      2206      2311
 -1      3203    3    0    1
 -2      1049       490      1187      1190
 -1      3204    3    0    1
 -2       569       112      1182       575
 -1      3205    3    0    1
 -2       830       820      1204      2614
 -1      3206    3    0    1
 -2      3287      3068      3926      3935
 -1      3207    3    0    1
 -2      1983      1982      3721      3728
 -1      3208    3    0    1
 -2        44       790       918      1192
 -1      3209    3    0    1
 -2      2770      3502      3673      3992
 -1      3210    3    0    1
 -2      2920      3310      3867      3517
 -1      3211    3    0    1
 -2       252       766       773      1326
 -1      3212    3    0    1
 -2        45      1196       772        48
 -1      3213    3    0    1
 -2      2718      3964      2009      3700
 -1      3214    3    0    1
 -2       948       568      2398      2422
 -1      3215    3    0    1
 -2      1473      2706      3448      3687
 -1      3216    3    0    1
 -2       140       362       963      2412
 -1      3217    3    0    1
 -2       764       249       765      1198
 -1      3218    3    0    1
 -2       920      1323       764      1043
 -1      3219    3    0    1
 -2       770      2163      3189      3505
 -1      3220    3    0    1
 -2       766      1040      1195      1199
 -1      3221    3    0    1
 -2      1906      3317      1907      3739
 -1      3222    3    0    1
 -2        49        50       824      1203
 -1      3223    3    0    1
 -2      2463       969      2105       618
 -1      3224    3    0    1
 -2      1627      3816      3637      2008
 -1      3225    3    0    1
 -2      1498      1816      1817      3274
 -1      3226    3    0    1
 -2       275      2528      2555      2564
 -1      3227    3    0    1
 -2      2659      2660      2979      3846
 -1      3228    3    0    1
 -2       625      2523      2543      2684
 -1      3229    3    0    1
 -2      1316      3101      3929      2017
 -1      3230    3    0    1
 -2      3794      1026      3887      3929
 -1      3231    3    0    1
 -2        49       828       289      1203
 -1      3232    3    0    1
 -2       828        49       821      1203
 -1      3233    3    0    1
 -2      1613      1630      3170      3284
 -1      3234    3    0    1
 -2       830        53       293      1204
 -1      3235    3    0    1
 -2        53       830       820      1204
 -1      3236    3    0    1
 -2       829        54       825      1205
 -1      3237    3    0    1
 -2       501       500       824      1206
 -1      3238    3    0    1
 -2       824       500      1203      1206
 -1      3239    3    0    1
 -2       827        50       292      1206
 -1      3240    3    0    1
 -2        50       827       824      1206
 -1      3241    3    0    1
 -2       285       817       818      1207
 -1      3242    3    0    1
 -2       923      1333       818      1069
 -1      3243    3    0    1
 -2       285       818       923      1207
 -1      3244    3    0    1
 -2       922       825        53       820
 -1      3245    3    0    1
 -2       825       922        53      1208
 -1      3246    3    0    1
 -2      3452      3570      1995      1996
 -1      3247    3    0    1
 -2       805      1214        55       808
 -1      3248    3    0    1
 -2      1722      1522      1723      3622
 -1      3249    3    0    1
 -2      1214       805        55      1211
 -1      3250    3    0    1
 -2      3332      3540      3541      3622
 -1      3251    3    0    1
 -2        57       812       279      1211
 -1      3252    3    0    1
 -2       812        57       805      1211
 -1      3253    3    0    1
 -2       802        59       814      1212
 -1      3254    3    0    1
 -2        60        59       802      1212
 -1      3255    3    0    1
 -2        55       811       808      1214
 -1      3256    3    0    1
 -2      3540      1722      3541      3622
 -1      3257    3    0    1
 -2       802        58       809      1216
 -1      3258    3    0    1
 -2       923      1333       502      1207
 -1      3259    3    0    1
 -2      2728      3826      3907      3717
 -1      3260    3    0    1
 -2      2058      2173      2291      2396
 -1      3261    3    0    1
 -2      1350      2092      2192      2216
 -1      3262    3    0    1
 -2      3871      1783      3481      3719
 -1      3263    3    0    1
 -2       775        48       262      1217
 -1      3264    3    0    1
 -2        48       775       772      1217
 -1      3265    3    0    1
 -2       513       512      1218      2722
 -1      3266    3    0    1
 -2      1033       515      1223      1225
 -1      3267    3    0    1
 -2       754      1035      2721      2722
 -1      3268    3    0    1
 -2      3234      3331      3881      3979
 -1      3269    3    0    1
 -2      1225       243       755       238
 -1      3270    3    0    1
 -2       748       755      1033      1223
 -1      3271    3    0    1
 -2      1652      3833      3918      3996
 -1      3272    3    0    1
 -2       232       747       746      1224
 -1      3273    3    0    1
 -2       746      1036      1222      1224
 -1      3274    3    0    1
 -2       232       746      1222      1224
 -1      3275    3    0    1
 -2       755      1223       243      1225
 -1      3276    3    0    1
 -2      1243       624        65      1226
 -1      3277    3    0    1
 -2        65      1243       149       627
 -1      3278    3    0    1
 -2        65       632       152      1226
 -1      3279    3    0    1
 -2       632        65       624      1226
 -1      3280    3    0    1
 -2        71       639       638      1239
 -1      3281    3    0    1
 -2       623        66       634      1227
 -1      3282    3    0    1
 -2        68        66       623      1227
 -1      3283    3    0    1
 -2       517      1232       520       971
 -1      3284    3    0    1
 -2       517      1232       971      1229
 -1      3285    3    0    1
 -2       751       758      1039      1950
 -1      3286    3    0    1
 -2       633        74       629      1234
 -1      3287    3    0    1
 -2       623      1234        68      1227
 -1      3288    3    0    1
 -2        68      1234       629        74
 -1      3289    3    0    1
 -2       639        71        72      1239
 -1      3290    3    0    1
 -2       627        73       631      1243
 -1      3291    3    0    1
 -2       683      1130      1133      2581
 -1      3292    3    0    1
 -2      1394       305       313      2322
 -1      3293    3    0    1
 -2        70       161       642      1238
 -1      3294    3    0    1
 -2       522      1300      1238       521
 -1      3295    3    0    1
 -2       522      1300       521       643
 -1      3296    3    0    1
 -2       982       521      1235      1238
 -1      3297    3    0    1
 -2       645       982      1235      1238
 -1      3298    3    0    1
 -2        70       645      1235      1238
 -1      3299    3    0    1
 -2      1302       524       980      1240
 -1      3300    3    0    1
 -2      3821      2433      3858      3901
 -1      3301    3    0    1
 -2       639       979      1239      1242
 -1      3302    3    0    1
 -2       524      1302       980       640
 -1      3303    3    0    1
 -2       524       523       979      1242
 -1      3304    3    0    1
 -2       979       523      1239      1242
 -1      3305    3    0    1
 -2       789      1327       788      2730
 -1      3306    3    0    1
 -2      3987      1011      3746      3758
 -1      3307    3    0    1
 -2       733        77       736      1244
 -1      3308    3    0    1
 -2       739        80       228      1244
 -1      3309    3    0    1
 -2        80       739       736      1244
 -1      3310    3    0    1
 -2      2987      2902      3277      3946
 -1      3311    3    0    1
 -2      3408      1915      3614      3988
 -1      3312    3    0    1
 -2      1795      3469      3958      2017
 -1      3313    3    0    1
 -2       411       147      3866      4002
 -1      3314    3    0    1
 -2      1436      1437      1599      3084
 -1      3315    3    0    1
 -2        78      1254       174       660
 -1      3316    3    0    1
 -2       460       459      2735      2813
 -1      3317    3    0    1
 -2      1254       660      2810      2811
 -1      3318    3    0    1
 -2      2725      2468      3786      3847
 -1      3319    3    0    1
 -2      2643      1490      3192      3253
 -1      3320    3    0    1
 -2      2697      3094      3350      3951
 -1      3321    3    0    1
 -2      2677      2598      3950      3964
 -1      3322    3    0    1
 -2        77       740        81      1255
 -1      3323    3    0    1
 -2       740        77       733      1255
 -1      3324    3    0    1
 -2       742        79       227      1256
 -1      3325    3    0    1
 -2        79       742       730      1256
 -1      3326    3    0    1
 -2       692      1264      1006      1261
 -1      3327    3    0    1
 -2       535      1264      1261      1006
 -1      3328    3    0    1
 -2        83       722       221      1257
 -1      3329    3    0    1
 -2       722        83       714      1257
 -1      3330    3    0    1
 -2      3811      2906      3047      3164
 -1      3331    3    0    1
 -2       724        86       218      1258
 -1      3332    3    0    1
 -2        86       724       713      1258
 -1      3333    3    0    1
 -2       713        86      1258      1259
 -1      3334    3    0    1
 -2        86       713       719      1259
 -1      3335    3    0    1
 -2        87       723       219      1259
 -1      3336    3    0    1
 -2       723        87       719      1259
 -1      3337    3    0    1
 -2        84       721       718      1260
 -1      3338    3    0    1
 -2       535      1264      1006       536
 -1      3339    3    0    1
 -2       296      1343      2235      2243
 -1      3340    3    0    1
 -2        92      1263       695       205
 -1      3341    3    0    1
 -2       692      1264       194       693
 -1      3342    3    0    1
 -2       935      1308       998       537
 -1      3343    3    0    1
 -2         4       192       683      1265
 -1      3344    3    0    1
 -2      1308       935       683      1265
 -1      3345    3    0    1
 -2       445      1107      2296      2345
 -1      3346    3    0    1
 -2       935       683         4       677
 -1      3347    3    0    1
 -2       683       935         4      1265
 -1      3348    3    0    1
 -2        88       675       674      1266
 -1      3349    3    0    1
 -2        88       674       934      1266
 -1      3350    3    0    1
 -2       539      1305      1267       989
 -1      3351    3    0    1
 -2        91       656       936      1269
 -1      3352    3    0    1
 -2         8      1268       659        90
 -1      3353    3    0    1
 -2      1166      2719      3227      3271
 -1      3354    3    0    1
 -2         9      1271      1270       696
 -1      3355    3    0    1
 -2       122       407      3781      1735
 -1      3356    3    0    1
 -2       703         9       206      1270
 -1      3357    3    0    1
 -2         9       703       700      1270
 -1      3358    3    0    1
 -2       728        93       729      1273
 -1      3359    3    0    1
 -2       746      1036      1224      1318
 -1      3360    3    0    1
 -2       573       950      1284      2688
 -1      3361    3    0    1
 -2       386       390      1052      2337
 -1      3362    3    0    1
 -2      1288       125      2225      2228
 -1      3363    3    0    1
 -2       545       546      1015      1276
 -1      3364    3    0    1
 -2      1275       719      1016      1277
 -1      3365    3    0    1
 -2      1114      1126      2071      2293
 -1      3366    3    0    1
 -2       546      1314      1277       545
 -1      3367    3    0    1
 -2       733       224      1027      1315
 -1      3368    3    0    1
 -2       299       315      2502      2503
 -1      3369    3    0    1
 -2      1016       545      1275      1277
 -1      3370    3    0    1
 -2       912      1278       479      1172
 -1      3371    3    0    1
 -2      1531      3452      1995      3990
 -1      3372    3    0    1
 -2      1029       224      1032      2376
 -1      3373    3    0    1
 -2      2219      2130      2268      2365
 -1      3374    3    0    1
 -2       184       190      2166      2356
 -1      3375    3    0    1
 -2       945        96      2549      3765
 -1      3376    3    0    1
 -2       541      1271       542      2662
 -1      3377    3    0    1
 -2      2057      2099      2486      2545
 -1      3378    3    0    1
 -2       141       404       968      2248
 -1      3379    3    0    1
 -2       550      1173       557      1281
 -1      3380    3    0    1
 -2       479       549       558      1281
 -1      3381    3    0    1
 -2      1173       550       911      1281
 -1      3382    3    0    1
 -2       479       941       549      1281
 -1      3383    3    0    1
 -2       941       479       911      1281
 -1      3384    3    0    1
 -2       479      1173       911      1281
 -1      3385    3    0    1
 -2       911       550       941      1281
 -1      3386    3    0    1
 -2       914       566       951      1283
 -1      3387    3    0    1
 -2      1053       797      2265      2496
 -1      3388    3    0    1
 -2      2116      2056      2196      2206
 -1      3389    3    0    1
 -2       484       576       568      1283
 -1      3390    3    0    1
 -2       484       951       576      1283
 -1      3391    3    0    1
 -2       914       484      1181      1283
 -1      3392    3    0    1
 -2       951       484       914      1283
 -1      3393    3    0    1
 -2       570       114       574      1284
 -1      3394    3    0    1
 -2      2354      2058      2396      2502
 -1      3395    3    0    1
 -2       574       114       950      1284
 -1      3396    3    0    1
 -2      3042      1488      3311      3312
 -1      3397    3    0    1
 -2       950       574      1284      2688
 -1      3398    3    0    1
 -2      2053      2102      2127      2242
 -1      3399    3    0    1
 -2       575       948      1179      1286
 -1      3400    3    0    1
 -2       948       575      1179       569
 -1      3401    3    0    1
 -2      2662       708      2664      3747
 -1      3402    3    0    1
 -2       595       122       591      3533
 -1      3403    3    0    1
 -2       485      1286       484      1179
 -1      3404    3    0    1
 -2      2071      2086      2112      2267
 -1      3405    3    0    1
 -2      2080      1355      2158      2259
 -1      3406    3    0    1
 -2       591       906      2713      2714
 -1      3407    3    0    1
 -2      3569      3921      3975      3752
 -1      3408    3    0    1
 -2       680       673      1645      3100
 -1      3409    3    0    1
 -2      2164      1052      2335      2352
 -1      3410    3    0    1
 -2      1484      1417      1485      3082
 -1      3411    3    0    1
 -2      3090      1588      1798      1799
 -1      3412    3    0    1
 -2      2254       666      2276      2368
 -1      3413    3    0    1
 -2       576       568      1283      2398
 -1      3414    3    0    1
 -2      1624      1538      1625      3320
 -1      3415    3    0    1
 -2      2074       361      2130      2217
 -1      3416    3    0    1
 -2       587       956      1176      1290
 -1      3417    3    0    1
 -2       593       587      1176      1290
 -1      3418    3    0    1
 -2       120       587       593      1290
 -1      3419    3    0    1
 -2      2099      2089      2184      2465
 -1      3420    3    0    1
 -2      1036      2386      2515      2526
 -1      3421    3    0    1
 -2       586      1290       482       956
 -1      3422    3    0    1
 -2      1350       301       307      2192
 -1      3423    3    0    1
 -2       587       120       956      1290
 -1      3424    3    0    1
 -2      2055       367      2126      2232
 -1      3425    3    0    1
 -2       283      1058      2137      2161
 -1      3426    3    0    1
 -2      3430      3878      3933      3552
 -1      3427    3    0    1
 -2       603       602      1155      1292
 -1      3428    3    0    1
 -2       130       603       361      1292
 -1      3429    3    0    1
 -2       606       133       965      1293
 -1      3430    3    0    1
 -2       602       130       966      1292
 -1      3431    3    0    1
 -2       603       130       602      1292
 -1      3432    3    0    1
 -2       771       752      1325      2163
 -1      3433    3    0    1
 -2      1321       340      2384      2513
 -1      3434    3    0    1
 -2       642       650      1135      2653
 -1      3435    3    0    1
 -2      2862      3818      3298      3895
 -1      3436    3    0    1
 -2       140      1295       611       135
 -1      3437    3    0    1
 -2      2257      2142      2263      2301
 -1      3438    3    0    1
 -2      2193       989      2254      2298
 -1      3439    3    0    1
 -2       904      1295       466      1154
 -1      3440    3    0    1
 -2       226       398      1025      2375
 -1      3441    3    0    1
 -2      1233       620       974      1296
 -1      3442    3    0    1
 -2       383      1069      2104      2379
 -1      3443    3    0    1
 -2       169       991      1303      2147
 -1      3444    3    0    1
 -2       150       621       366      1296
 -1      3445    3    0    1
 -2       620       150       974      1296
 -1      3446    3    0    1
 -2       621       150       620      1296
 -1      3447    3    0    1
 -2       624       147       973      1297
 -1      3448    3    0    1
 -2       114       950      2214      2367
 -1      3449    3    0    1
 -2      2086      2043      2112      2260
 -1      3450    3    0    1
 -2       957      2042      2438      2620
 -1      3451    3    0    1
 -2       672      2272      2282      2710
 -1      3452    3    0    1
 -2      2152      2075      2317      2326
 -1      3453    3    0    1
 -2       623       971      1229      1299
 -1      3454    3    0    1
 -2       629       623      1229      1299
 -1      3455    3    0    1
 -2       146       623       629      1299
 -1      3456    3    0    1
 -2      1436      1437      2962      3069
 -1      3457    3    0    1
 -2       816       831      2510      2558
 -1      3458    3    0    1
 -2       622      1299       517       971
 -1      3459    3    0    1
 -2       623       146       971      1299
 -1      3460    3    0    1
 -2       642       645      1238      1300
 -1      3461    3    0    1
 -2       982       521      1238      1300
 -1      3462    3    0    1
 -2       643       521       646      1300
 -1      3463    3    0    1
 -2       365       364      2366      2497
 -1      3464    3    0    1
 -2       645       414       982      1300
 -1      3465    3    0    1
 -2       646       521       982      1300
 -1      3466    3    0    1
 -2      1283       108      2212      2306
 -1      3467    3    0    1
 -2       647       980      1240      1302
 -1      3468    3    0    1
 -2       980       647      1240       641
 -1      3469    3    0    1
 -2       885       895      2287      2393
 -1      3470    3    0    1
 -2       524      1302       523      1240
 -1      3471    3    0    1
 -2      1605      1585      3802      3841
 -1      3472    3    0    1
 -2       134       964      3815      3855
 -1      3473    3    0    1
 -2      2069      2096      2274      2475
 -1      3474    3    0    1
 -2      2318      2162      2420      2486
 -1      3475    3    0    1
 -2       763      1543      1544      3648
 -1      3476    3    0    1
 -2       883      2120      2121      2476
 -1      3477    3    0    1
 -2       676       684      2256      2361
 -1      3478    3    0    1
 -2       707      1011      1014      2512
 -1      3479    3    0    1
 -2       658      1305       539       989
 -1      3480    3    0    1
 -2      1319       752      2163      2464
 -1      3481    3    0    1
 -2      3436      3345      3906      3907
 -1      3482    3    0    1
 -2      1785      1488      1786      3240
 -1      3483    3    0    1
 -2       683       677      1004      2657
 -1      3484    3    0    1
 -2      2056      2174      2196      2206
 -1      3485    3    0    1
 -2       853      1367       854      2408
 -1      3486    3    0    1
 -2      2369       942      2447      2466
 -1      3487    3    0    1
 -2       683       998       184       677
 -1      3488    3    0    1
 -2       998       683       184      1308
 -1      3489    3    0    1
 -2       935      1308       537      1265
 -1      3490    3    0    1
 -2      1014      2387      2512      3784
 -1      3491    3    0    1
 -2       619      3454      1978      1979
 -1      3492    3    0    1
 -2       679      1306      2213      2727
 -1      3493    3    0    1
 -2       658      1305       989      2254
 -1      3494    3    0    1
 -2       878      1394      2209      2322
 -1      3495    3    0    1
 -2      1039      1044      3820      1949
 -1      3496    3    0    1
 -2      1236      1237      2646      2867
 -1      3497    3    0    1
 -2      1400       883       888      2120
 -1      3498    3    0    1
 -2       695      1007      1262      1311
 -1      3499    3    0    1
 -2       701       695      1262      1311
 -1      3500    3    0    1
 -2       204       695       701      1311
 -1      3501    3    0    1
 -2      1394       313      2083      2322
 -1      3502    3    0    1
 -2      1031       744      2252      2458
 -1      3503    3    0    1
 -2       694      1311       535      1007
 -1      3504    3    0    1
 -2       695       204      1007      1311
 -1      3505    3    0    1
 -2       213       331       718      1312
 -1      3506    3    0    1
 -2       718       331      1018      1312
 -1      3507    3    0    1
 -2       694      1311      1007      2245
 -1      3508    3    0    1
 -2      2095      2154      2381      2509
 -1      3509    3    0    1
 -2      2153      2107      2402      2423
 -1      3510    3    0    1
 -2      2289      2153      2402      2423
 -1      3511    3    0    1
 -2       545       712       720      1314
 -1      3512    3    0    1
 -2      1016       545      1277      1314
 -1      3513    3    0    1
 -2       275       283      1058      2137
 -1      3514    3    0    1
 -2       712       545      1016      1314
 -1      3515    3    0    1
 -2      1069      2064      2161      2379
 -1      3516    3    0    1
 -2      1488      1489      2906      3164
 -1      3517    3    0    1
 -2       187       185      1005      2451
 -1      3518    3    0    1
 -2      2265      1053      2496      3989
 -1      3519    3    0    1
 -2      1027       733      1315      2818
 -1      3520    3    0    1
 -2       135       140      2171      2430
 -1      3521    3    0    1
 -2      2366       977       146       364
 -1      3522    3    0    1
 -2       978       147      2340      4029
 -1      3523    3    0    1
 -2       543       731       738      1317
 -1      3524    3    0    1
 -2      1274       730       938      1317
 -1      3525    3    0    1
 -2      1314       720      2239      2358
 -1      3526    3    0    1
 -2      2042      1288      2225      2228
 -1      3527    3    0    1
 -2       664      1304      2399      2416
 -1      3528    3    0    1
 -2      2129       961      2248      2382
 -1      3529    3    0    1
 -2        21      3395      1908      1932
 -1      3530    3    0    1
 -2       543      1025       731      1317
 -1      3531    3    0    1
 -2      1025       543       938      1317
 -1      3532    3    0    1
 -2       543      1274       938      1317
 -1      3533    3    0    1
 -2       938       730      1025      1317
 -1      3534    3    0    1
 -2       806       807      2649      2723
 -1      3535    3    0    1
 -2       465       606      1151      2630
 -1      3536    3    0    1
 -2      2658      2603      3846      3883
 -1      3537    3    0    1
 -2       224       333      2314      2454
 -1      3538    3    0    1
 -2       396      1321       755       340
 -1      3539    3    0    1
 -2       196       429      2048      2226
 -1      3540    3    0    1
 -2      2256      1001      2360      2361
 -1      3541    3    0    1
 -2       754       239      1039      1322
 -1      3542    3    0    1
 -2      1036       341      2220      2526
 -1      3543    3    0    1
 -2       755       759       897      2676
 -1      3544    3    0    1
 -2       755       748      1038      2676
 -1      3545    3    0    1
 -2       183       427      3644      2041
 -1      3546    3    0    1
 -2      2269       373      2407      2478
 -1      3547    3    0    1
 -2       251       765       392      1323
 -1      3548    3    0    1
 -2       920      1323       496      1198
 -1      3549    3    0    1
 -2       765       251       764      1323
 -1      3550    3    0    1
 -2       764       251      1043      1323
 -1      3551    3    0    1
 -2      1385       871      2223      2294
 -1      3552    3    0    1
 -2       968       611       969      2583
 -1      3553    3    0    1
 -2       769      1194      2732      2733
 -1      3554    3    0    1
 -2       559       556      2565      3402
 -1      3555    3    0    1
 -2      1533      3040      1719      3529
 -1      3556    3    0    1
 -2       773       766      1199      1326
 -1      3557    3    0    1
 -2       496       767       774      1326
 -1      3558    3    0    1
 -2      1034      2749      2935      3988
 -1      3559    3    0    1
 -2       684      1001      2256      2361
 -1      3560    3    0    1
 -2       767       496      1040      1326
 -1      3561    3    0    1
 -2      2101      2172      2190      2295
 -1      3562    3    0    1
 -2       787       267       790      1327
 -1      3563    3    0    1
 -2      1661      2908      3852      3905
 -1      3564    3    0    1
 -2       790       267      1051      1327
 -1      3565    3    0    1
 -2      3373      3434      3992      4022
 -1      3566    3    0    1
 -2       492      1192      2730      2731
 -1      3567    3    0    1
 -2      1066       382      2143      2308
 -1      3568    3    0    1
 -2      1121       329       359      2541
 -1      3569    3    0    1
 -2      2199      2082      2210      2440
 -1      3570    3    0    1
 -2       883       888      2120      2541
 -1      3571    3    0    1
 -2       490       785       792      1329
 -1      3572    3    0    1
 -2      1049       490      1190      1329
 -1      3573    3    0    1
 -2      2104      1333      2377      2474
 -1      3574    3    0    1
 -2      1394       877      1393      2322
 -1      3575    3    0    1
 -2       785       490      1049      1329
 -1      3576    3    0    1
 -2      2209      2083      2263      2425
 -1      3577    3    0    1
 -2       665       659       671      2651
 -1      3578    3    0    1
 -2       671       659      2586      2651
 -1      3579    3    0    1
 -2       663       660      1137      2651
 -1      3580    3    0    1
 -2      2096      2069      2274      2471
 -1      3581    3    0    1
 -2       508       803       810      1332
 -1      3582    3    0    1
 -2       802       926      1216      1332
 -1      3583    3    0    1
 -2       834       833      1075      2178
 -1      3584    3    0    1
 -2       753       752      1035      2464
 -1      3585    3    0    1
 -2      1381       867      1380      2283
 -1      3586    3    0    1
 -2       984       653      2197      2487
 -1      3587    3    0    1
 -2       802       275      1058      1332
 -1      3588    3    0    1
 -2      2275      2103      2381      2527
 -1      3589    3    0    1
 -2       508      1058       803      1332
 -1      3590    3    0    1
 -2      1058       508       926      1332
 -1      3591    3    0    1
 -2       508      1216       926      1332
 -1      3592    3    0    1
 -2       926       802      1058      1332
 -1      3593    3    0    1
 -2       376       314      1359      2545
 -1      3594    3    0    1
 -2       401       953      2169      2437
 -1      3595    3    0    1
 -2       825      1066       287       820
 -1      3596    3    0    1
 -2      1066       825       287      1336
 -1      3597    3    0    1
 -2       922      1336       503      1208
 -1      3598    3    0    1
 -2      1401       445       448      2345
 -1      3599    3    0    1
 -2       630      2295      2336      2477
 -1      3600    3    0    1
 -2       831       824       832      1337
 -1      3601    3    0    1
 -2       832       824      1072      1337
 -1      3602    3    0    1
 -2      1610      1609      1674      3386
 -1      3603    3    0    1
 -2      2369      3843      3877      4021
 -1      3604    3    0    1
 -2      1609      1673      1674      3386
 -1      3605    3    0    1
 -2       883      1400      1112      2120
 -1      3606    3    0    1
 -2       122       962      1291      2310
 -1      3607    3    0    1
 -2       333       224      1029      2376
 -1      3608    3    0    1
 -2      2082      2095      2199      2210
 -1      3609    3    0    1
 -2       640       979      2177      2276
 -1      3610    3    0    1
 -2      1336       826      2161      2339
 -1      3611    3    0    1
 -2      2135      2150      2289      2402
 -1      3612    3    0    1
 -2      2083      1372      2140      2322
 -1      3613    3    0    1
 -2      1882      1693      4006      4018
 -1      3614    3    0    1
 -2      1953      3145      3711      3728
 -1      3615    3    0    1
 -2      1064       275      2528      2555
 -1      3616    3    0    1
 -2       414       345      2487      2521
 -1      3617    3    0    1
 -2      2198      2193      2256      2298
 -1      3618    3    0    1
 -2      1387       311      2274      2471
 -1      3619    3    0    1
 -2       733      1255      2644      3761
 -1      3620    3    0    1
 -2       600       599       962      2310
 -1      3621    3    0    1
 -2      2121      2074      2357      2370
 -1      3622    3    0    1
 -2      1115       312      1405      2165
 -1      3623    3    0    1
 -2       779       762      2324      2421
 -1      3624    3    0    1
 -2       150      2102      2280      2329
 -1      3625    3    0    1
 -2      2104       383      2379      2394
 -1      3626    3    0    1
 -2      2484      2085      2494      2531
 -1      3627    3    0    1
 -2      1102      2067      2223      2244
 -1      3628    3    0    1
 -2      1123       448      2125      2345
 -1      3629    3    0    1
 -2       874       873      2176      2222
 -1      3630    3    0    1
 -2      1024       223      1028      2445
 -1      3631    3    0    1
 -2       255       776       769      3763
 -1      3632    3    0    1
 -2      2160       167      2249      2279
 -1      3633    3    0    1
 -2       600       599      2310      2382
 -1      3634    3    0    1
 -2       141       404      2253      2264
 -1      3635    3    0    1
 -2      2212      2183      2392      2395
 -1      3636    3    0    1
 -2      1279       943       552      2447
 -1      3637    3    0    1
 -2      2193       420      2256      2292
 -1      3638    3    0    1
 -2      2193       420      2198      2256
 -1      3639    3    0    1
 -2      2100      2050      2159      2191
 -1      3640    3    0    1
 -2       884      1126      1114      2144
 -1      3641    3    0    1
 -2      1022       726      2320      2348
 -1      3642    3    0    1
 -2      2096      2069      2346      2475
 -1      3643    3    0    1
 -2      2164      2335      2351      2352
 -1      3644    3    0    1
 -2       648       640       979      2428
 -1      3645    3    0    1
 -2      1960        76      1961      1968
 -1      3646    3    0    1
 -2      1704      1513      1705      3418
 -1      3647    3    0    1
 -2      1344       838      2235      2267
 -1      3648    3    0    1
 -2      1323      1043       767      2495
 -1      3649    3    0    1
 -2       361      2088      2365      2370
 -1      3650    3    0    1
 -2      2334      1282      2426      2748
 -1      3651    3    0    1
 -2       313      1372      2083      2322
 -1      3652    3    0    1
 -2      2159      2138      2175      2221
 -1      3653    3    0    1
 -2       368      2046      2311      2368
 -1      3654    3    0    1
 -2      1028       416      2136      2445
 -1      3655    3    0    1
 -2       426      2128      2160      2360
 -1      3656    3    0    1
 -2       635       618       970      2372
 -1      3657    3    0    1
 -2       316      1084      1364      2278
 -1      3658    3    0    1
 -2       752      1034      1325      2163
 -1      3659    3    0    1
 -2      2068      2149      2238      2537
 -1      3660    3    0    1
 -2      1411      1659      1660      3546
 -1      3661    3    0    1
 -2      1323      2097      2164      2352
 -1      3662    3    0    1
 -2      2332      2172      2366      2497
 -1      3663    3    0    1
 -2      1305       658       666      2254
 -1      3664    3    0    1
 -2      1317       336      2349      2429
 -1      3665    3    0    1
 -2       868       867      2283      2471
 -1      3666    3    0    1
 -2      2081      2156      2313      2344
 -1      3667    3    0    1
 -2      1204       825      1205      2585
 -1      3668    3    0    1
 -2      1043      2151      2234      2338
 -1      3669    3    0    1
 -2       378      2111      2402      2423
 -1      3670    3    0    1
 -2      2117      2056      2174      2207
 -1      3671    3    0    1
 -2       422       419       995      2193
 -1      3672    3    0    1
 -2      2174      2207      2255      2363
 -1      3673    3    0    1
 -2      1013      1021      2302      2387
 -1      3674    3    0    1
 -2       979       640      2323      2428
 -1      3675    3    0    1
 -2      2133      2127      2190      2242
 -1      3676    3    0    1
 -2      1106       417      2073      2124
 -1      3677    3    0    1
 -2      2055       301      2192      2390
 -1      3678    3    0    1
 -2       193      2166      2261      2356
 -1      3679    3    0    1
 -2       961       120      2185      2382
 -1      3680    3    0    1
 -2      2847       147      3866      3766
 -1      3681    3    0    1
 -2      2265       797      2373      2496
 -1      3682    3    0    1
 -2      3267      1462      1837      1838
 -1      3683    3    0    1
 -2       252       256      2457      2520
 -1      3684    3    0    1
 -2      2108      2081      2142      2301
 -1      3685    3    0    1
 -2      2329      2408      2409      2456
 -1      3686    3    0    1
 -2      2269      2262      2285      2354
 -1      3687    3    0    1
 -2      1396       294       447      2316
 -1      3688    3    0    1
 -2      2462      2270      2469      2546
 -1      3689    3    0    1
 -2       305      1372       313      2322
 -1      3690    3    0    1
 -2       973       625      1297      2523
 -1      3691    3    0    1
 -2      1048       386      1052      2337
 -1      3692    3    0    1
 -2       419       422       989      2193
 -1      3693    3    0    1
 -2       671       993      2282      2547
 -1      3694    3    0    1
 -2       992       658       988      2254
 -1      3695    3    0    1
 -2      2186      2142      2257      2301
 -1      3696    3    0    1
 -2       306      1094      2255      2273
 -1      3697    3    0    1
 -2      2322      2209      2344      2425
 -1      3698    3    0    1
 -2      1094      2207      2255      2273
 -1      3699    3    0    1
 -2      3013      2915      3869      4007
 -1      3700    3    0    1
 -2      1101       869      1383      2119
 -1      3701    3    0    1
 -2      1386       310      1102      2244
 -1      3702    3    0    1
 -2      1296      2101      2190      2295
 -1      3703    3    0    1
 -2      2110      1015      2326      2500
 -1      3704    3    0    1
 -2      2217      2130      2219      2365
 -1      3705    3    0    1
 -2      2104      2062      2125      2315
 -1      3706    3    0    1
 -2       392      2164      2346      2495
 -1      3707    3    0    1
 -2       311       319      1105      2274
 -1      3708    3    0    1
 -2      1411      3089      3195      3714
 -1      3709    3    0    1
 -2       689       672       996      2272
 -1      3710    3    0    1
 -2      1003       689      1004      2166
 -1      3711    3    0    1
 -2      2122      2079      2211      2431
 -1      3712    3    0    1
 -2       386      2202      2337      2378
 -1      3713    3    0    1
 -2      1093       324      1095      2182
 -1      3714    3    0    1
 -2      3218      3087      3911      3685
 -1      3715    3    0    1
 -2      2086      2071      2235      2267
 -1      3716    3    0    1
 -2       611       969      2583      2630
 -1      3717    3    0    1
 -2      2065      2115      2187      2450
 -1      3718    3    0    1
 -2      1122      2277      2297      2316
 -1      3719    3    0    1
 -2       986      2446      2487      2563
 -1      3720    3    0    1
 -2      1355       843       844      2189
 -1      3721    3    0    1
 -2       810      1332      2137      2319
 -1      3722    3    0    1
 -2       988       167      2046      2298
 -1      3723    3    0    1
 -2       207      2245      2261      2303
 -1      3724    3    0    1
 -2      1095       863      1093      2363
 -1      3725    3    0    1
 -2       391      2155      2353      2496
 -1      3726    3    0    1
 -2      1058       803      1332      2137
 -1      3727    3    0    1
 -2      2078      2072      2218      2388
 -1      3728    3    0    1
 -2      1016      2349      2500      2504
 -1      3729    3    0    1
 -2      1044       779      2324      2760
 -1      3730    3    0    1
 -2       671       993       996      2282
 -1      3731    3    0    1
 -2       269       271      1049      2155
 -1      3732    3    0    1
 -2       290      1334      2418      2525
 -1      3733    3    0    1
 -2       420       190      2256      2292
 -1      3734    3    0    1
 -2      2046       992      2254      2368
 -1      3735    3    0    1
 -2      2123      2212      2392      2395
 -1      3736    3    0    1
 -2       672       689       995      2292
 -1      3737    3    0    1
 -2      3789      1294      3815      4006
 -1      3738    3    0    1
 -2      1292       361      2088      2365
 -1      3739    3    0    1
 -2       420       422      1003      2292
 -1      3740    3    0    1
 -2       869      1384      1100      2119
 -1      3741    3    0    1
 -2       731       738      1317      2375
 -1      3742    3    0    1
 -2      2074      2052      2132      2357
 -1      3743    3    0    1
 -2       422       995      1003      2292
 -1      3744    3    0    1
 -2       390      2164      2335      2351
 -1      3745    3    0    1
 -2       302       326      1086      2431
 -1      3746    3    0    1
 -2       684       676      2256      2356
 -1      3747    3    0    1
 -2      1015      2152      2326      2500
 -1      3748    3    0    1
 -2      1351       308      1078      2406
 -1      3749    3    0    1
 -2       294      1342       447      2297
 -1      3750    3    0    1
 -2      2155      1049      2353      2538
 -1      3751    3    0    1
 -2       316       370      1084      2278
 -1      3752    3    0    1
 -2      2060      2150      2402      2423
 -1      3753    3    0    1
 -2       589       958      1288      2713
 -1      3754    3    0    1
 -2      1304       661       664      2399
 -1      3755    3    0    1
 -2       356       282      3824      1878
 -1      3756    3    0    1
 -2      1066       819       826      2481
 -1      3757    3    0    1
 -2      1019      2110      2301      2358
 -1      3758    3    0    1
 -2       367      2126      2251      2428
 -1      3759    3    0    1
 -2      1845      3887      1951      3683
 -1      3760    3    0    1
 -2       428      1013      2302      2493
 -1      3761    3    0    1
 -2      2198      2160      2298      2360
 -1      3762    3    0    1
 -2      1402      2113      2309      2452
 -1      3763    3    0    1
 -2      2261      1004       207      2303
 -1      3764    3    0    1
 -2       951       357      2184      2398
 -1      3765    3    0    1
 -2      2082      2199      2383      2440
 -1      3766    3    0    1
 -2      2049      2138      2175      2269
 -1      3767    3    0    1
 -2       403       371      2183      2392
 -1      3768    3    0    1
 -2       353      1072      1337      2334
 -1      3769    3    0    1
 -2       385       387      2115      2331
 -1      3770    3    0    1
 -2      2202      2223      2244      2294
 -1      3771    3    0    1
 -2      2183       960      2185      2330
 -1      3772    3    0    1
 -2       386      2378      2134      2403
 -1      3773    3    0    1
 -2      2287      2075      2393      2557
 -1      3774    3    0    1
 -2      2314       333      2376      2454
 -1      3775    3    0    1
 -2      2129       956      2419      2530
 -1      3776    3    0    1
 -2       879       889      1122      2277
 -1      3777    3    0    1
 -2      2097      2047      2335      2352
 -1      3778    3    0    1
 -2      2202       390      2337      2351
 -1      3779    3    0    1
 -2      2114      2141      2176      2243
 -1      3780    3    0    1
 -2       993       169      2035      3759
 -1      3781    3    0    1
 -2      2073      1106      2090      2131
 -1      3782    3    0    1
 -2      2064      2161      2434      2518
 -1      3783    3    0    1
 -2      2255      1090      2273      2362
 -1      3784    3    0    1
 -2       357      2099      2184      2318
 -1      3785    3    0    1
 -2       974      2130      2268      2336
 -1      3786    3    0    1
 -2      2775      2626      3946      4015
 -1      3787    3    0    1
 -2       452       451       682      2657
 -1      3788    3    0    1
 -2      1052       390      2164      2335
 -1      3789    3    0    1
 -2       358      2049      2178      2262
 -1      3790    3    0    1
 -2       300       358      1073      2262
 -1      3791    3    0    1
 -2      1344      2235      2243      2267
 -1      3792    3    0    1
 -2      1038       762      2421      2514
 -1      3793    3    0    1
 -2      1366      1367      2408      2456
 -1      3794    3    0    1
 -2       347      2374      2411      2514
 -1      3795    3    0    1
 -2       863      1094      2207      2363
 -1      3796    3    0    1
 -2       618       617       967      2463
 -1      3797    3    0    1
 -2       877      1394       878      2322
 -1      3798    3    0    1
 -2      2095      2080      2199      2210
 -1      3799    3    0    1
 -2      2106      2277      2296      2315
 -1      3800    3    0    1
 -2      1306      1000       679      2213
 -1      3801    3    0    1
 -2      1024       731      2386      2445
 -1      3802    3    0    1
 -2       404      2129      2248      2253
 -1      3803    3    0    1
 -2      1353       302      1354      2431
 -1      3804    3    0    1
 -2       418      2076      2108      2343
 -1      3805    3    0    1
 -2       327      1355       434      2259
 -1      3806    3    0    1
 -2       126       403      2185      2419
 -1      3807    3    0    1
 -2      2202      2067      2238      2244
 -1      3808    3    0    1
 -2       316      1364      2221      2278
 -1      3809    3    0    1
 -2      1556      2960      1807      3892
 -1      3810    3    0    1
 -2      2057       108      2205      2208
 -1      3811    3    0    1
 -2       725       708      1020      2387
 -1      3812    3    0    1
 -2      2062      2125      2236      2394
 -1      3813    3    0    1
 -2       336      1317      2349      2444
 -1      3814    3    0    1
 -2       995      2193      2282      2292
 -1      3815    3    0    1
 -2       581       952      2233      2455
 -1      3816    3    0    1
 -2       153       362      2219      2268
 -1      3817    3    0    1
 -2       847      1361      1080      2162
 -1      3818    3    0    1
 -2      3696      3899      3999      3712
 -1      3819    3    0    1
 -2      2066      2204      2223      2294
 -1      3820    3    0    1
 -2       879       889      2277      2296
 -1      3821    3    0    1
 -2      3073      1785      3240      3861
 -1      3822    3    0    1
 -2      1681      1420      1419      3292
 -1      3823    3    0    1
 -2      1296      2101      2172      2332
 -1      3824    3    0    1
 -2       426      2093      2128      2247
 -1      3825    3    0    1
 -2       726       743      1030      2320
 -1      3826    3    0    1
 -2       607       610      2459      2501
 -1      3827    3    0    1
 -2      2131      2090      2218      2388
 -1      3828    3    0    1
 -2      2162       847      2486      2545
 -1      3829    3    0    1
 -2      2046       167      2249      2298
 -1      3830    3    0    1
 -2      2123      2044      2212      2395
 -1      3831    3    0    1
 -2       954       372      2169      2330
 -1      3832    3    0    1
 -2       190       420      1003      2292
 -1      3833    3    0    1
 -2       388      1055      1063      2155
 -1      3834    3    0    1
 -2       761       762      1038      2514
 -1      3835    3    0    1
 -2      1374       857       858      2146
 -1      3836    3    0    1
 -2       648       979       983      2428
 -1      3837    3    0    1
 -2       207       424      1311      2245
 -1      3838    3    0    1
 -2      1287       586      2364      2530
 -1      3839    3    0    1
 -2       396      2384      2421      2763
 -1      3840    3    0    1
 -2      2325      2187      2453      2473
 -1      3841    3    0    1
 -2       146       971      1299      2477
 -1      3842    3    0    1
 -2      1048       785      2472      2538
 -1      3843    3    0    1
 -2       961       617       968      2248
 -1      3844    3    0    1
 -2       407       116      3781      1736
 -1      3845    3    0    1
 -2       854       853      2408      2409
 -1      3846    3    0    1
 -2       398      2444      2458      2556
 -1      3847    3    0    1
 -2      2074       361      2217      2370
 -1      3848    3    0    1
 -2      2252      1037      2384      2514
 -1      3849    3    0    1
 -2      2207      2056      2255      2273
 -1      3850    3    0    1
 -2       193       184      1004      2166
 -1      3851    3    0    1
 -2      3880      2609      2693      3907
 -1      3852    3    0    1
 -2      2053      2102      2242      2329
 -1      3853    3    0    1
 -2       957      1294      2501      2620
 -1      3854    3    0    1
 -2       945       381      1071      2308
 -1      3855    3    0    1
 -2      1043       251      2151      2338
 -1      3856    3    0    1
 -2      2218      2078      2388      2482
 -1      3857    3    0    1
 -2      2620      2756      3789      3791
 -1      3858    3    0    1
 -2        11       197      1982      3728
 -1      3859    3    0    1
 -2      2073      2124      2287      2385
 -1      3860    3    0    1
 -2       156      2116      2196      2206
 -1      3861    3    0    1
 -2      2133      2054      2231      2251
 -1      3862    3    0    1
 -2      1302       160      2507      2550
 -1      3863    3    0    1
 -2       287       288      1071      2553
 -1      3864    3    0    1
 -2      1384      1100      2119      2470
 -1      3865    3    0    1
 -2       797       798      1054      2496
 -1      3866    3    0    1
 -2       377      1340      2059      2289
 -1      3867    3    0    1
 -2      3834      2822      3953      3990
 -1      3868    3    0    1
 -2      1123       445      1397      2125
 -1      3869    3    0    1
 -2      2099       357      2208      2318
 -1      3870    3    0    1
 -2      1326       256      2195      2234
 -1      3871    3    0    1
 -2      1097      1379      2153      2215
 -1      3872    3    0    1
 -2      1403       436      2065      2450
 -1      3873    3    0    1
 -2      1404      1111      2204      2224
 -1      3874    3    0    1
 -2      2155      1049      2538      2539
 -1      3875    3    0    1
 -2       953      2169      2437      2455
 -1      3876    3    0    1
 -2       612      2171      2250      2253
 -1      3877    3    0    1
 -2       873      1388      1104      2222
 -1      3878    3    0    1
 -2       378       944      2107      2522
 -1      3879    3    0    1
 -2      2329      2052      2357      2409
 -1      3880    3    0    1
 -2       725      1020      1023      2348
 -1      3881    3    0    1
 -2       117      2214      2233      2367
 -1      3882    3    0    1
 -2      2049      2175      2262      2269
 -1      3883    3    0    1
 -2       983      2172      2332      2428
 -1      3884    3    0    1
 -2      2062       380      2106      2315
 -1      3885    3    0    1
 -2      1382       311      1099      2471
 -1      3886    3    0    1
 -2       643       981      1304      2416
 -1      3887    3    0    1
 -2      2791      2961      3801      3956
 -1      3888    3    0    1
 -2      1090       306       309      2273
 -1      3889    3    0    1
 -2      1350      1349      2055      2092
 -1      3890    3    0    1
 -2      1319      2163      2411      2464
 -1      3891    3    0    1
 -2       833      1074      1073      2178
 -1      3892    3    0    1
 -2      1372       856      2094      2140
 -1      3893    3    0    1
 -2       256       394      2195      2234
 -1      3894    3    0    1
 -2       666       992      2276      2368
 -1      3895    3    0    1
 -2      2179      2241      2278      2299
 -1      3896    3    0    1
 -2      2046       368      2117      2246
 -1      3897    3    0    1
 -2      1737      1464      1738      3108
 -1      3898    3    0    1
 -2      1286       948      2398      2422
 -1      3899    3    0    1
 -2      1593      1592      1635      3428
 -1      3900    3    0    1
 -2      1281        96      2491      2559
 -1      3901    3    0    1
 -2       986       343      2446      2563
 -1      3902    3    0    1
 -2      3843      1512      3899      3696
 -1      3903    3    0    1
 -2      2149      2068      2266      2537
 -1      3904    3    0    1
 -2      1698      1665      1699      3325
 -1      3905    3    0    1
 -2      2054      2101      2133      2190
 -1      3906    3    0    1
 -2      2187      2063      2227      2473
 -1      3907    3    0    1
 -2      1051       789      2355      2436
 -1      3908    3    0    1
 -2       653       654      2197      2487
 -1      3909    3    0    1
 -2      2074      2121      2241      2370
 -1      3910    3    0    1
 -2       368      2046      2117      2311
 -1      3911    3    0    1
 -2       176       994       995      2282
 -1      3912    3    0    1
 -2       582       955      1291      2181
 -1      3913    3    0    1
 -2       388       271      1055      2155
 -1      3914    3    0    1
 -2       390       386      2067      2202
 -1      3915    3    0    1
 -2      1278       944       549      2410
 -1      3916    3    0    1
 -2       371       954      2183      2330
 -1      3917    3    0    1
 -2       648       640      2428      2507
 -1      3918    3    0    1
 -2      2125      2062      2296      2315
 -1      3919    3    0    1
 -2      2115      2187      2227      2453
 -1      3920    3    0    1
 -2      2384      1038      2421      2514
 -1      3921    3    0    1
 -2       151       146      1299      2477
 -1      3922    3    0    1
 -2       357       108      2057      2208
 -1      3923    3    0    1
 -2      2063      2109      2187      2227
 -1      3924    3    0    1
 -2      2111      2135      2315      2377
 -1      3925    3    0    1
 -2      1396       879      2277      2316
 -1      3926    3    0    1
 -2      2160      2128      2249      2360
 -1      3927    3    0    1
 -2       767      1040      2047      2520
 -1      3928    3    0    1
 -2      2075      2139      2317      2326
 -1      3929    3    0    1
 -2      2062      2104      2125      2394
 -1      3930    3    0    1
 -2       276       388      2528      2564
 -1      3931    3    0    1
 -2      2191      2100      2250      2364
 -1      3932    3    0    1
 -2      2059      1097      2153      2215
 -1      3933    3    0    1
 -2       387      2087      2098      2341
 -1      3934    3    0    1
 -2      2058      2173      2205      2291
 -1      3935    3    0    1
 -2       879       889      2296      2345
 -1      3936    3    0    1
 -2       961       404      2129      2248
 -1      3937    3    0    1
 -2       278       349      1060      2449
 -1      3938    3    0    1
 -2       592       571      2042      2805
 -1      3939    3    0    1
 -2      2172      2101      2190      2251
 -1      3940    3    0    1
 -2      2130      2217      2219      2336
 -1      3941    3    0    1
 -2      1388       874      2176      2222
 -1      3942    3    0    1
 -2       173       668       660      3463
 -1      3943    3    0    1
 -2      1384       869       870      2119
 -1      3944    3    0    1
 -2      2062      1123      2113      2125
 -1      3945    3    0    1
 -2       351       267      1327      2529
 -1      3946    3    0    1
 -2      2280      2217      2329      2357
 -1      3947    3    0    1
 -2      1370      2094      2140      2383
 -1      3948    3    0    1
 -2      2218      2090      2385      2388
 -1      3949    3    0    1
 -2      1406       887      1120      2259
 -1      3950    3    0    1
 -2       196      1006      2257      2359
 -1      3951    3    0    1
 -2       312      2131      2144      2165
 -1      3952    3    0    1
 -2       357      2057      2099      2208
 -1      3953    3    0    1
 -2      1101       870      2119      2238
 -1      3954    3    0    1
 -2      1379      2153      2215      2290
 -1      3955    3    0    1
 -2       383      2236      2379      2394
 -1      3956    3    0    1
 -2       949      2042      2369      2438
 -1      3957    3    0    1
 -2       438       389      1111      2204
 -1      3958    3    0    1
 -2      1097       377      2059      2153
 -1      3959    3    0    1
 -2       150       366      2053      2102
 -1      3960    3    0    1
 -2      2072      2078      2165      2388
 -1      3961    3    0    1
 -2       890      1402      2113      2309
 -1      3962    3    0    1
 -2       167       368      2046      2246
 -1      3963    3    0    1
 -2      1016       220      2349      2504
 -1      3964    3    0    1
 -2       988      2046      2254      2298
 -1      3965    3    0    1
 -2      3177      1439      3385      3655
 -1      3966    3    0    1
 -2      2093      2128      2211      2249
 -1      3967    3    0    1
 -2      2051      2074      2121      2241
 -1      3968    3    0    1
 -2       424       204      2245      2493
 -1      3969    3    0    1
 -2       870       869      1101      2119
 -1      3970    3    0    1
 -2       985       654       986      2197
 -1      3971    3    0    1
 -2       424       204      1311      2245
 -1      3972    3    0    1
 -2       211      1015      2152      2326
 -1      3973    3    0    1
 -2       269      1055      2155      2496
 -1      3974    3    0    1
 -2      1324      1042       770      2163
 -1      3975    3    0    1
 -2      2146      2168      2246      2279
 -1      3976    3    0    1
 -2      2048      1010      2328      2414
 -1      3977    3    0    1
 -2       880      1123      1397      2113
 -1      3978    3    0    1
 -2       428      2302      2397      2493
 -1      3979    3    0    1
 -2       369       324      2077      2258
 -1      3980    3    0    1
 -2      2102       366      2127      2190
 -1      3981    3    0    1
 -2       251       392      2346      2498
 -1      3982    3    0    1
 -2      2123      2044      2395      2478
 -1      3983    3    0    1
 -2       387      2115      2229      2271
 -1      3984    3    0    1
 -2      2055      1350      2092      2192
 -1      3985    3    0    1
 -2       950       573      1284      2214
 -1      3986    3    0    1
 -2      1289       589       592      2042
 -1      3987    3    0    1
 -2       958       592       589      2042
 -1      3988    3    0    1
 -2       589      1289       957      2042
 -1      3989    3    0    1
 -2      1355       844      2122      2189
 -1      3990    3    0    1
 -2      1777      1571      1778      3197
 -1      3991    3    0    1
 -2      2079      2211      2431      2442
 -1      3992    3    0    1
 -2       703       700      1270      3747
 -1      3993    3    0    1
 -2      1125       892      2224      2307
 -1      3994    3    0    1
 -2      1334      1068      2400      2525
 -1      3995    3    0    1
 -2       857       858      2146      2258
 -1      3996    3    0    1
 -2      2302      1021      2348      2387
 -1      3997    3    0    1
 -2      2113      2125      2309      2394
 -1      3998    3    0    1
 -2       340       241      2384      2513
 -1      3999    3    0    1
 -2      1016       712      1314      2504
 -1      4000    3    0    1
 -2       738      1028      2413      2445
 -1      4001    3    0    1
 -2       114       117       952      2233
 -1      4002    3    0    1
 -2      2162      2061      2318      2420
 -1      4003    3    0    1
 -2       697      1309      2508      2551
 -1      4004    3    0    1
 -2      2050      2179      2191      2281
 -1      4005    3    0    1
 -2      2056      2117      2174      2206
 -1      4006    3    0    1
 -2      1013       725      1021      2387
 -1      4007    3    0    1
 -2      2280      2052      2329      2408
 -1      4008    3    0    1
 -2       856       855      2094      2140
 -1      4009    3    0    1
 -2      2142      2156      2263      2301
 -1      4010    3    0    1
 -2       849      1363      1081      2148
 -1      4011    3    0    1
 -2       654       653       987      2487
 -1      4012    3    0    1
 -2       744       743      2376      2458
 -1      4013    3    0    1
 -2       988       167       992      2046
 -1      4014    3    0    1
 -2      3677      1824      3681      3745
 -1      4015    3    0    1
 -2      2266      2096      2274      2471
 -1      4016    3    0    1
 -2       958       589      1288      2042
 -1      4017    3    0    1
 -2       749       756      1033      2439
 -1      4018    3    0    1
 -2      1300       643      2490      2779
 -1      4019    3    0    1
 -2      1006      2142      2257      2359
 -1      4020    3    0    1
 -2       880       890      2113      2309
 -1      4021    3    0    1
 -2      2075      2139      2326      2327
 -1      4022    3    0    1
 -2       204      1007      2245      2397
 -1      4023    3    0    1
 -2      1074      1073      2178      2262
 -1      4024    3    0    1
 -2      2552       200      3987      3758
 -1      4025    3    0    1
 -2       991       661      1303      2490
 -1      4026    3    0    1
 -2      2295       974      2102      1296
 -1      4027    3    0    1
 -2       974       622      1296      2295
 -1      4028    3    0    1
 -2      2153      2091      2215      2290
 -1      4029    3    0    1
 -2       762      1039      2324      2514
 -1      4030    3    0    1
 -2      2130      2219      2268      2336
 -1      4031    3    0    1
 -2      2314       734      2464      2488
 -1      4032    3    0    1
 -2       120       404       956      2129
 -1      4033    3    0    1
 -2      2183       594      2395      2419
 -1      4034    3    0    1
 -2      1565      1564      2798      3092
 -1      4035    3    0    1
 -2       973       628       625      2523
 -1      4036    3    0    1
 -2      2333      1376      2371      2406
 -1      4037    3    0    1
 -2      1107       879      2296      2345
 -1      4038    3    0    1
 -2      1503      1764      1765      3618
 -1      4039    3    0    1
 -2      2120       883      2121      2132
 -1      4040    3    0    1
 -2      1331       807      2355      2417
 -1      4041    3    0    1
 -2       336       226      1317      2444
 -1      4042    3    0    1
 -2       223      2201      2218      2385
 -1      4043    3    0    1
 -2       771       770      1042      2163
 -1      4044    3    0    1
 -2       979       156      2196      2206
 -1      4045    3    0    1
 -2       875      1390       876      2131
 -1      4046    3    0    1
 -2      1390       876      2131      2165
 -1      4047    3    0    1
 -2      2120      2121      2476      2541
 -1      4048    3    0    1
 -2       368      2077      2117      2246
 -1      4049    3    0    1
 -2       385       387      1061      2271
 -1      4050    3    0    1
 -2       389      1404      2204      2224
 -1      4051    3    0    1
 -2      2067      1383      2119      2244
 -1      4052    3    0    1
 -2      1115      1405      2144      2165
 -1      4053    3    0    1
 -2       875      1391      1106      2090
 -1      4054    3    0    1
 -2      1294       964       610      2459
 -1      4055    3    0    1
 -2      1342      1339      2150      2297
 -1      4056    3    0    1
 -2      2146      2077      2246      2258
 -1      4057    3    0    1
 -2       958       592      2225      2805
 -1      4058    3    0    1
 -2      2103      2082      2199      2383
 -1      4059    3    0    1
 -2      2103      2094      2140      2226
 -1      4060    3    0    1
 -2       324       369      1087      2258
 -1      4061    3    0    1
 -2       717       697      2424      2551
 -1      4062    3    0    1
 -2      2082      2103      2199      2381
 -1      4063    3    0    1
 -2       837      1344       838      2235
 -1      4064    3    0    1
 -2       122       958      1288      2225
 -1      4065    3    0    1
 -2      1116      1128      2124      2287
 -1      4066    3    0    1
 -2      1090      1088      2273      2362
 -1      4067    3    0    1
 -2      2287      2288      2385      2393
 -1      4068    3    0    1
 -2       952       117       955      2233
 -1      4069    3    0    1
 -2       420       422      2193      2198
 -1      4070    3    0    1
 -2      2101      2054      2133      2251
 -1      4071    3    0    1
 -2       372       111       953      2169
 -1      4072    3    0    1
 -2      2226      2083      2322      2425
 -1      4073    3    0    1
 -2      2492       798      2496      2560
 -1      4074    3    0    1
 -2       803       810      1332      2137
 -1      4075    3    0    1
 -2      2206      2177      2276      2368
 -1      4076    3    0    1
 -2      2515      1036      2439       756
 -1      4077    3    0    1
 -2       874       873      1105      2176
 -1      4078    3    0    1
 -2      2245      1311      2261      2328
 -1      4079    3    0    1
 -2      1372       855       856      2140
 -1      4080    3    0    1
 -2      2286      2139      2427      2485
 -1      4081    3    0    1
 -2      2093      2128      2158      2211
 -1      4082    3    0    1
 -2      2220      2386      2401      2482
 -1      4083    3    0    1
 -2       671       672       995      2282
 -1      4084    3    0    1
 -2       167       368       992      2046
 -1      4085    3    0    1
 -2      2145      2058      2354      2503
 -1      4086    3    0    1
 -2       712      1016      2500      2504
 -1      4087    3    0    1
 -2       738      1317      2375      2413
 -1      4088    3    0    1
 -2      2182      2077      2207      2363
 -1      4089    3    0    1
 -2      2082      2094      2103      2275
 -1      4090    3    0    1
 -2      2223      1386      2244      2294
 -1      4091    3    0    1
 -2      1348      2354      2502      2503
 -1      4092    3    0    1
 -2      1488      3042      3240      3861
 -1      4093    3    0    1
 -2       428      1013      1021      2302
 -1      4094    3    0    1
 -2       835      1341       836      2289
 -1      4095    3    0    1
 -2      1125       882       892      2307
 -1      4096    3    0    1
 -2      1289       957      2042      2438
 -1      4097    3    0    1
 -2      2366       985      2550      2533
 -1      4098    3    0    1
 -2       422       420      2193      2292
 -1      4099    3    0    1
 -2      2069      1387      2176      2274
 -1      4100    3    0    1
 -2       217       216      1021      2302
 -1      4101    3    0    1
 -2      2223      2378      2066      2294
 -1      4102    3    0    1
 -2      1015       211      1019      2110
 -1      4103    3    0    1
 -2      2152      2136      2288      2327
 -1      4104    3    0    1
 -2       573       571      2214      2466
 -1      4105    3    0    1
 -2      1025       229      2513      2556
 -1      4106    3    0    1
 -2       646       643      1300      2405
 -1      4107    3    0    1
 -2      2090      2073      2131      2218
 -1      4108    3    0    1
 -2       858      1087      2146      2258
 -1      4109    3    0    1
 -2      1004       193      2166      2261
 -1      4110    3    0    1
 -2      3513      1692      3677      3745
 -1      4111    3    0    1
 -2      1350       842      2092      2216
 -1      4112    3    0    1
 -2       364      2332      2366      2497
 -1      4113    3    0    1
 -2      2180       997      2361      2509
 -1      4114    3    0    1
 -2       892       882      2224      2307
 -1      4115    3    0    1
 -2      2109      2065      2187      2450
 -1      4116    3    0    1
 -2      1292      2088      2250      2365
 -1      4117    3    0    1
 -2       750       745      1698      3630
 -1      4118    3    0    1
 -2       353       290      2334      2525
 -1      4119    3    0    1
 -2      1001       426      2160      2360
 -1      4120    3    0    1
 -2      2177      2196      2206      2323
 -1      4121    3    0    1
 -2      1375       301      1089      2390
 -1      4122    3    0    1
 -2      2068      2119      2238      2342
 -1      4123    3    0    1
 -2       604       612      2171      2250
 -1      4124    3    0    1
 -2       295       377      1097      2153
 -1      4125    3    0    1
 -2      1453      1452      3059      1918
 -1      4126    3    0    1
 -2      1332      1058      2137      2564
 -1      4127    3    0    1
 -2      1456      1457      2978      3279
 -1      4128    3    0    1
 -2       876      2090      2131      2165
 -1      4129    3    0    1
 -2       420       190      1308      2256
 -1      4130    3    0    1
 -2      2229       387      2271      2341
 -1      4131    3    0    1
 -2       150       974      1296      2102
 -1      4132    3    0    1
 -2       429      2275      2414      2527
 -1      4133    3    0    1
 -2      2288      2136      2385      2327
 -1      4134    3    0    1
 -2      2085      2469      2484      2494
 -1      4135    3    0    1
 -2      1400      1112      2120      2132
 -1      4136    3    0    1
 -2       845      1357       846      2427
 -1      4137    3    0    1
 -2       398       226      1031      2458
 -1      4138    3    0    1
 -2      2055      2116      2192      2312
 -1      4139    3    0    1
 -2      1052       390      2335      2337
 -1      4140    3    0    1
 -2       858       857      1087      2258
 -1      4141    3    0    1
 -2      2173      2188      2205      2208
 -1      4142    3    0    1
 -2      1035      1319      2411      2464
 -1      4143    3    0    1
 -2       877      1395      1392      2209
 -1      4144    3    0    1
 -2       844      1354      2122      2189
 -1      4145    3    0    1
 -2       648       983      2332      2428
 -1      4146    3    0    1
 -2       224      1027      1315      2314
 -1      4147    3    0    1
 -2       416       223      2201      2445
 -1      4148    3    0    1
 -2      2053      2280      2329      2408
 -1      4149    3    0    1
 -2      1095      1093      2182      2363
 -1      4150    3    0    1
 -2      2093       426      2128      2160
 -1      4151    3    0    1
 -2       140       963      1295      2171
 -1      4152    3    0    1
 -2       712      1016      2429      2500
 -1      4153    3    0    1
 -2       860       859      2362      2390
 -1      4154    3    0    1
 -2       111       401       953      2169
 -1      4155    3    0    1
 -2      2051      2074      2120      2121
 -1      4156    3    0    1
 -2       868      1381      2266      2283
 -1      4157    3    0    1
 -2       617       600       962      2157
 -1      4158    3    0    1
 -2       840       839      2145      2354
 -1      4159    3    0    1
 -2       372       953       954      2169
 -1      4160    3    0    1
 -2      2109      2187      2227      2450
 -1      4161    3    0    1
 -2      2164      2346      2352      2475
 -1      4162    3    0    1
 -2      2250       612      2253      2264
 -1      4163    3    0    1
 -2      2066      2087      2134      2229
 -1      4164    3    0    1
 -2      1303       661      2399      2490
 -1      4165    3    0    1
 -2       424       207      1012      2303
 -1      4166    3    0    1
 -2      3019      1714      3202      3203
 -1      4167    3    0    1
 -2      2074      2052      2120      2132
 -1      4168    3    0    1
 -2      1400       320      1112      2170
 -1      4169    3    0    1
 -2      2179      2050      2278      2281
 -1      4170    3    0    1
 -2      2080      2095      2199      2247
 -1      4171    3    0    1
 -2       366      1296      2190      2295
 -1      4172    3    0    1
 -2       977       985      2366      2533
 -1      4173    3    0    1
 -2       975       635      3767      4029
 -1      4174    3    0    1
 -2      2052      2329      2408      2409
 -1      4175    3    0    1
 -2       141       404      2248      2253
 -1      4176    3    0    1
 -2      1302       640       648      2507
 -1      4177    3    0    1
 -2       885      1116      2124      2287
 -1      4178    3    0    1
 -2       604       612       963      2171
 -1      4179    3    0    1
 -2      1401       879      1107      2345
 -1      4180    3    0    1
 -2       966       612      2250      2264
 -1      4181    3    0    1
 -2      1037      2252      2384      2513
 -1      4182    3    0    1
 -2      1345      1076      2235      2267
 -1      4183    3    0    1
 -2      2142      1006      2186      2359
 -1      4184    3    0    1
 -2      2151       397      2230      2260
 -1      4185    3    0    1
 -2      2065       385      2115      2331
 -1      4186    3    0    1
 -2       884      1405       893      2144
 -1      4187    3    0    1
 -2      2050       370      2221      2278
 -1      4188    3    0    1
 -2      2060      2106      2111      2135
 -1      4189    3    0    1
 -2      2057      2148      2173      2205
 -1      4190    3    0    1
 -2      1091      2053      2389      2456
 -1      4191    3    0    1
 -2      2135      2060      2150      2402
 -1      4192    3    0    1
 -2      1326       252      2457      2520
 -1      4193    3    0    1
 -2      1400      1112      2132      2170
 -1      4194    3    0    1
 -2      2286      2076      2317      2485
 -1      4195    3    0    1
 -2       951       576      1283      2398
 -1      4196    3    0    1
 -2       865      1379      1097      2215
 -1      4197    3    0    1
 -2      1048      2134      2337      2472
 -1      4198    3    0    1
 -2      2065      2115      2307      2331
 -1      4199    3    0    1
 -2      2115      2065      2307      2450
 -1      4200    3    0    1
 -2      2055      2192      2232      2312
 -1      4201    3    0    1
 -2      2103      2082      2383      2440
 -1      4202    3    0    1
 -2       984       414      2487      2524
 -1      4203    3    0    1
 -2      1308       684      2198      2256
 -1      4204    3    0    1
 -2      2059      1340      2150      2289
 -1      4205    3    0    1
 -2      1387      2069      2176      2222
 -1      4206    3    0    1
 -2       422       989      2193      2198
 -1      4207    3    0    1
 -2       302      1086      1374      2431
 -1      4208    3    0    1
 -2      1016      2349      2429      2500
 -1      4209    3    0    1
 -2      2095      2199      2247      2381
 -1      4210    3    0    1
 -2       841      1078      2092      2216
 -1      4211    3    0    1
 -2      2096      2068      2149      2164
 -1      4212    3    0    1
 -2      2138      2049      2175      2178
 -1      4213    3    0    1
 -2      2214       950      2466      2716
 -1      4214    3    0    1
 -2       397      1318      2151      2230
 -1      4215    3    0    1
 -2       851       852      2278      2299
 -1      4216    3    0    1
 -2       241      1037      2384      2513
 -1      4217    3    0    1
 -2      2236      2113      2309      2394
 -1      4218    3    0    1
 -2      1285      3923      3968      4021
 -1      4219    3    0    1
 -2      1279      2466       573      2716
 -1      4220    3    0    1
 -2      2060      2106      2135      2277
 -1      4221    3    0    1
 -2      2094      2083      2140      2226
 -1      4222    3    0    1
 -2       323      1106      1391      2124
 -1      4223    3    0    1
 -2       378       375      2059      2107
 -1      4224    3    0    1
 -2       400        95      2033      3756
 -1      4225    3    0    1
 -2      2069      1387      2274      2471
 -1      4226    3    0    1
 -2      2087      2066      2134      2378
 -1      4227    3    0    1
 -2      1004       690      1012      2303
 -1      4228    3    0    1
 -2      3779      3799      3822      3925
 -1      4229    3    0    1
 -2       558       549      2410      2479
 -1      4230    3    0    1
 -2      2087       387      2098      2134
 -1      4231    3    0    1
 -2       387      2087      2229      2331
 -1      4232    3    0    1
 -2       361       130      1292      2088
 -1      4233    3    0    1
 -2       815      1062      1065      2415
 -1      4234    3    0    1
 -2       437      1402      2321      2452
 -1      4235    3    0    1
 -2       418      1019      2110      2301
 -1      4236    3    0    1
 -2      1019       720      2110      2358
 -1      4237    3    0    1
 -2       379       103       941      2200
 -1      4238    3    0    1
 -2       635       970       975      2372
 -1      4239    3    0    1
 -2      2277      2135      2296      2315
 -1      4240    3    0    1
 -2       594      2395      2419      2478
 -1      4241    3    0    1
 -2      1049       785      2538      2539
 -1      4242    3    0    1
 -2      2870      2573      3796      3865
 -1      4243    3    0    1
 -2      2188      2057      2205      2208
 -1      4244    3    0    1
 -2       955       582      2233      2330
 -1      4245    3    0    1
 -2       370       316      2221      2278
 -1      4246    3    0    1
 -2      2128      2093      2160      2249
 -1      4247    3    0    1
 -2      3354      2993      3418      3470
 -1      4248    3    0    1
 -2       966       130      2191      2250
 -1      4249    3    0    1
 -2       887       894      2210      2259
 -1      4250    3    0    1
 -2      1375       859       860      2390
 -1      4251    3    0    1
 -2      2100       966      2191      2250
 -1      4252    3    0    1
 -2      3020      2652      3913      3535
 -1      4253    3    0    1
 -2      3779      1441      3799      3925
 -1      4254    3    0    1
 -2      2050      2138      2159      2221
 -1      4255    3    0    1
 -2       347       239      1035      2411
 -1      4256    3    0    1
 -2      2561      2807      2828      2865
 -1      4257    3    0    1
 -2      1290       403      2183      2392
 -1      4258    3    0    1
 -2       344       343      2483      2544
 -1      4259    3    0    1
 -2       415       217      2348      2499
 -1      4260    3    0    1
 -2       708       707      1013      2664
 -1      4261    3    0    1
 -2      1020      2045      2347      2348
 -1      4262    3    0    1
 -2       630       974      2268      2336
 -1      4263    3    0    1
 -2      1362       299      2502      2503
 -1      4264    3    0    1
 -2       415       217      1021      2348
 -1      4265    3    0    1
 -2       190      1003      1004      2166
 -1      4266    3    0    1
 -2      2149      2164      2342      2351
 -1      4267    3    0    1
 -2      2047      2097      2335      2353
 -1      4268    3    0    1
 -2       184       190      1004      2166
 -1      4269    3    0    1
 -2      2176      1388      2222      2243
 -1      4270    3    0    1
 -2       150      2130      2217      2280
 -1      4271    3    0    1
 -2       380      2062      2104      2315
 -1      4272    3    0    1
 -2       360       373      2269      2285
 -1      4273    3    0    1
 -2       373       360      2269      2407
 -1      4274    3    0    1
 -2      2066      2134      2378      2403
 -1      4275    3    0    1
 -2      2223      1386       871      1102
 -1      4276    3    0    1
 -2       310       317      1101      2244
 -1      4277    3    0    1
 -2      2074      2120      2121      2132
 -1      4278    3    0    1
 -2      2096      2266      2274      2475
 -1      4279    3    0    1
 -2      1389      1390      2131      2165
 -1      4280    3    0    1
 -2       438       389      2204      2294
 -1      4281    3    0    1
 -2      2204       389      2223      2294
 -1      4282    3    0    1
 -2       297      1076      1345      2086
 -1      4283    3    0    1
 -2       297       399      1076      2086
 -1      4284    3    0    1
 -2       267       351      2492      2529
 -1      4285    3    0    1
 -2      1386       871       872      2294
 -1      4286    3    0    1
 -2      2181       599      2185      2310
 -1      4287    3    0    1
 -2      1019       418      2142      2301
 -1      4288    3    0    1
 -2       310      1383      2067      2244
 -1      4289    3    0    1
 -2      1392       877      2209      2344
 -1      4290    3    0    1
 -2      1076       399      2071      2086
 -1      4291    3    0    1
 -2      2086       399      1114       297
 -1      4292    3    0    1
 -2       944       378      2111      2522
 -1      4293    3    0    1
 -2      2378       386      2134      2337
 -1      4294    3    0    1
 -2      2052      2074      2130      2217
 -1      4295    3    0    1
 -2      2213       681      2399      2517
 -1      4296    3    0    1
 -2      2064      1057      2161      2518
 -1      4297    3    0    1
 -2       855      1370      2094      2140
 -1      4298    3    0    1
 -2      2111      1333      2143      2489
 -1      4299    3    0    1
 -2       394      1033      2195      2234
 -1      4300    3    0    1
 -2      2462      2085      2469      2534
 -1      4301    3    0    1
 -2      2166       190      2292      2356
 -1      4302    3    0    1
 -2       376      1081      2188      2545
 -1      4303    3    0    1
 -2      2061      2215      2290      2420
 -1      4304    3    0    1
 -2       592       571      1289      2042
 -1      4305    3    0    1
 -2      2058      2173      2396      2502
 -1      4306    3    0    1
 -2      2141      2151      2230      2260
 -1      4307    3    0    1
 -2      1406       327       434      2259
 -1      4308    3    0    1
 -2      2785      2824      2895      3196
 -1      4309    3    0    1
 -2      2124       885      2287      2393
 -1      4310    3    0    1
 -2      2116      2056      2174      2196
 -1      4311    3    0    1
 -2       150      2102      2217      2336
 -1      4312    3    0    1
 -2       825       829      1205      2585
 -1      4313    3    0    1
 -2      2142       196      2257      2263
 -1      4314    3    0    1
 -2      1081      2057      2188      2545
 -1      4315    3    0    1
 -2       345       414      2405      2521
 -1      4316    3    0    1
 -2      2069      2274      2346      2475
 -1      4317    3    0    1
 -2       403      1290      2183      2419
 -1      4318    3    0    1
 -2      2070      2141      2243      2260
 -1      4319    3    0    1
 -2       571       949      1289      2042
 -1      4320    3    0    1
 -2      1098       865      1096      2215
 -1      4321    3    0    1
 -2      2088       130      2191      2281
 -1      4322    3    0    1
 -2       819      2474      2481      2489
 -1      4323    3    0    1
 -2      2272       672      2282      2292
 -1      4324    3    0    1
 -2      1318       749      2230      2439
 -1      4325    3    0    1
 -2       859      1090       860      2362
 -1      4326    3    0    1
 -2      2050      1338      2178      2221
 -1      4327    3    0    1
 -2      1441      3779      1573      3925
 -1      4328    3    0    1
 -2      2168      2079      2249      2279
 -1      4329    3    0    1
 -2      1279       552      2194      2447
 -1      4330    3    0    1
 -2       867      1381       868      2283
 -1      4331    3    0    1
 -2       385      1057      2064      2518
 -1      4332    3    0    1
 -2      1096      1098      2215      2420
 -1      4333    3    0    1
 -2      1299       622       630      2477
 -1      4334    3    0    1
 -2       120       960       961      2185
 -1      4335    3    0    1
 -2       826      1069      2161      2379
 -1      4336    3    0    1
 -2      2112       397      2151      2260
 -1      4337    3    0    1
 -2       979      2177      2206      2323
 -1      4338    3    0    1
 -2      2052      2074      2217      2357
 -1      4339    3    0    1
 -2      2049      1346      2145      2262
 -1      4340    3    0    1
 -2       852      1364      2278      2299
 -1      4341    3    0    1
 -2       735       734      1027      2314
 -1      4342    3    0    1
 -2      1020       213      1023      2348
 -1      4343    3    0    1
 -2      1305       344      2483      2544
 -1      4344    3    0    1
 -2       403       371       954      2183
 -1      4345    3    0    1
 -2      1126      1114      2144      2293
 -1      4346    3    0    1
 -2      2104      2062      2236      2394
 -1      4347    3    0    1
 -2      2117      2174      2206      2311
 -1      4348    3    0    1
 -2      2469      2085      2531      2534
 -1      4349    3    0    1
 -2      2141      2070      2151      2260
 -1      4350    3    0    1
 -2       366      2101      2127      2190
 -1      4351    3    0    1
 -2       369       324      1093      2182
 -1      4352    3    0    1
 -2       416      2136      2201      2385
 -1      4353    3    0    1
 -2       694      1006      2186      2239
 -1      4354    3    0    1
 -2      2053       150      2102      2280
 -1      4355    3    0    1
 -2      2073       223      2218      2385
 -1      4356    3    0    1
 -2       310      1101      1383      2244
 -1      4357    3    0    1
 -2      2243      2070      2260      2267
 -1      4358    3    0    1
 -2      2171       604      2250      2365
 -1      4359    3    0    1
 -2      2184       357      2208      2398
 -1      4360    3    0    1
 -2      2102      2053      2280      2329
 -1      4361    3    0    1
 -2      2167      2089      2380      2511
 -1      4362    3    0    1
 -2      1068      2400      2525      2780
 -1      4363    3    0    1
 -2      2154      2275      2381      2414
 -1      4364    3    0    1
 -2       774       767      2495      2520
 -1      4365    3    0    1
 -2      1312      1018       717      2432
 -1      4366    3    0    1
 -2      1185       587       593      2574
 -1      4367    3    0    1
 -2      2113      2063      2309      2452
 -1      4368    3    0    1
 -2       841      1351      1078      2216
 -1      4369    3    0    1
 -2      2099      2162      2318      2486
 -1      4370    3    0    1
 -2      2093      2080      2122      2158
 -1      4371    3    0    1
 -2      2135      2277      2296      2316
 -1      4372    3    0    1
 -2       549       941      2167      2200
 -1      4373    3    0    1
 -2      2120      1400      2132      2170
 -1      4374    3    0    1
 -2       956       120      2129      2419
 -1      4375    3    0    1
 -2      3155      1816      3464      3568
 -1      4376    3    0    1
 -2       883      2120      2476      2541
 -1      4377    3    0    1
 -2       995       689      1003      2292
 -1      4378    3    0    1
 -2      2470       318      1380      2537
 -1      4379    3    0    1
 -2       366      2053      2102      2127
 -1      4380    3    0    1
 -2       200       198      1011      2512
 -1      4381    3    0    1
 -2      2188      2057      2208      2318
 -1      4382    3    0    1
 -2       725      2045      2348      2387
 -1      4383    3    0    1
 -2      2083       196      2263      2425
 -1      4384    3    0    1
 -2       196      2048      2257      2425
 -1      4385    3    0    1
 -2       434      1355      2080      2259
 -1      4386    3    0    1
 -2      3569      2922      3975      4005
 -1      4387    3    0    1
 -2      2052      2120      2132      2170
 -1      4388    3    0    1
 -2       146       151      2443      2477
 -1      4389    3    0    1
 -2      2126      2055      2232      2312
 -1      4390    3    0    1
 -2      2660      2659      2694      3846
 -1      4391    3    0    1
 -2       259       260      2047      2457
 -1      4392    3    0    1
 -2      1388       873       874      2222
 -1      4393    3    0    1
 -2      2095      2082      2199      2381
 -1      4394    3    0    1
 -2       995       422      2193      2292
 -1      4395    3    0    1
 -2       969       618       976      2105
 -1      4396    3    0    1
 -2       331      1020      2045      2347
 -1      4397    3    0    1
 -2      1364       851       852      2278
 -1      4398    3    0    1
 -2      1111      2204      2224      2307
 -1      4399    3    0    1
 -2       375      2107      2380      2391
 -1      4400    3    0    1
 -2      2052      2217      2280      2357
 -1      4401    3    0    1
 -2      2273      2116      2362      2390
 -1      4402    3    0    1
 -2      1286       576      2240      2398
 -1      4403    3    0    1
 -2       150       974      2102      2336
 -1      4404    3    0    1
 -2      2169       111      2240      2422
 -1      4405    3    0    1
 -2      3886      2956      3447      3591
 -1      4406    3    0    1
 -2      2101      2133      2190      2251
 -1      4407    3    0    1
 -2      1112       320      2132      2170
 -1      4408    3    0    1
 -2      2051       130      2241      2281
 -1      4409    3    0    1
 -2       610       607       965      2501
 -1      4410    3    0    1
 -2       259      1046      2373      2457
 -1      4411    3    0    1
 -2      2386      1024      2445      2482
 -1      4412    3    0    1
 -2      1122      1396      2277      2316
 -1      4413    3    0    1
 -2      2136      2288      2385       416
 -1      4414    3    0    1
 -2       631       627      1243      2571
 -1      4415    3    0    1
 -2       365      1302      2497      2550
 -1      4416    3    0    1
 -2       834      1075      2175      2178
 -1      4417    3    0    1
 -2      2151      2141      2230      2338
 -1      4418    3    0    1
 -2      1408       886      1119      2313
 -1      4419    3    0    1
 -2       881      1124      1398      2109
 -1      4420    3    0    1
 -2      1386      1102      2223      2244
 -1      4421    3    0    1
 -2      1087       857      1373      2258
 -1      4422    3    0    1
 -2       318      1100      1384      2470
 -1      4423    3    0    1
 -2      1294      2459      2501      2620
 -1      4424    3    0    1
 -2      2098      2087      2134      2472
 -1      4425    3    0    1
 -2      1063       388      2155      2528
 -1      4426    3    0    1
 -2       743       744      1031      2458
 -1      4427    3    0    1
 -2       658       988      2254      2298
 -1      4428    3    0    1
 -2      2075      2139      2286      2317
 -1      4429    3    0    1
 -2       612      1295      2253      2264
 -1      4430    3    0    1
 -2      2053      2242      2389      2456
 -1      4431    3    0    1
 -2      2929      3576      3667      4008
 -1      4432    3    0    1
 -2       664       643      1304      2416
 -1      4433    3    0    1
 -2      3973      3743      3975      3971
 -1      4434    3    0    1
 -2       216      2239      2302      2358
 -1      4435    3    0    1
 -2       563       832      1072      2334
 -1      4436    3    0    1
 -2       563      1072      1282      2334
 -1      4437    3    0    1
 -2      1495      1494      3236      1833
 -1      4438    3    0    1
 -2      1070       831      1071      2510
 -1      4439    3    0    1
 -2      3242      2888      3848      1978
 -1      4440    3    0    1
 -2       676      2256      2356      2361
 -1      4441    3    0    1
 -2       997       426      1001      2361
 -1      4442    3    0    1
 -2       360       959      1287      2407
 -1      4443    3    0    1
 -2       308       322      2371      2406
 -1      4444    3    0    1
 -2      2917      3228      3330      3988
 -1      4445    3    0    1
 -2       226       336      1030      2444
 -1      4446    3    0    1
 -2      2349      1317      2413      2444
 -1      4447    3    0    1
 -2      1351      1078      2216      2406
 -1      4448    3    0    1
 -2      2122      2189      2431      2442
 -1      4449    3    0    1
 -2      2168      2079      2431      2442
 -1      4450    3    0    1
 -2       445      1401      1107      2345
 -1      4451    3    0    1
 -2      2125       445      2296      2345
 -1      4452    3    0    1
 -2      2176      2069      2274      2346
 -1      4453    3    0    1
 -2       271      1049      2155      2539
 -1      4454    3    0    1
 -2      2114      2069      2176      2346
 -1      4455    3    0    1
 -2       251       392      2069      2346
 -1      4456    3    0    1
 -2       251      2069      2114      2346
 -1      4457    3    0    1
 -2      2069       392      2096      2346
 -1      4458    3    0    1
 -2      2121      2051      2241      2476
 -1      4459    3    0    1
 -2      2063      2309      2321      2473
 -1      4460    3    0    1
 -2       392      2096      2346      2475
 -1      4461    3    0    1
 -2       549      2167      2380      2511
 -1      4462    3    0    1
 -2       239       347      2374      2411
 -1      4463    3    0    1
 -2      3221      1517      3336      3372
 -1      4464    3    0    1
 -2       845       846      2286      2427
 -1      4465    3    0    1
 -2       196      2083      2226      2425
 -1      4466    3    0    1
 -2      2081      2156      2344      2425
 -1      4467    3    0    1
 -2      1577       412      1634      1771
 -1      4468    3    0    1
 -2      1494      1832      1833      3330
 -1      4469    3    0    1
 -2       493       492      2730      3601
 -1      4470    3    0    1
 -2      1023       213      2347      2348
 -1      4471    3    0    1
 -2       176       419       989      2505
 -1      4472    3    0    1
 -2       415      1021      1022      2348
 -1      4473    3    0    1
 -2      2347      1020       213       331
 -1      4474    3    0    1
 -2      1020      2347       213      2348
 -1      4475    3    0    1
 -2       429      1010      2048      2414
 -1      4476    3    0    1
 -2      1010      1006      2048      2359
 -1      4477    3    0    1
 -2      2142      2186      2257      2359
 -1      4478    3    0    1
 -2      2437      2511      2167      2200
 -1      4479    3    0    1
 -2       694      1006      1010      2359
 -1      4480    3    0    1
 -2       135       968       969      2430
 -1      4481    3    0    1
 -2       135      2171      2248      2430
 -1      4482    3    0    1
 -2      2171       140      2412      2430
 -1      4483    3    0    1
 -2       994       671      2282      2547
 -1      4484    3    0    1
 -2       968       135      2248      2430
 -1      4485    3    0    1
 -2      1253      1747      3129      3383
 -1      4486    3    0    1
 -2       269       391      2155      2353
 -1      4487    3    0    1
 -2       391       269      1049      2353
 -1      4488    3    0    1
 -2      1049       269      2155      2353
 -1      4489    3    0    1
 -2      2268      2219      2365      2412
 -1      4490    3    0    1
 -2      2171       604      2365      2412
 -1      4491    3    0    1
 -2      1329       792      2097      2353
 -1      4492    3    0    1
 -2       272       391      1329      2353
 -1      4493    3    0    1
 -2       272      1329      2097      2353
 -1      4494    3    0    1
 -2      3819      1545      3942      3729
 -1      4495    3    0    1
 -2      1496      1662      3205      3210
 -1      4496    3    0    1
 -2      2148      1362      2502      2503
 -1      4497    3    0    1
 -2       599       960       961      2574
 -1      4498    3    0    1
 -2       891      1403      2109      2450
 -1      4499    3    0    1
 -2      1332      2137      2319      2564
 -1      4500    3    0    1
 -2       962       967      3792      2020
 -1      4501    3    0    1
 -2       594       586       959      2530
 -1      4502    3    0    1
 -2       586      2129      2364      2530
 -1      4503    3    0    1
 -2       341      2043      2118      2401
 -1      4504    3    0    1
 -2      1009      1306      2727      3730
 -1      4505    3    0    1
 -2      2137      2161      2434      2554
 -1      4506    3    0    1
 -2       555       943      1334      2418
 -1      4507    3    0    1
 -2      1753      1752      1944      3596
 -1      4508    3    0    1
 -2       391       269      2155      2496
 -1      4509    3    0    1
 -2      3818      1008      3849      3945
 -1      4510    3    0    1
 -2       666      1305      2483      2544
 -1      4511    3    0    1
 -2       414       982      1300      2405
 -1      4512    3    0    1
 -2      1327      1051       789      2355
 -1      4513    3    0    1
 -2       770       789      2435      2436
 -1      4514    3    0    1
 -2       789      1041      1328      2436
 -1      4515    3    0    1
 -2       806       807      1331      2417
 -1      4516    3    0    1
 -2      1517      3093      1840      3949
 -1      4517    3    0    1
 -2      3420      1853      3492      3673
 -1      4518    3    0    1
 -2      2197       984      2487      2524
 -1      4519    3    0    1
 -2      1071       945      2308      2549
 -1      4520    3    0    1
 -2       807      1060      1327      2355
 -1      4521    3    0    1
 -2       288      2510      2553      2554
 -1      4522    3    0    1
 -2       562       550      1169      2599
 -1      4523    3    0    1
 -2       788       807      1327      2355
 -1      4524    3    0    1
 -2      3478       450      2009      2010
 -1      4525    3    0    1
 -2      2875      1458      2883      3879
 -1      4526    3    0    1
 -2       788      1050      1331      2355
 -1      4527    3    0    1
 -2      2118      2072      2220      2401
 -1      4528    3    0    1
 -2       807       788      1331      2355
 -1      4529    3    0    1
 -2      2245       204      2397      2493
 -1      4530    3    0    1
 -2      1117      1407      2393      2557
 -1      4531    3    0    1
 -2      2119      2068      2238      2470
 -1      4532    3    0    1
 -2       345       414      1300      2405
 -1      4533    3    0    1
 -2       982       646      1300      2405
 -1      4534    3    0    1
 -2       789      1051      2435      2436
 -1      4535    3    0    1
 -2       789       788      2355      2436
 -1      4536    3    0    1
 -2      2847       147      3766      3776
 -1      4537    3    0    1
 -2       586       956      2264      2364
 -1      4538    3    0    1
 -2       360      1287      2100      2364
 -1      4539    3    0    1
 -2      2100      1287      2264      2364
 -1      4540    3    0    1
 -2       607       610       964      2459
 -1      4541    3    0    1
 -2      2172      2295      2332      2366
 -1      4542    3    0    1
 -2      2044      2123      2306      2478
 -1      4543    3    0    1
 -2       971       622      2295      2366
 -1      4544    3    0    1
 -2      2295       622      2332      2366
 -1      4545    3    0    1
 -2      2151      2141      2338      2498
 -1      4546    3    0    1
 -2      1028      2136      2152      2429
 -1      4547    3    0    1
 -2       146       364       971      2366
 -1      4548    3    0    1
 -2       364       977       985      2366
 -1      4549    3    0    1
 -2       365       364       985      2366
 -1      4550    3    0    1
 -2       971       364      2332      2366
 -1      4551    3    0    1
 -2       622       971      2332      2366
 -1      4552    3    0    1
 -2       738      1317      2413      2429
 -1      4553    3    0    1
 -2      1479      1480      2944      3007
 -1      4554    3    0    1
 -2       664       661       991      2490
 -1      4555    3    0    1
 -2      1294       964      2459      2620
 -1      4556    3    0    1
 -2      1285       949       571      2369
 -1      4557    3    0    1
 -2       719       713      1021      2639
 -1      4558    3    0    1
 -2      2195      2230      2234      2439
 -1      4559    3    0    1
 -2       571      2042      2214      2369
 -1      4560    3    0    1
 -2       571       949      2042      2369
 -1      4561    3    0    1
 -2       953       569       954      2596
 -1      4562    3    0    1
 -2      2230       749      2234      2439
 -1      4563    3    0    1
 -2      2319       388      2539      2540
 -1      4564    3    0    1
 -2      2840      1450      1679      3246
 -1      4565    3    0    1
 -2      1049       785      1329      2538
 -1      4566    3    0    1
 -2       756       749      1036      2439
 -1      4567    3    0    1
 -2       797       780      2265      2373
 -1      4568    3    0    1
 -2      2651       996       671       993
 -1      4569    3    0    1
 -2      2047       272       260      2097
 -1      4570    3    0    1
 -2       743      2320      2376      2458
 -1      4571    3    0    1
 -2      1030       226      2444      2458
 -1      4572    3    0    1
 -2      1846       431      3853      3894
 -1      4573    3    0    1
 -2       241       229      1037      2513
 -1      4574    3    0    1
 -2       743      1030      2320      2458
 -1      4575    3    0    1
 -2       226      1030      1031      2458
 -1      4576    3    0    1
 -2       260      1046      1054      2373
 -1      4577    3    0    1
 -2      1046       797      1054      2373
 -1      4578    3    0    1
 -2       272       260      1054      2373
 -1      4579    3    0    1
 -2       780       797      1046      2373
 -1      4580    3    0    1
 -2       272      2047       260      2373
 -1      4581    3    0    1
 -2      1445      1446      2775      3495
 -1      4582    3    0    1
 -2      3114      3453      3970      3979
 -1      4583    3    0    1
 -2      1600      3293      3906      3600
 -1      4584    3    0    1
 -2      1539      1538      3073      3320
 -1      4585    3    0    1
 -2      2169       581      2233      2455
 -1      4586    3    0    1
 -2      2375       738      2413      2445
 -1      4587    3    0    1
 -2       731      1025      2304      2375
 -1      4588    3    0    1
 -2      3823      3529      3594      1987
 -1      4589    3    0    1
 -2      2096      2068      2266      2475
 -1      4590    3    0    1
 -2       346       255      1044      2480
 -1      4591    3    0    1
 -2       944      2111      2143      2377
 -1      4592    3    0    1
 -2       558       944      2143      2522
 -1      4593    3    0    1
 -2      2738      3848      3851      3940
 -1      4594    3    0    1
 -2       380      1333      2111      2377
 -1      4595    3    0    1
 -2       991      1303      2147      2490
 -1      4596    3    0    1
 -2      2323      2177      2507      2544
 -1      4597    3    0    1
 -2      1069       383      2064      2379
 -1      4598    3    0    1
 -2      2064       383      2236      2379
 -1      4599    3    0    1
 -2      2089      2061      2091      2465
 -1      4600    3    0    1
 -2       382       287      1071      2553
 -1      4601    3    0    1
 -2       371       948      2183      2392
 -1      4602    3    0    1
 -2       552      2194      2447      2466
 -1      4603    3    0    1
 -2      2089      1278      2167      2380
 -1      4604    3    0    1
 -2       375      1278      2089      2380
 -1      4605    3    0    1
 -2      1278       549      2167      2380
 -1      4606    3    0    1
 -2       375      2089      2091      2380
 -1      4607    3    0    1
 -2      2167       951      2184      2511
 -1      4608    3    0    1
 -2      2082      2154      2275      2381
 -1      4609    3    0    1
 -2      2082      2095      2154      2381
 -1      4610    3    0    1
 -2      2137       283      2554      2555
 -1      4611    3    0    1
 -2      2716       573      1279       950
 -1      4612    3    0    1
 -2       961      2129       120      2382
 -1      4613    3    0    1
 -2      2081      2209      2344      2441
 -1      4614    3    0    1
 -2      1395      1392      2209      2441
 -1      4615    3    0    1
 -2      1399       304       435      2383
 -1      4616    3    0    1
 -2      1119      1408      2313      2441
 -1      4617    3    0    1
 -2       435       304      1370      2383
 -1      4618    3    0    1
 -2      2209      1392      2344      2441
 -1      4619    3    0    1
 -2       304      1399      1127      2383
 -1      4620    3    0    1
 -2      1370       304      1371      2383
 -1      4621    3    0    1
 -2       396      1033      1321      2384
 -1      4622    3    0    1
 -2      2210      1127      2383      2440
 -1      4623    3    0    1
 -2       340       241      1037      2384
 -1      4624    3    0    1
 -2      1461      1460      1547      3393
 -1      4625    3    0    1
 -2      2048       429      2414      2527
 -1      4626    3    0    1
 -2       816      2510      2555      2558
 -1      4627    3    0    1
 -2       948       371      2183      2422
 -1      4628    3    0    1
 -2       568      2212      2398      2422
 -1      4629    3    0    1
 -2       396       340      1038      2384
 -1      4630    3    0    1
 -2       340      1037      1038      2384
 -1      4631    3    0    1
 -2       372      2169      2330      2422
 -1      4632    3    0    1
 -2      2240      1286      2398      2422
 -1      4633    3    0    1
 -2      1321      2384      2439      2515
 -1      4634    3    0    1
 -2       429      2226      2275      2527
 -1      4635    3    0    1
 -2      1079       845      2286      2516
 -1      4636    3    0    1
 -2       762      2324      2421      2514
 -1      4637    3    0    1
 -2      1037      1031      2252      2513
 -1      4638    3    0    1
 -2       129       134      1661      3416
 -1      4639    3    0    1
 -2       862       861      2333      2389
 -1      4640    3    0    1
 -2       260       259      2373      2457
 -1      4641    3    0    1
 -2      1377       861       862      2389
 -1      4642    3    0    1
 -2       861      1377      1091      2389
 -1      4643    3    0    1
 -2      2234       774      2338      2520
 -1      4644    3    0    1
 -2      1091      2053      2333      2389
 -1      4645    3    0    1
 -2       861      1091      2333      2389
 -1      4646    3    0    1
 -2      1040       767      1326      2520
 -1      4647    3    0    1
 -2       269      1054      1055      2496
 -1      4648    3    0    1
 -2      1375       860      2362      2390
 -1      4649    3    0    1
 -2      2192      1375      2362      2390
 -1      4650    3    0    1
 -2       301      1375       307      2390
 -1      4651    3    0    1
 -2       307      1375      2192      2390
 -1      4652    3    0    1
 -2      2089      2091      2380      2391
 -1      4653    3    0    1
 -2      2214       571      2369      2466
 -1      4654    3    0    1
 -2       594      1290      2183      2392
 -1      4655    3    0    1
 -2      2044      2269      2285      2396
 -1      4656    3    0    1
 -2       568      2123      2212      2392
 -1      4657    3    0    1
 -2      2183       948      2212      2392
 -1      4658    3    0    1
 -2       948       568      2212      2392
 -1      4659    3    0    1
 -2       661      1303      2399      2517
 -1      4660    3    0    1
 -2       681       661      2399      2517
 -1      4661    3    0    1
 -2      1407       885      1117      2393
 -1      4662    3    0    1
 -2      2287      2075      2288      2393
 -1      4663    3    0    1
 -2      1303      2147      2490      2517
 -1      4664    3    0    1
 -2       895      1407      2287      2393
 -1      4665    3    0    1
 -2       885      1407       895      2393
 -1      4666    3    0    1
 -2        95       947      3991      2033
 -1      4667    3    0    1
 -2      3463      2651       996      2586
 -1      4668    3    0    1
 -2      1000       681      2213      2517
 -1      4669    3    0    1
 -2      1588      3109      1823      1822
 -1      4670    3    0    1
 -2       594      2123      2392      2395
 -1      4671    3    0    1
 -2      2044      2285      2306      2396
 -1      4672    3    0    1
 -2      2145      2285      2354      2396
 -1      4673    3    0    1
 -2      2058      2145      2354      2396
 -1      4674    3    0    1
 -2      2285      2058      2306      2396
 -1      4675    3    0    1
 -2      2145      2058      2285      2396
 -1      4676    3    0    1
 -2      1007       694      2245      2397
 -1      4677    3    0    1
 -2      2245       694      2359      2397
 -1      4678    3    0    1
 -2       694      2186      2359      2397
 -1      4679    3    0    1
 -2       216       428      2302      2397
 -1      4680    3    0    1
 -2      2239       216      2302      2397
 -1      4681    3    0    1
 -2      1007       428      2239      2397
 -1      4682    3    0    1
 -2       204       428      1007      2397
 -1      4683    3    0    1
 -2       694      1007      2239      2397
 -1      4684    3    0    1
 -2       428       216      2239      2397
 -1      4685    3    0    1
 -2       357       108      2208      2398
 -1      4686    3    0    1
 -2      2208       108      2212      2398
 -1      4687    3    0    1
 -2       108      1283      2212      2398
 -1      4688    3    0    1
 -2       108       951      1283      2398
 -1      4689    3    0    1
 -2       108       357       951      2398
 -1      4690    3    0    1
 -2      1286       948       568      2398
 -1      4691    3    0    1
 -2      1594       250      3006      3996
 -1      4692    3    0    1
 -2       385      2064      2325      2518
 -1      4693    3    0    1
 -2      1361      1080      2162      2420
 -1      4694    3    0    1
 -2      1351      2216      2371      2406
 -1      4695    3    0    1
 -2       803      1057      2271      2518
 -1      4696    3    0    1
 -2      2101       983      2251      2428
 -1      4697    3    0    1
 -2       326       302      1353      2431
 -1      4698    3    0    1
 -2      2137       803      2271      2518
 -1      4699    3    0    1
 -2      1620      1741      3910      3748
 -1      4700    3    0    1
 -2       826       819      2474      2481
 -1      4701    3    0    1
 -2       846      1357      2286      2427
 -1      4702    3    0    1
 -2       983      2101      2172      2428
 -1      4703    3    0    1
 -2       385      2325      2453      2518
 -1      4704    3    0    1
 -2      2161       803      2434      2518
 -1      4705    3    0    1
 -2      1064      2510      2554      2555
 -1      4706    3    0    1
 -2      2064      2161      2379      2434
 -1      4707    3    0    1
 -2       803      2137      2161      2434
 -1      4708    3    0    1
 -2       826      2161      2339      2434
 -1      4709    3    0    1
 -2       881      1403       891      2450
 -1      4710    3    0    1
 -2       983       979      2126      2428
 -1      4711    3    0    1
 -2       681       661       990      2399
 -1      4712    3    0    1
 -2       146       977      2533      3775
 -1      4713    3    0    1
 -2      2325      2064      2434      2518
 -1      4714    3    0    1
 -2       681       990      1307      2399
 -1      4715    3    0    1
 -2       943      2418      2992      3829
 -1      4716    3    0    1
 -2      1057       385      2271      2518
 -1      4717    3    0    1
 -2       664       643      2416      2490
 -1      4718    3    0    1
 -2       806       807      2417      2449
 -1      4719    3    0    1
 -2       117      2233      2691      3781
 -1      4720    3    0    1
 -2      1858      1542      3889      3731
 -1      4721    3    0    1
 -2      2317       211      2350      2485
 -1      4722    3    0    1
 -2      3073      1538      1785      3861
 -1      4723    3    0    1
 -2       807       806      1060      2449
 -1      4724    3    0    1
 -2      1563      1562      3019      1715
 -1      4725    3    0    1
 -2       798       797      1056      2492
 -1      4726    3    0    1
 -2      2242      2053      2329      2456
 -1      4727    3    0    1
 -2       217      2302      2348      2499
 -1      4728    3    0    1
 -2       690       689      1004      2657
 -1      4729    3    0    1
 -2        96       379       941      2491
 -1      4730    3    0    1
 -2      2111       378      2402      2522
 -1      4731    3    0    1
 -2      2139      2286      2317      2485
 -1      4732    3    0    1
 -2       587      1184      2567      2574
 -1      4733    3    0    1
 -2       414      2405      2521      2524
 -1      4734    3    0    1
 -2      3786      3807      3816      4003
 -1      4735    3    0    1
 -2      2143      2377      2479      2522
 -1      4736    3    0    1
 -2       549       941      2200      2410
 -1      4737    3    0    1
 -2       252       259      1040      2457
 -1      4738    3    0    1
 -2      2170      2052      2408      2409
 -1      4739    3    0    1
 -2      1368       853       854      2409
 -1      4740    3    0    1
 -2      1365      2170      2408      2409
 -1      4741    3    0    1
 -2       853      1365      2408      2409
 -1      4742    3    0    1
 -2       853      1368      1365      2409
 -1      4743    3    0    1
 -2      1278       375      2107      2410
 -1      4744    3    0    1
 -2      2107       375      2380      2410
 -1      4745    3    0    1
 -2       290      2748      3829      1804
 -1      4746    3    0    1
 -2        20      1844      3503      2003
 -1      4747    3    0    1
 -2      2339       826      2474      2481
 -1      4748    3    0    1
 -2      1336      1066       826      2481
 -1      4749    3    0    1
 -2      2143      1066      2308      2481
 -1      4750    3    0    1
 -2      1671      2734      3128      3644
 -1      4751    3    0    1
 -2       943      1334      2418      2762
 -1      4752    3    0    1
 -2       223      1024      2201      2445
 -1      4753    3    0    1
 -2      2815      2848      3924      3954
 -1      4754    3    0    1
 -2       362       969      2105      2430
 -1      4755    3    0    1
 -2       563       832      2334      2549
 -1      4756    3    0    1
 -2      1010      2203      2328      2414
 -1      4757    3    0    1
 -2      2154      2180      2203      2414
 -1      4758    3    0    1
 -2      2203      2180      2328      2414
 -1      4759    3    0    1
 -2      2154       429      2275      2414
 -1      4760    3    0    1
 -2      1010       429      2154      2414
 -1      4761    3    0    1
 -2      1010      2154      2203      2414
 -1      4762    3    0    1
 -2      1062       278      1065      2415
 -1      4763    3    0    1
 -2      1403       881      1109      2450
 -1      4764    3    0    1
 -2       267      1051      1327      2529
 -1      4765    3    0    1
 -2       576       951      2167      2511
 -1      4766    3    0    1
 -2       881       891      2109      2450
 -1      4767    3    0    1
 -2       439       436      1109      2450
 -1      4768    3    0    1
 -2       349       278      1062      2415
 -1      4769    3    0    1
 -2       881      2109      2227      2450
 -1      4770    3    0    1
 -2       343       980      2446      2544
 -1      4771    3    0    1
 -2      3070       406      3828      3990
 -1      4772    3    0    1
 -2      2415       816      2555      2558
 -1      4773    3    0    1
 -2      1012       424      2303      2493
 -1      4774    3    0    1
 -2      3181      3070      3953      3990
 -1      4775    3    0    1
 -2       436       439      2307      2450
 -1      4776    3    0    1
 -2      1013       708      2387      2493
 -1      4777    3    0    1
 -2      2187      2115      2227      2450
 -1      4778    3    0    1
 -2      1036      2515      2439      2526
 -1      4779    3    0    1
 -2      2043      1318      2439      2526
 -1      4780    3    0    1
 -2      1327      1051      2355      2529
 -1      4781    3    0    1
 -2      2355      1051      2436      2529
 -1      4782    3    0    1
 -2       636       978      2340      4029
 -1      4783    3    0    1
 -2      2089      2184      2380      2511
 -1      4784    3    0    1
 -2      2184       576      2398      2511
 -1      4785    3    0    1
 -2      1403      2065      2109      2450
 -1      4786    3    0    1
 -2       749      1033      2195      2763
 -1      4787    3    0    1
 -2       403       126      1290      2419
 -1      4788    3    0    1
 -2       374       303      1096      2420
 -1      4789    3    0    1
 -2       374      1096      2215      2420
 -1      4790    3    0    1
 -2       767      2047      2495      2520
 -1      4791    3    0    1
 -2      1082       850      2148      2502
 -1      4792    3    0    1
 -2       226       398      2444      2458
 -1      4793    3    0    1
 -2       256       394      1038      2421
 -1      4794    3    0    1
 -2      1038       762      1045      2421
 -1      4795    3    0    1
 -2       256      1038      1045      2421
 -1      4796    3    0    1
 -2       762       779      1045      2421
 -1      4797    3    0    1
 -2       568       948      2212      2422
 -1      4798    3    0    1
 -2       111       948      1286      2422
 -1      4799    3    0    1
 -2       111      1286      2240      2422
 -1      4800    3    0    1
 -2       371       372      2330      2422
 -1      4801    3    0    1
 -2      2183       371      2330      2422
 -1      4802    3    0    1
 -2       372       371       948      2422
 -1      4803    3    0    1
 -2      2161       826      2379      2434
 -1      4804    3    0    1
 -2       576      2167      2240      2511
 -1      4805    3    0    1
 -2      1591      1590      2990      3138
 -1      4806    3    0    1
 -2      1045       779      1046      2519
 -1      4807    3    0    1
 -2       381      1281      2479      2559
 -1      4808    3    0    1
 -2       256       252      2457      2519
 -1      4809    3    0    1
 -2       252       256      1045      2519
 -1      4810    3    0    1
 -2       798      1055      2496      2560
 -1      4811    3    0    1
 -2      1333      2111      2377      2489
 -1      4812    3    0    1
 -2      1562      2843      1714      1715
 -1      4813    3    0    1
 -2      1589      1588      1799      3322
 -1      4814    3    0    1
 -2      1036      1318      2043      2526
 -1      4815    3    0    1
 -2      2139      2317      2350      2485
 -1      4816    3    0    1
 -2       697      1310      1008      2424
 -1      4817    3    0    1
 -2      1002       689      2272      2451
 -1      4818    3    0    1
 -2       457      2617      2618      2726
 -1      4819    3    0    1
 -2       690       689      1002      2451
 -1      4820    3    0    1
 -2      2339       288      2553      2554
 -1      4821    3    0    1
 -2       681      1307      2433      2663
 -1      4822    3    0    1
 -2      3786      1497      3795      3816
 -1      4823    3    0    1
 -2       807      2355      2417      2449
 -1      4824    3    0    1
 -2      2510      1064      2554      1070
 -1      4825    3    0    1
 -2      1310       697       699      2424
 -1      4826    3    0    1
 -2      2325      2064      2379      2434
 -1      4827    3    0    1
 -2       288       384      1070      2510
 -1      4828    3    0    1
 -2       717      1008      1313      2424
 -1      4829    3    0    1
 -2       826      2339      2379      2434
 -1      4830    3    0    1
 -2      1011       707      1014      3747
 -1      4831    3    0    1
 -2      2195       256      2457      2519
 -1      4832    3    0    1
 -2       717       697      1008      2424
 -1      4833    3    0    1
 -2       278      1060      1330      2449
 -1      4834    3    0    1
 -2      1489      1488      1584      3311
 -1      4835    3    0    1
 -2       204      1012      1013      2493
 -1      4836    3    0    1
 -2      1330      1060       806      2449
 -1      4837    3    0    1
 -2       563      2334      2426      2549
 -1      4838    3    0    1
 -2      1000      1303      2517      2777
 -1      4839    3    0    1
 -2      1002       187      1005      2451
 -1      4840    3    0    1
 -2       823       806      2400      2449
 -1      4841    3    0    1
 -2       715       735      1312      2432
 -1      4842    3    0    1
 -2      2308      2143      2481      2489
 -1      4843    3    0    1
 -2       735      1027      1312      2432
 -1      4844    3    0    1
 -2      2111      2143      2377      2489
 -1      4845    3    0    1
 -2      1034       234      3782      1922
 -1      4846    3    0    1
 -2      1307       999       681      2433
 -1      4847    3    0    1
 -2       707      1012      1013      2664
 -1      4848    3    0    1
 -2      2593      2918      3912      4010
 -1      4849    3    0    1
 -2       997       425      2361      2509
 -1      4850    3    0    1
 -2       681      2213      2399      2433
 -1      4851    3    0    1
 -2       681       679      2213      2433
 -1      4852    3    0    1
 -2       679       681       999      2433
 -1      4853    3    0    1
 -2      1302       980       640      2507
 -1      4854    3    0    1
 -2       679       999      1310      2433
 -1      4855    3    0    1
 -2       699       679      1310      2433
 -1      4856    3    0    1
 -2       770      1051      1324      2435
 -1      4857    3    0    1
 -2       187      1000      2213      3882
 -1      4858    3    0    1
 -2      2710       173      3835      3882
 -1      4859    3    0    1
 -2       770       789      1051      2435
 -1      4860    3    0    1
 -2       187      3014      3835      3882
 -1      4861    3    0    1
 -2      2167       401      2240      2437
 -1      4862    3    0    1
 -2      2437      2511      2240      2167
 -1      4863    3    0    1
 -2       103       946       953      2437
 -1      4864    3    0    1
 -2       401       103       953      2437
 -1      4865    3    0    1
 -2       103       401      2167      2437
 -1      4866    3    0    1
 -2      2058      2148      2173      2502
 -1      4867    3    0    1
 -2      1439      1655      1656      2967
 -1      4868    3    0    1
 -2      3810      3855      3917      3922
 -1      4869    3    0    1
 -2       762       761      1322      2514
 -1      4870    3    0    1
 -2      2139      2075      2286      2516
 -1      4871    3    0    1
 -2      2286       845      2427      2516
 -1      4872    3    0    1
 -2      1321      1033       756      2439
 -1      4873    3    0    1
 -2      2383      1371      2094      2440
 -1      4874    3    0    1
 -2      1371      2383      2094      1370
 -1      4875    3    0    1
 -2       441      1392      1395      2441
 -1      4876    3    0    1
 -2      1392       442      2344      2441
 -1      4877    3    0    1
 -2       441       442      1392      2441
 -1      4878    3    0    1
 -2      1119       441      1408      2441
 -1      4879    3    0    1
 -2       442      1119      2344      2441
 -1      4880    3    0    1
 -2       442       441      1119      2441
 -1      4881    3    0    1
 -2      1119      2313      2344      2441
 -1      4882    3    0    1
 -2      2431      1086      2146      2442
 -1      4883    3    0    1
 -2      1086      2431      2146      1374
 -1      4884    3    0    1
 -2      2168      2146      2258      2442
 -1      4885    3    0    1
 -2      1086       857      2146      2442
 -1      4886    3    0    1
 -2      2146       857      2258      2442
 -1      4887    3    0    1
 -2       653       636      2197      2533
 -1      4888    3    0    1
 -2      1792      1791      3292      3339
 -1      4889    3    0    1
 -2      2285      2044      2306      2478
 -1      4890    3    0    1
 -2       594       959      2123      2478
 -1      4891    3    0    1
 -2       563      2549      3765      4030
 -1      4892    3    0    1
 -2       373       959      2407      2478
 -1      4893    3    0    1
 -2       373      2269      2285      2478
 -1      4894    3    0    1
 -2       224      1032      2039      3768
 -1      4895    3    0    1
 -2       636      2340      3770      4029
 -1      4896    3    0    1
 -2       738       731      1028      2445
 -1      4897    3    0    1
 -2       251      1043      1323      2495
 -1      4898    3    0    1
 -2       643      2405      2416      2490
 -1      4899    3    0    1
 -2       125       962      2310      2020
 -1      4900    3    0    1
 -2      2346       392      2495      2498
 -1      4901    3    0    1
 -2      1312      1018      2432      2551
 -1      4902    3    0    1
 -2       392       251      2495      2498
 -1      4903    3    0    1
 -2       251      2338      2495      2498
 -1      4904    3    0    1
 -2       382      1071      2308      2553
 -1      4905    3    0    1
 -2      2114       251      2346      2498
 -1      4906    3    0    1
 -2      2141      2114      2176      2498
 -1      4907    3    0    1
 -2      2568      2632      2984      3805
 -1      4908    3    0    1
 -2       388       276      2319      2564
 -1      4909    3    0    1
 -2      2672      3040      3823      3529
 -1      4910    3    0    1
 -2       342       343       980      2446
 -1      4911    3    0    1
 -2       664       991      1300      2490
 -1      4912    3    0    1
 -2      2286      2076      2427      2562
 -1      4913    3    0    1
 -2       160       980      1302      2507
 -1      4914    3    0    1
 -2      1285       942      2369      2466
 -1      4915    3    0    1
 -2      1384      2119      2238      2470
 -1      4916    3    0    1
 -2       211      2343      2350      2485
 -1      4917    3    0    1
 -2      2377      2143      2479      2489
 -1      4918    3    0    1
 -2      2143      2308      2479      2489
 -1      4919    3    0    1
 -2      2143       819      2481      2489
 -1      4920    3    0    1
 -2      1333       819      2143      2489
 -1      4921    3    0    1
 -2      2266      2068      2283      2470
 -1      4922    3    0    1
 -2      1049      1329      2353      2538
 -1      4923    3    0    1
 -2      2184      2089      2380      2465
 -1      4924    3    0    1
 -2      2061      2290      2391      2465
 -1      4925    3    0    1
 -2      1304       661       990      3798
 -1      4926    3    0    1
 -2       144       159      1897      1914
 -1      4927    3    0    1
 -2      2874      3239      3872      3578
 -1      4928    3    0    1
 -2       946       953      2437      2455
 -1      4929    3    0    1
 -2      2237       946      2437      2455
 -1      4930    3    0    1
 -2       564       946      2237      2455
 -1      4931    3    0    1
 -2      1484      1485      2949      3082
 -1      4932    3    0    1
 -2       581       564       952      2455
 -1      4933    3    0    1
 -2       946       581       953      2455
 -1      4934    3    0    1
 -2       564       581       946      2455
 -1      4935    3    0    1
 -2       564       947       952      2455
 -1      4936    3    0    1
 -2      2053       363      2408      2456
 -1      4937    3    0    1
 -2       363       321      1366      2456
 -1      4938    3    0    1
 -2       363      1366      2408      2456
 -1      4939    3    0    1
 -2      1091       363      2053      2456
 -1      4940    3    0    1
 -2       321       363      1091      2456
 -1      4941    3    0    1
 -2       321      1091      1377      2456
 -1      4942    3    0    1
 -2      2338       774      2495      2520
 -1      4943    3    0    1
 -2      1336       826      2339      2481
 -1      4944    3    0    1
 -2      1062      2528      2415       815
 -1      4945    3    0    1
 -2      3796      1620      3836      3908
 -1      4946    3    0    1
 -2      1040      1326      2457      2520
 -1      4947    3    0    1
 -2      2410       558      2479      2522
 -1      4948    3    0    1
 -2      2195      1326      2234      2520
 -1      4949    3    0    1
 -2       278      2415      2449      2780
 -1      4950    3    0    1
 -2      3798      2742      3251      4025
 -1      4951    3    0    1
 -2       256      2195      2457      2520
 -1      4952    3    0    1
 -2      1380      1381      2283      2537
 -1      4953    3    0    1
 -2      1380       318      1381      2537
 -1      4954    3    0    1
 -2      3374      3065      3890      3967
 -1      4955    3    0    1
 -2       343      2446      2483      2544
 -1      4956    3    0    1
 -2      2543       646      2684      3097
 -1      4957    3    0    1
 -2      2405       345      2521      2779
 -1      4958    3    0    1
 -2       607       964      1298      2459
 -1      4959    3    0    1
 -2       533       534       714      2639
 -1      4960    3    0    1
 -2       628       607      1298      2459
 -1      4961    3    0    1
 -2      2893      1577      1771      3894
 -1      4962    3    0    1
 -2       967       136       970      2463
 -1      4963    3    0    1
 -2       617       618       969      2463
 -1      4964    3    0    1
 -2       969      2463      2105      2430
 -1      4965    3    0    1
 -2       617       968      2248      2463
 -1      4966    3    0    1
 -2      2248       968      2430      2463
 -1      4967    3    0    1
 -2       968       969      2430      2463
 -1      4968    3    0    1
 -2       968       617       969      2463
 -1      4969    3    0    1
 -2       595       591      1186      3194
 -1      4970    3    0    1
 -2      2781      3230      3926      3997
 -1      4971    3    0    1
 -2       734       753      1035      2464
 -1      4972    3    0    1
 -2       734      1035      1315      2464
 -1      4973    3    0    1
 -2       573       552       942      2466
 -1      4974    3    0    1
 -2       573       942      1285      2466
 -1      4975    3    0    1
 -2      1983      1982      3720      3726
 -1      4976    3    0    1
 -2      2076       211      2317      2485
 -1      4977    3    0    1
 -2       392       251      1323      2495
 -1      4978    3    0    1
 -2      1620      3910      3993      3748
 -1      4979    3    0    1
 -2      2749      3228      3873      3988
 -1      4980    3    0    1
 -2      3228      3017      3873      3988
 -1      4981    3    0    1
 -2       542       541      2662      2664
 -1      4982    3    0    1
 -2       699      2424      2508      2727
 -1      4983    3    0    1
 -2      3876      3177      3385      3655
 -1      4984    3    0    1
 -2      1538      1539      3073      1786
 -1      4985    3    0    1
 -2      1495      1494      1833      3330
 -1      4986    3    0    1
 -2      1684      1683      3410      3458
 -1      4987    3    0    1
 -2       767      2047      2352      2495
 -1      4988    3    0    1
 -2      1272       695       937      2664
 -1      4989    3    0    1
 -2      2919      3188      3912      3548
 -1      4990    3    0    1
 -2       976      2105      2443      2532
 -1      4991    3    0    1
 -2      1447      1828      3566      3966
 -1      4992    3    0    1
 -2       311      1382       319      2471
 -1      4993    3    0    1
 -2      1382       868      2274      2471
 -1      4994    3    0    1
 -2      1382       867       868      2471
 -1      4995    3    0    1
 -2       868      2266      2274      2471
 -1      4996    3    0    1
 -2      2098      2341      2539      2540
 -1      4997    3    0    1
 -2      1332       388      2319      2540
 -1      4998    3    0    1
 -2       388       271      2539      2540
 -1      4999    3    0    1
 -2      1048       785      2098      2472
 -1      5000    3    0    1
 -2      1048      2098      2134      2472
 -1      5001    3    0    1
 -2       271      1049      2539      2540
 -1      5002    3    0    1
 -2      1333      1069       819      2474
 -1      5003    3    0    1
 -2      1069      2104      2379      2474
 -1      5004    3    0    1
 -2      1069      1333      2104      2474
 -1      5005    3    0    1
 -2      2220      1024      2386      2482
 -1      5006    3    0    1
 -2       826       819      1069      2474
 -1      5007    3    0    1
 -2       826      1069      2379      2474
 -1      5008    3    0    1
 -2      2339       826      2379      2474
 -1      5009    3    0    1
 -2      2164       392      2346      2475
 -1      5010    3    0    1
 -2      2096       392      2164      2475
 -1      5011    3    0    1
 -2      2483       344      2505      2563
 -1      5012    3    0    1
 -2       343       344      2483      2563
 -1      5013    3    0    1
 -2       176      2282      2505      2563
 -1      5014    3    0    1
 -2      2076      2343      2485      2542
 -1      5015    3    0    1
 -2      2084      2313      2343      2542
 -1      5016    3    0    1
 -2       630       622      2295      2477
 -1      5017    3    0    1
 -2      2340       975      2372      4029
 -1      5018    3    0    1
 -2      2123       373      2306      2478
 -1      5019    3    0    1
 -2       373      2285      2306      2478
 -1      5020    3    0    1
 -2       941      2200      2410      2479
 -1      5021    3    0    1
 -2       797      1053      1056      2492
 -1      5022    3    0    1
 -2       549       941      2410      2479
 -1      5023    3    0    1
 -2       941       549      1281      2479
 -1      5024    3    0    1
 -2       381      2143      2308      2479
 -1      5025    3    0    1
 -2      1281       558      2143      2479
 -1      5026    3    0    1
 -2       381      1281      2143      2479
 -1      5027    3    0    1
 -2      2643      3253      3255      3652
 -1      5028    3    0    1
 -2       779      1044      1047      2480
 -1      5029    3    0    1
 -2      1044       255      1047      2480
 -1      5030    3    0    1
 -2      1915      1916      1951      3683
 -1      5031    3    0    1
 -2       780      1047      2265      2480
 -1      5032    3    0    1
 -2       256      1326      2195      2520
 -1      5033    3    0    1
 -2       780       779      1047      2480
 -1      5034    3    0    1
 -2      2200       549      2380      2511
 -1      5035    3    0    1
 -2       819      1066      2143      2481
 -1      5036    3    0    1
 -2       287       382      1066      2481
 -1      5037    3    0    1
 -2      3349      2872      3926      3563
 -1      5038    3    0    1
 -2      1058       275      2137      2564
 -1      5039    3    0    1
 -2       569       580       954      2596
 -1      5040    3    0    1
 -2       129       134      1859      3922
 -1      5041    3    0    1
 -2      2068      2238      2470      2537
 -1      5042    3    0    1
 -2      1360       847      1359      2545
 -1      5043    3    0    1
 -2       314       376      2188      2545
 -1      5044    3    0    1
 -2       847       848      2486      2545
 -1      5045    3    0    1
 -2      2454      1032      2753      4004
 -1      5046    3    0    1
 -2      1333      2377      2474      2489
 -1      5047    3    0    1
 -2       819      1333      2474      2489
 -1      5048    3    0    1
 -2      2219      1299      2477      2532
 -1      5049    3    0    1
 -2       362      2219      2412      2532
 -1      5050    3    0    1
 -2       976       969      2105      2532
 -1      5051    3    0    1
 -2      2462      2085      2536      2546
 -1      5052    3    0    1
 -2      2270      2462      2536      2546
 -1      5053    3    0    1
 -2      1281       941      2479      2559
 -1      5054    3    0    1
 -2       984       345       987      2487
 -1      5055    3    0    1
 -2      2143       944      2377      2522
 -1      5056    3    0    1
 -2       944      2111      2377      2522
 -1      5057    3    0    1
 -2      2377      2111      2402      2522
 -1      5058    3    0    1
 -2       558      2143      2479      2522
 -1      5059    3    0    1
 -2       944       558      2410      2522
 -1      5060    3    0    1
 -2       414       345       984      2487
 -1      5061    3    0    1
 -2      2415       278      2449      2548
 -1      5062    3    0    1
 -2       349       278      2415      2548
 -1      5063    3    0    1
 -2      1960      3597      3609      3997
 -1      5064    3    0    1
 -2      3677      1692      2029      3745
 -1      5065    3    0    1
 -2      1667       134      3815      3260
 -1      5066    3    0    1
 -2        21      1908      1909      1932
 -1      5067    3    0    1
 -2       715      1017      1316      2488
 -1      5068    3    0    1
 -2       735       715      1316      2488
 -1      5069    3    0    1
 -2       643       664      1300      2490
 -1      5070    3    0    1
 -2       946      2237      2437      2491
 -1      5071    3    0    1
 -2       379       103      2200      2491
 -1      5072    3    0    1
 -2      2200       103      2437      2491
 -1      5073    3    0    1
 -2       342      2446      2507      2550
 -1      5074    3    0    1
 -2       342       160       985      2550
 -1      5075    3    0    1
 -2       342       986      2446      2550
 -1      5076    3    0    1
 -2       103       946      2437      2491
 -1      5077    3    0    1
 -2       103       379       946      2491
 -1      5078    3    0    1
 -2      2197       985      2533      2550
 -1      5079    3    0    1
 -2      2725      2270      3975      4011
 -1      5080    3    0    1
 -2       551      3402      2565       556
 -1      5081    3    0    1
 -2      1051      2435      2436      2529
 -1      5082    3    0    1
 -2      1055      2155      2496      2560
 -1      5083    3    0    1
 -2       832       563       945      2549
 -1      5084    3    0    1
 -2      3252      2847      3866      3766
 -1      5085    3    0    1
 -2      2172      2332      2428      2497
 -1      5086    3    0    1
 -2      3333      1810      3436      3906
 -1      5087    3    0    1
 -2      1055      1063      2155      2560
 -1      5088    3    0    1
 -2       269       391      1054      2496
 -1      5089    3    0    1
 -2       272      2353      2373      2496
 -1      5090    3    0    1
 -2       272       391      2353      2496
 -1      5091    3    0    1
 -2       391       272      1054      2496
 -1      5092    3    0    1
 -2      1054       272      2373      2496
 -1      5093    3    0    1
 -2      1018       717      2432      2551
 -1      5094    3    0    1
 -2       365      1302      2332      2497
 -1      5095    3    0    1
 -2      1302       648      2332      2497
 -1      5096    3    0    1
 -2       364       365      2332      2497
 -1      5097    3    0    1
 -2      2338       251      2495      1043
 -1      5098    3    0    1
 -2      3876      3293      3600      3966
 -1      5099    3    0    1
 -2      1022       415      2348      2499
 -1      5100    3    0    1
 -2      2320      1022      2348      2499
 -1      5101    3    0    1
 -2       419       176      2282      2505
 -1      5102    3    0    1
 -2      1305      2254      2483      2505
 -1      5103    3    0    1
 -2      2193       419      2282      2505
 -1      5104    3    0    1
 -2       220       415      1022      2499
 -1      5105    3    0    1
 -2      1030      2320      2444      2499
 -1      5106    3    0    1
 -2      1030      1022      2320      2499
 -1      5107    3    0    1
 -2       336      1030      2444      2499
 -1      5108    3    0    1
 -2       220       336      2349      2499
 -1      5109    3    0    1
 -2      2349       336      2444      2499
 -1      5110    3    0    1
 -2       336      1022      1030      2499
 -1      5111    3    0    1
 -2       336       220      1022      2499
 -1      5112    3    0    1
 -2      1288       965      2228      2501
 -1      5113    3    0    1
 -2       589      1288      2228      2501
 -1      5114    3    0    1
 -2       457       458      2617      2726
 -1      5115    3    0    1
 -2      1293       965       607      2501
 -1      5116    3    0    1
 -2       610       957      1294      2501
 -1      5117    3    0    1
 -2       589       610       965      2501
 -1      5118    3    0    1
 -2       610       589       957      2501
 -1      5119    3    0    1
 -2       589       965      1288      2501
 -1      5120    3    0    1
 -2       299       315      1082      2502
 -1      5121    3    0    1
 -2       217      1314      2358      2504
 -1      5122    3    0    1
 -2      2349       220      2499      2504
 -1      5123    3    0    1
 -2      2358       712      2500      2504
 -1      5124    3    0    1
 -2       299      1082      1362      2502
 -1      5125    3    0    1
 -2      2302       217      2358      2504
 -1      5126    3    0    1
 -2       220       415      2499      2504
 -1      5127    3    0    1
 -2       720       712      2358      2504
 -1      5128    3    0    1
 -2       712       720      1314      2504
 -1      5129    3    0    1
 -2      1314       720      2358      2504
 -1      5130    3    0    1
 -2       415       217      2499      2504
 -1      5131    3    0    1
 -2       217       415      1016      2504
 -1      5132    3    0    1
 -2       415       220      1016      2504
 -1      5133    3    0    1
 -2       278       349      2449      2548
 -1      5134    3    0    1
 -2       989      2193      2254      2505
 -1      5135    3    0    1
 -2      1305       989      2254      2505
 -1      5136    3    0    1
 -2       176       989      1305      2505
 -1      5137    3    0    1
 -2       344      1305      2483      2505
 -1      5138    3    0    1
 -2       344       176      1305      2505
 -1      5139    3    0    1
 -2      2238      1384      2470      2537
 -1      5140    3    0    1
 -2       521       643       646      2616
 -1      5141    3    0    1
 -2      2723      3010      3111      3912
 -1      5142    3    0    1
 -2      1457      1456      3106      1944
 -1      5143    3    0    1
 -2      2283      2266      2470      2537
 -1      5144    3    0    1
 -2       331      1018      1312      2551
 -1      5145    3    0    1
 -2       160       342       980      2507
 -1      5146    3    0    1
 -2       980       342      2446      2507
 -1      5147    3    0    1
 -2      1025      2304      2375      2513
 -1      5148    3    0    1
 -2      1009       699       697      2508
 -1      5149    3    0    1
 -2       697       699      2424      2508
 -1      5150    3    0    1
 -2       198       200      1009      2508
 -1      5151    3    0    1
 -2       907      3057      3876      3623
 -1      5152    3    0    1
 -2      2375      2304      2386      2513
 -1      5153    3    0    1
 -2      2075      2139      2327      2516
 -1      5154    3    0    1
 -2       832      1071      2510      2553
 -1      5155    3    0    1
 -2       287      2308      2481      2553
 -1      5156    3    0    1
 -2       241       340      1321      2513
 -1      5157    3    0    1
 -2       229       241      2304      2513
 -1      5158    3    0    1
 -2      1407      2287      2393      2557
 -1      5159    3    0    1
 -2      2075      2327      2393      2516
 -1      5160    3    0    1
 -2       241      1321      2304      2513
 -1      5161    3    0    1
 -2      2935      2749      3873      3988
 -1      5162    3    0    1
 -2       831       832      1071      2510
 -1      5163    3    0    1
 -2      2161      2339      2434      2554
 -1      5164    3    0    1
 -2       229      1031      2513      2556
 -1      5165    3    0    1
 -2      2137       283      2161      2554
 -1      5166    3    0    1
 -2      1336       288      2339      2554
 -1      5167    3    0    1
 -2      2161      1336      2339      2554
 -1      5168    3    0    1
 -2      1064       831      1070      2510
 -1      5169    3    0    1
 -2      2534      2469      2998      3241
 -1      5170    3    0    1
 -2       816       831      1064      2510
 -1      5171    3    0    1
 -2      1071       832      2334      2553
 -1      5172    3    0    1
 -2       283       275      1064      2555
 -1      5173    3    0    1
 -2      2334       832      2510      2553
 -1      5174    3    0    1
 -2       708      1014      2387      2512
 -1      5175    3    0    1
 -2       708       707      1014      2512
 -1      5176    3    0    1
 -2       708      2387      2493      2512
 -1      5177    3    0    1
 -2       707      1012      2303      2512
 -1      5178    3    0    1
 -2      2303      1012      2493      2512
 -1      5179    3    0    1
 -2       707       708      1013      2512
 -1      5180    3    0    1
 -2      1013       708      2493      2512
 -1      5181    3    0    1
 -2      1012       707      1013      2512
 -1      5182    3    0    1
 -2      1012      1013      2493      2512
 -1      5183    3    0    1
 -2       229      1031      1037      2513
 -1      5184    3    0    1
 -2      1025       229      2304      2513
 -1      5185    3    0    1
 -2      1039       347      2411      2514
 -1      5186    3    0    1
 -2      1037      1038      2384      2514
 -1      5187    3    0    1
 -2      1037       761      1038      2514
 -1      5188    3    0    1
 -2      1039       762      1322      2514
 -1      5189    3    0    1
 -2       347       239      2374      2514
 -1      5190    3    0    1
 -2       239       347      1039      2514
 -1      5191    3    0    1
 -2       239      1322      2374      2514
 -1      5192    3    0    1
 -2       239      1039      1322      2514
 -1      5193    3    0    1
 -2      1307      2433      2663      3821
 -1      5194    3    0    1
 -2      2334       353      2525      2558
 -1      5195    3    0    1
 -2      1307       999      2433      3821
 -1      5196    3    0    1
 -2       831      1337      2334      2558
 -1      5197    3    0    1
 -2      3823      2447      3709       942
 -1      5198    3    0    1
 -2       993      2147      2547      2778
 -1      5199    3    0    1
 -2      3790      3862      3920      3995
 -1      5200    3    0    1
 -2       125      2310      3792      2020
 -1      5201    3    0    1
 -2       661       681      1000      2517
 -1      5202    3    0    1
 -2       661      1000      1303      2517
 -1      5203    3    0    1
 -2       252      1045      1046      2519
 -1      5204    3    0    1
 -2       780       779      2480      2519
 -1      5205    3    0    1
 -2      2265       780      2480      2519
 -1      5206    3    0    1
 -2      1046      2373      2457      2519
 -1      5207    3    0    1
 -2      1046      2265      2373      2519
 -1      5208    3    0    1
 -2      1046       780      2265      2519
 -1      5209    3    0    1
 -2       259      1046      2457      2519
 -1      5210    3    0    1
 -2       252       259      2457      2519
 -1      5211    3    0    1
 -2       259       252      1046      2519
 -1      5212    3    0    1
 -2      1326       774      2234      2520
 -1      5213    3    0    1
 -2       643      2405      2490      2779
 -1      5214    3    0    1
 -2      3156      3460      3950      3964
 -1      5215    3    0    1
 -2       381      2549        96      2559
 -1      5216    3    0    1
 -2      3816      3807      3909      4003
 -1      5217    3    0    1
 -2      3200      3053      3844      3573
 -1      5218    3    0    1
 -2       980       640      2323      2544
 -1      5219    3    0    1
 -2      2177      2446      2507      2544
 -1      5220    3    0    1
 -2      2276       666      2483      2544
 -1      5221    3    0    1
 -2      1564      3081      1773      1774
 -1      5222    3    0    1
 -2      1701      1512      3977      4021
 -1      5223    3    0    1
 -2      2565      1282      3402      4030
 -1      5224    3    0    1
 -2      2446      2177      2483      2544
 -1      5225    3    0    1
 -2      2177       640      2276      2544
 -1      5226    3    0    1
 -2       278      1065      3658      3686
 -1      5227    3    0    1
 -2      3020      1456      3913      1943
 -1      5228    3    0    1
 -2       381      2308      2549      2559
 -1      5229    3    0    1
 -2      3807      1491      3930      3934
 -1      5230    3    0    1
 -2      1711      1512      3828      4021
 -1      5231    3    0    1
 -2       276       388      1063      2528
 -1      5232    3    0    1
 -2       275       276      1063      2528
 -1      5233    3    0    1
 -2      1642      3345      3436      3907
 -1      5234    3    0    1
 -2      2085      2494      2531      2561
 -1      5235    3    0    1
 -2       832      1071      2334      2549
 -1      5236    3    0    1
 -2      2252       398      2458      2556
 -1      5237    3    0    1
 -2       398      2375      2444      2556
 -1      5238    3    0    1
 -2       816       815      2415      2528
 -1      5239    3    0    1
 -2       815       816      1064      2528
 -1      5240    3    0    1
 -2      1031      2252      2513      2556
 -1      5241    3    0    1
 -2       275      1063      1064      2528
 -1      5242    3    0    1
 -2      1777      1470      3423      3591
 -1      5243    3    0    1
 -2      2604      2856      3805      3944
 -1      5244    3    0    1
 -2      1673        47      1716      3483
 -1      5245    3    0    1
 -2       959       586      1287      2530
 -1      5246    3    0    1
 -2       959      2407      2478      2530
 -1      5247    3    0    1
 -2       594       959      2478      2530
 -1      5248    3    0    1
 -2       586      1290       956      2530
 -1      5249    3    0    1
 -2       956      1290      2419      2530
 -1      5250    3    0    1
 -2      1357      2286      2427      2562
 -1      5251    3    0    1
 -2      1129       886       896      2562
 -1      5252    3    0    1
 -2       896       886      2084      2562
 -1      5253    3    0    1
 -2      2427      2076      2542      2562
 -1      5254    3    0    1
 -2      2076      2084      2542      2562
 -1      5255    3    0    1
 -2       362      2412      2430      2532
 -1      5256    3    0    1
 -2      2105       362      2430      2532
 -1      5257    3    0    1
 -2       969       362      2105      2532
 -1      5258    3    0    1
 -2      1299       151      2477      2532
 -1      5259    3    0    1
 -2       153       969       976      2532
 -1      5260    3    0    1
 -2       153       362       969      2532
 -1      5261    3    0    1
 -2       153       151      1299      2532
 -1      5262    3    0    1
 -2       985       653      2197      2533
 -1      5263    3    0    1
 -2       636       653       977      2533
 -1      5264    3    0    1
 -2       977       653       985      2533
 -1      5265    3    0    1
 -2      2757      2925      3842      3893
 -1      5266    3    0    1
 -2      2461      2305      2494      2828
 -1      5267    3    0    1
 -2       980      2323      2507      2544
 -1      5268    3    0    1
 -2      3889      1542      3668      3731
 -1      5269    3    0    1
 -2       734       735      1027      2817
 -1      5270    3    0    1
 -2       625       973      1297      2665
 -1      5271    3    0    1
 -2      1528      2809      3122      3338
 -1      5272    3    0    1
 -2       318      2470      1380       393
 -1      5273    3    0    1
 -2      2337      1048      2472      2538
 -1      5274    3    0    1
 -2       785       792      1329      2538
 -1      5275    3    0    1
 -2      1329       792      2353      2538
 -1      5276    3    0    1
 -2       792       785      1048      2538
 -1      5277    3    0    1
 -2       792      1048      1052      2538
 -1      5278    3    0    1
 -2      1052      1048      2335      2538
 -1      5279    3    0    1
 -2       792      1052      2335      2538
 -1      5280    3    0    1
 -2      2121      2051      2476      2541
 -1      5281    3    0    1
 -2      2120      2051      2121      2541
 -1      5282    3    0    1
 -2      2051      2278      2299      2541
 -1      5283    3    0    1
 -2      2051      2299      2476      2541
 -1      5284    3    0    1
 -2      1083      1085      2299      2541
 -1      5285    3    0    1
 -2       785      2098      2472      2540
 -1      5286    3    0    1
 -2      2472      2098      2539      2540
 -1      5287    3    0    1
 -2       785      2472      2539      2540
 -1      5288    3    0    1
 -2       810      2319      2341      2540
 -1      5289    3    0    1
 -2      2098       810      2341      2540
 -1      5290    3    0    1
 -2      2341      2319      2539      2540
 -1      5291    3    0    1
 -2       359       329      1083      2541
 -1      5292    3    0    1
 -2       329      1121      1113      2541
 -1      5293    3    0    1
 -2       329      1113      2476      2541
 -1      5294    3    0    1
 -2       883      1121       888      2541
 -1      5295    3    0    1
 -2      1083       329      1085      2541
 -1      5296    3    0    1
 -2      1121       883      1113      2541
 -1      5297    3    0    1
 -2      1085       329      2476      2541
 -1      5298    3    0    1
 -2      2299      1085      2476      2541
 -1      5299    3    0    1
 -2      1113       883      2476      2541
 -1      5300    3    0    1
 -2      2282       994      2547      2563
 -1      5301    3    0    1
 -2       176       344       994      2563
 -1      5302    3    0    1
 -2       654      2487      2547      2563
 -1      5303    3    0    1
 -2       344       176      2505      2563
 -1      5304    3    0    1
 -2      1679      1581      3066      3255
 -1      5305    3    0    1
 -2       644      3179      3183      3202
 -1      5306    3    0    1
 -2      1360       314      2486      2545
 -1      5307    3    0    1
 -2      1359       314      1360      2545
 -1      5308    3    0    1
 -2       848      1360      2486      2545
 -1      5309    3    0    1
 -2       847      1360       848      2545
 -1      5310    3    0    1
 -2       314      2188      2486      2545
 -1      5311    3    0    1
 -2      1696      2932      1697      3703
 -1      5312    3    0    1
 -2      3213      2858      3874      3879
 -1      5313    3    0    1
 -2       276       275      1332      2564
 -1      5314    3    0    1
 -2       276      1332      2319      2564
 -1      5315    3    0    1
 -2       275      1058      1332      2564
 -1      5316    3    0    1
 -2       671       654       993      2547
 -1      5317    3    0    1
 -2      2137       275      2555      2564
 -1      5318    3    0    1
 -2       993      2487       654       987
 -1      5319    3    0    1
 -2      2646      1237      2737      3805
 -1      5320    3    0    1
 -2       170       432      3813      1905
 -1      5321    3    0    1
 -2      2739      2825      3871      3630
 -1      5322    3    0    1
 -2       799      3256      1849      1850
 -1      5323    3    0    1
 -2       985      2366      2550       365
 -1      5324    3    0    1
 -2      2366       365      2497      2550
 -1      5325    3    0    1
 -2       986      2197      2487      2550
 -1      5326    3    0    1
 -2      2446       986      2487      2550
 -1      5327    3    0    1
 -2       342       985       986      2550
 -1      5328    3    0    1
 -2       986       985      2197      2550
 -1      5329    3    0    1
 -2       365       160      1302      2550
 -1      5330    3    0    1
 -2       331       213      2347      2551
 -1      5331    3    0    1
 -2       213       331      1312      2551
 -1      5332    3    0    1
 -2      2869      2672      3811      3047
 -1      5333    3    0    1
 -2      2955      1450      1679      1680
 -1      5334    3    0    1
 -2       947      2455      2745      3991
 -1      5335    3    0    1
 -2       697      1018      1309      2551
 -1      5336    3    0    1
 -2       697       717      1018      2551
 -1      5337    3    0    1
 -2      1070       288      2510      2553
 -1      5338    3    0    1
 -2       288      1070      1071      2553
 -1      5339    3    0    1
 -2      1071      1070      2510      2553
 -1      5340    3    0    1
 -2       288       287      1336      2553
 -1      5341    3    0    1
 -2       288      1336      2339      2553
 -1      5342    3    0    1
 -2      2339      1336      2481      2553
 -1      5343    3    0    1
 -2      2481       287      1336      1066
 -1      5344    3    0    1
 -2       287      2481      1336      2553
 -1      5345    3    0    1
 -2      3973      3975      3870      3971
 -1      5346    3    0    1
 -2       384       283      1070      2554
 -1      5347    3    0    1
 -2       283       384      2161      2554
 -1      5348    3    0    1
 -2       384       288      1336      2554
 -1      5349    3    0    1
 -2       283      1064      1070      2554
 -1      5350    3    0    1
 -2       384      1336      2161      2554
 -1      5351    3    0    1
 -2       816      1064      2528      2555
 -1      5352    3    0    1
 -2      2415       816      2528      2555
 -1      5353    3    0    1
 -2      2308       381      2479      2559
 -1      5354    3    0    1
 -2      1064       816      2510      2555
 -1      5355    3    0    1
 -2      3779      2467      3840      3897
 -1      5356    3    0    1
 -2       398       229      1025      2556
 -1      5357    3    0    1
 -2       325      1358       444      2557
 -1      5358    3    0    1
 -2      1358       325      1079      2557
 -1      5359    3    0    1
 -2      1407       325       444      2557
 -1      5360    3    0    1
 -2      1079       325      2516      2557
 -1      5361    3    0    1
 -2       325      1407      1117      2557
 -1      5362    3    0    1
 -2       325      1117      2516      2557
 -1      5363    3    0    1
 -2      1117      2393      2516      2557
 -1      5364    3    0    1
 -2       779      1044      2480      2760
 -1      5365    3    0    1
 -2       831      1065      1337      2558
 -1      5366    3    0    1
 -2       831       816      1065      2558
 -1      5367    3    0    1
 -2       941      2200      2479      2559
 -1      5368    3    0    1
 -2       381        96      1281      2559
 -1      5369    3    0    1
 -2      2155      1063      2528      2560
 -1      5370    3    0    1
 -2      3300      2929      3638      4008
 -1      5371    3    0    1
 -2      2517      2710      3014      3882
 -1      5372    3    0    1
 -2       798       815      1063      2560
 -1      5373    3    0    1
 -2      3964      1473      2009      3700
 -1      5374    3    0    1
 -2      1055       798      1063      2560
 -1      5375    3    0    1
 -2      1920      1921      1956      3625
 -1      5376    3    0    1
 -2       590       583      3075      1801
 -1      5377    3    0    1
 -2      3332      3540      3622      3965
 -1      5378    3    0    1
 -2       328      1129       443      2562
 -1      5379    3    0    1
 -2       886      1118      2542      2562
 -1      5380    3    0    1
 -2       886      1129      1118      2562
 -1      5381    3    0    1
 -2      2313       886      2542      2562
 -1      5382    3    0    1
 -2      1357       328       443      2562
 -1      5383    3    0    1
 -2      1118       328      2542      2562
 -1      5384    3    0    1
 -2      1129       328      1118      2562
 -1      5385    3    0    1
 -2      1356      2427      2542      2562
 -1      5386    3    0    1
 -2       328      1356      2542      2562
 -1      5387    3    0    1
 -2       328      1357      1356      2562
 -1      5388    3    0    1
 -2       986       654       994      2563
 -1      5389    3    0    1
 -2       344       986       994      2563
 -1      5390    3    0    1
 -2       654       671       994      2563
 -1      5391    3    0    1
 -2       344       343       986      2563
 -1      5392    3    0    1
 -2      1679      1581      1680      3066
 -1      5393    3    0    1
 -2      1213       802       809      2633
 -1      5394    3    0    1
 -2      2846      1888      3886      3699
 -1      5395    3    0    1
 -2       333      2314      2751      3793
 -1      5396    3    0    1
 -2       678       690      1005      2657
 -1      5397    3    0    1
 -2      2372      2885      3863      3776
 -1      5398    3    0    1
 -2      3831      3163      3364      3509
 -1      5399    3    0    1
 -2      1528      1529      1653      3007
 -1      5400    3    0    1
 -2       478       477       557      2565
 -1      5401    3    0    1
 -2       559       556      1171      2565
 -1      5402    3    0    1
 -2       924      3037      3954      3733
 -1      5403    3    0    1
 -2       952       581       955      2600
 -1      5404    3    0    1
 -2      1171       551       910      2565
 -1      5405    3    0    1
 -2       953       575      2596      2600
 -1      5406    3    0    1
 -2       581       953      2596      2600
 -1      5407    3    0    1
 -2       570       574       952      2600
 -1      5408    3    0    1
 -2       477       550       557      2565
 -1      5409    3    0    1
 -2       557       561      1170      2565
 -1      5410    3    0    1
 -2       561       557       945      2565
 -1      5411    3    0    1
 -2       574       570      1183      2600
 -1      5412    3    0    1
 -2      1171       477       478      2565
 -1      5413    3    0    1
 -2       477      1171       910      2565
 -1      5414    3    0    1
 -2      3170      3284      3603      3958
 -1      5415    3    0    1
 -2       245      3947      3961      1999
 -1      5416    3    0    1
 -2      1293      2284      2656      3962
 -1      5417    3    0    1
 -2      1897      3138      1898      1914
 -1      5418    3    0    1
 -2       682       451      1131      2581
 -1      5419    3    0    1
 -2      1309      2508      2551      3797
 -1      5420    3    0    1
 -2       597       593       960      2574
 -1      5421    3    0    1
 -2      1008      1310      3801      3818
 -1      5422    3    0    1
 -2      1255       531      2644      3761
 -1      5423    3    0    1
 -2      1008      2424      2629      3783
 -1      5424    3    0    1
 -2      2578      2835      3030      4008
 -1      5425    3    0    1
 -2      3090      1588      3413      3924
 -1      5426    3    0    1
 -2       625       646       982      2684
 -1      5427    3    0    1
 -2      1428      1427      1554      3612
 -1      5428    3    0    1
 -2      1297      2684      2974      3866
 -1      5429    3    0    1
 -2        24        23      1919      1947
 -1      5430    3    0    1
 -2       973      1293      2656      3741
 -1      5431    3    0    1
 -2      3743      3973      3975      3762
 -1      5432    3    0    1
 -2      1583      3823      3157      1856
 -1      5433    3    0    1
 -2      2855      2983      2927      1197
 -1      5434    3    0    1
 -2       623       516      1227      2566
 -1      5435    3    0    1
 -2      3581      3560      3666      3692
 -1      5436    3    0    1
 -2       634       623      1227      2566
 -1      5437    3    0    1
 -2       623       634       977      2566
 -1      5438    3    0    1
 -2      1484      1485      2746      3583
 -1      5439    3    0    1
 -2       125      2310      2572      3792
 -1      5440    3    0    1
 -2       619       626      1722      3541
 -1      5441    3    0    1
 -2      1009       700      2617      2618
 -1      5442    3    0    1
 -2      3795      1067      3225      3978
 -1      5443    3    0    1
 -2       588       596       917      2567
 -1      5444    3    0    1
 -2      2284      2589      2885      3863
 -1      5445    3    0    1
 -2      3929      1865      4023      3750
 -1      5446    3    0    1
 -2      1642      1454      1643      3355
 -1      5447    3    0    1
 -2       455      1137      2586      2651
 -1      5448    3    0    1
 -2      1186       588       917      2567
 -1      5449    3    0    1
 -2       777       773      1045      2689
 -1      5450    3    0    1
 -2      3098       626      3540      3543
 -1      5451    3    0    1
 -2      2300      2668      3788      2828
 -1      5452    3    0    1
 -2       588      3194      1186       591
 -1      5453    3    0    1
 -2       981      1304      2416      3799
 -1      5454    3    0    1
 -2      1539      1538      1625      3110
 -1      5455    3    0    1
 -2       957      3777      3880      3809
 -1      5456    3    0    1
 -2       598       587      1184      2567
 -1      5457    3    0    1
 -2       587       598       961      2567
 -1      5458    3    0    1
 -2       489       488       917      2567
 -1      5459    3    0    1
 -2       917       488      1186      2567
 -1      5460    3    0    1
 -2      1966      3993       433      3985
 -1      5461    3    0    1
 -2      1451      1450      2955      1680
 -1      5462    3    0    1
 -2      1258       713      1259      2627
 -1      5463    3    0    1
 -2      1494      3221      3854      3422
 -1      5464    3    0    1
 -2      1306       679      2591      2592
 -1      5465    3    0    1
 -2       266       264      1651      3837
 -1      5466    3    0    1
 -2      2705      3398      3900      3491
 -1      5467    3    0    1
 -2      3710       700       198      3755
 -1      5468    3    0    1
 -2       678       452       682      2657
 -1      5469    3    0    1
 -2      1004       689      2581      2657
 -1      5470    3    0    1
 -2      3854      2970      3336      3421
 -1      5471    3    0    1
 -2      3870      1608      3751      3762
 -1      5472    3    0    1
 -2      1842      3247      3341      3906
 -1      5473    3    0    1
 -2       477       550      2565      2599
 -1      5474    3    0    1
 -2      1846      2893      3894      3545
 -1      5475    3    0    1
 -2      1480      1479      2944      3414
 -1      5476    3    0    1
 -2      1413      3081      1773      3251
 -1      5477    3    0    1
 -2       723       719      1021      2639
 -1      5478    3    0    1
 -2      2399      2663      3779      3822
 -1      5479    3    0    1
 -2      1021       713      2627      2639
 -1      5480    3    0    1
 -2      1523      1522      1723      3524
 -1      5481    3    0    1
 -2       687       683      1003      2581
 -1      5482    3    0    1
 -2      2964      2655      3890      3956
 -1      5483    3    0    1
 -2       593       597      1185      2574
 -1      5484    3    0    1
 -2      1279       943      2194      3764
 -1      5485    3    0    1
 -2      3437      1721      1913      3918
 -1      5486    3    0    1
 -2       117       116       570      1736
 -1      5487    3    0    1
 -2       593       587       960      2574
 -1      5488    3    0    1
 -2      3812      2785      3895      3956
 -1      5489    3    0    1
 -2      2999       680      1707      3956
 -1      5490    3    0    1
 -2      1012       695      1013      2664
 -1      5491    3    0    1
 -2      2468      2794      3786      3807
 -1      5492    3    0    1
 -2      2648      3867      3379      4010
 -1      5493    3    0    1
 -2      2961      3141      3915      3956
 -1      5494    3    0    1
 -2      3801      3812      3895      3956
 -1      5495    3    0    1
 -2       412      1577      3800      3808
 -1      5496    3    0    1
 -2      2552      2774      2776      3987
 -1      5497    3    0    1
 -2      2877      3132      3370      3888
 -1      5498    3    0    1
 -2       924      2957      3424      3954
 -1      5499    3    0    1
 -2       978       636      2340      2570
 -1      5500    3    0    1
 -2      1762      1763      3216      1961
 -1      5501    3    0    1
 -2       617       609       967      2583
 -1      5502    3    0    1
 -2       636      2197      2533      2570
 -1      5503    3    0    1
 -2      1659      1411      3893      3714
 -1      5504    3    0    1
 -2      3795      3786      3816      4003
 -1      5505    3    0    1
 -2      2724      4003      2468      3709
 -1      5506    3    0    1
 -2      3182      3360      1929      3656
 -1      5507    3    0    1
 -2       636       978       984      2570
 -1      5508    3    0    1
 -2       653       636       984      2570
 -1      5509    3    0    1
 -2       410       148      3962      3741
 -1      5510    3    0    1
 -2      1234       525       629      2571
 -1      5511    3    0    1
 -2       525       516       629      2571
 -1      5512    3    0    1
 -2      1243       624      1226      2571
 -1      5513    3    0    1
 -2      1226       624      2566      2571
 -1      5514    3    0    1
 -2      1282       947      3769        95
 -1      5515    3    0    1
 -2       564       946      2599      4030
 -1      5516    3    0    1
 -2       629       633      1234      2571
 -1      5517    3    0    1
 -2       633       629       976      2571
 -1      5518    3    0    1
 -2       623       516      2566      2571
 -1      5519    3    0    1
 -2       516       623       629      2571
 -1      5520    3    0    1
 -2      1243       516       525      2571
 -1      5521    3    0    1
 -2       516      1243      1226      2571
 -1      5522    3    0    1
 -2       516      1226      2566      2571
 -1      5523    3    0    1
 -2        47      1787      3483      3501
 -1      5524    3    0    1
 -2      3867      2799      3413      3924
 -1      5525    3    0    1
 -2       606       618       970      2630
 -1      5526    3    0    1
 -2       611       605       969      2630
 -1      5527    3    0    1
 -2      1719      1720      3132      3370
 -1      5528    3    0    1
 -2      1586      1587      1855      3365
 -1      5529    3    0    1
 -2       522      2580      2616      2646
 -1      5530    3    0    1
 -2      3081      2802      3251      3534
 -1      5531    3    0    1
 -2       521       522      2616      2646
 -1      5532    3    0    1
 -2      1604      1603      3026      1889
 -1      5533    3    0    1
 -2      1632      3460      3950      3727
 -1      5534    3    0    1
 -2       147      2847      3866      4002
 -1      5535    3    0    1
 -2       402      1619      1856      1891
 -1      5536    3    0    1
 -2      3281      2669      3878      3552
 -1      5537    3    0    1
 -2      1325      3902      3498      3981
 -1      5538    3    0    1
 -2      1518      1517      1841      3336
 -1      5539    3    0    1
 -2       961       587      2567      2574
 -1      5540    3    0    1
 -2      1659      1660      3002      3195
 -1      5541    3    0    1
 -2       488      1184      1185      2574
 -1      5542    3    0    1
 -2       488       489      1184      2574
 -1      5543    3    0    1
 -2      1184       489      2567      2574
 -1      5544    3    0    1
 -2       600       961      2567      2574
 -1      5545    3    0    1
 -2       762      1039      1322      2675
 -1      5546    3    0    1
 -2      1294      2797      3815      3521
 -1      5547    3    0    1
 -2      1436      1598      3069      3285
 -1      5548    3    0    1
 -2      1954      1858      3952      3731
 -1      5549    3    0    1
 -2      2867      1237      2959      1744
 -1      5550    3    0    1
 -2      2523       628      2543      2656
 -1      5551    3    0    1
 -2      2739      3871      3488      3630
 -1      5552    3    0    1
 -2      2459       607      2501      2656
 -1      5553    3    0    1
 -2      1445      2775      3946      4015
 -1      5554    3    0    1
 -2      3831      2576      3235      3364
 -1      5555    3    0    1
 -2       628       607      2459      2656
 -1      5556    3    0    1
 -2      2887      2849       664      2810
 -1      5557    3    0    1
 -2       463      1149      2591      2592
 -1      5558    3    0    1
 -2      2703       449      1624      1625
 -1      5559    3    0    1
 -2       822       823      1068      2606
 -1      5560    3    0    1
 -2      1812      1421      1813      3349
 -1      5561    3    0    1
 -2      3474      1728      3631      3706
 -1      5562    3    0    1
 -2      2436      1050      2720      3833
 -1      5563    3    0    1
 -2      1721      3803      3833      1449
 -1      5564    3    0    1
 -2       335      1966      2017      2018
 -1      5565    3    0    1
 -2       557       945      2565      4030
 -1      5566    3    0    1
 -2       628       973      1293      2656
 -1      5567    3    0    1
 -2       751       754      1039      2675
 -1      5568    3    0    1
 -2        46      1732      3253      3255
 -1      5569    3    0    1
 -2       200      1009      2727      3987
 -1      5570    3    0    1
 -2      2849      3798      3127      3911
 -1      5571    3    0    1
 -2      1761      2968      3212      3619
 -1      5572    3    0    1
 -2       214      1008      3818      3945
 -1      5573    3    0    1
 -2      1466      1467      1537      2821
 -1      5574    3    0    1
 -2      3134       716      3288      3394
 -1      5575    3    0    1
 -2      1464      1465      1852      3491
 -1      5576    3    0    1
 -2       427      3234      3331      3644
 -1      5577    3    0    1
 -2       813       809      1063      2633
 -1      5578    3    0    1
 -2      1665      1666      1699      3325
 -1      5579    3    0    1
 -2      2606      2607      3814      3964
 -1      5580    3    0    1
 -2      1246       766       930      2611
 -1      5581    3    0    1
 -2      1439      1440      1658      3238
 -1      5582    3    0    1
 -2      1799      1798      3278      3322
 -1      5583    3    0    1
 -2       133       606       970      1998
 -1      5584    3    0    1
 -2       682       451      2581      2657
 -1      5585    3    0    1
 -2       831       824      2585      2614
 -1      5586    3    0    1
 -2      2732       770      2733      2941
 -1      5587    3    0    1
 -2      1849      1515      3913      3535
 -1      5588    3    0    1
 -2       683       687      1130      2581
 -1      5589    3    0    1
 -2       689       682      1002      2581
 -1      5590    3    0    1
 -2      3805      2632      3593      3611
 -1      5591    3    0    1
 -2       689      1003      1004      2581
 -1      5592    3    0    1
 -2       931       518      2665      2666
 -1      5593    3    0    1
 -2      3170      1630      1614      3603
 -1      5594    3    0    1
 -2      2980      3161      3857      3875
 -1      5595    3    0    1
 -2      2272       187      3014      3835
 -1      5596    3    0    1
 -2       590       583      3259      3518
 -1      5597    3    0    1
 -2      1488      1583      1584      3311
 -1      5598    3    0    1
 -2       679       699      1306      2727
 -1      5599    3    0    1
 -2       973       627      2665      2666
 -1      5600    3    0    1
 -2       685       682      1131      2581
 -1      5601    3    0    1
 -2       682       685      1002      2581
 -1      5602    3    0    1
 -2      1130       451      1133      2581
 -1      5603    3    0    1
 -2      2901      2784      3812      3890
 -1      5604    3    0    1
 -2      1719      1452      3370      3888
 -1      5605    3    0    1
 -2      1636      1431      1637      3327
 -1      5606    3    0    1
 -2      3785      3787      3800      3931
 -1      5607    3    0    1
 -2      3881       999      3901      3998
 -1      5608    3    0    1
 -2      3018      3836      3348      3558
 -1      5609    3    0    1
 -2       613       609      1160      2583
 -1      5610    3    0    1
 -2       609       613       967      2583
 -1      5611    3    0    1
 -2       905       470      1152      2583
 -1      5612    3    0    1
 -2      1550      1549      1759      3146
 -1      5613    3    0    1
 -2      1521      1651      3837      3845
 -1      5614    3    0    1
 -2      2958      2945      3919      3650
 -1      5615    3    0    1
 -2      3333       572      1811      1810
 -1      5616    3    0    1
 -2      2573      2484      2629      3836
 -1      5617    3    0    1
 -2      3429       236      1926      2000
 -1      5618    3    0    1
 -2      3029      2980      3834      3861
 -1      5619    3    0    1
 -2      1197      2983      2927       495
 -1      5620    3    0    1
 -2       831      1070      1071      2585
 -1      5621    3    0    1
 -2       831       824      1337      2585
 -1      5622    3    0    1
 -2       726      1023      2320      3139
 -1      5623    3    0    1
 -2       824       501      1206      2585
 -1      5624    3    0    1
 -2      2962      1436      3069      3285
 -1      5625    3    0    1
 -2       824       827      1337      2585
 -1      5626    3    0    1
 -2       827       824      1206      2585
 -1      5627    3    0    1
 -2       501      1204      1205      2585
 -1      5628    3    0    1
 -2       433       335      3984      2026
 -1      5629    3    0    1
 -2      2691      2225      2805      3817
 -1      5630    3    0    1
 -2      3777      2595      3899      3999
 -1      5631    3    0    1
 -2      2915      2916      3013      3844
 -1      5632    3    0    1
 -2       672       659       995      2586
 -1      5633    3    0    1
 -2      3460      3814      3950      3964
 -1      5634    3    0    1
 -2      3155      1816      3344      3464
 -1      5635    3    0    1
 -2      3078      3027      3371      3955
 -1      5636    3    0    1
 -2       659       455       456      2586
 -1      5637    3    0    1
 -2       725       718      1020      2639
 -1      5638    3    0    1
 -2       462      1148      2858      3874
 -1      5639    3    0    1
 -2       660       668      1138      2586
 -1      5640    3    0    1
 -2       671       672       996      2586
 -1      5641    3    0    1
 -2      1138      1137       660      2586
 -1      5642    3    0    1
 -2      2806      3297      3876      3385
 -1      5643    3    0    1
 -2      3783      3849      3859      3908
 -1      5644    3    0    1
 -2      3185      3016      3889      3564
 -1      5645    3    0    1
 -2      2233       955      2330      3781
 -1      5646    3    0    1
 -2      1498      3542      3543      1978
 -1      5647    3    0    1
 -2       822       823      2606      2652
 -1      5648    3    0    1
 -2      1139       659       456      2586
 -1      5649    3    0    1
 -2      1764      2926      3127      3214
 -1      5650    3    0    1
 -2      1067      1335       823      2652
 -1      5651    3    0    1
 -2       670       659      1139      2586
 -1      5652    3    0    1
 -2       659       670       995      2586
 -1      5653    3    0    1
 -2       455      1138       456      2586
 -1      5654    3    0    1
 -2      1138       455      1137      2586
 -1      5655    3    0    1
 -2      1204       825      2585      2614
 -1      5656    3    0    1
 -2       575      1182      2596      2600
 -1      5657    3    0    1
 -2      2872      3134      3926      3563
 -1      5658    3    0    1
 -2      1853      1702      3492      3673
 -1      5659    3    0    1
 -2      1051      1324      2435      2766
 -1      5660    3    0    1
 -2       627       931      2665      2666
 -1      5661    3    0    1
 -2      3345      2792      3906      3907
 -1      5662    3    0    1
 -2       970       618      2463      2589
 -1      5663    3    0    1
 -2      1494      1766      3228      3407
 -1      5664    3    0    1
 -2       408       136      3792      3832
 -1      5665    3    0    1
 -2      2595      2438      3777      3899
 -1      5666    3    0    1
 -2       766       778      1046      2611
 -1      5667    3    0    1
 -2      1494      3228      1832      3330
 -1      5668    3    0    1
 -2       778       766      1246      2611
 -1      5669    3    0    1
 -2       449      1624      1625      2876
 -1      5670    3    0    1
 -2       498      1201      2606      2607
 -1      5671    3    0    1
 -2      1824      1883      1884      3574
 -1      5672    3    0    1
 -2      2548       349      3629      3959
 -1      5673    3    0    1
 -2       677       688      1004      2657
 -1      5674    3    0    1
 -2       996      1002      2272      3835
 -1      5675    3    0    1
 -2       412       431      1635      1771
 -1      5676    3    0    1
 -2       650       642       987      2653
 -1      5677    3    0    1
 -2      1784      1783      3289      3415
 -1      5678    3    0    1
 -2       278      1062      1065      3686
 -1      5679    3    0    1
 -2      2990      1725      1726      3055
 -1      5680    3    0    1
 -2       642       654       987      2653
 -1      5681    3    0    1
 -2       677       683      1133      2657
 -1      5682    3    0    1
 -2      2749       752      2722       753
 -1      5683    3    0    1
 -2      1587      1586      2873      3365
 -1      5684    3    0    1
 -2       626       619      3086      3454
 -1      5685    3    0    1
 -2       129       134      1667      3260
 -1      5686    3    0    1
 -2      1867       608      3401      3465
 -1      5687    3    0    1
 -2      1742      2864      3347      3967
 -1      5688    3    0    1
 -2      1790       409      3880      3960
 -1      5689    3    0    1
 -2       752      2749      2722      2935
 -1      5690    3    0    1
 -2      1159       606      2640      2641
 -1      5691    3    0    1
 -2       606      1293      2640      2641
 -1      5692    3    0    1
 -2      1477      1478      1552      3148
 -1      5693    3    0    1
 -2      2749      2721      3025      3318
 -1      5694    3    0    1
 -2       823      1335      2400      3199
 -1      5695    3    0    1
 -2      3795      3786      3847      3870
 -1      5696    3    0    1
 -2      2587      2709      2923      3885
 -1      5697    3    0    1
 -2      1303       173      2517      3882
 -1      5698    3    0    1
 -2      3897      3779      3927      3986
 -1      5699    3    0    1
 -2       737       730      1030      2671
 -1      5700    3    0    1
 -2      1756      1757      3477      1923
 -1      5701    3    0    1
 -2        98        95      2426      3757
 -1      5702    3    0    1
 -2       551       560       910      2599
 -1      5703    3    0    1
 -2       681       679       999      2591
 -1      5704    3    0    1
 -2      2812      3886      3447      3591
 -1      5705    3    0    1
 -2      3845      1567      3281      3878
 -1      5706    3    0    1
 -2       821       824       832      2614
 -1      5707    3    0    1
 -2       771      1325      2853      2941
 -1      5708    3    0    1
 -2      1209       805       925      2649
 -1      5709    3    0    1
 -2      2491      2237      3772      4030
 -1      5710    3    0    1
 -2       414       982      2405      2684
 -1      5711    3    0    1
 -2      1481      1725      3556      3965
 -1      5712    3    0    1
 -2      3085      1795      3469      3523
 -1      5713    3    0    1
 -2       999      1307       681      2591
 -1      5714    3    0    1
 -2       910       477      2565      2599
 -1      5715    3    0    1
 -2      1000      1306       679      2591
 -1      5716    3    0    1
 -2       678       682      1147      2591
 -1      5717    3    0    1
 -2       682       678      1000      2591
 -1      5718    3    0    1
 -2       791       795       929      2678
 -1      5719    3    0    1
 -2       678      1147      1149      2591
 -1      5720    3    0    1
 -2      1000       678      1306      2591
 -1      5721    3    0    1
 -2      1683      1684      1881      3514
 -1      5722    3    0    1
 -2      1559      1560      1862      3467
 -1      5723    3    0    1
 -2      3842      3142      3885      3669
 -1      5724    3    0    1
 -2       452       678      1132      2657
 -1      5725    3    0    1
 -2      2814      3831      3469      3958
 -1      5726    3    0    1
 -2       462       463      1147      2591
 -1      5727    3    0    1
 -2      2794      3786      3807      4011
 -1      5728    3    0    1
 -2      1147       463      1149      2591
 -1      5729    3    0    1
 -2      1060      1330       806      2649
 -1      5730    3    0    1
 -2      1546      1547      1802      3439
 -1      5731    3    0    1
 -2      1671       183      1672      3222
 -1      5732    3    0    1
 -2       672      2272      2710      3835
 -1      5733    3    0    1
 -2      3066      2840      3246      3255
 -1      5734    3    0    1
 -2       689       682      2581      2657
 -1      5735    3    0    1
 -2       578       570       955      2596
 -1      5736    3    0    1
 -2       570       578       916      2596
 -1      5737    3    0    1
 -2      1655      1500      3116      3257
 -1      5738    3    0    1
 -2       487       915      1182      2596
 -1      5739    3    0    1
 -2       486       487      1182      2596
 -1      5740    3    0    1
 -2      1693      3896      4006      4018
 -1      5741    3    0    1
 -2       351       787      1056      1976
 -1      5742    3    0    1
 -2      3310      1689      3867      3517
 -1      5743    3    0    1
 -2      1451      1450      2916      2955
 -1      5744    3    0    1
 -2      3295      3306      3659      3694
 -1      5745    3    0    1
 -2      3977      1701      2011      3696
 -1      5746    3    0    1
 -2      1526      1525      1789      3196
 -1      5747    3    0    1
 -2      1526      1525      2896      1682
 -1      5748    3    0    1
 -2      3855       964      3917      3922
 -1      5749    3    0    1
 -2      2855      2643      3192      3253
 -1      5750    3    0    1
 -2      3025      2749      3873      2935
 -1      5751    3    0    1
 -2      1714       644      3202      3203
 -1      5752    3    0    1
 -2       575       579      1182      2600
 -1      5753    3    0    1
 -2       579       575       953      2600
 -1      5754    3    0    1
 -2       916       570      2596      2600
 -1      5755    3    0    1
 -2       570       955      2596      2600
 -1      5756    3    0    1
 -2       916       486      1183      2600
 -1      5757    3    0    1
 -2       487       486       916      2600
 -1      5758    3    0    1
 -2       487       916      2596      2600
 -1      5759    3    0    1
 -2       955       582      2596      2600
 -1      5760    3    0    1
 -2       119      1899      3938      3960
 -1      5761    3    0    1
 -2      1450      1451      2938      1871
 -1      5762    3    0    1
 -2      2738      3069      3179      3183
 -1      5763    3    0    1
 -2      3434      1894      3486      3550
 -1      5764    3    0    1
 -2      3205      3129      3589      3620
 -1      5765    3    0    1
 -2       906       471      2713      2714
 -1      5766    3    0    1
 -2      2461      2494      2561      2807
 -1      5767    3    0    1
 -2      3786      1497      3816      3547
 -1      5768    3    0    1
 -2      1646      1645      3100      3102
 -1      5769    3    0    1
 -2      2994      3428      3567      3588
 -1      5770    3    0    1
 -2      1481      1482      1831      3342
 -1      5771    3    0    1
 -2      1562      1563      2804      2843
 -1      5772    3    0    1
 -2       409      1882      4006      4018
 -1      5773    3    0    1
 -2       186       180      3927      3957
 -1      5774    3    0    1
 -2       820       830      1071      2614
 -1      5775    3    0    1
 -2      3092      2857      3406      3976
 -1      5776    3    0    1
 -2      3268      1164      3857      3948
 -1      5777    3    0    1
 -2      2655      2785      3812      3956
 -1      5778    3    0    1
 -2       714       725       726      2639
 -1      5779    3    0    1
 -2       977       636      2533      3770
 -1      5780    3    0    1
 -2      2549        96      2559      3765
 -1      5781    3    0    1
 -2      1072      1282      2334      2748
 -1      5782    3    0    1
 -2      2856      2604      2867      3944
 -1      5783    3    0    1
 -2       571      1284      2687      2688
 -1      5784    3    0    1
 -2      3434      3560      3992      4022
 -1      5785    3    0    1
 -2       608      1880      3401      3904
 -1      5786    3    0    1
 -2      2768      1050      2969      3918
 -1      5787    3    0    1
 -2      1498      3542      1978      1979
 -1      5788    3    0    1
 -2      2157       967      2463      3169
 -1      5789    3    0    1
 -2      3371      2637      3528      3955
 -1      5790    3    0    1
 -2      3098       619      1978      1979
 -1      5791    3    0    1
 -2      1312       213      2347      3793
 -1      5792    3    0    1
 -2      1752      3878      3430      1942
 -1      5793    3    0    1
 -2      1583      2906      3811      3296
 -1      5794    3    0    1
 -2      1293       607      2640      2641
 -1      5795    3    0    1
 -2       499       498      2606      3156
 -1      5796    3    0    1
 -2       625      1297      2523      2684
 -1      5797    3    0    1
 -2      1528       763      1529      3338
 -1      5798    3    0    1
 -2      1068      1334       822      2606
 -1      5799    3    0    1
 -2       824       821      1068      2606
 -1      5800    3    0    1
 -2       821       824       921      2606
 -1      5801    3    0    1
 -2      1068       821      1334      2606
 -1      5802    3    0    1
 -2       821       921      1201      2606
 -1      5803    3    0    1
 -2      1824      3307      3508      3574
 -1      5804    3    0    1
 -2      1541      1540      2801      2914
 -1      5805    3    0    1
 -2       278      1065      1877      3658
 -1      5806    3    0    1
 -2       499       498       921      2606
 -1      5807    3    0    1
 -2       250       245      1594      3006
 -1      5808    3    0    1
 -2       921       498      1201      2606
 -1      5809    3    0    1
 -2      2944      2809      3804      3007
 -1      5810    3    0    1
 -2      2840      1679      1680      3066
 -1      5811    3    0    1
 -2      1553      2821      3812      3691
 -1      5812    3    0    1
 -2      1550      1549      2775      3058
 -1      5813    3    0    1
 -2      3391      1685      1430      1686
 -1      5814    3    0    1
 -2      2712      2843      3218      3685
 -1      5815    3    0    1
 -2      1725      3526      3626      3965
 -1      5816    3    0    1
 -2      1158      2976      3126      3371
 -1      5817    3    0    1
 -2      2856      2990      3805      3611
 -1      5818    3    0    1
 -2      1542      1545      3782      3819
 -1      5819    3    0    1
 -2      1869        21      3395      1908
 -1      5820    3    0    1
 -2      1526      1525      1682      3263
 -1      5821    3    0    1
 -2       560        95       400      3756
 -1      5822    3    0    1
 -2      2990      1590      1725      3611
 -1      5823    3    0    1
 -2      1544      1543      2938      1871
 -1      5824    3    0    1
 -2      1246       511       526      2611
 -1      5825    3    0    1
 -2       511      1246       930      2611
 -1      5826    3    0    1
 -2       427       183      4009      2041
 -1      5827    3    0    1
 -2      3777       957      3880      1289
 -1      5828    3    0    1
 -2      3237      2579      3848      3851
 -1      5829    3    0    1
 -2      1021       713      1022      2627
 -1      5830    3    0    1
 -2       553      1624      2876      3875
 -1      5831    3    0    1
 -2      1558      3078      3371      3528
 -1      5832    3    0    1
 -2       500       501       824      2614
 -1      5833    3    0    1
 -2       824       501      2585      2614
 -1      5834    3    0    1
 -2       821       828      1203      2614
 -1      5835    3    0    1
 -2       828       821      1072      2614
 -1      5836    3    0    1
 -2       501       500      1204      2614
 -1      5837    3    0    1
 -2      1752      1753      3430      3596
 -1      5838    3    0    1
 -2      2320      1029      2376      3139
 -1      5839    3    0    1
 -2       955      1291      2181      3781
 -1      5840    3    0    1
 -2      2989      1513      1705      1704
 -1      5841    3    0    1
 -2       643       522      2580      2616
 -1      5842    3    0    1
 -2       981       643      2580      2616
 -1      5843    3    0    1
 -2      1009       696      1309      2617
 -1      5844    3    0    1
 -2       700       696      1009      2617
 -1      5845    3    0    1
 -2       696       700       899      2617
 -1      5846    3    0    1
 -2      2621      2578      3839      3980
 -1      5847    3    0    1
 -2      1517      3854      3336      3421
 -1      5848    3    0    1
 -2      1791      3186      3292      3339
 -1      5849    3    0    1
 -2      3094      3265      3951      3619
 -1      5850    3    0    1
 -2      2424       699      2433      2727
 -1      5851    3    0    1
 -2      1141       457       458      2617
 -1      5852    3    0    1
 -2       332       333      3793      3302
 -1      5853    3    0    1
 -2       457      1141       899      2617
 -1      5854    3    0    1
 -2      2983      2855      2927      3864
 -1      5855    3    0    1
 -2      1795      3085      3299      3523
 -1      5856    3    0    1
 -2      1467      3691      1553      1554
 -1      5857    3    0    1
 -2      3637      3909      3642      3963
 -1      5858    3    0    1
 -2      1816      1498      1817      3344
 -1      5859    3    0    1
 -2       637       644      2843      1714
 -1      5860    3    0    1
 -2      1614      1613      1792      3339
 -1      5861    3    0    1
 -2      2875      1458      1645      1646
 -1      5862    3    0    1
 -2       679      2213      2433      2727
 -1      5863    3    0    1
 -2      2284       133      2589      3863
 -1      5864    3    0    1
 -2       169       991      3702      4024
 -1      5865    3    0    1
 -2      2372       975      3767      4029
 -1      5866    3    0    1
 -2      1279        95      2194      4013
 -1      5867    3    0    1
 -2      1513      1514      1705      3418
 -1      5868    3    0    1
 -2       449       553      2876      3034
 -1      5869    3    0    1
 -2      2580       981      2616      3800
 -1      5870    3    0    1
 -2      3807      2942      3934      4011
 -1      5871    3    0    1
 -2       987       993      3994      2035
 -1      5872    3    0    1
 -2      2889      3276      3891      3979
 -1      5873    3    0    1
 -2      1044      2480      3820      1949
 -1      5874    3    0    1
 -2      1666      1665      3076      1925
 -1      5875    3    0    1
 -2      1419      3186      1791      3895
 -1      5876    3    0    1
 -2      1460      1461      1547      3363
 -1      5877    3    0    1
 -2       727       732      3118      1840
 -1      5878    3    0    1
 -2      2782      2621      3220      3980
 -1      5879    3    0    1
 -2      1742      3117      3213      3433
 -1      5880    3    0    1
 -2      1621      3787      3800      1442
 -1      5881    3    0    1
 -2      1707      1708      3114      3154
 -1      5882    3    0    1
 -2      3834      2743      3312      3861
 -1      5883    3    0    1
 -2       527      1248      2817      2818
 -1      5884    3    0    1
 -2      1585      3788      3432      3545
 -1      5885    3    0    1
 -2      2623      3004      3892      3935
 -1      5886    3    0    1
 -2       733      1248      1250      2818
 -1      5887    3    0    1
 -2       743      1030      1031      2671
 -1      5888    3    0    1
 -2      1030       730      1031      2671
 -1      5889    3    0    1
 -2       742       730      1256      2671
 -1      5890    3    0    1
 -2      3228      3017      3330      3407
 -1      5891    3    0    1
 -2      1416      1415      1638      3382
 -1      5892    3    0    1
 -2       553      2876      3034      3875
 -1      5893    3    0    1
 -2      1067      3814      3225      3978
 -1      5894    3    0    1
 -2      1495      1494      3330      3407
 -1      5895    3    0    1
 -2       714       722      1257      2627
 -1      5896    3    0    1
 -2       722       714      1023      2627
 -1      5897    3    0    1
 -2      2957      2954      3424      3954
 -1      5898    3    0    1
 -2       607       610       965      2640
 -1      5899    3    0    1
 -2       533      1258      1259      2627
 -1      5900    3    0    1
 -2      1458      1459      2875      2883
 -1      5901    3    0    1
 -2       985       641       986      2653
 -1      5902    3    0    1
 -2      1632       799      1633      3316
 -1      5903    3    0    1
 -2       751       758       902      2675
 -1      5904    3    0    1
 -2      3355      1454      1874      3907
 -1      5905    3    0    1
 -2       798       797      1054      2678
 -1      5906    3    0    1
 -2       982       646      2405      2684
 -1      5907    3    0    1
 -2      1648      1456      2978      3913
 -1      5908    3    0    1
 -2      2580      2686      3800      3851
 -1      5909    3    0    1
 -2      1237       522      2646      2737
 -1      5910    3    0    1
 -2       522      2580      2646      2737
 -1      5911    3    0    1
 -2      2783       698      3264      3604
 -1      5912    3    0    1
 -2       147       978      2340      2847
 -1      5913    3    0    1
 -2      3245      1711      3877      3494
 -1      5914    3    0    1
 -2       606       465       609      2630
 -1      5915    3    0    1
 -2       606       609       618      2630
 -1      5916    3    0    1
 -2       617       609      2583      2630
 -1      5917    3    0    1
 -2       609       617       618      2630
 -1      5918    3    0    1
 -2       465       470       609      2630
 -1      5919    3    0    1
 -2       609       470      2583      2630
 -1      5920    3    0    1
 -2       606       614      1151      2630
 -1      5921    3    0    1
 -2       614       606       970      2630
 -1      5922    3    0    1
 -2       470       465      1152      2630
 -1      5923    3    0    1
 -2      1730      3021      3128      3331
 -1      5924    3    0    1
 -2      2882      3201      3842      3367
 -1      5925    3    0    1
 -2      2858      2968      1148      1146
 -1      5926    3    0    1
 -2      1142       459      2813      2929
 -1      5927    3    0    1
 -2      1734      1733      1947      3610
 -1      5928    3    0    1
 -2      2369      2595      3843      3899
 -1      5929    3    0    1
 -2      1626      3145      3602      3711
 -1      5930    3    0    1
 -2       628      2459      2543      2656
 -1      5931    3    0    1
 -2         1       354      1974      1987
 -1      5932    3    0    1
 -2      1550      1549      3058      1759
 -1      5933    3    0    1
 -2      2399       681      2433      2663
 -1      5934    3    0    1
 -2       990      1307      2399      2663
 -1      5935    3    0    1
 -2      1719      3040      1720      3059
 -1      5936    3    0    1
 -2      1307       681      2399      2663
 -1      5937    3    0    1
 -2      1507      1676      1677      3061
 -1      5938    3    0    1
 -2       607      1293      2501      2656
 -1      5939    3    0    1
 -2      1742      2864      1743      3347
 -1      5940    3    0    1
 -2       802      1213      1212      2633
 -1      5941    3    0    1
 -2       802      1212      2569      2633
 -1      5942    3    0    1
 -2       809       802      1063      2633
 -1      5943    3    0    1
 -2       815      1063      1064      2633
 -1      5944    3    0    1
 -2      3812      2696      3693      3707
 -1      5945    3    0    1
 -2      1063       802      1064      2633
 -1      5946    3    0    1
 -2      1064       802      2569      2633
 -1      5947    3    0    1
 -2      1722      1723      3541      3622
 -1      5948    3    0    1
 -2       816       815      1064      2633
 -1      5949    3    0    1
 -2      1671       427      3331      3644
 -1      5950    3    0    1
 -2       352      1567      1942      1994
 -1      5951    3    0    1
 -2      1586      1587      3095      3654
 -1      5952    3    0    1
 -2      1831      1830      3342      3622
 -1      5953    3    0    1
 -2      2897       197      3720      2030
 -1      5954    3    0    1
 -2       284       352      1942      1994
 -1      5955    3    0    1
 -2       506      1213       507      2633
 -1      5956    3    0    1
 -2      1213       506      1212      2633
 -1      5957    3    0    1
 -2      1212       506      2569      2633
 -1      5958    3    0    1
 -2       816      1064      2569      2633
 -1      5959    3    0    1
 -2      1683      1684      2986      1904
 -1      5960    3    0    1
 -2      3080      2781      3926      3617
 -1      5961    3    0    1
 -2      2837      2588      3872      3941
 -1      5962    3    0    1
 -2      1780      3215      3226      1984
 -1      5963    3    0    1
 -2      1304      2399      3799      3822
 -1      5964    3    0    1
 -2      2841      3380      3891      3656
 -1      5965    3    0    1
 -2      1020      2045      2387      3784
 -1      5966    3    0    1
 -2      1505      1506      3021      1730
 -1      5967    3    0    1
 -2      1638      1562      1639      3270
 -1      5968    3    0    1
 -2      1772      3192      3860      1980
 -1      5969    3    0    1
 -2      1294       964      3789      3815
 -1      5970    3    0    1
 -2      2620      2535      2756      3791
 -1      5971    3    0    1
 -2      1315      2314      2464      2769
 -1      5972    3    0    1
 -2      3510      1712      1604      1713
 -1      5973    3    0    1
 -2      2983      3190      3864      4020
 -1      5974    3    0    1
 -2      1464      1852      1853      3491
 -1      5975    3    0    1
 -2      2314      1027      2685      3793
 -1      5976    3    0    1
 -2      1586      3037      3095      3937
 -1      5977    3    0    1
 -2      2417       806      2449      3199
 -1      5978    3    0    1
 -2      1589      1588      1823      3413
 -1      5979    3    0    1
 -2       646       643      2405      3097
 -1      5980    3    0    1
 -2      1904      1903      3458      3495
 -1      5981    3    0    1
 -2      1438      2898      1706      3304
 -1      5982    3    0    1
 -2      2748      2426      2992      3829
 -1      5983    3    0    1
 -2      1601      1600      1829      3313
 -1      5984    3    0    1
 -2      2673       554      3119      3687
 -1      5985    3    0    1
 -2       533       714      2627      2639
 -1      5986    3    0    1
 -2       721       718      1260      2639
 -1      5987    3    0    1
 -2       718       721      1020      2639
 -1      5988    3    0    1
 -2       534       533      1259      2639
 -1      5989    3    0    1
 -2       234      1815      1922      1923
 -1      5990    3    0    1
 -2       606      1157      1159      2640
 -1      5991    3    0    1
 -2       965       606      1293      2640
 -1      5992    3    0    1
 -2       468       469      1157      2640
 -1      5993    3    0    1
 -2      3237      2994      3851      3567
 -1      5994    3    0    1
 -2      1157       469      1159      2640
 -1      5995    3    0    1
 -2       964      2620      3789      3791
 -1      5996    3    0    1
 -2      1481      1482      3055      1831
 -1      5997    3    0    1
 -2      1702      1852      1853      3492
 -1      5998    3    0    1
 -2      1291       122      3781      1735
 -1      5999    3    0    1
 -2       117       570       955      1736
 -1      6000    3    0    1
 -2      1518      1517      3093      1841
 -1      6001    3    0    1
 -2      1050      2355      2436      2720
 -1      6002    3    0    1
 -2      1483      3777      3809      3880
 -1      6003    3    0    1
 -2      1522      1722      1723      3524
 -1      6004    3    0    1
 -2      1533      3040      3529      3594
 -1      6005    3    0    1
 -2       909       476      2659      2660
 -1      6006    3    0    1
 -2       943      1279       552      2659
 -1      6007    3    0    1
 -2      2552      2727      2774      3987
 -1      6008    3    0    1
 -2      1244       733      1255      2644
 -1      6009    3    0    1
 -2      1327       788      2730      2731
 -1      6010    3    0    1
 -2      3376      3212      3512      3951
 -1      6011    3    0    1
 -2       741       737      1030      2644
 -1      6012    3    0    1
 -2       737       741       933      2644
 -1      6013    3    0    1
 -2       186      1697       180      1751
 -1      6014    3    0    1
 -2       531       532      1244      2644
 -1      6015    3    0    1
 -2       531      1244      1255      2644
 -1      6016    3    0    1
 -2      1513      1689      3867      3379
 -1      6017    3    0    1
 -2       290      1334      2762      3829
 -1      6018    3    0    1
 -2      1615      2827      1616      3289
 -1      6019    3    0    1
 -2       430       406      1996      2011
 -1      6020    3    0    1
 -2       522       521      1236      2646
 -1      6021    3    0    1
 -2       522      1236      1237      2646
 -1      6022    3    0    1
 -2      3129      3015      3383      3886
 -1      6023    3    0    1
 -2      3249      3857      3914      3948
 -1      6024    3    0    1
 -2       672       996      2272      3835
 -1      6025    3    0    1
 -2      1546      3941      3521      1460
 -1      6026    3    0    1
 -2      3101      1431      3193      1886
 -1      6027    3    0    1
 -2      1908      1824      3677      3745
 -1      6028    3    0    1
 -2       290      2334      2525      2748
 -1      6029    3    0    1
 -2       655      1863      1864      3380
 -1      6030    3    0    1
 -2      2252       761      2514      2753
 -1      6031    3    0    1
 -2      3034      1507      3875      3499
 -1      6032    3    0    1
 -2       574      1163      1165      2688
 -1      6033    3    0    1
 -2       356       353      3824      3928
 -1      6034    3    0    1
 -2       779       780      1047      3754
 -1      6035    3    0    1
 -2      2147       991      2490      3702
 -1      6036    3    0    1
 -2       574       570      1284      2688
 -1      6037    3    0    1
 -2      1301       643       646      3097
 -1      6038    3    0    1
 -2      1020       331      2045      3784
 -1      6039    3    0    1
 -2      1633      1632      3095      3538
 -1      6040    3    0    1
 -2      3833      1050      3898      3918
 -1      6041    3    0    1
 -2       571       573      1284      2688
 -1      6042    3    0    1
 -2      2989      1704      1705      3044
 -1      6043    3    0    1
 -2      3492      1936      3550      1702
 -1      6044    3    0    1
 -2      3115      3823      3529      3936
 -1      6045    3    0    1
 -2      1790      1847      1899      3525
 -1      6046    3    0    1
 -2      2999      1707      3493      3956
 -1      6047    3    0    1
 -2      2549       945      3765      4030
 -1      6048    3    0    1
 -2       808       805      1060      2649
 -1      6049    3    0    1
 -2       805       808       925      2649
 -1      6050    3    0    1
 -2       504      1210       924      2649
 -1      6051    3    0    1
 -2      1210       504       505      2649
 -1      6052    3    0    1
 -2       455       665       898      2651
 -1      6053    3    0    1
 -2      2651       996      2586       671
 -1      6054    3    0    1
 -2       925       504      1209      2649
 -1      6055    3    0    1
 -2       505       504       925      2649
 -1      6056    3    0    1
 -2      1498      2830      3344      3464
 -1      6057    3    0    1
 -2       665       671       994      2651
 -1      6058    3    0    1
 -2       996       672      2282      2710
 -1      6059    3    0    1
 -2       669       665       994      2651
 -1      6060    3    0    1
 -2       665       669       898      2651
 -1      6061    3    0    1
 -2      3265      1728      3376      1939
 -1      6062    3    0    1
 -2       414      2405      2524      2684
 -1      6063    3    0    1
 -2      3134      3394      3926      3563
 -1      6064    3    0    1
 -2      3021      1505      1730      1731
 -1      6065    3    0    1
 -2      1067       822      2607      2652
 -1      6066    3    0    1
 -2       768       763      3338      3742
 -1      6067    3    0    1
 -2      3040      1533      1719      1720
 -1      6068    3    0    1
 -2       903       454      1136      2653
 -1      6069    3    0    1
 -2      1324      1042      2163      2761
 -1      6070    3    0    1
 -2       649       645      1150      2654
 -1      6071    3    0    1
 -2       645       649       984      2654
 -1      6072    3    0    1
 -2       464       454       903      2654
 -1      6073    3    0    1
 -2       754       902      1134      2675
 -1      6074    3    0    1
 -2      3437      2638      3918      3943
 -1      6075    3    0    1
 -2      1672      1671      1731      3128
 -1      6076    3    0    1
 -2        47       247      1674      1716
 -1      6077    3    0    1
 -2      2826      2623      3004      3892
 -1      6078    3    0    1
 -2      3003      1681      1420      1419
 -1      6079    3    0    1
 -2      1144      2813      3219      3576
 -1      6080    3    0    1
 -2      1536      1466      1537      2821
 -1      6081    3    0    1
 -2      2669      2918      3878      3933
 -1      6082    3    0    1
 -2      2592      2591      2889      3979
 -1      6083    3    0    1
 -2      3460      3814      3913      3950
 -1      6084    3    0    1
 -2      2665      2666      2757      2975
 -1      6085    3    0    1
 -2      3132      1719      3370      3888
 -1      6086    3    0    1
 -2      3145      3576      3602      3711
 -1      6087    3    0    1
 -2      1167       551       909      2659
 -1      6088    3    0    1
 -2       943       551      1279      2659
 -1      6089    3    0    1
 -2       129      1661      3868      3479
 -1      6090    3    0    1
 -2      3197      1777      3512      3951
 -1      6091    3    0    1
 -2      2617      2618      2771      3801
 -1      6092    3    0    1
 -2       556       551       943      2659
 -1      6093    3    0    1
 -2       551       556       909      2659
 -1      6094    3    0    1
 -2      2722      2749      3025      2935
 -1      6095    3    0    1
 -2       706       695      1272      2662
 -1      6096    3    0    1
 -2      3975      3971      3743      3752
 -1      6097    3    0    1
 -2       909       475      1167      2659
 -1      6098    3    0    1
 -2       476       475       909      2659
 -1      6099    3    0    1
 -2      1536       691      1537      2783
 -1      6100    3    0    1
 -2      1271      1270       696      2662
 -1      6101    3    0    1
 -2       758       751      1039      2675
 -1      6102    3    0    1
 -2      1737      1473      1738      3448
 -1      6103    3    0    1
 -2       695      1272      2662      2664
 -1      6104    3    0    1
 -2      3993      1966       433      3748
 -1      6105    3    0    1
 -2      1013       695      2662      2664
 -1      6106    3    0    1
 -2      3595      3993      2026      3748
 -1      6107    3    0    1
 -2       541      1272       937      2664
 -1      6108    3    0    1
 -2      1272       541       542      2664
 -1      6109    3    0    1
 -2      1272       542      2662      2664
 -1      6110    3    0    1
 -2       708      1013      2662      2664
 -1      6111    3    0    1
 -2      2595      3843      3899      3999
 -1      6112    3    0    1
 -2       405       408      3792      3832
 -1      6113    3    0    1
 -2      1463      1462      1677      3532
 -1      6114    3    0    1
 -2      1801      1546      3308      3530
 -1      6115    3    0    1
 -2       624       931      1231      2665
 -1      6116    3    0    1
 -2       973       624      1297      2665
 -1      6117    3    0    1
 -2       627       624       973      2665
 -1      6118    3    0    1
 -2       624       627       931      2665
 -1      6119    3    0    1
 -2       431      3841      1846      3853
 -1      6120    3    0    1
 -2       734      2817      2818      2884
 -1      6121    3    0    1
 -2      1645      2964      3100      3102
 -1      6122    3    0    1
 -2      1231       518       519      2665
 -1      6123    3    0    1
 -2      1557      1556      2960      1808
 -1      6124    3    0    1
 -2       518      1231       931      2665
 -1      6125    3    0    1
 -2      1796      1795      3299      3523
 -1      6126    3    0    1
 -2      1562      3019      3202      3270
 -1      6127    3    0    1
 -2      3113      3884      3465      4012
 -1      6128    3    0    1
 -2      3799      1304      3822      3856
 -1      6129    3    0    1
 -2       942      2369      2447      2724
 -1      6130    3    0    1
 -2      1482      1481      1726      3556
 -1      6131    3    0    1
 -2      1920      3581      3666      3692
 -1      6132    3    0    1
 -2      3807      2724      3923      4003
 -1      6133    3    0    1
 -2      1920      1955      1956      3692
 -1      6134    3    0    1
 -2      1516      1515      1649      2996
 -1      6135    3    0    1
 -2      1044      3718      3754      3763
 -1      6136    3    0    1
 -2       737      1030      2644      2671
 -1      6137    3    0    1
 -2       933       531      1256      2671
 -1      6138    3    0    1
 -2       532       531       933      2671
 -1      6139    3    0    1
 -2       532       933      2644      2671
 -1      6140    3    0    1
 -2      1030       743      2644      2671
 -1      6141    3    0    1
 -2      2944      1479      3007      3122
 -1      6142    3    0    1
 -2       716       709      1748      3134
 -1      6143    3    0    1
 -2       592       958      2713      2714
 -1      6144    3    0    1
 -2      1605      1846      3894      3545
 -1      6145    3    0    1
 -2      1551      3457      3616      1981
 -1      6146    3    0    1
 -2      2042       571      2214      2805
 -1      6147    3    0    1
 -2      2780      1330      3928      3678
 -1      6148    3    0    1
 -2      1908        21      1946      3745
 -1      6149    3    0    1
 -2       122      2225      2310      3781
 -1      6150    3    0    1
 -2      2898      2697      3874      3951
 -1      6151    3    0    1
 -2       943        98      2762      3829
 -1      6152    3    0    1
 -2      2831      2892      3846      3133
 -1      6153    3    0    1
 -2      3239      3872      3439      3941
 -1      6154    3    0    1
 -2      1421      1422      3482      1972
 -1      6155    3    0    1
 -2      1023      1029      2320      3139
 -1      6156    3    0    1
 -2      3133      2658      3846      3883
 -1      6157    3    0    1
 -2      1579      1578      1616      3289
 -1      6158    3    0    1
 -2      2839      2884      3854      3929
 -1      6159    3    0    1
 -2      1473      2772      1737      1738
 -1      6160    3    0    1
 -2      1062       349      1975      3686
 -1      6161    3    0    1
 -2      2898      3094      3951      3619
 -1      6162    3    0    1
 -2      2869      3811      3038      3823
 -1      6163    3    0    1
 -2      1613      1791      1792      3339
 -1      6164    3    0    1
 -2      3434      1631      3550      3560
 -1      6165    3    0    1
 -2      3799      3787      3813      3916
 -1      6166    3    0    1
 -2       278       349      1062      3686
 -1      6167    3    0    1
 -2       186       180      1885      3927
 -1      6168    3    0    1
 -2       760       748      1145      2675
 -1      6169    3    0    1
 -2       748       760      1038      2675
 -1      6170    3    0    1
 -2       902       461      1134      2675
 -1      6171    3    0    1
 -2       461       453      1134      2675
 -1      6172    3    0    1
 -2       757       754      1134      2676
 -1      6173    3    0    1
 -2       897       453      1145      2676
 -1      6174    3    0    1
 -2       453       461      1145      2676
 -1      6175    3    0    1
 -2       762      1038      2675      2676
 -1      6176    3    0    1
 -2      1145       461      2675      2676
 -1      6177    3    0    1
 -2      1054       784      1055      2678
 -1      6178    3    0    1
 -2       798      1054      1055      2678
 -1      6179    3    0    1
 -2      1279      2716      3689      4013
 -1      6180    3    0    1
 -2      1513      2989      3379      4010
 -1      6181    3    0    1
 -2       784       929      1174      2678
 -1      6182    3    0    1
 -2      2995      1777      1778      3423
 -1      6183    3    0    1
 -2       790       793      1053      2678
 -1      6184    3    0    1
 -2       793       790       928      2678
 -1      6185    3    0    1
 -2       510       481       929      2678
 -1      6186    3    0    1
 -2       929       481      1174      2678
 -1      6187    3    0    1
 -2       784       796      1055      2679
 -1      6188    3    0    1
 -2       481       510       913      2679
 -1      6189    3    0    1
 -2       913       510       928      2679
 -1      6190    3    0    1
 -2       797      1053      2678      2679
 -1      6191    3    0    1
 -2       928       510      2678      2679
 -1      6192    3    0    1
 -2       200      2508      2552      2727
 -1      6193    3    0    1
 -2      1578      1579      1616      3357
 -1      6194    3    0    1
 -2      1648      3020      3913      3535
 -1      6195    3    0    1
 -2      1459      1458      2875      1646
 -1      6196    3    0    1
 -2      1324       255      2761      3682
 -1      6197    3    0    1
 -2       230      1926      2000      2001
 -1      6198    3    0    1
 -2       673      2999      1707      1708
 -1      6199    3    0    1
 -2       355       290      3829      1804
 -1      6200    3    0    1
 -2      1556      1557      2960      2982
 -1      6201    3    0    1
 -2      1584      1583      3153      3311
 -1      6202    3    0    1
 -2      1421      1812      1813      3587
 -1      6203    3    0    1
 -2      3788      3802      3894      3545
 -1      6204    3    0    1
 -2      3804      2944      3007      3122
 -1      6205    3    0    1
 -2       471       472      2713      3057
 -1      6206    3    0    1
 -2      2809      3804      3007      3122
 -1      6207    3    0    1
 -2       472       471       907      3057
 -1      6208    3    0    1
 -2      1565      1564      3092      1774
 -1      6209    3    0    1
 -2      3055      2984      1830      1831
 -1      6210    3    0    1
 -2      1464      2972      1737      1738
 -1      6211    3    0    1
 -2       278      2415      3824      1877
 -1      6212    3    0    1
 -2       346      1042      2761      4000
 -1      6213    3    0    1
 -2      2821      1553      1467      3691
 -1      6214    3    0    1
 -2      1441      3799      3822      3856
 -1      6215    3    0    1
 -2       771       770      1325      2941
 -1      6216    3    0    1
 -2      1505      1730      1731      3125
 -1      6217    3    0    1
 -2      1840      3093      1841      3361
 -1      6218    3    0    1
 -2       735      1027      2432      2685
 -1      6219    3    0    1
 -2      1027       735      2314      2685
 -1      6220    3    0    1
 -2      2314       735      2432      2685
 -1      6221    3    0    1
 -2      3565      1468      1955      1956
 -1      6222    3    0    1
 -2      1569      1570      3060      1959
 -1      6223    3    0    1
 -2      3826      3259      3308      3530
 -1      6224    3    0    1
 -2      3837      3827      3898      3705
 -1      6225    3    0    1
 -2      2591       463      2592      2858
 -1      6226    3    0    1
 -2       100      3829      1803      1804
 -1      6227    3    0    1
 -2       159       144      1897      1963
 -1      6228    3    0    1
 -2      1624      1625      2876      3320
 -1      6229    3    0    1
 -2       158       155      1712      1727
 -1      6230    3    0    1
 -2      3359      3836      3932      3945
 -1      6231    3    0    1
 -2      3614       339      1916      1954
 -1      6232    3    0    1
 -2      1018      1312       717      2735
 -1      6233    3    0    1
 -2       717      1312       715      2735
 -1      6234    3    0    1
 -2      3293      2714      3876      3600
 -1      6235    3    0    1
 -2      2411      1035      2464      2769
 -1      6236    3    0    1
 -2      3282      3804      3871      3719
 -1      6237    3    0    1
 -2      3166      1425      1900      3719
 -1      6238    3    0    1
 -2      2367       950      2716      4013
 -1      6239    3    0    1
 -2       773       766      1045      2689
 -1      6240    3    0    1
 -2      3335      3804      3498      3719
 -1      6241    3    0    1
 -2      1428      1427      3417      3721
 -1      6242    3    0    1
 -2       779      1045      2611      2689
 -1      6243    3    0    1
 -2       173       169      2147      2710
 -1      6244    3    0    1
 -2      1045       766      2611      2689
 -1      6245    3    0    1
 -2      3219      3839      2022      3721
 -1      6246    3    0    1
 -2      1427      1428      2023      3721
 -1      6247    3    0    1
 -2      2448      2460      2619      3780
 -1      6248    3    0    1
 -2      2619      2460      2681      3780
 -1      6249    3    0    1
 -2      1569      3152      1958      3941
 -1      6250    3    0    1
 -2      1795      1796      3299      1887
 -1      6251    3    0    1
 -2      1594       245      1595      3006
 -1      6252    3    0    1
 -2      1785      3023      3312      3861
 -1      6253    3    0    1
 -2      2920      2954      2957      3954
 -1      6254    3    0    1
 -2      3290      3801      3915      3956
 -1      6255    3    0    1
 -2      1578      1615      1616      3289
 -1      6256    3    0    1
 -2       170      3800      1818      1905
 -1      6257    3    0    1
 -2      3858      3840      3998      4026
 -1      6258    3    0    1
 -2      3815      1294      3521      3941
 -1      6259    3    0    1
 -2      1642      2936      3907      3717
 -1      6260    3    0    1
 -2       805       278      3658      3686
 -1      6261    3    0    1
 -2      1982      2022      3708      3726
 -1      6262    3    0    1
 -2      1569      1294      3815      3941
 -1      6263    3    0    1
 -2      3454      2823      1978      1979
 -1      6264    3    0    1
 -2      1531      1530      1874      3575
 -1      6265    3    0    1
 -2       148       410      1997      3740
 -1      6266    3    0    1
 -2       552       555      2659      2694
 -1      6267    3    0    1
 -2      2659       555      2660      2694
 -1      6268    3    0    1
 -2       339      1858      1954      3614
 -1      6269    3    0    1
 -2       402      1619      3823      1856
 -1      6270    3    0    1
 -2      1752      3430      3933      3596
 -1      6271    3    0    1
 -2       449       553      2703      1624
 -1      6272    3    0    1
 -2      3000      2851      3814      3913
 -1      6273    3    0    1
 -2      2300      3785      3788      3400
 -1      6274    3    0    1
 -2       601       608      3160      3410
 -1      6275    3    0    1
 -2      3802      3841      3853      3894
 -1      6276    3    0    1
 -2      1538      1624      3110      3133
 -1      6277    3    0    1
 -2      1711      1512      3843      3494
 -1      6278    3    0    1
 -2      1463      1462      3267      1838
 -1      6279    3    0    1
 -2      2460      1325      3189      3902
 -1      6280    3    0    1
 -2       555      1280      2660      2694
 -1      6281    3    0    1
 -2      2225      2181      2310      3781
 -1      6282    3    0    1
 -2       735       734      1316      2884
 -1      6283    3    0    1
 -2      3269      2923      3002      1519
 -1      6284    3    0    1
 -2      3462      2886      3483      3501
 -1      6285    3    0    1
 -2       691      1788      1789      3264
 -1      6286    3    0    1
 -2      1442      3785      3808      3894
 -1      6287    3    0    1
 -2       734      1026      1316      2884
 -1      6288    3    0    1
 -2      3048      2602      3857      3875
 -1      6289    3    0    1
 -2      3082      3064      3878      4010
 -1      6290    3    0    1
 -2      2666      2757      2925      3842
 -1      6291    3    0    1
 -2      2820      3129      3210      3886
 -1      6292    3    0    1
 -2      1540      1739      3232      3324
 -1      6293    3    0    1
 -2      2894      1669      3315      3422
 -1      6294    3    0    1
 -2        95       551       556      3402
 -1      6295    3    0    1
 -2      1583      1488      2906      3296
 -1      6296    3    0    1
 -2      2415      1065      3824      1877
 -1      6297    3    0    1
 -2      3800      3787      3097      3931
 -1      6298    3    0    1
 -2      2694      3811      3049      3846
 -1      6299    3    0    1
 -2      2719      2659      2979      3846
 -1      6300    3    0    1
 -2      1196       769       772      2733
 -1      6301    3    0    1
 -2      1685      1686      3387      3500
 -1      6302    3    0    1
 -2      2853      2733      2941      3804
 -1      6303    3    0    1
 -2       788       789      2730      2969
 -1      6304    3    0    1
 -2       965      2228      2501      3169
 -1      6305    3    0    1
 -2      3024      1510      3520      3936
 -1      6306    3    0    1
 -2       965      1288      2228      2741
 -1      6307    3    0    1
 -2      1781      1443      1782      3431
 -1      6308    3    0    1
 -2      2987      2838      3035      3965
 -1      6309    3    0    1
 -2      3801      2952      3818      3895
 -1      6310    3    0    1
 -2      1470      1471      1778      3423
 -1      6311    3    0    1
 -2       625      1298       628      2975
 -1      6312    3    0    1
 -2      1541      1540      2914      1740
 -1      6313    3    0    1
 -2      2759      2415      3824      3928
 -1      6314    3    0    1
 -2      2682      2718      1895      1896
 -1      6315    3    0    1
 -2      3825      1665      3280      3485
 -1      6316    3    0    1
 -2      3149      3154      3468      3970
 -1      6317    3    0    1
 -2      3015      1253      3129      3383
 -1      6318    3    0    1
 -2       148       410      3863      1997
 -1      6319    3    0    1
 -2      1513      3867      3517      4010
 -1      6320    3    0    1
 -2      3256      1515      1849      1850
 -1      6321    3    0    1
 -2      3180      2690      3879      3970
 -1      6322    3    0    1
 -2      2948      3025      3825      3485
 -1      6323    3    0    1
 -2      2743      1583      3153      3312
 -1      6324    3    0    1
 -2      1475      2856      2867      2909
 -1      6325    3    0    1
 -2      3211      3872      3521      3578
 -1      6326    3    0    1
 -2      1301      2616      3800      3851
 -1      6327    3    0    1
 -2      3101      3412      3929      2017
 -1      6328    3    0    1
 -2      1319       347      2411      4000
 -1      6329    3    0    1
 -2       808       805      3641      3686
 -1      6330    3    0    1
 -2      3811      1583      3823      3157
 -1      6331    3    0    1
 -2      2683      3434      3486      3992
 -1      6332    3    0    1
 -2      1473      3121      3964      2009
 -1      6333    3    0    1
 -2      2892      3811      3846      3936
 -1      6334    3    0    1
 -2      1417      1418      1484      2746
 -1      6335    3    0    1
 -2       732      2903      1861      3949
 -1      6336    3    0    1
 -2      3087      1598      3218      3911
 -1      6337    3    0    1
 -2       459       460      1144      2813
 -1      6338    3    0    1
 -2      1730      3021      1731      3128
 -1      6339    3    0    1
 -2      3778      2448      3016      3889
 -1      6340    3    0    1
 -2      1671      1730      1731      3128
 -1      6341    3    0    1
 -2       755       243      1145       238
 -1      6342    3    0    1
 -2      3101      1795      3412      2017
 -1      6343    3    0    1
 -2      2703      2661      1611      1612
 -1      6344    3    0    1
 -2      1462      1463      1677      3438
 -1      6345    3    0    1
 -2      2890      3800      3063      3851
 -1      6346    3    0    1
 -2       588       906      1162      2713
 -1      6347    3    0    1
 -2       958       588      1288      2713
 -1      6348    3    0    1
 -2      2484      2629      3783      3830
 -1      6349    3    0    1
 -2       591       588       958      2713
 -1      6350    3    0    1
 -2       588       591       906      2713
 -1      6351    3    0    1
 -2      1669      2894      3315      3683
 -1      6352    3    0    1
 -2      2939      1429      1685      3516
 -1      6353    3    0    1
 -2      1162       471       472      2713
 -1      6354    3    0    1
 -2      2459      2535      2620      3791
 -1      6355    3    0    1
 -2       471      1162       906      2713
 -1      6356    3    0    1
 -2      3887      1915      1951      3683
 -1      6357    3    0    1
 -2      1915      3887      3929      3683
 -1      6358    3    0    1
 -2      2873      1586      3950      3727
 -1      6359    3    0    1
 -2      1440      1439      1656      2967
 -1      6360    3    0    1
 -2      3077      1602      3307      3395
 -1      6361    3    0    1
 -2      1645      2875      3149      3879
 -1      6362    3    0    1
 -2      1447      3366      3475      3914
 -1      6363    3    0    1
 -2      3803      1721      3833      3898
 -1      6364    3    0    1
 -2      1525      1526      2782      3263
 -1      6365    3    0    1
 -2      1780        46      3215      1984
 -1      6366    3    0    1
 -2      2976      1156      3027      3371
 -1      6367    3    0    1
 -2      3193      2860      3327      3892
 -1      6368    3    0    1
 -2      3360      3180      3891      3182
 -1      6369    3    0    1
 -2      3199      3795      3847      3972
 -1      6370    3    0    1
 -2      3030      1596      1748      1749
 -1      6371    3    0    1
 -2      2649       807      2650      2723
 -1      6372    3    0    1
 -2      2712      2804      2843      3685
 -1      6373    3    0    1
 -2      3167      2835      3980      4008
 -1      6374    3    0    1
 -2      1450      2900      1870      3651
 -1      6375    3    0    1
 -2      2738      2702      3848      3940
 -1      6376    3    0    1
 -2      2959      2737      3805      3944
 -1      6377    3    0    1
 -2       806      1059      1331      2723
 -1      6378    3    0    1
 -2       281       808       811      3686
 -1      6379    3    0    1
 -2      1533      3594      1987      1988
 -1      6380    3    0    1
 -2      1609      1685      1686      3387
 -1      6381    3    0    1
 -2      3062      1571      3329      1929
 -1      6382    3    0    1
 -2      1627       354      3795      3816
 -1      6383    3    0    1
 -2      1218       754      2721      2722
 -1      6384    3    0    1
 -2      1473      3478      2009      2010
 -1      6385    3    0    1
 -2      1498      1499      2823      3274
 -1      6386    3    0    1
 -2      3582      2998      3961      3974
 -1      6387    3    0    1
 -2      1574      1575      2930      1811
 -1      6388    3    0    1
 -2      3035      1590      3396      1897
 -1      6389    3    0    1
 -2       458       457       900      2726
 -1      6390    3    0    1
 -2      1418      1417      1484      3082
 -1      6391    3    0    1
 -2      2706      3846      3459      3687
 -1      6392    3    0    1
 -2       900       457      1140      2726
 -1      6393    3    0    1
 -2      1772      2855      3190      3192
 -1      6394    3    0    1
 -2      2681      2619      3780      3974
 -1      6395    3    0    1
 -2       990      3821      3822      3925
 -1      6396    3    0    1
 -2      3791      1580      3855      3969
 -1      6397    3    0    1
 -2      2454       224      4004      4014
 -1      6398    3    0    1
 -2      1920      1921      3625      3724
 -1      6399    3    0    1
 -2      2984      3055      1830      3593
 -1      6400    3    0    1
 -2      3854      2623      3892      3935
 -1      6401    3    0    1
 -2       790       918      1192      2730
 -1      6402    3    0    1
 -2      1051       790      1327      2730
 -1      6403    3    0    1
 -2      3865      3796      3910      3993
 -1      6404    3    0    1
 -2      2966      3854      3892      3935
 -1      6405    3    0    1
 -2      2697      3350      3874      3951
 -1      6406    3    0    1
 -2       790       787      1327      2730
 -1      6407    3    0    1
 -2       787       790      1192      2730
 -1      6408    3    0    1
 -2       411       147      4002      2037
 -1      6409    3    0    1
 -2      1911      1946      3745      3753
 -1      6410    3    0    1
 -2       680       673      2999      1707
 -1      6411    3    0    1
 -2      2797      3211      3872      3521
 -1      6412    3    0    1
 -2      3185      3889      3668      3731
 -1      6413    3    0    1
 -2       261       346      3820      4000
 -1      6414    3    0    1
 -2       625       628      2665      2975
 -1      6415    3    0    1
 -2       493       492      1192      2730
 -1      6416    3    0    1
 -2      1042      1324       770      2732
 -1      6417    3    0    1
 -2      2607      1067      2652      3814
 -1      6418    3    0    1
 -2       918       493      1192      2730
 -1      6419    3    0    1
 -2      3177      2806      3876      3385
 -1      6420    3    0    1
 -2      3348      1620      3993      3748
 -1      6421    3    0    1
 -2      2928      1590      1725      1726
 -1      6422    3    0    1
 -2      2734      2692      3976      3979
 -1      6423    3    0    1
 -2      1776      3200      3844      3573
 -1      6424    3    0    1
 -2       412      1577      3808      1771
 -1      6425    3    0    1
 -2      3790      3833      3862      3995
 -1      6426    3    0    1
 -2      2213      1000      2517      3882
 -1      6427    3    0    1
 -2       952       114      2233      3991
 -1      6428    3    0    1
 -2       718       901      1143      2735
 -1      6429    3    0    1
 -2      1018       718      1312      2735
 -1      6430    3    0    1
 -2      1955      3565      1956      3692
 -1      6431    3    0    1
 -2      2228       125      2572      3832
 -1      6432    3    0    1
 -2      1748      3030      1749      3167
 -1      6433    3    0    1
 -2       718       714      1312      2735
 -1      6434    3    0    1
 -2       714       718      1143      2735
 -1      6435    3    0    1
 -2       450       554      2718      1895
 -1      6436    3    0    1
 -2      1488      1489      3042      3311
 -1      6437    3    0    1
 -2      2687       571      2688      3834
 -1      6438    3    0    1
 -2      1880       601      1881      3410
 -1      6439    3    0    1
 -2      1559      2958      3135      1781
 -1      6440    3    0    1
 -2       460       459      1143      2735
 -1      6441    3    0    1
 -2       901       460      1143      2735
 -1      6442    3    0    1
 -2       962      2157      2310      3792
 -1      6443    3    0    1
 -2      1480      1479      1653      3007
 -1      6444    3    0    1
 -2      3829      2748      1803      1804
 -1      6445    3    0    1
 -2      1294       409      4006      4018
 -1      6446    3    0    1
 -2      2923      3269      3002      3893
 -1      6447    3    0    1
 -2      1694      1768      1769      3141
 -1      6448    3    0    1
 -2      3209      2828      3432      3969
 -1      6449    3    0    1
 -2      2999      1707      1708      3493
 -1      6450    3    0    1
 -2      2668      2535      3791      3810
 -1      6451    3    0    1
 -2      1161       471      2714      3057
 -1      6452    3    0    1
 -2        12      1906      1907      2028
 -1      6453    3    0    1
 -2      2720      3803      3806      3827
 -1      6454    3    0    1
 -2      1018      1309      2551      2744
 -1      6455    3    0    1
 -2        51        52      1921      3724
 -1      6456    3    0    1
 -2      2687      2871      3834      3857
 -1      6457    3    0    1
 -2      3326      2983      3864      4020
 -1      6458    3    0    1
 -2      3249      3914      3513      3948
 -1      6459    3    0    1
 -2      1592      1634      1635      3428
 -1      6460    3    0    1
 -2      1456      1457      1649      2978
 -1      6461    3    0    1
 -2      3993       433      2026      3748
 -1      6462    3    0    1
 -2      1798      1477      1799      3278
 -1      6463    3    0    1
 -2       707      1011      2512      3758
 -1      6464    3    0    1
 -2      1553      1467      3165      1466
 -1      6465    3    0    1
 -2       564       947      2455      2745
 -1      6466    3    0    1
 -2       947       564      2237      2745
 -1      6467    3    0    1
 -2      2237       564      2455      2745
 -1      6468    3    0    1
 -2      2599      3402       551      3756
 -1      6469    3    0    1
 -2       169       172      2035      3759
 -1      6470    3    0    1
 -2      1005      1011      3987      2012
 -1      6471    3    0    1
 -2      2987      3035      3261      3965
 -1      6472    3    0    1
 -2      1620      3796      3836      3348
 -1      6473    3    0    1
 -2      1548      3778      3794      3929
 -1      6474    3    0    1
 -2      1443      1444      3306      3694
 -1      6475    3    0    1
 -2      1562      1563      1638      2924
 -1      6476    3    0    1
 -2      2876      1624      3023      3875
 -1      6477    3    0    1
 -2       198      2512      2711      3784
 -1      6478    3    0    1
 -2       198      1014      2512      3784
 -1      6479    3    0    1
 -2      1020      3784      2014      2015
 -1      6480    3    0    1
 -2       331       215      3784      2015
 -1      6481    3    0    1
 -2      2387      2045      2512      3784
 -1      6482    3    0    1
 -2      2512      2045      2711      3784
 -1      6483    3    0    1
 -2       239       337      4004      2040
 -1      6484    3    0    1
 -2      3451      1515      3188      3548
 -1      6485    3    0    1
 -2      3129      1747      3210      3383
 -1      6486    3    0    1
 -2      1634      2868      1635      3343
 -1      6487    3    0    1
 -2      3837      1651      3569      3705
 -1      6488    3    0    1
 -2      1569      3060      1958      1959
 -1      6489    3    0    1
 -2      3796      2870      3865      4023
 -1      6490    3    0    1
 -2      2435       770      2436      3505
 -1      6491    3    0    1
 -2      2646      1236      2867      3233
 -1      6492    3    0    1
 -2       333      1027      2314      3793
 -1      6493    3    0    1
 -2       660      1303      2810      2811
 -1      6494    3    0    1
 -2       592      2042      2225      2805
 -1      6495    3    0    1
 -2       571      1284      2214      2805
 -1      6496    3    0    1
 -2       530      1254      2810      2811
 -1      6497    3    0    1
 -2      1423      1424      1817      3606
 -1      6498    3    0    1
 -2      2214       117      2691      3817
 -1      6499    3    0    1
 -2      2956      3423      3447      3591
 -1      6500    3    0    1
 -2      1470      1728      1729      3474
 -1      6501    3    0    1
 -2      3036      1606      3075      3555
 -1      6502    3    0    1
 -2      1441      3779      3916      4027
 -1      6503    3    0    1
 -2      2888      2646      3805      3207
 -1      6504    3    0    1
 -2      2963      2369      3877      3923
 -1      6505    3    0    1
 -2      2939      1685      1430      3391
 -1      6506    3    0    1
 -2      2535      3788      2828      3969
 -1      6507    3    0    1
 -2      1822      3208      1823      3413
 -1      6508    3    0    1
 -2      3061      2795      3883      3438
 -1      6509    3    0    1
 -2      1766      3017      3228      3407
 -1      6510    3    0    1
 -2      3804      2879      3122      3981
 -1      6511    3    0    1
 -2      1642      1574      3231      3953
 -1      6512    3    0    1
 -2      1197      2855      2983      3190
 -1      6513    3    0    1
 -2       753      2721      2722      2749
 -1      6514    3    0    1
 -2      1453      1452      1720      3059
 -1      6515    3    0    1
 -2      1034      1320       753      2749
 -1      6516    3    0    1
 -2      1689      1513      3867      3517
 -1      6517    3    0    1
 -2      3803      1449      1721      3713
 -1      6518    3    0    1
 -2      3872      2797      3521      3941
 -1      6519    3    0    1
 -2       753       752      1034      2749
 -1      6520    3    0    1
 -2       333      1027      3793      3302
 -1      6521    3    0    1
 -2       610       607       964      3815
 -1      6522    3    0    1
 -2       744      2252      2458      2753
 -1      6523    3    0    1
 -2      2376       744      2458      2753
 -1      6524    3    0    1
 -2       761      1322      2514      2753
 -1      6525    3    0    1
 -2       744       761      2252      2753
 -1      6526    3    0    1
 -2       406       430      3977      2011
 -1      6527    3    0    1
 -2      3796      2573      3836      3993
 -1      6528    3    0    1
 -2       761      1032      1322      2753
 -1      6529    3    0    1
 -2       761       744      1032      2753
 -1      6530    3    0    1
 -2      3910      1966      3985      3993
 -1      6531    3    0    1
 -2      3214      1818      1819      3309
 -1      6532    3    0    1
 -2      1497      1627      3795      3816
 -1      6533    3    0    1
 -2      1824      1825      1884      3681
 -1      6534    3    0    1
 -2      3197      3350      3590      3951
 -1      6535    3    0    1
 -2       828       290       355      1804
 -1      6536    3    0    1
 -2      2817       527      2818      3352
 -1      6537    3    0    1
 -2      1540      2801      2914      3534
 -1      6538    3    0    1
 -2      1059      3845      3878      1942
 -1      6539    3    0    1
 -2      1425      3411      1900      3496
 -1      6540    3    0    1
 -2      3138      1590      1897      1898
 -1      6541    3    0    1
 -2      1694      3105      1768      3453
 -1      6542    3    0    1
 -2      3840      3897      3586      3986
 -1      6543    3    0    1
 -2      1549      1758      3146      3528
 -1      6544    3    0    1
 -2      3852      2816      2908      3893
 -1      6545    3    0    1
 -2      2926      1764      1765      3214
 -1      6546    3    0    1
 -2      1458      1622      1623      2883
 -1      6547    3    0    1
 -2      3955      1657      3662      3672
 -1      6548    3    0    1
 -2      3238      3955      3664      3672
 -1      6549    3    0    1
 -2      2438      1289      3777      3899
 -1      6550    3    0    1
 -2      2825       750      1615      3871
 -1      6551    3    0    1
 -2      3807      1491      3923      3930
 -1      6552    3    0    1
 -2       255       346      1042      2761
 -1      6553    3    0    1
 -2      1513      1689      1690      3519
 -1      6554    3    0    1
 -2       413       411      3866      4002
 -1      6555    3    0    1
 -2      1915      1669      1916      3683
 -1      6556    3    0    1
 -2       255      1042      1324      2761
 -1      6557    3    0    1
 -2      3975      3870      3751      3762
 -1      6558    3    0    1
 -2      1619      1891      3923      3930
 -1      6559    3    0    1
 -2      1491      1619      3923      3930
 -1      6560    3    0    1
 -2      2195       394      2421      2763
 -1      6561    3    0    1
 -2       394       396      2421      2763
 -1      6562    3    0    1
 -2       396       394      1033      2763
 -1      6563    3    0    1
 -2       200      1011      2012      3758
 -1      6564    3    0    1
 -2      2743      2822      3834      3990
 -1      6565    3    0    1
 -2      3828      2743      3834      3990
 -1      6566    3    0    1
 -2      3070      3834      3953      3990
 -1      6567    3    0    1
 -2      3070      3828      3834      3990
 -1      6568    3    0    1
 -2      1683      2986      1903      1904
 -1      6569    3    0    1
 -2      1622      3143      3374      3890
 -1      6570    3    0    1
 -2      3628      3914      3681      3745
 -1      6571    3    0    1
 -2      3523      1795      3958      2017
 -1      6572    3    0    1
 -2       457      1140      2726      2784
 -1      6573    3    0    1
 -2      2618       457      2726      2784
 -1      6574    3    0    1
 -2      2828      2807      3209      3432
 -1      6575    3    0    1
 -2       202       215      3784      3797
 -1      6576    3    0    1
 -2      2528      1062      2548      3144
 -1      6577    3    0    1
 -2      3782       234      3902      3942
 -1      6578    3    0    1
 -2      3093      1517      3228      3455
 -1      6579    3    0    1
 -2      2714      3826      3293      3876
 -1      6580    3    0    1
 -2      1002      3835      1793      1794
 -1      6581    3    0    1
 -2      1777      1470      3512      3951
 -1      6582    3    0    1
 -2       186      3821      3925      3927
 -1      6583    3    0    1
 -2      3804      3326      3864      4028
 -1      6584    3    0    1
 -2      1643      1642      3355      3436
 -1      6585    3    0    1
 -2      1415      3026      1888      1889
 -1      6586    3    0    1
 -2      2972      1464      1737      3675
 -1      6587    3    0    1
 -2      1419      1420      3003      3291
 -1      6588    3    0    1
 -2      1249      3068      3352      3553
 -1      6589    3    0    1
 -2      2400      1335      3795      3199
 -1      6590    3    0    1
 -2      1592      1593      2868      3178
 -1      6591    3    0    1
 -2      1584      1583      3157      1857
 -1      6592    3    0    1
 -2      1640      3304      3433      1906
 -1      6593    3    0    1
 -2      3055      1481      1830      3593
 -1      6594    3    0    1
 -2       786      1822      3869      3461
 -1      6595    3    0    1
 -2      2879      2944      3804      3122
 -1      6596    3    0    1
 -2      1539      1538      3110      3403
 -1      6597    3    0    1
 -2      2855      2983      3190      3864
 -1      6598    3    0    1
 -2      3873      3120      3496      3988
 -1      6599    3    0    1
 -2      2917      3017      3228      3988
 -1      6600    3    0    1
 -2      3782      1542      1858      3988
 -1      6601    3    0    1
 -2      1034      1320      2749      3988
 -1      6602    3    0    1
 -2      2935      3873      3496      3988
 -1      6603    3    0    1
 -2      1618      2862      3818      3321
 -1      6604    3    0    1
 -2      1827      2987      3277      3946
 -1      6605    3    0    1
 -2       159      2909      1897      1914
 -1      6606    3    0    1
 -2      1445      1446      1550      2775
 -1      6607    3    0    1
 -2       964       134      3917      3922
 -1      6608    3    0    1
 -2      3215      3217      3844      3601
 -1      6609    3    0    1
 -2      3570      1530      1995      1996
 -1      6610    3    0    1
 -2      2588      3052      3872      4012
 -1      6611    3    0    1
 -2      3827      3803      3898      4005
 -1      6612    3    0    1
 -2       187       185      2451      2776
 -1      6613    3    0    1
 -2       185       187      2213      2776
 -1      6614    3    0    1
 -2      3782      1034      3496      3988
 -1      6615    3    0    1
 -2      1320      1034      3782      3988
 -1      6616    3    0    1
 -2      2917      3120      3873      3988
 -1      6617    3    0    1
 -2      2310       962      3792      2020
 -1      6618    3    0    1
 -2       405       125      3792      2020
 -1      6619    3    0    1
 -2      3790      2720      3833      3995
 -1      6620    3    0    1
 -2      3412      3929      2017      3750
 -1      6621    3    0    1
 -2      3750       335      2018      2026
 -1      6622    3    0    1
 -2      1696      2932      3703      4025
 -1      6623    3    0    1
 -2       413       414       645      2038
 -1      6624    3    0    1
 -2      2487       993       654      2547
 -1      6625    3    0    1
 -2       345       642       987      2036
 -1      6626    3    0    1
 -2       147      2847      4002      2037
 -1      6627    3    0    1
 -2       993      2147      2778      3994
 -1      6628    3    0    1
 -2      2778       993      2487      2547
 -1      6629    3    0    1
 -2       806      1330      2449      2780
 -1      6630    3    0    1
 -2      1068       823      2400      2780
 -1      6631    3    0    1
 -2      2400       823      2449      2780
 -1      6632    3    0    1
 -2       823       806      2449      2780
 -1      6633    3    0    1
 -2       806      1068      1330      2780
 -1      6634    3    0    1
 -2       806       823      1068      2780
 -1      6635    3    0    1
 -2      3821      3779      3822      3925
 -1      6636    3    0    1
 -2        98       943      2992      3829
 -1      6637    3    0    1
 -2      2710      2272      3014      3835
 -1      6638    3    0    1
 -2      1447      1448      1884      3566
 -1      6639    3    0    1
 -2      2981      1632      3538      3937
 -1      6640    3    0    1
 -2       716      3167      1807      3456
 -1      6641    3    0    1
 -2      1526      1525      2782      1789
 -1      6642    3    0    1
 -2      3941      1546      3578      3439
 -1      6643    3    0    1
 -2      1594      3051      1480      1479
 -1      6644    3    0    1
 -2       698       691      1536      2783
 -1      6645    3    0    1
 -2      1011       200      2012      3755
 -1      6646    3    0    1
 -2      1005      1011      2776      3987
 -1      6647    3    0    1
 -2      1863      3232      3380      3891
 -1      6648    3    0    1
 -2      2726      1140      3967      2784
 -1      6649    3    0    1
 -2      3019      2729      3202      3940
 -1      6650    3    0    1
 -2      1538      1624      1625      3110
 -1      6651    3    0    1
 -2       972      1301      3097      3931
 -1      6652    3    0    1
 -2      1567      3845      3921      3971
 -1      6653    3    0    1
 -2       932      2882      2987      3261
 -1      6654    3    0    1
 -2      1627      3816      3547      3637
 -1      6655    3    0    1
 -2       745       750      2825      3630
 -1      6656    3    0    1
 -2      1614      3603      1630      1629
 -1      6657    3    0    1
 -2      3129      3886      3589      3620
 -1      6658    3    0    1
 -2      3076      1665      1924      1925
 -1      6659    3    0    1
 -2       170       981      3800      3813
 -1      6660    3    0    1
 -2      2324      1044      2760      3820
 -1      6661    3    0    1
 -2      3788      1585      3810      3917
 -1      6662    3    0    1
 -2      1488      2906      3811      3164
 -1      6663    3    0    1
 -2       662       655      2904      3062
 -1      6664    3    0    1
 -2      2514      2374      2753      4004
 -1      6665    3    0    1
 -2      3180      3874      3891      3970
 -1      6666    3    0    1
 -2      2836      3013      3844      3869
 -1      6667    3    0    1
 -2      1294       964      2620      3789
 -1      6668    3    0    1
 -2      1452      1719      1720      3059
 -1      6669    3    0    1
 -2      3786      2725      3847      4011
 -1      6670    3    0    1
 -2      3410       608      3885      3669
 -1      6671    3    0    1
 -2      2914      1540      1739      1740
 -1      6672    3    0    1
 -2      3012      3830      3858      3901
 -1      6673    3    0    1
 -2      4003      2724      2468      3807
 -1      6674    3    0    1
 -2      2531      2469      2534      3016
 -1      6675    3    0    1
 -2       411       147      2974      3866
 -1      6676    3    0    1
 -2       781      1822      1823      3346
 -1      6677    3    0    1
 -2      2780       278      1330      2449
 -1      6678    3    0    1
 -2      1193       493      2836      3601
 -1      6679    3    0    1
 -2      2524      2684      3252      3866
 -1      6680    3    0    1
 -2       290       828       821      1804
 -1      6681    3    0    1
 -2      3030      1596      3584      4008
 -1      6682    3    0    1
 -2       414       413      2974      3866
 -1      6683    3    0    1
 -2      1516      1515      1850      3451
 -1      6684    3    0    1
 -2       907      1161      3395      3623
 -1      6685    3    0    1
 -2      1520      1519      1660      3002
 -1      6686    3    0    1
 -2      1519      1659      1660      3002
 -1      6687    3    0    1
 -2      2580      2616      2646      3805
 -1      6688    3    0    1
 -2      1425      1426      3411      3415
 -1      6689    3    0    1
 -2      2580      2646      2737      3805
 -1      6690    3    0    1
 -2      3638      2929      3667      4008
 -1      6691    3    0    1
 -2      2970      2623      3854      3935
 -1      6692    3    0    1
 -2      1210      2650      2954      3424
 -1      6693    3    0    1
 -2      2667      3098      3540      3543
 -1      6694    3    0    1
 -2       552      2447      3823       942
 -1      6695    3    0    1
 -2      3889      3579      3952      3731
 -1      6696    3    0    1
 -2       264       266      1651      2949
 -1      6697    3    0    1
 -2      1550      1549      3112      3377
 -1      6698    3    0    1
 -2      1456      1457      3279      1944
 -1      6699    3    0    1
 -2      2790      1606      3511      3518
 -1      6700    3    0    1
 -2      1585      3788      3802      3905
 -1      6701    3    0    1
 -2      1751       186      3925      3957
 -1      6702    3    0    1
 -2      3105      3453      3114      3979
 -1      6703    3    0    1
 -2       335      1017      3958      3985
 -1      6704    3    0    1
 -2      3297      1602      3503      3657
 -1      6705    3    0    1
 -2      1777      1571      3197      3512
 -1      6706    3    0    1
 -2      1532      2856      2909      3138
 -1      6707    3    0    1
 -2       607      2640      2641      2797
 -1      6708    3    0    1
 -2       607       610      2640      2797
 -1      6709    3    0    1
 -2      1667      3815      3147      3260
 -1      6710    3    0    1
 -2      1581      2955      3215      3226
 -1      6711    3    0    1
 -2      1417      1418      3022      3082
 -1      6712    3    0    1
 -2      2700      2971      3883      3900
 -1      6713    3    0    1
 -2      1008       214      3859      3945
 -1      6714    3    0    1
 -2      3621      1065      3641      3658
 -1      6715    3    0    1
 -2      2887      3798      2937      3251
 -1      6716    3    0    1
 -2      2830      1498      3344      3542
 -1      6717    3    0    1
 -2       787       794      1056      1976
 -1      6718    3    0    1
 -2      1583      1488      1584      2906
 -1      6719    3    0    1
 -2      1576      1524      3821      3897
 -1      6720    3    0    1
 -2      2594      2677      3950      3964
 -1      6721    3    0    1
 -2       709       716      3167      1807
 -1      6722    3    0    1
 -2      2882      2902      2987      3842
 -1      6723    3    0    1
 -2      1409      1742      1743      3117
 -1      6724    3    0    1
 -2       755       396      1038       748
 -1      6725    3    0    1
 -2      3849      3359      1952      3945
 -1      6726    3    0    1
 -2      1832      3236      1833      3315
 -1      6727    3    0    1
 -2      1667       129      1668      3416
 -1      6728    3    0    1
 -2      1551        56      1552      3151
 -1      6729    3    0    1
 -2       981      2416      3787      3799
 -1      6730    3    0    1
 -2      1649      1648      2978      2996
 -1      6731    3    0    1
 -2      1427      2022      2023      3707
 -1      6732    3    0    1
 -2      1413      3081      3251      3534
 -1      6733    3    0    1
 -2      3925      1573      3957      3986
 -1      6734    3    0    1
 -2      1325      1041      3189      3902
 -1      6735    3    0    1
 -2       709      1748      1749      3167
 -1      6736    3    0    1
 -2      2619      2448      3780      3889
 -1      6737    3    0    1
 -2      3435      1811       572       565
 -1      6738    3    0    1
 -2       571       592      1284      2805
 -1      6739    3    0    1
 -2       592       958      1284      2805
 -1      6740    3    0    1
 -2      2825       750      3871      3488
 -1      6741    3    0    1
 -2      2952      1008      3801      3818
 -1      6742    3    0    1
 -2      2629      1008      3783      3818
 -1      6743    3    0    1
 -2      2871      3083      3953      4017
 -1      6744    3    0    1
 -2      1449      3790      3833      3862
 -1      6745    3    0    1
 -2      1596      1748      1749      3563
 -1      6746    3    0    1
 -2      1749      1748      3134      3563
 -1      6747    3    0    1
 -2      2728      2714      3826      3293
 -1      6748    3    0    1
 -2      1419      3003      3284      3291
 -1      6749    3    0    1
 -2      1683      1880      1881      3410
 -1      6750    3    0    1
 -2       354      1797      1974      1987
 -1      6751    3    0    1
 -2      1520      1519      3002      1868
 -1      6752    3    0    1
 -2       431       412      3841      3853
 -1      6753    3    0    1
 -2      3808       412      1771      3853
 -1      6754    3    0    1
 -2      2605      3884      3904      3955
 -1      6755    3    0    1
 -2       757       754      1322      2040
 -1      6756    3    0    1
 -2      1442      3785      3800      3808
 -1      6757    3    0    1
 -2      3827      1521      3845      3921
 -1      6758    3    0    1
 -2      1525      2782      1788      3441
 -1      6759    3    0    1
 -2      2725      2468      2794      3786
 -1      6760    3    0    1
 -2      1410      1409      2864      1743
 -1      6761    3    0    1
 -2      2912      3082      3878      4010
 -1      6762    3    0    1
 -2      1577      1442      3800      3808
 -1      6763    3    0    1
 -2      3349      1596      1812      3563
 -1      6764    3    0    1
 -2      1501      1500      1656      3262
 -1      6765    3    0    1
 -2      3359       209      1952      3945
 -1      6766    3    0    1
 -2      3370      3174      3888      1917
 -1      6767    3    0    1
 -2      2045      2711      3784      3797
 -1      6768    3    0    1
 -2      1575      1574      1643      3436
 -1      6769    3    0    1
 -2      1909      1908      1946      3753
 -1      6770    3    0    1
 -2      2646      3805      3207      3593
 -1      6771    3    0    1
 -2      1581      1582      2955      1680
 -1      6772    3    0    1
 -2      1458      1645      1646      3102
 -1      6773    3    0    1
 -2      2665      2666      2882      3842
 -1      6774    3    0    1
 -2      1657      1439      1658      3238
 -1      6775    3    0    1
 -2       949      3899      3977      3983
 -1      6776    3    0    1
 -2       528       527      2817      3352
 -1      6777    3    0    1
 -2      2756      3789      3791      3969
 -1      6778    3    0    1
 -2      1590      3035      3396      3626
 -1      6779    3    0    1
 -2      2856      2867      2909      3805
 -1      6780    3    0    1
 -2      3821      1576      3897      3927
 -1      6781    3    0    1
 -2       248      1815      3480      3942
 -1      6782    3    0    1
 -2       716      1748      3167      3456
 -1      6783    3    0    1
 -2      1210      2649      3424       924
 -1      6784    3    0    1
 -2      3307      1824      3395      3665
 -1      6785    3    0    1
 -2      1782      1781      3431      3467
 -1      6786    3    0    1
 -2       661       991      1303      2810
 -1      6787    3    0    1
 -2      2469      2534      3016      3185
 -1      6788    3    0    1
 -2      1507      1508      2661      3061
 -1      6789    3    0    1
 -2      1766      3305      3854      3421
 -1      6790    3    0    1
 -2       133       970      3863      1998
 -1      6791    3    0    1
 -2       133       970      2589      3863
 -1      6792    3    0    1
 -2       117       116      3817      3704
 -1      6793    3    0    1
 -2      1647       159      2909      1897
 -1      6794    3    0    1
 -2      1285       949      3828      3834
 -1      6795    3    0    1
 -2      1455      1454      1643      2905
 -1      6796    3    0    1
 -2      2871      3857      3390      3449
 -1      6797    3    0    1
 -2      1144      1142      2813      3576
 -1      6798    3    0    1
 -2       991       660      1303      2810
 -1      6799    3    0    1
 -2      1254       660      1252      2810
 -1      6800    3    0    1
 -2       660       663      1252      2810
 -1      6801    3    0    1
 -2       663       660       991      2810
 -1      6802    3    0    1
 -2      2795      3883      3580      3982
 -1      6803    3    0    1
 -2      2589      2372      2885      3863
 -1      6804    3    0    1
 -2       282       356      3928      3678
 -1      6805    3    0    1
 -2      2594      3000      3814      3913
 -1      6806    3    0    1
 -2      3848      3237      3567      3606
 -1      6807    3    0    1
 -2      1473      1474      3478      2010
 -1      6808    3    0    1
 -2      1450      1451      2916      2938
 -1      6809    3    0    1
 -2      1515      1648      1649      2996
 -1      6810    3    0    1
 -2      1059       352      3845      1942
 -1      6811    3    0    1
 -2      1254       529       530      2810
 -1      6812    3    0    1
 -2      1039      1044      2324      3820
 -1      6813    3    0    1
 -2       529      1254      1252      2810
 -1      6814    3    0    1
 -2       158      1744      3378      3443
 -1      6815    3    0    1
 -2      1713      1712      3243      1893
 -1      6816    3    0    1
 -2      1598      1599      3028      3084
 -1      6817    3    0    1
 -2       942      2694      3811      3823
 -1      6818    3    0    1
 -2      1605      3841      1846      3905
 -1      6819    3    0    1
 -2      3839      2833      3604      3980
 -1      6820    3    0    1
 -2      2824       698      2895      1788
 -1      6821    3    0    1
 -2      3787      1621      3800      3813
 -1      6822    3    0    1
 -2      3068      2966      3352      3926
 -1      6823    3    0    1
 -2      2314      2685      2751      3793
 -1      6824    3    0    1
 -2       278      2780      1330      3928
 -1      6825    3    0    1
 -2       733       736      1248      2817
 -1      6826    3    0    1
 -2       736       733      1027      2817
 -1      6827    3    0    1
 -2      2756      2620      3789      3809
 -1      6828    3    0    1
 -2      3831      3085      3469      3958
 -1      6829    3    0    1
 -2        21      1908      2029      3745
 -1      6830    3    0    1
 -2       528       527      1248      2817
 -1      6831    3    0    1
 -2       727       732      1840      3361
 -1      6832    3    0    1
 -2      1776      1551      3844      3674
 -1      6833    3    0    1
 -2      2712      3218      3911      4019
 -1      6834    3    0    1
 -2       770       771      2733      2941
 -1      6835    3    0    1
 -2      2608      2404      2720      3790
 -1      6836    3    0    1
 -2      2469      2462      2534      2998
 -1      6837    3    0    1
 -2      3069      2962      3285      3851
 -1      6838    3    0    1
 -2      1655      1656      2967      3116
 -1      6839    3    0    1
 -2      2237      3769      3772      4030
 -1      6840    3    0    1
 -2      1673      1716      3386      3483
 -1      6841    3    0    1
 -2      3778      1548      3794      3564
 -1      6842    3    0    1
 -2      1284       117      2214      3817
 -1      6843    3    0    1
 -2       691       698      2824      1788
 -1      6844    3    0    1
 -2      1624      2703      1625      3110
 -1      6845    3    0    1
 -2      1479      1653      1654      3229
 -1      6846    3    0    1
 -2      1729      1728      3171      3265
 -1      6847    3    0    1
 -2      1536      2622      1537      2824
 -1      6848    3    0    1
 -2       691      1536      1537      2824
 -1      6849    3    0    1
 -2      1531      3452      3570      1995
 -1      6850    3    0    1
 -2      2792      3826      3906      3907
 -1      6851    3    0    1
 -2      1810      3436      3906      3717
 -1      6852    3    0    1
 -2      3103      1519      3546      3725
 -1      6853    3    0    1
 -2      1456      1648      1649      3107
 -1      6854    3    0    1
 -2      1552      1551      3148      3616
 -1      6855    3    0    1
 -2      3049      2979      3846      3687
 -1      6856    3    0    1
 -2      3864      3577      2732      4028
 -1      6857    3    0    1
 -2      1822      3109      1823      3346
 -1      6858    3    0    1
 -2       745      2825      1615      1616
 -1      6859    3    0    1
 -2      2461      2494      2807      2828
 -1      6860    3    0    1
 -2      3785      2300      3788      2828
 -1      6861    3    0    1
 -2      3854      3221      3372      3935
 -1      6862    3    0    1
 -2      2820      3129      3205      3210
 -1      6863    3    0    1
 -2      2494      2561      2807      2828
 -1      6864    3    0    1
 -2       331      1018      2551      3797
 -1      6865    3    0    1
 -2      1586      2873      1632      1633
 -1      6866    3    0    1
 -2      1026      2448      3778      3794
 -1      6867    3    0    1
 -2      3076      2997      3158      4020
 -1      6868    3    0    1
 -2      3216      1960      1968      3602
 -1      6869    3    0    1
 -2      1560      1559      1782      3467
 -1      6870    3    0    1
 -2      3179      2729      3183      3202
 -1      6871    3    0    1
 -2      3317      1493      3504      3967
 -1      6872    3    0    1
 -2       234      1325      3902      3498
 -1      6873    3    0    1
 -2      2606       498      2607      3156
 -1      6874    3    0    1
 -2      1330       278      3928      3678
 -1      6875    3    0    1
 -2      1798      3844      3322      3573
 -1      6876    3    0    1
 -2      2418      2525      2748      3829
 -1      6877    3    0    1
 -2       919      2855      1732      3246
 -1      6878    3    0    1
 -2       449      2703      1611      1612
 -1      6879    3    0    1
 -2        56       273      3151      1957
 -1      6880    3    0    1
 -2      1657      3657      2003      2004
 -1      6881    3    0    1
 -2      2000      1687      2001      3680
 -1      6882    3    0    1
 -2       129      1667      1668      3260
 -1      6883    3    0    1
 -2       349       281      3939      1975
 -1      6884    3    0    1
 -2      1790      2934      3880      3525
 -1      6885    3    0    1
 -2      2836      3200      3844      3601
 -1      6886    3    0    1
 -2      1952      3849      3818      1618
 -1      6887    3    0    1
 -2      2711       198      3784      3797
 -1      6888    3    0    1
 -2      3172      2929      3300      3980
 -1      6889    3    0    1
 -2        47      1673      1839      3639
 -1      6890    3    0    1
 -2      3804      2631      3282      3871
 -1      6891    3    0    1
 -2       423       421      3835      1794
 -1      6892    3    0    1
 -2      3903      1434      3974      3676
 -1      6893    3    0    1
 -2       644       637      2843      3218
 -1      6894    3    0    1
 -2       266      1331      3806      3837
 -1      6895    3    0    1
 -2      2897      3693      3720      3726
 -1      6896    3    0    1
 -2      3306      1444      3659      3694
 -1      6897    3    0    1
 -2       962       122      1291      3533
 -1      6898    3    0    1
 -2      2561      2531      2845      3223
 -1      6899    3    0    1
 -2      2747      3268      3857      3605
 -1      6900    3    0    1
 -2      3877      3472      3930      3968
 -1      6901    3    0    1
 -2      3273      1665      3488      4020
 -1      6902    3    0    1
 -2      3003      3831      3284      3291
 -1      6903    3    0    1
 -2      2860      2829      3854      3892
 -1      6904    3    0    1
 -2      2531      2845      3223      3840
 -1      6905    3    0    1
 -2      2494      2561      3088      3223
 -1      6906    3    0    1
 -2      3779      2467      3223      3840
 -1      6907    3    0    1
 -2      3513      3914      3628      3745
 -1      6908    3    0    1
 -2      2903       727      1861      1862
 -1      6909    3    0    1
 -2       234      1545      1815      3942
 -1      6910    3    0    1
 -2      1594      1480      1595      3414
 -1      6911    3    0    1
 -2      1540      2801      3534      3646
 -1      6912    3    0    1
 -2      1611       553      3034      3875
 -1      6913    3    0    1
 -2      1538      3023      3073      3320
 -1      6914    3    0    1
 -2      3813       432      3916      3670
 -1      6915    3    0    1
 -2      1500      1655      1656      3262
 -1      6916    3    0    1
 -2      3884      3027      3904      3592
 -1      6917    3    0    1
 -2      3275      3352      3926      3997
 -1      6918    3    0    1
 -2      1721      1449      3833      3918
 -1      6919    3    0    1
 -2       212        76      1960      1968
 -1      6920    3    0    1
 -2       572      1811      3356       565
 -1      6921    3    0    1
 -2      1830      1481      1831      3342
 -1      6922    3    0    1
 -2      3235      3254      3456      3980
 -1      6923    3    0    1
 -2      2535      2459      2668      3791
 -1      6924    3    0    1
 -2      2305      2461      3159      3323
 -1      6925    3    0    1
 -2      2459      1298      2543      3917
 -1      6926    3    0    1
 -2      2797      3815      3521      3941
 -1      6927    3    0    1
 -2      3893      3155      3464      3568
 -1      6928    3    0    1
 -2      1419      1791      1792      3291
 -1      6929    3    0    1
 -2      1598       644      3179      3183
 -1      6930    3    0    1
 -2      2987      2882      3842      3965
 -1      6931    3    0    1
 -2      2893      2807      3894      3545
 -1      6932    3    0    1
 -2      1597      1596      3030      1749
 -1      6933    3    0    1
 -2      1065      1337      3824      1877
 -1      6934    3    0    1
 -2       255      1047      3682      3989
 -1      6935    3    0    1
 -2      1928      3954      3679      3733
 -1      6936    3    0    1
 -2      1446      1445      1904      3495
 -1      6937    3    0    1
 -2       144      1897      1898      1914
 -1      6938    3    0    1
 -2      1666      1665      1699      3273
 -1      6939    3    0    1
 -2      3800      1621      3063      1818
 -1      6940    3    0    1
 -2      3782      1320      3889      3527
 -1      6941    3    0    1
 -2      3112      1549      3146      3528
 -1      6942    3    0    1
 -2       414       413      4002      2038
 -1      6943    3    0    1
 -2      2959      2867      1744      3378
 -1      6944    3    0    1
 -2       332       334      3793      3850
 -1      6945    3    0    1
 -2      2904       662      3062      3329
 -1      6946    3    0    1
 -2      3971      1994      3743      3752
 -1      6947    3    0    1
 -2       180      3927      3957      3986
 -1      6948    3    0    1
 -2       970       975      3863      1997
 -1      6949    3    0    1
 -2      1515      3256      1849      3913
 -1      6950    3    0    1
 -2      2617       699      2618      2842
 -1      6951    3    0    1
 -2      3080      1781      3431      3617
 -1      6952    3    0    1
 -2      3432      3788      3894      3545
 -1      6953    3    0    1
 -2      3585      2845      3986      4027
 -1      6954    3    0    1
 -2       697       699      2617      2842
 -1      6955    3    0    1
 -2      1701      3828      3977      2011
 -1      6956    3    0    1
 -2      3170      3831      3284      3958
 -1      6957    3    0    1
 -2      1982      3708      3720      3726
 -1      6958    3    0    1
 -2      1585      3802      3841      3905
 -1      6959    3    0    1
 -2      1572      1571      2995      3062
 -1      6960    3    0    1
 -2       996      1002      3835      1793
 -1      6961    3    0    1
 -2      1491      1619      3930      3934
 -1      6962    3    0    1
 -2      2612      2993      3869      3943
 -1      6963    3    0    1
 -2       799      1632      1633      2981
 -1      6964    3    0    1
 -2      1023      1029      3139      3850
 -1      6965    3    0    1
 -2       715       717      2735      2844
 -1      6966    3    0    1
 -2       717       715      1313      2844
 -1      6967    3    0    1
 -2       943      2418      2447      3764
 -1      6968    3    0    1
 -2      3875      3048      3499      3532
 -1      6969    3    0    1
 -2       715      2735      2736      2844
 -1      6970    3    0    1
 -2       715      1017      1313      2844
 -1      6971    3    0    1
 -2      2818      2966      3068      3173
 -1      6972    3    0    1
 -2      1470      1471      1729      3171
 -1      6973    3    0    1
 -2      1415      1416      1638      3198
 -1      6974    3    0    1
 -2      1688      1687      3009      3351
 -1      6975    3    0    1
 -2      3319      3368      1919      3610
 -1      6976    3    0    1
 -2      3821       186      3881      3927
 -1      6977    3    0    1
 -2       715      2736      2814      2844
 -1      6978    3    0    1
 -2      1017       715      2814      2844
 -1      6979    3    0    1
 -2      3814      2594      3950      3964
 -1      6980    3    0    1
 -2      1450      2840      1679      1680
 -1      6981    3    0    1
 -2      1450      1451      2840      1680
 -1      6982    3    0    1
 -2      1659      1519      1660      3546
 -1      6983    3    0    1
 -2      3707      3693      3708      3726
 -1      6984    3    0    1
 -2      3131      2969      3918      3996
 -1      6985    3    0    1
 -2      2998      2469      3506      3974
 -1      6986    3    0    1
 -2      1605      1585      3841      3905
 -1      6987    3    0    1
 -2       781       786      1689      3328
 -1      6988    3    0    1
 -2      1494      1495      3305      3421
 -1      6989    3    0    1
 -2      1665      1666      3076      3273
 -1      6990    3    0    1
 -2      3839      3145      3417      3721
 -1      6991    3    0    1
 -2      2933      2615      3192      3860
 -1      6992    3    0    1
 -2      2846      1603      1888      3699
 -1      6993    3    0    1
 -2      1307       999      3821      3881
 -1      6994    3    0    1
 -2      1586      1587      1633      3095
 -1      6995    3    0    1
 -2      2719      2979      3227      3846
 -1      6996    3    0    1
 -2      1301      2616      3851      3567
 -1      6997    3    0    1
 -2      1798      3099      3844      3278
 -1      6998    3    0    1
 -2      3472       106      3930      3968
 -1      6999    3    0    1
 -2      1586      1587      2873      1633
 -1      7000    3    0    1
 -2      1432      1431      3193      3327
 -1      7001    3    0    1
 -2      3800      1621      1818      1905
 -1      7002    3    0    1
 -2      1567      1521      3845      3281
 -1      7003    3    0    1
 -2      3210      3129      3383      3886
 -1      7004    3    0    1
 -2      2826      2635      3926      3935
 -1      7005    3    0    1
 -2      3078      2850      3377      3592
 -1      7006    3    0    1
 -2      2816      3852      2908      3905
 -1      7007    3    0    1
 -2      1417      3022      3044      4010
 -1      7008    3    0    1
 -2      2646      2616      2888      3805
 -1      7009    3    0    1
 -2      3814      2628      3225      3358
 -1      7010    3    0    1
 -2      1436      1437      2926      1765
 -1      7011    3    0    1
 -2       590       583      1606      3075
 -1      7012    3    0    1
 -2      1495      1494      1767      3421
 -1      7013    3    0    1
 -2      1431      1432      1637      3327
 -1      7014    3    0    1
 -2      1666      1665      3280      3325
 -1      7015    3    0    1
 -2      1677      1676      3499      3532
 -1      7016    3    0    1
 -2       962       967      2157      3792
 -1      7017    3    0    1
 -2      1449      1652      3918      3996
 -1      7018    3    0    1
 -2      1659      1411      1660      3195
 -1      7019    3    0    1
 -2       129       134      3260      1859
 -1      7020    3    0    1
 -2       815      1062      2528      3144
 -1      7021    3    0    1
 -2      1571      1572      3182      1930
 -1      7022    3    0    1
 -2       815      2528      2560      3144
 -1      7023    3    0    1
 -2       668       173       421      3463
 -1      7024    3    0    1
 -2      3887      3794      3579      3952
 -1      7025    3    0    1
 -2      1431      3101      3193      3327
 -1      7026    3    0    1
 -2       981      3787      3800      3813
 -1      7027    3    0    1
 -2      2685      2347      2751      3793
 -1      7028    3    0    1
 -2      1219      2948      3294      3462
 -1      7029    3    0    1
 -2      1460      1461      2985      3393
 -1      7030    3    0    1
 -2       967      3792      2020      2021
 -1      7031    3    0    1
 -2      2310      2157      2572      3792
 -1      7032    3    0    1
 -2      1758        19      1827      3381
 -1      7033    3    0    1
 -2      2895      3801      3812      3895
 -1      7034    3    0    1
 -2      2862      3298      3339      3895
 -1      7035    3    0    1
 -2      1575      1574      2930      3231
 -1      7036    3    0    1
 -2      2645      2673      3119      3936
 -1      7037    3    0    1
 -2      2813      2735      3220      3980
 -1      7038    3    0    1
 -2      1592      1635      2868      1593
 -1      7039    3    0    1
 -2      1588      1798      1799      3322
 -1      7040    3    0    1
 -2      1798      3099      3278      3322
 -1      7041    3    0    1
 -2      1462      3096      1837      1838
 -1      7042    3    0    1
 -2      3392      2986      3904      3514
 -1      7043    3    0    1
 -2      1414      1413      3081      1774
 -1      7044    3    0    1
 -2       450       554      3478      2009
 -1      7045    3    0    1
 -2        95      1282      3402        98
 -1      7046    3    0    1
 -2      1920      3531      3679      3724
 -1      7047    3    0    1
 -2      1431      1432      3193      1887
 -1      7048    3    0    1
 -2      2625      2712      3911      4019
 -1      7049    3    0    1
 -2      1645      2964      3102      3890
 -1      7050    3    0    1
 -2      3811      2590      3047      3936
 -1      7051    3    0    1
 -2      1781      1559      3287      3467
 -1      7052    3    0    1
 -2      1696      2798      1565      1564
 -1      7053    3    0    1
 -2      1504      1503      3214      1818
 -1      7054    3    0    1
 -2      3457      2848      3616      1981
 -1      7055    3    0    1
 -2      2782      3220      3441      3980
 -1      7056    3    0    1
 -2        52        51      1921      3581
 -1      7057    3    0    1
 -2      3903      3480      1965      3676
 -1      7058    3    0    1
 -2       691       698      1788      3264
 -1      7059    3    0    1
 -2      3803      2720      3806      3833
 -1      7060    3    0    1
 -2      2617       697      2842      3801
 -1      7061    3    0    1
 -2       463       462      1146      2858
 -1      7062    3    0    1
 -2      3118       727      1840      1841
 -1      7063    3    0    1
 -2      2782      3003      3831      3263
 -1      7064    3    0    1
 -2      1146       462      1148      2858
 -1      7065    3    0    1
 -2      3811      1538      1785      3403
 -1      7066    3    0    1
 -2      2906      1488      3811      3296
 -1      7067    3    0    1
 -2      1409      1410      1623      3554
 -1      7068    3    0    1
 -2      2782      1525      3263      3441
 -1      7069    3    0    1
 -2        51        52      1927      3581
 -1      7070    3    0    1
 -2       964      1294       610      3815
 -1      7071    3    0    1
 -2      3373      1873      3434      4022
 -1      7072    3    0    1
 -2      1454      1455      1643      3355
 -1      7073    3    0    1
 -2      2791      3801      3895      3956
 -1      7074    3    0    1
 -2      3810      1585      3868      3917
 -1      7075    3    0    1
 -2      3845      1567      3430      1942
 -1      7076    3    0    1
 -2      1474      1473      2772      3700
 -1      7077    3    0    1
 -2      3802      1605      3894      3545
 -1      7078    3    0    1
 -2       626       619      1722      3086
 -1      7079    3    0    1
 -2      1722       619      1723      3086
 -1      7080    3    0    1
 -2      1847      1790      1899       409
 -1      7081    3    0    1
 -2      1230      2882      2902      2987
 -1      7082    3    0    1
 -2      1193      2836      3217      3601
 -1      7083    3    0    1
 -2      3106      3933      3552      3596
 -1      7084    3    0    1
 -2      1847      1790      3880      3525
 -1      7085    3    0    1
 -2       212        76      1809      3314
 -1      7086    3    0    1
 -2       407      3781      1735      1736
 -1      7087    3    0    1
 -2       955      1291      3781      1735
 -1      7088    3    0    1
 -2      2925      3269      3885      3893
 -1      7089    3    0    1
 -2      2696      2636      3812      3693
 -1      7090    3    0    1
 -2      2551      1018      2744      3797
 -1      7091    3    0    1
 -2      3814      3011      3174      3888
 -1      7092    3    0    1
 -2      2508       198      2711      3797
 -1      7093    3    0    1
 -2      1309       198      2508      3797
 -1      7094    3    0    1
 -2      1693      1580      3074      4006
 -1      7095    3    0    1
 -2      3808      3802      3853      3894
 -1      7096    3    0    1
 -2      1936      1702      1937      3647
 -1      7097    3    0    1
 -2      3288      2826      3394      3892
 -1      7098    3    0    1
 -2      2960      1556      2982      3892
 -1      7099    3    0    1
 -2      1050       266      3806      3898
 -1      7100    3    0    1
 -2      2728      3293      3906      3717
 -1      7101    3    0    1
 -2      3779      3821      3897      3927
 -1      7102    3    0    1
 -2      1758        19      3381      1902
 -1      7103    3    0    1
 -2      2856      1475      2867      3378
 -1      7104    3    0    1
 -2      3099      3206      3844      3278
 -1      7105    3    0    1
 -2      3286      3030      3584      4008
 -1      7106    3    0    1
 -2      1602      1835      3307      3395
 -1      7107    3    0    1
 -2      2887      2810      4019      2849
 -1      7108    3    0    1
 -2      2194      2764      4013      3757
 -1      7109    3    0    1
 -2      2512       198      2711      3758
 -1      7110    3    0    1
 -2      1630      3818      3298      3321
 -1      7111    3    0    1
 -2      3603       214      1629      1805
 -1      7112    3    0    1
 -2      3811      1488      3164      3296
 -1      7113    3    0    1
 -2      2721      2948      3025      3318
 -1      7114    3    0    1
 -2      1417      1704      3404      3470
 -1      7115    3    0    1
 -2       133       136       965      3169
 -1      7116    3    0    1
 -2      1516      1515      3256      1850
 -1      7117    3    0    1
 -2      3318      3825      3873      3949
 -1      7118    3    0    1
 -2       799       804      1632      2981
 -1      7119    3    0    1
 -2      2925      3162      3269      3893
 -1      7120    3    0    1
 -2      3023      2876      2704      3320
 -1      7121    3    0    1
 -2        23      3497      1948      1967
 -1      7122    3    0    1
 -2      1437      1436      2926      3084
 -1      7123    3    0    1
 -2      2855      3190      3860      3864
 -1      7124    3    0    1
 -2      1566      3151      1957      3674
 -1      7125    3    0    1
 -2      3078      2850      3112      3377
 -1      7126    3    0    1
 -2      3827      3845      3837      3806
 -1      7127    3    0    1
 -2      1613      1630      3298      3321
 -1      7128    3    0    1
 -2      1554      1553      3165      3612
 -1      7129    3    0    1
 -2      2730      2731      2969      4007
 -1      7130    3    0    1
 -2      3780      1542      3782      3819
 -1      7131    3    0    1
 -2      1639      1415      3198      3944
 -1      7132    3    0    1
 -2      1655      1500      3184      3262
 -1      7133    3    0    1
 -2      3004      2826      3892      3935
 -1      7134    3    0    1
 -2      2986      1683      3904      3514
 -1      7135    3    0    1
 -2      3831      3003      3284      3441
 -1      7136    3    0    1
 -2      1529      1528      1653      3229
 -1      7137    3    0    1
 -2      2973      3145      3839      3576
 -1      7138    3    0    1
 -2      2984      3805      3207      3524
 -1      7139    3    0    1
 -2      2606      3814      3460      3964
 -1      7140    3    0    1
 -2      2462      2270      2536      2878
 -1      7141    3    0    1
 -2      2416      2773      3787      3799
 -1      7142    3    0    1
 -2      3250      1828      3475      3914
 -1      7143    3    0    1
 -2      2792      3333      3436      3906
 -1      7144    3    0    1
 -2      1534      1533      3040      1720
 -1      7145    3    0    1
 -2      1515      1648      3188      3548
 -1      7146    3    0    1
 -2      3327      3101      1636      1431
 -1      7147    3    0    1
 -2      1551      1776      3844      3573
 -1      7148    3    0    1
 -2      1598      1599      3069      3179
 -1      7149    3    0    1
 -2      2964      1645      3100      3890
 -1      7150    3    0    1
 -2      1467      1466      1537      3165
 -1      7151    3    0    1
 -2      1460      3152      3363      3941
 -1      7152    3    0    1
 -2      1665      1698      3825      3325
 -1      7153    3    0    1
 -2      1721       266      3898      1971
 -1      7154    3    0    1
 -2      1592      3178      1933      1934
 -1      7155    3    0    1
 -2      1519      1659      3103      3546
 -1      7156    3    0    1
 -2      2757       972      3852      3568
 -1      7157    3    0    1
 -2      2629      3783      2854      3836
 -1      7158    3    0    1
 -2      2757      3852      3464      3568
 -1      7159    3    0    1
 -2      1615      1578      3357      3871
 -1      7160    3    0    1
 -2      2438       957      2620      3809
 -1      7161    3    0    1
 -2      1488      3164      1785      1786
 -1      7162    3    0    1
 -2       468       469      2640      2976
 -1      7163    3    0    1
 -2      2936      2728      3907      3717
 -1      7164    3    0    1
 -2      3294      1787      3462      3483
 -1      7165    3    0    1
 -2       148       973      3962      3741
 -1      7166    3    0    1
 -2      3040      3038      3823      3594
 -1      7167    3    0    1
 -2      1457      1456      1649      3107
 -1      7168    3    0    1
 -2       263       255      3989      2031
 -1      7169    3    0    1
 -2      1444      1443      1991      3694
 -1      7170    3    0    1
 -2      1301       412      3800      3808
 -1      7171    3    0    1
 -2      1513      1514      3418      3519
 -1      7172    3    0    1
 -2      1530      1531      3570      1995
 -1      7173    3    0    1
 -2       907       471      1161      3057
 -1      7174    3    0    1
 -2      1525      1681      3263      3441
 -1      7175    3    0    1
 -2       432      3813      1905      3670
 -1      7176    3    0    1
 -2      2720      3827      3921      4005
 -1      7177    3    0    1
 -2      1456      1457      3106      3107
 -1      7178    3    0    1
 -2      1624      2703      3110      3133
 -1      7179    3    0    1
 -2      3857      3390      3449      3914
 -1      7180    3    0    1
 -2       267       793       348      2032
 -1      7181    3    0    1
 -2      3225      1452      3888      1917
 -1      7182    3    0    1
 -2      2950      3378      3443      3510
 -1      7183    3    0    1
 -2      3212      3874      3512      3951
 -1      7184    3    0    1
 -2       187      2213      2776      3014
 -1      7185    3    0    1
 -2      1624      2876      3023      3320
 -1      7186    3    0    1
 -2      1047      1053      3989      2031
 -1      7187    3    0    1
 -2       518      2665      2666      2882
 -1      7188    3    0    1
 -2       775       772      1217      3718
 -1      7189    3    0    1
 -2      1849       799      1850      3451
 -1      7190    3    0    1
 -2      3086      1722      3207      3524
 -1      7191    3    0    1
 -2      1436      2926      1764      1765
 -1      7192    3    0    1
 -2       519       518       932      2882
 -1      7193    3    0    1
 -2       932       518      1230      2882
 -1      7194    3    0    1
 -2      1596      3300      3638      4008
 -1      7195    3    0    1
 -2      3135      2903      1861      1862
 -1      7196    3    0    1
 -2      1452      1719      3059      3529
 -1      7197    3    0    1
 -2       981      1301      2616      3800
 -1      7198    3    0    1
 -2       734      2818      2839      2884
 -1      7199    3    0    1
 -2      1026       734      2839      2884
 -1      7200    3    0    1
 -2      1486      1663      2946      3381
 -1      7201    3    0    1
 -2      3872      3211      3555      3578
 -1      7202    3    0    1
 -2      3547      3975      4011      3751
 -1      7203    3    0    1
 -2       769      1217      3718      3754
 -1      7204    3    0    1
 -2      3075      1801      3239      3578
 -1      7205    3    0    1
 -2      1630      3170      1614      1613
 -1      7206    3    0    1
 -2      2927      2855      3246      3864
 -1      7207    3    0    1
 -2      1853      3398      3491      3675
 -1      7208    3    0    1
 -2      3390      3914      3513      3677
 -1      7209    3    0    1
 -2       673      1645      1646      3154
 -1      7210    3    0    1
 -2      2616      3242      3851      3567
 -1      7211    3    0    1
 -2      2972      1737      3459      3675
 -1      7212    3    0    1
 -2      1601      1600      1843      3341
 -1      7213    3    0    1
 -2      2573      2854      2870      3796
 -1      7214    3    0    1
 -2      2854      2488      2870      3796
 -1      7215    3    0    1
 -2      1828      1600      1829      3341
 -1      7216    3    0    1
 -2       661       664      2810      2887
 -1      7217    3    0    1
 -2      3789      1580      3484      3938
 -1      7218    3    0    1
 -2       513       512      2722      2948
 -1      7219    3    0    1
 -2       473       474      2688      3857
 -1      7220    3    0    1
 -2       494      2732      2733      2927
 -1      7221    3    0    1
 -2       495       494      2733      2927
 -1      7222    3    0    1
 -2      1577      3800      2994      3428
 -1      7223    3    0    1
 -2      1430      1429      2939      3280
 -1      7224    3    0    1
 -2      1044      2480      2760      3820
 -1      7225    3    0    1
 -2      2022      1427      2023      3721
 -1      7226    3    0    1
 -2      2660      2694      3049      3846
 -1      7227    3    0    1
 -2       282       278      1877      3658
 -1      7228    3    0    1
 -2      1491      3807      3823      3909
 -1      7229    3    0    1
 -2      1734      1733      3473      3551
 -1      7230    3    0    1
 -2      3857      3834      3875      4017
 -1      7231    3    0    1
 -2      1477      1478      3148      3375
 -1      7232    3    0    1
 -2      3304      2968      3874      3433
 -1      7233    3    0    1
 -2      3801      2771      3176      3895
 -1      7234    3    0    1
 -2      1689      1513      3354      3519
 -1      7235    3    0    1
 -2      3711       197      2027      3728
 -1      7236    3    0    1
 -2      1525      2895      3196      3895
 -1      7237    3    0    1
 -2       333       332      3850      1989
 -1      7238    3    0    1
 -2      3787       981      3799      3813
 -1      7239    3    0    1
 -2      1420      1419      1792      3291
 -1      7240    3    0    1
 -2      1327      2355      3629      3959
 -1      7241    3    0    1
 -2       982      1297      2684      2974
 -1      7242    3    0    1
 -2      3304      2898      3426      3433
 -1      7243    3    0    1
 -2      2789      3091      3826      3308
 -1      7244    3    0    1
 -2      1027      2685      3793      3302
 -1      7245    3    0    1
 -2      1673        47      1674      1716
 -1      7246    3    0    1
 -2      1723      1722      3086      3524
 -1      7247    3    0    1
 -2      2995      1777      3423      3591
 -1      7248    3    0    1
 -2      2896      3186      3292      3895
 -1      7249    3    0    1
 -2      1542      3120      3988      3716
 -1      7250    3    0    1
 -2      3919      3295      3659      3694
 -1      7251    3    0    1
 -2      1860      3035      1897      3626
 -1      7252    3    0    1
 -2      1500      1606      3184      3262
 -1      7253    3    0    1
 -2      1606      2790      3184      3262
 -1      7254    3    0    1
 -2       335      3750      2018      2017
 -1      7255    3    0    1
 -2      3187      3919      3659      3694
 -1      7256    3    0    1
 -2      1450      2955      1679      3226
 -1      7257    3    0    1
 -2      3263      1420      1681      1682
 -1      7258    3    0    1
 -2       413       411      2974      3866
 -1      7259    3    0    1
 -2      3830      3858      3901      3998
 -1      7260    3    0    1
 -2      2347      1023      2348      3139
 -1      7261    3    0    1
 -2      1543      2900      1870      1871
 -1      7262    3    0    1
 -2      1451      1450      2840      2900
 -1      7263    3    0    1
 -2      1284      2214      2805      3817
 -1      7264    3    0    1
 -2        46      1872      1984      1985
 -1      7265    3    0    1
 -2      3872      3239      3439      3578
 -1      7266    3    0    1
 -2       957      2438      3777      3809
 -1      7267    3    0    1
 -2       353       827       356      1878
 -1      7268    3    0    1
 -2      1856      3157      1857      1891
 -1      7269    3    0    1
 -2       827       353       824      1878
 -1      7270    3    0    1
 -2       106       402      1856      1891
 -1      7271    3    0    1
 -2       518      1230      2882      2902
 -1      7272    3    0    1
 -2      2666       518      2882      2902
 -1      7273    3    0    1
 -2      3367      3261      3526      3965
 -1      7274    3    0    1
 -2      1801       590      3259      3511
 -1      7275    3    0    1
 -2      3043      1533      3132      3888
 -1      7276    3    0    1
 -2      2558      2525      2759      3824
 -1      7277    3    0    1
 -2        95       943      1279      3764
 -1      7278    3    0    1
 -2      2720      2436      3833      3505
 -1      7279    3    0    1
 -2      1445      1903      1904      3495
 -1      7280    3    0    1
 -2      2615      2643      3860      3864
 -1      7281    3    0    1
 -2      3429      1687      3650      2000
 -1      7282    3    0    1
 -2      1494      3228      3330      3407
 -1      7283    3    0    1
 -2      1435      3783      3830      3734
 -1      7284    3    0    1
 -2      2642      2673      3119      3687
 -1      7285    3    0    1
 -2      3326      3871      3488      4020
 -1      7286    3    0    1
 -2      3225      3814      3888      3978
 -1      7287    3    0    1
 -2      1622      2680      3143      3890
 -1      7288    3    0    1
 -2       352       284      1977      3973
 -1      7289    3    0    1
 -2      3076      3158      3599      4020
 -1      7290    3    0    1
 -2      3229      2880      3489      3996
 -1      7291    3    0    1
 -2      1477      1551      1552      3206
 -1      7292    3    0    1
 -2      1559      3135      1861      1862
 -1      7293    3    0    1
 -2      2009      1473      2010      3700
 -1      7294    3    0    1
 -2      1586      1854      1855      3654
 -1      7295    3    0    1
 -2      2968      1148      3212      3874
 -1      7296    3    0    1
 -2       775       772      3718      3722
 -1      7297    3    0    1
 -2      2761      1042      3643      4000
 -1      7298    3    0    1
 -2      1524      3840      3586      3635
 -1      7299    3    0    1
 -2      2796      3232      3324      3891
 -1      7300    3    0    1
 -2      3836      3849      3908      3932
 -1      7301    3    0    1
 -2      1424      1423      1934      3606
 -1      7302    3    0    1
 -2      1562      1638      1639      2924
 -1      7303    3    0    1
 -2      3109      1588      3322      3461
 -1      7304    3    0    1
 -2      1591      1590      3138      1898
 -1      7305    3    0    1
 -2       198       202      3784      3797
 -1      7306    3    0    1
 -2       331      2045      3784      3797
 -1      7307    3    0    1
 -2      2045       331      2551      3797
 -1      7308    3    0    1
 -2       215       202      2744      3797
 -1      7309    3    0    1
 -2       331       215      2744      3797
 -1      7310    3    0    1
 -2      2551      2508      2711      3797
 -1      7311    3    0    1
 -2       198      1309      2744      3797
 -1      7312    3    0    1
 -2       202       198      2744      3797
 -1      7313    3    0    1
 -2      1018       331      2744      3797
 -1      7314    3    0    1
 -2      2045      2551      2711      3797
 -1      7315    3    0    1
 -2       553      2703      1624      3133
 -1      7316    3    0    1
 -2      2157      2572      3792      3169
 -1      7317    3    0    1
 -2      1563      1562      2804      2924
 -1      7318    3    0    1
 -2      1464      1465      1738      3108
 -1      7319    3    0    1
 -2       173       421      3835      3882
 -1      7320    3    0    1
 -2      1594      3006      3445      3996
 -1      7321    3    0    1
 -2      2724       942      3923      3709
 -1      7322    3    0    1
 -2       990      1304      3798      3822
 -1      7323    3    0    1
 -2      1280      2660      2694      3823
 -1      7324    3    0    1
 -2      1913      3437      3583      1971
 -1      7325    3    0    1
 -2      2743      3042      3312      3861
 -1      7326    3    0    1
 -2       964      1667      3815      3466
 -1      7327    3    0    1
 -2      1197       494       495      2927
 -1      7328    3    0    1
 -2      2906      2869      3811      3047
 -1      7329    3    0    1
 -2       494      1197       919      2927
 -1      7330    3    0    1
 -2      1671       427      3222      3915
 -1      7331    3    0    1
 -2      1409      2864      1742      3374
 -1      7332    3    0    1
 -2      1410      1409      1623      3143
 -1      7333    3    0    1
 -2      2731      2730      2836      3869
 -1      7334    3    0    1
 -2      2757      2666      2925      2975
 -1      7335    3    0    1
 -2      2980      3834      3861      3875
 -1      7336    3    0    1
 -2       239      2374      4004      4014
 -1      7337    3    0    1
 -2      2592      2591      2858      3874
 -1      7338    3    0    1
 -2      1458      1645      3102      3890
 -1      7339    3    0    1
 -2      2842      2901      3801      3956
 -1      7340    3    0    1
 -2       427       999      3881      3998
 -1      7341    3    0    1
 -2       202       198      2014      3710
 -1      7342    3    0    1
 -2      3778      2573      2870      3865
 -1      7343    3    0    1
 -2      1665      3825      3280      3325
 -1      7344    3    0    1
 -2      2884      3101      3854      3929
 -1      7345    3    0    1
 -2      2272       187      2451      3014
 -1      7346    3    0    1
 -2      2687      2871      3857      3390
 -1      7347    3    0    1
 -2      2833      1466      3839      3604
 -1      7348    3    0    1
 -2      2650      2649      2723      3912
 -1      7349    3    0    1
 -2      1758      3058      1759      1902
 -1      7350    3    0    1
 -2       781       786      1822      3346
 -1      7351    3    0    1
 -2      1569      3074      3152      3941
 -1      7352    3    0    1
 -2      1672      1671      3222      3444
 -1      7353    3    0    1
 -2      1590      2990      3138      3611
 -1      7354    3    0    1
 -2      2978      1456      3279      3913
 -1      7355    3    0    1
 -2      2801      2904      1863      1864
 -1      7356    3    0    1
 -2      2829      3101      3854      3892
 -1      7357    3    0    1
 -2      2714      1161      3057      3876
 -1      7358    3    0    1
 -2       431      1771      3853      3894
 -1      7359    3    0    1
 -2      2862      1613      3298      3321
 -1      7360    3    0    1
 -2      1439      1440      3385      3515
 -1      7361    3    0    1
 -2       406      1995      1996      2011
 -1      7362    3    0    1
 -2      1615      2827      3289      3873
 -1      7363    3    0    1
 -2      2838      2987      3035      3381
 -1      7364    3    0    1
 -2      2680      1622      3102      3890
 -1      7365    3    0    1
 -2       967      2157      3792      3169
 -1      7366    3    0    1
 -2      2807      2865      2893      3894
 -1      7367    3    0    1
 -2      1506      3130      3331      3979
 -1      7368    3    0    1
 -2      1456      3279      1943      1944
 -1      7369    3    0    1
 -2      1059      2417      3845      3972
 -1      7370    3    0    1
 -2      2770      3108      3420      3673
 -1      7371    3    0    1
 -2      2887       990      3798      3251
 -1      7372    3    0    1
 -2       554      2718      3964      2009
 -1      7373    3    0    1
 -2       281       349       808      3686
 -1      7374    3    0    1
 -2      1753      1752      3430      1941
 -1      7375    3    0    1
 -2      1854      3365      3571      4022
 -1      7376    3    0    1
 -2      1842      1843      3341      3435
 -1      7377    3    0    1
 -2       412       431      1771      3853
 -1      7378    3    0    1
 -2      1636      1556      3364      3509
 -1      7379    3    0    1
 -2       661       664      2887      3798
 -1      7380    3    0    1
 -2       170       432      1819      1876
 -1      7381    3    0    1
 -2      3299      3175      1886      1887
 -1      7382    3    0    1
 -2      1009      2727      3987      3730
 -1      7383    3    0    1
 -2      3307      3508      3574      3966
 -1      7384    3    0    1
 -2      3870      3847      3975      3751
 -1      7385    3    0    1
 -2      2830      2587      3155      3893
 -1      7386    3    0    1
 -2      1531      1874      3907      3575
 -1      7387    3    0    1
 -2      2615      3158      3860      3387
 -1      7388    3    0    1
 -2      3111      2723      3912      3933
 -1      7389    3    0    1
 -2      3011      2594      3814      3964
 -1      7390    3    0    1
 -2      1559      1560      3135      1862
 -1      7391    3    0    1
 -2      1591      1590      2928      1726
 -1      7392    3    0    1
 -2      2971      2706      3883      3900
 -1      7393    3    0    1
 -2      2985      2943      3826      3393
 -1      7394    3    0    1
 -2       608       601      1880      3410
 -1      7395    3    0    1
 -2      2415      2558      2759      3824
 -1      7396    3    0    1
 -2       664      1304      2849      3798
 -1      7397    3    0    1
 -2      3187      1433      3429      3483
 -1      7398    3    0    1
 -2       990       661      2887      3798
 -1      7399    3    0    1
 -2      2849      2887       664      3798
 -1      7400    3    0    1
 -2      1676      1507      1677      3499
 -1      7401    3    0    1
 -2      2303       707      2512      3746
 -1      7402    3    0    1
 -2      1685      2939      1430      1429
 -1      7403    3    0    1
 -2      1490      2643      1561      3253
 -1      7404    3    0    1
 -2       816      1065      2558      3824
 -1      7405    3    0    1
 -2      2807      2828      2865      3894
 -1      7406    3    0    1
 -2      3081      1413      1773      1774
 -1      7407    3    0    1
 -2      2783      1466      1537      1536
 -1      7408    3    0    1
 -2       284       352      1994      3971
 -1      7409    3    0    1
 -2      2726      2618      2784      3812
 -1      7410    3    0    1
 -2      1564      3092      1773      3406
 -1      7411    3    0    1
 -2       125      1288      2741      3832
 -1      7412    3    0    1
 -2      2228      2572      3169      3832
 -1      7413    3    0    1
 -2      3000      3011      3814      3888
 -1      7414    3    0    1
 -2       769       776      3754      3763
 -1      7415    3    0    1
 -2      3192      2933      3860      3639
 -1      7416    3    0    1
 -2      3244      2602      3875      4017
 -1      7417    3    0    1
 -2      1728      1470      1729      3171
 -1      7418    3    0    1
 -2      1221      1219      2948      3294
 -1      7419    3    0    1
 -2      2494      2531      2561      3223
 -1      7420    3    0    1
 -2      2729      3183      3202      3940
 -1      7421    3    0    1
 -2      2720      3803      3827      4005
 -1      7422    3    0    1
 -2      2668      2300      3788      3400
 -1      7423    3    0    1
 -2      1867       601      1868      3401
 -1      7424    3    0    1
 -2      2858      2931      3874      3879
 -1      7425    3    0    1
 -2       290      1072      2334      1804
 -1      7426    3    0    1
 -2       255       346      2761      3682
 -1      7427    3    0    1
 -2      2426        98      3829      1803
 -1      7428    3    0    1
 -2      1500      1606      1607      3036
 -1      7429    3    0    1
 -2      3221      1517      3854      3336
 -1      7430    3    0    1
 -2      2963      2369      3843      3877
 -1      7431    3    0    1
 -2      1685      1609      3190      3860
 -1      7432    3    0    1
 -2      1795      3299      1886      1887
 -1      7433    3    0    1
 -2      2771      2895      3801      3812
 -1      7434    3    0    1
 -2      2857      3092      1773      1774
 -1      7435    3    0    1
 -2        56      1551      1776      3674
 -1      7436    3    0    1
 -2      3078      3371      3528      3955
 -1      7437    3    0    1
 -2      3849      1008      3859      3945
 -1      7438    3    0    1
 -2        46      3253      1935      1984
 -1      7439    3    0    1
 -2       427      1310      3838      3915
 -1      7440    3    0    1
 -2      3811      2672      3823      3936
 -1      7441    3    0    1
 -2      2749      2722      3025      2721
 -1      7442    3    0    1
 -2      2848      1551      3148      3457
 -1      7443    3    0    1
 -2      2462      2608      2922      2998
 -1      7444    3    0    1
 -2      1604      1603      2950      3026
 -1      7445    3    0    1
 -2      2469      2608      2998      3506
 -1      7446    3    0    1
 -2      1611       449      1612      3034
 -1      7447    3    0    1
 -2      1507      1611      1612      3034
 -1      7448    3    0    1
 -2      3823      3709      4003      3923
 -1      7449    3    0    1
 -2      3305      2970      3854      3421
 -1      7450    3    0    1
 -2      2907      1535      3215      3674
 -1      7451    3    0    1
 -2      2615      2997      3864      4020
 -1      7452    3    0    1
 -2      3326      3488      3660      4020
 -1      7453    3    0    1
 -2      3597      3352      3609      3997
 -1      7454    3    0    1
 -2       134       129      1667      3416
 -1      7455    3    0    1
 -2      1697      1885       186       180
 -1      7456    3    0    1
 -2      2578      2767      3839      3417
 -1      7457    3    0    1
 -2      3024      1510      3119      1895
 -1      7458    3    0    1
 -2      3289      1783      3873      3415
 -1      7459    3    0    1
 -2      1307      2940      3234      3881
 -1      7460    3    0    1
 -2      1564      1565      3081      1774
 -1      7461    3    0    1
 -2      1533      1534      3043      3132
 -1      7462    3    0    1
 -2      3140      3289      3873      3415
 -1      7463    3    0    1
 -2      2733       771      2853      2941
 -1      7464    3    0    1
 -2      2399      2467      2773      3799
 -1      7465    3    0    1
 -2       981       170      1304      3799
 -1      7466    3    0    1
 -2      2416      2399      2773      3799
 -1      7467    3    0    1
 -2       990       186      3925      4025
 -1      7468    3    0    1
 -2       266      3064      3878      1913
 -1      7469    3    0    1
 -2       214      1755      3603      3958
 -1      7470    3    0    1
 -2       423       187      3835      3882
 -1      7471    3    0    1
 -2      1514      1513      1705      3379
 -1      7472    3    0    1
 -2      1824      1825      1909      3665
 -1      7473    3    0    1
 -2      3779      2663      3821      3822
 -1      7474    3    0    1
 -2      1601      1600      3313      3607
 -1      7475    3    0    1
 -2      1440      1439      2967      3238
 -1      7476    3    0    1
 -2      2691       117      3781      3817
 -1      7477    3    0    1
 -2      3814      2628      3358      3964
 -1      7478    3    0    1
 -2      3064      2949      3878      1913
 -1      7479    3    0    1
 -2      1475      2604      2950      3378
 -1      7480    3    0    1
 -2      3326      3804      3335      3871
 -1      7481    3    0    1
 -2      3849      3859      3908      3932
 -1      7482    3    0    1
 -2       804      2981      3451      3937
 -1      7483    3    0    1
 -2      2604      2856      2867      3378
 -1      7484    3    0    1
 -2      2836      2731      3200      3601
 -1      7485    3    0    1
 -2      1920      1928      3679      3733
 -1      7486    3    0    1
 -2      3679      1745      2019      3724
 -1      7487    3    0    1
 -2      1834      3227      3334      3900
 -1      7488    3    0    1
 -2      1320      3782      3889      3952
 -1      7489    3    0    1
 -2      1771      3808      3853      3894
 -1      7490    3    0    1
 -2       512       513      1219      2948
 -1      7491    3    0    1
 -2      1517      1518      1767      3421
 -1      7492    3    0    1
 -2      1219       513      1221      2948
 -1      7493    3    0    1
 -2       513      2721      2945      2948
 -1      7494    3    0    1
 -2      1221       513      2945      2948
 -1      7495    3    0    1
 -2      1217       769      1245      3754
 -1      7496    3    0    1
 -2      1459      1458      1646      3102
 -1      7497    3    0    1
 -2      1458      1459      1623      3102
 -1      7498    3    0    1
 -2       400        95      3991      2033
 -1      7499    3    0    1
 -2       354      3795      3225      1987
 -1      7500    3    0    1
 -2      2830      1498      3542      3543
 -1      7501    3    0    1
 -2      3429      3919      3650      3659
 -1      7502    3    0    1
 -2      2416       981      3787      3800
 -1      7503    3    0    1
 -2      2650      2649      2957      3424
 -1      7504    3    0    1
 -2      1528      1653      1654      3007
 -1      7505    3    0    1
 -2       412      1577      1634      3800
 -1      7506    3    0    1
 -2       349      1060      3959      3738
 -1      7507    3    0    1
 -2      1442      1621      2890      3800
 -1      7508    3    0    1
 -2       170       981      2686      3800
 -1      7509    3    0    1
 -2       122       588       591      3533
 -1      7510    3    0    1
 -2       981      2580      2686      3800
 -1      7511    3    0    1
 -2      1604      1712      1603      3243
 -1      7512    3    0    1
 -2      1562      1563      3019      3270
 -1      7513    3    0    1
 -2      1301       412      1634      3800
 -1      7514    3    0    1
 -2       248      3903      3480      1965
 -1      7515    3    0    1
 -2      1464      1465      2972      1738
 -1      7516    3    0    1
 -2       786       781      3208      3328
 -1      7517    3    0    1
 -2       427       183      1671      3222
 -1      7518    3    0    1
 -2      1694      1707      1708      3114
 -1      7519    3    0    1
 -2      1334       290      2418      3829
 -1      7520    3    0    1
 -2      1645      2931      3879      3468
 -1      7521    3    0    1
 -2      1452      3370      1917      1918
 -1      7522    3    0    1
 -2      3715       409      1848      1882
 -1      7523    3    0    1
 -2      1779       234      1922      1965
 -1      7524    3    0    1
 -2      3594      1974      1987      1988
 -1      7525    3    0    1
 -2      2787      2022      3707      3708
 -1      7526    3    0    1
 -2       136       967      3792      3169
 -1      7527    3    0    1
 -2        56      1551      3616      1981
 -1      7528    3    0    1
 -2      2809      3804      3122      4028
 -1      7529    3    0    1
 -2      1702      1703      3492      1937
 -1      7530    3    0    1
 -2      3027      2976      3371      3955
 -1      7531    3    0    1
 -2      2448      3778      3794      3889
 -1      7532    3    0    1
 -2      3210      1662      3243      1893
 -1      7533    3    0    1
 -2      1661      3868      3479      3969
 -1      7534    3    0    1
 -2      1758        19      1759      3146
 -1      7535    3    0    1
 -2       236      1509      3549      3671
 -1      7536    3    0    1
 -2       739       736      2644      3732
 -1      7537    3    0    1
 -2      1557      1556      1637      2982
 -1      7538    3    0    1
 -2      1939      3265      1945      3619
 -1      7539    3    0    1
 -2      2916      2938      3013      3226
 -1      7540    3    0    1
 -2      2650      2920      2954      2957
 -1      7541    3    0    1
 -2      3085      3163      3831      3175
 -1      7542    3    0    1
 -2      1533      1719      3132      3888
 -1      7543    3    0    1
 -2      3814      3174      3358      3888
 -1      7544    3    0    1
 -2      1415      1416      3026      1889
 -1      7545    3    0    1
 -2      3219      3145      3839      3721
 -1      7546    3    0    1
 -2      3333      3247      3435      3906
 -1      7547    3    0    1
 -2      2652      3460      3913      3535
 -1      7548    3    0    1
 -2      3365      1854      3727      4022
 -1      7549    3    0    1
 -2      3384      1917      3529      3936
 -1      7550    3    0    1
 -2      3042      1488      3312      3861
 -1      7551    3    0    1
 -2      1325      2853      2941      3804
 -1      7552    3    0    1
 -2      2720      1050      3806      3833
 -1      7553    3    0    1
 -2      3836      2573      3303      3993
 -1      7554    3    0    1
 -2      2771      2618      2901      3801
 -1      7555    3    0    1
 -2       697      1310       699      3801
 -1      7556    3    0    1
 -2       697       699      2842      3801
 -1      7557    3    0    1
 -2      3790      2720      3803      3833
 -1      7558    3    0    1
 -2      3106      1943      3933      3596
 -1      7559    3    0    1
 -2      1455      1454      3362      1875
 -1      7560    3    0    1
 -2      2692      2796      3324      3979
 -1      7561    3    0    1
 -2      3236      1494      3854      3422
 -1      7562    3    0    1
 -2      1008      2771      2952      3801
 -1      7563    3    0    1
 -2      1008      2617      2771      3801
 -1      7564    3    0    1
 -2      2674      2791      2961      3801
 -1      7565    3    0    1
 -2      1562      2843      3685      1714
 -1      7566    3    0    1
 -2      1008       697      2617      3801
 -1      7567    3    0    1
 -2       572      3333      1811      3435
 -1      7568    3    0    1
 -2      1707       680      3154      3468
 -1      7569    3    0    1
 -2      2618      2842      2901      3801
 -1      7570    3    0    1
 -2       699      1310      2842      3801
 -1      7571    3    0    1
 -2      3105      3130      1768      3979
 -1      7572    3    0    1
 -2      3628      1911      3745      3753
 -1      7573    3    0    1
 -2      1437      1436      1599      3069
 -1      7574    3    0    1
 -2      1611      2661      3133      3883
 -1      7575    3    0    1
 -2      1497      3786      3795      3870
 -1      7576    3    0    1
 -2      3867      3912      3517      4010
 -1      7577    3    0    1
 -2      3228      3017      3455      3949
 -1      7578    3    0    1
 -2      1586      1632      3950      3727
 -1      7579    3    0    1
 -2       214       209      1805      3932
 -1      7580    3    0    1
 -2      2896      1525      3196      3895
 -1      7581    3    0    1
 -2      2674      2791      3801      3895
 -1      7582    3    0    1
 -2      1848      1882       409       119
 -1      7583    3    0    1
 -2      3129      2820      3205      3589
 -1      7584    3    0    1
 -2      1725      2928      3556      3965
 -1      7585    3    0    1
 -2      3115      3049      3823      3936
 -1      7586    3    0    1
 -2      1892      1964      3620      3631
 -1      7587    3    0    1
 -2      1547      1546      3363      3439
 -1      7588    3    0    1
 -2      1463      1462      3096      3438
 -1      7589    3    0    1
 -2      3080      3287      3467      3617
 -1      7590    3    0    1
 -2      2927      2983      2733       495
 -1      7591    3    0    1
 -2      3366      1447      1883      3914
 -1      7592    3    0    1
 -2      3504      1640      1866      1906
 -1      7593    3    0    1
 -2      1753      1752      3279      1944
 -1      7594    3    0    1
 -2      1942      1941      3615      1977
 -1      7595    3    0    1
 -2      3043      1533      1987      1988
 -1      7596    3    0    1
 -2      2374      2769      3690      4014
 -1      7597    3    0    1
 -2       245       250      3041      1962
 -1      7598    3    0    1
 -2      2864      1409      1742      1743
 -1      7599    3    0    1
 -2      3170      2977      3831      3958
 -1      7600    3    0    1
 -2      3027      1156      3078      3371
 -1      7601    3    0    1
 -2      1756      3166      1900      3498
 -1      7602    3    0    1
 -2      1614      1613      3170      3291
 -1      7603    3    0    1
 -2      1613      1614      1792      3291
 -1      7604    3    0    1
 -2      2748      2426      3829      1803
 -1      7605    3    0    1
 -2       788      1050      1328      2969
 -1      7606    3    0    1
 -2      3805      2984      3207      3593
 -1      7607    3    0    1
 -2      3778      3794      3889      3564
 -1      7608    3    0    1
 -2      2451       187      2776      3014
 -1      7609    3    0    1
 -2      1600      1842      3341      3906
 -1      7610    3    0    1
 -2      3051      1594      1480      3445
 -1      7611    3    0    1
 -2      3096      1462      1837      3580
 -1      7612    3    0    1
 -2      1867      3269      3885      3663
 -1      7613    3    0    1
 -2       788      2731      2768      2969
 -1      7614    3    0    1
 -2      1050       788      2768      2969
 -1      7615    3    0    1
 -2       572      1810      3333      3906
 -1      7616    3    0    1
 -2      3341      1600      3906      3600
 -1      7617    3    0    1
 -2      3826      2789      3308      3511
 -1      7618    3    0    1
 -2      3883      1676      3438      3580
 -1      7619    3    0    1
 -2      1470      1471      3171      3590
 -1      7620    3    0    1
 -2      1168      1166      2979      3227
 -1      7621    3    0    1
 -2      1585      1605      3802      3545
 -1      7622    3    0    1
 -2      3135      1559      1861      3450
 -1      7623    3    0    1
 -2      1524      1851      3881      3998
 -1      7624    3    0    1
 -2      2896      2791      3186      3895
 -1      7625    3    0    1
 -2      1642      1643      2905      3231
 -1      7626    3    0    1
 -2      1653      1479      1654      3007
 -1      7627    3    0    1
 -2      1574      1575      1643      3231
 -1      7628    3    0    1
 -2      1422      1421      3482      3587
 -1      7629    3    0    1
 -2      1701      3452      3990      2011
 -1      7630    3    0    1
 -2      1899      1790      3938      3960
 -1      7631    3    0    1
 -2      1307       186      3821      3925
 -1      7632    3    0    1
 -2      1698      1699      3191      3325
 -1      7633    3    0    1
 -2        56       273      1552      3151
 -1      7634    3    0    1
 -2      1913      3437      3918      3583
 -1      7635    3    0    1
 -2      1298       625       972      2975
 -1      7636    3    0    1
 -2      2771      2952      3801      3176
 -1      7637    3    0    1
 -2       625      2665      2757      2975
 -1      7638    3    0    1
 -2       972       625      2757      2975
 -1      7639    3    0    1
 -2      1884      1883      3561      3574
 -1      7640    3    0    1
 -2      2640       469      2641      2976
 -1      7641    3    0    1
 -2      2591      2597      3874      3891
 -1      7642    3    0    1
 -2      1730      1671      1731      3444
 -1      7643    3    0    1
 -2      1559      3301      1862      1861
 -1      7644    3    0    1
 -2      1441      1568      3799      3856
 -1      7645    3    0    1
 -2      2656       973      3337      3771
 -1      7646    3    0    1
 -2      1409      1742      3117      3213
 -1      7647    3    0    1
 -2      1762      3314      1960      3997
 -1      7648    3    0    1
 -2      1156       468      1158      2976
 -1      7649    3    0    1
 -2      1891       402      3923      3930
 -1      7650    3    0    1
 -2       469       468      1156      2976
 -1      7651    3    0    1
 -2        19      1555      3146      3528
 -1      7652    3    0    1
 -2      3908      3836      3932      3598
 -1      7653    3    0    1
 -2      2494      2484      2531      3223
 -1      7654    3    0    1
 -2      2418       943      2762      3829
 -1      7655    3    0    1
 -2       619       626      3098      1978
 -1      7656    3    0    1
 -2      1588      3109      1822      3461
 -1      7657    3    0    1
 -2       476       475      2659      2979
 -1      7658    3    0    1
 -2      3364      3235      3509      3572
 -1      7659    3    0    1
 -2      1652      1449      3833      3862
 -1      7660    3    0    1
 -2      1824      3307      3395      3508
 -1      7661    3    0    1
 -2      1156       469      2976      3027
 -1      7662    3    0    1
 -2       469      2641      2976      3027
 -1      7663    3    0    1
 -2       213       334      3793      3302
 -1      7664    3    0    1
 -2      2399      3779      3799      3822
 -1      7665    3    0    1
 -2      1304       990      2399      3822
 -1      7666    3    0    1
 -2      1168       475       476      2979
 -1      7667    3    0    1
 -2       572      1811      1810      3356
 -1      7668    3    0    1
 -2       475      1168      1166      2979
 -1      7669    3    0    1
 -2      2659      1166      2719      2979
 -1      7670    3    0    1
 -2      2798      2692      2857      3976
 -1      7671    3    0    1
 -2       475      1166      2659      2979
 -1      7672    3    0    1
 -2      1712       158      3210      1893
 -1      7673    3    0    1
 -2      2616      3242      3848      3851
 -1      7674    3    0    1
 -2      1966      3523      2017      2018
 -1      7675    3    0    1
 -2      1721      3437      1913      1971
 -1      7676    3    0    1
 -2      2536      2305      2546      3159
 -1      7677    3    0    1
 -2       680      1645      3149      3468
 -1      7678    3    0    1
 -2      1430      1685      3500      1686
 -1      7679    3    0    1
 -2      2672      2869      3811      3038
 -1      7680    3    0    1
 -2      1606       583      1607      3075
 -1      7681    3    0    1
 -2      2945      3294      3919      3650
 -1      7682    3    0    1
 -2      1282        98      2426      1803
 -1      7683    3    0    1
 -2      1237      2867      2959      3805
 -1      7684    3    0    1
 -2      1707       673      1708      3154
 -1      7685    3    0    1
 -2       655       662      1863      3380
 -1      7686    3    0    1
 -2      3079      2789      3826      3511
 -1      7687    3    0    1
 -2      1574      2930      3231      3953
 -1      7688    3    0    1
 -2      1602      1820      3503      3657
 -1      7689    3    0    1
 -2      1581      1582      1680      3066
 -1      7690    3    0    1
 -2      2618      2617      2771      3812
 -1      7691    3    0    1
 -2      1638      1415      1639      3382
 -1      7692    3    0    1
 -2      1777      1470      1778      3423
 -1      7693    3    0    1
 -2      1508      1507      1612      3034
 -1      7694    3    0    1
 -2      1521      1651      3827      3837
 -1      7695    3    0    1
 -2      1065      1337      2558      3824
 -1      7696    3    0    1
 -2      2591      2889      3276      3891
 -1      7697    3    0    1
 -2      2901      2771      3801      3812
 -1      7698    3    0    1
 -2      1779      1434      3903      3676
 -1      7699    3    0    1
 -2      2897      3967      3693      3708
 -1      7700    3    0    1
 -2      1702      3334      3405      1936
 -1      7701    3    0    1
 -2      1415      2846      1888      3886
 -1      7702    3    0    1
 -2      2814      1017      2844      3831
 -1      7703    3    0    1
 -2      3105      1694      1768      1769
 -1      7704    3    0    1
 -2      3834      2871      3953      4017
 -1      7705    3    0    1
 -2      3019      1562      1714      1715
 -1      7706    3    0    1
 -2       572       565      1842      3435
 -1      7707    3    0    1
 -2      3077      1602      3395      3503
 -1      7708    3    0    1
 -2      2696      2787      3691      3707
 -1      7709    3    0    1
 -2       116       407      3781      3817
 -1      7710    3    0    1
 -2      1011       707      3746      3758
 -1      7711    3    0    1
 -2        96      2491      2559      3765
 -1      7712    3    0    1
 -2       474      2687      2688      3857
 -1      7713    3    0    1
 -2       200       198      2512      3758
 -1      7714    3    0    1
 -2      2661      1507      3061      3883
 -1      7715    3    0    1
 -2      1011       200      2512      3758
 -1      7716    3    0    1
 -2       407       122      3781      3817
 -1      7717    3    0    1
 -2      1293       133      2284      3962
 -1      7718    3    0    1
 -2       122      2225      3781      3817
 -1      7719    3    0    1
 -2      1665      3280      1924      1925
 -1      7720    3    0    1
 -2      3795      3225      3888      3978
 -1      7721    3    0    1
 -2      3013      2915      3844      3869
 -1      7722    3    0    1
 -2      3844      3099      3322      3869
 -1      7723    3    0    1
 -2      1442      1577      3800      2994
 -1      7724    3    0    1
 -2      1832      3236      3315      3422
 -1      7725    3    0    1
 -2      2686       170      3800      1818
 -1      7726    3    0    1
 -2      3257      2976      3884      3955
 -1      7727    3    0    1
 -2      3783      1435      3849      3734
 -1      7728    3    0    1
 -2      3550      3045      1993      3723
 -1      7729    3    0    1
 -2       148      3962      3773      3776
 -1      7730    3    0    1
 -2      1639      3198      3270      3944
 -1      7731    3    0    1
 -2      2829      3101      3193      3412
 -1      7732    3    0    1
 -2      3914      3249      3513      3628
 -1      7733    3    0    1
 -2        25         2      1936      2007
 -1      7734    3    0    1
 -2      1648      1515      1649      3548
 -1      7735    3    0    1
 -2       595       591      3194      3533
 -1      7736    3    0    1
 -2      2925      2757      2975      3893
 -1      7737    3    0    1
 -2      2947      3282      3871      3481
 -1      7738    3    0    1
 -2      1733      1948      3610      3982
 -1      7739    3    0    1
 -2      3803      1050      3806      3898
 -1      7740    3    0    1
 -2      2809      2631      2944      3804
 -1      7741    3    0    1
 -2      3857       908      3390      3513
 -1      7742    3    0    1
 -2      3872      3439      3941      3578
 -1      7743    3    0    1
 -2      1746      3429      1926      3680
 -1      7744    3    0    1
 -2      2829      2860      3193      3892
 -1      7745    3    0    1
 -2      2631      2879      2944      3804
 -1      7746    3    0    1
 -2      2694       942      3811      3296
 -1      7747    3    0    1
 -2       134      1724      3260      1859
 -1      7748    3    0    1
 -2      3830      1806      3818      1435
 -1      7749    3    0    1
 -2      2411      1039      2514      3820
 -1      7750    3    0    1
 -2      3815      2832      3147      4006
 -1      7751    3    0    1
 -2      1609      3190      3860      1980
 -1      7752    3    0    1
 -2      3162      2975      3852      3893
 -1      7753    3    0    1
 -2      2975      2757      3852      3893
 -1      7754    3    0    1
 -2      3293       572      1842      3906
 -1      7755    3    0    1
 -2      2737      1237      2959      3805
 -1      7756    3    0    1
 -2      2632      2856      2990      3805
 -1      7757    3    0    1
 -2      1874      1530      1875      3575
 -1      7758    3    0    1
 -2      1590      2990      1725      1726
 -1      7759    3    0    1
 -2      2693      2609      3345      3907
 -1      7760    3    0    1
 -2      1417      1418      2746      3404
 -1      7761    3    0    1
 -2      3287      1781      3467      3617
 -1      7762    3    0    1
 -2       197        11      2027      3728
 -1      7763    3    0    1
 -2      3014      2710      3835      3882
 -1      7764    3    0    1
 -2      1595      1594      3006      3445
 -1      7765    3    0    1
 -2      3864      2927      3577      3651
 -1      7766    3    0    1
 -2      1156      1558      3078      3371
 -1      7767    3    0    1
 -2      3109      3322      3869      3461
 -1      7768    3    0    1
 -2       134       964      3855      3922
 -1      7769    3    0    1
 -2      1435      1618      3818      3849
 -1      7770    3    0    1
 -2      2355      1331      2417      3806
 -1      7771    3    0    1
 -2      3900      1702      3491      3675
 -1      7772    3    0    1
 -2      2597      3212      3874      3512
 -1      7773    3    0    1
 -2      2842      3801      3290      3956
 -1      7774    3    0    1
 -2      1050      2355      2720      3806
 -1      7775    3    0    1
 -2      3187      1687      3680      3694
 -1      7776    3    0    1
 -2      1050       266      1331      3806
 -1      7777    3    0    1
 -2      2355      2417      2720      3806
 -1      7778    3    0    1
 -2      1436      1598      1599      3069
 -1      7779    3    0    1
 -2      2803      2575      3825      3873
 -1      7780    3    0    1
 -2      1498      3242      3848      1978
 -1      7781    3    0    1
 -2      3028      1598      3084      3911
 -1      7782    3    0    1
 -2       250      3862      3947      1999
 -1      7783    3    0    1
 -2      1664      2886      3386      3483
 -1      7784    3    0    1
 -2      3839      2973      3576      4008
 -1      7785    3    0    1
 -2       198       704       696      3710
 -1      7786    3    0    1
 -2       551       560      2599      3756
 -1      7787    3    0    1
 -2      1712      2950      3443      3510
 -1      7788    3    0    1
 -2       278      1065      2415      1877
 -1      7789    3    0    1
 -2      3141      3290      3915      3956
 -1      7790    3    0    1
 -2      2468      2724      2794      3807
 -1      7791    3    0    1
 -2      3088      2561      4001      4027
 -1      7792    3    0    1
 -2       704       198       202      3710
 -1      7793    3    0    1
 -2      2929      2813      3576      4008
 -1      7794    3    0    1
 -2      3975      3786      4011      3751
 -1      7795    3    0    1
 -2      1845      3794      3887      3929
 -1      7796    3    0    1
 -2      3913      3256      3535      3950
 -1      7797    3    0    1
 -2      2984      1522      1830      1831
 -1      7798    3    0    1
 -2      1742      1640      1743      3426
 -1      7799    3    0    1
 -2      1818      3214      3856      3309
 -1      7800    3    0    1
 -2      2933      2615      3860      3387
 -1      7801    3    0    1
 -2      1631      3434      1927      3560
 -1      7802    3    0    1
 -2      1519      2923      3002      3160
 -1      7803    3    0    1
 -2      2663      2634      3840      3897
 -1      7804    3    0    1
 -2      2438      2620      2756      3809
 -1      7805    3    0    1
 -2      2305      2438      2756      3809
 -1      7806    3    0    1
 -2       644      3087      3218      3685
 -1      7807    3    0    1
 -2       972      1298      2975      3852
 -1      7808    3    0    1
 -2      3879      1645      3468      3970
 -1      7809    3    0    1
 -2      1622      1623      2883      3554
 -1      7810    3    0    1
 -2      2757       972      2975      3852
 -1      7811    3    0    1
 -2       106      1856      1857      1891
 -1      7812    3    0    1
 -2         2        25      1936      1970
 -1      7813    3    0    1
 -2      1712       158      1727      3378
 -1      7814    3    0    1
 -2      3108      1464      3420      3673
 -1      7815    3    0    1
 -2       136       965      3169      3832
 -1      7816    3    0    1
 -2       136       408      2741      3832
 -1      7817    3    0    1
 -2      3788      1585      3802      3545
 -1      7818    3    0    1
 -2      2957      3010      3912      3937
 -1      7819    3    0    1
 -2      3135      1559      1781      1782
 -1      7820    3    0    1
 -2      1622      1458      1623      3102
 -1      7821    3    0    1
 -2      2608      2404      3790      3506
 -1      7822    3    0    1
 -2      1536       698      2783      3604
 -1      7823    3    0    1
 -2      3786      3547      4011      3751
 -1      7824    3    0    1
 -2      2938      1543      1870      1871
 -1      7825    3    0    1
 -2      2915      2916      2938      3013
 -1      7826    3    0    1
 -2       763       768      1528      3487
 -1      7827    3    0    1
 -2      3984      3865      3985      3993
 -1      7828    3    0    1
 -2      1629      1805       214       209
 -1      7829    3    0    1
 -2      3466      3147      3471      3476
 -1      7830    3    0    1
 -2      2843       637      1714      1715
 -1      7831    3    0    1
 -2      1562      1563      2843      1715
 -1      7832    3    0    1
 -2      3823      3807      3923      4003
 -1      7833    3    0    1
 -2      2810       530      2811      3015
 -1      7834    3    0    1
 -2      1815      1922      1923      3716
 -1      7835    3    0    1
 -2      2730      3353      3869      4007
 -1      7836    3    0    1
 -2      1247       529      1253      3015
 -1      7837    3    0    1
 -2       530       529      1247      3015
 -1      7838    3    0    1
 -2      1502      2848      3424      1938
 -1      7839    3    0    1
 -2      1473      1474      1738      3448
 -1      7840    3    0    1
 -2      3314      1762      1960      1961
 -1      7841    3    0    1
 -2       530      1247      2811      3015
 -1      7842    3    0    1
 -2      1943      1752      3933      3596
 -1      7843    3    0    1
 -2      3167       709      1807      1808
 -1      7844    3    0    1
 -2      1744      2959      3378      3443
 -1      7845    3    0    1
 -2      2573      2854      3796      3836
 -1      7846    3    0    1
 -2      3811      3164      1785      3296
 -1      7847    3    0    1
 -2      2832      3815      3147      3941
 -1      7848    3    0    1
 -2      2846      1415      3382      3886
 -1      7849    3    0    1
 -2      3878      3845      3430      1942
 -1      7850    3    0    1
 -2      2984      1522      3207      1830
 -1      7851    3    0    1
 -2      3048      3249      3857      3914
 -1      7852    3    0    1
 -2       214      1755      3859      3908
 -1      7853    3    0    1
 -2      1549      1758      1759      3146
 -1      7854    3    0    1
 -2      1546      1460      1547      3363
 -1      7855    3    0    1
 -2      3785      3788      3400      3931
 -1      7856    3    0    1
 -2      1521      3845      3281      3878
 -1      7857    3    0    1
 -2      2461      2305      3209      3323
 -1      7858    3    0    1
 -2      3823      3038      1797      3594
 -1      7859    3    0    1
 -2      1856      3968       106      1711
 -1      7860    3    0    1
 -2      3453      3105      3114      1694
 -1      7861    3    0    1
 -2       224      1315      3695      4014
 -1      7862    3    0    1
 -2      3480      3241      3974      3668
 -1      7863    3    0    1
 -2      2590      2892      3811      3047
 -1      7864    3    0    1
 -2       337       239      4004      4014
 -1      7865    3    0    1
 -2      2902      1230      2987      3277
 -1      7866    3    0    1
 -2       799       804      2981      3451
 -1      7867    3    0    1
 -2      1546      1547      3393      3530
 -1      7868    3    0    1
 -2      3896      1294      4006      4018
 -1      7869    3    0    1
 -2      1047      1053      2265      3989
 -1      7870    3    0    1
 -2       158      1712      3210      3699
 -1      7871    3    0    1
 -2       637      1714      1715      3203
 -1      7872    3    0    1
 -2      2462      2270      2878      3507
 -1      7873    3    0    1
 -2      2909      2856      2990      3138
 -1      7874    3    0    1
 -2      2842      3801      3204      3290
 -1      7875    3    0    1
 -2       942      3823      3296      1856
 -1      7876    3    0    1
 -2      1872      3215      1984      3640
 -1      7877    3    0    1
 -2      1702      1703      1852      3492
 -1      7878    3    0    1
 -2      1413      1414      1740      3137
 -1      7879    3    0    1
 -2      2867      2909      3805      3233
 -1      7880    3    0    1
 -2      2646      2867      3805      3233
 -1      7881    3    0    1
 -2      1634       412      1635      1771
 -1      7882    3    0    1
 -2       726      2320      2348      3139
 -1      7883    3    0    1
 -2      1791      1613      1792      3291
 -1      7884    3    0    1
 -2      2573      3778      3016      3993
 -1      7885    3    0    1
 -2      3018      2484      3836      3734
 -1      7886    3    0    1
 -2      3117      1742      3426      3433
 -1      7887    3    0    1
 -2      1742      1640      3426      3433
 -1      7888    3    0    1
 -2      2735      2844      3220      3980
 -1      7889    3    0    1
 -2      3174      1510      1917      1918
 -1      7890    3    0    1
 -2      3143      2864      3374      3967
 -1      7891    3    0    1
 -2       964      3815      3113      3466
 -1      7892    3    0    1
 -2      1331      1059      3845      3878
 -1      7893    3    0    1
 -2      2649      2650      2957      3912
 -1      7894    3    0    1
 -2      1694      1695      3105      3114
 -1      7895    3    0    1
 -2      1568      1441      3799      3916
 -1      7896    3    0    1
 -2      3083      3356      3953      4017
 -1      7897    3    0    1
 -2       105        21      1909      1932
 -1      7898    3    0    1
 -2      1695      1694      1708      3114
 -1      7899    3    0    1
 -2       395       261      3820      4000
 -1      7900    3    0    1
 -2      1540      2801      1863      1864
 -1      7901    3    0    1
 -2       183      1671      1672      3644
 -1      7902    3    0    1
 -2       168      1939      1940      1945
 -1      7903    3    0    1
 -2      2939      2886      3919      3516
 -1      7904    3    0    1
 -2      2897      1982      3708      3720
 -1      7905    3    0    1
 -2      1722       626      3086      3207
 -1      7906    3    0    1
 -2      1763      1762      3314      1961
 -1      7907    3    0    1
 -2      1429      1430      3500      3599
 -1      7908    3    0    1
 -2      2986      3072      1903      1904
 -1      7909    3    0    1
 -2       197      1628      2897      3708
 -1      7910    3    0    1
 -2      1538      3073      1785      1786
 -1      7911    3    0    1
 -2      1880      1683      1881      3514
 -1      7912    3    0    1
 -2      3200      3844      3601      3674
 -1      7913    3    0    1
 -2      2948      2945      3294      3919
 -1      7914    3    0    1
 -2      3507      3975      3743      3752
 -1      7915    3    0    1
 -2      3881      3406      3979      3976
 -1      7916    3    0    1
 -2       100       355      2762      3829
 -1      7917    3    0    1
 -2      2525       290      2748      3829
 -1      7918    3    0    1
 -2      1604      1603      2846      3243
 -1      7919    3    0    1
 -2       355       290      2762      3829
 -1      7920    3    0    1
 -2       635       976      2105      3767
 -1      7921    3    0    1
 -2        51      1920      3679      3724
 -1      7922    3    0    1
 -2      3396      3035      1897      1963
 -1      7923    3    0    1
 -2      1754      3497      3551      3948
 -1      7924    3    0    1
 -2      3049      3811      3823      3936
 -1      7925    3    0    1
 -2      2843      1562      3685      2804
 -1      7926    3    0    1
 -2      1931      3503      3657      2003
 -1      7927    3    0    1
 -2      3179      2729      3202      3203
 -1      7928    3    0    1
 -2       354      1627      1987      2008
 -1      7929    3    0    1
 -2      1517      3093      1766      1767
 -1      7930    3    0    1
 -2      2716      2194      2764      4013
 -1      7931    3    0    1
 -2      3053      2836      3844      3869
 -1      7932    3    0    1
 -2      1430      1685      1429      3500
 -1      7933    3    0    1
 -2      2718      2624      3964      3700
 -1      7934    3    0    1
 -2      2024      1667      2025      3701
 -1      7935    3    0    1
 -2      1533      1719      1720      3132
 -1      7936    3    0    1
 -2      1517      1518      3093      1767
 -1      7937    3    0    1
 -2      2955      2907      3215      3226
 -1      7938    3    0    1
 -2      1528      1654      3229      3489
 -1      7939    3    0    1
 -2      1858       339      1954      3952
 -1      7940    3    0    1
 -2       763      1528      1529      3487
 -1      7941    3    0    1
 -2      2367      2716      2764      4013
 -1      7942    3    0    1
 -2      3019      2568      3940      3944
 -1      7943    3    0    1
 -2      3488      1665      3660      4020
 -1      7944    3    0    1
 -2      1762      3216      1960      1961
 -1      7945    3    0    1
 -2      3017      2917      3228      3330
 -1      7946    3    0    1
 -2      3573      3206      3278      3844
 -1      7947    3    0    1
 -2      3190      2983      3660      4020
 -1      7948    3    0    1
 -2      2666      2665      2757      3842
 -1      7949    3    0    1
 -2      2772      1737      3108      3502
 -1      7950    3    0    1
 -2      1439      1657      3515      3655
 -1      7951    3    0    1
 -2      1620      3796      3348      3993
 -1      7952    3    0    1
 -2       949      1289      2438      3899
 -1      7953    3    0    1
 -2      1920      1921      3581      3692
 -1      7954    3    0    1
 -2      1536      1466      2821      3812
 -1      7955    3    0    1
 -2      1466      1553      2821      3812
 -1      7956    3    0    1
 -2      2824      2785      2895      3812
 -1      7957    3    0    1
 -2      1536      2622      2824      3812
 -1      7958    3    0    1
 -2       698      1536      2824      3812
 -1      7959    3    0    1
 -2       698      2824      2895      3812
 -1      7960    3    0    1
 -2      2726      2787      2861      3812
 -1      7961    3    0    1
 -2      2771      2726      2861      3812
 -1      7962    3    0    1
 -2      2784      2618      2901      3812
 -1      7963    3    0    1
 -2      3018      3836      3303      3348
 -1      7964    3    0    1
 -2      2622      2584      2655      3812
 -1      7965    3    0    1
 -2      2584      2622      2696      3812
 -1      7966    3    0    1
 -2      2787      1466      2861      3812
 -1      7967    3    0    1
 -2      2636      2584      2696      3812
 -1      7968    3    0    1
 -2      2771      2861      2895      3812
 -1      7969    3    0    1
 -2      2617      2726      2771      3812
 -1      7970    3    0    1
 -2      2597      3360      3874      3891
 -1      7971    3    0    1
 -2      2621      2576      2835      3980
 -1      7972    3    0    1
 -2      2622      2655      2785      3812
 -1      7973    3    0    1
 -2      2696      2622      2821      3812
 -1      7974    3    0    1
 -2      1466      1536      2861      3812
 -1      7975    3    0    1
 -2      1553      1466      2787      3812
 -1      7976    3    0    1
 -2      2861      1536      2895      3812
 -1      7977    3    0    1
 -2      3515      3297      3655      3657
 -1      7978    3    0    1
 -2      1536       698      2895      3812
 -1      7979    3    0    1
 -2      2622      2785      2824      3812
 -1      7980    3    0    1
 -2      1505      3130      1768      1769
 -1      7981    3    0    1
 -2      1737      1473      3448      3459
 -1      7982    3    0    1
 -2      1568      3856      1876      3916
 -1      7983    3    0    1
 -2      1861      3301      1862      3399
 -1      7984    3    0    1
 -2      1695      1694      3105      1769
 -1      7985    3    0    1
 -2      2890      1442      3800      3851
 -1      7986    3    0    1
 -2      3265      3376      3951      3619
 -1      7987    3    0    1
 -2      2579      2738      3848      3851
 -1      7988    3    0    1
 -2      2738      3069      3183      3851
 -1      7989    3    0    1
 -2      3183      3069      3285      3851
 -1      7990    3    0    1
 -2      1424      1423      3178      1934
 -1      7991    3    0    1
 -2      2916      2907      2955      3226
 -1      7992    3    0    1
 -2       471      2713      2714      3057
 -1      7993    3    0    1
 -2      1953      3711      2027      3728
 -1      7994    3    0    1
 -2      1655      1500      1656      3116
 -1      7995    3    0    1
 -2       655       662      2904      1863
 -1      7996    3    0    1
 -2      1583      2743      3311      3312
 -1      7997    3    0    1
 -2      1411      1412      3089      2025
 -1      7998    3    0    1
 -2       644      3179      3202      3203
 -1      7999    3    0    1
 -2      1488      1583      3311      3312
 -1      8000    3    0    1
 -2      1572      1571      3062      1930
 -1      8001    3    0    1
 -2      1510      1511      3024      3520
 -1      8002    3    0    1
 -2      2831      1538      3110      3133
 -1      8003    3    0    1
 -2      2661      2703      1611      3133
 -1      8004    3    0    1
 -2      1068      2780      3928      3678
 -1      8005    3    0    1
 -2      1615      3335      3871      3488
 -1      8006    3    0    1
 -2      2850      3072      3377      3592
 -1      8007    3    0    1
 -2      3261      3035      3626      3965
 -1      8008    3    0    1
 -2      2950      1603      1712      3443
 -1      8009    3    0    1
 -2      1050      3803      3833      3898
 -1      8010    3    0    1
 -2      3801      2674      3895      3915
 -1      8011    3    0    1
 -2       421       173      3835      1793
 -1      8012    3    0    1
 -2      3844      3053      3461      3573
 -1      8013    3    0    1
 -2      3840      3779      3897      3986
 -1      8014    3    0    1
 -2      3201      2757      3893      3464
 -1      8015    3    0    1
 -2      1491      2869      3823      3157
 -1      8016    3    0    1
 -2      1310      2842      3801      3915
 -1      8017    3    0    1
 -2      1671      3222      3444      3915
 -1      8018    3    0    1
 -2      1645      3008      3100      3890
 -1      8019    3    0    1
 -2      2584      2655      3812      3890
 -1      8020    3    0    1
 -2      3064      2793      3878      4010
 -1      8021    3    0    1
 -2      2823      1498      1978      1979
 -1      8022    3    0    1
 -2      1667      3147      3466      3476
 -1      8023    3    0    1
 -2      1434      3902      3903      3920
 -1      8024    3    0    1
 -2       346      2480      2761      3682
 -1      8025    3    0    1
 -2      1987      3043      1988      2008
 -1      8026    3    0    1
 -2      1639      1562      2991      3270
 -1      8027    3    0    1
 -2      1412      1411      3476      2025
 -1      8028    3    0    1
 -2      2847      2524      3252      4002
 -1      8029    3    0    1
 -2      1873      3434      3560      3581
 -1      8030    3    0    1
 -2      1676      1677      3061      3438
 -1      8031    3    0    1
 -2      3892      2826      3926      3935
 -1      8032    3    0    1
 -2       282       356      3824      3928
 -1      8033    3    0    1
 -2      1500      1501      1656      3116
 -1      8034    3    0    1
 -2      1747      3210      3383      3699
 -1      8035    3    0    1
 -2      2977      3170      3831      3291
 -1      8036    3    0    1
 -2      1460      3060      3633      2985
 -1      8037    3    0    1
 -2      1294      1569      3815      4006
 -1      8038    3    0    1
 -2      2987      1230      1827      3277
 -1      8039    3    0    1
 -2      1501      1500      3036      3116
 -1      8040    3    0    1
 -2      2692      1524      2734      3976
 -1      8041    3    0    1
 -2      2920      2957      3912      3937
 -1      8042    3    0    1
 -2      3280      3485      1924      3516
 -1      8043    3    0    1
 -2      1304      2849      3798      3127
 -1      8044    3    0    1
 -2      3180      3360      3874      3512
 -1      8045    3    0    1
 -2      2163      2761      3643      4000
 -1      8046    3    0    1
 -2      1659      1519      3103      3471
 -1      8047    3    0    1
 -2      2701      1449      3918      3996
 -1      8048    3    0    1
 -2       583       590      1606      3518
 -1      8049    3    0    1
 -2      2684       982      2974      3866
 -1      8050    3    0    1
 -2      2745      2367      2764      4013
 -1      8051    3    0    1
 -2      3227      1168      3334      3900
 -1      8052    3    0    1
 -2      1837      3267      1838      3473
 -1      8053    3    0    1
 -2      3040      3823      3529      3594
 -1      8054    3    0    1
 -2      3828       406      3977      2011
 -1      8055    3    0    1
 -2      3831      2814      3469      3509
 -1      8056    3    0    1
 -2      1828      3248      3566      3966
 -1      8057    3    0    1
 -2      1585      1661      3810      3868
 -1      8058    3    0    1
 -2       134       129      1661      3868
 -1      8059    3    0    1
 -2      3366      1447      1884      1883
 -1      8060    3    0    1
 -2      2163      1319      2411      4000
 -1      8061    3    0    1
 -2      2708      3099      3844      3869
 -1      8062    3    0    1
 -2      1640      3304      3426      3433
 -1      8063    3    0    1
 -2      3173      3221      3854      3935
 -1      8064    3    0    1
 -2      1606      1500      1607      3262
 -1      8065    3    0    1
 -2       799       804      3256      3316
 -1      8066    3    0    1
 -2      1481      1482      1726      3055
 -1      8067    3    0    1
 -2      3876      3297      3503      3655
 -1      8068    3    0    1
 -2      1828      1600      3341      3966
 -1      8069    3    0    1
 -2      3304      1836      3433      1906
 -1      8070    3    0    1
 -2      2893       431      1846      3894
 -1      8071    3    0    1
 -2      3889      1320      2448      3527
 -1      8072    3    0    1
 -2        19        69      1759      3146
 -1      8073    3    0    1
 -2      1253      1247      3015      3129
 -1      8074    3    0    1
 -2      3160      1519      1868      3002
 -1      8075    3    0    1
 -2      1062       815      1065      3641
 -1      8076    3    0    1
 -2      2606      2607      2652      3814
 -1      8077    3    0    1
 -2      1654      1528      3007      3122
 -1      8078    3    0    1
 -2      1584      1583      2906      3157
 -1      8079    3    0    1
 -2      1619      1491      3823      3157
 -1      8080    3    0    1
 -2      2869      3811      3823      3157
 -1      8081    3    0    1
 -2      2594      3000      3011      3814
 -1      8082    3    0    1
 -2      1828      1447      3475      3914
 -1      8083    3    0    1
 -2      3319      1919      1948      3610
 -1      8084    3    0    1
 -2      3789      1580      1693      4006
 -1      8085    3    0    1
 -2      2602      3048      3857      3914
 -1      8086    3    0    1
 -2      3105      1768      3453      3979
 -1      8087    3    0    1
 -2      3205      1496      3210      3620
 -1      8088    3    0    1
 -2       273        56      1552      3616
 -1      8089    3    0    1
 -2      2897       900      3967      3708
 -1      8090    3    0    1
 -2      2938      1450      3013      3226
 -1      8091    3    0    1
 -2      1067      2607      2628      3814
 -1      8092    3    0    1
 -2      3350      3171      3590      3951
 -1      8093    3    0    1
 -2      2916      1450      2938      3226
 -1      8094    3    0    1
 -2      1470      1728      3376      3951
 -1      8095    3    0    1
 -2      2869      2906      3811      3157
 -1      8096    3    0    1
 -2      1982      1983      2023      3726
 -1      8097    3    0    1
 -2      3153       106      1856      1857
 -1      8098    3    0    1
 -2      1059      1331      2723      3878
 -1      8099    3    0    1
 -2      3096      1837      1838      3610
 -1      8100    3    0    1
 -2      1607      1606      3262      3518
 -1      8101    3    0    1
 -2      1606      2790      3262      3518
 -1      8102    3    0    1
 -2       908      2687      3857      3390
 -1      8103    3    0    1
 -2      1610      1609      3386      3391
 -1      8104    3    0    1
 -2       590       583      1801      3259
 -1      8105    3    0    1
 -2      1469      1468      3565      1956
 -1      8106    3    0    1
 -2      2928      1590      3396      3626
 -1      8107    3    0    1
 -2      1452      3059      1917      3529
 -1      8108    3    0    1
 -2      1600      1842      1843      3341
 -1      8109    3    0    1
 -2      3885       608      3663      3669
 -1      8110    3    0    1
 -2      3143      3374      3890      3967
 -1      8111    3    0    1
 -2      2845      3840      3586      3986
 -1      8112    3    0    1
 -2      2723      2957      3010      3912
 -1      8113    3    0    1
 -2       155      1712      1713      1893
 -1      8114    3    0    1
 -2      3016      3778      3889      3564
 -1      8115    3    0    1
 -2      3823      1619      3157      1856
 -1      8116    3    0    1
 -2      2418      2748      2992      3829
 -1      8117    3    0    1
 -2      3025      1698      3825      3485
 -1      8118    3    0    1
 -2      1552      1551      3151      3206
 -1      8119    3    0    1
 -2      1545      1542      3988      3716
 -1      8120    3    0    1
 -2      3814      2652      3460      3913
 -1      8121    3    0    1
 -2      1865      3595      3993      2026
 -1      8122    3    0    1
 -2       950      1279      2716      3689
 -1      8123    3    0    1
 -2      3020      2652      3814      3913
 -1      8124    3    0    1
 -2       571       573      2688      3834
 -1      8125    3    0    1
 -2      1817      1423      3155      1424
 -1      8126    3    0    1
 -2      3801      2901      3812      3956
 -1      8127    3    0    1
 -2      1657      3515      3655      3657
 -1      8128    3    0    1
 -2       583      3075      1801      1802
 -1      8129    3    0    1
 -2      1320      1026      2448      3527
 -1      8130    3    0    1
 -2       245       250      3947      1999
 -1      8131    3    0    1
 -2       339      3887      1915      1951
 -1      8132    3    0    1
 -2       347      1039      2411      3820
 -1      8133    3    0    1
 -2      1506      1505      3021      3130
 -1      8134    3    0    1
 -2      2973      3286      3482      4008
 -1      8135    3    0    1
 -2      1724       134      3855      1859
 -1      8136    3    0    1
 -2      2882      3261      3367      3965
 -1      8137    3    0    1
 -2       430      2002      3983      3712
 -1      8138    3    0    1
 -2      2936      1531      3880      1995
 -1      8139    3    0    1
 -2       990      1307      3821      3925
 -1      8140    3    0    1
 -2      3358      3225      3888      1917
 -1      8141    3    0    1
 -2      3098      2667      3540      3541
 -1      8142    3    0    1
 -2      2347      2751      3793      3850
 -1      8143    3    0    1
 -2      2641      3113      3872      3884
 -1      8144    3    0    1
 -2      3052      2874      3872      3884
 -1      8145    3    0    1
 -2      3211      2640      3872      3884
 -1      8146    3    0    1
 -2      2641      2640      2976      3884
 -1      8147    3    0    1
 -2      1425      3166      1900      1901
 -1      8148    3    0    1
 -2       601      3160      1867      1868
 -1      8149    3    0    1
 -2      2688      2687      3834      3857
 -1      8150    3    0    1
 -2       990      2663      3822      3821
 -1      8151    3    0    1
 -2      1758        19      3146      3528
 -1      8152    3    0    1
 -2      1642      3345      3355      3436
 -1      8153    3    0    1
 -2      2641      2976      3027      3884
 -1      8154    3    0    1
 -2       412       431      3841      1846
 -1      8155    3    0    1
 -2       431       412      1635      1846
 -1      8156    3    0    1
 -2      3017      3093      1766      3228
 -1      8157    3    0    1
 -2      3852       972      3905      3568
 -1      8158    3    0    1
 -2      3902       234      3903      3942
 -1      8159    3    0    1
 -2      1549      1550      3112      3146
 -1      8160    3    0    1
 -2      1014      1020      3784      2014
 -1      8161    3    0    1
 -2      1414      1413      2914      3081
 -1      8162    3    0    1
 -2      1413      2857      1773      1774
 -1      8163    3    0    1
 -2      3436      1642      3907      3717
 -1      8164    3    0    1
 -2      3789       964      3791      3815
 -1      8165    3    0    1
 -2      2909      1532      3138      1914
 -1      8166    3    0    1
 -2      2376       333      3850      1989
 -1      8167    3    0    1
 -2      2641       607      2797      3815
 -1      8168    3    0    1
 -2      3780      3974      3668      3729
 -1      8169    3    0    1
 -2       431      2893      1771      3894
 -1      8170    3    0    1
 -2      1719      3040      3059      3529
 -1      8171    3    0    1
 -2      2369       949      2438      3899
 -1      8172    3    0    1
 -2       610      1294      2797      3815
 -1      8173    3    0    1
 -2      2813      2929      3980      4008
 -1      8174    3    0    1
 -2      2851      3000      3814      3978
 -1      8175    3    0    1
 -2      2989      1704      3044      4010
 -1      8176    3    0    1
 -2      1551      1477      1552      3148
 -1      8177    3    0    1
 -2      3814      3020      3913      3978
 -1      8178    3    0    1
 -2      2578      3839      3980      4008
 -1      8179    3    0    1
 -2      2958      1559      3135      3450
 -1      8180    3    0    1
 -2      3152      1460      1958      3941
 -1      8181    3    0    1
 -2      3062      2995      3329      3591
 -1      8182    3    0    1
 -2       964       607      2641      3815
 -1      8183    3    0    1
 -2       134       964      1667      3815
 -1      8184    3    0    1
 -2      3259      1801      3308      3530
 -1      8185    3    0    1
 -2      3216      1960      1961      1968
 -1      8186    3    0    1
 -2      1592      1593      3178      1934
 -1      8187    3    0    1
 -2       122       958      2225      3817
 -1      8188    3    0    1
 -2      1837      1733      1838      3610
 -1      8189    3    0    1
 -2      3386      1673      3483      3501
 -1      8190    3    0    1
 -2      1946      1908      3745      3753
 -1      8191    3    0    1
 -2      3901      3838      3998      4009
 -1      8192    3    0    1
 -2      3843      3899      3494      3696
 -1      8193    3    0    1
 -2       353       356      3824      1878
 -1      8194    3    0    1
 -2      1337       353      2558      3824
 -1      8195    3    0    1
 -2       827       824      1337      1878
 -1      8196    3    0    1
 -2      1602      3077      3297      3503
 -1      8197    3    0    1
 -2       900      2726      3967      3708
 -1      8198    3    0    1
 -2       170      1304      3799      3856
 -1      8199    3    0    1
 -2      2773      2300      3787      3088
 -1      8200    3    0    1
 -2      1462      1463      3267      3532
 -1      8201    3    0    1
 -2      2829      2894      3854      3929
 -1      8202    3    0    1
 -2      2734      3331      3881      3644
 -1      8203    3    0    1
 -2      3785      3788      3802      3894
 -1      8204    3    0    1
 -2      2839      3854      3422      3929
 -1      8205    3    0    1
 -2      3778      1026      3794      3929
 -1      8206    3    0    1
 -2      2838      2928      3396      3626
 -1      8207    3    0    1
 -2       990      3798      3251      4025
 -1      8208    3    0    1
 -2      1667      1668      3476      2025
 -1      8209    3    0    1
 -2      2855      1732      3246      3255
 -1      8210    3    0    1
 -2      1553      1467      1554      3165
 -1      8211    3    0    1
 -2      2915      3013      3409      3645
 -1      8212    3    0    1
 -2      2956      2820      3886      3589
 -1      8213    3    0    1
 -2       116       407      3817      3704
 -1      8214    3    0    1
 -2      1903      1683      1904      3458
 -1      8215    3    0    1
 -2      3521      3872      3941      3578
 -1      8216    3    0    1
 -2      2874      3872      3555      3578
 -1      8217    3    0    1
 -2       972      1634      3905      3568
 -1      8218    3    0    1
 -2      3060      1460      1958      1959
 -1      8219    3    0    1
 -2      3352      3549      3553      3997
 -1      8220    3    0    1
 -2       335      1865      2026      3750
 -1      8221    3    0    1
 -2      1413      1414      2857      1774
 -1      8222    3    0    1
 -2      1719      1452      1720      3370
 -1      8223    3    0    1
 -2      1797      3823      3594      1987
 -1      8224    3    0    1
 -2      2637      3112      3528      3955
 -1      8225    3    0    1
 -2      2706      1473      3478      3687
 -1      8226    3    0    1
 -2      1008      3783      3818      3849
 -1      8227    3    0    1
 -2      1425      1426      3166      1901
 -1      8228    3    0    1
 -2      1570      1569      3152      1959
 -1      8229    3    0    1
 -2      2845      2561      3223      4027
 -1      8230    3    0    1
 -2      1032      1322      2753      4004
 -1      8231    3    0    1
 -2        69        19      1555      3146
 -1      8232    3    0    1
 -2      1460      1546      1547      3393
 -1      8233    3    0    1
 -2      1282      2426      2748      1803
 -1      8234    3    0    1
 -2      1027      1312      2685      3302
 -1      8235    3    0    1
 -2      2334      1072      2748      1804
 -1      8236    3    0    1
 -2      2976      3027      3884      3955
 -1      8237    3    0    1
 -2      2955      1581      1679      3226
 -1      8238    3    0    1
 -2      3790      1449      3833      3803
 -1      8239    3    0    1
 -2      1653      1528      1654      3229
 -1      8240    3    0    1
 -2      3093      1517      1840      1841
 -1      8241    3    0    1
 -2      2650      2723      2793      3912
 -1      8242    3    0    1
 -2       430       406      3977      3983
 -1      8243    3    0    1
 -2      2640      2641      2797      3872
 -1      8244    3    0    1
 -2      2797      2641      3815      3872
 -1      8245    3    0    1
 -2      1689      1690      3328      3379
 -1      8246    3    0    1
 -2      1513      1514      1690      3379
 -1      8247    3    0    1
 -2      2856      2909      2990      3611
 -1      8248    3    0    1
 -2      1547      1546      1802      3530
 -1      8249    3    0    1
 -2      1671      1672      1731      3444
 -1      8250    3    0    1
 -2      3225      3814      3358      3888
 -1      8251    3    0    1
 -2       339       231      3887      1951
 -1      8252    3    0    1
 -2      1702      3486      3492      3673
 -1      8253    3    0    1
 -2      1732      2855      3253      3255
 -1      8254    3    0    1
 -2      3129      3205      3210      3620
 -1      8255    3    0    1
 -2      1733      1837      1838      3473
 -1      8256    3    0    1
 -2      3872      3113      3466      4012
 -1      8257    3    0    1
 -2      1632      1586      1633      3095
 -1      8258    3    0    1
 -2      3508      1883      3574      3966
 -1      8259    3    0    1
 -2      3281      3878      3430      3552
 -1      8260    3    0    1
 -2      3236      1494      1832      1833
 -1      8261    3    0    1
 -2        51      1920      1921      3581
 -1      8262    3    0    1
 -2      1301       981       643      3097
 -1      8263    3    0    1
 -2       643       981      2416      3097
 -1      8264    3    0    1
 -2      2543       646       972       625
 -1      8265    3    0    1
 -2      3841      3802      3853      3931
 -1      8266    3    0    1
 -2      2773      2416      3787      3097
 -1      8267    3    0    1
 -2      3785      2300      3787      3097
 -1      8268    3    0    1
 -2      2300      2773      3787      3097
 -1      8269    3    0    1
 -2      2416       981      3800      3097
 -1      8270    3    0    1
 -2       981      1301      3800      3097
 -1      8271    3    0    1
 -2      3800      1301      3808      3931
 -1      8272    3    0    1
 -2      1301       412      3808      3931
 -1      8273    3    0    1
 -2      3787      2416      3800      3097
 -1      8274    3    0    1
 -2       214      1629       209      1952
 -1      8275    3    0    1
 -2       646       972      1301      3097
 -1      8276    3    0    1
 -2       646      2543       972      3097
 -1      8277    3    0    1
 -2      1748      1596      3394      3563
 -1      8278    3    0    1
 -2      1810      1811      3333      3436
 -1      8279    3    0    1
 -2      3180      3360      3891      3874
 -1      8280    3    0    1
 -2       673       680      2999      3100
 -1      8281    3    0    1
 -2      1497      1627      3816      3547
 -1      8282    3    0    1
 -2      1645       673      1646      3100
 -1      8283    3    0    1
 -2       680      1645      3008      3100
 -1      8284    3    0    1
 -2       186      3661      1697      1696
 -1      8285    3    0    1
 -2      1600      1601      1843      3607
 -1      8286    3    0    1
 -2       754       239      1322      2040
 -1      8287    3    0    1
 -2      2163       770      2435      3505
 -1      8288    3    0    1
 -2      1294      3896      3960      4018
 -1      8289    3    0    1
 -2      2714      1161      3876      3600
 -1      8290    3    0    1
 -2      2742      3798      3856      4025
 -1      8291    3    0    1
 -2      1659      1411      3195      3893
 -1      8292    3    0    1
 -2      1781      1444      3431      3617
 -1      8293    3    0    1
 -2      3353      2836      3869      4007
 -1      8294    3    0    1
 -2      1517      1840      1841      3336
 -1      8295    3    0    1
 -2      4004       338      2039      2040
 -1      8296    3    0    1
 -2       117       116      3781      3817
 -1      8297    3    0    1
 -2      2834      1476      3597      3997
 -1      8298    3    0    1
 -2      1546      1801      1802      3530
 -1      8299    3    0    1
 -2      3802      3785      3808      3931
 -1      8300    3    0    1
 -2      3219      3145      1982      3711
 -1      8301    3    0    1
 -2      3031      3924      3937      3954
 -1      8302    3    0    1
 -2      3785      3400      3097      3931
 -1      8303    3    0    1
 -2       133       143      3863      3962
 -1      8304    3    0    1
 -2      3074      1847      1570      3715
 -1      8305    3    0    1
 -2      3072      1445      3377      3592
 -1      8306    3    0    1
 -2      1515      3451      3188      1849
 -1      8307    3    0    1
 -2      3117      1409      3213      3554
 -1      8308    3    0    1
 -2      2772      1737      1738      3108
 -1      8309    3    0    1
 -2      3271      2921      3883      3580
 -1      8310    3    0    1
 -2      3314      1762      3613      3997
 -1      8311    3    0    1
 -2      3926      3352      3553      3997
 -1      8312    3    0    1
 -2      1973      1421      3632      3997
 -1      8313    3    0    1
 -2      1421      3275      3926      3997
 -1      8314    3    0    1
 -2      1297      2523      2684      3866
 -1      8315    3    0    1
 -2      2615      2643      3192      3860
 -1      8316    3    0    1
 -2       414       982      2684      3866
 -1      8317    3    0    1
 -2      1710      3035      1860      3626
 -1      8318    3    0    1
 -2       113       400      3689      4013
 -1      8319    3    0    1
 -2      2831      1538      3811      3110
 -1      8320    3    0    1
 -2      2892      2831      3811      3110
 -1      8321    3    0    1
 -2      1748       709      1749      3134
 -1      8322    3    0    1
 -2      3486      1702      3492      3550
 -1      8323    3    0    1
 -2      3043      1533      3888      1987
 -1      8324    3    0    1
 -2      2608      2998      3506      3961
 -1      8325    3    0    1
 -2      3279      1752      1943      1944
 -1      8326    3    0    1
 -2       660      3759      2651       663
 -1      8327    3    0    1
 -2      1289      2936      3880      1995
 -1      8328    3    0    1
 -2      1733      3551      1947      1948
 -1      8329    3    0    1
 -2       173       996      1793      3463
 -1      8330    3    0    1
 -2      3245      2536      3934      4011
 -1      8331    3    0    1
 -2      2163       752      2460      3527
 -1      8332    3    0    1
 -2      3389      2915      3409      3645
 -1      8333    3    0    1
 -2      3840      3442      3635      4026
 -1      8334    3    0    1
 -2      1781      3080      3431      3467
 -1      8335    3    0    1
 -2      1549      1445      3078      3377
 -1      8336    3    0    1
 -2      1431      1432      3175      3364
 -1      8337    3    0    1
 -2       134      1724      3815      3260
 -1      8338    3    0    1
 -2      1840      3093      3361      3949
 -1      8339    3    0    1
 -2      3831      2844      3220      3441
 -1      8340    3    0    1
 -2      1837      3267      3473      3948
 -1      8341    3    0    1
 -2      1764      1503      1765      3214
 -1      8342    3    0    1
 -2      3551      3497      1948      3948
 -1      8343    3    0    1
 -2      1050       266      3898      3918
 -1      8344    3    0    1
 -2      3188      1849      3451      3937
 -1      8345    3    0    1
 -2       805       812      3621      3658
 -1      8346    3    0    1
 -2      2468      2725      3199      3847
 -1      8347    3    0    1
 -2      1460      1461      3152      1959
 -1      8348    3    0    1
 -2      3147      1724      3260      4006
 -1      8349    3    0    1
 -2      3833       250      3862      3947
 -1      8350    3    0    1
 -2      3471      1667      3476      2024
 -1      8351    3    0    1
 -2      2645      2673      3024      3119
 -1      8352    3    0    1
 -2      2214      2691      2805      3817
 -1      8353    3    0    1
 -2      2181      2225      2691      3817
 -1      8354    3    0    1
 -2       264      1651      3837      3705
 -1      8355    3    0    1
 -2      3827      3837      3569      3705
 -1      8356    3    0    1
 -2      1580      2832      3074      4006
 -1      8357    3    0    1
 -2      1791      1419      3284      3291
 -1      8358    3    0    1
 -2      3003      2977      3831      3291
 -1      8359    3    0    1
 -2      1415      1638      1639      3198
 -1      8360    3    0    1
 -2      1426      1425      3411      1901
 -1      8361    3    0    1
 -2      3175      1431      1886      1887
 -1      8362    3    0    1
 -2      1431      3193      1886      1887
 -1      8363    3    0    1
 -2       214      1008      2952      3818
 -1      8364    3    0    1
 -2      1435      1618      2862      3818
 -1      8365    3    0    1
 -2      3174      1510      3358      1917
 -1      8366    3    0    1
 -2      3099      1798      3844      3322
 -1      8367    3    0    1
 -2      1017      1313      2844      3831
 -1      8368    3    0    1
 -2      1783      2947      3871      3481
 -1      8369    3    0    1
 -2      2629      2484      3783      3836
 -1      8370    3    0    1
 -2      1646      1645      3149      3154
 -1      8371    3    0    1
 -2      3193      3101      1886      3557
 -1      8372    3    0    1
 -2      2594      2953      3913      3950
 -1      8373    3    0    1
 -2      1478      1477      3206      3278
 -1      8374    3    0    1
 -2      3293      3876      3906      3966
 -1      8375    3    0    1
 -2      3101      3193      3412      3557
 -1      8376    3    0    1
 -2      3807      3823      3909      4003
 -1      8377    3    0    1
 -2      3898      3803      3713      4005
 -1      8378    3    0    1
 -2      3182      2841      3891      3656
 -1      8379    3    0    1
 -2      3947      3862      3961      1999
 -1      8380    3    0    1
 -2      3540      1522      3622      3965
 -1      8381    3    0    1
 -2      3245      3877      3472      3934
 -1      8382    3    0    1
 -2      1810      3083      3356      3953
 -1      8383    3    0    1
 -2      3620      3447      1527      3129
 -1      8384    3    0    1
 -2      2906      1583      3811      3157
 -1      8385    3    0    1
 -2      1496      3205      3589      3620
 -1      8386    3    0    1
 -2      2784      3812      3890      3967
 -1      8387    3    0    1
 -2      1435      1618      3849      3359
 -1      8388    3    0    1
 -2      2506      2963      3843      3934
 -1      8389    3    0    1
 -2      3503      1844      3623      3655
 -1      8390    3    0    1
 -2      3158      3500      3599      4020
 -1      8391    3    0    1
 -2       180       186      1751      3957
 -1      8392    3    0    1
 -2      1448      1447      1829      3566
 -1      8393    3    0    1
 -2      3779      3925      3927      3957
 -1      8394    3    0    1
 -2      1039      2324      2514      3820
 -1      8395    3    0    1
 -2       261      3820      1949      1950
 -1      8396    3    0    1
 -2      2411      2324      2760      3820
 -1      8397    3    0    1
 -2      2480       346      3820      1949
 -1      8398    3    0    1
 -2      2324      2411      2514      3820
 -1      8399    3    0    1
 -2       999      1307      3234      3881
 -1      8400    3    0    1
 -2       990      1307      2663      3821
 -1      8401    3    0    1
 -2      1632      1633      2981      3538
 -1      8402    3    0    1
 -2      2663       990      3822      2399
 -1      8403    3    0    1
 -2      2705      1472      1775      3405
 -1      8404    3    0    1
 -2      1590      2909      1897      3611
 -1      8405    3    0    1
 -2      1679      3066      3246      3255
 -1      8406    3    0    1
 -2      3489      2969      3996      4007
 -1      8407    3    0    1
 -2      1444      1443      3351      1991
 -1      8408    3    0    1
 -2       406      1289      3880      1995
 -1      8409    3    0    1
 -2      1890       236      3429      2000
 -1      8410    3    0    1
 -2      3811      3049      3846      3936
 -1      8411    3    0    1
 -2       678       686      1005      2013
 -1      8412    3    0    1
 -2      1502      3424      3954      3679
 -1      8413    3    0    1
 -2      3531      1502      3954      3679
 -1      8414    3    0    1
 -2      1576      3897      3927      3586
 -1      8415    3    0    1
 -2       673       680      1645      3154
 -1      8416    3    0    1
 -2      1505      1506      1730      3125
 -1      8417    3    0    1
 -2      2972      1737      1738      3448
 -1      8418    3    0    1
 -2      3001      3826      3876      3906
 -1      8419    3    0    1
 -2       781       786      3208      1822
 -1      8420    3    0    1
 -2      3307      3395      3508      3966
 -1      8421    3    0    1
 -2      1940      1939      1964      3631
 -1      8422    3    0    1
 -2      1548      3794      1845      3929
 -1      8423    3    0    1
 -2      2404      2681      3902      3920
 -1      8424    3    0    1
 -2      3902      2681      3903      3920
 -1      8425    3    0    1
 -2      3075      1801      1802      3239
 -1      8426    3    0    1
 -2      3023      2980      3861      3875
 -1      8427    3    0    1
 -2      2468      3786      3795      4003
 -1      8428    3    0    1
 -2      1517      1766      3221      3421
 -1      8429    3    0    1
 -2      2980      2688      3834      3857
 -1      8430    3    0    1
 -2       147       978      2037      3760
 -1      8431    3    0    1
 -2      1445      3078      3377      3592
 -1      8432    3    0    1
 -2      1440      1439      1658      3515
 -1      8433    3    0    1
 -2       106       402      3930      3968
 -1      8434    3    0    1
 -2      1494      1766      1767      3421
 -1      8435    3    0    1
 -2      1439      1657      1658      3515
 -1      8436    3    0    1
 -2       745       750      1698      3191
 -1      8437    3    0    1
 -2      3217      2836      3844      3601
 -1      8438    3    0    1
 -2       555      1280      2694      3823
 -1      8439    3    0    1
 -2       552       555      2694      3823
 -1      8440    3    0    1
 -2       555      3823      2447      1280
 -1      8441    3    0    1
 -2      3811      2694      3049      3823
 -1      8442    3    0    1
 -2      2694      2660      3049      3823
 -1      8443    3    0    1
 -2      3811      2672      3038      3823
 -1      8444    3    0    1
 -2      3308      1546      3393      3530
 -1      8445    3    0    1
 -2      2943      3826      3308      3530
 -1      8446    3    0    1
 -2      1491      2869      3038      3823
 -1      8447    3    0    1
 -2       942       552      2694      3823
 -1      8448    3    0    1
 -2      2954      2650      2957      3424
 -1      8449    3    0    1
 -2      3826      3001      3259      3530
 -1      8450    3    0    1
 -2      3049      1280      3115      3823
 -1      8451    3    0    1
 -2      1802      1801      3259      3530
 -1      8452    3    0    1
 -2      2660      1280      3049      3823
 -1      8453    3    0    1
 -2      3038      2672      3040      3823
 -1      8454    3    0    1
 -2      2943      3001      3826      3530
 -1      8455    3    0    1
 -2      3457      2954      3924      3954
 -1      8456    3    0    1
 -2       354      3823      1797      1987
 -1      8457    3    0    1
 -2      3165      1553      3839      3612
 -1      8458    3    0    1
 -2      2799      3031      3924      3937
 -1      8459    3    0    1
 -2      2448      3778      2870      4023
 -1      8460    3    0    1
 -2      3865      3778      3984      4023
 -1      8461    3    0    1
 -2       572       565      3356      3607
 -1      8462    3    0    1
 -2      1473      1474      2010      3700
 -1      8463    3    0    1
 -2      1533      1534      3594      1988
 -1      8464    3    0    1
 -2      3269      2923      3885      3893
 -1      8465    3    0    1
 -2      2920      2793      3867      3912
 -1      8466    3    0    1
 -2      2650      2920      2957      3912
 -1      8467    3    0    1
 -2       114       113      3689      4013
 -1      8468    3    0    1
 -2      2643      2840      3066      3255
 -1      8469    3    0    1
 -2      1787      3462      3483      3501
 -1      8470    3    0    1
 -2      2820      3129      3886      3589
 -1      8471    3    0    1
 -2      2721      2948      3318      3919
 -1      8472    3    0    1
 -2      1447      3366      1884      3475
 -1      8473    3    0    1
 -2      2892      2831      3110      3133
 -1      8474    3    0    1
 -2      2892      2831      3846      3811
 -1      8475    3    0    1
 -2      2703      2658      2892      3133
 -1      8476    3    0    1
 -2      2703      2892      3110      3133
 -1      8477    3    0    1
 -2      2910      2587      2923      3893
 -1      8478    3    0    1
 -2      1506      3021      1730      3331
 -1      8479    3    0    1
 -2      3536      3820      2480      4000
 -1      8480    3    0    1
 -2      1506      1505      3130      1768
 -1      8481    3    0    1
 -2      1615      3136      3825      3873
 -1      8482    3    0    1
 -2      1858      3889      3952      3731
 -1      8483    3    0    1
 -2      1413      2914      3081      3534
 -1      8484    3    0    1
 -2      1414      1413      2857      3137
 -1      8485    3    0    1
 -2       682       187      1002      1794
 -1      8486    3    0    1
 -2       583      1606      1607      3518
 -1      8487    3    0    1
 -2      2868      1592      3178      3905
 -1      8488    3    0    1
 -2      2827      2859      3825      3191
 -1      8489    3    0    1
 -2       409      1848       119      1899
 -1      8490    3    0    1
 -2      1538      1624      3023      3320
 -1      8491    3    0    1
 -2      2340      2570      2847      4002
 -1      8492    3    0    1
 -2      1707      1694      1708      3493
 -1      8493    3    0    1
 -2      3815      1667      3147      3466
 -1      8494    3    0    1
 -2      3101      1795      1886      3557
 -1      8495    3    0    1
 -2      2803      2827      2859      3825
 -1      8496    3    0    1
 -2      2803      2575      2827      3825
 -1      8497    3    0    1
 -2       750      1615      3025      3825
 -1      8498    3    0    1
 -2      1698       750      3025      3825
 -1      8499    3    0    1
 -2      2647      3034      3875      3499
 -1      8500    3    0    1
 -2      3818      3801      3895      3915
 -1      8501    3    0    1
 -2      2756      2305      3809      3938
 -1      8502    3    0    1
 -2      3025      1615      3136      3825
 -1      8503    3    0    1
 -2      3801      2842      3204      3915
 -1      8504    3    0    1
 -2      3124      1756      3166      3477
 -1      8505    3    0    1
 -2      2857      1413      1773      3406
 -1      8506    3    0    1
 -2      1538      1539      1625      3320
 -1      8507    3    0    1
 -2      1508      1507      3034      3499
 -1      8508    3    0    1
 -2      1433      1746      3187      3429
 -1      8509    3    0    1
 -2      1681      1420      3292      1682
 -1      8510    3    0    1
 -2       962      1291      3194      3533
 -1      8511    3    0    1
 -2      1676      1462      3438      3580
 -1      8512    3    0    1
 -2      2908      2816      2910      3893
 -1      8513    3    0    1
 -2      2910      2816      3155      3893
 -1      8514    3    0    1
 -2       492      1191      3200      3601
 -1      8515    3    0    1
 -2      3024      1510      1895      1896
 -1      8516    3    0    1
 -2       811       808      3641      3686
 -1      8517    3    0    1
 -2      2710       996      3835      1793
 -1      8518    3    0    1
 -2      2786      2492      3144      3939
 -1      8519    3    0    1
 -2       173      2710      3835      1793
 -1      8520    3    0    1
 -2      2954      3424      3457      1981
 -1      8521    3    0    1
 -2      1505      1506      3125      3141
 -1      8522    3    0    1
 -2      1622      2680      3102      3143
 -1      8523    3    0    1
 -2      1623      1622      3102      3143
 -1      8524    3    0    1
 -2      1478      1477      3090      3375
 -1      8525    3    0    1
 -2      1056       798      2492      3144
 -1      8526    3    0    1
 -2      2492       798      2560      3144
 -1      8527    3    0    1
 -2       798       815      2560      3144
 -1      8528    3    0    1
 -2      1933      1592      1934      3588
 -1      8529    3    0    1
 -2      1593      1592      3428      3588
 -1      8530    3    0    1
 -2      1618      3849      3359      1952
 -1      8531    3    0    1
 -2       798      1056      1062      3144
 -1      8532    3    0    1
 -2       815       798      1062      3144
 -1      8533    3    0    1
 -2      3161      2747      3857      3605
 -1      8534    3    0    1
 -2      3093      1766      1767      3407
 -1      8535    3    0    1
 -2      1756      1757      3166      3477
 -1      8536    3    0    1
 -2      2859      3825      3280      3919
 -1      8537    3    0    1
 -2      1427      3839      3417      3721
 -1      8538    3    0    1
 -2      1494      1766      3305      3854
 -1      8539    3    0    1
 -2      2792      2943      3001      3826
 -1      8540    3    0    1
 -2      2864      1742      3374      3967
 -1      8541    3    0    1
 -2      2713      2789      3091      3826
 -1      8542    3    0    1
 -2      1574      2930      1810      1811
 -1      8543    3    0    1
 -2      3800      1301      3851      3567
 -1      8544    3    0    1
 -2      2943      2609      2985      3826
 -1      8545    3    0    1
 -2      3839      3219      3576      3711
 -1      8546    3    0    1
 -2      1473      3448      3459      3687
 -1      8547    3    0    1
 -2      2812      3015      3886      4019
 -1      8548    3    0    1
 -2      2655      3812      3890      3956
 -1      8549    3    0    1
 -2      1538      1539      1786      3403
 -1      8550    3    0    1
 -2       143       410      3863      3962
 -1      8551    3    0    1
 -2       282       278      3824      1877
 -1      8552    3    0    1
 -2      1805      1755      3932      3598
 -1      8553    3    0    1
 -2       637       644      1598      3218
 -1      8554    3    0    1
 -2      3035       159      1860      1897
 -1      8555    3    0    1
 -2      1439      3177      3385      3559
 -1      8556    3    0    1
 -2      1991      1443      1992      3694
 -1      8557    3    0    1
 -2      1571      1572      2995      1778
 -1      8558    3    0    1
 -2       122       595       407      3533
 -1      8559    3    0    1
 -2      1681      3003      3263      3441
 -1      8560    3    0    1
 -2       181       168      1940      1945
 -1      8561    3    0    1
 -2      3831      2782      3263      3441
 -1      8562    3    0    1
 -2      3806      2720      3827      3921
 -1      8563    3    0    1
 -2      1294       409      1847      4006
 -1      8564    3    0    1
 -2      1756      3477      3498      1922
 -1      8565    3    0    1
 -2      1521      3827      3845      3837
 -1      8566    3    0    1
 -2      1824      3395      1908      3508
 -1      8567    3    0    1
 -2      2730      2731      2836      3601
 -1      8568    3    0    1
 -2       354      1627      3795      1987
 -1      8569    3    0    1
 -2      3459      3334      3900      3675
 -1      8570    3    0    1
 -2      1570      1569      3074      3152
 -1      8571    3    0    1
 -2      3157      1583      1856      1857
 -1      8572    3    0    1
 -2      1785      1488      3240      3861
 -1      8573    3    0    1
 -2      2840      1679      3066      3246
 -1      8574    3    0    1
 -2      1469      1468      1855      3571
 -1      8575    3    0    1
 -2      1435      3830      1806      3737
 -1      8576    3    0    1
 -2       804       799      3256      1849
 -1      8577    3    0    1
 -2      3023      1538      3073      3861
 -1      8578    3    0    1
 -2      1450      2938      1870      1871
 -1      8579    3    0    1
 -2      2576      3831      3235      3980
 -1      8580    3    0    1
 -2      3924      2957      3937      3954
 -1      8581    3    0    1
 -2      2609      2985      3826      3907
 -1      8582    3    0    1
 -2       949      2808      3070      3828
 -1      8583    3    0    1
 -2      1512      2743      1711      3828
 -1      8584    3    0    1
 -2      3179      2738      3183      3940
 -1      8585    3    0    1
 -2      1995       406      3990      2011
 -1      8586    3    0    1
 -2       406       949      3070      3828
 -1      8587    3    0    1
 -2      1711      2743      3153      3828
 -1      8588    3    0    1
 -2      3158      3860      3500      4020
 -1      8589    3    0    1
 -2      3216      1762      1960      3667
 -1      8590    3    0    1
 -2      1994       284      3971      3743
 -1      8591    3    0    1
 -2      1729      1728      1940      3631
 -1      8592    3    0    1
 -2      2620      3789      3809      3896
 -1      8593    3    0    1
 -2      2905      1642      3231      3953
 -1      8594    3    0    1
 -2      1712       158      3378      3443
 -1      8595    3    0    1
 -2      1693      1882      3938      4018
 -1      8596    3    0    1
 -2      2925      2975      3162      3893
 -1      8597    3    0    1
 -2       170      1818      1819      1905
 -1      8598    3    0    1
 -2      3844      3053      3869      3461
 -1      8599    3    0    1
 -2      3354       786      3869      3461
 -1      8600    3    0    1
 -2      1470      1777      3590      3951
 -1      8601    3    0    1
 -2      1724       134      3815      3855
 -1      8602    3    0    1
 -2      3053      3354      3869      3461
 -1      8603    3    0    1
 -2      2968      2898      3874      3951
 -1      8604    3    0    1
 -2      3322      3844      3869      3461
 -1      8605    3    0    1
 -2      1818      3063      1819      1905
 -1      8606    3    0    1
 -2       964      3791      3815      3855
 -1      8607    3    0    1
 -2      1200       499      1202      3156
 -1      8608    3    0    1
 -2      3163      2576      3831      3364
 -1      8609    3    0    1
 -2       498       499      1200      3156
 -1      8610    3    0    1
 -2       498      1200      2683      3156
 -1      8611    3    0    1
 -2      2607       498      2683      3156
 -1      8612    3    0    1
 -2      1576      1524      3897      3586
 -1      8613    3    0    1
 -2       346      2480      3820      4000
 -1      8614    3    0    1
 -2      1517      1840      3336      3372
 -1      8615    3    0    1
 -2      1510      1917      3520      3936
 -1      8616    3    0    1
 -2      1795      1796      1887      3557
 -1      8617    3    0    1
 -2      3114      3453      3468      3970
 -1      8618    3    0    1
 -2      3777      3899      3983      3999
 -1      8619    3    0    1
 -2      1583      2743      3153      3311
 -1      8620    3    0    1
 -2      2857      2796      3137      3324
 -1      8621    3    0    1
 -2      2692      2796      2857      3324
 -1      8622    3    0    1
 -2      3627       245      3961      1999
 -1      8623    3    0    1
 -2      1955      1920      1956      3625
 -1      8624    3    0    1
 -2      1583      3153      1856      1857
 -1      8625    3    0    1
 -2      2991      1562      3202      3270
 -1      8626    3    0    1
 -2      3476      1411      2024      2025
 -1      8627    3    0    1
 -2      2743      3153      3828      3312
 -1      8628    3    0    1
 -2      1285      3029      3828      3312
 -1      8629    3    0    1
 -2      2726      2787      3812      3708
 -1      8630    3    0    1
 -2      2889      2592      3874      3970
 -1      8631    3    0    1
 -2      2881      2965      3869      4007
 -1      8632    3    0    1
 -2      3318      3450      3919      3949
 -1      8633    3    0    1
 -2      3241      3480      3974      3676
 -1      8634    3    0    1
 -2      2629      2634      3012      3830
 -1      8635    3    0    1
 -2      2629      2484      2634      3830
 -1      8636    3    0    1
 -2       421       423      3835      3882
 -1      8637    3    0    1
 -2      2369      2438      2595      3899
 -1      8638    3    0    1
 -2      1810      1574      3436      3717
 -1      8639    3    0    1
 -2      1460      3152      1958      1959
 -1      8640    3    0    1
 -2      3682      3989      3697      4016
 -1      8641    3    0    1
 -2      1477      3090      1798      1799
 -1      8642    3    0    1
 -2      3346      1689      3869      3519
 -1      8643    3    0    1
 -2      3095      3037      3537      3937
 -1      8644    3    0    1
 -2      2813      1142      2929      3576
 -1      8645    3    0    1
 -2      1293       965      2501      3169
 -1      8646    3    0    1
 -2      2284      1293      2501      3169
 -1      8647    3    0    1
 -2       133       965      1293      3169
 -1      8648    3    0    1
 -2       133      1293      2284      3169
 -1      8649    3    0    1
 -2       133      2284      2589      3169
 -1      8650    3    0    1
 -2      2958      3071      3135      1781
 -1      8651    3    0    1
 -2       136       133      2463      3169
 -1      8652    3    0    1
 -2      2463       133      2589      3169
 -1      8653    3    0    1
 -2       214      1755      3908      3932
 -1      8654    3    0    1
 -2      3804      2631      3124      3282
 -1      8655    3    0    1
 -2       619      1722      1723      3541
 -1      8656    3    0    1
 -2      1454      1642      2905      3181
 -1      8657    3    0    1
 -2      3186      1419      1791      3292
 -1      8658    3    0    1
 -2      2572       125      3792      3832
 -1      8659    3    0    1
 -2       965       136      2741      3832
 -1      8660    3    0    1
 -2      2736      2814      2844      3831
 -1      8661    3    0    1
 -2      2620      1294      3789      3896
 -1      8662    3    0    1
 -2      1450      2938      3013      1870
 -1      8663    3    0    1
 -2      1288      2228      2741      3832
 -1      8664    3    0    1
 -2       405       125      2741      3832
 -1      8665    3    0    1
 -2      1806      3830      3818      3838
 -1      8666    3    0    1
 -2      2782      1525      1788      1789
 -1      8667    3    0    1
 -2       965      2228      3169      3832
 -1      8668    3    0    1
 -2      2228       965      2741      3832
 -1      8669    3    0    1
 -2      3792       136      3169      3832
 -1      8670    3    0    1
 -2      2844      2736      3980      2735
 -1      8671    3    0    1
 -2      1288       125      2228      3832
 -1      8672    3    0    1
 -2      2977      3085      3163      3831
 -1      8673    3    0    1
 -2      3003      2977      3163      3831
 -1      8674    3    0    1
 -2      2576      3003      3163      3831
 -1      8675    3    0    1
 -2      2731      2730      3869      4007
 -1      8676    3    0    1
 -2      3287      3926      3553      3617
 -1      8677    3    0    1
 -2      1681      2896      1682      3292
 -1      8678    3    0    1
 -2      2576      2782      3003      3831
 -1      8679    3    0    1
 -2      2840      2643      3246      3255
 -1      8680    3    0    1
 -2      3236      1494      3305      3854
 -1      8681    3    0    1
 -2      3150      2907      3844      3674
 -1      8682    3    0    1
 -2      2147       169      3702      4024
 -1      8683    3    0    1
 -2      3248      3077      3561      3966
 -1      8684    3    0    1
 -2      1658      1657      3238      3672
 -1      8685    3    0    1
 -2      3120      3140      3873      3411
 -1      8686    3    0    1
 -2      3127      1504      3214      3856
 -1      8687    3    0    1
 -2      2824       691      1788      1789
 -1      8688    3    0    1
 -2      3017      3093      3455      3949
 -1      8689    3    0    1
 -2      2718      2009      2010      3700
 -1      8690    3    0    1
 -2      2923      1519      3269      3885
 -1      8691    3    0    1
 -2      2616      2580      3848      3940
 -1      8692    3    0    1
 -2      2756      3209      3484      3969
 -1      8693    3    0    1
 -2      3794      1845      3887      3579
 -1      8694    3    0    1
 -2      1822      3109      3869      3461
 -1      8695    3    0    1
 -2      1700      1158      3126      3371
 -1      8696    3    0    1
 -2      3370      3174      1917      1918
 -1      8697    3    0    1
 -2      1450      2916      2955      3226
 -1      8698    3    0    1
 -2      3136      3025      3825      3873
 -1      8699    3    0    1
 -2      2673      2642      3478      3687
 -1      8700    3    0    1
 -2      2737      2991      3202      3944
 -1      8701    3    0    1
 -2       768       763      3427      3487
 -1      8702    3    0    1
 -2       348       263      2766      4016
 -1      8703    3    0    1
 -2        20      3503      1931      2003
 -1      8704    3    0    1
 -2       148       973      3337      3962
 -1      8705    3    0    1
 -2      3164      1488      1785      3296
 -1      8706    3    0    1
 -2      3899      3843      3494      3999
 -1      8707    3    0    1
 -2      1485      1484      1913      3583
 -1      8708    3    0    1
 -2      2673      2642      3119      3936
 -1      8709    3    0    1
 -2       789       788      2436      3833
 -1      8710    3    0    1
 -2       788       789      1328      3833
 -1      8711    3    0    1
 -2      1328       789      2436      3833
 -1      8712    3    0    1
 -2       209      3932      3945      3598
 -1      8713    3    0    1
 -2      1676      1462      1677      3438
 -1      8714    3    0    1
 -2      3705      3898      3713      4005
 -1      8715    3    0    1
 -2      2953      3256      3913      3950
 -1      8716    3    0    1
 -2       991      2490      3702      4024
 -1      8717    3    0    1
 -2      3280      3825      3485      3919
 -1      8718    3    0    1
 -2      1986       406      1995      2002
 -1      8719    3    0    1
 -2      3602      2973      3667      4008
 -1      8720    3    0    1
 -2      1328       250      3131      3833
 -1      8721    3    0    1
 -2       946      2237      2491      4030
 -1      8722    3    0    1
 -2      1676      3875      3499      3532
 -1      8723    3    0    1
 -2      3932      3359      3945      3598
 -1      8724    3    0    1
 -2      2948      3025      3318      3919
 -1      8725    3    0    1
 -2      3121       554      3964      2009
 -1      8726    3    0    1
 -2       806      2400      2449      3199
 -1      8727    3    0    1
 -2      1960      1969      3602      3667
 -1      8728    3    0    1
 -2      3175      3163      3469      3509
 -1      8729    3    0    1
 -2      3235      3831      3364      3509
 -1      8730    3    0    1
 -2      1072      1282      2748      1803
 -1      8731    3    0    1
 -2      1524      3840      3897      3586
 -1      8732    3    0    1
 -2      1711      3843      3877      3494
 -1      8733    3    0    1
 -2      1635      1634      1771      3428
 -1      8734    3    0    1
 -2      3029      1285      3828      3834
 -1      8735    3    0    1
 -2      1418      1417      1705      3404
 -1      8736    3    0    1
 -2       949      2808      3828      3834
 -1      8737    3    0    1
 -2      1926      2000      2001      3680
 -1      8738    3    0    1
 -2      1515      2953      3256      3913
 -1      8739    3    0    1
 -2      2993      3354      3869      3943
 -1      8740    3    0    1
 -2      2959      3378      3443      3944
 -1      8741    3    0    1
 -2       234       248      1815      1923
 -1      8742    3    0    1
 -2      2808      3070      3828      3834
 -1      8743    3    0    1
 -2      2787      1553      3812      3691
 -1      8744    3    0    1
 -2      1742      1743      3117      3426
 -1      8745    3    0    1
 -2       147       978      2847      2037
 -1      8746    3    0    1
 -2       949      1285       571      3834
 -1      8747    3    0    1
 -2       266       264      3837      3898
 -1      8748    3    0    1
 -2      2793      2920      3867      3517
 -1      8749    3    0    1
 -2      2696      2787      3812      3691
 -1      8750    3    0    1
 -2      2980      2688      3029      3834
 -1      8751    3    0    1
 -2      3208      1822      3867      3413
 -1      8752    3    0    1
 -2      2688      1285      3029      3834
 -1      8753    3    0    1
 -2      2808      2871      3083      3834
 -1      8754    3    0    1
 -2      1502      2848      3531      3954
 -1      8755    3    0    1
 -2       573      1285      2688      3834
 -1      8756    3    0    1
 -2       571      2687      2808      3834
 -1      8757    3    0    1
 -2      2808      2687      2871      3834
 -1      8758    3    0    1
 -2      1667      3476      2024      2025
 -1      8759    3    0    1
 -2      3031      2815      3924      3954
 -1      8760    3    0    1
 -2      2855       919      2927      3246
 -1      8761    3    0    1
 -2      2815      3031      3537      3954
 -1      8762    3    0    1
 -2      2957      3037      3937      3954
 -1      8763    3    0    1
 -2      3159      2305      3323      3999
 -1      8764    3    0    1
 -2      3452      1995      3990      2011
 -1      8765    3    0    1
 -2       949       571      2808      3834
 -1      8766    3    0    1
 -2      3340      2988      3742      4028
 -1      8767    3    0    1
 -2      3131      1328      3833      3918
 -1      8768    3    0    1
 -2      3788      3802      3917      3931
 -1      8769    3    0    1
 -2      1657      3503      3655      2003
 -1      8770    3    0    1
 -2      3395      3503      3623      3966
 -1      8771    3    0    1
 -2      1437      1436      2962      3618
 -1      8772    3    0    1
 -2      1571      3182      3360      1929
 -1      8773    3    0    1
 -2      2831      2694      3811      3296
 -1      8774    3    0    1
 -2      2823      3848      3454      1978
 -1      8775    3    0    1
 -2      2860      2960      2982      3892
 -1      8776    3    0    1
 -2      1447      1883      3508      3966
 -1      8777    3    0    1
 -2      1739      2796      3232      3324
 -1      8778    3    0    1
 -2      1908      1909      3681      3753
 -1      8779    3    0    1
 -2      1322      2374      2514      4004
 -1      8780    3    0    1
 -2      3297      3077      3876      3966
 -1      8781    3    0    1
 -2      1766      1494      1767      3407
 -1      8782    3    0    1
 -2      3192      2933      3639      3735
 -1      8783    3    0    1
 -2      3805      2737      3202      3944
 -1      8784    3    0    1
 -2      1510      1917      1918      3520
 -1      8785    3    0    1
 -2      1041       770      1325      3189
 -1      8786    3    0    1
 -2      1325      2163      2460      3189
 -1      8787    3    0    1
 -2      1791      1419      1792      3292
 -1      8788    3    0    1
 -2      3072      2986      1903      3904
 -1      8789    3    0    1
 -2       608      3401      3465      3904
 -1      8790    3    0    1
 -2       248       234      3903      1965
 -1      8791    3    0    1
 -2       771       770      2163      3189
 -1      8792    3    0    1
 -2       770       771      1325      3189
 -1      8793    3    0    1
 -2      1325       771      2163      3189
 -1      8794    3    0    1
 -2      1328      1050      3833      3918
 -1      8795    3    0    1
 -2      2986      1683      1903      3904
 -1      8796    3    0    1
 -2       234      1779      3903      1965
 -1      8797    3    0    1
 -2      2986      2605      3392      3904
 -1      8798    3    0    1
 -2      3392      3052      3401      3904
 -1      8799    3    0    1
 -2      3681      3628      3745      3753
 -1      8800    3    0    1
 -2      2704      3023      3320      3861
 -1      8801    3    0    1
 -2      2822      2743      3834      3861
 -1      8802    3    0    1
 -2      1615      2827      3825      3191
 -1      8803    3    0    1
 -2       750      1615      3825      3191
 -1      8804    3    0    1
 -2       745      1698      1699      3191
 -1      8805    3    0    1
 -2      1615       745      1616      3191
 -1      8806    3    0    1
 -2      2827      1615      1616      3191
 -1      8807    3    0    1
 -2      1490      1617      2933      3192
 -1      8808    3    0    1
 -2      1938        56      3616      1981
 -1      8809    3    0    1
 -2      2615      1490      2933      3192
 -1      8810    3    0    1
 -2      3023      3073      3320      3861
 -1      8811    3    0    1
 -2      1490      2615      2643      3192
 -1      8812    3    0    1
 -2      3862      1652      3961      1999
 -1      8813    3    0    1
 -2       588      3533      3194       591
 -1      8814    3    0    1
 -2      3823      3709      3923       942
 -1      8815    3    0    1
 -2       599       962      1291      3194
 -1      8816    3    0    1
 -2       600       599      2574      3194
 -1      8817    3    0    1
 -2      2567       600      2574      3194
 -1      8818    3    0    1
 -2       488      1186      2567      3194
 -1      8819    3    0    1
 -2       488      2567      2574      3194
 -1      8820    3    0    1
 -2      2802      3798      3251      3534
 -1      8821    3    0    1
 -2       599       600       962      3194
 -1      8822    3    0    1
 -2      2914      1413      1739      3534
 -1      8823    3    0    1
 -2      1540      2914      1739      3534
 -1      8824    3    0    1
 -2       962       600      2567      3194
 -1      8825    3    0    1
 -2        12      1836      3304      1906
 -1      8826    3    0    1
 -2      2632      2604      3805      3944
 -1      8827    3    0    1
 -2      1525      2895      1788      3196
 -1      8828    3    0    1
 -2      1525      1526      2896      3196
 -1      8829    3    0    1
 -2      1788      2824      1789      3196
 -1      8830    3    0    1
 -2      1572      1571      3182      3197
 -1      8831    3    0    1
 -2      1571      1572      1778      3197
 -1      8832    3    0    1
 -2       209      1805      3932      3598
 -1      8833    3    0    1
 -2       727      1840      1841      3361
 -1      8834    3    0    1
 -2      1534      1533      3043      1988
 -1      8835    3    0    1
 -2       806       823      2400      3199
 -1      8836    3    0    1
 -2      3239      2837      3872      3941
 -1      8837    3    0    1
 -2      3831      3170      3284      3291
 -1      8838    3    0    1
 -2      1801       583      1802      3259
 -1      8839    3    0    1
 -2      3334      1834      3405      1936
 -1      8840    3    0    1
 -2      2848      1551      3457      3616
 -1      8841    3    0    1
 -2       823      1059      1335      3199
 -1      8842    3    0    1
 -2       823       806      1059      3199
 -1      8843    3    0    1
 -2      3809      3896      3938      3960
 -1      8844    3    0    1
 -2      3802      1605      3841      3894
 -1      8845    3    0    1
 -2      2854      3796      3836      3908
 -1      8846    3    0    1
 -2      3228      2749      3873      3949
 -1      8847    3    0    1
 -2       957      1294      2620      3896
 -1      8848    3    0    1
 -2       999      1310      2433      3901
 -1      8849    3    0    1
 -2      1469      1468      1956      3608
 -1      8850    3    0    1
 -2      3875      3834      3953      4017
 -1      8851    3    0    1
 -2      3783      3836      3849      3908
 -1      8852    3    0    1
 -2      3796      2854      3859      3908
 -1      8853    3    0    1
 -2      2848      2815      3531      3954
 -1      8854    3    0    1
 -2      2433      2663      3821      3858
 -1      8855    3    0    1
 -2      1900      3411      3490      3496
 -1      8856    3    0    1
 -2       224       338      4004      4014
 -1      8857    3    0    1
 -2      3800      1442      2994      3851
 -1      8858    3    0    1
 -2      3035       159      1897      1963
 -1      8859    3    0    1
 -2      3063      1504      3283      3851
 -1      8860    3    0    1
 -2      2580      2616      3848      3851
 -1      8861    3    0    1
 -2      3355      2693      1874      3575
 -1      8862    3    0    1
 -2      1415      3026      3198      3944
 -1      8863    3    0    1
 -2      3376      3212      3951      3619
 -1      8864    3    0    1
 -2      3800      2686      1818      3851
 -1      8865    3    0    1
 -2      3212      2968      3951      3619
 -1      8866    3    0    1
 -2      1628       900      2897      3708
 -1      8867    3    0    1
 -2      1462      1463      3096      1838
 -1      8868    3    0    1
 -2      1757      1756      3490      1923
 -1      8869    3    0    1
 -2      1948      3319      3610      3982
 -1      8870    3    0    1
 -2      3788      3785      2828      3894
 -1      8871    3    0    1
 -2      1562      2804      2924      3886
 -1      8872    3    0    1
 -2      1886      1795      1887      3557
 -1      8873    3    0    1
 -2      1847      1848      1899      3525
 -1      8874    3    0    1
 -2      2853      2733      3804      3326
 -1      8875    3    0    1
 -2      1481      3055      1830      1831
 -1      8876    3    0    1
 -2       200       199      2012      3755
 -1      8877    3    0    1
 -2      3208       781      1822      1823
 -1      8878    3    0    1
 -2      1146      2858      2968      3433
 -1      8879    3    0    1
 -2      2889      2931      3468      3970
 -1      8880    3    0    1
 -2      2690      3104      3149      3970
 -1      8881    3    0    1
 -2      2966      2884      3054      3892
 -1      8882    3    0    1
 -2      1698      1665      3825      3485
 -1      8883    3    0    1
 -2      2714      2728      3826      3880
 -1      8884    3    0    1
 -2      2898      3304      3874      3433
 -1      8885    3    0    1
 -2      3117      2898      3874      3433
 -1      8886    3    0    1
 -2      2461      2305      2828      3209
 -1      8887    3    0    1
 -2      2796      1739      3137      3324
 -1      8888    3    0    1
 -2      3874      3213      3879      3433
 -1      8889    3    0    1
 -2      2858      3213      3874      3433
 -1      8890    3    0    1
 -2      1636      1556      3054      3892
 -1      8891    3    0    1
 -2      2884      2966      3854      3892
 -1      8892    3    0    1
 -2      1739      1413      3137      3324
 -1      8893    3    0    1
 -2      2860      2623      2960      3892
 -1      8894    3    0    1
 -2      2577      2841      3891      3970
 -1      8895    3    0    1
 -2      2305      2756      2828      3209
 -1      8896    3    0    1
 -2      3831      3254      3509      3980
 -1      8897    3    0    1
 -2      2979      3227      3846      3900
 -1      8898    3    0    1
 -2      1795      3101      3412      3557
 -1      8899    3    0    1
 -2       346       261      3820      1949
 -1      8900    3    0    1
 -2      2916      2907      3226      3844
 -1      8901    3    0    1
 -2      3073      1785      1786      3240
 -1      8902    3    0    1
 -2      2524       414      2684      3866
 -1      8903    3    0    1
 -2      1432      1431      1637      3364
 -1      8904    3    0    1
 -2      2846      1415      1889      3382
 -1      8905    3    0    1
 -2      3094      3171      3350      3951
 -1      8906    3    0    1
 -2      3053      2836      3200      3844
 -1      8907    3    0    1
 -2      2814      3172      3254      3980
 -1      8908    3    0    1
 -2      2918      3878      3933      4010
 -1      8909    3    0    1
 -2      2968      1148      1761      3212
 -1      8910    3    0    1
 -2      3317      1640      3347      3967
 -1      8911    3    0    1
 -2      3047      3811      3164      3403
 -1      8912    3    0    1
 -2      3811      2892      3110      3403
 -1      8913    3    0    1
 -2      3164      3811      1785      3403
 -1      8914    3    0    1
 -2      2892      3811      3047      3403
 -1      8915    3    0    1
 -2       349       281      1975      3686
 -1      8916    3    0    1
 -2      3307      3077      3395      3966
 -1      8917    3    0    1
 -2      3977      3899      3696      3712
 -1      8918    3    0    1
 -2      3801      2961      3915      3956
 -1      8919    3    0    1
 -2      3063      1503      1818      1819
 -1      8920    3    0    1
 -2      1503      3214      1818      1819
 -1      8921    3    0    1
 -2      1504      1764      3127      3214
 -1      8922    3    0    1
 -2      1578      2947      3357      3871
 -1      8923    3    0    1
 -2       214      3603      1629      1630
 -1      8924    3    0    1
 -2      2907      1535      1675      3215
 -1      8925    3    0    1
 -2      2972      3459      3900      3675
 -1      8926    3    0    1
 -2      2607      2628      3814      3964
 -1      8927    3    0    1
 -2      3069      1598      3183      3285
 -1      8928    3    0    1
 -2      2828      2807      3432      3894
 -1      8929    3    0    1
 -2      3785      3802      3808      3894
 -1      8930    3    0    1
 -2      3662      2003      2005      3672
 -1      8931    3    0    1
 -2       637      1598      1599      3218
 -1      8932    3    0    1
 -2      1788      3220      3264      3604
 -1      8933    3    0    1
 -2      3562      3531      3954      3625
 -1      8934    3    0    1
 -2       278       282      3928      3678
 -1      8935    3    0    1
 -2      1166      2719      2979      3227
 -1      8936    3    0    1
 -2       716       709      3134      3288
 -1      8937    3    0    1
 -2      1599      1598      3028      3218
 -1      8938    3    0    1
 -2      1306       185      2213      3987
 -1      8939    3    0    1
 -2      2886      1433      3187      3483
 -1      8940    3    0    1
 -2      1598       644      3087      3218
 -1      8941    3    0    1
 -2      3449      3857      3914      4017
 -1      8942    3    0    1
 -2       278       282      3824      3928
 -1      8943    3    0    1
 -2       155       158      1712      1893
 -1      8944    3    0    1
 -2      3825      2948      3485      3919
 -1      8945    3    0    1
 -2      2930      1810      3356      3953
 -1      8946    3    0    1
 -2      2857      2692      3324      3406
 -1      8947    3    0    1
 -2      3024      2645      3119      3936
 -1      8948    3    0    1
 -2      2864      1409      3143      3374
 -1      8949    3    0    1
 -2      3113      3872      3884      4012
 -1      8950    3    0    1
 -2      1687      1991      1992      3694
 -1      8951    3    0    1
 -2      1727      1712      3378      3510
 -1      8952    3    0    1
 -2       255       769      3722      3763
 -1      8953    3    0    1
 -2      2631      3804      3124      3981
 -1      8954    3    0    1
 -2      1650      1475      2950      3378
 -1      8955    3    0    1
 -2      3961      3582      3974      3676
 -1      8956    3    0    1
 -2      2907      3215      3844      3674
 -1      8957    3    0    1
 -2      1676      3875      3532      3605
 -1      8958    3    0    1
 -2       644      2843      1714      3685
 -1      8959    3    0    1
 -2      3577      3864      2732      2927
 -1      8960    3    0    1
 -2      1304      3798      3822      3856
 -1      8961    3    0    1
 -2      2685      1312      3793      3302
 -1      8962    3    0    1
 -2      1960      3314      3597      3997
 -1      8963    3    0    1
 -2      3794      2448      3889      3952
 -1      8964    3    0    1
 -2      1519      2923      3160      3885
 -1      8965    3    0    1
 -2      2588      3872      3941      4012
 -1      8966    3    0    1
 -2      3798      1304      3127      3856
 -1      8967    3    0    1
 -2      1596      3349      1812      1813
 -1      8968    3    0    1
 -2       608      3160      3410      3885
 -1      8969    3    0    1
 -2      1721       266      1913      3918
 -1      8970    3    0    1
 -2       947        95      3757      3769
 -1      8971    3    0    1
 -2      2628      1067      3814      3225
 -1      8972    3    0    1
 -2       450       554      2673      3478
 -1      8973    3    0    1
 -2       264       266      1913      1971
 -1      8974    3    0    1
 -2      3823       354      1797      3909
 -1      8975    3    0    1
 -2      1553      1466      3165      3839
 -1      8976    3    0    1
 -2      1551        56      3151      3674
 -1      8977    3    0    1
 -2      3864      3326      4020      4028
 -1      8978    3    0    1
 -2      3161      3857      3875      3605
 -1      8979    3    0    1
 -2      2517      1000      2777      3882
 -1      8980    3    0    1
 -2      2833      1427      3219      3839
 -1      8981    3    0    1
 -2      2517       173      2710      3882
 -1      8982    3    0    1
 -2      2813      2833      3219      3839
 -1      8983    3    0    1
 -2      1553      1427      2833      3839
 -1      8984    3    0    1
 -2      2621      2578      2767      3839
 -1      8985    3    0    1
 -2       423       421      2777      3882
 -1      8986    3    0    1
 -2      2621      2767      2783      3839
 -1      8987    3    0    1
 -2      3304      1879      1906      3649
 -1      8988    3    0    1
 -2      1466      1553      2833      3839
 -1      8989    3    0    1
 -2      2783      2767      3165      3839
 -1      8990    3    0    1
 -2      3955      3662      3664      3672
 -1      8991    3    0    1
 -2      1431      1636      1637      3364
 -1      8992    3    0    1
 -2      2928      1725      3626      3965
 -1      8993    3    0    1
 -2      3567      3237      3588      3606
 -1      8994    3    0    1
 -2       248       234      1815      3942
 -1      8995    3    0    1
 -2      2634      2484      3223      3840
 -1      8996    3    0    1
 -2      2923      2587      3885      3893
 -1      8997    3    0    1
 -2      2467      2634      3223      3840
 -1      8998    3    0    1
 -2      1788      2782      1789      3264
 -1      8999    3    0    1
 -2      2634      2467      2663      3840
 -1      9000    3    0    1
 -2      2621      2782      3220      3264
 -1      9001    3    0    1
 -2      1926      3429      2000      3680
 -1      9002    3    0    1
 -2      3854      3221      3336      3372
 -1      9003    3    0    1
 -2      3092      2857      1773      3406
 -1      9004    3    0    1
 -2      1707      3114      3453      3468
 -1      9005    3    0    1
 -2      1766      1494      3305      3421
 -1      9006    3    0    1
 -2      2855      3190      3192      3860
 -1      9007    3    0    1
 -2       709       716      1807      3288
 -1      9008    3    0    1
 -2      1807      2960      1808      3288
 -1      9009    3    0    1
 -2       565       572      1842      3607
 -1      9010    3    0    1
 -2      1636      3054      3101      3892
 -1      9011    3    0    1
 -2      3021      1506      3130      3331
 -1      9012    3    0    1
 -2      3212      2968      3874      3951
 -1      9013    3    0    1
 -2      1556      3364      3509      3572
 -1      9014    3    0    1
 -2      2845      3840      3986      4027
 -1      9015    3    0    1
 -2      3482      1421      1972      1973
 -1      9016    3    0    1
 -2      2930      1574      1810      3953
 -1      9017    3    0    1
 -2      3162      3269      3893      3714
 -1      9018    3    0    1
 -2      3249      3048      3857      3948
 -1      9019    3    0    1
 -2      2873      3365      3727      4022
 -1      9020    3    0    1
 -2        47      1673      1674      1839
 -1      9021    3    0    1
 -2       409       119      1882      4018
 -1      9022    3    0    1
 -2      1762      3482      1972      1973
 -1      9023    3    0    1
 -2      2808      3070      3834      3953
 -1      9024    3    0    1
 -2      1540      1541      2801      1864
 -1      9025    3    0    1
 -2      2920      3867      3924      3937
 -1      9026    3    0    1
 -2      2736      2844      3980      3831
 -1      9027    3    0    1
 -2       349       278       808      3686
 -1      9028    3    0    1
 -2      1982       197      3711      3728
 -1      9029    3    0    1
 -2      1642      1574      1643      3231
 -1      9030    3    0    1
 -2      3836      3849      3359      3734
 -1      9031    3    0    1
 -2       924      3424      1928      3954
 -1      9032    3    0    1
 -2      3531      2815      3562      3954
 -1      9033    3    0    1
 -2      3562      3537      3608      3954
 -1      9034    3    0    1
 -2      2954      2920      3924      3954
 -1      9035    3    0    1
 -2      2815      3537      3562      3954
 -1      9036    3    0    1
 -2      3424      2954      3457      3954
 -1      9037    3    0    1
 -2       134      3868      3917      3922
 -1      9038    3    0    1
 -2      1541      1540      3232      1864
 -1      9039    3    0    1
 -2       134       129      3868      3922
 -1      9040    3    0    1
 -2      2714      2713      3826      3876
 -1      9041    3    0    1
 -2      1739      2796      3137      3232
 -1      9042    3    0    1
 -2      1541      1540      1740      3232
 -1      9043    3    0    1
 -2      1540      1739      1740      3232
 -1      9044    3    0    1
 -2      1740      1739      3137      3232
 -1      9045    3    0    1
 -2       958      1284      2805      3704
 -1      9046    3    0    1
 -2      2767      3839      3417      3612
 -1      9047    3    0    1
 -2      2909      2856      3805      3233
 -1      9048    3    0    1
 -2      1427      1553      1554      3612
 -1      9049    3    0    1
 -2      1533      1534      3040      3594
 -1      9050    3    0    1
 -2      1763      1762      1972      3613
 -1      9051    3    0    1
 -2      2867      1236      1647      3233
 -1      9052    3    0    1
 -2      2867      1647      2909      3233
 -1      9053    3    0    1
 -2       999      2591      3234      1307
 -1      9054    3    0    1
 -2      1583      3153      3312      1856
 -1      9055    3    0    1
 -2      1499      1498      2823      1979
 -1      9056    3    0    1
 -2      2719      3227      3271      3846
 -1      9057    3    0    1
 -2      2873      1632      1633      3316
 -1      9058    3    0    1
 -2      1056      1062      3939      1975
 -1      9059    3    0    1
 -2      1479      1594      3122      3414
 -1      9060    3    0    1
 -2       649       645       984      2038
 -1      9061    3    0    1
 -2      2591      1307      2940      3234
 -1      9062    3    0    1
 -2      1922       234      1923      1965
 -1      9063    3    0    1
 -2      2305      2756      3209      3484
 -1      9064    3    0    1
 -2      3115      1510      3119      3936
 -1      9065    3    0    1
 -2      2903       732      3361      3949
 -1      9066    3    0    1
 -2      3283      2962      3851      3618
 -1      9067    3    0    1
 -2      2781      3351      3553      3617
 -1      9068    3    0    1
 -2      2706      1473      3448      3478
 -1      9069    3    0    1
 -2      3537      3031      3937      3954
 -1      9070    3    0    1
 -2      1986      3777      3983      3688
 -1      9071    3    0    1
 -2         1      1987      1988      2008
 -1      9072    3    0    1
 -2      3820       347      1950      4000
 -1      9073    3    0    1
 -2      1724      1580      3855      4006
 -1      9074    3    0    1
 -2      1488      1489      1786      3240
 -1      9075    3    0    1
 -2      1489      1488      3042      3240
 -1      9076    3    0    1
 -2      2580      3183      3851      3940
 -1      9077    3    0    1
 -2      3183      2738      3851      3940
 -1      9078    3    0    1
 -2      1873      1202      3373      3434
 -1      9079    3    0    1
 -2      2756      3789      3484      3938
 -1      9080    3    0    1
 -2      3870      3971      3972      3973
 -1      9081    3    0    1
 -2      3052      3392      3884      3904
 -1      9082    3    0    1
 -2      1425      1426      1784      3481
 -1      9083    3    0    1
 -2      3503      1657      3657      2003
 -1      9084    3    0    1
 -2      1764      1436      1765      3618
 -1      9085    3    0    1
 -2      1657      3126      3662      2003
 -1      9086    3    0    1
 -2      1783      1425      1784      3481
 -1      9087    3    0    1
 -2      2568      3805      3940      3944
 -1      9088    3    0    1
 -2      2947      1783      1784      3481
 -1      9089    3    0    1
 -2      2921      1676      3883      3580
 -1      9090    3    0    1
 -2      1050      1328      2969      3918
 -1      9091    3    0    1
 -2      3884      3419      3465      3904
 -1      9092    3    0    1
 -2      1779      3903      1965      3676
 -1      9093    3    0    1
 -2      2798      1696      3661      3976
 -1      9094    3    0    1
 -2      3802      3808      3853      3931
 -1      9095    3    0    1
 -2        18      2003      2004      2005
 -1      9096    3    0    1
 -2      3280      1429      1924      1925
 -1      9097    3    0    1
 -2      3201      2757      3842      3893
 -1      9098    3    0    1
 -2      1313      2844      3831      3284
 -1      9099    3    0    1
 -2       168      1939      1945      3619
 -1      9100    3    0    1
 -2      3826      2943      3308      3393
 -1      9101    3    0    1
 -2      2914      2802      3081      3534
 -1      9102    3    0    1
 -2      1588      1798      3322      3461
 -1      9103    3    0    1
 -2      2968      2898      3951      3619
 -1      9104    3    0    1
 -2      1477      1478      1799      3278
 -1      9105    3    0    1
 -2      2902      2666      2925      3842
 -1      9106    3    0    1
 -2      1766      1517      1767      3421
 -1      9107    3    0    1
 -2      1282        98      1803      3402
 -1      9108    3    0    1
 -2       348       267      3989      4016
 -1      9109    3    0    1
 -2      2665      2882      3201      3842
 -1      9110    3    0    1
 -2      1586      2873      3365      3727
 -1      9111    3    0    1
 -2      1512      3843      3899      4021
 -1      9112    3    0    1
 -2      1060      3629      3959      3738
 -1      9113    3    0    1
 -2      2990      2632      3805      3611
 -1      9114    3    0    1
 -2      2757      2665      3201      3842
 -1      9115    3    0    1
 -2      1518      1517      3336      3421
 -1      9116    3    0    1
 -2      3206      3573      3278      1477
 -1      9117    3    0    1
 -2      3824       282      1877      1878
 -1      9118    3    0    1
 -2      1444      2958      3306      3659
 -1      9119    3    0    1
 -2      2369      2595      2963      3843
 -1      9120    3    0    1
 -2      2595      2506      2963      3843
 -1      9121    3    0    1
 -2      3873      3120      3411      3496
 -1      9122    3    0    1
 -2      3136      2935      3873      3496
 -1      9123    3    0    1
 -2       805       812      1211      3621
 -1      9124    3    0    1
 -2      1674      1673      1716      3386
 -1      9125    3    0    1
 -2      1443      1444      1781      3306
 -1      9126    3    0    1
 -2      3259      2790      3511      3518
 -1      9127    3    0    1
 -2      2901      3008      3890      3956
 -1      9128    3    0    1
 -2      1827      1758      3381      3946
 -1      9129    3    0    1
 -2      2945      1221      2948      3294
 -1      9130    3    0    1
 -2       421       173      1793      3463
 -1      9131    3    0    1
 -2       660       668      2586      3463
 -1      9132    3    0    1
 -2      1634      1301      3800      3567
 -1      9133    3    0    1
 -2      3242      3848      3851      3567
 -1      9134    3    0    1
 -2      3035      2838      3396      3626
 -1      9135    3    0    1
 -2      1543       763      1544      3389
 -1      9136    3    0    1
 -2      1331      2417      3806      3845
 -1      9137    3    0    1
 -2       626      3098      3540      3541
 -1      9138    3    0    1
 -2      3039      1694      3141      3956
 -1      9139    3    0    1
 -2       333       332      3793      3850
 -1      9140    3    0    1
 -2      1331      1059      2417      3845
 -1      9141    3    0    1
 -2      1665      1924      3660      4020
 -1      9142    3    0    1
 -2      2941      3804      3122      3981
 -1      9143    3    0    1
 -2      2730       492      2731      3601
 -1      9144    3    0    1
 -2      1331      3806      3837      3845
 -1      9145    3    0    1
 -2      2847       978      4002      2037
 -1      9146    3    0    1
 -2      4002       411      2037      2038
 -1      9147    3    0    1
 -2      2742      2802      3798      3251
 -1      9148    3    0    1
 -2      3256      1849      3913      3535
 -1      9149    3    0    1
 -2      1568      3916      3736      4027
 -1      9150    3    0    1
 -2      2802      2742      3081      3251
 -1      9151    3    0    1
 -2      1464      1465      3108      3420
 -1      9152    3    0    1
 -2      1041       770      3189      3505
 -1      9153    3    0    1
 -2      2732      2941      3804      4028
 -1      9154    3    0    1
 -2      2575      2827      3825      3873
 -1      9155    3    0    1
 -2      3798      2887      2937      4019
 -1      9156    3    0    1
 -2      1515      1849      1850      3451
 -1      9157    3    0    1
 -2      3448      2706      3459      3687
 -1      9158    3    0    1
 -2       119       409      1899      3960
 -1      9159    3    0    1
 -2      1515      2953      2996      3256
 -1      9160    3    0    1
 -2      1516      1515      2996      3256
 -1      9161    3    0    1
 -2       409      1848      1899      1847
 -1      9162    3    0    1
 -2      1928       924      3954      3733
 -1      9163    3    0    1
 -2      1455      1454      2905      3362
 -1      9164    3    0    1
 -2      1335      2652      3814      3978
 -1      9165    3    0    1
 -2      1753      1752      1941      3615
 -1      9166    3    0    1
 -2       432      1876      3916      3670
 -1      9167    3    0    1
 -2      3160       608      1867      3885
 -1      9168    3    0    1
 -2      2843       644      3218      3685
 -1      9169    3    0    1
 -2      3026      1603      1888      1889
 -1      9170    3    0    1
 -2      1941      1752      1942      3615
 -1      9171    3    0    1
 -2      1852      1464      1853      3420
 -1      9172    3    0    1
 -2      1752      1753      3279      3615
 -1      9173    3    0    1
 -2      1529      1528      3229      3487
 -1      9174    3    0    1
 -2      3801      3204      3290      3915
 -1      9175    3    0    1
 -2      3215      3217      3226      3844
 -1      9176    3    0    1
 -2      2907      3215      3226      3844
 -1      9177    3    0    1
 -2      1935        46      1984      1985
 -1      9178    3    0    1
 -2      1517      3221      3854      3421
 -1      9179    3    0    1
 -2       261       395      3643      4000
 -1      9180    3    0    1
 -2      3786      2468      3795      3847
 -1      9181    3    0    1
 -2      1609      2933      1673      3860
 -1      9182    3    0    1
 -2      1551      3151      3206      3844
 -1      9183    3    0    1
 -2      2717      2708      3099      3844
 -1      9184    3    0    1
 -2      2708      2717      2916      3844
 -1      9185    3    0    1
 -2      2836      3013      3217      3844
 -1      9186    3    0    1
 -2      3217      3013      3226      3844
 -1      9187    3    0    1
 -2      2717      3099      3206      3844
 -1      9188    3    0    1
 -2      2915      2708      2916      3844
 -1      9189    3    0    1
 -2      1519      3160      1868      1867
 -1      9190    3    0    1
 -2      1621      3063      1818      1905
 -1      9191    3    0    1
 -2      3151      2717      3206      3844
 -1      9192    3    0    1
 -2      2717      2907      2916      3844
 -1      9193    3    0    1
 -2      2907      2717      3150      3844
 -1      9194    3    0    1
 -2      1630      3170      3284      3603
 -1      9195    3    0    1
 -2      1770      3216      1968      3602
 -1      9196    3    0    1
 -2      2900      1450      1870      1871
 -1      9197    3    0    1
 -2       214      1313      3859      3958
 -1      9198    3    0    1
 -2       432       170      1819      1905
 -1      9199    3    0    1
 -2      2729      3179      3183      3940
 -1      9200    3    0    1
 -2      3150      2717      3151      3844
 -1      9201    3    0    1
 -2      2737      3805      3202      3940
 -1      9202    3    0    1
 -2      1710      2987      3035      3261
 -1      9203    3    0    1
 -2       932      2987      1710      3261
 -1      9204    3    0    1
 -2      1681      3003      1420      3263
 -1      9205    3    0    1
 -2      2751       333      3793      3850
 -1      9206    3    0    1
 -2      3898       264      3705      3713
 -1      9207    3    0    1
 -2       427      1806      3838      1826
 -1      9208    3    0    1
 -2      1670      1669      1833      3315
 -1      9209    3    0    1
 -2       427       183      3222      1826
 -1      9210    3    0    1
 -2      1669      1832      1833      3315
 -1      9211    3    0    1
 -2      2284       133      3863      3962
 -1      9212    3    0    1
 -2      1029      2376      3139      3850
 -1      9213    3    0    1
 -2      1669      1832      3315      3422
 -1      9214    3    0    1
 -2      2605      2899      3884      3955
 -1      9215    3    0    1
 -2      1507      3161      3875      3605
 -1      9216    3    0    1
 -2       698       691      2783      3264
 -1      9217    3    0    1
 -2      1676      1507      3875      3605
 -1      9218    3    0    1
 -2      1549      3078      3112      3377
 -1      9219    3    0    1
 -2      1545       234      3782      3942
 -1      9220    3    0    1
 -2       964      2459      3791      3917
 -1      9221    3    0    1
 -2      1620      1755      3908      3958
 -1      9222    3    0    1
 -2      2977      3085      3831      3958
 -1      9223    3    0    1
 -2      1551      3151      3844      3674
 -1      9224    3    0    1
 -2      2305      3209      3323      3484
 -1      9225    3    0    1
 -2      3819      3782      3902      3942
 -1      9226    3    0    1
 -2       234       248      3903      3942
 -1      9227    3    0    1
 -2      2668      3788      3810      3917
 -1      9228    3    0    1
 -2      3791      2668      3810      3917
 -1      9229    3    0    1
 -2      3804      2941      3122      4028
 -1      9230    3    0    1
 -2      3123      2804      3886      3685
 -1      9231    3    0    1
 -2      1282        95      3769        98
 -1      9232    3    0    1
 -2       189       199      3987      3730
 -1      9233    3    0    1
 -2      1008      1313      2424      3859
 -1      9234    3    0    1
 -2      1008      2424      3783      3859
 -1      9235    3    0    1
 -2       231       339      3887      3952
 -1      9236    3    0    1
 -2      1026      1320      2448      3952
 -1      9237    3    0    1
 -2      2634      2663      3012      3858
 -1      9238    3    0    1
 -2      2672      3059      3529      3936
 -1      9239    3    0    1
 -2       732      3118      1840      3372
 -1      9240    3    0    1
 -2      1630       214      3818      3321
 -1      9241    3    0    1
 -2       999      2433      3821      3901
 -1      9242    3    0    1
 -2      3818      2862      3298      3321
 -1      9243    3    0    1
 -2      2587      2910      3155      3893
 -1      9244    3    0    1
 -2      2804      1562      3123      3886
 -1      9245    3    0    1
 -2       414       413      3866      4002
 -1      9246    3    0    1
 -2      3149      1645      3879      3970
 -1      9247    3    0    1
 -2      1728      1470      3171      3951
 -1      9248    3    0    1
 -2      1521      1567      3845      3921
 -1      9249    3    0    1
 -2      1166      3227      1814      3271
 -1      9250    3    0    1
 -2      1763      1762      3216      3482
 -1      9251    3    0    1
 -2       662       655      1929      3656
 -1      9252    3    0    1
 -2      3360      3182      3891      3656
 -1      9253    3    0    1
 -2      1596      1597      1812      3563
 -1      9254    3    0    1
 -2      3182      1929      1930      3656
 -1      9255    3    0    1
 -2      1665      1698      1699      3273
 -1      9256    3    0    1
 -2      2469      2998      3241      3974
 -1      9257    3    0    1
 -2      2598      2873      3950      4022
 -1      9258    3    0    1
 -2      3914      3677      3681      3745
 -1      9259    3    0    1
 -2      1200      2683      3434      3486
 -1      9260    3    0    1
 -2      1423      1816      3848      3606
 -1      9261    3    0    1
 -2      1571      2995      3062      3591
 -1      9262    3    0    1
 -2       214      3818      1952      3945
 -1      9263    3    0    1
 -2      3147      3369      3941      4012
 -1      9264    3    0    1
 -2      1648      2978      2996      3913
 -1      9265    3    0    1
 -2      1847      3074      1570      1569
 -1      9266    3    0    1
 -2      1573      1751      3925      3957
 -1      9267    3    0    1
 -2      3867      2920      3912      3937
 -1      9268    3    0    1
 -2      3059      3384      1917      3529
 -1      9269    3    0    1
 -2      1421      1422      1972      3632
 -1      9270    3    0    1
 -2      1559      1781      1782      3467
 -1      9271    3    0    1
 -2       732       727      2903      3361
 -1      9272    3    0    1
 -2      3823      1583      3296      1856
 -1      9273    3    0    1
 -2      2908      2910      3089      3893
 -1      9274    3    0    1
 -2      2624      2772      3964      3700
 -1      9275    3    0    1
 -2      3497      1754      3551      1967
 -1      9276    3    0    1
 -2      1632      3095      3538      3937
 -1      9277    3    0    1
 -2      1632      1586      3095      3937
 -1      9278    3    0    1
 -2      3884      3052      3904      4012
 -1      9279    3    0    1
 -2      2658      2892      3133      3846
 -1      9280    3    0    1
 -2      3010      3188      3912      3937
 -1      9281    3    0    1
 -2      3188      2919      3912      3937
 -1      9282    3    0    1
 -2      2919      3188      3451      3937
 -1      9283    3    0    1
 -2      2979      2660      3049      3846
 -1      9284    3    0    1
 -2      3815      3147      3260      4006
 -1      9285    3    0    1
 -2      2642      2603      2706      3846
 -1      9286    3    0    1
 -2      2856      2867      3805      3944
 -1      9287    3    0    1
 -2      2603      2642      2658      3846
 -1      9288    3    0    1
 -2      2694      2659      2719      3846
 -1      9289    3    0    1
 -2      1851      2734      3881      3644
 -1      9290    3    0    1
 -2      2831      2719      2921      3846
 -1      9291    3    0    1
 -2      1603      3026      1888      3944
 -1      9292    3    0    1
 -2      1513      3354      3418      3470
 -1      9293    3    0    1
 -2       804      1632      2981      3937
 -1      9294    3    0    1
 -2      2760      2411      3820      3536
 -1      9295    3    0    1
 -2      2694      2719      2831      3846
 -1      9296    3    0    1
 -2      1711      3245      3877      3472
 -1      9297    3    0    1
 -2      3848      3237      3851      3567
 -1      9298    3    0    1
 -2      1657      1658      3657      2004
 -1      9299    3    0    1
 -2      1883      1824      3508      3574
 -1      9300    3    0    1
 -2      3355      1874      1875      3575
 -1      9301    3    0    1
 -2      1825      1824      1884      3574
 -1      9302    3    0    1
 -2      2823      1498      3274      3848
 -1      9303    3    0    1
 -2      2803      2575      3873      3949
 -1      9304    3    0    1
 -2      1202      1200      3156      3434
 -1      9305    3    0    1
 -2       772       769      1217      3718
 -1      9306    3    0    1
 -2      3815      1724      3855      4006
 -1      9307    3    0    1
 -2      1498      1816      3274      3848
 -1      9308    3    0    1
 -2      2894      3236      3854      3422
 -1      9309    3    0    1
 -2      2738      2702      2750      3848
 -1      9310    3    0    1
 -2      1851       427      3881      3998
 -1      9311    3    0    1
 -2      2579      2738      2750      3848
 -1      9312    3    0    1
 -2      2888      2616      3242      3848
 -1      9313    3    0    1
 -2      2750      2702      2823      3848
 -1      9314    3    0    1
 -2      2579      2750      3237      3848
 -1      9315    3    0    1
 -2      1613      1791      3284      3291
 -1      9316    3    0    1
 -2      2750      2823      3274      3848
 -1      9317    3    0    1
 -2      1498      1499      3542      1979
 -1      9318    3    0    1
 -2      1315      2769      3695      4014
 -1      9319    3    0    1
 -2      3178      1423      1933      1934
 -1      9320    3    0    1
 -2      3177      3876      3623      3655
 -1      9321    3    0    1
 -2      1816      1498      3242      3848
 -1      9322    3    0    1
 -2      3662      1657      2003      3672
 -1      9323    3    0    1
 -2      1419      1420      1792      3292
 -1      9324    3    0    1
 -2      1687      3009      3351      3671
 -1      9325    3    0    1
 -2      2531      2845      3840      3442
 -1      9326    3    0    1
 -2      3553      3009      3549      3671
 -1      9327    3    0    1
 -2      1839      1617      3639      3735
 -1      9328    3    0    1
 -2      1603      1604      2846      1889
 -1      9329    3    0    1
 -2      1581      1582      3066      3652
 -1      9330    3    0    1
 -2       247        47      1674      1839
 -1      9331    3    0    1
 -2      1622      1409      1623      3554
 -1      9332    3    0    1
 -2      1409      1622      3879      3554
 -1      9333    3    0    1
 -2      1581      1582      1985      3640
 -1      9334    3    0    1
 -2      3040      2672      3059      3529
 -1      9335    3    0    1
 -2      1023      1029      3850      1989
 -1      9336    3    0    1
 -2       353      2525      3824      3928
 -1      9337    3    0    1
 -2      2966      2817      3068      3352
 -1      9338    3    0    1
 -2       554       450      2718      2009
 -1      9339    3    0    1
 -2      2376       333      2751      3850
 -1      9340    3    0    1
 -2       213      2347      3793      3850
 -1      9341    3    0    1
 -2       334       213      3793      3850
 -1      9342    3    0    1
 -2       213      1023      2347      3850
 -1      9343    3    0    1
 -2       351       350      3939      3959
 -1      9344    3    0    1
 -2       332      3850      1989      1990
 -1      9345    3    0    1
 -2      2751      2347      3139      3850
 -1      9346    3    0    1
 -2      2376      2751      3139      3850
 -1      9347    3    0    1
 -2      1854      1586      1855      3365
 -1      9348    3    0    1
 -2      1556      1557      1637      3572
 -1      9349    3    0    1
 -2      1741      1620      3910      3958
 -1      9350    3    0    1
 -2      2848      3424      1938      1981
 -1      9351    3    0    1
 -2      2848      3457      3954      1981
 -1      9352    3    0    1
 -2      3457      3424      3954      1981
 -1      9353    3    0    1
 -2      1768      1506      3141      3290
 -1      9354    3    0    1
 -2      3177      2806      3385      3559
 -1      9355    3    0    1
 -2      1568      3799      3856      3916
 -1      9356    3    0    1
 -2      1161       907      3876      3623
 -1      9357    3    0    1
 -2       907      3395      3503      3623
 -1      9358    3    0    1
 -2      1673      1609      3860      1980
 -1      9359    3    0    1
 -2      3063      3800      1818      3851
 -1      9360    3    0    1
 -2      1504      3063      1818      3851
 -1      9361    3    0    1
 -2      3155      1423      1816      3568
 -1      9362    3    0    1
 -2      2738      2579      2962      3851
 -1      9363    3    0    1
 -2      2686      3183      3285      3851
 -1      9364    3    0    1
 -2      2579      2890      2962      3851
 -1      9365    3    0    1
 -2      2994      2579      3237      3851
 -1      9366    3    0    1
 -2      2738      2962      3069      3851
 -1      9367    3    0    1
 -2      2686      2580      3183      3851
 -1      9368    3    0    1
 -2      1504      2686      3285      3851
 -1      9369    3    0    1
 -2      2962      2890      3283      3851
 -1      9370    3    0    1
 -2      2890      2579      2994      3851
 -1      9371    3    0    1
 -2      2890      3063      3283      3851
 -1      9372    3    0    1
 -2      1764      1504      3285      3851
 -1      9373    3    0    1
 -2      1423      3155      3178      3568
 -1      9374    3    0    1
 -2      1442      2890      2994      3851
 -1      9375    3    0    1
 -2      2686      1504      1818      3851
 -1      9376    3    0    1
 -2      3178      2816      3905      3568
 -1      9377    3    0    1
 -2      3497      1800      1948      3948
 -1      9378    3    0    1
 -2      2655      2791      3895      3956
 -1      9379    3    0    1
 -2      2213      3987      2776      2774
 -1      9380    3    0    1
 -2      3419      1683      3904      3592
 -1      9381    3    0    1
 -2      3818      1310      3838      3901
 -1      9382    3    0    1
 -2      3012      2629      3830      3901
 -1      9383    3    0    1
 -2      1538      3811      1785      3296
 -1      9384    3    0    1
 -2      1538      2831      3811      3296
 -1      9385    3    0    1
 -2      1583      1584      3153      1857
 -1      9386    3    0    1
 -2      3811       942      3823      3296
 -1      9387    3    0    1
 -2      1583      3811      3823      3296
 -1      9388    3    0    1
 -2      3789      1693      3896      4006
 -1      9389    3    0    1
 -2      2938      1543      3013      1870
 -1      9390    3    0    1
 -2        21       105      1909      1946
 -1      9391    3    0    1
 -2      1521      1567      3921      3752
 -1      9392    3    0    1
 -2      3858      3881      3901      3998
 -1      9393    3    0    1
 -2      1500      1606      3036      3555
 -1      9394    3    0    1
 -2      2952       214      3818      3298
 -1      9395    3    0    1
 -2       214      1630      3818      3298
 -1      9396    3    0    1
 -2      1842       565      1843      3435
 -1      9397    3    0    1
 -2      1790      3809      3938      3960
 -1      9398    3    0    1
 -2       957       409      1294      3960
 -1      9399    3    0    1
 -2      3891      2577      3970      3979
 -1      9400    3    0    1
 -2       957      3809      3880      3960
 -1      9401    3    0    1
 -2      2631      2879      3804      3981
 -1      9402    3    0    1
 -2      3148      1477      3375      3457
 -1      9403    3    0    1
 -2      3351      3553      3617      1991
 -1      9404    3    0    1
 -2      3809      1790      3880      3960
 -1      9405    3    0    1
 -2      1434      3582      3961      3676
 -1      9406    3    0    1
 -2      3477      3124      3498      3981
 -1      9407    3    0    1
 -2       234      1779      3498      3981
 -1      9408    3    0    1
 -2      1779      3477      3498      3981
 -1      9409    3    0    1
 -2      1910      3662      2005      3672
 -1      9410    3    0    1
 -2      2786       351      3939      3959
 -1      9411    3    0    1
 -2      2305      2756      3323      3938
 -1      9412    3    0    1
 -2      1580      3789      1693      3938
 -1      9413    3    0    1
 -2      2484      2531      3018      3303
 -1      9414    3    0    1
 -2      2531      2484      3016      3303
 -1      9415    3    0    1
 -2       770      1041      2436      3505
 -1      9416    3    0    1
 -2      1920      3531      3954      3679
 -1      9417    3    0    1
 -2      1600      1601      1829      3341
 -1      9418    3    0    1
 -2      2484      3018      3836      3303
 -1      9419    3    0    1
 -2      2573      2484      3836      3303
 -1      9420    3    0    1
 -2      2484      2573      3016      3303
 -1      9421    3    0    1
 -2      1494      1495      3236      3305
 -1      9422    3    0    1
 -2      2801      2802      2914      3534
 -1      9423    3    0    1
 -2      3816       354      3963      2008
 -1      9424    3    0    1
 -2      1507      1508      1677      3499
 -1      9425    3    0    1
 -2      1507      1676      3875      3499
 -1      9426    3    0    1
 -2      3045      1631      3550      1993
 -1      9427    3    0    1
 -2      1443      1781      1782      3306
 -1      9428    3    0    1
 -2      2958      3071      1781      3306
 -1      9429    3    0    1
 -2      3145      3839      3576      3711
 -1      9430    3    0    1
 -2      1688      1687      3351      1992
 -1      9431    3    0    1
 -2      3071      3135      1781      3306
 -1      9432    3    0    1
 -2      1781      3135      1782      3306
 -1      9433    3    0    1
 -2      1444      2958      1781      3306
 -1      9434    3    0    1
 -2      1581      1984      1985      3652
 -1      9435    3    0    1
 -2       662      3360      3891      3656
 -1      9436    3    0    1
 -2      1471      1470      1729      3474
 -1      9437    3    0    1
 -2       246        46      1935      1985
 -1      9438    3    0    1
 -2       816       815      2633      3641
 -1      9439    3    0    1
 -2      3423      1470      3447      3591
 -1      9440    3    0    1
 -2      3225      3795      3888      1987
 -1      9441    3    0    1
 -2       354      1280      3823      1987
 -1      9442    3    0    1
 -2      2825      1615      3357      3871
 -1      9443    3    0    1
 -2      3579      1954      3952      3731
 -1      9444    3    0    1
 -2      3049      3119      3846      3936
 -1      9445    3    0    1
 -2        46       246      1872      1985
 -1      9446    3    0    1
 -2      1872      1984      1985      3640
 -1      9447    3    0    1
 -2       264      3898      1971      3713
 -1      9448    3    0    1
 -2       734      2464      2488      3527
 -1      9449    3    0    1
 -2      1422      1421      1812      3349
 -1      9450    3    0    1
 -2      3846      2979      3459      3687
 -1      9451    3    0    1
 -2      3001      2792      3826      3906
 -1      9452    3    0    1
 -2      2601      3001      3876      3906
 -1      9453    3    0    1
 -2      1461      1460      3060      1959
 -1      9454    3    0    1
 -2      3236      2894      3315      3422
 -1      9455    3    0    1
 -2      1842       572      3435      3906
 -1      9456    3    0    1
 -2      3419      3113      3884      3465
 -1      9457    3    0    1
 -2      1494      3236      1832      3422
 -1      9458    3    0    1
 -2      1639      2924      3382      3886
 -1      9459    3    0    1
 -2       572      3333      3435      3906
 -1      9460    3    0    1
 -2      2792      3247      3333      3906
 -1      9461    3    0    1
 -2       511      2611      2689      3718
 -1      9462    3    0    1
 -2      1577      1442      3808      3894
 -1      9463    3    0    1
 -2      2975      1298      3162      3852
 -1      9464    3    0    1
 -2      3345      2792      3436      3906
 -1      9465    3    0    1
 -2      1842      1600      1843      3607
 -1      9466    3    0    1
 -2      2813      3839      3576      4008
 -1      9467    3    0    1
 -2      3715      1847      1570      1848
 -1      9468    3    0    1
 -2      3841      1846      3853      3894
 -1      9469    3    0    1
 -2      2734      1671      3331      3644
 -1      9470    3    0    1
 -2       339      3614      1916      1915
 -1      9471    3    0    1
 -2      3215      1780      3217      3601
 -1      9472    3    0    1
 -2      3841      1605      1846      3894
 -1      9473    3    0    1
 -2      3247      1842      3435      3906
 -1      9474    3    0    1
 -2      3828      3029      3834      3312
 -1      9475    3    0    1
 -2      2743      3828      3834      3312
 -1      9476    3    0    1
 -2      2909      3138      1897      1914
 -1      9477    3    0    1
 -2      1465      1464      3398      3491
 -1      9478    3    0    1
 -2      2743      3042      3311      3312
 -1      9479    3    0    1
 -2      3849      1435      3359      3734
 -1      9480    3    0    1
 -2      1600      1828      1829      3313
 -1      9481    3    0    1
 -2      3898      1721      1971      3713
 -1      9482    3    0    1
 -2      3508      3876      3600      3966
 -1      9483    3    0    1
 -2      2895      2771      3801      3895
 -1      9484    3    0    1
 -2      2785      2895      3812      3895
 -1      9485    3    0    1
 -2      3812      2901      3890      3956
 -1      9486    3    0    1
 -2      1419      1681      3292      3895
 -1      9487    3    0    1
 -2      3186      1419      3292      3895
 -1      9488    3    0    1
 -2      1587      1586      1855      3654
 -1      9489    3    0    1
 -2      3880      1531      3907      3744
 -1      9490    3    0    1
 -2      3845      3921      3971      3972
 -1      9491    3    0    1
 -2      3847      3870      3971      3972
 -1      9492    3    0    1
 -2      2417      3806      3845      3972
 -1      9493    3    0    1
 -2       554       450      2673      1895
 -1      9494    3    0    1
 -2       554      2673      3119      1895
 -1      9495    3    0    1
 -2      1480      3445      1594      1595
 -1      9496    3    0    1
 -2      3174      2682      3358      1895
 -1      9497    3    0    1
 -2      3140      3873      3411      3415
 -1      9498    3    0    1
 -2       984       414      4002      2038
 -1      9499    3    0    1
 -2      1567      3430      1942      1994
 -1      9500    3    0    1
 -2      1530      1531      1995      3744
 -1      9501    3    0    1
 -2      2667      2613      3842      3332
 -1      9502    3    0    1
 -2      1822      1588      3310      3413
 -1      9503    3    0    1
 -2      1545      3782      3819      3942
 -1      9504    3    0    1
 -2      3860      1429      3500      4020
 -1      9505    3    0    1
 -2      1752      3430      1941      1942
 -1      9506    3    0    1
 -2      1897       144      1898      1963
 -1      9507    3    0    1
 -2      3243      2846      3886      3699
 -1      9508    3    0    1
 -2      3503      1657      3655      3657
 -1      9509    3    0    1
 -2      2818      2839      2884      3854
 -1      9510    3    0    1
 -2      2818      2966      3173      3854
 -1      9511    3    0    1
 -2      2818      2817      2966      3854
 -1      9512    3    0    1
 -2      2817      2818      2884      3854
 -1      9513    3    0    1
 -2      3351      3009      3553      3671
 -1      9514    3    0    1
 -2      1567      3281      3878      3430
 -1      9515    3    0    1
 -2      2623      2951      2970      3854
 -1      9516    3    0    1
 -2      2623      2860      2951      3854
 -1      9517    3    0    1
 -2      3787      3785      3097      3931
 -1      9518    3    0    1
 -2      2970      2951      3305      3854
 -1      9519    3    0    1
 -2      1434      1779      3902      3981
 -1      9520    3    0    1
 -2      2860      2829      2951      3854
 -1      9521    3    0    1
 -2      2951      3236      3305      3854
 -1      9522    3    0    1
 -2      1415      1639      3382      3886
 -1      9523    3    0    1
 -2      2951      2894      3236      3854
 -1      9524    3    0    1
 -2      2829      2894      2951      3854
 -1      9525    3    0    1
 -2      3789      2756      3809      3938
 -1      9526    3    0    1
 -2      3002      1659      3195      3893
 -1      9527    3    0    1
 -2      2839      3173      3221      3854
 -1      9528    3    0    1
 -2       122       125       588      3533
 -1      9529    3    0    1
 -2      3826      3906      3907      3717
 -1      9530    3    0    1
 -2      1301      3800      3097      3931
 -1      9531    3    0    1
 -2      1766      1494      3221      3854
 -1      9532    3    0    1
 -2      2817      2884      2966      3854
 -1      9533    3    0    1
 -2      2997      2615      3158      4020
 -1      9534    3    0    1
 -2      2404      2681      3920      3961
 -1      9535    3    0    1
 -2      3860      2615      3864      4020
 -1      9536    3    0    1
 -2      3412      1865      3929      3750
 -1      9537    3    0    1
 -2       250      1652      3833      3862
 -1      9538    3    0    1
 -2      2839      2818      3173      3854
 -1      9539    3    0    1
 -2      3214      1818      3856      1504
 -1      9540    3    0    1
 -2      1516      1515      3451      3548
 -1      9541    3    0    1
 -2      1568      1441      3309      3856
 -1      9542    3    0    1
 -2      1304       170      1818      3856
 -1      9543    3    0    1
 -2      1441      2911      3309      3856
 -1      9544    3    0    1
 -2       413       411      4002      2038
 -1      9545    3    0    1
 -2      3127      1304      1818      3856
 -1      9546    3    0    1
 -2      2911      3214      3309      3856
 -1      9547    3    0    1
 -2       338       224      4004      2039
 -1      9548    3    0    1
 -2      1504      3127      1818      3856
 -1      9549    3    0    1
 -2      2848      1502      3424      3954
 -1      9550    3    0    1
 -2      2957       924      3037      3954
 -1      9551    3    0    1
 -2      3885      3201      3893      3464
 -1      9552    3    0    1
 -2      1609      1610      1686      3391
 -1      9553    3    0    1
 -2       624       632      2566      3760
 -1      9554    3    0    1
 -2      1675      2907      3215      3640
 -1      9555    3    0    1
 -2      1756      3124      3166      3498
 -1      9556    3    0    1
 -2      1852      1702      1853      3491
 -1      9557    3    0    1
 -2      1164      2747      3268      3857
 -1      9558    3    0    1
 -2      3402       947      3756      4030
 -1      9559    3    0    1
 -2      2000       230      2001      2006
 -1      9560    3    0    1
 -2       474       908      2687      3857
 -1      9561    3    0    1
 -2      1421      1972      1973      3632
 -1      9562    3    0    1
 -2       410       148      3863      3962
 -1      9563    3    0    1
 -2      1429      3280      1924      3516
 -1      9564    3    0    1
 -2      1325      2853      3804      3498
 -1      9565    3    0    1
 -2       908       474      1164      3857
 -1      9566    3    0    1
 -2      2747      2980      3161      3857
 -1      9567    3    0    1
 -2      2747      2688      2980      3857
 -1      9568    3    0    1
 -2      1571      3062      3329      3591
 -1      9569    3    0    1
 -2      1939       168      1940      1964
 -1      9570    3    0    1
 -2      1164       473      2747      3857
 -1      9571    3    0    1
 -2       474       473      1164      3857
 -1      9572    3    0    1
 -2       473      2688      2747      3857
 -1      9573    3    0    1
 -2      3035      1710      3261      3626
 -1      9574    3    0    1
 -2      1466      1536      2783      3604
 -1      9575    3    0    1
 -2      2424      2629      3783      3859
 -1      9576    3    0    1
 -2      3783      2629      2854      3859
 -1      9577    3    0    1
 -2      1017       715      1313      3859
 -1      9578    3    0    1
 -2       715      1017      2488      3859
 -1      9579    3    0    1
 -2      2424       715      2488      3859
 -1      9580    3    0    1
 -2       717       715      2424      3859
 -1      9581    3    0    1
 -2       715       717      1313      3859
 -1      9582    3    0    1
 -2      1313       717      2424      3859
 -1      9583    3    0    1
 -2      1008       214      1313      3859
 -1      9584    3    0    1
 -2      3684      3696      3999      3712
 -1      9585    3    0    1
 -2      2424      2488      2854      3859
 -1      9586    3    0    1
 -2       350       281      3959      3738
 -1      9587    3    0    1
 -2      2629      2424      2854      3859
 -1      9588    3    0    1
 -2      3828      1285      3312      4021
 -1      9589    3    0    1
 -2      2954      1210      3424      1981
 -1      9590    3    0    1
 -2       735       734      2488      4023
 -1      9591    3    0    1
 -2      2868      1634      1635      1592
 -1      9592    3    0    1
 -2      1429      1685      3190      3860
 -1      9593    3    0    1
 -2      3480      3903      3974      3676
 -1      9594    3    0    1
 -2      1665      1666      3280      1925
 -1      9595    3    0    1
 -2      1488      1785      3312      3861
 -1      9596    3    0    1
 -2      3042      2822      3240      3861
 -1      9597    3    0    1
 -2      3023      2980      3029      3861
 -1      9598    3    0    1
 -2      2891      3073      3240      3861
 -1      9599    3    0    1
 -2      2822      2891      3240      3861
 -1      9600    3    0    1
 -2      1538      3023      1785      3861
 -1      9601    3    0    1
 -2      2743      2822      3042      3861
 -1      9602    3    0    1
 -2      3925       186      3927      3957
 -1      9603    3    0    1
 -2      2891      2704      3073      3861
 -1      9604    3    0    1
 -2      2699      2704      2891      3861
 -1      9605    3    0    1
 -2      2822      2699      2891      3861
 -1      9606    3    0    1
 -2      3073      2704      3320      3861
 -1      9607    3    0    1
 -2       409      3715      1848      1847
 -1      9608    3    0    1
 -2      1693      3789      3896      3938
 -1      9609    3    0    1
 -2      2636      2584      3812      3890
 -1      9610    3    0    1
 -2      1880       608      3410      3669
 -1      9611    3    0    1
 -2      1609      1673      3386      3501
 -1      9612    3    0    1
 -2      3103      3471      3369      3546
 -1      9613    3    0    1
 -2       750      1615      3871      3488
 -1      9614    3    0    1
 -2      3083      2808      3834      3953
 -1      9615    3    0    1
 -2      1712      3210      3243      1893
 -1      9616    3    0    1
 -2      1543      2938      3013      3409
 -1      9617    3    0    1
 -2      1544      1543      3389      3409
 -1      9618    3    0    1
 -2      2949      1484      1912      1913
 -1      9619    3    0    1
 -2      1470      1728      3474      3706
 -1      9620    3    0    1
 -2      2949       266      3878      1913
 -1      9621    3    0    1
 -2      3155      1816      1817      3344
 -1      9622    3    0    1
 -2       264      2949      1912      1913
 -1      9623    3    0    1
 -2       266      2949      3878      1651
 -1      9624    3    0    1
 -2      1694      3039      3493      3956
 -1      9625    3    0    1
 -2      1530      1995      1996      3744
 -1      9626    3    0    1
 -2       781      1689      1690      3328
 -1      9627    3    0    1
 -2      3987      2213      2776       185
 -1      9628    3    0    1
 -2       993       169      2147      2035
 -1      9629    3    0    1
 -2      1590      2909      3138      1897
 -1      9630    3    0    1
 -2      3294      3187      3429      3483
 -1      9631    3    0    1
 -2      1468      1854      3571      4022
 -1      9632    3    0    1
 -2      1775      2705      3405      3647
 -1      9633    3    0    1
 -2      2904       655      1863      1864
 -1      9634    3    0    1
 -2      1445      3072      1903      3592
 -1      9635    3    0    1
 -2      1924      1429      3660      4020
 -1      9636    3    0    1
 -2      1936      1937      1970      3647
 -1      9637    3    0    1
 -2       631       148       627      3740
 -1      9638    3    0    1
 -2      3500      1429      3599      4020
 -1      9639    3    0    1
 -2      1543      1544      2938      3409
 -1      9640    3    0    1
 -2      3199      1059      2417       806
 -1      9641    3    0    1
 -2      2734      1671      3128      3331
 -1      9642    3    0    1
 -2      3589      1892      3620      3631
 -1      9643    3    0    1
 -2      1689       781      1690      3519
 -1      9644    3    0    1
 -2      3054      1807      3394      3892
 -1      9645    3    0    1
 -2      2960      2826      3288      3892
 -1      9646    3    0    1
 -2      2623      2826      2960      3892
 -1      9647    3    0    1
 -2      2736      2813      2929      3980
 -1      9648    3    0    1
 -2      3021      2734      3128      3331
 -1      9649    3    0    1
 -2      3216      1960      3602      3667
 -1      9650    3    0    1
 -2      2736      2735      2813      3980
 -1      9651    3    0    1
 -2      2799      3208      3867      3413
 -1      9652    3    0    1
 -2      3101      3193      3327      3892
 -1      9653    3    0    1
 -2      2915      2708      3844      3869
 -1      9654    3    0    1
 -2      2693      3355      1874      3907
 -1      9655    3    0    1
 -2      1642      1454      3355      3907
 -1      9656    3    0    1
 -2      3405      1702      1936      3647
 -1      9657    3    0    1
 -2      2623      2860      3854      3892
 -1      9658    3    0    1
 -2      1807      2960      3288      3892
 -1      9659    3    0    1
 -2      2798      1696      1565      3661
 -1      9660    3    0    1
 -2      2705      1702      3405      3647
 -1      9661    3    0    1
 -2      3345      1642      3355      3907
 -1      9662    3    0    1
 -2      1470      3376      3512      3951
 -1      9663    3    0    1
 -2       169      2147      3994      4024
 -1      9664    3    0    1
 -2      1764      1504      3851      3618
 -1      9665    3    0    1
 -2       949      1289      3899      3983
 -1      9666    3    0    1
 -2      3227      1168      1834      3334
 -1      9667    3    0    1
 -2       236       230      2000      2006
 -1      9668    3    0    1
 -2      3009      2000      2001      2006
 -1      9669    3    0    1
 -2      3411      1425      1900      1901
 -1      9670    3    0    1
 -2      3842      2882      3367      3965
 -1      9671    3    0    1
 -2      1608       352      1977      3973
 -1      9672    3    0    1
 -2      1630      1614      3321      1613
 -1      9673    3    0    1
 -2      3827      3806      3837      3898
 -1      9674    3    0    1
 -2      3971       352      3972      3973
 -1      9675    3    0    1
 -2      2956      3886      3447      3620
 -1      9676    3    0    1
 -2      3190      1772      3860      1980
 -1      9677    3    0    1
 -2      1622      1458      3102      3890
 -1      9678    3    0    1
 -2      3158      3860      3387      3500
 -1      9679    3    0    1
 -2      3130      3021      3331      3979
 -1      9680    3    0    1
 -2      2928      2695      3556      3965
 -1      9681    3    0    1
 -2      1986       406      2002      3983
 -1      9682    3    0    1
 -2      1427      3219      3839      2022
 -1      9683    3    0    1
 -2      2681      3780      3902      3903
 -1      9684    3    0    1
 -2      3780      3819      3902      3903
 -1      9685    3    0    1
 -2       234      1779      3902      3903
 -1      9686    3    0    1
 -2      1779      1434      3902      3903
 -1      9687    3    0    1
 -2      2656      1293      3962      3741
 -1      9688    3    0    1
 -2       143       410      3962      3741
 -1      9689    3    0    1
 -2      2809      1528      3007      3338
 -1      9690    3    0    1
 -2      1528      1529      3007      3338
 -1      9691    3    0    1
 -2      1546      3941      3578      3521
 -1      9692    3    0    1
 -2      2862      1613      3321      3339
 -1      9693    3    0    1
 -2      1613      1614      3321      3339
 -1      9694    3    0    1
 -2      1791      1613      3298      3339
 -1      9695    3    0    1
 -2      1906      1879      1907      3649
 -1      9696    3    0    1
 -2       946       550      2599      4030
 -1      9697    3    0    1
 -2      3304      1640      3426      3649
 -1      9698    3    0    1
 -2      1640      3304      1906      3649
 -1      9699    3    0    1
 -2      1640      1906      1907      3649
 -1      9700    3    0    1
 -2      2898      3304      3426      3649
 -1      9701    3    0    1
 -2      2927      2983      3864      2733
 -1      9702    3    0    1
 -2      3075       590      1801      3578
 -1      9703    3    0    1
 -2      2733      3804      3326      3864
 -1      9704    3    0    1
 -2      2643      2855      3192      3864
 -1      9705    3    0    1
 -2      3192      2855      3860      3864
 -1      9706    3    0    1
 -2      2643      3192      3860      3864
 -1      9707    3    0    1
 -2      2643      2840      3246      3864
 -1      9708    3    0    1
 -2      2855      2643      3253      3864
 -1      9709    3    0    1
 -2      3480      3819      3942      3729
 -1      9710    3    0    1
 -2      1485      1484      2949      1913
 -1      9711    3    0    1
 -2      2732      2733      2927      3864
 -1      9712    3    0    1
 -2      2733      2732      3804      3864
 -1      9713    3    0    1
 -2       655      3062      1929      1930
 -1      9714    3    0    1
 -2       590      3075      3555      3578
 -1      9715    3    0    1
 -2      2855      3253      3255      3864
 -1      9716    3    0    1
 -2      3246      2855      3255      3864
 -1      9717    3    0    1
 -2      3253      2643      3255      3864
 -1      9718    3    0    1
 -2      2643      3246      3255      3864
 -1      9719    3    0    1
 -2       949      3828      3899      4021
 -1      9720    3    0    1
 -2      3153      1711      3828      4021
 -1      9721    3    0    1
 -2      2582      2819      2997      3864
 -1      9722    3    0    1
 -2      2819      2615      2997      3864
 -1      9723    3    0    1
 -2      1197      2927      2855       919
 -1      9724    3    0    1
 -2      3786      3847      3870      3751
 -1      9725    3    0    1
 -2      1801      1546      3239      3578
 -1      9726    3    0    1
 -2      2643      2615      2819      3864
 -1      9727    3    0    1
 -2      1711      1856      3968      4021
 -1      9728    3    0    1
 -2      1673        47      1980      3639
 -1      9729    3    0    1
 -2      2983      2733      3326      3864
 -1      9730    3    0    1
 -2      1044       255      3722      3763
 -1      9731    3    0    1
 -2      3239      1546      3439      3578
 -1      9732    3    0    1
 -2      2611       779      3718      3754
 -1      9733    3    0    1
 -2      2643      2819      2840      3864
 -1      9734    3    0    1
 -2      1812      1596      1813      3584
 -1      9735    3    0    1
 -2      1984      1935      1985      3652
 -1      9736    3    0    1
 -2      1565      1696      2932      1697
 -1      9737    3    0    1
 -2      3293       572      3906      3717
 -1      9738    3    0    1
 -2       354         1      1974      3963
 -1      9739    3    0    1
 -2       572      1810      3906      3717
 -1      9740    3    0    1
 -2       982       414      2974      3866
 -1      9741    3    0    1
 -2      3786      2468      3807      4003
 -1      9742    3    0    1
 -2      1067      2400      3795      4003
 -1      9743    3    0    1
 -2       147      1297      2974      3866
 -1      9744    3    0    1
 -2      2684      2523      3252      3866
 -1      9745    3    0    1
 -2      3923      2724      3709      4003
 -1      9746    3    0    1
 -2      1619      3157      1856      1891
 -1      9747    3    0    1
 -2      1849       804      3451      3937
 -1      9748    3    0    1
 -2      2944      1479      3122      3414
 -1      9749    3    0    1
 -2      3208       786      3328      3867
 -1      9750    3    0    1
 -2       406      3880      1986      1995
 -1      9751    3    0    1
 -2      3310      3867      3413      3924
 -1      9752    3    0    1
 -2      3867      2799      3924      3937
 -1      9753    3    0    1
 -2      1760      1144      3219      3576
 -1      9754    3    0    1
 -2      2879      1594      3041      3414
 -1      9755    3    0    1
 -2      1594      1595      3041      3414
 -1      9756    3    0    1
 -2       786      1689      3328      3867
 -1      9757    3    0    1
 -2       786      3208      1822      3867
 -1      9758    3    0    1
 -2      3310      2920      3867      3924
 -1      9759    3    0    1
 -2      2648      2593      2852      3867
 -1      9760    3    0    1
 -2      3025      3825      3318      3919
 -1      9761    3    0    1
 -2      1606       590      3511      3518
 -1      9762    3    0    1
 -2      2648      2852      3208      3867
 -1      9763    3    0    1
 -2      3531      1745      3679      3724
 -1      9764    3    0    1
 -2      3375      3148      3457      3924
 -1      9765    3    0    1
 -2      3134      1748      3394      3563
 -1      9766    3    0    1
 -2      2594      2953      2978      3913
 -1      9767    3    0    1
 -2      2852      2799      3208      3867
 -1      9768    3    0    1
 -2      2648      3208      3328      3867
 -1      9769    3    0    1
 -2      2856      3805      3233      3611
 -1      9770    3    0    1
 -2      2993      3354      3418      3519
 -1      9771    3    0    1
 -2      1477      3090      3375      3924
 -1      9772    3    0    1
 -2      2879      2944      3122      3414
 -1      9773    3    0    1
 -2      1689       786      3310      3867
 -1      9774    3    0    1
 -2       786      1822      3310      3867
 -1      9775    3    0    1
 -2      1477      3375      3457      3924
 -1      9776    3    0    1
 -2      3213      1409      3879      3554
 -1      9777    3    0    1
 -2       527      1249      3068      3352
 -1      9778    3    0    1
 -2      1251      2966      3275      3352
 -1      9779    3    0    1
 -2      1251      2817      2966      3352
 -1      9780    3    0    1
 -2      2818       527      3068      3352
 -1      9781    3    0    1
 -2      1251       528      2817      3352
 -1      9782    3    0    1
 -2      1702      3486      1936      3550
 -1      9783    3    0    1
 -2      3486      1894      1936      3550
 -1      9784    3    0    1
 -2      3195      3089      3893      3714
 -1      9785    3    0    1
 -2      3878      2793      3912      4010
 -1      9786    3    0    1
 -2      1984      1581      1985      3640
 -1      9787    3    0    1
 -2       349      1060      2449      3629
 -1      9788    3    0    1
 -2      1486      2838      3035      3381
 -1      9789    3    0    1
 -2      2840      3246      3864      3651
 -1      9790    3    0    1
 -2      3919      2958      3650      3659
 -1      9791    3    0    1
 -2      1590      1591      3396      1898
 -1      9792    3    0    1
 -2       608       601      3160      1867
 -1      9793    3    0    1
 -2      2697      3117      3874      3879
 -1      9794    3    0    1
 -2      1282        95      3402       947
 -1      9795    3    0    1
 -2      1667      1668      3260      3476
 -1      9796    3    0    1
 -2      3629      1327      3959      3738
 -1      9797    3    0    1
 -2      3221      1766      3854      3421
 -1      9798    3    0    1
 -2      3147      3369      3466      3471
 -1      9799    3    0    1
 -2      3384      3059      1917      3520
 -1      9800    3    0    1
 -2      1917      3059      1918      3520
 -1      9801    3    0    1
 -2      1822      3109      3346      3869
 -1      9802    3    0    1
 -2      1689       786      3346      3869
 -1      9803    3    0    1
 -2       786      1822      3346      3869
 -1      9804    3    0    1
 -2      2836      2730      3353      3869
 -1      9805    3    0    1
 -2       261       772       775      3722
 -1      9806    3    0    1
 -2      2708      2881      2965      3869
 -1      9807    3    0    1
 -2      2708      2965      3109      3869
 -1      9808    3    0    1
 -2      2768      3053      3354      3869
 -1      9809    3    0    1
 -2      3109      2965      3346      3869
 -1      9810    3    0    1
 -2       772       769      3718      3722
 -1      9811    3    0    1
 -2      3587      1813      3638      4008
 -1      9812    3    0    1
 -2      3099      2708      3109      3869
 -1      9813    3    0    1
 -2      2965      2612      2993      3869
 -1      9814    3    0    1
 -2      2965      2993      3346      3869
 -1      9815    3    0    1
 -2      3284      1630      3603      3958
 -1      9816    3    0    1
 -2      3576      3602      3667      4008
 -1      9817    3    0    1
 -2      2973      2578      3286      4008
 -1      9818    3    0    1
 -2      3099      3109      3322      3869
 -1      9819    3    0    1
 -2      2768      2731      3053      3869
 -1      9820    3    0    1
 -2      2950      1603      3443      3944
 -1      9821    3    0    1
 -2       786      1689      3354      3869
 -1      9822    3    0    1
 -2      3790      2404      3920      3961
 -1      9823    3    0    1
 -2      2725      3847      3921      3972
 -1      9824    3    0    1
 -2      1835      3307      3395      3665
 -1      9825    3    0    1
 -2      1464      2972      3398      3675
 -1      9826    3    0    1
 -2      3385      1439      3515      3655
 -1      9827    3    0    1
 -2      2417      2720      3806      3921
 -1      9828    3    0    1
 -2      2734      1524      1851      3976
 -1      9829    3    0    1
 -2      2734      1851      3881      3976
 -1      9830    3    0    1
 -2      1059      1335      3199      3972
 -1      9831    3    0    1
 -2      3821      1576      3927      3976
 -1      9832    3    0    1
 -2      2930      1810      1811      3356
 -1      9833    3    0    1
 -2      3779      3799      3916      4027
 -1      9834    3    0    1
 -2      1853      1852      3420      3492
 -1      9835    3    0    1
 -2      1164       908      3857      3513
 -1      9836    3    0    1
 -2      3876      3508      3623      3966
 -1      9837    3    0    1
 -2      1578      2947      1783      3357
 -1      9838    3    0    1
 -2      1783      2947      1784      3357
 -1      9839    3    0    1
 -2      1578      1783      1784      3357
 -1      9840    3    0    1
 -2      1615      1578      1616      3357
 -1      9841    3    0    1
 -2      2825      1615      1616      3357
 -1      9842    3    0    1
 -2      1685      1609      1686      3391
 -1      9843    3    0    1
 -2       450      2673      1895      1896
 -1      9844    3    0    1
 -2      4006      3791      3855      3815
 -1      9845    3    0    1
 -2      1473      1474      3448      3478
 -1      9846    3    0    1
 -2      1652      1449      3961      3653
 -1      9847    3    0    1
 -2      3842      2667      3332      3965
 -1      9848    3    0    1
 -2      3089      1411      2024      3714
 -1      9849    3    0    1
 -2      2024      1667      3701      3714
 -1      9850    3    0    1
 -2      1279      2194      2716      4013
 -1      9851    3    0    1
 -2      3843      2963      3877      3934
 -1      9852    3    0    1
 -2      1619      3472      3930      3934
 -1      9853    3    0    1
 -2      1916      1954       339       231
 -1      9854    3    0    1
 -2      2947      1578      1783      3871
 -1      9855    3    0    1
 -2      3921      3971      3975      3752
 -1      9856    3    0    1
 -2      2809      2631      3804      3871
 -1      9857    3    0    1
 -2      1592      2868      1634      3905
 -1      9858    3    0    1
 -2      3921      1567      3971      3752
 -1      9859    3    0    1
 -2      3899      3828      3977      4021
 -1      9860    3    0    1
 -2      1597      1596      1812      3584
 -1      9861    3    0    1
 -2      2698      2825      3357      3871
 -1      9862    3    0    1
 -2      2698      2739      2825      3871
 -1      9863    3    0    1
 -2      1578      1615      3335      3871
 -1      9864    3    0    1
 -2      2947      2698      3357      3871
 -1      9865    3    0    1
 -2      1783      1578      3335      3871
 -1      9866    3    0    1
 -2      2631      2698      2947      3871
 -1      9867    3    0    1
 -2      2631      2947      3282      3871
 -1      9868    3    0    1
 -2      1634      2868      3343      3905
 -1      9869    3    0    1
 -2      2698      2631      2809      3871
 -1      9870    3    0    1
 -2      3786      1497      3547      3751
 -1      9871    3    0    1
 -2      2652      3020      3814      3978
 -1      9872    3    0    1
 -2      1409      1622      3143      3374
 -1      9873    3    0    1
 -2      1688      1687      1992      3694
 -1      9874    3    0    1
 -2      3035      2838      3626      3965
 -1      9875    3    0    1
 -2      1919      1947      1948      3610
 -1      9876    3    0    1
 -2      1471      1470      1778      3590
 -1      9877    3    0    1
 -2      3227      3271      3846      3900
 -1      9878    3    0    1
 -2      2640      2641      3872      3884
 -1      9879    3    0    1
 -2      1586      3037      1854      3654
 -1      9880    3    0    1
 -2      3248      1828      3341      3966
 -1      9881    3    0    1
 -2      2640      2797      3211      3872
 -1      9882    3    0    1
 -2      2874      2588      3052      3872
 -1      9883    3    0    1
 -2       250      3131      3833      3996
 -1      9884    3    0    1
 -2      2837      2588      3239      3872
 -1      9885    3    0    1
 -2      3142      2613      3842      3885
 -1      9886    3    0    1
 -2      2588      2874      3239      3872
 -1      9887    3    0    1
 -2      2973      3145      3576      3602
 -1      9888    3    0    1
 -2      2992        98      3757      3764
 -1      9889    3    0    1
 -2      2925      2902      3842      3522
 -1      9890    3    0    1
 -2      1452      1453      1720      3370
 -1      9891    3    0    1
 -2      3301      1559      1862      3467
 -1      9892    3    0    1
 -2      1578      1615      3289      3873
 -1      9893    3    0    1
 -2      2935      3025      3136      3873
 -1      9894    3    0    1
 -2      2827      2575      3140      3873
 -1      9895    3    0    1
 -2      2575      2917      3140      3873
 -1      9896    3    0    1
 -2      1721      3833      3898      3918
 -1      9897    3    0    1
 -2      2827      3140      3289      3873
 -1      9898    3    0    1
 -2      2917      3120      3140      3873
 -1      9899    3    0    1
 -2      2917      2575      3017      3873
 -1      9900    3    0    1
 -2      2697      2898      3094      3951
 -1      9901    3    0    1
 -2      3497      3551      1948      1967
 -1      9902    3    0    1
 -2      3836      3908      3558      3598
 -1      9903    3    0    1
 -2      3077      2601      3876      3966
 -1      9904    3    0    1
 -2      3136      1578      1783      3873
 -1      9905    3    0    1
 -2      1615      1578      3136      3873
 -1      9906    3    0    1
 -2      3164      1785      1786      3403
 -1      9907    3    0    1
 -2      2591      2597      3212      3874
 -1      9908    3    0    1
 -2      3180      2697      3350      3874
 -1      9909    3    0    1
 -2      1785      1538      1786      3403
 -1      9910    3    0    1
 -2      2680      3143      3890      3967
 -1      9911    3    0    1
 -2      2898      2697      3117      3874
 -1      9912    3    0    1
 -2      2889      2858      2931      3874
 -1      9913    3    0    1
 -2       462      2591      3212      3874
 -1      9914    3    0    1
 -2      1538      3811      3110      3403
 -1      9915    3    0    1
 -2      1445      1446      3072      3377
 -1      9916    3    0    1
 -2      1446      1445      1550      3377
 -1      9917    3    0    1
 -2      1148       462      3212      3874
 -1      9918    3    0    1
 -2      4006      3791      3815      3789
 -1      9919    3    0    1
 -2      2592      2858      2889      3874
 -1      9920    3    0    1
 -2      3101      3327      1636      3892
 -1      9921    3    0    1
 -2      2966      3054      3394      3892
 -1      9922    3    0    1
 -2      3805      2646      3233      3593
 -1      9923    3    0    1
 -2      3921      3847      3971      3972
 -1      9924    3    0    1
 -2      3178      1592      1933      3568
 -1      9925    3    0    1
 -2      1026      1316      2884      3929
 -1      9926    3    0    1
 -2      2602      2647      2704      3875
 -1      9927    3    0    1
 -2      2647      2602      3048      3875
 -1      9928    3    0    1
 -2      2980      3023      3161      3875
 -1      9929    3    0    1
 -2      2704      2647      2876      3875
 -1      9930    3    0    1
 -2      2602      2704      3244      3875
 -1      9931    3    0    1
 -2      2876      2647      3034      3875
 -1      9932    3    0    1
 -2      3023       553      3161      3875
 -1      9933    3    0    1
 -2      1611      1507      3161      3875
 -1      9934    3    0    1
 -2      1026      2448      3794      3952
 -1      9935    3    0    1
 -2      2876      3023      2704      3875
 -1      9936    3    0    1
 -2      1624       553      3023      3875
 -1      9937    3    0    1
 -2       553      1611      3161      3875
 -1      9938    3    0    1
 -2      3503      1820      1931      3657
 -1      9939    3    0    1
 -2       186      3881      3927      3976
 -1      9940    3    0    1
 -2      1973      1972      3613      3632
 -1      9941    3    0    1
 -2      2956      2995      3423      3591
 -1      9942    3    0    1
 -2      3886      2956      3589      3620
 -1      9943    3    0    1
 -2      1454      3355      1874      1875
 -1      9944    3    0    1
 -2      1454      1455      3355      1875
 -1      9945    3    0    1
 -2      3876      1161      3508      3600
 -1      9946    3    0    1
 -2      2956      2670      2995      3591
 -1      9947    3    0    1
 -2       349      2449      2548      3629
 -1      9948    3    0    1
 -2      2670      2956      3886      3591
 -1      9949    3    0    1
 -2      1729      1728      3265      1940
 -1      9950    3    0    1
 -2      3211      3257      3884      3555
 -1      9951    3    0    1
 -2      3265      1728      1939      1940
 -1      9952    3    0    1
 -2      3876      3503      3623      3655
 -1      9953    3    0    1
 -2      3297      3876      3385      3655
 -1      9954    3    0    1
 -2      1780      1193      3217      3601
 -1      9955    3    0    1
 -2      2604      1475      2856      3378
 -1      9956    3    0    1
 -2      3328      2648      3867      3379
 -1      9957    3    0    1
 -2      1689      3328      3867      3379
 -1      9958    3    0    1
 -2        20      3662      2003      2005
 -1      9959    3    0    1
 -2      3059      3384      3529      3936
 -1      9960    3    0    1
 -2      3657      1931      2003      2004
 -1      9961    3    0    1
 -2      3101      2884      3854      3892
 -1      9962    3    0    1
 -2      1556      1636      2982      3892
 -1      9963    3    0    1
 -2      2713      2714      3057      3876
 -1      9964    3    0    1
 -2      1590      1591      2928      3396
 -1      9965    3    0    1
 -2      1161       907      3057      3876
 -1      9966    3    0    1
 -2      2790      3001      3826      3876
 -1      9967    3    0    1
 -2      3360      2597      3874      3512
 -1      9968    3    0    1
 -2      2713      2789      3826      3876
 -1      9969    3    0    1
 -2      3177      2806      3184      3876
 -1      9970    3    0    1
 -2      2772      1473      1737      3502
 -1      9971    3    0    1
 -2       662      3062      3329      1929
 -1      9972    3    0    1
 -2      3184      2806      3262      3876
 -1      9973    3    0    1
 -2      2790      3184      3262      3876
 -1      9974    3    0    1
 -2      2936      2728      3880      3907
 -1      9975    3    0    1
 -2      3401      3465      3904      4012
 -1      9976    3    0    1
 -2      2929      3300      3980      4008
 -1      9977    3    0    1
 -2      2957      2920      3924      3937
 -1      9978    3    0    1
 -2      1431      3175      3469      3509
 -1      9979    3    0    1
 -2      2931      3874      3879      3970
 -1      9980    3    0    1
 -2      3079      3057      3177      3876
 -1      9981    3    0    1
 -2      2789      3057      3079      3876
 -1      9982    3    0    1
 -2      3826      2609      2792      2943
 -1      9983    3    0    1
 -2      2814      3831      3254      3509
 -1      9984    3    0    1
 -2      2601      2806      3077      3876
 -1      9985    3    0    1
 -2       662       655      3062      1929
 -1      9986    3    0    1
 -2      3079      3177      3184      3876
 -1      9987    3    0    1
 -2      2790      2601      3001      3876
 -1      9988    3    0    1
 -2      2789      2713      3057      3876
 -1      9989    3    0    1
 -2      3077      2806      3297      3876
 -1      9990    3    0    1
 -2      1657      1658      3515      3657
 -1      9991    3    0    1
 -2      2601      2790      2806      3876
 -1      9992    3    0    1
 -2      2838      1678      3035      3396
 -1      9993    3    0    1
 -2      2806      2790      3262      3876
 -1      9994    3    0    1
 -2      3184      1655      3262      3559
 -1      9995    3    0    1
 -2      1429      2939      3280      3516
 -1      9996    3    0    1
 -2      1818       170      1819      1876
 -1      9997    3    0    1
 -2      1818      1819      3309      1876
 -1      9998    3    0    1
 -2      1546      3308      3393      3633
 -1      9999    3    0    1
 -2       170      1818      3856      1876
 -1     10000    3    0    1
 -2      3309      1568      3856      1876
 -1     10001    3    0    1
 -2      1818      3309      3856      1876
 -1     10002    3    0    1
 -2       769      3718      3722      3763
 -1     10003    3    0    1
 -2      1652      3627      3961      1999
 -1     10004    3    0    1
 -2      3843      1711      4021      1512
 -1     10005    3    0    1
 -2       250      1652      3862      1999
 -1     10006    3    0    1
 -2      3971       284      3973      3743
 -1     10007    3    0    1
 -2      3968      1856       106       402
 -1     10008    3    0    1
 -2      3923      3877      3930      3968
 -1     10009    3    0    1
 -2      1562      2804      3123      3685
 -1     10010    3    0    1
 -2      1044       346      2480      1949
 -1     10011    3    0    1
 -2      3878      2669      3933      3552
 -1     10012    3    0    1
 -2      3804      2853      3335      3498
 -1     10013    3    0    1
 -2       805      3621      3641      3658
 -1     10014    3    0    1
 -2      3877      1711      3472      3968
 -1     10015    3    0    1
 -2      3984       433      3993      3985
 -1     10016    3    0    1
 -2      1285       402      3312      4021
 -1     10017    3    0    1
 -2      2690      3149      3879      3970
 -1     10018    3    0    1
 -2      3874      3180      3879      3970
 -1     10019    3    0    1
 -2      1645      3149      3468      3970
 -1     10020    3    0    1
 -2      1610      1609      1686      3387
 -1     10021    3    0    1
 -2      1609      1610      2933      3387
 -1     10022    3    0    1
 -2      1687      1688      3009      2001
 -1     10023    3    0    1
 -2      1665      3280      3485      1924
 -1     10024    3    0    1
 -2      1609      2933      3860      3387
 -1     10025    3    0    1
 -2      1685      1609      3860      3387
 -1     10026    3    0    1
 -2      2723      1331      2793      3878
 -1     10027    3    0    1
 -2      2978      2851      3000      3913
 -1     10028    3    0    1
 -2      3064      2949      3082      3878
 -1     10029    3    0    1
 -2        51      3679      2019      3724
 -1     10030    3    0    1
 -2      1756      1900      1901      3490
 -1     10031    3    0    1
 -2      1515      1648      2996      3913
 -1     10032    3    0    1
 -2       999       427      3901      3998
 -1     10033    3    0    1
 -2      1410      1409      3117      3554
 -1     10034    3    0    1
 -2      1521      1651      3845      3878
 -1     10035    3    0    1
 -2      3837      1331      3845      3878
 -1     10036    3    0    1
 -2      2851      2978      3279      3913
 -1     10037    3    0    1
 -2      1672      1671      3128      3644
 -1     10038    3    0    1
 -2      1651      3837      3845      3878
 -1     10039    3    0    1
 -2      3350      3180      3874      3951
 -1     10040    3    0    1
 -2      3130      1506      1768      3979
 -1     10041    3    0    1
 -2      3790      2608      3961      4005
 -1     10042    3    0    1
 -2      2940      3324      3891      3979
 -1     10043    3    0    1
 -2       266      1331      3837      3878
 -1     10044    3    0    1
 -2      1651       266      3837      3878
 -1     10045    3    0    1
 -2      2669      2912      3281      3878
 -1     10046    3    0    1
 -2      1059      2723      3111      3878
 -1     10047    3    0    1
 -2      2912      2669      2918      3878
 -1     10048    3    0    1
 -2      1757      1756      1901      3490
 -1     10049    3    0    1
 -2      2912      1521      3281      3878
 -1     10050    3    0    1
 -2      1443      1444      3351      3431
 -1     10051    3    0    1
 -2      2793      1331      3064      3878
 -1     10052    3    0    1
 -2      1651      2912      2949      3878
 -1     10053    3    0    1
 -2      2949      2912      3082      3878
 -1     10054    3    0    1
 -2      3816      3547      3637      4011
 -1     10055    3    0    1
 -2      1491      1619      3823      3923
 -1     10056    3    0    1
 -2      2725      2720      3921      4005
 -1     10057    3    0    1
 -2      1651      1521      2912      3878
 -1     10058    3    0    1
 -2      2978      2953      2996      3913
 -1     10059    3    0    1
 -2      1331       266      3064      3878
 -1     10060    3    0    1
 -2      1032      1322      4004      2039
 -1     10061    3    0    1
 -2      2587      2830      3885      3893
 -1     10062    3    0    1
 -2       716      1807      3288      3394
 -1     10063    3    0    1
 -2      3366      1883      1884      3681
 -1     10064    3    0    1
 -2      3201      3842      3885      3893
 -1     10065    3    0    1
 -2       978       984      2570      4002
 -1     10066    3    0    1
 -2      2826      3134      3288      3394
 -1     10067    3    0    1
 -2      1512      3843      3494      3696
 -1     10068    3    0    1
 -2      3842      2925      3885      3893
 -1     10069    3    0    1
 -2      2919      2593      3912      3937
 -1     10070    3    0    1
 -2      1465      1464      2972      3398
 -1     10071    3    0    1
 -2      2706      3846      3883      3900
 -1     10072    3    0    1
 -2      3287      3080      3926      3617
 -1     10073    3    0    1
 -2       348       263      3989      2032
 -1     10074    3    0    1
 -2      2506      2794      3934      4011
 -1     10075    3    0    1
 -2      2561      2865      3088      4001
 -1     10076    3    0    1
 -2      3297      3385      3515      3655
 -1     10077    3    0    1
 -2      1825      1824      1909      3681
 -1     10078    3    0    1
 -2      2908      1661      3852      3416
 -1     10079    3    0    1
 -2      2480       346      2761      3536
 -1     10080    3    0    1
 -2       732       727      3118      3399
 -1     10081    3    0    1
 -2      1481      1725      1726      3556
 -1     10082    3    0    1
 -2       727      1861      1862      3399
 -1     10083    3    0    1
 -2      3348      3303      3595      3993
 -1     10084    3    0    1
 -2      1982      3145      3721      3728
 -1     10085    3    0    1
 -2      3916      4001      3736      4027
 -1     10086    3    0    1
 -2      1908      1909      1932      3665
 -1     10087    3    0    1
 -2      2663      2467      3779      3897
 -1     10088    3    0    1
 -2      2467      2663      3840      3897
 -1     10089    3    0    1
 -2      1322      2514      2753      4004
 -1     10090    3    0    1
 -2      1322       239      2374      4004
 -1     10091    3    0    1
 -2       626       619      3098      3541
 -1     10092    3    0    1
 -2      1498      1499      3344      3542
 -1     10093    3    0    1
 -2      1722       626      3540      3541
 -1     10094    3    0    1
 -2      3818      1618      3321      1952
 -1     10095    3    0    1
 -2      3885      3201      3464      3543
 -1     10096    3    0    1
 -2      1498      2830      3464      3543
 -1     10097    3    0    1
 -2      1481      1482      3342      3556
 -1     10098    3    0    1
 -2       601       608      1880      3401
 -1     10099    3    0    1
 -2      3275      1251      3352      3609
 -1     10100    3    0    1
 -2       601      1880      1881      3401
 -1     10101    3    0    1
 -2      1465      1464      1852      3420
 -1     10102    3    0    1
 -2      1702      2705      3405      3900
 -1     10103    3    0    1
 -2      1503      1504      1764      3618
 -1     10104    3    0    1
 -2      3846      2706      3459      3900
 -1     10105    3    0    1
 -2        98        95       556      3402
 -1     10106    3    0    1
 -2        98       100      1803      3402
 -1     10107    3    0    1
 -2       559        98       556      3402
 -1     10108    3    0    1
 -2        98       559       100      3402
 -1     10109    3    0    1
 -2      3175      1431      3364      3509
 -1     10110    3    0    1
 -2      3163      3831      3469      3509
 -1     10111    3    0    1
 -2      2931      2889      3874      3970
 -1     10112    3    0    1
 -2      2783      2621      3839      3980
 -1     10113    3    0    1
 -2       134      3855      1859      3922
 -1     10114    3    0    1
 -2      3661       186      1697      1885
 -1     10115    3    0    1
 -2      3779      1441      3986      4027
 -1     10116    3    0    1
 -2      3299      1795      1886      3469
 -1     10117    3    0    1
 -2      2852      2799      3867      3937
 -1     10118    3    0    1
 -2        98        95      3757      3764
 -1     10119    3    0    1
 -2      3180      2697      3874      3879
 -1     10120    3    0    1
 -2      1458      2875      1645      3879
 -1     10121    3    0    1
 -2      3831      3085      3175      3469
 -1     10122    3    0    1
 -2      3175      3299      1886      3469
 -1     10123    3    0    1
 -2      2910      2923      3195      3893
 -1     10124    3    0    1
 -2       807      2355      2449      3629
 -1     10125    3    0    1
 -2      1458      1622      2883      3879
 -1     10126    3    0    1
 -2      3054      1556      1807      3892
 -1     10127    3    0    1
 -2      3089      2910      3195      3893
 -1     10128    3    0    1
 -2      2800      2690      2875      3879
 -1     10129    3    0    1
 -2      2800      2875      2883      3879
 -1     10130    3    0    1
 -2      2875      2690      3149      3879
 -1     10131    3    0    1
 -2      2931      2858      3213      3879
 -1     10132    3    0    1
 -2      2690      2800      3180      3879
 -1     10133    3    0    1
 -2      3661      1696      1565      1697
 -1     10134    3    0    1
 -2      1458      2931      3213      3879
 -1     10135    3    0    1
 -2      2697      2800      3117      3879
 -1     10136    3    0    1
 -2      2800      2697      3180      3879
 -1     10137    3    0    1
 -2      1458      1645      2931      3879
 -1     10138    3    0    1
 -2      1431      3175      1886      3469
 -1     10139    3    0    1
 -2      3054      2884      3101      3892
 -1     10140    3    0    1
 -2      1622      1458      3213      3879
 -1     10141    3    0    1
 -2      1409      1622      3213      3879
 -1     10142    3    0    1
 -2      2860      2982      3327      3892
 -1     10143    3    0    1
 -2      1822      3310      3867      3413
 -1     10144    3    0    1
 -2      1588      1589      3090      3413
 -1     10145    3    0    1
 -2      1588      1822      1823      3413
 -1     10146    3    0    1
 -2      1689      3346       781      3519
 -1     10147    3    0    1
 -2      1413      2857      3137      3406
 -1     10148    3    0    1
 -2      3137      2857      3324      3406
 -1     10149    3    0    1
 -2      1413      3137      3324      3406
 -1     10150    3    0    1
 -2      2973      3216      3602      3667
 -1     10151    3    0    1
 -2      1483      3809      1790      3880
 -1     10152    3    0    1
 -2      3828      1701      3977      4021
 -1     10153    3    0    1
 -2      1790       409      1847      3880
 -1     10154    3    0    1
 -2      3077      3307      3561      3966
 -1     10155    3    0    1
 -2      3815      2797      3872      3941
 -1     10156    3    0    1
 -2       212        76      3314      1960
 -1     10157    3    0    1
 -2      1289       589       957      3880
 -1     10158    3    0    1
 -2      2713       592      2714      3880
 -1     10159    3    0    1
 -2      1964      1939      3620      3631
 -1     10160    3    0    1
 -2       589      1289       592      3880
 -1     10161    3    0    1
 -2       589       592      2713      3880
 -1     10162    3    0    1
 -2      2609      2934      2985      3880
 -1     10163    3    0    1
 -2      2728      1289      2936      3880
 -1     10164    3    0    1
 -2      2934      1483      1790      3880
 -1     10165    3    0    1
 -2       409       957      3880      3960
 -1     10166    3    0    1
 -2      3472      3877      3930      3934
 -1     10167    3    0    1
 -2       957      2713      3091      3880
 -1     10168    3    0    1
 -2      2714      1289      2728      3880
 -1     10169    3    0    1
 -2      3992      3950      3727      4022
 -1     10170    3    0    1
 -2       409       957      3091      3880
 -1     10171    3    0    1
 -2       409      3091      1847      3880
 -1     10172    3    0    1
 -2      3248      3561      3566      3966
 -1     10173    3    0    1
 -2       957       589      2713      3880
 -1     10174    3    0    1
 -2       592      1289      2714      3880
 -1     10175    3    0    1
 -2      1322       239      4004      2040
 -1     10176    3    0    1
 -2       345       162      3994      4024
 -1     10177    3    0    1
 -2      1515      1648      3913      3535
 -1     10178    3    0    1
 -2      1291       122      1735      3533
 -1     10179    3    0    1
 -2       122       407      1735      3533
 -1     10180    3    0    1
 -2      3806       266      3837      3898
 -1     10181    3    0    1
 -2      1657      3126      3955      3662
 -1     10182    3    0    1
 -2      3126      1700      3371      3662
 -1     10183    3    0    1
 -2       406       949      3828      3977
 -1     10184    3    0    1
 -2      2982      1636      3327      3892
 -1     10185    3    0    1
 -2      1807      3288      3394      3892
 -1     10186    3    0    1
 -2      3907      1531      3575      3744
 -1     10187    3    0    1
 -2      1470      1471      3423      3474
 -1     10188    3    0    1
 -2      3868      3810      3917      3922
 -1     10189    3    0    1
 -2       255      1047      2031      3763
 -1     10190    3    0    1
 -2      1567       352      3971      1994
 -1     10191    3    0    1
 -2      1883      3366      3914      3681
 -1     10192    3    0    1
 -2      3778      2573      3865      3993
 -1     10193    3    0    1
 -2      1142      3576      1969      3667
 -1     10194    3    0    1
 -2      1307       186      2940      3881
 -1     10195    3    0    1
 -2      1969      3576      3602      3667
 -1     10196    3    0    1
 -2      3216      2973      3482      3667
 -1     10197    3    0    1
 -2      1973      3482      3638      3667
 -1     10198    3    0    1
 -2       427       999      3234      3881
 -1     10199    3    0    1
 -2      2940       186      3406      3881
 -1     10200    3    0    1
 -2      1553      1427      1554      3691
 -1     10201    3    0    1
 -2      1762      3482      1973      3667
 -1     10202    3    0    1
 -2      2973      2578      3839      3417
 -1     10203    3    0    1
 -2      3234       427      3881      3644
 -1     10204    3    0    1
 -2      2213      2517      3014      3882
 -1     10205    3    0    1
 -2       187       423      2777      3882
 -1     10206    3    0    1
 -2       421       173      2777      3882
 -1     10207    3    0    1
 -2      1000       187      2777      3882
 -1     10208    3    0    1
 -2       173      1303      2777      3882
 -1     10209    3    0    1
 -2      2831      3133      3846      3883
 -1     10210    3    0    1
 -2      2921      2831      3846      3883
 -1     10211    3    0    1
 -2      1507      1676      3061      3883
 -1     10212    3    0    1
 -2      2652      2606      3814      3460
 -1     10213    3    0    1
 -2      3163      3831      3175      3469
 -1     10214    3    0    1
 -2      2603      2706      3846      3883
 -1     10215    3    0    1
 -2      1507      2661      1611      3883
 -1     10216    3    0    1
 -2      2703      2658      3133      3883
 -1     10217    3    0    1
 -2      2661      2703      3133      3883
 -1     10218    3    0    1
 -2      2921      2719      3271      3883
 -1     10219    3    0    1
 -2      3434      1927      3560      3581
 -1     10220    3    0    1
 -2      2795      2700      2971      3883
 -1     10221    3    0    1
 -2       991      2779      1300      2490
 -1     10222    3    0    1
 -2      2603      2661      2795      3883
 -1     10223    3    0    1
 -2      2795      2661      3061      3883
 -1     10224    3    0    1
 -2      1873        51      1927      3581
 -1     10225    3    0    1
 -2      2603      2795      2971      3883
 -1     10226    3    0    1
 -2      2603      2658      2661      3883
 -1     10227    3    0    1
 -2      2921      1611      3133      3883
 -1     10228    3    0    1
 -2      2831      2921      3133      3883
 -1     10229    3    0    1
 -2      1507      2921      1676      3883
 -1     10230    3    0    1
 -2      2706      2603      2971      3883
 -1     10231    3    0    1
 -2      1507      1611      2921      3883
 -1     10232    3    0    1
 -2      2661      2658      2703      3883
 -1     10233    3    0    1
 -2      1704      1705      3404      3418
 -1     10234    3    0    1
 -2      1519      3103      3471      4012
 -1     10235    3    0    1
 -2        95      1279      3689      4013
 -1     10236    3    0    1
 -2      1446      1445      3072      1904
 -1     10237    3    0    1
 -2      3859       214      3908      3932
 -1     10238    3    0    1
 -2      2587      2667      2709      3885
 -1     10239    3    0    1
 -2      1065      3641      3658      3686
 -1     10240    3    0    1
 -2      1781      3080      3467      3617
 -1     10241    3    0    1
 -2      3072      1445      1903      1904
 -1     10242    3    0    1
 -2      1519      3160      1867      3885
 -1     10243    3    0    1
 -2      1416      1415      3382      1889
 -1     10244    3    0    1
 -2      3849      3836      3359      3945
 -1     10245    3    0    1
 -2      3125      1730      3444      3915
 -1     10246    3    0    1
 -2      2979      1168      3227      3900
 -1     10247    3    0    1
 -2      2613      2667      3842      3885
 -1     10248    3    0    1
 -2      1415      2846      1889      1888
 -1     10249    3    0    1
 -2      3788      3785      3802      3931
 -1     10250    3    0    1
 -2      3279      2851      3913      3978
 -1     10251    3    0    1
 -2      1737      1464      3108      3673
 -1     10252    3    0    1
 -2      3926      2781      3553      3617
 -1     10253    3    0    1
 -2      1504      3283      3851      3618
 -1     10254    3    0    1
 -2      2976      3211      3257      3884
 -1     10255    3    0    1
 -2      3113      3027      3419      3884
 -1     10256    3    0    1
 -2      3080      3287      3926      3935
 -1     10257    3    0    1
 -2      2976      2640      3211      3884
 -1     10258    3    0    1
 -2      2641      3027      3113      3884
 -1     10259    3    0    1
 -2      2605      3052      3392      3884
 -1     10260    3    0    1
 -2      2605      2874      3052      3884
 -1     10261    3    0    1
 -2      2874      2605      3036      3884
 -1     10262    3    0    1
 -2      1834      3334      3405      3900
 -1     10263    3    0    1
 -2      2925      3842      3885      3663
 -1     10264    3    0    1
 -2      3351      3080      3431      3617
 -1     10265    3    0    1
 -2      2605      2899      3036      3884
 -1     10266    3    0    1
 -2      3334      1702      3405      3900
 -1     10267    3    0    1
 -2      3846      3271      3883      3900
 -1     10268    3    0    1
 -2      1029       333      2376      1989
 -1     10269    3    0    1
 -2      3400      3785      3097      2300
 -1     10270    3    0    1
 -2      3269      1519      1867      3885
 -1     10271    3    0    1
 -2      3160      2709      3388      3885
 -1     10272    3    0    1
 -2      2667      2587      2830      3885
 -1     10273    3    0    1
 -2      2667      2613      2709      3885
 -1     10274    3    0    1
 -2      3160      3388      3410      3885
 -1     10275    3    0    1
 -2      2709      3142      3388      3885
 -1     10276    3    0    1
 -2      2709      2613      3142      3885
 -1     10277    3    0    1
 -2      3388      3142      3410      3885
 -1     10278    3    0    1
 -2      1639      1562      2924      3886
 -1     10279    3    0    1
 -2      2880      1479      3051      3996
 -1     10280    3    0    1
 -2      1479      1594      3051      3996
 -1     10281    3    0    1
 -2      2638      2701      3918      3996
 -1     10282    3    0    1
 -2      3210      2820      3243      3205
 -1     10283    3    0    1
 -2      3015      3123      3383      3886
 -1     10284    3    0    1
 -2      2913      2670      2956      3886
 -1     10285    3    0    1
 -2      3123      1415      3383      3886
 -1     10286    3    0    1
 -2       947       564      2599      4030
 -1     10287    3    0    1
 -2      2820      2913      2956      3886
 -1     10288    3    0    1
 -2      2804      2670      2913      3886
 -1     10289    3    0    1
 -2      3383      1415      1888      3886
 -1     10290    3    0    1
 -2      1639      1415      3123      3886
 -1     10291    3    0    1
 -2      1683      1903      3904      3592
 -1     10292    3    0    1
 -2      2820      2846      2913      3886
 -1     10293    3    0    1
 -2      2804      2913      2924      3886
 -1     10294    3    0    1
 -2       947      2599      3756      4030
 -1     10295    3    0    1
 -2      2924      2913      3382      3886
 -1     10296    3    0    1
 -2      2913      2846      3382      3886
 -1     10297    3    0    1
 -2      3051      1594      3445      3996
 -1     10298    3    0    1
 -2      1562      1639      3123      3886
 -1     10299    3    0    1
 -2      2846      2820      3243      3886
 -1     10300    3    0    1
 -2      2820      3210      3243      3886
 -1     10301    3    0    1
 -2      2649       924      2957      3424
 -1     10302    3    0    1
 -2      1462      1676      1677      3532
 -1     10303    3    0    1
 -2      1609      3386      3391      3501
 -1     10304    3    0    1
 -2      3848       626      3454      1978
 -1     10305    3    0    1
 -2      3000      2877      3370      3888
 -1     10306    3    0    1
 -2      2877      3043      3132      3888
 -1     10307    3    0    1
 -2      3356      2930      3953      4017
 -1     10308    3    0    1
 -2      3011      3000      3370      3888
 -1     10309    3    0    1
 -2      3174      3011      3370      3888
 -1     10310    3    0    1
 -2      1452      1453      3370      1918
 -1     10311    3    0    1
 -2      1452      1719      3225      3888
 -1     10312    3    0    1
 -2      1719      1533      3225      3888
 -1     10313    3    0    1
 -2      3813      1621      1905      3670
 -1     10314    3    0    1
 -2      3083      1810      3356      3634
 -1     10315    3    0    1
 -2      2945      1221      3294      3650
 -1     10316    3    0    1
 -2      3119      2642      3846      3936
 -1     10317    3    0    1
 -2      3294      3429      3919      3650
 -1     10318    3    0    1
 -2      1711      3843      4021      3877
 -1     10319    3    0    1
 -2      1200      2683      3156      3434
 -1     10320    3    0    1
 -2      2805      1284      3817      3704
 -1     10321    3    0    1
 -2      3847      2725      3921      3975
 -1     10322    3    0    1
 -2      2838      2928      3626      3965
 -1     10323    3    0    1
 -2      1542      3780      3782      3889
 -1     10324    3    0    1
 -2       266      1721      1913      1971
 -1     10325    3    0    1
 -2       768      3648      3742      4028
 -1     10326    3    0    1
 -2      3827      1521      3921      3569
 -1     10327    3    0    1
 -2      2448      2619      3016      3889
 -1     10328    3    0    1
 -2      3842      3885      3663      3669
 -1     10329    3    0    1
 -2      1426      1425      3166      3481
 -1     10330    3    0    1
 -2      1592      3178      3905      3568
 -1     10331    3    0    1
 -2      1661      1585      3810      3969
 -1     10332    3    0    1
 -2      1507      3034      3875      1611
 -1     10333    3    0    1
 -2      1939      3265      1940      1945
 -1     10334    3    0    1
 -2       264      3837      3898      3705
 -1     10335    3    0    1
 -2      1140      2726      3967       900
 -1     10336    3    0    1
 -2      1931        18      2003      2004
 -1     10337    3    0    1
 -2      3845      1567      3878      3430
 -1     10338    3    0    1
 -2      3111      1752      3878      3933
 -1     10339    3    0    1
 -2      3279      3020      3913      1943
 -1     10340    3    0    1
 -2      1755       214      1805      3932
 -1     10341    3    0    1
 -2      3154      3114      3468      3970
 -1     10342    3    0    1
 -2      2592      2591      3874      3970
 -1     10343    3    0    1
 -2      2591      2889      3970      2592
 -1     10344    3    0    1
 -2      3453      2889      3468      3970
 -1     10345    3    0    1
 -2       263       348      3989      4016
 -1     10346    3    0    1
 -2        18        20      1931      2003
 -1     10347    3    0    1
 -2      1655      1439      1656      3559
 -1     10348    3    0    1
 -2      3057      3177      3876      3623
 -1     10349    3    0    1
 -2      3174      3358      3888      1917
 -1     10350    3    0    1
 -2       335      1865      3984      2026
 -1     10351    3    0    1
 -2      2895      2785      3196      3895
 -1     10352    3    0    1
 -2      2952      3801      3176      3895
 -1     10353    3    0    1
 -2      2768      3032      3918      3943
 -1     10354    3    0    1
 -2      3354      2768      3869      3943
 -1     10355    3    0    1
 -2      1596      3030      1748      4008
 -1     10356    3    0    1
 -2      3117      3874      3879      3433
 -1     10357    3    0    1
 -2      3213      3117      3879      3433
 -1     10358    3    0    1
 -2      1836      2968      3304      3433
 -1     10359    3    0    1
 -2      1879        12      1906      1907
 -1     10360    3    0    1
 -2      1146      2968      1836      3433
 -1     10361    3    0    1
 -2      2898      3117      3426      3433
 -1     10362    3    0    1
 -2      2985      2609      3880      3907
 -1     10363    3    0    1
 -2      1202      3156      3373      3434
 -1     10364    3    0    1
 -2      1574      1575      1811      3436
 -1     10365    3    0    1
 -2      3778      3865      3984      3993
 -1     10366    3    0    1
 -2      1528      3050      3229      3487
 -1     10367    3    0    1
 -2      3478      1473      2009      3687
 -1     10368    3    0    1
 -2      3119      3049      3846      3687
 -1     10369    3    0    1
 -2      2901      3008      3065      3890
 -1     10370    3    0    1
 -2      2784      2901      3065      3890
 -1     10371    3    0    1
 -2      2964      2680      3102      3890
 -1     10372    3    0    1
 -2      2584      2680      2964      3890
 -1     10373    3    0    1
 -2      3008      1458      3065      3890
 -1     10374    3    0    1
 -2      2636      2680      3890      3967
 -1     10375    3    0    1
 -2      3870      3847      3971      3975
 -1     10376    3    0    1
 -2      1711       106      3472      3968
 -1     10377    3    0    1
 -2      2655      2584      2964      3890
 -1     10378    3    0    1
 -2      2584      2636      2680      3890
 -1     10379    3    0    1
 -2      1645      1458      3008      3890
 -1     10380    3    0    1
 -2      1458      1622      3065      3890
 -1     10381    3    0    1
 -2      3065      1622      3374      3890
 -1     10382    3    0    1
 -2      2577      2841      3067      3891
 -1     10383    3    0    1
 -2      2597      2591      3276      3891
 -1     10384    3    0    1
 -2       793       267       790      2032
 -1     10385    3    0    1
 -2      1762      3216      3482      3667
 -1     10386    3    0    1
 -2      2597      3276      3360      3891
 -1     10387    3    0    1
 -2      1521      3921      3569      3752
 -1     10388    3    0    1
 -2      3276      2940      3324      3891
 -1     10389    3    0    1
 -2      2796      2577      3067      3891
 -1     10390    3    0    1
 -2      3067      2841      3380      3891
 -1     10391    3    0    1
 -2      2841      3180      3182      3891
 -1     10392    3    0    1
 -2      3235      3831      3509      3980
 -1     10393    3    0    1
 -2      2796      3067      3232      3891
 -1     10394    3    0    1
 -2      3232      3067      3380      3891
 -1     10395    3    0    1
 -2      3276      1863      3360      3891
 -1     10396    3    0    1
 -2      1540      3276      3324      3891
 -1     10397    3    0    1
 -2      3220      2621      3604      3980
 -1     10398    3    0    1
 -2      1863       662      3360      3891
 -1     10399    3    0    1
 -2      3276      1540      1863      3891
 -1     10400    3    0    1
 -2      2923      3002      3195      3893
 -1     10401    3    0    1
 -2       984       414      2524      4002
 -1     10402    3    0    1
 -2      3785      3800      3808      3931
 -1     10403    3    0    1
 -2      2952      3176      3298      3895
 -1     10404    3    0    1
 -2      2791      2674      3186      3895
 -1     10405    3    0    1
 -2      2785      2791      2896      3895
 -1     10406    3    0    1
 -2      3176      1419      3298      3895
 -1     10407    3    0    1
 -2      1525      1681      3176      3895
 -1     10408    3    0    1
 -2      1681      1419      3176      3895
 -1     10409    3    0    1
 -2      2674      2862      3186      3895
 -1     10410    3    0    1
 -2      2785      2655      2791      3895
 -1     10411    3    0    1
 -2      2895      1525      3176      3895
 -1     10412    3    0    1
 -2      2785      2896      3196      3895
 -1     10413    3    0    1
 -2      2771      2895      3176      3895
 -1     10414    3    0    1
 -2      1419      1791      3298      3895
 -1     10415    3    0    1
 -2      3186      2862      3339      3895
 -1     10416    3    0    1
 -2      2728      3826      3880      3907
 -1     10417    3    0    1
 -2      1444      3351      3617      1991
 -1     10418    3    0    1
 -2      3840      2634      3858      3897
 -1     10419    3    0    1
 -2      2634      3821      3858      3897
 -1     10420    3    0    1
 -2      2993      3418      3470      3943
 -1     10421    3    0    1
 -2      3819      3902      3903      3942
 -1     10422    3    0    1
 -2      1640      1907      3317      1641
 -1     10423    3    0    1
 -2      3404      3470      3418      3943
 -1     10424    3    0    1
 -2       611       140       969       605
 -1     10425    3    0    1
 -2      1485      2949      3064      1913
 -1     10426    3    0    1
 -2      3836      3783      3849      3734
 -1     10427    3    0    1
 -2      1676      3061      3883      3438
 -1     10428    3    0    1
 -2      3239      1546      1802      3439
 -1     10429    3    0    1
 -2      1546      3239      1802      1801
 -1     10430    3    0    1
 -2       267       348      2766      4016
 -1     10431    3    0    1
 -2      1067      1335      3814      3978
 -1     10432    3    0    1
 -2      3363      1546      3941      3439
 -1     10433    3    0    1
 -2      3020      3279      3913      3978
 -1     10434    3    0    1
 -2      3331      2734      3881      3979
 -1     10435    3    0    1
 -2      1551      2848      3148      3616
 -1     10436    3    0    1
 -2      2723      3111      3878      3933
 -1     10437    3    0    1
 -2      3324      2796      3891      3979
 -1     10438    3    0    1
 -2      3916      3787      4001      4027
 -1     10439    3    0    1
 -2      2889      2591      3276      3979
 -1     10440    3    0    1
 -2      3881      2734      3976      3979
 -1     10441    3    0    1
 -2      2591      2592      3234      3979
 -1     10442    3    0    1
 -2      3106      1456      1943      1944
 -1     10443    3    0    1
 -2      2723      3878      3912      3933
 -1     10444    3    0    1
 -2      1681      1419      3003      3441
 -1     10445    3    0    1
 -2      3003      1419      3284      3441
 -1     10446    3    0    1
 -2      3220      1788      3264      3441
 -1     10447    3    0    1
 -2      2782      3220      3264      3441
 -1     10448    3    0    1
 -2      1788      2782      3264      3441
 -1     10449    3    0    1
 -2      1609      1674      2933      1610
 -1     10450    3    0    1
 -2      1617      2933      3192      3735
 -1     10451    3    0    1
 -2       197      2897      1982      3708
 -1     10452    3    0    1
 -2      2531      3840      2484      3442
 -1     10453    3    0    1
 -2      3840      2531      2484      3223
 -1     10454    3    0    1
 -2      2561      3088      3223      4027
 -1     10455    3    0    1
 -2      1673      2933      1674      3735
 -1     10456    3    0    1
 -2      2933      1673      3860      3735
 -1     10457    3    0    1
 -2      3860      1673      3639      3735
 -1     10458    3    0    1
 -2      1510      3174      3358      1895
 -1     10459    3    0    1
 -2      2976      3126      3371      3955
 -1     10460    3    0    1
 -2      1832      1833      3330      3446
 -1     10461    3    0    1
 -2      1832      1669      1833      3446
 -1     10462    3    0    1
 -2      1510      3174      1895      1896
 -1     10463    3    0    1
 -2      2823      1498      3848      1978
 -1     10464    3    0    1
 -2      1247      3015      3129      3447
 -1     10465    3    0    1
 -2      1448      1447      1884      3475
 -1     10466    3    0    1
 -2      2811      2812      3015      3447
 -1     10467    3    0    1
 -2      1247      2811      3015      3447
 -1     10468    3    0    1
 -2      1903      3072      3904      3592
 -1     10469    3    0    1
 -2      3072      2850      3904      3592
 -1     10470    3    0    1
 -2      3015      2812      3886      3447
 -1     10471    3    0    1
 -2      3129      3015      3886      3447
 -1     10472    3    0    1
 -2      3027      3419      3904      3592
 -1     10473    3    0    1
 -2      1527      1247      3129      3447
 -1     10474    3    0    1
 -2      1806      3830      3838      3737
 -1     10475    3    0    1
 -2      1806      3838      1826      3737
 -1     10476    3    0    1
 -2      3899      3494      3696      3999
 -1     10477    3    0    1
 -2      3446      1915      1916      3614
 -1     10478    3    0    1
 -2      1464      1853      3398      3491
 -1     10479    3    0    1
 -2      1703      1702      1852      3491
 -1     10480    3    0    1
 -2      3147      3369      3471      3476
 -1     10481    3    0    1
 -2      2933      1673      1674      1609
 -1     10482    3    0    1
 -2      2933      3860      3639      3735
 -1     10483    3    0    1
 -2      1412      1411      3369      3476
 -1     10484    3    0    1
 -2      3840      3442      3586      3635
 -1     10485    3    0    1
 -2      3854      2894      3422      3929
 -1     10486    3    0    1
 -2        69        19      1759      1902
 -1     10487    3    0    1
 -2      3526      3261      3626      3965
 -1     10488    3    0    1
 -2      1890      3429      3650      2000
 -1     10489    3    0    1
 -2      3019      3202      3270      3944
 -1     10490    3    0    1
 -2      3807      1491      3823      3923
 -1     10491    3    0    1
 -2      2796      2577      3891      3979
 -1     10492    3    0    1
 -2      2832      1580      3147      4006
 -1     10493    3    0    1
 -2       662      2904      1863      3646
 -1     10494    3    0    1
 -2      2801      1540      1863      3646
 -1     10495    3    0    1
 -2      2998      3506      3961      3974
 -1     10496    3    0    1
 -2      3156      3373      3992      4022
 -1     10497    3    0    1
 -2       119       409      3960      4018
 -1     10498    3    0    1
 -2      2833      2813      3220      3980
 -1     10499    3    0    1
 -2      1955      1956      3608      3625
 -1     10500    3    0    1
 -2      2836      3013      3869      4007
 -1     10501    3    0    1
 -2      1142      2929      3576      3667
 -1     10502    3    0    1
 -2      3254      3172      3300      3980
 -1     10503    3    0    1
 -2      1564      2798      3092      3976
 -1     10504    3    0    1
 -2      2950      1712      1604      3510
 -1     10505    3    0    1
 -2      2950      1650      3378      3510
 -1     10506    3    0    1
 -2      3378      1712      3443      3510
 -1     10507    3    0    1
 -2      3085      1795      3299      3469
 -1     10508    3    0    1
 -2      2783      3839      3604      3980
 -1     10509    3    0    1
 -2      3016      3778      3564      3993
 -1     10510    3    0    1
 -2      3908      1755      3558      3598
 -1     10511    3    0    1
 -2      3017      3093      3228      3455
 -1     10512    3    0    1
 -2      2873      1632      3316      3950
 -1     10513    3    0    1
 -2      1755      3908      3932      3598
 -1     10514    3    0    1
 -2      3202      3019      3940      3944
 -1     10515    3    0    1
 -2      3401      3392      3904      3514
 -1     10516    3    0    1
 -2      2953      1515      2996      3913
 -1     10517    3    0    1
 -2      1683      1880      3904      3514
 -1     10518    3    0    1
 -2      1809       212      3314      3597
 -1     10519    3    0    1
 -2        19      1758      1759      1902
 -1     10520    3    0    1
 -2      2946      3058      1758      1902
 -1     10521    3    0    1
 -2      1566      1535      3150      3674
 -1     10522    3    0    1
 -2      3238      1657      3955      3672
 -1     10523    3    0    1
 -2      1434      3961      3974      3676
 -1     10524    3    0    1
 -2      1566      3150      3151      3674
 -1     10525    3    0    1
 -2      1535      2907      3150      3674
 -1     10526    3    0    1
 -2      3354      2993      3869      3519
 -1     10527    3    0    1
 -2      3219      2813      3839      3576
 -1     10528    3    0    1
 -2      2993      3346      3869      3519
 -1     10529    3    0    1
 -2      3346      1689       781       786
 -1     10530    3    0    1
 -2      1514      1513      1690      3519
 -1     10531    3    0    1
 -2      1689      3354      3869      3519
 -1     10532    3    0    1
 -2      1522      2984      3207      3524
 -1     10533    3    0    1
 -2      1683      1684      1904      3458
 -1     10534    3    0    1
 -2      3682       255      3989      4016
 -1     10535    3    0    1
 -2      1756      1900      3490      3496
 -1     10536    3    0    1
 -2      3142      1683      3410      1880
 -1     10537    3    0    1
 -2      1604      1712      3243      1713
 -1     10538    3    0    1
 -2      1683      3142      3410      3458
 -1     10539    3    0    1
 -2      1483      3777      1986      3688
 -1     10540    3    0    1
 -2      2972      1737      3448      3459
 -1     10541    3    0    1
 -2      3929      1316      2017      4023
 -1     10542    3    0    1
 -2      3113      3815      3872      3466
 -1     10543    3    0    1
 -2      1522      1523      2984      3524
 -1     10544    3    0    1
 -2      2857      2692      3406      3976
 -1     10545    3    0    1
 -2      1576      1524      2798      3976
 -1     10546    3    0    1
 -2      3114      1707      3154      3468
 -1     10547    3    0    1
 -2      3009      1644      3549      2006
 -1     10548    3    0    1
 -2      2706      2972      3448      3459
 -1     10549    3    0    1
 -2      1596      3349      3926      3563
 -1     10550    3    0    1
 -2      3171      1470      3590      3951
 -1     10551    3    0    1
 -2      3874      3180      3512      3951
 -1     10552    3    0    1
 -2      3249      3250      3366      3914
 -1     10553    3    0    1
 -2      3124      1756      3477      3498
 -1     10554    3    0    1
 -2      3366      3250      3475      3914
 -1     10555    3    0    1
 -2      1892      1496      3589      3620
 -1     10556    3    0    1
 -2      1777      3197      3590      3951
 -1     10557    3    0    1
 -2      3197      3180      3350      3951
 -1     10558    3    0    1
 -2      3171      3094      3265      3951
 -1     10559    3    0    1
 -2      2886      3462      3919      3516
 -1     10560    3    0    1
 -2      3151      3150      3844      3674
 -1     10561    3    0    1
 -2       339      1026      3887      3952
 -1     10562    3    0    1
 -2      3814      2594      3913      3950
 -1     10563    3    0    1
 -2      1661      3810      3868      3969
 -1     10564    3    0    1
 -2      3276      2940      3891      3979
 -1     10565    3    0    1
 -2      1787      1219      3294      3462
 -1     10566    3    0    1
 -2      2756      2305      3323      3484
 -1     10567    3    0    1
 -2      1853      1464      3398      3675
 -1     10568    3    0    1
 -2      2757      3852      3893      3464
 -1     10569    3    0    1
 -2      3826      3293      3876      3906
 -1     10570    3    0    1
 -2      1678      3035      3396      1963
 -1     10571    3    0    1
 -2      2850      2605      3904      3955
 -1     10572    3    0    1
 -2      3826      2728      3293      3906
 -1     10573    3    0    1
 -2      1062      2548      3144      3939
 -1     10574    3    0    1
 -2      2830      3155      3344      3464
 -1     10575    3    0    1
 -2      2705      1472      3405      3900
 -1     10576    3    0    1
 -2      2706      2972      3459      3900
 -1     10577    3    0    1
 -2      2000      3009      3671      2006
 -1     10578    3    0    1
 -2      1854      1586      3365      3727
 -1     10579    3    0    1
 -2      1289       406      3880      3983
 -1     10580    3    0    1
 -2      2700      2705      2971      3900
 -1     10581    3    0    1
 -2      2971      2705      3398      3900
 -1     10582    3    0    1
 -2      3334      2979      3459      3900
 -1     10583    3    0    1
 -2      1168      2979      3334      3900
 -1     10584    3    0    1
 -2      3009      3549      3671      2006
 -1     10585    3    0    1
 -2      2972      2971      3398      3900
 -1     10586    3    0    1
 -2      2700      1472      2705      3900
 -1     10587    3    0    1
 -2      3227      1834      3405      3900
 -1     10588    3    0    1
 -2      1472      3227      3405      3900
 -1     10589    3    0    1
 -2      2706      2971      2972      3900
 -1     10590    3    0    1
 -2      3549       236      3671      2006
 -1     10591    3    0    1
 -2      3187      1687      3429      3680
 -1     10592    3    0    1
 -2       952      2233      2455      3991
 -1     10593    3    0    1
 -2      1712      2950      1604      1603
 -1     10594    3    0    1
 -2      1713      1712      1727      3510
 -1     10595    3    0    1
 -2      3175      3085      3299      3469
 -1     10596    3    0    1
 -2      1704      1513      3418      3470
 -1     10597    3    0    1
 -2       351       350      3959      3738
 -1     10598    3    0    1
 -2      2568      2632      3805      3944
 -1     10599    3    0    1
 -2      2604      2568      2788      3944
 -1     10600    3    0    1
 -2      1545       234      1815      1922
 -1     10601    3    0    1
 -2      3921      3569      3975      4005
 -1     10602    3    0    1
 -2      1034      3782      3496      1922
 -1     10603    3    0    1
 -2       234      1545      3782      1922
 -1     10604    3    0    1
 -2       352       284      1942      1977
 -1     10605    3    0    1
 -2      2793      2723      3878      3912
 -1     10606    3    0    1
 -2      3026      1415      1888      3944
 -1     10607    3    0    1
 -2      2604      2950      3378      3944
 -1     10608    3    0    1
 -2      2737      2959      2991      3944
 -1     10609    3    0    1
 -2      2721      2945      2948      3919
 -1     10610    3    0    1
 -2      1673        47      3483      3501
 -1     10611    3    0    1
 -2      1310       427      3838      3901
 -1     10612    3    0    1
 -2      2305      3809      3938      3999
 -1     10613    3    0    1
 -2      3821      3858      3881      3901
 -1     10614    3    0    1
 -2       999      3821      3881      3901
 -1     10615    3    0    1
 -2      3783      3818      3830      3901
 -1     10616    3    0    1
 -2      2629      3783      3830      3901
 -1     10617    3    0    1
 -2      3783      2629      3818      3901
 -1     10618    3    0    1
 -2      1008      1310      3818      3901
 -1     10619    3    0    1
 -2      2629      1008      3818      3901
 -1     10620    3    0    1
 -2      2305      3777      3809      3999
 -1     10621    3    0    1
 -2      1310      1008      2424      3901
 -1     10622    3    0    1
 -2      2424      1008      2629      3901
 -1     10623    3    0    1
 -2      2433      1310      2424      3901
 -1     10624    3    0    1
 -2      1310      2433      2424       699
 -1     10625    3    0    1
 -2      3777      3983      3688      3999
 -1     10626    3    0    1
 -2      2536      2305      3159      3999
 -1     10627    3    0    1
 -2      3397      3809      3688      3999
 -1     10628    3    0    1
 -2      2433      2629      3012      3901
 -1     10629    3    0    1
 -2       999       427      1310      3901
 -1     10630    3    0    1
 -2      2433      2424      2629      3901
 -1     10631    3    0    1
 -2      3839      2813      3980      4008
 -1     10632    3    0    1
 -2        25      3405      1936      1970
 -1     10633    3    0    1
 -2      1462      3267      1837      3948
 -1     10634    3    0    1
 -2      1733      1837      3473      3948
 -1     10635    3    0    1
 -2      1733      3473      3551      3948
 -1     10636    3    0    1
 -2      1733      3551      1948      3948
 -1     10637    3    0    1
 -2      3857      1164      3513      3948
 -1     10638    3    0    1
 -2      3838      3830      3901      3998
 -1     10639    3    0    1
 -2      3914      3857      3513      3948
 -1     10640    3    0    1
 -2      3188      3111      3912      3933
 -1     10641    3    0    1
 -2      1828      1829      3313      3475
 -1     10642    3    0    1
 -2      3250      1828      3313      3475
 -1     10643    3    0    1
 -2      3844      3215      3601      3674
 -1     10644    3    0    1
 -2      1667      3466      3471      3476
 -1     10645    3    0    1
 -2      2991      1639      3270      3944
 -1     10646    3    0    1
 -2      2720      3790      3803      4005
 -1     10647    3    0    1
 -2      1449      1652      3833      3918
 -1     10648    3    0    1
 -2      2460      2681      3780      3902
 -1     10649    3    0    1
 -2      3027      3419      3884      3904
 -1     10650    3    0    1
 -2      1814      3319      1948      3982
 -1     10651    3    0    1
 -2      1837      1733      3610      3982
 -1     10652    3    0    1
 -2      2795      2700      3883      3982
 -1     10653    3    0    1
 -2      1411      3476      3471      3369
 -1     10654    3    0    1
 -2      1034      2460      3782      3902
 -1     10655    3    0    1
 -2      1034      1325      2460      3902
 -1     10656    3    0    1
 -2      2460      3780      3782      3902
 -1     10657    3    0    1
 -2      3782      3780      3819      3902
 -1     10658    3    0    1
 -2       234      1034      3782      3902
 -1     10659    3    0    1
 -2      3456      3167      3980      4008
 -1     10660    3    0    1
 -2      3104      3114      3970      3979
 -1     10661    3    0    1
 -2       236       230      1926      2000
 -1     10662    3    0    1
 -2      3460      3913      3535      3950
 -1     10663    3    0    1
 -2      3860      1685      3387      3500
 -1     10664    3    0    1
 -2      1429      1685      3860      3500
 -1     10665    3    0    1
 -2      3332      2667      3540      3965
 -1     10666    3    0    1
 -2      2681      2460      3189      3902
 -1     10667    3    0    1
 -2         1       354      1987      2008
 -1     10668    3    0    1
 -2      1034       234      1325      3902
 -1     10669    3    0    1
 -2      2404      2681      3189      3902
 -1     10670    3    0    1
 -2      2850      2605      2986      3904
 -1     10671    3    0    1
 -2      1683      1880      3419      3904
 -1     10672    3    0    1
 -2      3419      1880      3465      3904
 -1     10673    3    0    1
 -2      2850      2986      3072      3904
 -1     10674    3    0    1
 -2      3477      1779      1922      1965
 -1     10675    3    0    1
 -2      3903       248      3480      3942
 -1     10676    3    0    1
 -2      1880       608      3465      3904
 -1     10677    3    0    1
 -2       234       248      1923      1965
 -1     10678    3    0    1
 -2      3874      2591      3891      3970
 -1     10679    3    0    1
 -2      3149      3104      3154      3970
 -1     10680    3    0    1
 -2      3522      3842      3663      3669
 -1     10681    3    0    1
 -2      3108      2770      3502      3673
 -1     10682    3    0    1
 -2      3074      2832      3941      4006
 -1     10683    3    0    1
 -2      3126      1700      3662      2003
 -1     10684    3    0    1
 -2      2897       197      1982      3720
 -1     10685    3    0    1
 -2       412      1634      3343      3905
 -1     10686    3    0    1
 -2      3841       412      1846      3905
 -1     10687    3    0    1
 -2      1846       412      3343      3905
 -1     10688    3    0    1
 -2      3394      2966      3892      3926
 -1     10689    3    0    1
 -2      3300      3456      3980      4008
 -1     10690    3    0    1
 -2      2573      3796      3865      3993
 -1     10691    3    0    1
 -2      3927      3779      3957      3986
 -1     10692    3    0    1
 -2      2900      3648      3651      4028
 -1     10693    3    0    1
 -2       347       395      1950      4000
 -1     10694    3    0    1
 -2      3490      1756      1922      1923
 -1     10695    3    0    1
 -2      1728      1939      1940      3631
 -1     10696    3    0    1
 -2      3201      3842      3367      3540
 -1     10697    3    0    1
 -2       972       412      3841      3905
 -1     10698    3    0    1
 -2      1486      2838      3381      3946
 -1     10699    3    0    1
 -2      3396      1897      1898      1963
 -1     10700    3    0    1
 -2      1585      1605      2868      3905
 -1     10701    3    0    1
 -2      2868      1605      3343      3905
 -1     10702    3    0    1
 -2      2816      1585      2868      3905
 -1     10703    3    0    1
 -2      2816      2868      3178      3905
 -1     10704    3    0    1
 -2      1585      2816      2908      3905
 -1     10705    3    0    1
 -2      1605      1846      3343      3905
 -1     10706    3    0    1
 -2      1585      2908      1661      3905
 -1     10707    3    0    1
 -2       412       972      1634      3905
 -1     10708    3    0    1
 -2      2642      2658      3846      3936
 -1     10709    3    0    1
 -2      3247      2601      3341      3906
 -1     10710    3    0    1
 -2      3001      2601      3247      3906
 -1     10711    3    0    1
 -2      1600      3293      1842      3906
 -1     10712    3    0    1
 -2      2611       779      2689      3718
 -1     10713    3    0    1
 -2      3907      2792      2609      3345
 -1     10714    3    0    1
 -2      2936      1531      1874      3907
 -1     10715    3    0    1
 -2      2609      3880      2693      2934
 -1     10716    3    0    1
 -2      2609      3826      2792      3907
 -1     10717    3    0    1
 -2      1454      2936      1874      3907
 -1     10718    3    0    1
 -2      1454      1642      2936      3907
 -1     10719    3    0    1
 -2      2934      3880      2693      1483
 -1     10720    3    0    1
 -2      3482      3587      3638      4008
 -1     10721    3    0    1
 -2      3462      3485      3919      3516
 -1     10722    3    0    1
 -2      2915      3013      3645      4007
 -1     10723    3    0    1
 -2      3018      3836      3359      3734
 -1     10724    3    0    1
 -2      2582      2819      3864      4028
 -1     10725    3    0    1
 -2      2802      2742      3798      3911
 -1     10726    3    0    1
 -2      1436      2926      3084      3911
 -1     10727    3    0    1
 -2      1598      1436      3084      3911
 -1     10728    3    0    1
 -2      3127      3798      3856      3911
 -1     10729    3    0    1
 -2       975       148      1997      3740
 -1     10730    3    0    1
 -2      3158      2615      3860      4020
 -1     10731    3    0    1
 -2      3434      1873      3560      4022
 -1     10732    3    0    1
 -2      2983      3326      3660      4020
 -1     10733    3    0    1
 -2      2742      2911      3798      3911
 -1     10734    3    0    1
 -2      2926      3127      1436      1764
 -1     10735    3    0    1
 -2      3127      2926      1436      3911
 -1     10736    3    0    1
 -2      3798      2911      3856      3911
 -1     10737    3    0    1
 -2      2926      3127      3214      3911
 -1     10738    3    0    1
 -2      3214      3127      3856      3911
 -1     10739    3    0    1
 -2      1468      3565      1955      4022
 -1     10740    3    0    1
 -2      3666      3565      3692      4022
 -1     10741    3    0    1
 -2      2911      3214      3856      3911
 -1     10742    3    0    1
 -2      2625      2712      3028      3911
 -1     10743    3    0    1
 -2      2863      2625      3028      3911
 -1     10744    3    0    1
 -2      3028      2712      3218      3911
 -1     10745    3    0    1
 -2      3087      2849      3127      3911
 -1     10746    3    0    1
 -2       148       631       410      3740
 -1     10747    3    0    1
 -2      2802      2625      2863      3911
 -1     10748    3    0    1
 -2      1429      3190      3660      4020
 -1     10749    3    0    1
 -2      1436      3087      3127      3911
 -1     10750    3    0    1
 -2      2926      3028      3084      3911
 -1     10751    3    0    1
 -2      2926      2863      3028      3911
 -1     10752    3    0    1
 -2      2742      2802      2863      3911
 -1     10753    3    0    1
 -2      1436      1598      3087      3911
 -1     10754    3    0    1
 -2      2911      2863      2926      3911
 -1     10755    3    0    1
 -2      2742      2863      2911      3911
 -1     10756    3    0    1
 -2      3560      3666      3692      4022
 -1     10757    3    0    1
 -2      2911      2926      3214      3911
 -1     10758    3    0    1
 -2       402      1285      3923      3968
 -1     10759    3    0    1
 -2      1880      1881      3401      3514
 -1     10760    3    0    1
 -2      3485      2939      3919      3516
 -1     10761    3    0    1
 -2      1200      3434      1894      3486
 -1     10762    3    0    1
 -2      1776      3200      3601      3674
 -1     10763    3    0    1
 -2      2838      2695      2928      3965
 -1     10764    3    0    1
 -2       214       209      3932      3945
 -1     10765    3    0    1
 -2      1423      3848      3567      3606
 -1     10766    3    0    1
 -2       255       769       772      3722
 -1     10767    3    0    1
 -2      3819      3480      3974      3729
 -1     10768    3    0    1
 -2      3869      2612      3943      4007
 -1     10769    3    0    1
 -2      2828      2865      3894      4001
 -1     10770    3    0    1
 -2      2948      3294      3462      3919
 -1     10771    3    0    1
 -2      3423      2956      3447      3706
 -1     10772    3    0    1
 -2      3477      1779      3498      1922
 -1     10773    3    0    1
 -2      1596      1813      3584      4008
 -1     10774    3    0    1
 -2      3584      1813      3587      4008
 -1     10775    3    0    1
 -2       943        98      2992      3764
 -1     10776    3    0    1
 -2      2578      3030      3286      4008
 -1     10777    3    0    1
 -2      2650      2793      2920      3912
 -1     10778    3    0    1
 -2      3111      3010      3188      3912
 -1     10779    3    0    1
 -2      2723      2649      2957      3912
 -1     10780    3    0    1
 -2      3816      3786      3547      4011
 -1     10781    3    0    1
 -2        23      1919      1947      1948
 -1     10782    3    0    1
 -2      2593      2755      2919      3912
 -1     10783    3    0    1
 -2      3314       212      1960      3597
 -1     10784    3    0    1
 -2      2594      2978      3000      3913
 -1     10785    3    0    1
 -2      2577      3104      3970      3979
 -1     10786    3    0    1
 -2      1456      1648      3020      3913
 -1     10787    3    0    1
 -2      3878      3912      3933      4010
 -1     10788    3    0    1
 -2      1447      1828      3449      3914
 -1     10789    3    0    1
 -2      3249      2602      3250      3914
 -1     10790    3    0    1
 -2      1627      3043      1987      2008
 -1     10791    3    0    1
 -2      3507      3569      3975      3752
 -1     10792    3    0    1
 -2      3048      2602      3249      3914
 -1     10793    3    0    1
 -2      3280      2939      3485      3516
 -1     10794    3    0    1
 -2      1880      3401      3904      3514
 -1     10795    3    0    1
 -2      3787      3088      4027      2773
 -1     10796    3    0    1
 -2      1582      1581      2955      3640
 -1     10797    3    0    1
 -2       278      2415      2780      3928
 -1     10798    3    0    1
 -2      2862      1435      3818      3915
 -1     10799    3    0    1
 -2      2862      3818      3895      3915
 -1     10800    3    0    1
 -2      2674      2862      3895      3915
 -1     10801    3    0    1
 -2      1806       427      3838      3915
 -1     10802    3    0    1
 -2      3818      1806      3838      3915
 -1     10803    3    0    1
 -2      3222       427      1826      3915
 -1     10804    3    0    1
 -2       427      1806      1826      3915
 -1     10805    3    0    1
 -2      1730      1671      3444      3915
 -1     10806    3    0    1
 -2       335       433      2018      2026
 -1     10807    3    0    1
 -2      1506      3125      3141      3915
 -1     10808    3    0    1
 -2      1506      1730      3125      3915
 -1     10809    3    0    1
 -2      1506      3141      3290      3915
 -1     10810    3    0    1
 -2      3222      3056      3444      3915
 -1     10811    3    0    1
 -2      1806      3056      3222      3915
 -1     10812    3    0    1
 -2      1310       427      3204      3915
 -1     10813    3    0    1
 -2      2842      1310      3204      3915
 -1     10814    3    0    1
 -2      3056      2674      3125      3915
 -1     10815    3    0    1
 -2      3056      3125      3444      3915
 -1     10816    3    0    1
 -2      2862      2674      3056      3915
 -1     10817    3    0    1
 -2       427      1671      3204      3915
 -1     10818    3    0    1
 -2      1435      3056      1806      3915
 -1     10819    3    0    1
 -2      2674      2961      3125      3915
 -1     10820    3    0    1
 -2      1435      2862      3056      3915
 -1     10821    3    0    1
 -2      1806      3222      1826      3915
 -1     10822    3    0    1
 -2      1671      1730      3204      3915
 -1     10823    3    0    1
 -2      3125      2961      3141      3915
 -1     10824    3    0    1
 -2      1730      1506      3204      3915
 -1     10825    3    0    1
 -2      3204      1506      3290      3915
 -1     10826    3    0    1
 -2      1750      3319      3368      1919
 -1     10827    3    0    1
 -2      3059      1452      1917      1918
 -1     10828    3    0    1
 -2      1694      3039      3141      3493
 -1     10829    3    0    1
 -2      1695      1694      3141      3493
 -1     10830    3    0    1
 -2      1313      1017      3859      3958
 -1     10831    3    0    1
 -2      3967      3812      3693      3708
 -1     10832    3    0    1
 -2      2814      1017      3831      3958
 -1     10833    3    0    1
 -2       170       432      1876      3916
 -1     10834    3    0    1
 -2       432       170      3813      3916
 -1     10835    3    0    1
 -2      3799       170      3856      3916
 -1     10836    3    0    1
 -2      3856       170      1876      3916
 -1     10837    3    0    1
 -2       981      3799      3813      3916
 -1     10838    3    0    1
 -2       170       981      3813      3916
 -1     10839    3    0    1
 -2       981       170      3799      3916
 -1     10840    3    0    1
 -2      3009      1687      2000      3671
 -1     10841    3    0    1
 -2      1017      1313      3831      3958
 -1     10842    3    0    1
 -2      2602      3857      3875      4017
 -1     10843    3    0    1
 -2      3831      1313      3284      3958
 -1     10844    3    0    1
 -2      1585      3788      3905      3917
 -1     10845    3    0    1
 -2      3852      1661      3905      3917
 -1     10846    3    0    1
 -2      1431      1636      3364      3509
 -1     10847    3    0    1
 -2      2847      3252      3866      4002
 -1     10848    3    0    1
 -2      1298      3162      3852      3917
 -1     10849    3    0    1
 -2      1661       134      3868      3917
 -1     10850    3    0    1
 -2      3791      3810      3855      3917
 -1     10851    3    0    1
 -2       964      3791      3855      3917
 -1     10852    3    0    1
 -2      1661      1585      3905      3917
 -1     10853    3    0    1
 -2      1585      1661      3868      3917
 -1     10854    3    0    1
 -2      3252      2524      3866      4002
 -1     10855    3    0    1
 -2      1661      3852      3416      3917
 -1     10856    3    0    1
 -2       134      1661      3416      3917
 -1     10857    3    0    1
 -2      2459      2543      2668      3917
 -1     10858    3    0    1
 -2      1298       134      3162      3917
 -1     10859    3    0    1
 -2       964       134      1298      3917
 -1     10860    3    0    1
 -2      3411      1425      3415      3496
 -1     10861    3    0    1
 -2      3873      3411      3415      3496
 -1     10862    3    0    1
 -2      1783      3136      3873      3496
 -1     10863    3    0    1
 -2      1783      3873      3415      3496
 -1     10864    3    0    1
 -2      1425      1783      3415      3496
 -1     10865    3    0    1
 -2      3411      3120      3490      3496
 -1     10866    3    0    1
 -2      3836      1620      3348      3558
 -1     10867    3    0    1
 -2       197        11      1982      3720
 -1     10868    3    0    1
 -2      1447      1883      3914      3677
 -1     10869    3    0    1
 -2      3207      2984      1830      3593
 -1     10870    3    0    1
 -2      2016      2897      3720      2030
 -1     10871    3    0    1
 -2      2897      3693      2016      3720
 -1     10872    3    0    1
 -2      2367      2745      3991      4013
 -1     10873    3    0    1
 -2      1982        11      1983      3720
 -1     10874    3    0    1
 -2      3390      1447      3914      3677
 -1     10875    3    0    1
 -2      3166      3124      3282      3498
 -1     10876    3    0    1
 -2       114       950      2367      4013
 -1     10877    3    0    1
 -2      1936      3492      3550      3723
 -1     10878    3    0    1
 -2      2991      2959      1888      3944
 -1     10879    3    0    1
 -2      2568      2604      2632      3944
 -1     10880    3    0    1
 -2      1050      2768      3032      3918
 -1     10881    3    0    1
 -2      3202      2991      3270      3944
 -1     10882    3    0    1
 -2      2490       991      2779      4024
 -1     10883    3    0    1
 -2      2969      1328      3131      3918
 -1     10884    3    0    1
 -2       266      1050      3032      3918
 -1     10885    3    0    1
 -2      1449      2638      2701      3918
 -1     10886    3    0    1
 -2      2772      1473      3964      3700
 -1     10887    3    0    1
 -2      2638      1449      3437      3918
 -1     10888    3    0    1
 -2      2867      2604      3378      3944
 -1     10889    3    0    1
 -2      3805      3202      3940      3944
 -1     10890    3    0    1
 -2      2965      2612      3869      4007
 -1     10891    3    0    1
 -2      1449      1721      3437      3918
 -1     10892    3    0    1
 -2      1603      2950      3026      3944
 -1     10893    3    0    1
 -2       266      3032      1913      3918
 -1     10894    3    0    1
 -2      1596      1597      3030      3584
 -1     10895    3    0    1
 -2      2604      2788      3026      3944
 -1     10896    3    0    1
 -2       354      3795      3816      3963
 -1     10897    3    0    1
 -2      3187      3294      3429      3919
 -1     10898    3    0    1
 -2      2958      3071      3306      3919
 -1     10899    3    0    1
 -2      2859      2803      3825      3919
 -1     10900    3    0    1
 -2      2886      3462      3483      3919
 -1     10901    3    0    1
 -2      3294      3187      3483      3919
 -1     10902    3    0    1
 -2      3784       202      2014      2015
 -1     10903    3    0    1
 -2      3219      1760      3576      3711
 -1     10904    3    0    1
 -2      3877      1711      3968      4021
 -1     10905    3    0    1
 -2      3351      1687      1991      1992
 -1     10906    3    0    1
 -2      3071      2958      3135      3919
 -1     10907    3    0    1
 -2      3135      2958      3450      3919
 -1     10908    3    0    1
 -2      3187      2886      3483      3919
 -1     10909    3    0    1
 -2      1627       354      3816      2008
 -1     10910    3    0    1
 -2      2948      3462      3485      3919
 -1     10911    3    0    1
 -2      2958      2945      3318      3919
 -1     10912    3    0    1
 -2      2945      2721      3318      3919
 -1     10913    3    0    1
 -2      2939      2610      3280      3919
 -1     10914    3    0    1
 -2      2958      3318      3450      3919
 -1     10915    3    0    1
 -2      3071      2610      3295      3919
 -1     10916    3    0    1
 -2      2803      2610      3071      3919
 -1     10917    3    0    1
 -2      2886      2610      2939      3919
 -1     10918    3    0    1
 -2      2610      2859      3280      3919
 -1     10919    3    0    1
 -2      3909      1974      3642      3963
 -1     10920    3    0    1
 -2      2610      3187      3295      3919
 -1     10921    3    0    1
 -2       353      1068      3928      3678
 -1     10922    3    0    1
 -2      3071      3295      3306      3919
 -1     10923    3    0    1
 -2      2610      2803      2859      3919
 -1     10924    3    0    1
 -2      3359      3836      3558      3598
 -1     10925    3    0    1
 -2      2610      2886      3187      3919
 -1     10926    3    0    1
 -2       354         1      3963      2008
 -1     10927    3    0    1
 -2      3836      3359      3932      3598
 -1     10928    3    0    1
 -2      1510      3024      3119      3936
 -1     10929    3    0    1
 -2      2793      3867      3912      3517
 -1     10930    3    0    1
 -2      3386      2886      3391      3501
 -1     10931    3    0    1
 -2      3151        56      1957      3674
 -1     10932    3    0    1
 -2      3342      1481      3556      3965
 -1     10933    3    0    1
 -2      3564      1548      3595      3993
 -1     10934    3    0    1
 -2      1865      1548      3984      3993
 -1     10935    3    0    1
 -2      2898      2968      3874      3304
 -1     10936    3    0    1
 -2      1728      3171      3265      3951
 -1     10937    3    0    1
 -2      3447      3620      1527      3706
 -1     10938    3    0    1
 -2      1728      3265      3376      3951
 -1     10939    3    0    1
 -2      3778      1548      3564      3993
 -1     10940    3    0    1
 -2      3303      3564      3595      3993
 -1     10941    3    0    1
 -2       224      1032      2454      4004
 -1     10942    3    0    1
 -2       993      2147      3994      2035
 -1     10943    3    0    1
 -2      2770      2772      3108      3502
 -1     10944    3    0    1
 -2      3200      1776      3844      3674
 -1     10945    3    0    1
 -2      2998      3627      3961      3653
 -1     10946    3    0    1
 -2      3423      1470      3474      3706
 -1     10947    3    0    1
 -2      1548      3778      3984      3993
 -1     10948    3    0    1
 -2      1640      3317      1906      3504
 -1     10949    3    0    1
 -2      2561      2865      4001      4027
 -1     10950    3    0    1
 -2      3734      3830      3737      4026
 -1     10951    3    0    1
 -2       427      3838      3901      4009
 -1     10952    3    0    1
 -2      1929       655      1930      3656
 -1     10953    3    0    1
 -2      1493      1709      3317      3504
 -1     10954    3    0    1
 -2      3360       662      1929      3656
 -1     10955    3    0    1
 -2        12      1866      1906      3504
 -1     10956    3    0    1
 -2      3380       662      3891      3656
 -1     10957    3    0    1
 -2       427      3901      3998      4009
 -1     10958    3    0    1
 -2       427       183      1826      4009
 -1     10959    3    0    1
 -2      3838       427      1826      4009
 -1     10960    3    0    1
 -2       655       662      3380      3656
 -1     10961    3    0    1
 -2      1747       158      3210      3699
 -1     10962    3    0    1
 -2      1603      2846      3243      3699
 -1     10963    3    0    1
 -2       346       255       772      3722
 -1     10964    3    0    1
 -2       346       261      1949      3722
 -1     10965    3    0    1
 -2      3030      3167      3456      4008
 -1     10966    3    0    1
 -2      1737      3108      3502      3673
 -1     10967    3    0    1
 -2      2959      2867      3378      3944
 -1     10968    3    0    1
 -2      1484      1912      1913      3583
 -1     10969    3    0    1
 -2      1847       409      3715      4006
 -1     10970    3    0    1
 -2      2867      2959      3805      3944
 -1     10971    3    0    1
 -2      2750      3237      3848      3606
 -1     10972    3    0    1
 -2      1191      1776      3200      3601
 -1     10973    3    0    1
 -2      2593      2852      3867      3937
 -1     10974    3    0    1
 -2      2593      3867      3912      3937
 -1     10975    3    0    1
 -2      1161      1869      3395      3508
 -1     10976    3    0    1
 -2      3395      1869      1908      3508
 -1     10977    3    0    1
 -2      3188      2919      3451      3548
 -1     10978    3    0    1
 -2      2725      3199      3847      3972
 -1     10979    3    0    1
 -2      3503      1844      3655      2003
 -1     10980    3    0    1
 -2      3790      2608      3506      3961
 -1     10981    3    0    1
 -2      1059      3199      2417      3972
 -1     10982    3    0    1
 -2      1564      3092      3406      3976
 -1     10983    3    0    1
 -2      2720      2417      2725      3921
 -1     10984    3    0    1
 -2      1294      3789      3896      4006
 -1     10985    3    0    1
 -2      3899      3983      3999      3712
 -1     10986    3    0    1
 -2      3780      2619      3889      3974
 -1     10987    3    0    1
 -2      3074      1847      3715      4006
 -1     10988    3    0    1
 -2      3163      3175      3364      3509
 -1     10989    3    0    1
 -2      1650      1727      3378      3510
 -1     10990    3    0    1
 -2      2790      1606      3184      3511
 -1     10991    3    0    1
 -2      3826      2790      3876      3511
 -1     10992    3    0    1
 -2      3079      3826      3876      3511
 -1     10993    3    0    1
 -2      3001      3826      3259      3511
 -1     10994    3    0    1
 -2      3001      2790      3826      3511
 -1     10995    3    0    1
 -2      3184      3079      3876      3511
 -1     10996    3    0    1
 -2      2790      3184      3876      3511
 -1     10997    3    0    1
 -2      2790      3001      3259      3511
 -1     10998    3    0    1
 -2      2995      1571      1777      3591
 -1     10999    3    0    1
 -2      1640      3317      3504      3967
 -1     11000    3    0    1
 -2      3180      3182      3360      3512
 -1     11001    3    0    1
 -2      3182      1571      3360      3512
 -1     11002    3    0    1
 -2      1571      3182      3197      3512
 -1     11003    3    0    1
 -2      3182      3180      3197      3512
 -1     11004    3    0    1
 -2      3215      1581      3226      1984
 -1     11005    3    0    1
 -2       908      1692      3390      3513
 -1     11006    3    0    1
 -2      1594      1480      3414      1479
 -1     11007    3    0    1
 -2      1470      1777      1778      3590
 -1     11008    3    0    1
 -2      2022      1982      2023      3726
 -1     11009    3    0    1
 -2      2022      2023      3707      3726
 -1     11010    3    0    1
 -2      2683      2607      3156      3964
 -1     11011    3    0    1
 -2      3912      2793      3517      4010
 -1     11012    3    0    1
 -2      3394      1596      3926      3563
 -1     11013    3    0    1
 -2       402      1619      1891      3923
 -1     11014    3    0    1
 -2       402      3823       942      1856
 -1     11015    3    0    1
 -2      3823       402       942      3923
 -1     11016    3    0    1
 -2      2724      2369      2963      3923
 -1     11017    3    0    1
 -2       942       402      1285      3923
 -1     11018    3    0    1
 -2      1685      1609      3391      3516
 -1     11019    3    0    1
 -2      3391      1609      3501      3516
 -1     11020    3    0    1
 -2      2886      3391      3501      3516
 -1     11021    3    0    1
 -2      3462      2886      3501      3516
 -1     11022    3    0    1
 -2      2886      2939      3391      3516
 -1     11023    3    0    1
 -2      2536      2270      2546      4011
 -1     11024    3    0    1
 -2      2506      2536      2546      4011
 -1     11025    3    0    1
 -2      2942      3807      3642      4011
 -1     11026    3    0    1
 -2      1920        51      1921      3724
 -1     11027    3    0    1
 -2      3807      3786      3816      4011
 -1     11028    3    0    1
 -2      3807      3816      3909      4011
 -1     11029    3    0    1
 -2      2794      3807      3934      4011
 -1     11030    3    0    1
 -2      2942      3245      3934      4011
 -1     11031    3    0    1
 -2        52        51      2019      3724
 -1     11032    3    0    1
 -2      2536      2506      3934      4011
 -1     11033    3    0    1
 -2      1588      3310      3413      3924
 -1     11034    3    0    1
 -2      3090      1477      1798      3924
 -1     11035    3    0    1
 -2      1588      3090      1798      3924
 -1     11036    3    0    1
 -2      3031      2815      3046      3924
 -1     11037    3    0    1
 -2      2954      2920      3168      3924
 -1     11038    3    0    1
 -2      2954      3168      3457      3924
 -1     11039    3    0    1
 -2      2799      3031      3046      3924
 -1     11040    3    0    1
 -2      2815      2848      3046      3924
 -1     11041    3    0    1
 -2      2799      3046      3090      3924
 -1     11042    3    0    1
 -2      3168      2920      3310      3924
 -1     11043    3    0    1
 -2      2233       114      2367      3991
 -1     11044    3    0    1
 -2      3046      2848      3148      3924
 -1     11045    3    0    1
 -2      3090      3046      3375      3924
 -1     11046    3    0    1
 -2      3046      3148      3375      3924
 -1     11047    3    0    1
 -2      3168      1477      3457      3924
 -1     11048    3    0    1
 -2      2799      3090      3413      3924
 -1     11049    3    0    1
 -2      1588      3168      3310      3924
 -1     11050    3    0    1
 -2      1477      3168      1798      3924
 -1     11051    3    0    1
 -2      3168      1588      1798      3924
 -1     11052    3    0    1
 -2      1464      1853      3420      3673
 -1     11053    3    0    1
 -2      3989      2715      3697      4016
 -1     11054    3    0    1
 -2       250      3920      1962      3947
 -1     11055    3    0    1
 -2      1335      1067      3795      3978
 -1     11056    3    0    1
 -2      2715      2529      3697      4016
 -1     11057    3    0    1
 -2      1722      1522      3207      3524
 -1     11058    3    0    1
 -2      1570      1847      1569      3525
 -1     11059    3    0    1
 -2      1570      1569      3060      3525
 -1     11060    3    0    1
 -2      1533      3225      3888      1987
 -1     11061    3    0    1
 -2      3529      1533      3594      1987
 -1     11062    3    0    1
 -2       266       264      3898      1971
 -1     11063    3    0    1
 -2       753       752      2464      3527
 -1     11064    3    0    1
 -2      1908      3677      2029      3745
 -1     11065    3    0    1
 -2      1034      1320      3782      3527
 -1     11066    3    0    1
 -2      1320      1034       753      3527
 -1     11067    3    0    1
 -2       734       753      2464      3527
 -1     11068    3    0    1
 -2      3780      3782      3889      3527
 -1     11069    3    0    1
 -2      3780      2460      3782      3527
 -1     11070    3    0    1
 -2      2448      2460      3780      3527
 -1     11071    3    0    1
 -2      2448      3780      3889      3527
 -1     11072    3    0    1
 -2       752       753      1034      3527
 -1     11073    3    0    1
 -2       752      1034      2460      3527
 -1     11074    3    0    1
 -2      2460      1034      3782      3527
 -1     11075    3    0    1
 -2       753      1026      1320      3527
 -1     11076    3    0    1
 -2       753       734      1026      3527
 -1     11077    3    0    1
 -2       990       186      1307      3925
 -1     11078    3    0    1
 -2       215       202      3784      2015
 -1     11079    3    0    1
 -2      1555      3112      3146      3528
 -1     11080    3    0    1
 -2      1558        19      1758      3528
 -1     11081    3    0    1
 -2      1555      1492      3112      3528
 -1     11082    3    0    1
 -2      3078      1558      1758      3528
 -1     11083    3    0    1
 -2      1549      3078      1758      3528
 -1     11084    3    0    1
 -2        56       273      1938      3616
 -1     11085    3    0    1
 -2      1423      3178      1933      3568
 -1     11086    3    0    1
 -2      2816      3852      3905      3568
 -1     11087    3    0    1
 -2      1462      3096      3438      3580
 -1     11088    3    0    1
 -2      3503      3876      3623      3966
 -1     11089    3    0    1
 -2      2672      3811      3047      3936
 -1     11090    3    0    1
 -2      3789      3809      3896      3938
 -1     11091    3    0    1
 -2       346       255      2480      3682
 -1     11092    3    0    1
 -2      2826      3394      3892      3926
 -1     11093    3    0    1
 -2      1468      1955      1956      3608
 -1     11094    3    0    1
 -2      3230      1421      3349      3926
 -1     11095    3    0    1
 -2      3794      1548      1845      3564
 -1     11096    3    0    1
 -2      3825      2803      3873      3949
 -1     11097    3    0    1
 -2      3823      2672      3529      3936
 -1     11098    3    0    1
 -2      3049      3115      3119      3936
 -1     11099    3    0    1
 -2      3384      2645      3520      3936
 -1     11100    3    0    1
 -2      2645      3024      3520      3936
 -1     11101    3    0    1
 -2       114      2367      3991      4013
 -1     11102    3    0    1
 -2      3933      3430      3552      3596
 -1     11103    3    0    1
 -2      2826      3134      3394      3926
 -1     11104    3    0    1
 -2      1421      1813      3349      3926
 -1     11105    3    0    1
 -2      1813      1596      3349      3926
 -1     11106    3    0    1
 -2      2781      2635      3080      3926
 -1     11107    3    0    1
 -2      2635      2781      3230      3926
 -1     11108    3    0    1
 -2      3275      2966      3394      3926
 -1     11109    3    0    1
 -2       407       122      3817      3704
 -1     11110    3    0    1
 -2      2872      2635      3230      3926
 -1     11111    3    0    1
 -2      2658      2892      3846      3936
 -1     11112    3    0    1
 -2      2872      3230      3349      3926
 -1     11113    3    0    1
 -2      1596      3275      3394      3926
 -1     11114    3    0    1
 -2      2826      2635      2872      3926
 -1     11115    3    0    1
 -2      3293      3906      3600      3966
 -1     11116    3    0    1
 -2      2749      3318      3873      3949
 -1     11117    3    0    1
 -2      2435      1324      2761      3682
 -1     11118    3    0    1
 -2      1596      1813      3275      3926
 -1     11119    3    0    1
 -2      2826      2872      3134      3926
 -1     11120    3    0    1
 -2      1813      1421      3275      3926
 -1     11121    3    0    1
 -2       973      2656      3337      3962
 -1     11122    3    0    1
 -2      1834        25      3405      1936
 -1     11123    3    0    1
 -2       339       231      1954      3952
 -1     11124    3    0    1
 -2      1026      3794      3887      3952
 -1     11125    3    0    1
 -2      1456      3279      3913      1943
 -1     11126    3    0    1
 -2      2415       278      3824      3928
 -1     11127    3    0    1
 -2      3883      3271      3580      3982
 -1     11128    3    0    1
 -2      2525      1068      2780      3928
 -1     11129    3    0    1
 -2      2525      2759      3824      3928
 -1     11130    3    0    1
 -2      2759      2525      2780      3928
 -1     11131    3    0    1
 -2      3271      3883      3900      3982
 -1     11132    3    0    1
 -2      3227      3271      3900      3982
 -1     11133    3    0    1
 -2      3227      1814      3271      3982
 -1     11134    3    0    1
 -2      3319      3368      3610      3982
 -1     11135    3    0    1
 -2      2415      2759      2780      3928
 -1     11136    3    0    1
 -2      3880       406      1986      3983
 -1     11137    3    0    1
 -2      2779       991      1300      3698
 -1     11138    3    0    1
 -2      1745      1502      3531      3679
 -1     11139    3    0    1
 -2      1597      1596      1749      3563
 -1     11140    3    0    1
 -2      1733      1734      1838      3610
 -1     11141    3    0    1
 -2      2839      1026      2884      3929
 -1     11142    3    0    1
 -2      1026       339      3887      3929
 -1     11143    3    0    1
 -2       433       335      1966      3985
 -1     11144    3    0    1
 -2       335      3910      1966      3985
 -1     11145    3    0    1
 -2       335       433      3984      3985
 -1     11146    3    0    1
 -2      3523      1795      2017      2018
 -1     11147    3    0    1
 -2      2829      3101      3412      3929
 -1     11148    3    0    1
 -2      3101      2829      3854      3929
 -1     11149    3    0    1
 -2      1796      1795      3523      2018
 -1     11150    3    0    1
 -2      3914      3366      3628      3681
 -1     11151    3    0    1
 -2      3887       339      1915      3929
 -1     11152    3    0    1
 -2       335       433      1966      2018
 -1     11153    3    0    1
 -2      1883      1824      1884      3681
 -1     11154    3    0    1
 -2      1824      1908      1909      3681
 -1     11155    3    0    1
 -2      2894      1548      1845      3929
 -1     11156    3    0    1
 -2      1026      2839      3422      3929
 -1     11157    3    0    1
 -2      1548      2829      3412      3929
 -1     11158    3    0    1
 -2      1865      1548      3412      3929
 -1     11159    3    0    1
 -2      2829      1548      2894      3929
 -1     11160    3    0    1
 -2      2884      1316      3101      3929
 -1     11161    3    0    1
 -2       339      1026      3422      3929
 -1     11162    3    0    1
 -2       339      3422      1915      3929
 -1     11163    3    0    1
 -2      3822       990      3925      4025
 -1     11164    3    0    1
 -2      3331      3234      3881      3644
 -1     11165    3    0    1
 -2       347       758       751      1950
 -1     11166    3    0    1
 -2      1557      1556      1808      3572
 -1     11167    3    0    1
 -2       106       402      1891      3930
 -1     11168    3    0    1
 -2      1891      1619      3472      3930
 -1     11169    3    0    1
 -2       758       347       395      1950
 -1     11170    3    0    1
 -2       106      1891      3472      3930
 -1     11171    3    0    1
 -2      2909      2856      3233      3611
 -1     11172    3    0    1
 -2      2632      3055      3593      3611
 -1     11173    3    0    1
 -2      1487      1960      3597      3609
 -1     11174    3    0    1
 -2        95        98       943      3764
 -1     11175    3    0    1
 -2      3693      2897      3708      3726
 -1     11176    3    0    1
 -2        98      2426      2992      3757
 -1     11177    3    0    1
 -2      3991        95      4013      3757
 -1     11178    3    0    1
 -2      1011      3987      2012      3758
 -1     11179    3    0    1
 -2       950       114      3689      4013
 -1     11180    3    0    1
 -2      3471      3103      3369      4012
 -1     11181    3    0    1
 -2      3369      3466      3471      4012
 -1     11182    3    0    1
 -2        95       400      3991      4013
 -1     11183    3    0    1
 -2      3708      2897      3720      3726
 -1     11184    3    0    1
 -2      3465      3401      3725      4012
 -1     11185    3    0    1
 -2      3725      3465      1519      1867
 -1     11186    3    0    1
 -2      3103      1519      3725      4012
 -1     11187    3    0    1
 -2      3808       412      3853      3931
 -1     11188    3    0    1
 -2       972      2543      3917      3931
 -1     11189    3    0    1
 -2      3841       972      3905      3931
 -1     11190    3    0    1
 -2      3802      3841      3905      3931
 -1     11191    3    0    1
 -2       412      3841      3853      3931
 -1     11192    3    0    1
 -2       412       972      3841      3931
 -1     11193    3    0    1
 -2      2668      3788      3917      3931
 -1     11194    3    0    1
 -2      3788      2668      3400      3931
 -1     11195    3    0    1
 -2      3802      3905      3917      3931
 -1     11196    3    0    1
 -2      2543      2668      3917      3931
 -1     11197    3    0    1
 -2      3852       972      3917      3931
 -1     11198    3    0    1
 -2       972      3852      3905      3931
 -1     11199    3    0    1
 -2      3905      3852      3917      3931
 -1     11200    3    0    1
 -2      2543      3097      3400      3931
 -1     11201    3    0    1
 -2       972       412      1301      3931
 -1     11202    3    0    1
 -2      2668      2543      3400      3931
 -1     11203    3    0    1
 -2      2830      2667      3885      3543
 -1     11204    3    0    1
 -2      3842      2667      3540      3543
 -1     11205    3    0    1
 -2      2667      3842      3885      3543
 -1     11206    3    0    1
 -2      3201      3842      3540      3543
 -1     11207    3    0    1
 -2      3842      3201      3885      3543
 -1     11208    3    0    1
 -2      3885      3464      2830      3543
 -1     11209    3    0    1
 -2      3464      3885      2830      3893
 -1     11210    3    0    1
 -2      3542      3098      1978      1979
 -1     11211    3    0    1
 -2      3098      2830      3542      3543
 -1     11212    3    0    1
 -2      2667      2830      3098      3543
 -1     11213    3    0    1
 -2       214      3818      3321      1952
 -1     11214    3    0    1
 -2       351      2492      2786      3939
 -1     11215    3    0    1
 -2      2492      1056      3144      3939
 -1     11216    3    0    1
 -2        24        23      1947      1967
 -1     11217    3    0    1
 -2      1443      3351      1991      1992
 -1     11218    3    0    1
 -2      1444      3351      3431      3617
 -1     11219    3    0    1
 -2      1411      1412      3369      3546
 -1     11220    3    0    1
 -2      1412      1411      1660      3546
 -1     11221    3    0    1
 -2      3465      3884      3904      4012
 -1     11222    3    0    1
 -2      1519      1520      1660      3546
 -1     11223    3    0    1
 -2      1411      3369      3471      3546
 -1     11224    3    0    1
 -2      1659      1411      3471      3546
 -1     11225    3    0    1
 -2      2003      2004      2005      3672
 -1     11226    3    0    1
 -2      1576      1885      3927      3976
 -1     11227    3    0    1
 -2      2798      1564      1696      3976
 -1     11228    3    0    1
 -2      3831      2782      3441      3980
 -1     11229    3    0    1
 -2      1885       186      3927      3976
 -1     11230    3    0    1
 -2       186      3406      3881      3976
 -1     11231    3    0    1
 -2      2736      2814      3831      3980
 -1     11232    3    0    1
 -2      3815      3872      3466      4012
 -1     11233    3    0    1
 -2      3872      3052      3884      4012
 -1     11234    3    0    1
 -2      1524      2692      2798      3976
 -1     11235    3    0    1
 -2      1576      2798      3661      3976
 -1     11236    3    0    1
 -2       186      1885      3661      3976
 -1     11237    3    0    1
 -2      1696       186      3661      3976
 -1     11238    3    0    1
 -2      1500      3036      3116      3555
 -1     11239    3    0    1
 -2      2883      2800      3879      3554
 -1     11240    3    0    1
 -2      3352      3068      3926      3553
 -1     11241    3    0    1
 -2      3117      3213      3879      3554
 -1     11242    3    0    1
 -2      2800      3117      3879      3554
 -1     11243    3    0    1
 -2      2575      3017      3873      3949
 -1     11244    3    0    1
 -2      3450      3135      3919      3949
 -1     11245    3    0    1
 -2      1622      2883      3879      3554
 -1     11246    3    0    1
 -2      1644      1476      3009      3549
 -1     11247    3    0    1
 -2      3779      1573      3925      3986
 -1     11248    3    0    1
 -2      1476      2781      3009      3549
 -1     11249    3    0    1
 -2      3825      3318      3919      3949
 -1     11250    3    0    1
 -2      3093      1517      3455      3949
 -1     11251    3    0    1
 -2      3017      3228      3873      3949
 -1     11252    3    0    1
 -2      1500      3116      3257      3555
 -1     11253    3    0    1
 -2      3116      3036      3257      3555
 -1     11254    3    0    1
 -2      3351      3553      1991      3671
 -1     11255    3    0    1
 -2      3021      2734      3331      3979
 -1     11256    3    0    1
 -2      1687      3351      1991      3671
 -1     11257    3    0    1
 -2      3111      1059      3878      1942
 -1     11258    3    0    1
 -2      1752      3111      3878      1942
 -1     11259    3    0    1
 -2      3862      3790      3920      3961
 -1     11260    3    0    1
 -2      1456      3106      1943      3933
 -1     11261    3    0    1
 -2      1939       168      1964      3620
 -1     11262    3    0    1
 -2      3878      1752      3430      3933
 -1     11263    3    0    1
 -2      3886      3129      3447      3620
 -1     11264    3    0    1
 -2      3188      3912      3548      3933
 -1     11265    3    0    1
 -2      3106      1456      3107      3933
 -1     11266    3    0    1
 -2      2593      2755      3912      3933
 -1     11267    3    0    1
 -2      2918      2593      3912      3933
 -1     11268    3    0    1
 -2      2755      2919      3912      3933
 -1     11269    3    0    1
 -2      3912      2919      3548      3933
 -1     11270    3    0    1
 -2      1648      3188      3548      3933
 -1     11271    3    0    1
 -2      1456      1648      3107      3933
 -1     11272    3    0    1
 -2      3107      1648      3548      3933
 -1     11273    3    0    1
 -2      2755      2669      3106      3933
 -1     11274    3    0    1
 -2       284      1941      1942      1977
 -1     11275    3    0    1
 -2      2755      3106      3107      3933
 -1     11276    3    0    1
 -2      1752      3111      1943      3933
 -1     11277    3    0    1
 -2      3111      1456      1943      3933
 -1     11278    3    0    1
 -2      2669      2755      2918      3933
 -1     11279    3    0    1
 -2      2755      2593      2918      3933
 -1     11280    3    0    1
 -2      1648      3111      3188      3933
 -1     11281    3    0    1
 -2      2919      2755      3548      3933
 -1     11282    3    0    1
 -2      2755      3107      3548      3933
 -1     11283    3    0    1
 -2      1648      1456      3111      3933
 -1     11284    3    0    1
 -2      1284       117      3817      3704
 -1     11285    3    0    1
 -2      3068      3287      3926      3553
 -1     11286    3    0    1
 -2      1608      1942      3615      1977
 -1     11287    3    0    1
 -2      1436      1437      1765      3618
 -1     11288    3    0    1
 -2      2889      3891      3970      3979
 -1     11289    3    0    1
 -2      1449      3790      3862      3961
 -1     11290    3    0    1
 -2      1908      1824      1909      3665
 -1     11291    3    0    1
 -2      1608       352      1942      1977
 -1     11292    3    0    1
 -2      1509      3352      3549      3553
 -1     11293    3    0    1
 -2      1509      1249      3352      3553
 -1     11294    3    0    1
 -2      3009      2781      3351      3553
 -1     11295    3    0    1
 -2      3862      3920      3947      3961
 -1     11296    3    0    1
 -2      3395      1908      1932      3665
 -1     11297    3    0    1
 -2      1845      3794      3564      3579
 -1     11298    3    0    1
 -2      3036      2874      3884      3555
 -1     11299    3    0    1
 -2      3872      3211      3884      3555
 -1     11300    3    0    1
 -2      2874      3872      3884      3555
 -1     11301    3    0    1
 -2      3889      3185      3564      3579
 -1     11302    3    0    1
 -2      3794      3889      3564      3579
 -1     11303    3    0    1
 -2      3842      3367      3540      3965
 -1     11304    3    0    1
 -2      1912       264      1913      1971
 -1     11305    3    0    1
 -2      2874      3036      3075      3555
 -1     11306    3    0    1
 -2      1429      1924      1925      3599
 -1     11307    3    0    1
 -2      1430      1429      1925      3599
 -1     11308    3    0    1
 -2      2900      1543      1870      3651
 -1     11309    3    0    1
 -2      1800        23      3497      1948
 -1     11310    3    0    1
 -2        23      1814      3319      1948
 -1     11311    3    0    1
 -2        23      3319      1919      1948
 -1     11312    3    0    1
 -2      1924      3076      1925      3599
 -1     11313    3    0    1
 -2       354      1797      3909      1974
 -1     11314    3    0    1
 -2      1620      3836      3908      3558
 -1     11315    3    0    1
 -2      1755      1620      3908      3558
 -1     11316    3    0    1
 -2      3877      2963      3923      3934
 -1     11317    3    0    1
 -2      3877      3923      3930      3934
 -1     11318    3    0    1
 -2      2724      3807      3923      3934
 -1     11319    3    0    1
 -2      3923      3807      3930      3934
 -1     11320    3    0    1
 -2      2963      2724      3923      3934
 -1     11321    3    0    1
 -2      2724      2794      3807      3934
 -1     11322    3    0    1
 -2      2552      3987      3746      3758
 -1     11323    3    0    1
 -2      3877      3245      3494      3934
 -1     11324    3    0    1
 -2      3843      3877      3494      3934
 -1     11325    3    0    1
 -2      2536      2506      3494      3934
 -1     11326    3    0    1
 -2      2411       347      3820      4000
 -1     11327    3    0    1
 -2      2411      3820      3536      4000
 -1     11328    3    0    1
 -2      3843      2506      3999      2595
 -1     11329    3    0    1
 -2      1619      1491      3472      3934
 -1     11330    3    0    1
 -2       197        11      3720      2030
 -1     11331    3    0    1
 -2      2506      2724      2963      3934
 -1     11332    3    0    1
 -2      2942      3245      3472      3934
 -1     11333    3    0    1
 -2      2724      2506      2794      3934
 -1     11334    3    0    1
 -2      1519      1520      3546      3725
 -1     11335    3    0    1
 -2      3245      2536      3494      3934
 -1     11336    3    0    1
 -2      1519      1867      1868      3725
 -1     11337    3    0    1
 -2      3914      3513      3677      3745
 -1     11338    3    0    1
 -2      3910       335      3958      3985
 -1     11339    3    0    1
 -2      2806      3184      3262      3559
 -1     11340    3    0    1
 -2      1440      1439      3385      3559
 -1     11341    3    0    1
 -2      1439      1440      1656      3559
 -1     11342    3    0    1
 -2      2806      3177      3184      3559
 -1     11343    3    0    1
 -2      1439      1655      3177      3559
 -1     11344    3    0    1
 -2      3177      1655      3184      3559
 -1     11345    3    0    1
 -2      3068      2966      3926      3935
 -1     11346    3    0    1
 -2      2966      3068      3173      3935
 -1     11347    3    0    1
 -2      2635      3080      3926      3935
 -1     11348    3    0    1
 -2      3336      3854      3372      3935
 -1     11349    3    0    1
 -2      3118      3336      3372      3935
 -1     11350    3    0    1
 -2      2970      3854      3336      3935
 -1     11351    3    0    1
 -2      3118       732      3399      3935
 -1     11352    3    0    1
 -2       732      3118      3372      3935
 -1     11353    3    0    1
 -2      1861      3301      3399      3935
 -1     11354    3    0    1
 -2      3287      3080      3467      3935
 -1     11355    3    0    1
 -2      1559      3301      1861      3935
 -1     11356    3    0    1
 -2       732      1861      3399      3935
 -1     11357    3    0    1
 -2      1559      3287      3467      3935
 -1     11358    3    0    1
 -2      3301      1559      3467      3935
 -1     11359    3    0    1
 -2      3173      3068      3287      3935
 -1     11360    3    0    1
 -2      3221      3173      3372      3935
 -1     11361    3    0    1
 -2      2623      2970      3004      3935
 -1     11362    3    0    1
 -2      2635      2826      3004      3935
 -1     11363    3    0    1
 -2      2635      3004      3301      3935
 -1     11364    3    0    1
 -2      3173      3287      3372      3935
 -1     11365    3    0    1
 -2      3004      3118      3399      3935
 -1     11366    3    0    1
 -2      3004      2970      3118      3935
 -1     11367    3    0    1
 -2      3301      3004      3399      3935
 -1     11368    3    0    1
 -2      3080      2635      3301      3935
 -1     11369    3    0    1
 -2      3287      1861      3372      3935
 -1     11370    3    0    1
 -2      3118      2970      3336      3935
 -1     11371    3    0    1
 -2      3080      3301      3467      3935
 -1     11372    3    0    1
 -2      3287      1559      1861      3935
 -1     11373    3    0    1
 -2      1861       732      3372      3935
 -1     11374    3    0    1
 -2      2590      2645      3384      3936
 -1     11375    3    0    1
 -2      1510      3115      1917      3936
 -1     11376    3    0    1
 -2      2590      2642      2645      3936
 -1     11377    3    0    1
 -2      2645      2642      2673      3936
 -1     11378    3    0    1
 -2      2672      2590      3384      3936
 -1     11379    3    0    1
 -2      1917      3115      3529      3936
 -1     11380    3    0    1
 -2      2642      2590      2658      3936
 -1     11381    3    0    1
 -2      2658      2590      2892      3936
 -1     11382    3    0    1
 -2      2590      2672      3047      3936
 -1     11383    3    0    1
 -2      3059      2672      3384      3936
 -1     11384    3    0    1
 -2      2852      2919      2981      3937
 -1     11385    3    0    1
 -2      2852      2981      3538      3937
 -1     11386    3    0    1
 -2      3010      2957      3425      3937
 -1     11387    3    0    1
 -2      2852      2593      2919      3937
 -1     11388    3    0    1
 -2      3031      2852      3095      3937
 -1     11389    3    0    1
 -2      2799      2852      3031      3937
 -1     11390    3    0    1
 -2      3095      2852      3538      3937
 -1     11391    3    0    1
 -2       804      3010      3425      3937
 -1     11392    3    0    1
 -2      2957      3037      3425      3937
 -1     11393    3    0    1
 -2      2981      2919      3451      3937
 -1     11394    3    0    1
 -2      1632       804      3425      3937
 -1     11395    3    0    1
 -2      3031      3095      3537      3937
 -1     11396    3    0    1
 -2      3037      1586      3425      3937
 -1     11397    3    0    1
 -2      1586      1632      3425      3937
 -1     11398    3    0    1
 -2      3010       804      1849      3937
 -1     11399    3    0    1
 -2      3188      3010      1849      3937
 -1     11400    3    0    1
 -2      1319      2163      3643      4000
 -1     11401    3    0    1
 -2      1483      3809      3397      3938
 -1     11402    3    0    1
 -2      3809      1483      1790      3938
 -1     11403    3    0    1
 -2      1899      1790      3544      3938
 -1     11404    3    0    1
 -2       119      1899      3544      3938
 -1     11405    3    0    1
 -2      3484      1693      3544      3938
 -1     11406    3    0    1
 -2      3323      3484      3544      3938
 -1     11407    3    0    1
 -2      1790      3397      3544      3938
 -1     11408    3    0    1
 -2      1882       119      3544      3938
 -1     11409    3    0    1
 -2      1580      1693      3484      3938
 -1     11410    3    0    1
 -2      1693      1882      3544      3938
 -1     11411    3    0    1
 -2      3397      3323      3544      3938
 -1     11412    3    0    1
 -2      1790      1483      3397      3938
 -1     11413    3    0    1
 -2      3321       214      1629      1630
 -1     11414    3    0    1
 -2      3561      1447      1884      3566
 -1     11415    3    0    1
 -2      1447      3561      1884      1883
 -1     11416    3    0    1
 -2      1447      1828      1829      3566
 -1     11417    3    0    1
 -2      1702      1853      3491      3675
 -1     11418    3    0    1
 -2      1828      3248      3341      3566
 -1     11419    3    0    1
 -2      1829      1828      3341      3566
 -1     11420    3    0    1
 -2      3398      2972      3900      3675
 -1     11421    3    0    1
 -2      1634      3800      3428      3567
 -1     11422    3    0    1
 -2      1592      1634      3428      3567
 -1     11423    3    0    1
 -2      3800      2994      3428      3567
 -1     11424    3    0    1
 -2      2994      3800      3851      3567
 -1     11425    3    0    1
 -2      1816      1423      3848      3567
 -1     11426    3    0    1
 -2      3242      1816      3848      3567
 -1     11427    3    0    1
 -2      3852      3893      3464      3568
 -1     11428    3    0    1
 -2      3852      2816      3893      3568
 -1     11429    3    0    1
 -2      2816      3155      3893      3568
 -1     11430    3    0    1
 -2      3155      2816      3178      3568
 -1     11431    3    0    1
 -2      1651      1521      3827      3569
 -1     11432    3    0    1
 -2      3620      3589      3631      3706
 -1     11433    3    0    1
 -2      1470      3423      3447      3706
 -1     11434    3    0    1
 -2      1524      3821      3881      3976
 -1     11435    3    0    1
 -2      3254      3235      3509      3980
 -1     11436    3    0    1
 -2      3881      3821      3927      3976
 -1     11437    3    0    1
 -2      1939       168      3620      3706
 -1     11438    3    0    1
 -2      1651      3827      3837      3569
 -1     11439    3    0    1
 -2      2956      3589      3620      3706
 -1     11440    3    0    1
 -2      1939      3620      3631      3706
 -1     11441    3    0    1
 -2      3795      1627      3043      1987
 -1     11442    3    0    1
 -2      3060      1460      3633      1958
 -1     11443    3    0    1
 -2      3812      2787      3693      3708
 -1     11444    3    0    1
 -2      3192      3860      1980      3639
 -1     11445    3    0    1
 -2      3838      3830      3998      4026
 -1     11446    3    0    1
 -2      1530      1531      1874      3570
 -1     11447    3    0    1
 -2      3152      1569      1958      1959
 -1     11448    3    0    1
 -2      1874      3362      1875      3570
 -1     11449    3    0    1
 -2      1530      1874      1875      3570
 -1     11450    3    0    1
 -2      3780      3819      3974      3729
 -1     11451    3    0    1
 -2      1468      1854      1855      3571
 -1     11452    3    0    1
 -2      1855      1854      3365      3571
 -1     11453    3    0    1
 -2       406       430      1996      2002
 -1     11454    3    0    1
 -2      1315       224      2454      4014
 -1     11455    3    0    1
 -2      3690      2454      4004      4014
 -1     11456    3    0    1
 -2      2374      3690      4004      4014
 -1     11457    3    0    1
 -2      3364      1556      1637      3572
 -1     11458    3    0    1
 -2      1556      3364      1637      1636
 -1     11459    3    0    1
 -2      1556      1807      1808      3572
 -1     11460    3    0    1
 -2      3235      3254      3509      3572
 -1     11461    3    0    1
 -2      1807      3167      1808      3572
 -1     11462    3    0    1
 -2      3254      3235      3456      3572
 -1     11463    3    0    1
 -2      3235      3167      3456      3572
 -1     11464    3    0    1
 -2      3167      1807      3456      3572
 -1     11465    3    0    1
 -2      3254      1556      3509      3572
 -1     11466    3    0    1
 -2      1807      1556      3456      3572
 -1     11467    3    0    1
 -2      1556      3254      3456      3572
 -1     11468    3    0    1
 -2      3322      3844      3461      3573
 -1     11469    3    0    1
 -2      1798      3322      3461      3573
 -1     11470    3    0    1
 -2      3844      1798      3278      3573
 -1     11471    3    0    1
 -2      1798      1477      3278      3573
 -1     11472    3    0    1
 -2      2580      2616      3805      3940
 -1     11473    3    0    1
 -2      2737      2580      3805      3940
 -1     11474    3    0    1
 -2      2888      2616      3848      3940
 -1     11475    3    0    1
 -2      2616      2888      3805      3940
 -1     11476    3    0    1
 -2      3805      3207      3524      3940
 -1     11477    3    0    1
 -2      3805      2888      3207      3940
 -1     11478    3    0    1
 -2      2702      2823      3848      3940
 -1     11479    3    0    1
 -2      3848      2823      3454      3940
 -1     11480    3    0    1
 -2      2984      2568      3805      3940
 -1     11481    3    0    1
 -2      3207      3086      3524      3940
 -1     11482    3    0    1
 -2      2984      3805      3524      3940
 -1     11483    3    0    1
 -2       626      2888      3848      3940
 -1     11484    3    0    1
 -2      3086       626      3454      3940
 -1     11485    3    0    1
 -2       626      3086      3207      3940
 -1     11486    3    0    1
 -2      3183      2737      3202      3940
 -1     11487    3    0    1
 -2      2729      2702      2738      3940
 -1     11488    3    0    1
 -2      2568      2702      2729      3940
 -1     11489    3    0    1
 -2      2568      2729      3019      3940
 -1     11490    3    0    1
 -2      2729      2738      3179      3940
 -1     11491    3    0    1
 -2      2580      2737      3183      3940
 -1     11492    3    0    1
 -2      2702      2752      3454      3940
 -1     11493    3    0    1
 -2      2702      2568      2752      3940
 -1     11494    3    0    1
 -2      2823      2702      3454      3940
 -1     11495    3    0    1
 -2      2752      2568      2984      3940
 -1     11496    3    0    1
 -2      3086      2752      3524      3940
 -1     11497    3    0    1
 -2      2752      2984      3524      3940
 -1     11498    3    0    1
 -2      2888       626      3207      3940
 -1     11499    3    0    1
 -2      2752      3086      3454      3940
 -1     11500    3    0    1
 -2      1546      3363      3941      1460
 -1     11501    3    0    1
 -2      2022      3707      3708      3726
 -1     11502    3    0    1
 -2      3152      2837      3363      3941
 -1     11503    3    0    1
 -2      3521      1569      1958      3941
 -1     11504    3    0    1
 -2      1460      3521      1958      3941
 -1     11505    3    0    1
 -2      3074      2832      3152      3941
 -1     11506    3    0    1
 -2      2832      2837      3152      3941
 -1     11507    3    0    1
 -2      3363      2837      3439      3941
 -1     11508    3    0    1
 -2      1294      1569      3521      3941
 -1     11509    3    0    1
 -2      2832      3147      3369      3941
 -1     11510    3    0    1
 -2      2832      2588      2837      3941
 -1     11511    3    0    1
 -2      2837      3239      3439      3941
 -1     11512    3    0    1
 -2      1770      1626      3216      3602
 -1     11513    3    0    1
 -2      3847      2725      3975      4011
 -1     11514    3    0    1
 -2      3255      3253      1984      3652
 -1     11515    3    0    1
 -2      3066      2643      3255      3652
 -1     11516    3    0    1
 -2      2739      3273      3488      4020
 -1     11517    3    0    1
 -2       511      2611      3718      3754
 -1     11518    3    0    1
 -2      3253      1935      1984      3652
 -1     11519    3    0    1
 -2      2643      1561      3253      3652
 -1     11520    3    0    1
 -2      1581      3066      3255      3652
 -1     11521    3    0    1
 -2      1582      1581      1985      3652
 -1     11522    3    0    1
 -2      1573      1751      3957      3986
 -1     11523    3    0    1
 -2      2795      3883      3438      3580
 -1     11524    3    0    1
 -2       406       949      3977      3983
 -1     11525    3    0    1
 -2        51      1920      1928      3679
 -1     11526    3    0    1
 -2      1421      3482      3587      3638
 -1     11527    3    0    1
 -2      1725      1481      3055      3611
 -1     11528    3    0    1
 -2      3777      1289      3880      3983
 -1     11529    3    0    1
 -2      3424      1928      3954      3679
 -1     11530    3    0    1
 -2      3429      1687      2000      3680
 -1     11531    3    0    1
 -2      1700        20      3662      2003
 -1     11532    3    0    1
 -2      3804      1325      3498      3981
 -1     11533    3    0    1
 -2      2838      2987      3381      3946
 -1     11534    3    0    1
 -2      3032      1913      3918      3583
 -1     11535    3    0    1
 -2      3032      1485      1913      3583
 -1     11536    3    0    1
 -2      3522      3842      3669      4015
 -1     11537    3    0    1
 -2      3218      2712      3685      4019
 -1     11538    3    0    1
 -2      1421      1422      1812      3587
 -1     11539    3    0    1
 -2      2930      3244      3953      4017
 -1     11540    3    0    1
 -2      1876      1568      3916      3736
 -1     11541    3    0    1
 -2        95      2426      3757      3769
 -1     11542    3    0    1
 -2      1665      3076      1924      4020
 -1     11543    3    0    1
 -2      1429      1924      3599      4020
 -1     11544    3    0    1
 -2      3896      1693      3938      4018
 -1     11545    3    0    1
 -2      3836      3849      3932      3945
 -1     11546    3    0    1
 -2      3849      3859      3932      3945
 -1     11547    3    0    1
 -2      3849      1952      3818      3945
 -1     11548    3    0    1
 -2      3918      3032      3583      3943
 -1     11549    3    0    1
 -2      1044       346      1949      3722
 -1     11550    3    0    1
 -2      1748      3030      3456      4008
 -1     11551    3    0    1
 -2      2746      1417      3404      3943
 -1     11552    3    0    1
 -2      3404      1417      3470      3943
 -1     11553    3    0    1
 -2      3437      3918      3583      3943
 -1     11554    3    0    1
 -2      1485      2746      3583      3943
 -1     11555    3    0    1
 -2      3032      1485      3583      3943
 -1     11556    3    0    1
 -2      1485      1417      2746      3943
 -1     11557    3    0    1
 -2      2612      2638      2754      3943
 -1     11558    3    0    1
 -2      2754      2638      3404      3943
 -1     11559    3    0    1
 -2      2638      2612      2880      3943
 -1     11560    3    0    1
 -2      2612      2754      2993      3943
 -1     11561    3    0    1
 -2      2754      3404      3418      3943
 -1     11562    3    0    1
 -2      3032      2768      3470      3943
 -1     11563    3    0    1
 -2      2768      3354      3470      3943
 -1     11564    3    0    1
 -2      2993      2754      3418      3943
 -1     11565    3    0    1
 -2      2638      2746      3404      3943
 -1     11566    3    0    1
 -2      2746      2638      3437      3943
 -1     11567    3    0    1
 -2      1417      3032      3470      3943
 -1     11568    3    0    1
 -2      2746      3437      3583      3943
 -1     11569    3    0    1
 -2      1417      1485      3032      3943
 -1     11570    3    0    1
 -2      2788      2568      3019      3944
 -1     11571    3    0    1
 -2      3026      2788      3198      3944
 -1     11572    3    0    1
 -2      2788      3019      3270      3944
 -1     11573    3    0    1
 -2      1415      2991      1888      3944
 -1     11574    3    0    1
 -2      1888      2959      3443      3944
 -1     11575    3    0    1
 -2      2950      2604      3026      3944
 -1     11576    3    0    1
 -2      3198      2788      3270      3944
 -1     11577    3    0    1
 -2      1603      1888      3443      3944
 -1     11578    3    0    1
 -2      1415      1639      2991      3944
 -1     11579    3    0    1
 -2      1592      1933      3567      3588
 -1     11580    3    0    1
 -2      2946      1486      3381      3946
 -1     11581    3    0    1
 -2      3058      2946      1758      3946
 -1     11582    3    0    1
 -2      1468      1469      1855      3654
 -1     11583    3    0    1
 -2      3297      3876      3503      3966
 -1     11584    3    0    1
 -2      3077      3297      3503      3966
 -1     11585    3    0    1
 -2      1447      3508      3600      3966
 -1     11586    3    0    1
 -2       332       736       739      3732
 -1     11587    3    0    1
 -2       332       333       736      3732
 -1     11588    3    0    1
 -2      1549      2775      3058      3946
 -1     11589    3    0    1
 -2      3381      1758      1902      3946
 -1     11590    3    0    1
 -2      1758      2946      1902      3946
 -1     11591    3    0    1
 -2      1549      3058      1758      3946
 -1     11592    3    0    1
 -2      1549      1445      2775      3946
 -1     11593    3    0    1
 -2      1324      2435      2766      4016
 -1     11594    3    0    1
 -2      1663      2946      3381      3946
 -1     11595    3    0    1
 -2       263       255      2766      4016
 -1     11596    3    0    1
 -2      2987      1827      3381      3946
 -1     11597    3    0    1
 -2      2626      2838      2946      3946
 -1     11598    3    0    1
 -2      2775      2626      2946      3946
 -1     11599    3    0    1
 -2      1758      1827      3277      3946
 -1     11600    3    0    1
 -2      1469      1468      3608      3654
 -1     11601    3    0    1
 -2      2838      1486      2946      3946
 -1     11602    3    0    1
 -2      2775      2946      3058      3946
 -1     11603    3    0    1
 -2      1051      2435      2529      4016
 -1     11604    3    0    1
 -2      1549      1758      3277      3946
 -1     11605    3    0    1
 -2      1051       267      2766      4016
 -1     11606    3    0    1
 -2      1445      1549      3277      3946
 -1     11607    3    0    1
 -2       255      1324      2766      4016
 -1     11608    3    0    1
 -2      1663      3381      1902      3946
 -1     11609    3    0    1
 -2      2946      1663      1902      3946
 -1     11610    3    0    1
 -2       626       619      3454      1978
 -1     11611    3    0    1
 -2      1320      3889      2448      3952
 -1     11612    3    0    1
 -2      1800      3497      3513      3948
 -1     11613    3    0    1
 -2      3497      1691      3513      3948
 -1     11614    3    0    1
 -2      3258      1691      3551      3948
 -1     11615    3    0    1
 -2      3473      3258      3551      3948
 -1     11616    3    0    1
 -2      3048      3258      3267      3948
 -1     11617    3    0    1
 -2      3267      3258      3473      3948
 -1     11618    3    0    1
 -2      1164      1800      3513      3948
 -1     11619    3    0    1
 -2      1800      1164      3268      3948
 -1     11620    3    0    1
 -2      1800      3268      1948      3948
 -1     11621    3    0    1
 -2      3249      1691      3258      3948
 -1     11622    3    0    1
 -2      3268      1733      1948      3948
 -1     11623    3    0    1
 -2      1691      1754      3551      3948
 -1     11624    3    0    1
 -2      1754      1691      3497      3948
 -1     11625    3    0    1
 -2      3048      3249      3258      3948
 -1     11626    3    0    1
 -2      1733      3268      1837      3948
 -1     11627    3    0    1
 -2         2      1936      1937      1970
 -1     11628    3    0    1
 -2      3477      1922      1923      1965
 -1     11629    3    0    1
 -2      2548       349      3939      1975
 -1     11630    3    0    1
 -2      1062       349      2548      1975
 -1     11631    3    0    1
 -2      3839      1427      3417      3612
 -1     11632    3    0    1
 -2      1553      1427      3839      3612
 -1     11633    3    0    1
 -2      2632      2984      3805      3593
 -1     11634    3    0    1
 -2      1062      2548      3939      1975
 -1     11635    3    0    1
 -2      2767      3165      3839      3612
 -1     11636    3    0    1
 -2      2984      2632      3055      3593
 -1     11637    3    0    1
 -2      1427      1428      3417      3612
 -1     11638    3    0    1
 -2      2716       950      3689      4013
 -1     11639    3    0    1
 -2      1542      1545      3819      3729
 -1     11640    3    0    1
 -2      1741      3523      3958      2017
 -1     11641    3    0    1
 -2      3469      1017      3958      2017
 -1     11642    3    0    1
 -2      2549       563      3765      3769
 -1     11643    3    0    1
 -2      1017       335      3958      2017
 -1     11644    3    0    1
 -2      1047      2265      3682      3989
 -1     11645    3    0    1
 -2       379       946      2491      4030
 -1     11646    3    0    1
 -2      2147       169      3994      2035
 -1     11647    3    0    1
 -2       335      1741      3958      2017
 -1     11648    3    0    1
 -2      2426       563      2549      3769
 -1     11649    3    0    1
 -2      3889      3185      3579      3731
 -1     11650    3    0    1
 -2      2871      3083      3834      3953
 -1     11651    3    0    1
 -2      2834      1809      3314      3597
 -1     11652    3    0    1
 -2      2834      1476      1809      3597
 -1     11653    3    0    1
 -2       212      1487      1960      3597
 -1     11654    3    0    1
 -2      1709      3504      2028      3739
 -1     11655    3    0    1
 -2      1642      2905      3181      3953
 -1     11656    3    0    1
 -2      2903      3135      1861      3949
 -1     11657    3    0    1
 -2      1861      3135      3450      3949
 -1     11658    3    0    1
 -2      3071      2803      3919      3949
 -1     11659    3    0    1
 -2      3135      3071      3919      3949
 -1     11660    3    0    1
 -2      3450      3318      3455      3949
 -1     11661    3    0    1
 -2      3318      2749      3455      3949
 -1     11662    3    0    1
 -2       732      3450      3455      3949
 -1     11663    3    0    1
 -2      2866      2903      3361      3949
 -1     11664    3    0    1
 -2      2575      2866      3093      3949
 -1     11665    3    0    1
 -2      2866      2803      2903      3949
 -1     11666    3    0    1
 -2      2575      2803      2866      3949
 -1     11667    3    0    1
 -2      2749      3228      3455      3949
 -1     11668    3    0    1
 -2      1840       732      3455      3949
 -1     11669    3    0    1
 -2      3093      2866      3361      3949
 -1     11670    3    0    1
 -2      1517      1840      3455      3949
 -1     11671    3    0    1
 -2      3017      2575      3093      3949
 -1     11672    3    0    1
 -2       732      1861      3450      3949
 -1     11673    3    0    1
 -2      2903      2803      3135      3949
 -1     11674    3    0    1
 -2      2803      3071      3135      3949
 -1     11675    3    0    1
 -2      2873      1586      1632      3950
 -1     11676    3    0    1
 -2      1632       804      3316      3950
 -1     11677    3    0    1
 -2       804      3256      3316      3950
 -1     11678    3    0    1
 -2      1580      3791      4006      3789
 -1     11679    3    0    1
 -2      1315      2454      2769      4014
 -1     11680    3    0    1
 -2       338       224      3695      4014
 -1     11681    3    0    1
 -2      3256       804      1849      3950
 -1     11682    3    0    1
 -2      3256      1849      3535      3950
 -1     11683    3    0    1
 -2      2769      1035      3695      4014
 -1     11684    3    0    1
 -2      2677      2598      2873      3950
 -1     11685    3    0    1
 -2      1324       255      3682      4016
 -1     11686    3    0    1
 -2      2677      2873      3316      3950
 -1     11687    3    0    1
 -2      1830      3342      3622      3965
 -1     11688    3    0    1
 -2      2594      2677      2953      3950
 -1     11689    3    0    1
 -2      3447      2956      3620      3706
 -1     11690    3    0    1
 -2      1026       734      1316      4023
 -1     11691    3    0    1
 -2      3256      2677      3316      3950
 -1     11692    3    0    1
 -2      2953      2677      3256      3950
 -1     11693    3    0    1
 -2       804      3460      3535      3950
 -1     11694    3    0    1
 -2      1522      1830      3622      3965
 -1     11695    3    0    1
 -2       734       735      1316      4023
 -1     11696    3    0    1
 -2       337       338      3695      4014
 -1     11697    3    0    1
 -2       239      1035      2374      4014
 -1     11698    3    0    1
 -2       804      1632      3460      3950
 -1     11699    3    0    1
 -2      1035       239      3695      4014
 -1     11700    3    0    1
 -2      1849       804      3535      3950
 -1     11701    3    0    1
 -2       239       337      3695      4014
 -1     11702    3    0    1
 -2      2731       492      3200      3601
 -1     11703    3    0    1
 -2      3334      1702      3900      3675
 -1     11704    3    0    1
 -2      3398      3900      3491      3675
 -1     11705    3    0    1
 -2       493      2730      2836      3601
 -1     11706    3    0    1
 -2       185       189      3987      3730
 -1     11707    3    0    1
 -2      1626      2973      3216      3602
 -1     11708    3    0    1
 -2      1947      1733      1948      3610
 -1     11709    3    0    1
 -2       212      1960      1969      3602
 -1     11710    3    0    1
 -2      2973      1626      3145      3602
 -1     11711    3    0    1
 -2      3906      3341      3600      3966
 -1     11712    3    0    1
 -2       698      1788      3264      3604
 -1     11713    3    0    1
 -2      3220      2621      3264      3604
 -1     11714    3    0    1
 -2      1466      2783      3165      3604
 -1     11715    3    0    1
 -2      3165      2783      3839      3604
 -1     11716    3    0    1
 -2      1466      3165      3839      3604
 -1     11717    3    0    1
 -2      2621      2783      3264      3604
 -1     11718    3    0    1
 -2      3048      3857      3948      3605
 -1     11719    3    0    1
 -2      3857      3048      3875      3605
 -1     11720    3    0    1
 -2      3875      3048      3532      3605
 -1     11721    3    0    1
 -2      1462      1676      3532      3605
 -1     11722    3    0    1
 -2      1837      1462      3948      3605
 -1     11723    3    0    1
 -2      3268      1837      3948      3605
 -1     11724    3    0    1
 -2      3267      3048      3948      3605
 -1     11725    3    0    1
 -2      1462      3267      3948      3605
 -1     11726    3    0    1
 -2      3267      1462      3532      3605
 -1     11727    3    0    1
 -2      3048      3267      3532      3605
 -1     11728    3    0    1
 -2       333       332      1989      3732
 -1     11729    3    0    1
 -2      1542      1858      3889      3952
 -1     11730    3    0    1
 -2      3782      1542      3889      3952
 -1     11731    3    0    1
 -2      1542      3782      1858      3952
 -1     11732    3    0    1
 -2       231      3887      1951      3952
 -1     11733    3    0    1
 -2      1951      3887      3579      3952
 -1     11734    3    0    1
 -2      1026       339      1320      3952
 -1     11735    3    0    1
 -2      1954       231      3579      3952
 -1     11736    3    0    1
 -2       231      1951      3579      3952
 -1     11737    3    0    1
 -2      3274      2750      3848      3606
 -1     11738    3    0    1
 -2      1816      3274      3848      3606
 -1     11739    3    0    1
 -2      1933      3567      3588      3606
 -1     11740    3    0    1
 -2      1423      1933      1934      3606
 -1     11741    3    0    1
 -2      1934      1933      3588      3606
 -1     11742    3    0    1
 -2      1816      1423      1817      3606
 -1     11743    3    0    1
 -2      1816      1817      3274      3606
 -1     11744    3    0    1
 -2      1933      1423      3567      3606
 -1     11745    3    0    1
 -2      3060      1569      1958      3633
 -1     11746    3    0    1
 -2      2985      1460      3393      3633
 -1     11747    3    0    1
 -2      3624      3916      4001      3736
 -1     11748    3    0    1
 -2      2849      3798      3911      4019
 -1     11749    3    0    1
 -2      3860      1673      1980      3639
 -1     11750    3    0    1
 -2       957      1294      3896      3960
 -1     11751    3    0    1
 -2      1883      3561      3574      3966
 -1     11752    3    0    1
 -2      4001      3624      3736      4027
 -1     11753    3    0    1
 -2      1883      1447      3561      3966
 -1     11754    3    0    1
 -2       958      2805      3817      3704
 -1     11755    3    0    1
 -2       122       958      3817      3704
 -1     11756    3    0    1
 -2      1693      3074      3715      4006
 -1     11757    3    0    1
 -2      3352      1487      3597      3609
 -1     11758    3    0    1
 -2      1251      1487      3352      3609
 -1     11759    3    0    1
 -2      3828      1701      3990      2011
 -1     11760    3    0    1
 -2      3088      3787      4027      4001
 -1     11761    3    0    1
 -2      2845      3223      3840      4027
 -1     11762    3    0    1
 -2      3834      3861      3875      3953
 -1     11763    3    0    1
 -2      2905      1454      3181      3953
 -1     11764    3    0    1
 -2      3974      3480      3668      3729
 -1     11765    3    0    1
 -2       406      3828      3990      2011
 -1     11766    3    0    1
 -2      3834      2822      3861      3953
 -1     11767    3    0    1
 -2      2822      2699      3861      3953
 -1     11768    3    0    1
 -2      2699      2704      3861      3953
 -1     11769    3    0    1
 -2      3861      2704      3875      3953
 -1     11770    3    0    1
 -2      2808      3083      3181      3953
 -1     11771    3    0    1
 -2      2930      2699      3231      3953
 -1     11772    3    0    1
 -2      3070      2808      3181      3953
 -1     11773    3    0    1
 -2      2699      2930      3244      3953
 -1     11774    3    0    1
 -2      1640      1641      3317      3347
 -1     11775    3    0    1
 -2      3083      1574      3181      3953
 -1     11776    3    0    1
 -2      2740      2905      3231      3953
 -1     11777    3    0    1
 -2      2699      2740      3231      3953
 -1     11778    3    0    1
 -2      1574      1642      3181      3953
 -1     11779    3    0    1
 -2      1574      3083      1810      3953
 -1     11780    3    0    1
 -2      2573      3016      3303      3993
 -1     11781    3    0    1
 -2      2740      2699      2822      3953
 -1     11782    3    0    1
 -2      3830      1435      3734      3737
 -1     11783    3    0    1
 -2      2707      2740      2822      3953
 -1     11784    3    0    1
 -2      1687      1688      2001      3680
 -1     11785    3    0    1
 -2      1746      3187      3429      3680
 -1     11786    3    0    1
 -2      2484      2531      3442      3734
 -1     11787    3    0    1
 -2      3840      3779      3986      4027
 -1     11788    3    0    1
 -2      2355      1327      3629      3738
 -1     11789    3    0    1
 -2       198      1014      3784      2014
 -1     11790    3    0    1
 -2      2909      1590      3138      3611
 -1     11791    3    0    1
 -2      2909      1647      1897      3611
 -1     11792    3    0    1
 -2      1647      2909      3233      3611
 -1     11793    3    0    1
 -2      2632      2990      3055      3611
 -1     11794    3    0    1
 -2      3846      2706      3478      3687
 -1     11795    3    0    1
 -2       554      2673      3478      3687
 -1     11796    3    0    1
 -2      2642      3119      3846      3687
 -1     11797    3    0    1
 -2       281      3939      1975      1976
 -1     11798    3    0    1
 -2       281       350      3939      1976
 -1     11799    3    0    1
 -2       351       350       787      1976
 -1     11800    3    0    1
 -2       787       350       794      1976
 -1     11801    3    0    1
 -2      3091      3826      3308      3633
 -1     11802    3    0    1
 -2      1847      1569      3525      3633
 -1     11803    3    0    1
 -2      1065      1062      3641      3686
 -1     11804    3    0    1
 -2      3809      1483      3397      3688
 -1     11805    3    0    1
 -2      1915      3408      3446      1669
 -1     11806    3    0    1
 -2      1916      1669      3446      1670
 -1     11807    3    0    1
 -2      3446      1915      1669      1916
 -1     11808    3    0    1
 -2      3408      1915      3446      3614
 -1     11809    3    0    1
 -2      2899      3036      3884      3955
 -1     11810    3    0    1
 -2      3279      3020      1943      3978
 -1     11811    3    0    1
 -2      3269      2925      3885      3663
 -1     11812    3    0    1
 -2      2850      3078      3112      3955
 -1     11813    3    0    1
 -2      3112      3078      3528      3955
 -1     11814    3    0    1
 -2      3904      3884      3592      3955
 -1     11815    3    0    1
 -2      3884      3078      3592      3955
 -1     11816    3    0    1
 -2      2850      3904      3592      3955
 -1     11817    3    0    1
 -2      3078      2850      3592      3955
 -1     11818    3    0    1
 -2      3884      3036      3555      3955
 -1     11819    3    0    1
 -2      3257      3884      3555      3955
 -1     11820    3    0    1
 -2      3036      3257      3555      3955
 -1     11821    3    0    1
 -2      3036      3116      3257      3955
 -1     11822    3    0    1
 -2      1439      2967      3238      3955
 -1     11823    3    0    1
 -2      1497      1608      3795      3978
 -1     11824    3    0    1
 -2      1657      1439      3238      3955
 -1     11825    3    0    1
 -2      1439      1655      2967      3955
 -1     11826    3    0    1
 -2      2967      1655      3116      3955
 -1     11827    3    0    1
 -2      3116      1655      3257      3955
 -1     11828    3    0    1
 -2      2637      2605      2850      3955
 -1     11829    3    0    1
 -2      3126      2976      3257      3955
 -1     11830    3    0    1
 -2      2899      2637      3238      3955
 -1     11831    3    0    1
 -2      2605      2637      2899      3955
 -1     11832    3    0    1
 -2      2637      2850      3112      3955
 -1     11833    3    0    1
 -2      2967      2899      3238      3955
 -1     11834    3    0    1
 -2       608      1867      3885      3663
 -1     11835    3    0    1
 -2      1439      3126      3257      3955
 -1     11836    3    0    1
 -2      2899      2967      3116      3955
 -1     11837    3    0    1
 -2      3036      2899      3116      3955
 -1     11838    3    0    1
 -2      3842      2925      3522      3663
 -1     11839    3    0    1
 -2      1439      1657      3126      3955
 -1     11840    3    0    1
 -2      1655      1439      3257      3955
 -1     11841    3    0    1
 -2      3285      1764      3851      3618
 -1     11842    3    0    1
 -2      2962      3285      3851      3618
 -1     11843    3    0    1
 -2      2962      1436      3285      3618
 -1     11844    3    0    1
 -2      1504      3063      3283      3618
 -1     11845    3    0    1
 -2      1504      1503      3063      3618
 -1     11846    3    0    1
 -2      1436      1764      3285      3618
 -1     11847    3    0    1
 -2      2898      2968      3304      3619
 -1     11848    3    0    1
 -2      1438      2898      3304      3619
 -1     11849    3    0    1
 -2      1761      3212      3376      3619
 -1     11850    3    0    1
 -2      1761      3376      1939      3619
 -1     11851    3    0    1
 -2      1438      1717      3094      3619
 -1     11852    3    0    1
 -2      3265      1717      1945      3619
 -1     11853    3    0    1
 -2      3094      1717      3265      3619
 -1     11854    3    0    1
 -2      2898      1438      3094      3619
 -1     11855    3    0    1
 -2       168      1761      1939      3619
 -1     11856    3    0    1
 -2      1441      3585      3986      4027
 -1     11857    3    0    1
 -2      1568      1441      3916      4027
 -1     11858    3    0    1
 -2      3807      1491      3934      3642
 -1     11859    3    0    1
 -2      1491      3472      3934      3642
 -1     11860    3    0    1
 -2      1797      1491      3909      3642
 -1     11861    3    0    1
 -2      1797      3909      1974      3642
 -1     11862    3    0    1
 -2       202       198      3784      2014
 -1     11863    3    0    1
 -2      1520      1519      1868      3725
 -1     11864    3    0    1
 -2      2787      2696      3812      3707
 -1     11865    3    0    1
 -2      2942      3807      3934      3642
 -1     11866    3    0    1
 -2      1491      3807      3909      3642
 -1     11867    3    0    1
 -2      3472      2942      3934      3642
 -1     11868    3    0    1
 -2      2787      3812      3693      3707
 -1     11869    3    0    1
 -2      2785      2655      3895      3956
 -1     11870    3    0    1
 -2      1707      1694      3493      3956
 -1     11871    3    0    1
 -2      1694      1768      3141      3956
 -1     11872    3    0    1
 -2      3141      1768      3290      3956
 -1     11873    3    0    1
 -2       680      2999      3100      3956
 -1     11874    3    0    1
 -2      3008       680      3100      3956
 -1     11875    3    0    1
 -2      3100      2964      3890      3956
 -1     11876    3    0    1
 -2      2901      2842      3290      3956
 -1     11877    3    0    1
 -2      2961      2655      3039      3956
 -1     11878    3    0    1
 -2      2655      2999      3039      3956
 -1     11879    3    0    1
 -2      3008      2901      3290      3956
 -1     11880    3    0    1
 -2      2791      2655      2961      3956
 -1     11881    3    0    1
 -2      3039      2999      3493      3956
 -1     11882    3    0    1
 -2      2961      3039      3141      3956
 -1     11883    3    0    1
 -2      1707      3008      3290      3956
 -1     11884    3    0    1
 -2      2655      2964      2999      3956
 -1     11885    3    0    1
 -2       680      3008      1707      3956
 -1     11886    3    0    1
 -2      2999      2964      3100      3956
 -1     11887    3    0    1
 -2      1694      1707      3290      3956
 -1     11888    3    0    1
 -2      1768      1694      3290      3956
 -1     11889    3    0    1
 -2      3424      2848      3954      1981
 -1     11890    3    0    1
 -2      2848      1938      3616      1981
 -1     11891    3    0    1
 -2      3954      1920      3679      3733
 -1     11892    3    0    1
 -2      1029      2376      3850      1989
 -1     11893    3    0    1
 -2      3549      1509      3553      3671
 -1     11894    3    0    1
 -2      3857      2602      3914      4017
 -1     11895    3    0    1
 -2      2704      3875      3953      4017
 -1     11896    3    0    1
 -2      2400       822      2447      3709
 -1     11897    3    0    1
 -2      1922      3490      1923      3716
 -1     11898    3    0    1
 -2      1755       214      3859      3958
 -1     11899    3    0    1
 -2      3859      3796      3908      3958
 -1     11900    3    0    1
 -2      1620      3796      3910      3958
 -1     11901    3    0    1
 -2      3796      1620      3908      3958
 -1     11902    3    0    1
 -2      2488      3796      3859      3958
 -1     11903    3    0    1
 -2      1017      2488      3859      3958
 -1     11904    3    0    1
 -2      2488      1017      3796      3958
 -1     11905    3    0    1
 -2       335      1741      3910      3958
 -1     11906    3    0    1
 -2      1741       335      3910      1966
 -1     11907    3    0    1
 -2      3469      3085      3523      3958
 -1     11908    3    0    1
 -2      1300       345      2779      4024
 -1     11909    3    0    1
 -2      1630       214      3603      3958
 -1     11910    3    0    1
 -2      1795      3469      3523      3958
 -1     11911    3    0    1
 -2      2779       991      3698      4024
 -1     11912    3    0    1
 -2      1755      1620      3170      3958
 -1     11913    3    0    1
 -2      3085      1620      1741      3958
 -1     11914    3    0    1
 -2      1313      1630      3284      3958
 -1     11915    3    0    1
 -2      1620      2977      3170      3958
 -1     11916    3    0    1
 -2      1755      3170      3603      3958
 -1     11917    3    0    1
 -2      1017      2814      3469      3958
 -1     11918    3    0    1
 -2       162       172      3994      4024
 -1     11919    3    0    1
 -2      2977      1620      3085      3958
 -1     11920    3    0    1
 -2      1313       214      1630      3958
 -1     11921    3    0    1
 -2      3085      1741      3523      3958
 -1     11922    3    0    1
 -2      2601      3341      3906      3966
 -1     11923    3    0    1
 -2      1543      3389      3409      3645
 -1     11924    3    0    1
 -2      1543       768      3389      3645
 -1     11925    3    0    1
 -2      3576      2973      3602      4008
 -1     11926    3    0    1
 -2       200       198       700      3755
 -1     11927    3    0    1
 -2       261       346       772      3722
 -1     11928    3    0    1
 -2      2599      3402      3756      4030
 -1     11929    3    0    1
 -2      3156      3992      3727      4022
 -1     11930    3    0    1
 -2      2904      2801      1863      3646
 -1     11931    3    0    1
 -2      3215        46      1872      1984
 -1     11932    3    0    1
 -2      3246      2927      3864      3651
 -1     11933    3    0    1
 -2      3317      1906      3504      3739
 -1     11934    3    0    1
 -2      1042      2163      2761      3643
 -1     11935    3    0    1
 -2      1060       807      2449      3629
 -1     11936    3    0    1
 -2       807      1060      2355      3629
 -1     11937    3    0    1
 -2       811       808      1214      3641
 -1     11938    3    0    1
 -2      2642      3846      3478      3687
 -1     11939    3    0    1
 -2       400        95      3689      4013
 -1     11940    3    0    1
 -2      1982      2022      2023      3721
 -1     11941    3    0    1
 -2      1698      3273      3488      3630
 -1     11942    3    0    1
 -2      1698       745      1699      3630
 -1     11943    3    0    1
 -2      1698      1699      3273      3630
 -1     11944    3    0    1
 -2       750      1698      3488      3630
 -1     11945    3    0    1
 -2      3780      3819      3903      3974
 -1     11946    3    0    1
 -2      1493      2897      3693      2016
 -1     11947    3    0    1
 -2      2454      2753      3690      4004
 -1     11948    3    0    1
 -2      2821      2696      3812      3691
 -1     11949    3    0    1
 -2      2681      3780      3903      3974
 -1     11950    3    0    1
 -2      3565      1468      3571      4022
 -1     11951    3    0    1
 -2      3560      3224      3992      4022
 -1     11952    3    0    1
 -2      3903      3819      3480      3974
 -1     11953    3    0    1
 -2      3124      3804      3498      3981
 -1     11954    3    0    1
 -2      1460      1546      3393      3633
 -1     11955    3    0    1
 -2      3826      3091      3880      3633
 -1     11956    3    0    1
 -2      2934      2985      3880      3633
 -1     11957    3    0    1
 -2      3308      3826      3393      3633
 -1     11958    3    0    1
 -2      3826      2985      3393      3633
 -1     11959    3    0    1
 -2      3091      1847      3880      3633
 -1     11960    3    0    1
 -2      3880      1847      3525      3633
 -1     11961    3    0    1
 -2      1569      3060      3525      3633
 -1     11962    3    0    1
 -2      2934      3880      3525      3633
 -1     11963    3    0    1
 -2      3880      2985      3907      3633
 -1     11964    3    0    1
 -2      3826      3880      3907      3633
 -1     11965    3    0    1
 -2      2985      3826      3907      3633
 -1     11966    3    0    1
 -2      2985      2934      3060      3633
 -1     11967    3    0    1
 -2      3060      2934      3525      3633
 -1     11968    3    0    1
 -2      3317      1906      1907      1640
 -1     11969    3    0    1
 -2      3938       119      3960      4018
 -1     11970    3    0    1
 -2      1797      3594      1974      1987
 -1     11971    3    0    1
 -2      2849      2887      3798      4019
 -1     11972    3    0    1
 -2      2802      3798      3534      4019
 -1     11973    3    0    1
 -2       281       349      3959      3738
 -1     11974    3    0    1
 -2      1882       119      3938      4018
 -1     11975    3    0    1
 -2      2467      3779      3223      4027
 -1     11976    3    0    1
 -2      3803      1721      3898      3713
 -1     11977    3    0    1
 -2      1673      1674      1839      3735
 -1     11978    3    0    1
 -2      1673      1839      3639      3735
 -1     11979    3    0    1
 -2      3009      3553      3549      2781
 -1     11980    3    0    1
 -2      1577      1442      3894      3636
 -1     11981    3    0    1
 -2      2893      1577      3894      3636
 -1     11982    3    0    1
 -2      1920      3954      3625      3733
 -1     11983    3    0    1
 -2       714       722      1023      1990
 -1     11984    3    0    1
 -2       213       714      1023      1990
 -1     11985    3    0    1
 -2       722       213       334      1990
 -1     11986    3    0    1
 -2       213       722       714      1990
 -1     11987    3    0    1
 -2       281       349      3939      3959
 -1     11988    3    0    1
 -2      3144      2786      3939      3959
 -1     11989    3    0    1
 -2      2548      3144      3939      3959
 -1     11990    3    0    1
 -2      2355      1327      2529      3959
 -1     11991    3    0    1
 -2      1327       351      2529      3959
 -1     11992    3    0    1
 -2      2529       351      2786      3959
 -1     11993    3    0    1
 -2      1906      1907      2028      3739
 -1     11994    3    0    1
 -2      2786      2548      3629      3959
 -1     11995    3    0    1
 -2      2355      2786      3629      3959
 -1     11996    3    0    1
 -2      2548      2786      3144      3959
 -1     11997    3    0    1
 -2      2355      2529      2786      3959
 -1     11998    3    0    1
 -2      3867      1513      3379      4010
 -1     11999    3    0    1
 -2      3492      1936      1937      3723
 -1     12000    3    0    1
 -2       182        12      1907      2028
 -1     12001    3    0    1
 -2      1813      1421      3587      3638
 -1     12002    3    0    1
 -2      1937      1936      2007      3723
 -1     12003    3    0    1
 -2      3896      3938      3960      4018
 -1     12004    3    0    1
 -2      3241      3185      3974      3668
 -1     12005    3    0    1
 -2      1029       333      1989      3732
 -1     12006    3    0    1
 -2      3889      3780      3974      3668
 -1     12007    3    0    1
 -2      2727      2774      3987      3730
 -1     12008    3    0    1
 -2      3867      2593      3912      4010
 -1     12009    3    0    1
 -2      1542      3780      3889      3668
 -1     12010    3    0    1
 -2      3185      3889      3974      3668
 -1     12011    3    0    1
 -2       409      1294      3960      4018
 -1     12012    3    0    1
 -2      3550      1993      2007      3723
 -1     12013    3    0    1
 -2      1306       185      3987      3730
 -1     12014    3    0    1
 -2      2940      3234      3881      3979
 -1     12015    3    0    1
 -2      3816      3909      3637      3963
 -1     12016    3    0    1
 -2      3909       354      1974      3963
 -1     12017    3    0    1
 -2      3912      2918      3933      4010
 -1     12018    3    0    1
 -2      3637      3816      3963      2008
 -1     12019    3    0    1
 -2         1      3637      3963      2008
 -1     12020    3    0    1
 -2      3215      1581      1984      3640
 -1     12021    3    0    1
 -2      2955      1581      3215      3640
 -1     12022    3    0    1
 -2      2907      2955      3215      3640
 -1     12023    3    0    1
 -2      1675      3215      1872      3640
 -1     12024    3    0    1
 -2      2569       816      2633      3641
 -1     12025    3    0    1
 -2       815       816      1065      3641
 -1     12026    3    0    1
 -2       507       506      2633      3641
 -1     12027    3    0    1
 -2      1214       805      1211      3641
 -1     12028    3    0    1
 -2      1211       805      3621      3641
 -1     12029    3    0    1
 -2       506      2569      2633      3641
 -1     12030    3    0    1
 -2      1214       506       507      3641
 -1     12031    3    0    1
 -2       816      2569      3621      3641
 -1     12032    3    0    1
 -2      1065       816      3621      3641
 -1     12033    3    0    1
 -2       506      1214      1211      3641
 -1     12034    3    0    1
 -2      2569       506      3621      3641
 -1     12035    3    0    1
 -2       506      1211      3621      3641
 -1     12036    3    0    1
 -2      1941       284      1942      1994
 -1     12037    3    0    1
 -2      3430      1941      1942      1994
 -1     12038    3    0    1
 -2       352      1567      3971      3845
 -1     12039    3    0    1
 -2      2417      2725      3921      3972
 -1     12040    3    0    1
 -2      1335      3795      3199      3972
 -1     12041    3    0    1
 -2      3074      1569      1847      4006
 -1     12042    3    0    1
 -2      2613      3842      3332      3965
 -1     12043    3    0    1
 -2      3920      1718      1962      3961
 -1     12044    3    0    1
 -2      1434      1718      3920      3961
 -1     12045    3    0    1
 -2      3920      1962      3947      3961
 -1     12046    3    0    1
 -2      1652      1449      3862      3961
 -1     12047    3    0    1
 -2      2882      2987      3261      3965
 -1     12048    3    0    1
 -2      2626      2838      3946      3965
 -1     12049    3    0    1
 -2      1962       245      3947      3961
 -1     12050    3    0    1
 -2      3582      2998      3627      3961
 -1     12051    3    0    1
 -2      1718      3582      3627      3961
 -1     12052    3    0    1
 -2      2681      2404      3506      3961
 -1     12053    3    0    1
 -2      2435      1324      3682      4016
 -1     12054    3    0    1
 -2      1962      1718      3627      3961
 -1     12055    3    0    1
 -2      1718      1434      3582      3961
 -1     12056    3    0    1
 -2      2435      3682      3697      4016
 -1     12057    3    0    1
 -2      2667      3842      3540      3965
 -1     12058    3    0    1
 -2       245      1962      3627      3961
 -1     12059    3    0    1
 -2      3190      1429      3860      4020
 -1     12060    3    0    1
 -2      2904       662      3329      3646
 -1     12061    3    0    1
 -2      2582      2997      3076      4020
 -1     12062    3    0    1
 -2       550      2565      2599      4030
 -1     12063    3    0    1
 -2      1702      1703      1937      3647
 -1     12064    3    0    1
 -2      1703      1702      3491      3647
 -1     12065    3    0    1
 -2      1775      3405      1970      3647
 -1     12066    3    0    1
 -2      2656      2284      3337      3962
 -1     12067    3    0    1
 -2       763       768      3648      3742
 -1     12068    3    0    1
 -2      2284      2885      3337      3962
 -1     12069    3    0    1
 -2       973      2656      3962      3741
 -1     12070    3    0    1
 -2       410      3863      1997      1998
 -1     12071    3    0    1
 -2       410       143      3863      1998
 -1     12072    3    0    1
 -2       614       133       143      1998
 -1     12073    3    0    1
 -2       133       614       606      1998
 -1     12074    3    0    1
 -2      3871      2739      3488      4020
 -1     12075    3    0    1
 -2      3076      1665      3273      4020
 -1     12076    3    0    1
 -2      3190      3860      3864      4020
 -1     12077    3    0    1
 -2      1608      1497      3870      3751
 -1     12078    3    0    1
 -2       255      1044      1047      3763
 -1     12079    3    0    1
 -2      1641      1640      1907      3649
 -1     12080    3    0    1
 -2      1640      1641      3426      3649
 -1     12081    3    0    1
 -2      3304      1706      1879      3649
 -1     12082    3    0    1
 -2      1285      2369      3923      4021
 -1     12083    3    0    1
 -2      3294      1221      1890      3650
 -1     12084    3    0    1
 -2      3294      1890      3429      3650
 -1     12085    3    0    1
 -2      1974         1      3637      3963
 -1     12086    3    0    1
 -2       356       353      3928      3678
 -1     12087    3    0    1
 -2      1974      3637      3642      3963
 -1     12088    3    0    1
 -2       780       779      2611      3754
 -1     12089    3    0    1
 -2      1497      3786      3870      3751
 -1     12090    3    0    1
 -2      2840      1450      3246      3651
 -1     12091    3    0    1
 -2      1450      2840      2900      3651
 -1     12092    3    0    1
 -2      3718       769      3754      3763
 -1     12093    3    0    1
 -2      1543      2900      3648      3651
 -1     12094    3    0    1
 -2      2819      2840      3864      3651
 -1     12095    3    0    1
 -2      2900      2819      3864      3651
 -1     12096    3    0    1
 -2      3847      3786      3975      3751
 -1     12097    3    0    1
 -2      2840      2819      2900      3651
 -1     12098    3    0    1
 -2      3975      3507      3743      3751
 -1     12099    3    0    1
 -2      3253      1561      1935      3652
 -1     12100    3    0    1
 -2      1581      3255      1984      3652
 -1     12101    3    0    1
 -2       125       962      2020      3749
 -1     12102    3    0    1
 -2       405       125      2020      3749
 -1     12103    3    0    1
 -2      3269      1659      3893      3714
 -1     12104    3    0    1
 -2       550       557      2565      4030
 -1     12105    3    0    1
 -2      2772      1473      3502      3964
 -1     12106    3    0    1
 -2      1512      1701      3977      3696
 -1     12107    3    0    1
 -2       450      2718      2009      2010
 -1     12108    3    0    1
 -2      3011      3814      3174      3964
 -1     12109    3    0    1
 -2      3174      3814      3358      3964
 -1     12110    3    0    1
 -2      2682      3174      3358      3964
 -1     12111    3    0    1
 -2      2682      3358      1895      3964
 -1     12112    3    0    1
 -2      2718      2682      1895      3964
 -1     12113    3    0    1
 -2      2197      2524      2570      4002
 -1     12114    3    0    1
 -2       554      2718      1895      3964
 -1     12115    3    0    1
 -2      2607      2606      3156      3964
 -1     12116    3    0    1
 -2      2607      2683      3121      3964
 -1     12117    3    0    1
 -2      3121      2683      3502      3964
 -1     12118    3    0    1
 -2      2624      2598      2677      3964
 -1     12119    3    0    1
 -2      2624      2677      2682      3964
 -1     12120    3    0    1
 -2      2628      3121      3358      3964
 -1     12121    3    0    1
 -2      2628      2607      3121      3964
 -1     12122    3    0    1
 -2      2598      2624      2770      3964
 -1     12123    3    0    1
 -2      2677      2594      2682      3964
 -1     12124    3    0    1
 -2      2624      2682      2718      3964
 -1     12125    3    0    1
 -2      2682      2594      3011      3964
 -1     12126    3    0    1
 -2      3121       554      3358      3964
 -1     12127    3    0    1
 -2      1473      3121      3502      3964
 -1     12128    3    0    1
 -2      2770      2624      2772      3964
 -1     12129    3    0    1
 -2      2682      3011      3174      3964
 -1     12130    3    0    1
 -2      3358       554      1895      3964
 -1     12131    3    0    1
 -2      3156      2606      3460      3964
 -1     12132    3    0    1
 -2      1830      3367      3526      3965
 -1     12133    3    0    1
 -2      2695      2613      3332      3965
 -1     12134    3    0    1
 -2      2695      3332      3342      3965
 -1     12135    3    0    1
 -2      2695      3342      3556      3965
 -1     12136    3    0    1
 -2      2626      2695      2838      3965
 -1     12137    3    0    1
 -2      2435      1051      2766      4016
 -1     12138    3    0    1
 -2      1725      1481      3526      3965
 -1     12139    3    0    1
 -2      1830      1522      3367      3965
 -1     12140    3    0    1
 -2      1481      1830      3526      3965
 -1     12141    3    0    1
 -2      3342      3332      3622      3965
 -1     12142    3    0    1
 -2       267      2529      2715      4016
 -1     12143    3    0    1
 -2      3367      1522      3540      3965
 -1     12144    3    0    1
 -2      1828      1447      3600      3966
 -1     12145    3    0    1
 -2      2601      3077      3248      3966
 -1     12146    3    0    1
 -2      3561      3307      3574      3966
 -1     12147    3    0    1
 -2      1600      1828      3600      3966
 -1     12148    3    0    1
 -2      2601      3248      3341      3966
 -1     12149    3    0    1
 -2      1640      1742      3347      3967
 -1     12150    3    0    1
 -2      3272      3065      3374      3967
 -1     12151    3    0    1
 -2      2897      1821      3504      3967
 -1     12152    3    0    1
 -2      2784      3065      3272      3967
 -1     12153    3    0    1
 -2      2864      2636      3317      3967
 -1     12154    3    0    1
 -2      2680      2636      2864      3967
 -1     12155    3    0    1
 -2      1821      1866      3504      3967
 -1     12156    3    0    1
 -2      1821      3272      1866      3967
 -1     12157    3    0    1
 -2      1821      1140      3272      3967
 -1     12158    3    0    1
 -2      2897      1140      1821      3967
 -1     12159    3    0    1
 -2      2636      1493      3317      3967
 -1     12160    3    0    1
 -2      1493      2897      3504      3967
 -1     12161    3    0    1
 -2       900      1140      2897      3967
 -1     12162    3    0    1
 -2      1640      3272      3374      3967
 -1     12163    3    0    1
 -2      2864      3317      3347      3967
 -1     12164    3    0    1
 -2      2680      2864      3143      3967
 -1     12165    3    0    1
 -2      3272      1640      1866      3967
 -1     12166    3    0    1
 -2      1140      2784      3272      3967
 -1     12167    3    0    1
 -2      1742      1640      3374      3967
 -1     12168    3    0    1
 -2      1640      3504      1866      3967
 -1     12169    3    0    1
 -2       554      3478      2009      3687
 -1     12170    3    0    1
 -2       278       812       805      3658
 -1     12171    3    0    1
 -2       812       278       282      3658
 -1     12172    3    0    1
 -2      3295      3306      3919      3659
 -1     12173    3    0    1
 -2      1687      3429      3650      3659
 -1     12174    3    0    1
 -2      1687      3187      3429      3659
 -1     12175    3    0    1
 -2      1856       402      3968      4021
 -1     12176    3    0    1
 -2      1285       949      2369      4021
 -1     12177    3    0    1
 -2       402      1285      3968      4021
 -1     12178    3    0    1
 -2      2369      3877      3923      4021
 -1     12179    3    0    1
 -2      2369       949      3899      4021
 -1     12180    3    0    1
 -2      3312       402      1856      4021
 -1     12181    3    0    1
 -2      1711      3153      1856      4021
 -1     12182    3    0    1
 -2      1512      3899      3977      4021
 -1     12183    3    0    1
 -2      3923      3877      3968      4021
 -1     12184    3    0    1
 -2      3843      2369      3899      4021
 -1     12185    3    0    1
 -2      1512      1701      3828      4021
 -1     12186    3    0    1
 -2      3153      3828      3312      4021
 -1     12187    3    0    1
 -2      3153      3312      1856      4021
 -1     12188    3    0    1
 -2      3810      3791      3855      3969
 -1     12189    3    0    1
 -2      3582      3241      3974      3676
 -1     12190    3    0    1
 -2      3788      2535      3810      3969
 -1     12191    3    0    1
 -2       406       430      2002      3983
 -1     12192    3    0    1
 -2      1289      3777      3899      3983
 -1     12193    3    0    1
 -2      2756      2828      3209      3969
 -1     12194    3    0    1
 -2      3868      3810      3922      3969
 -1     12195    3    0    1
 -2      3855      1859      3922      3969
 -1     12196    3    0    1
 -2      3788      1585      3432      3969
 -1     12197    3    0    1
 -2      1585      3788      3810      3969
 -1     12198    3    0    1
 -2      3432      2828      3894      3969
 -1     12199    3    0    1
 -2      3788      3432      3894      3969
 -1     12200    3    0    1
 -2      2828      3788      3894      3969
 -1     12201    3    0    1
 -2      1580      3789      3484      3969
 -1     12202    3    0    1
 -2      3789      1580      3791      3969
 -1     12203    3    0    1
 -2      1580      1724      3855      3969
 -1     12204    3    0    1
 -2      3855      1724      1859      3969
 -1     12205    3    0    1
 -2       129      3868      3922      3969
 -1     12206    3    0    1
 -2      3868       129      3479      3969
 -1     12207    3    0    1
 -2      1859       129      3922      3969
 -1     12208    3    0    1
 -2      3209      3432      3479      3969
 -1     12209    3    0    1
 -2      3209      3479      3484      3969
 -1     12210    3    0    1
 -2      2756      2535      2828      3969
 -1     12211    3    0    1
 -2      3432      1661      3479      3969
 -1     12212    3    0    1
 -2      1585      1661      3432      3969
 -1     12213    3    0    1
 -2      3479      1724      3484      3969
 -1     12214    3    0    1
 -2      1724      1580      3484      3969
 -1     12215    3    0    1
 -2      1859      1724      3479      3969
 -1     12216    3    0    1
 -2       129      1859      3479      3969
 -1     12217    3    0    1
 -2      2690      2577      3104      3970
 -1     12218    3    0    1
 -2      3254      3300      3456      3980
 -1     12219    3    0    1
 -2      2576      2782      3831      3980
 -1     12220    3    0    1
 -2      3104      3114      3154      3970
 -1     12221    3    0    1
 -2      3220      3831      3441      3980
 -1     12222    3    0    1
 -2      2577      2690      2841      3970
 -1     12223    3    0    1
 -2      2621      2783      3604      3980
 -1     12224    3    0    1
 -2      2841      2690      3180      3970
 -1     12225    3    0    1
 -2       284       352      3971      3973
 -1     12226    3    0    1
 -2      3845      3806      3921      3972
 -1     12227    3    0    1
 -2      2270      2878      3507      3975
 -1     12228    3    0    1
 -2      3847      3795      3870      3972
 -1     12229    3    0    1
 -2       352      3845      3971      3972
 -1     12230    3    0    1
 -2       352      1059      3845      3972
 -1     12231    3    0    1
 -2      3126      3371      3955      3662
 -1     12232    3    0    1
 -2      2725      2417      3199      3972
 -1     12233    3    0    1
 -2      1059       352      1335      3972
 -1     12234    3    0    1
 -2      1868      1867      3401      3725
 -1     12235    3    0    1
 -2      1824      3307      3574      3665
 -1     12236    3    0    1
 -2      3371      3955      3662      3664
 -1     12237    3    0    1
 -2      3371      2637      3955      3664
 -1     12238    3    0    1
 -2      3112      2637      3528      3664
 -1     12239    3    0    1
 -2      1492      3112      3528      3664
 -1     12240    3    0    1
 -2      2637      3371      3528      3664
 -1     12241    3    0    1
 -2      1910      1492      3662      3664
 -1     12242    3    0    1
 -2      1492      3371      3662      3664
 -1     12243    3    0    1
 -2      3371      1492      3528      3664
 -1     12244    3    0    1
 -2      1825      1824      3574      3665
 -1     12245    3    0    1
 -2      1835      3395      1932      3665
 -1     12246    3    0    1
 -2        51      1920      3581      3666
 -1     12247    3    0    1
 -2      1873        51      3581      3666
 -1     12248    3    0    1
 -2      2870      3778      3865      4023
 -1     12249    3    0    1
 -2      3984       335      3985      4023
 -1     12250    3    0    1
 -2      2488      2870      3796      4023
 -1     12251    3    0    1
 -2      2448      1026      3778      4023
 -1     12252    3    0    1
 -2      3836      3303      3348      3993
 -1     12253    3    0    1
 -2      3899      1512      3977      3696
 -1     12254    3    0    1
 -2       734      1026      3527      4023
 -1     12255    3    0    1
 -2      3839      1427      2022      3721
 -1     12256    3    0    1
 -2      2598      3950      3992      4022
 -1     12257    3    0    1
 -2      3950      2873      3727      4022
 -1     12258    3    0    1
 -2      3506      2681      3961      3974
 -1     12259    3    0    1
 -2      1325      1041      3902      3981
 -1     12260    3    0    1
 -2      1041      1325      3804      3981
 -1     12261    3    0    1
 -2      2681      3903      3920      3974
 -1     12262    3    0    1
 -2      2681      3920      3961      3974
 -1     12263    3    0    1
 -2      3016      3185      3889      3974
 -1     12264    3    0    1
 -2      2619      3016      3889      3974
 -1     12265    3    0    1
 -2      3016      2469      3185      3974
 -1     12266    3    0    1
 -2      2534      2469      3241      3974
 -1     12267    3    0    1
 -2      2469      2534      3185      3974
 -1     12268    3    0    1
 -2      3903      1434      3920      3974
 -1     12269    3    0    1
 -2      3920      1434      3961      3974
 -1     12270    3    0    1
 -2      1718      1434      3920      3981
 -1     12271    3    0    1
 -2      3241      2998      3582      3974
 -1     12272    3    0    1
 -2      2619      2681      3506      3974
 -1     12273    3    0    1
 -2      2469      2619      3506      3974
 -1     12274    3    0    1
 -2      3142      1683      1880      3669
 -1     12275    3    0    1
 -2      2941      1041      3804      3981
 -1     12276    3    0    1
 -2       267      1051      2529      4016
 -1     12277    3    0    1
 -2      3185      2534      3241      3974
 -1     12278    3    0    1
 -2      2619      2469      3016      3974
 -1     12279    3    0    1
 -2      2693      1483      3880      3744
 -1     12280    3    0    1
 -2      3329      2904      3646      4019
 -1     12281    3    0    1
 -2       409      1882      3715      4006
 -1     12282    3    0    1
 -2      1724      3815      3260      4006
 -1     12283    3    0    1
 -2      2922      3975      2270      3507
 -1     12284    3    0    1
 -2      1569      3074      3941      4006
 -1     12285    3    0    1
 -2      2693      3907      3575      3744
 -1     12286    3    0    1
 -2      1908      3681      3745      3753
 -1     12287    3    0    1
 -2      1580      1724      3147      4006
 -1     12288    3    0    1
 -2      3911      3218      3685      4019
 -1     12289    3    0    1
 -2      1995      1986      2002      3744
 -1     12290    3    0    1
 -2      3880      1986      1995      3744
 -1     12291    3    0    1
 -2      3872      3815      3941      4012
 -1     12292    3    0    1
 -2      3880      1483      1986      3744
 -1     12293    3    0    1
 -2      2922      3507      3569      3975
 -1     12294    3    0    1
 -2      2693      3880      3907      3744
 -1     12295    3    0    1
 -2      1567      1994      3971      3752
 -1     12296    3    0    1
 -2      1531      3880      1995      3744
 -1     12297    3    0    1
 -2      2832      3815      3941      4006
 -1     12298    3    0    1
 -2      1996      1995      2002      3744
 -1     12299    3    0    1
 -2      2798      2857      3092      3976
 -1     12300    3    0    1
 -2      2844      3831      3220      3980
 -1     12301    3    0    1
 -2      1885      1576      3661      3976
 -1     12302    3    0    1
 -2       186      1696      3406      3976
 -1     12303    3    0    1
 -2      1696      1564      3406      3976
 -1     12304    3    0    1
 -2      3743      3975      3751      3762
 -1     12305    3    0    1
 -2      1683      3142      3458      3669
 -1     12306    3    0    1
 -2      3142      3410      3885      3669
 -1     12307    3    0    1
 -2      3142      1880      3410      3669
 -1     12308    3    0    1
 -2       267      2715      3989      4016
 -1     12309    3    0    1
 -2       255       263      3989      4016
 -1     12310    3    0    1
 -2      1752      3279      1943      3978
 -1     12311    3    0    1
 -2      3279      1752      3615      3978
 -1     12312    3    0    1
 -2      3000      2877      3888      3978
 -1     12313    3    0    1
 -2      1627      1497      3795      3978
 -1     12314    3    0    1
 -2      1942      1608      3615      3978
 -1     12315    3    0    1
 -2       352      1608      1942      3978
 -1     12316    3    0    1
 -2       352      1335      3973      3978
 -1     12317    3    0    1
 -2      1752      1942      3615      3978
 -1     12318    3    0    1
 -2      1627      3795      3043      3978
 -1     12319    3    0    1
 -2      2877      3043      3888      3978
 -1     12320    3    0    1
 -2      1608       352      3973      3978
 -1     12321    3    0    1
 -2      1335      3795      3972      3978
 -1     12322    3    0    1
 -2      1335      3972      3973      3978
 -1     12323    3    0    1
 -2      3888      3043      1987      3978
 -1     12324    3    0    1
 -2      3795      3888      1987      3978
 -1     12325    3    0    1
 -2      3043      3795      1987      3978
 -1     12326    3    0    1
 -2      3795      1608      3870      3978
 -1     12327    3    0    1
 -2      3870      1608      3973      3978
 -1     12328    3    0    1
 -2      3795      3870      3972      3978
 -1     12329    3    0    1
 -2      3972      3870      3973      3978
 -1     12330    3    0    1
 -2      3020      1335      1942      3978
 -1     12331    3    0    1
 -2      2652      1335      3020      3978
 -1     12332    3    0    1
 -2      2851      3279      3440      3978
 -1     12333    3    0    1
 -2      2877      2851      3440      3978
 -1     12334    3    0    1
 -2      1497      2877      3440      3978
 -1     12335    3    0    1
 -2      1608      1497      3440      3978
 -1     12336    3    0    1
 -2      1335       352      1942      3978
 -1     12337    3    0    1
 -2      1752      3020      1942      3978
 -1     12338    3    0    1
 -2      3020      1752      1943      3978
 -1     12339    3    0    1
 -2      3440      3279      3615      3978
 -1     12340    3    0    1
 -2      2851      2877      3000      3978
 -1     12341    3    0    1
 -2      1497      1627      2877      3978
 -1     12342    3    0    1
 -2      1608      3440      3615      3978
 -1     12343    3    0    1
 -2      2877      1627      3043      3978
 -1     12344    3    0    1
 -2      2940      2591      3234      3979
 -1     12345    3    0    1
 -2      3406      3881      3979      2940
 -1     12346    3    0    1
 -2      2692      3324      3406      3979
 -1     12347    3    0    1
 -2      2692      3406      3976      3979
 -1     12348    3    0    1
 -2      3331      3234      3453      3979
 -1     12349    3    0    1
 -2      3234      2889      3453      3979
 -1     12350    3    0    1
 -2      2577      3005      3105      3979
 -1     12351    3    0    1
 -2      3105      3005      3130      3979
 -1     12352    3    0    1
 -2      2577      2796      3005      3979
 -1     12353    3    0    1
 -2      1768      3331      3453      3979
 -1     12354    3    0    1
 -2      3005      3021      3130      3979
 -1     12355    3    0    1
 -2      3104      3105      3114      3979
 -1     12356    3    0    1
 -2      3104      2577      3105      3979
 -1     12357    3    0    1
 -2      2796      2692      3005      3979
 -1     12358    3    0    1
 -2      2592      2889      3234      3979
 -1     12359    3    0    1
 -2      2692      2734      3005      3979
 -1     12360    3    0    1
 -2      3005      2734      3021      3979
 -1     12361    3    0    1
 -2      1768      1506      3331      3979
 -1     12362    3    0    1
 -2      2591      2940      3276      3979
 -1     12363    3    0    1
 -2      3324      2940      3406      3979
 -1     12364    3    0    1
 -2      3840      2484      3442      4026
 -1     12365    3    0    1
 -2      2578      2621      2835      3980
 -1     12366    3    0    1
 -2      2576      2621      2782      3980
 -1     12367    3    0    1
 -2      2835      2576      3235      3980
 -1     12368    3    0    1
 -2      2833      3220      3604      3980
 -1     12369    3    0    1
 -2      2736      2929      3172      3980
 -1     12370    3    0    1
 -2      3167      2835      3235      3980
 -1     12371    3    0    1
 -2      1779       234      3902      3981
 -1     12372    3    0    1
 -2      3902       234      3498      3981
 -1     12373    3    0    1
 -2      1594      2879      3041      3981
 -1     12374    3    0    1
 -2      3210      3243      3886      3699
 -1     12375    3    0    1
 -2      1479      2880      3229      3996
 -1     12376    3    0    1
 -2      2880      2638      3943      3996
 -1     12377    3    0    1
 -2      3383      3210      3886      3699
 -1     12378    3    0    1
 -2      3920       250      1962      3981
 -1     12379    3    0    1
 -2      1718      3920      1962      3981
 -1     12380    3    0    1
 -2      3210      1712      3243      3699
 -1     12381    3    0    1
 -2      1712      1603      3243      3699
 -1     12382    3    0    1
 -2      3122      2879      3414      3981
 -1     12383    3    0    1
 -2      1594      3122      3414      3981
 -1     12384    3    0    1
 -2      2879      1594      3414      3981
 -1     12385    3    0    1
 -2       250      1594      3041      3981
 -1     12386    3    0    1
 -2       250      3041      1962      3981
 -1     12387    3    0    1
 -2      2879      1434      1718      3981
 -1     12388    3    0    1
 -2      1434      2879      3124      3981
 -1     12389    3    0    1
 -2      1434      3124      1779      3981
 -1     12390    3    0    1
 -2      2879      1718      3041      3981
 -1     12391    3    0    1
 -2      1041      2941      3122      3981
 -1     12392    3    0    1
 -2      1594      1041      3122      3981
 -1     12393    3    0    1
 -2      2879      2631      3124      3981
 -1     12394    3    0    1
 -2      1779      3124      3477      3981
 -1     12395    3    0    1
 -2      3041      1718      1962      3981
 -1     12396    3    0    1
 -2       250      1041      1594      3981
 -1     12397    3    0    1
 -2      1888      3383      3886      3699
 -1     12398    3    0    1
 -2      3096      1837      3610      3982
 -1     12399    3    0    1
 -2      1837      3096      3580      3982
 -1     12400    3    0    1
 -2      3438      2795      3580      3982
 -1     12401    3    0    1
 -2      3096      3438      3580      3982
 -1     12402    3    0    1
 -2      3271      1814      3580      3982
 -1     12403    3    0    1
 -2      2700      3096      3368      3982
 -1     12404    3    0    1
 -2      1472      2700      3368      3982
 -1     12405    3    0    1
 -2      3368      3096      3610      3982
 -1     12406    3    0    1
 -2      3227      1472      3319      3982
 -1     12407    3    0    1
 -2      1814      1733      3580      3982
 -1     12408    3    0    1
 -2      1814      3227      3319      3982
 -1     12409    3    0    1
 -2      1733      1814      1948      3982
 -1     12410    3    0    1
 -2      2700      2795      3096      3982
 -1     12411    3    0    1
 -2      1733      1837      3580      3982
 -1     12412    3    0    1
 -2      3096      2795      3438      3982
 -1     12413    3    0    1
 -2      1986      3777      3880      3983
 -1     12414    3    0    1
 -2      3777      1986      3880      1483
 -1     12415    3    0    1
 -2      3864      2900      3651      4028
 -1     12416    3    0    1
 -2      3577      3864      3651      4028
 -1     12417    3    0    1
 -2       768      1543      3648      4028
 -1     12418    3    0    1
 -2       949       406      1289      3983
 -1     12419    3    0    1
 -2      3779      1441      1573      3986
 -1     12420    3    0    1
 -2      1883      3914      3677      3681
 -1     12421    3    0    1
 -2       769       776      1245      3754
 -1     12422    3    0    1
 -2      1824      1883      3677      3681
 -1     12423    3    0    1
 -2      1047      2265      2480      3682
 -1     12424    3    0    1
 -2       255      1047      2480      3682
 -1     12425    3    0    1
 -2      3887      1845      3929      3683
 -1     12426    3    0    1
 -2      1669      1670      1916      3683
 -1     12427    3    0    1
 -2      1670      1669      3315      3683
 -1     12428    3    0    1
 -2      3422      1915      3929      3683
 -1     12429    3    0    1
 -2      2894      1669      3422      3683
 -1     12430    3    0    1
 -2      2894      3422      3929      3683
 -1     12431    3    0    1
 -2      3422      1669      1915      3683
 -1     12432    3    0    1
 -2      2496      1053      2715      3989
 -1     12433    3    0    1
 -2      1053       267      2715      3989
 -1     12434    3    0    1
 -2      1553      2821      1467      1466
 -1     12435    3    0    1
 -2      3303      3016      3564      3993
 -1     12436    3    0    1
 -2       339      1916      1951      1915
 -1     12437    3    0    1
 -2      3865      3910      3985      3993
 -1     12438    3    0    1
 -2      3796      3836      3348      3993
 -1     12439    3    0    1
 -2      2761      2411      3536      4000
 -1     12440    3    0    1
 -2      2480       346      3536      4000
 -1     12441    3    0    1
 -2       395       347      3643      4000
 -1     12442    3    0    1
 -2      2163      2411      2761      4000
 -1     12443    3    0    1
 -2      3820      3536      2480      2760
 -1     12444    3    0    1
 -2       347      1319      3643      4000
 -1     12445    3    0    1
 -2       346       261      3643      4000
 -1     12446    3    0    1
 -2      1042       346      3643      4000
 -1     12447    3    0    1
 -2       180      1885      3927      3986
 -1     12448    3    0    1
 -2      3927      1885      3586      3986
 -1     12449    3    0    1
 -2      1751       180      3957      3986
 -1     12450    3    0    1
 -2      3585      2845      3586      3986
 -1     12451    3    0    1
 -2      3326      3804      3871      4028
 -1     12452    3    0    1
 -2      2871      3834      3857      4017
 -1     12453    3    0    1
 -2      1751      1573      3585      3986
 -1     12454    3    0    1
 -2      1573      1441      3585      3986
 -1     12455    3    0    1
 -2      1751      3585      3586      3986
 -1     12456    3    0    1
 -2      2809      2698      3871      4028
 -1     12457    3    0    1
 -2      1885       180      3586      3986
 -1     12458    3    0    1
 -2       180      1751      3586      3986
 -1     12459    3    0    1
 -2      2775      1445      3495      4015
 -1     12460    3    0    1
 -2       185       678      1005      2013
 -1     12461    3    0    1
 -2      3842      2902      3946      4015
 -1     12462    3    0    1
 -2      3408      1669      1915      3988
 -1     12463    3    0    1
 -2      1669      3408      3446      3988
 -1     12464    3    0    1
 -2      3228      1832      3330      3988
 -1     12465    3    0    1
 -2      3330      1832      3446      3988
 -1     12466    3    0    1
 -2      2608      2922      2998      4005
 -1     12467    3    0    1
 -2      3827      3898      3705      4005
 -1     12468    3    0    1
 -2      3569      3827      3705      4005
 -1     12469    3    0    1
 -2      1915       339      3614      3988
 -1     12470    3    0    1
 -2       339      1858      3614      3988
 -1     12471    3    0    1
 -2      1832      1669      3446      3988
 -1     12472    3    0    1
 -2      1858       339      3952      3988
 -1     12473    3    0    1
 -2      3782      1858      3952      3988
 -1     12474    3    0    1
 -2      1320      3782      3952      3988
 -1     12475    3    0    1
 -2       339      1320      3952      3988
 -1     12476    3    0    1
 -2      2749      1320      3228      3988
 -1     12477    3    0    1
 -2      2917      3330      3408      3988
 -1     12478    3    0    1
 -2      1542      2917      3408      3988
 -1     12479    3    0    1
 -2      1034      2935      3496      3988
 -1     12480    3    0    1
 -2      2917      1542      3120      3988
 -1     12481    3    0    1
 -2      3228      1320      1915      3988
 -1     12482    3    0    1
 -2      3408      3330      3446      3988
 -1     12483    3    0    1
 -2      1858      1542      3408      3988
 -1     12484    3    0    1
 -2      2720      2608      3790      4005
 -1     12485    3    0    1
 -2      1858      3408      3614      3988
 -1     12486    3    0    1
 -2      1669      3228      1915      3988
 -1     12487    3    0    1
 -2      1320       339      1915      3988
 -1     12488    3    0    1
 -2      3228      1669      1832      3988
 -1     12489    3    0    1
 -2      1053       267      3989      2032
 -1     12490    3    0    1
 -2       267       348      3989      2032
 -1     12491    3    0    1
 -2      2265      2496      2715      3989
 -1     12492    3    0    1
 -2      2265      2715      3682      3989
 -1     12493    3    0    1
 -2       345      2521      2779      4024
 -1     12494    3    0    1
 -2      1865      1548      3929      4023
 -1     12495    3    0    1
 -2      1026      2448      3527      4023
 -1     12496    3    0    1
 -2      3460      3156      3950      3727
 -1     12497    3    0    1
 -2      3950      3156      3992      3727
 -1     12498    3    0    1
 -2      1701      1512      3828      3990
 -1     12499    3    0    1
 -2      1454      3181      3953      3990
 -1     12500    3    0    1
 -2      2740      2905      3953      3990
 -1     12501    3    0    1
 -2      3452      1531      3570      3990
 -1     12502    3    0    1
 -2      1874      3362      3570      3990
 -1     12503    3    0    1
 -2      1454      3362      1874      3990
 -1     12504    3    0    1
 -2      2905      1454      3953      3990
 -1     12505    3    0    1
 -2      1454      2905      3362      3990
 -1     12506    3    0    1
 -2      1531      1874      3570      3990
 -1     12507    3    0    1
 -2      2743      2707      2822      3990
 -1     12508    3    0    1
 -2      1512      2707      2743      3990
 -1     12509    3    0    1
 -2      2707      1512      3452      3990
 -1     12510    3    0    1
 -2      3362      2707      3452      3990
 -1     12511    3    0    1
 -2      2740      2707      3362      3990
 -1     12512    3    0    1
 -2      3070      1531      1995      3990
 -1     12513    3    0    1
 -2       406      3070      1995      3990
 -1     12514    3    0    1
 -2      1512      1701      3452      3990
 -1     12515    3    0    1
 -2      3362      3452      3570      3990
 -1     12516    3    0    1
 -2      1454      3070      3181      3990
 -1     12517    3    0    1
 -2      2905      2740      3362      3990
 -1     12518    3    0    1
 -2      3070      1454      1874      3990
 -1     12519    3    0    1
 -2      1531      3070      1874      3990
 -1     12520    3    0    1
 -2      3804      2809      3871      4028
 -1     12521    3    0    1
 -2      1427      1553      2787      3691
 -1     12522    3    0    1
 -2      3778      1026      3929      4023
 -1     12523    3    0    1
 -2      3565      1955      3666      3692
 -1     12524    3    0    1
 -2      1955      1920      3666      3692
 -1     12525    3    0    1
 -2       947       952      2455      3991
 -1     12526    3    0    1
 -2      2233      2367      2745      3991
 -1     12527    3    0    1
 -2       574       114       952      2034
 -1     12528    3    0    1
 -2      2455      2233      2745      3991
 -1     12529    3    0    1
 -2       952      3991      2033      2034
 -1     12530    3    0    1
 -2       947        95      3402      3756
 -1     12531    3    0    1
 -2      3402      2599       551      2565
 -1     12532    3    0    1
 -2       199       189      3987      2013
 -1     12533    3    0    1
 -2      2776      1005      3987      2013
 -1     12534    3    0    1
 -2       185      2776      3987      2013
 -1     12535    3    0    1
 -2       185      1005      2451      2013
 -1     12536    3    0    1
 -2      2451      1005      2776      2013
 -1     12537    3    0    1
 -2       185      2451      2776      2013
 -1     12538    3    0    1
 -2       686       185       189      2013
 -1     12539    3    0    1
 -2       185       686       678      2013
 -1     12540    3    0    1
 -2      3624      3916      3670      4001
 -1     12541    3    0    1
 -2      2865      2828      3088      4001
 -1     12542    3    0    1
 -2      3984      1865      3993      2026
 -1     12543    3    0    1
 -2      3812      2636      3967      3693
 -1     12544    3    0    1
 -2       169       172      3994      2035
 -1     12545    3    0    1
 -2      1493      2897      3967      3693
 -1     12546    3    0    1
 -2      2636      1493      3967      3693
 -1     12547    3    0    1
 -2      2715      3682      3989      3697
 -1     12548    3    0    1
 -2      3787      3813      3916      4001
 -1     12549    3    0    1
 -2      1687      1688      3680      3694
 -1     12550    3    0    1
 -2      1991      1687      3659      3694
 -1     12551    3    0    1
 -2      1444      1991      3659      3694
 -1     12552    3    0    1
 -2       215       331       718      2015
 -1     12553    3    0    1
 -2       215       718       721      2015
 -1     12554    3    0    1
 -2      3145      1982      3711      3728
 -1     12555    3    0    1
 -2        11      1982      1983      3728
 -1     12556    3    0    1
 -2      2683      3502      3964      3992
 -1     12557    3    0    1
 -2      3156      2683      3964      3992
 -1     12558    3    0    1
 -2      3910      3865      3985      4023
 -1     12559    3    0    1
 -2      2598      3950      3964      3992
 -1     12560    3    0    1
 -2      2374      1035      2769      4014
 -1     12561    3    0    1
 -2      3950      3156      3964      3992
 -1     12562    3    0    1
 -2      3550      3434      3560      3992
 -1     12563    3    0    1
 -2      1017      1316      2488      4023
 -1     12564    3    0    1
 -2      3778      1548      3984      4023
 -1     12565    3    0    1
 -2      2772      2770      3964      3992
 -1     12566    3    0    1
 -2      2770      2772      3502      3992
 -1     12567    3    0    1
 -2      3502      2772      3964      3992
 -1     12568    3    0    1
 -2      3486      3434      3550      3992
 -1     12569    3    0    1
 -2      3560      3550      3045      1631
 -1     12570    3    0    1
 -2      3550      3560      3045      3992
 -1     12571    3    0    1
 -2      3492      3486      3550      3992
 -1     12572    3    0    1
 -2      3045      3492      3550      3992
 -1     12573    3    0    1
 -2      3420      2770      3673      3992
 -1     12574    3    0    1
 -2      3492      3420      3673      3992
 -1     12575    3    0    1
 -2      3486      3492      3673      3992
 -1     12576    3    0    1
 -2      2598      2770      3224      3992
 -1     12577    3    0    1
 -2      2770      3045      3224      3992
 -1     12578    3    0    1
 -2      2683      3486      3502      3992
 -1     12579    3    0    1
 -2      3224      3045      3560      3992
 -1     12580    3    0    1
 -2      3502      3486      3673      3992
 -1     12581    3    0    1
 -2      3865      3984      3985      4023
 -1     12582    3    0    1
 -2      3045      2770      3420      3992
 -1     12583    3    0    1
 -2      3045      3420      3492      3992
 -1     12584    3    0    1
 -2      1282       563      3769      4030
 -1     12585    3    0    1
 -2       588       596      2567      3749
 -1     12586    3    0    1
 -2      1548      1865      3595      3993
 -1     12587    3    0    1
 -2      2447       942      2724      3709
 -1     12588    3    0    1
 -2      1741       335      1966      2017
 -1     12589    3    0    1
 -2      2270      2878      3975      4011
 -1     12590    3    0    1
 -2      3786      3847      3975      4011
 -1     12591    3    0    1
 -2      2878      3547      3975      4011
 -1     12592    3    0    1
 -2      2270      2536      2878      4011
 -1     12593    3    0    1
 -2      3523      1741      1966      2017
 -1     12594    3    0    1
 -2       186      3703      1697      1751
 -1     12595    3    0    1
 -2      3703       186      1697      1696
 -1     12596    3    0    1
 -2      1282       563      2426      3769
 -1     12597    3    0    1
 -2      3994       987      2035      2036
 -1     12598    3    0    1
 -2       642       650       987      2036
 -1     12599    3    0    1
 -2      2521      2487      2778      3994
 -1     12600    3    0    1
 -2       413       645       649      2038
 -1     12601    3    0    1
 -2       224      1032      4004      2039
 -1     12602    3    0    1
 -2      2017      3929      4023      3750
 -1     12603    3    0    1
 -2      1865       335      4023      3750
 -1     12604    3    0    1
 -2       609       136       967      2021
 -1     12605    3    0    1
 -2       613       609       967      2021
 -1     12606    3    0    1
 -2       136       613       408      2021
 -1     12607    3    0    1
 -2       613       136       609      2021
 -1     12608    3    0    1
 -2      3902      3920      3981      3995
 -1     12609    3    0    1
 -2      3902      2404      3920      3995
 -1     12610    3    0    1
 -2      1041      3189      3902      3995
 -1     12611    3    0    1
 -2      1041      3902      3981      3995
 -1     12612    3    0    1
 -2       250      1041      3981      3995
 -1     12613    3    0    1
 -2      3920       250      3981      3995
 -1     12614    3    0    1
 -2       250      3920      3947      3995
 -1     12615    3    0    1
 -2      3862      3833      3947      3995
 -1     12616    3    0    1
 -2      2436      3833      3505      3995
 -1     12617    3    0    1
 -2      2436      1328      3833      3995
 -1     12618    3    0    1
 -2      1041      1328      2436      3995
 -1     12619    3    0    1
 -2      1041      2436      3505      3995
 -1     12620    3    0    1
 -2      3189      2404      3902      3995
 -1     12621    3    0    1
 -2      1328       250      3833      3995
 -1     12622    3    0    1
 -2      3833       250      3947      3995
 -1     12623    3    0    1
 -2      2720      2404      3505      3995
 -1     12624    3    0    1
 -2      2404      3189      3505      3995
 -1     12625    3    0    1
 -2      1041       250      1328      3995
 -1     12626    3    0    1
 -2       255       346      1044      3722
 -1     12627    3    0    1
 -2      1652       250      3833      3996
 -1     12628    3    0    1
 -2      1654      3229      3489      3996
 -1     12629    3    0    1
 -2      1654      1479      3229      3996
 -1     12630    3    0    1
 -2      3006       250      1999      3996
 -1     12631    3    0    1
 -2       250      1652      1999      3996
 -1     12632    3    0    1
 -2      2701      2880      3051      3996
 -1     12633    3    0    1
 -2      2701      3051      3445      3996
 -1     12634    3    0    1
 -2      1652      2701      3006      3996
 -1     12635    3    0    1
 -2      2701      2638      2880      3996
 -1     12636    3    0    1
 -2      3131      1479      3489      3996
 -1     12637    3    0    1
 -2      1594      1479      3131      3996
 -1     12638    3    0    1
 -2      2969      3131      3489      3996
 -1     12639    3    0    1
 -2      1449      2701      1652      3996
 -1     12640    3    0    1
 -2      3006      2701      3445      3996
 -1     12641    3    0    1
 -2       250      1594      3131      3996
 -1     12642    3    0    1
 -2      1652      3006      1999      3996
 -1     12643    3    0    1
 -2      1479      1654      3489      3996
 -1     12644    3    0    1
 -2      2778      2521      3994      3702
 -1     12645    3    0    1
 -2      1668      1667      3416      3701
 -1     12646    3    0    1
 -2      1667      1668      2025      3701
 -1     12647    3    0    1
 -2      3089      2024      2025      3701
 -1     12648    3    0    1
 -2       978      2340      2847      4002
 -1     12649    3    0    1
 -2      2197       984      2524      4002
 -1     12650    3    0    1
 -2      2340       978      2570      4002
 -1     12651    3    0    1
 -2       984      2197      2570      4002
 -1     12652    3    0    1
 -2      2570      2524      2847      4002
 -1     12653    3    0    1
 -2      2524       414      3866      4002
 -1     12654    3    0    1
 -2      2742      3081      3251      4025
 -1     12655    3    0    1
 -2      2911      2742      3856      4025
 -1     12656    3    0    1
 -2      2932      1564      3081      4025
 -1     12657    3    0    1
 -2      1564      2932      1696      4025
 -1     12658    3    0    1
 -2      1441      3822      3925      4025
 -1     12659    3    0    1
 -2       169       991      2147      3702
 -1     12660    3    0    1
 -2      3822      1441      3856      4025
 -1     12661    3    0    1
 -2      1441      2911      3856      4025
 -1     12662    3    0    1
 -2      3798       990      3822      4025
 -1     12663    3    0    1
 -2       978       984      4002      2037
 -1     12664    3    0    1
 -2      1565      1696      1564      2932
 -1     12665    3    0    1
 -2      3613      1973      3632      3997
 -1     12666    3    0    1
 -2      1421      3230      3632      3997
 -1     12667    3    0    1
 -2      3230      1421      3926      3997
 -1     12668    3    0    1
 -2      3549      2781      3553      3997
 -1     12669    3    0    1
 -2      2781      3926      3553      3997
 -1     12670    3    0    1
 -2      1476      2781      3549      3997
 -1     12671    3    0    1
 -2      1762      1973      3613      3997
 -1     12672    3    0    1
 -2      3549      3352      3597      3997
 -1     12673    3    0    1
 -2      2834      3314      3613      3997
 -1     12674    3    0    1
 -2      2834      3613      3632      3997
 -1     12675    3    0    1
 -2      3230      2834      3632      3997
 -1     12676    3    0    1
 -2      2781      1476      2834      3997
 -1     12677    3    0    1
 -2      2781      2834      3230      3997
 -1     12678    3    0    1
 -2      3275      1421      3609      3997
 -1     12679    3    0    1
 -2      1762      1960      3609      3997
 -1     12680    3    0    1
 -2      1421      1973      3609      3997
 -1     12681    3    0    1
 -2      1476      3549      3597      3997
 -1     12682    3    0    1
 -2      1973      1762      3609      3997
 -1     12683    3    0    1
 -2       168      1527      3620      3706
 -1     12684    3    0    1
 -2      3589      3474      3631      3706
 -1     12685    3    0    1
 -2      2956      3474      3589      3706
 -1     12686    3    0    1
 -2      2956      3423      3474      3706
 -1     12687    3    0    1
 -2      3821      1524      3881      3998
 -1     12688    3    0    1
 -2      1524      3821      3858      3998
 -1     12689    3    0    1
 -2      3858      3821      3881      3998
 -1     12690    3    0    1
 -2      3858      3840      3897      3998
 -1     12691    3    0    1
 -2      1524      3858      3897      3998
 -1     12692    3    0    1
 -2      3840      1524      3897      3998
 -1     12693    3    0    1
 -2      1936      3550      2007      3723
 -1     12694    3    0    1
 -2      3809      3688      3777      1483
 -1     12695    3    0    1
 -2      3688      3809      3777      3999
 -1     12696    3    0    1
 -2      3323      2305      3938      3999
 -1     12697    3    0    1
 -2      3397      3323      3938      3999
 -1     12698    3    0    1
 -2      2536      2305      2506      2546
 -1     12699    3    0    1
 -2      2506      2536      3494      3999
 -1     12700    3    0    1
 -2      2506      3494      3934      3999
 -1     12701    3    0    1
 -2      2506      3843      3999      3934
 -1     12702    3    0    1
 -2      3684      3397      3688      3999
 -1     12703    3    0    1
 -2      3159      3397      3684      3999
 -1     12704    3    0    1
 -2      2305      2506      2595      3999
 -1     12705    3    0    1
 -2      3494      3159      3684      3999
 -1     12706    3    0    1
 -2      3494      3684      3696      3999
 -1     12707    3    0    1
 -2      3159      3323      3397      3999
 -1     12708    3    0    1
 -2      2305      2536      2506      3999
 -1     12709    3    0    1
 -2      2536      3159      3494      3999
 -1     12710    3    0    1
 -2      3827      3845      3806      3921
 -1     12711    3    0    1
 -2      1427      2787      2022      3707
 -1     12712    3    0    1
 -2      2865      2893      3894      4001
 -1     12713    3    0    1
 -2      3894      2893      3636      4001
 -1     12714    3    0    1
 -2      3785      2828      3894      4001
 -1     12715    3    0    1
 -2      2300      3787      3088      4001
 -1     12716    3    0    1
 -2      2300      3785      3787      4001
 -1     12717    3    0    1
 -2      3338       768      3742      4028
 -1     12718    3    0    1
 -2      2819      2900      3864      4028
 -1     12719    3    0    1
 -2      2582      2988      3340      4028
 -1     12720    3    0    1
 -2      2871      3857      3449      4017
 -1     12721    3    0    1
 -2      2941      2732      3577      4028
 -1     12722    3    0    1
 -2      3813      1621      3670      4001
 -1     12723    3    0    1
 -2      3787      1621      3813      4001
 -1     12724    3    0    1
 -2      1442      3894      3636      4001
 -1     12725    3    0    1
 -2      1442      3785      3894      4001
 -1     12726    3    0    1
 -2      3785      1442      3787      4001
 -1     12727    3    0    1
 -2      3785      2300      2828      4001
 -1     12728    3    0    1
 -2      3787      1442      1621      4001
 -1     12729    3    0    1
 -2      2865      3266      3624      4001
 -1     12730    3    0    1
 -2      2865      3624      3636      4001
 -1     12731    3    0    1
 -2      2809      3122      3338      4028
 -1     12732    3    0    1
 -2      3636      3624      3670      4001
 -1     12733    3    0    1
 -2      3648      1543      3651      4028
 -1     12734    3    0    1
 -2      2893      2865      3636      4001
 -1     12735    3    0    1
 -2      1621      3636      3670      4001
 -1     12736    3    0    1
 -2      2828      2300      3088      4001
 -1     12737    3    0    1
 -2      1621      1442      3636      4001
 -1     12738    3    0    1
 -2      3145      1626      1953      3711
 -1     12739    3    0    1
 -2       197      1760      1982      3711
 -1     12740    3    0    1
 -2      1760      3219      1982      3711
 -1     12741    3    0    1
 -2      2011      3977      3696      3712
 -1     12742    3    0    1
 -2      3688      3684      3999      3712
 -1     12743    3    0    1
 -2      3983      3688      3999      3712
 -1     12744    3    0    1
 -2      2002      1986      3983      3712
 -1     12745    3    0    1
 -2      3983      1986      3688      3712
 -1     12746    3    0    1
 -2      1411      3195      3893      3714
 -1     12747    3    0    1
 -2      3089      2024      3701      3714
 -1     12748    3    0    1
 -2      1667       134      3416      3714
 -1     12749    3    0    1
 -2      1667      2908      3701      3714
 -1     12750    3    0    1
 -2      3089      2908      3893      3714
 -1     12751    3    0    1
 -2      3852      3162      3893      3714
 -1     12752    3    0    1
 -2      2908      3852      3893      3714
 -1     12753    3    0    1
 -2      2908      1667      3416      3714
 -1     12754    3    0    1
 -2      3852      2908      3416      3714
 -1     12755    3    0    1
 -2      3162      3852      3917      3714
 -1     12756    3    0    1
 -2       134      3162      3917      3714
 -1     12757    3    0    1
 -2      3416       134      3917      3714
 -1     12758    3    0    1
 -2      3852      3416      3917      3714
 -1     12759    3    0    1
 -2      2908      3089      3701      3714
 -1     12760    3    0    1
 -2      3823      2447      1280      3709
 -1     12761    3    0    1
 -2      1280      3709       822      4003
 -1     12762    3    0    1
 -2      3795      3816      3963      4003
 -1     12763    3    0    1
 -2      1067       822      2400      4003
 -1     12764    3    0    1
 -2      2400       822      3709      4003
 -1     12765    3    0    1
 -2      3816      3909      3963      4003
 -1     12766    3    0    1
 -2      3795      2400      3199      4003
 -1     12767    3    0    1
 -2      2468      3795      3199      4003
 -1     12768    3    0    1
 -2      1280       354      3823      4003
 -1     12769    3    0    1
 -2      3823       354      3909      4003
 -1     12770    3    0    1
 -2       354      3795      3963      4003
 -1     12771    3    0    1
 -2       354      1067      3795      4003
 -1     12772    3    0    1
 -2      3909       354      3963      4003
 -1     12773    3    0    1
 -2      2468      2400      3709      4003
 -1     12774    3    0    1
 -2      2400      2468      3199      4003
 -1     12775    3    0    1
 -2      1067       354      1280      4003
 -1     12776    3    0    1
 -2      3496      1922      3988      3716
 -1     12777    3    0    1
 -2      3120      3490      3496      3716
 -1     12778    3    0    1
 -2      3120      3496      3988      3716
 -1     12779    3    0    1
 -2      3782      1545      3988      3716
 -1     12780    3    0    1
 -2      1545      3782      1922      3716
 -1     12781    3    0    1
 -2      1922      3782      3988      3716
 -1     12782    3    0    1
 -2      1922      3490      3496      1756
 -1     12783    3    0    1
 -2      3490      1922      3496      3716
 -1     12784    3    0    1
 -2      2922      2270      2462      3507
 -1     12785    3    0    1
 -2      3921      3827      3569      4005
 -1     12786    3    0    1
 -2      2270      2462      2608      4005
 -1     12787    3    0    1
 -2      2608      2462      2922      4005
 -1     12788    3    0    1
 -2      2608      2998      3961      4005
 -1     12789    3    0    1
 -2      3961      2998      3653      4005
 -1     12790    3    0    1
 -2      3803      1449      3713      4005
 -1     12791    3    0    1
 -2      2725      3921      3975      4005
 -1     12792    3    0    1
 -2      2270      2725      3975      4005
 -1     12793    3    0    1
 -2      3975      2922      2270      4005
 -1     12794    3    0    1
 -2      1449      3961      3653      4005
 -1     12795    3    0    1
 -2      1449      3790      3961      4005
 -1     12796    3    0    1
 -2      3790      1449      3803      4005
 -1     12797    3    0    1
 -2      2922      3569      3705      4005
 -1     12798    3    0    1
 -2      3653      2922      3705      4005
 -1     12799    3    0    1
 -2      2998      2922      3653      4005
 -1     12800    3    0    1
 -2      3653      3705      3713      4005
 -1     12801    3    0    1
 -2      2608      2720      2725      4005
 -1     12802    3    0    1
 -2      1449      3653      3713      4005
 -1     12803    3    0    1
 -2      2270      2608      2725      4005
 -1     12804    3    0    1
 -2      2922      2270      4005      2462
 -1     12805    3    0    1
 -2      1569      1294      1847      4006
 -1     12806    3    0    1
 -2       700      3710      3747      3755
 -1     12807    3    0    1
 -2       198       200      1011      3755
 -1     12808    3    0    1
 -2       199       700       703      3755
 -1     12809    3    0    1
 -2       198      1014      3710      3755
 -1     12810    3    0    1
 -2       198      1011      1014      3755
 -1     12811    3    0    1
 -2      1014      1011      3747      3755
 -1     12812    3    0    1
 -2      3145      3219      1982      3721
 -1     12813    3    0    1
 -2      1982      3219      2022      3721
 -1     12814    3    0    1
 -2      3389      2915      3645      4007
 -1     12815    3    0    1
 -2      2708      2881      3869      4007
 -1     12816    3    0    1
 -2      2915      2708      3869      4007
 -1     12817    3    0    1
 -2      3427       768      3487      4007
 -1     12818    3    0    1
 -2      1528      3050      3487      4007
 -1     12819    3    0    1
 -2      2880      3229      3489      4007
 -1     12820    3    0    1
 -2      2880      3489      3996      4007
 -1     12821    3    0    1
 -2      3918      3943      3996      4007
 -1     12822    3    0    1
 -2      2969      3918      3996      4007
 -1     12823    3    0    1
 -2      2969      2768      3918      4007
 -1     12824    3    0    1
 -2      3918      2768      3943      4007
 -1     12825    3    0    1
 -2      2768      2731      3869      4007
 -1     12826    3    0    1
 -2      2731      2768      2969      4007
 -1     12827    3    0    1
 -2       768      3389      3645      4007
 -1     12828    3    0    1
 -2      3389       768      3427      4007
 -1     12829    3    0    1
 -2       768      1528      3487      4007
 -1     12830    3    0    1
 -2      3050      1528      3229      4007
 -1     12831    3    0    1
 -2      3229      1528      3489      4007
 -1     12832    3    0    1
 -2      2612      2880      3943      4007
 -1     12833    3    0    1
 -2      3943      2880      3996      4007
 -1     12834    3    0    1
 -2      3353      2969      3489      4007
 -1     12835    3    0    1
 -2      3353      3489      3645      4007
 -1     12836    3    0    1
 -2      3050      2881      3427      4007
 -1     12837    3    0    1
 -2      2612      2881      3050      4007
 -1     12838    3    0    1
 -2      2730      2969      3353      4007
 -1     12839    3    0    1
 -2      3013      3353      3645      4007
 -1     12840    3    0    1
 -2      3050      3427      3487      4007
 -1     12841    3    0    1
 -2      2881      2612      2965      4007
 -1     12842    3    0    1
 -2      2880      2612      3050      4007
 -1     12843    3    0    1
 -2      2881      3389      3427      4007
 -1     12844    3    0    1
 -2      3489       768      3645      4007
 -1     12845    3    0    1
 -2      3013      2836      3353      4007
 -1     12846    3    0    1
 -2      2881      2915      3389      4007
 -1     12847    3    0    1
 -2      2881      2708      2915      4007
 -1     12848    3    0    1
 -2      2880      3050      3229      4007
 -1     12849    3    0    1
 -2      1528       768      3489      4007
 -1     12850    3    0    1
 -2      3482      3286      3587      4008
 -1     12851    3    0    1
 -2      3300      1748      3456      4008
 -1     12852    3    0    1
 -2      1813      1596      3638      4008
 -1     12853    3    0    1
 -2      3286      3584      3587      4008
 -1     12854    3    0    1
 -2      3030      2835      3167      4008
 -1     12855    3    0    1
 -2      1596      1748      3300      4008
 -1     12856    3    0    1
 -2      3022      1417      3082      4010
 -1     12857    3    0    1
 -2      2989      1513      1704      4010
 -1     12858    3    0    1
 -2      1704      1417      3044      4010
 -1     12859    3    0    1
 -2      1485      3064      3082      4010
 -1     12860    3    0    1
 -2      1417      1485      3082      4010
 -1     12861    3    0    1
 -2      2793      3064      3517      4010
 -1     12862    3    0    1
 -2      2918      2989      3022      4010
 -1     12863    3    0    1
 -2      2918      2593      2989      4010
 -1     12864    3    0    1
 -2      2912      2918      3022      4010
 -1     12865    3    0    1
 -2      3022      2989      3044      4010
 -1     12866    3    0    1
 -2      3064      1417      3517      4010
 -1     12867    3    0    1
 -2      2989      2648      3379      4010
 -1     12868    3    0    1
 -2      2593      2648      2989      4010
 -1     12869    3    0    1
 -2      2912      3022      3082      4010
 -1     12870    3    0    1
 -2      1417      1704      3517      4010
 -1     12871    3    0    1
 -2      1485      1417      3064      4010
 -1     12872    3    0    1
 -2      1704      1513      3517      4010
 -1     12873    3    0    1
 -2      3909      3816      3637      4011
 -1     12874    3    0    1
 -2      3909      3637      3642      4011
 -1     12875    3    0    1
 -2      3807      3909      3642      4011
 -1     12876    3    0    1
 -2      2878      2942      3547      4011
 -1     12877    3    0    1
 -2      2270      2725      2794      4011
 -1     12878    3    0    1
 -2      2506      2270      2794      4011
 -1     12879    3    0    1
 -2      3547      2942      3637      4011
 -1     12880    3    0    1
 -2      2878      2536      2942      4011
 -1     12881    3    0    1
 -2      2270      2506      2546      4011
 -1     12882    3    0    1
 -2      2942      2536      3245      4011
 -1     12883    3    0    1
 -2      3637      2942      3642      4011
 -1     12884    3    0    1
 -2      3815      3147      3941      4012
 -1     12885    3    0    1
 -2      3147      3815      3466      4012
 -1     12886    3    0    1
 -2      3369      3147      3466      4012
 -1     12887    3    0    1
 -2      3941      3369      2588      4012
 -1     12888    3    0    1
 -2      3052      3401      3904      4012
 -1     12889    3    0    1
 -2      3466      3465      3471      4012
 -1     12890    3    0    1
 -2      3113      3465      3466      4012
 -1     12891    3    0    1
 -2      3539      3103      3725      4012
 -1     12892    3    0    1
 -2      2588      3103      3539      4012
 -1     12893    3    0    1
 -2      3465      1519      3471      4012
 -1     12894    3    0    1
 -2      3401      3539      3725      4012
 -1     12895    3    0    1
 -2      3465      3725      1519      4012
 -1     12896    3    0    1
 -2      3103      2588      3369      4012
 -1     12897    3    0    1
 -2      3052      2588      3539      4012
 -1     12898    3    0    1
 -2      3369      3941      2588      2832
 -1     12899    3    0    1
 -2      3401      3052      3539      4012
 -1     12900    3    0    1
 -2      3796      3865      3910      4023
 -1     12901    3    0    1
 -2       335      1017      3985      4023
 -1     12902    3    0    1
 -2      1026      1316      3929      4023
 -1     12903    3    0    1
 -2      1548      1865      3984      4023
 -1     12904    3    0    1
 -2      1017      2488      3796      4023
 -1     12905    3    0    1
 -2      2488       734      3527      4023
 -1     12906    3    0    1
 -2      1548      3778      3929      4023
 -1     12907    3    0    1
 -2      1542      3780      3668      3729
 -1     12908    3    0    1
 -2      3780      1542      3819      3729
 -1     12909    3    0    1
 -2      1815      3480      3942      3729
 -1     12910    3    0    1
 -2      1545      1815      3942      3729
 -1     12911    3    0    1
 -2       200      1009      3987      3730
 -1     12912    3    0    1
 -2       199       200      3987      3730
 -1     12913    3    0    1
 -2      1306      2213      2727      3730
 -1     12914    3    0    1
 -2      2213      1306      3987      3730
 -1     12915    3    0    1
 -2      2774      2213      3987      3730
 -1     12916    3    0    1
 -2      2727      2213      2774      3730
 -1     12917    3    0    1
 -2      1445      1903      3495      4015
 -1     12918    3    0    1
 -2      2613      3142      3842      4015
 -1     12919    3    0    1
 -2      3142      3458      3669      4015
 -1     12920    3    0    1
 -2      3842      3142      3669      4015
 -1     12921    3    0    1
 -2      2695      2613      3965      4015
 -1     12922    3    0    1
 -2      2626      2695      3965      4015
 -1     12923    3    0    1
 -2      1903      1683      3458      4015
 -1     12924    3    0    1
 -2      3458      1683      3669      4015
 -1     12925    3    0    1
 -2      2765      2775      3495      4015
 -1     12926    3    0    1
 -2      3458      2765      3495      4015
 -1     12927    3    0    1
 -2      1445      3277      3522      4015
 -1     12928    3    0    1
 -2      3277      2902      3522      4015
 -1     12929    3    0    1
 -2      3142      2765      3458      4015
 -1     12930    3    0    1
 -2      2765      2626      2775      4015
 -1     12931    3    0    1
 -2      1903      1445      3522      4015
 -1     12932    3    0    1
 -2      2613      2626      2765      4015
 -1     12933    3    0    1
 -2      2613      2765      3142      4015
 -1     12934    3    0    1
 -2      1903      3522      3669      4015
 -1     12935    3    0    1
 -2      2626      2613      2695      4015
 -1     12936    3    0    1
 -2      1683      1903      3669      4015
 -1     12937    3    0    1
 -2      3608      1955      3625      3733
 -1     12938    3    0    1
 -2      1468      1955      3608      3733
 -1     12939    3    0    1
 -2      1854      1468      3654      3733
 -1     12940    3    0    1
 -2      3037      1854      3654      3733
 -1     12941    3    0    1
 -2      3608      3562      3954      3733
 -1     12942    3    0    1
 -2      3954      3562      3625      3733
 -1     12943    3    0    1
 -2      1468      3608      3654      3733
 -1     12944    3    0    1
 -2      3537      3608      3954      3733
 -1     12945    3    0    1
 -2      3037      3537      3954      3733
 -1     12946    3    0    1
 -2      3537      3037      3654      3733
 -1     12947    3    0    1
 -2      3562      3608      3625      3733
 -1     12948    3    0    1
 -2      3608      3537      3654      3733
 -1     12949    3    0    1
 -2      2531      2484      3018      3734
 -1     12950    3    0    1
 -2      1327       351      3959      3738
 -1     12951    3    0    1
 -2      1060      1327      2355      3738
 -1     12952    3    0    1
 -2      1617      3192      3639      3735
 -1     12953    3    0    1
 -2      3326      3871      4020      4028
 -1     12954    3    0    1
 -2      3871      2739      4020      4028
 -1     12955    3    0    1
 -2      3916      3624      3670      3736
 -1     12956    3    0    1
 -2      1876      3916      3670      3736
 -1     12957    3    0    1
 -2      2582      3864      4020      4028
 -1     12958    3    0    1
 -2      3122      1528      3338      4028
 -1     12959    3    0    1
 -2      2739      2582      4020      4028
 -1     12960    3    0    1
 -2      2698      2739      3871      4028
 -1     12961    3    0    1
 -2      1570      1847      3525      1848
 -1     12962    3    0    1
 -2      2704      3244      3875      4017
 -1     12963    3    0    1
 -2       572      3356      3634      4017
 -1     12964    3    0    1
 -2      3356       572      3607      4017
 -1     12965    3    0    1
 -2      2699      2704      3953      4017
 -1     12966    3    0    1
 -2      3244      2699      3953      4017
 -1     12967    3    0    1
 -2       572      1842      3607      4017
 -1     12968    3    0    1
 -2      2602      3250      3914      4017
 -1     12969    3    0    1
 -2      1828      3449      3914      4017
 -1     12970    3    0    1
 -2      1600      3313      3607      4017
 -1     12971    3    0    1
 -2      1842      1600      3607      4017
 -1     12972    3    0    1
 -2      3250      1828      3914      4017
 -1     12973    3    0    1
 -2      1828      3250      3313      4017
 -1     12974    3    0    1
 -2      1600      1828      3313      4017
 -1     12975    3    0    1
 -2      2871      3449      3634      4017
 -1     12976    3    0    1
 -2      3083      2871      3634      4017
 -1     12977    3    0    1
 -2      3244      3356      3607      4017
 -1     12978    3    0    1
 -2      3244      2930      3356      4017
 -1     12979    3    0    1
 -2      3313      3244      3607      4017
 -1     12980    3    0    1
 -2      2602      3244      3313      4017
 -1     12981    3    0    1
 -2      2704      2699      3244      4017
 -1     12982    3    0    1
 -2      3449      1842      3634      4017
 -1     12983    3    0    1
 -2      1842       572      3634      4017
 -1     12984    3    0    1
 -2      3250      2602      3313      4017
 -1     12985    3    0    1
 -2      1600      1842      3449      4017
 -1     12986    3    0    1
 -2      1828      1600      3449      4017
 -1     12987    3    0    1
 -2      3798      2802      3911      4019
 -1     12988    3    0    1
 -2      3798      2937      3251      4019
 -1     12989    3    0    1
 -2      3798      3251      3534      4019
 -1     12990    3    0    1
 -2      3087      2849      3911      4019
 -1     12991    3    0    1
 -2      2995      3062      3329      4019
 -1     12992    3    0    1
 -2      2995      3329      3591      4019
 -1     12993    3    0    1
 -2      2670      2995      3591      4019
 -1     12994    3    0    1
 -2      3886      2670      3591      4019
 -1     12995    3    0    1
 -2      2812      3886      3591      4019
 -1     12996    3    0    1
 -2      3015      3123      3886      4019
 -1     12997    3    0    1
 -2      3886      3123      3685      4019
 -1     12998    3    0    1
 -2      2804      3886      3685      4019
 -1     12999    3    0    1
 -2      2712      2804      3685      4019
 -1     13000    3    0    1
 -2      2804      2670      3886      4019
 -1     13001    3    0    1
 -2      2802      2625      3911      4019
 -1     13002    3    0    1
 -2      2904      2801      3646      4019
 -1     13003    3    0    1
 -2      3062      2904      3329      4019
 -1     13004    3    0    1
 -2      2801      3534      3646      4019
 -1     13005    3    0    1
 -2       214      3321      1629      1952
 -1     13006    3    0    1
 -2      2810      2887      4019      2811
 -1     13007    3    0    1
 -2      2801      2802      3534      4019
 -1     13008    3    0    1
 -2      2811      2810      3015      4019
 -1     13009    3    0    1
 -2      2812      2811      3015      4019
 -1     13010    3    0    1
 -2      2937      2812      3329      4019
 -1     13011    3    0    1
 -2      2712      2625      2758      4019
 -1     13012    3    0    1
 -2      2670      2712      2758      4019
 -1     13013    3    0    1
 -2      2937      3329      3646      4019
 -1     13014    3    0    1
 -2      3329      2812      3591      4019
 -1     13015    3    0    1
 -2      2887      2812      2937      4019
 -1     13016    3    0    1
 -2      2670      2758      2995      4019
 -1     13017    3    0    1
 -2      3033      3087      3685      4019
 -1     13018    3    0    1
 -2      2758      2625      2801      4019
 -1     13019    3    0    1
 -2      3534      2937      3646      4019
 -1     13020    3    0    1
 -2      2811      2812      2887      4019
 -1     13021    3    0    1
 -2      3251      2937      3534      4019
 -1     13022    3    0    1
 -2      3033      2849      3087      4019
 -1     13023    3    0    1
 -2      2995      2758      3062      4019
 -1     13024    3    0    1
 -2      3015      3033      3123      4019
 -1     13025    3    0    1
 -2      3015      2810      3033      4019
 -1     13026    3    0    1
 -2      3123      3033      3685      4019
 -1     13027    3    0    1
 -2      2712      2670      2804      4019
 -1     13028    3    0    1
 -2      2801      2625      2802      4019
 -1     13029    3    0    1
 -2      2758      2801      2904      4019
 -1     13030    3    0    1
 -2      2758      2904      3062      4019
 -1     13031    3    0    1
 -2      2810      2849      3033      4019
 -1     13032    3    0    1
 -2      1955      3565      3666      4022
 -1     13033    3    0    1
 -2      3560      3666      1873      3581
 -1     13034    3    0    1
 -2      3666      3560      1873      4022
 -1     13035    3    0    1
 -2      3373      3156      3727      4022
 -1     13036    3    0    1
 -2      3666      3373      3727      4022
 -1     13037    3    0    1
 -2      3365      3224      3571      4022
 -1     13038    3    0    1
 -2      2598      3224      3365      4022
 -1     13039    3    0    1
 -2      3224      3565      3571      4022
 -1     13040    3    0    1
 -2      1468      3666      3727      4022
 -1     13041    3    0    1
 -2      3224      3560      3565      4022
 -1     13042    3    0    1
 -2      1873      3373      3666      4022
 -1     13043    3    0    1
 -2      2873      2598      3365      4022
 -1     13044    3    0    1
 -2      1854      1468      3727      4022
 -1     13045    3    0    1
 -2      3565      3560      3692      4022
 -1     13046    3    0    1
 -2      1468      1955      3666      4022
 -1     13047    3    0    1
 -2      1300      2779      3698      4024
 -1     13048    3    0    1
 -2      2521       345      3994      4024
 -1     13049    3    0    1
 -2      3796      3910      3958      4023
 -1     13050    3    0    1
 -2      1017      3796      3958      4023
 -1     13051    3    0    1
 -2      3958      3910      3985      4023
 -1     13052    3    0    1
 -2      1017      3958      3985      4023
 -1     13053    3    0    1
 -2      2488      2448      2870      4023
 -1     13054    3    0    1
 -2      2448      2488      3527      4023
 -1     13055    3    0    1
 -2      1316       335      2017      4023
 -1     13056    3    0    1
 -2      1017       335      1316      4023
 -1     13057    3    0    1
 -2       113       400      3991      2034
 -1     13058    3    0    1
 -2      3991       400      2033      2034
 -1     13059    3    0    1
 -2      3991       114      4013      2034
 -1     13060    3    0    1
 -2       113      3991      4013      2034
 -1     13061    3    0    1
 -2       114       113      4013      2034
 -1     13062    3    0    1
 -2       113       114       574      2034
 -1     13063    3    0    1
 -2       113       574       577      2034
 -1     13064    3    0    1
 -2       690      2166      2451      3746
 -1     13065    3    0    1
 -2      2166       690      2303      3746
 -1     13066    3    0    1
 -2      1005       690      2451      3746
 -1     13067    3    0    1
 -2      1005      2451      2776      3746
 -1     13068    3    0    1
 -2      1011      1005      2776      3746
 -1     13069    3    0    1
 -2      3759       660      2651      3463
 -1     13070    3    0    1
 -2      2776      2552      3987      3746
 -1     13071    3    0    1
 -2      1011      2776      3987      3746
 -1     13072    3    0    1
 -2      3759       996      2651       993
 -1     13073    3    0    1
 -2       707      1005      1011      3746
 -1     13074    3    0    1
 -2       707       690      1005      3746
 -1     13075    3    0    1
 -2       541      1270      2662      3747
 -1     13076    3    0    1
 -2       541      2662      2664      3747
 -1     13077    3    0    1
 -2      3710       700      2662       696
 -1     13078    3    0    1
 -2       700      3710      2662      3747
 -1     13079    3    0    1
 -2      3194       588      1186      2567
 -1     13080    3    0    1
 -2        95       947      2033      3756
 -1     13081    3    0    1
 -2        95       551      3402      3756
 -1     13082    3    0    1
 -2       707       708      1014      3747
 -1     13083    3    0    1
 -2      1014      2662      3710      3747
 -1     13084    3    0    1
 -2      1014       708      2662      3747
 -1     13085    3    0    1
 -2       411       147      2037      3760
 -1     13086    3    0    1
 -2        96       379      2491      4030
 -1     13087    3    0    1
 -2       172      3994      2035      2036
 -1     13088    3    0    1
 -2       172       162      3994      2036
 -1     13089    3    0    1
 -2       345       162       642      2036
 -1     13090    3    0    1
 -2       642       162       650      2036
 -1     13091    3    0    1
 -2       125       588      3533      3749
 -1     13092    3    0    1
 -2      2567       962      3194      3749
 -1     13093    3    0    1
 -2      3194       962      3533      3749
 -1     13094    3    0    1
 -2      3533       588      3194      3749
 -1     13095    3    0    1
 -2       588      3194      3749      2567
 -1     13096    3    0    1
 -2       125       596       588      3749
 -1     13097    3    0    1
 -2       596       125       405      3749
 -1     13098    3    0    1
 -2      3557      2017      2018      3750
 -1     13099    3    0    1
 -2      2017      3412      3557      1795
 -1     13100    3    0    1
 -2      3412      2017      3557      3750
 -1     13101    3    0    1
 -2      2018      1795      3557      1796
 -1     13102    3    0    1
 -2      3557      2017      1795      2018
 -1     13103    3    0    1
 -2      3994      2147      3702      4024
 -1     13104    3    0    1
 -2      2779      2521      3702      4024
 -1     13105    3    0    1
 -2       172       162      3698      4024
 -1     13106    3    0    1
 -2       162       345      3698      4024
 -1     13107    3    0    1
 -2       169       172      3698      4024
 -1     13108    3    0    1
 -2      2490      2779      3702      4024
 -1     13109    3    0    1
 -2       345      1300      3698      4024
 -1     13110    3    0    1
 -2       991       169      3698      4024
 -1     13111    3    0    1
 -2      1573      1441      3925      4025
 -1     13112    3    0    1
 -2      1751      1573      3925      4025
 -1     13113    3    0    1
 -2       186      1696      3703      4025
 -1     13114    3    0    1
 -2      3081      1564      1773      4025
 -1     13115    3    0    1
 -2      3081      1773      3251      4025
 -1     13116    3    0    1
 -2      1751       186      3703      4025
 -1     13117    3    0    1
 -2       186      1751      3925      4025
 -1     13118    3    0    1
 -2      2932      1573      3703      4025
 -1     13119    3    0    1
 -2       186       990      3251      4025
 -1     13120    3    0    1
 -2      2742      1441      2932      4025
 -1     13121    3    0    1
 -2      2742      2932      3081      4025
 -1     13122    3    0    1
 -2      1441      1573      2932      4025
 -1     13123    3    0    1
 -2      1564      1696      3251      4025
 -1     13124    3    0    1
 -2      1696       186      3251      4025
 -1     13125    3    0    1
 -2      1441      2742      2911      4025
 -1     13126    3    0    1
 -2      1573      1751      3703      4025
 -1     13127    3    0    1
 -2      1773      1564      3251      4025
 -1     13128    3    0    1
 -2       239       757       337      2040
 -1     13129    3    0    1
 -2       757       239       754      2040
 -1     13130    3    0    1
 -2      2865      3266      4001      4027
 -1     13131    3    0    1
 -2      3779      2467      3799      4027
 -1     13132    3    0    1
 -2      1851       427      3998      2041
 -1     13133    3    0    1
 -2      3998       427      4009      2041
 -1     13134    3    0    1
 -2      3442      2484      3734      4026
 -1     13135    3    0    1
 -2      2634      2484      3840      4026
 -1     13136    3    0    1
 -2      2484      2634      3830      4026
 -1     13137    3    0    1
 -2      3838      3998      4009      4026
 -1     13138    3    0    1
 -2      3998      1851      2041      4026
 -1     13139    3    0    1
 -2      1524      1851      3998      4026
 -1     13140    3    0    1
 -2      3840      1524      3998      4026
 -1     13141    3    0    1
 -2      1524      3840      3635      4026
 -1     13142    3    0    1
 -2      2634      3840      3858      4026
 -1     13143    3    0    1
 -2      3830      2634      3858      4026
 -1     13144    3    0    1
 -2      2484      3836      3734      4026
 -1     13145    3    0    1
 -2      3838      1826      3737      4026
 -1     13146    3    0    1
 -2      1826      3838      4009      4026
 -1     13147    3    0    1
 -2      4009      3998      2041      4026
 -1     13148    3    0    1
 -2      2484      3783      3836      4026
 -1     13149    3    0    1
 -2      3783      2484      3830      4026
 -1     13150    3    0    1
 -2      3783      3830      3734      4026
 -1     13151    3    0    1
 -2      3836      3783      3734      4026
 -1     13152    3    0    1
 -2       183      1826      4009      4026
 -1     13153    3    0    1
 -2       183      4009      2041      4026
 -1     13154    3    0    1
 -2      3635      3442      3737      4026
 -1     13155    3    0    1
 -2      3442      3734      3737      4026
 -1     13156    3    0    1
 -2      1826      3635      3737      4026
 -1     13157    3    0    1
 -2      1851      3635      2041      4026
 -1     13158    3    0    1
 -2      1851      1524      3635      4026
 -1     13159    3    0    1
 -2      1826       183      3635      4026
 -1     13160    3    0    1
 -2      3635       183      2041      4026
 -1     13161    3    0    1
 -2      2773      3787      3799      4027
 -1     13162    3    0    1
 -2      2467      2773      3799      4027
 -1     13163    3    0    1
 -2      2773      2467      3088      4027
 -1     13164    3    0    1
 -2      3088      2467      3223      4027
 -1     13165    3    0    1
 -2      3266      3585      3736      4027
 -1     13166    3    0    1
 -2      3624      3266      3736      4027
 -1     13167    3    0    1
 -2      3585      1441      3736      4027
 -1     13168    3    0    1
 -2      2865      2561      3266      4027
 -1     13169    3    0    1
 -2      2561      2845      3266      4027
 -1     13170    3    0    1
 -2      3266      2845      3585      4027
 -1     13171    3    0    1
 -2      1441      1568      3736      4027
 -1     13172    3    0    1
 -2      2988      2809      3338      4028
 -1     13173    3    0    1
 -2      2988      3338      3742      4028
 -1     13174    3    0    1
 -2      3648      3340      3742      4028
 -1     13175    3    0    1
 -2      2819      2582      3340      4028
 -1     13176    3    0    1
 -2      3122      2941      3577      4028
 -1     13177    3    0    1
 -2      1528      3122      3577      4028
 -1     13178    3    0    1
 -2      2582      2739      2988      4028
 -1     13179    3    0    1
 -2      2698      2809      2988      4028
 -1     13180    3    0    1
 -2      2900      2819      3340      4028
 -1     13181    3    0    1
 -2      1543      3577      3651      4028
 -1     13182    3    0    1
 -2      2900      3340      3648      4028
 -1     13183    3    0    1
 -2       768      1528      3577      4028
 -1     13184    3    0    1
 -2      2739      2698      2988      4028
 -1     13185    3    0    1
 -2      1543       768      3577      4028
 -1     13186    3    0    1
 -2      1044       779      1047      3754
 -1     13187    3    0    1
 -2      2194       943      2447      3764
 -1     13188    3    0    1
 -2       511      1245       526      3754
 -1     13189    3    0    1
 -2      1217       511      3718      3754
 -1     13190    3    0    1
 -2      1245       511      1217      3754
 -1     13191    3    0    1
 -2       779      1044      3718      3754
 -1     13192    3    0    1
 -2       636      2340      2570      3770
 -1     13193    3    0    1
 -2      2533       636      2570      3770
 -1     13194    3    0    1
 -2      2745      3991      4013      3757
 -1     13195    3    0    1
 -2      2764      2745      4013      3757
 -1     13196    3    0    1
 -2      2745       947      3991      3757
 -1     13197    3    0    1
 -2       947        95      3991      3757
 -1     13198    3    0    1
 -2      3987       200      2012      3758
 -1     13199    3    0    1
 -2       198       200      2508      3758
 -1     13200    3    0    1
 -2      2508       200      2552      3758
 -1     13201    3    0    1
 -2       198      2508      2711      3758
 -1     13202    3    0    1
 -2       173       996      3463      3759
 -1     13203    3    0    1
 -2       173       169       996      3759
 -1     13204    3    0    1
 -2       169       173       660      3759
 -1     13205    3    0    1
 -2       660       173      3463      3759
 -1     13206    3    0    1
 -2       667       169       663      3759
 -1     13207    3    0    1
 -2       169       667       172      3759
 -1     13208    3    0    1
 -2       632       147       411      3760
 -1     13209    3    0    1
 -2      2644       531      2671      3761
 -1     13210    3    0    1
 -2       733       333      1027       224
 -1     13211    3    0    1
 -2      3732       733      2644      3761
 -1     13212    3    0    1
 -2       733      3732      2644       736
 -1     13213    3    0    1
 -2       743      2644      2671      3761
 -1     13214    3    0    1
 -2       744       743      2671      3761
 -1     13215    3    0    1
 -2       743       744      1032      3761
 -1     13216    3    0    1
 -2      1029       743      1032      3761
 -1     13217    3    0    1
 -2      2644      1029      3732      3761
 -1     13218    3    0    1
 -2       743      1029      2644      3761
 -1     13219    3    0    1
 -2       776       255       263      3763
 -1     13220    3    0    1
 -2      3718      1044      3722      3763
 -1     13221    3    0    1
 -2        95      1279      2194      3764
 -1     13222    3    0    1
 -2      3623      3508      3395      3966
 -1     13223    3    0    1
 -2      3863       148      1997      3776
 -1     13224    3    0    1
 -2       147       148      3766      3776
 -1     13225    3    0    1
 -2      2340       147      2847      3776
 -1     13226    3    0    1
 -2      2533       977      3770      3775
 -1     13227    3    0    1
 -2      3766       148      3771      3773
 -1     13228    3    0    1
 -2      2523      3252      3866      3766
 -1     13229    3    0    1
 -2      1297      2523      3866      3766
 -1     13230    3    0    1
 -2       147      1297      3866      3766
 -1     13231    3    0    1
 -2      2105       976      2443      3767
 -1     13232    3    0    1
 -2      3732       733       333       736
 -1     13233    3    0    1
 -2       224      1029      1032      3768
 -1     13234    3    0    1
 -2      1029      3732      3761      3768
 -1     13235    3    0    1
 -2      1032      1029      3761      3768
 -1     13236    3    0    1
 -2       733      3732       333      3768
 -1     13237    3    0    1
 -2       224       333      1029      3768
 -1     13238    3    0    1
 -2      1029       333      3732      3768
 -1     13239    3    0    1
 -2       224       740       733      3768
 -1     13240    3    0    1
 -2       740       224       338      3768
 -1     13241    3    0    1
 -2      2237       947      2745      3769
 -1     13242    3    0    1
 -2      2745       947      3757      3769
 -1     13243    3    0    1
 -2       975      2340      2372      3776
 -1     13244    3    0    1
 -2        98      1282      2426      3769
 -1     13245    3    0    1
 -2        95        98      2426      3769
 -1     13246    3    0    1
 -2       147      1297      3766      3771
 -1     13247    3    0    1
 -2       147       973      1297      3771
 -1     13248    3    0    1
 -2       148       147      3766      3771
 -1     13249    3    0    1
 -2       147       148       973      3771
 -1     13250    3    0    1
 -2       975      3863      1997      3776
 -1     13251    3    0    1
 -2      3771       148      3337      3773
 -1     13252    3    0    1
 -2       148      3771      3337       973
 -1     13253    3    0    1
 -2      3337       148      3962      3773
 -1     13254    3    0    1
 -2       563       945      2549      4030
 -1     13255    3    0    1
 -2      2366       146      2533      3775
 -1     13256    3    0    1
 -2       146      2366      2443      3775
 -1     13257    3    0    1
 -2       550        96       557      4030
 -1     13258    3    0    1
 -2       379       550       946      4030
 -1     13259    3    0    1
 -2      1282       947      3402      4030
 -1     13260    3    0    1
 -2      2566       623      2571      4029
 -1     13261    3    0    1
 -2       977       623      2566      4029
 -1     13262    3    0    1
 -2       975       148      3740      4029
 -1     13263    3    0    1
 -2       147       978      3760      4029
 -1     13264    3    0    1
 -2       635       976      3767      4029
 -1     13265    3    0    1
 -2      3767       976      3774      4029
 -1     13266    3    0    1
 -2       623       629      2571      4029
 -1     13267    3    0    1
 -2       148       147       627      4029
 -1     13268    3    0    1
 -2       148       627      3740      4029
 -1     13269    3    0    1
 -2       624       147      3760      4029
 -1     13270    3    0    1
 -2       977      3770      3775      4029
 -1     13271    3    0    1
 -2       977       636      3770      4029
 -1     13272    3    0    1
 -2       629       976      2571      4029
 -1     13273    3    0    1
 -2       146       623       977      4029
 -1     13274    3    0    1
 -2       627      2571      3740      4029
 -1     13275    3    0    1
 -2      2566       624      3760      4029
 -1     13276    3    0    1
 -2       624      2566      2571      4029
 -1     13277    3    0    1
 -2       147       624       627      4029
 -1     13278    3    0    1
 -2       976      2443      3774      4029
 -1     13279    3    0    1
 -2       623       146       629      4029
 -1     13280    3    0    1
 -2       627       624      2571      4029
 -1     13281    3    0    1
 -2       146       977      3775      4029
 -1     13282    3    0    1
 -2      2443       146      3775      4029
 -1     13283    3    0    1
 -2       146       151       629      4029
 -1     13284    3    0    1
 -2       629       151       976      4029
 -1     13285    3    0    1
 -2       151       146      2443      4029
 -1     13286    3    0    1
 -2       976       151      2443      4029
 -1     13287    3    0    1
 -2       978       636      2566      4029
 -1     13288    3    0    1
 -2      2340      3767      3770      4029
 -1     13289    3    0    1
 -2      2340      2372      3767      4029
 -1     13290    3    0    1
 -2       635       975      2571      4029
 -1     13291    3    0    1
 -2      3770      3767      3774      4029
 -1     13292    3    0    1
 -2       978      2566      3760      4029
 -1     13293    3    0    1
 -2       636       977      2566      4029
 -1     13294    3    0    1
 -2      2571       975      3740      4029
 -1     13295    3    0    1
 -2      3770      3774      3775      4029
 -1     13296    3    0    1
 -2       976       635      2571      4029
 -1     13297    3    0    1
 -2      3774      2443      3775      4029
 -3
    1PSTEP                         1           1           1          
  100CL  101 1.000000000        4030                     0    1           1
 -4  DISP        4    1
 -5  D1          1    2    1    0
 -5  D2          1    2    2    0
 -5  D3          1    2    3    0
 -5  ALL         1    2    0    0    1ALL
 -1         1-2.49509E-02 5.01884E-03-9.87674E-01
 -1         2-1.75438E-01 3.78608E-02-9.71557E-01
 -1         3 1.78239E-01-8.16831E-02-7.63233E-01
 -1         4 1.90347E-01-8.62289E-02-5.11766E-01
 -1         5 1.80585E-01-8.23493E-02-7.65654E-01
 -1         6 1.89177E-01-8.57573E-02-5.14169E-01
 -1         7 7.85355E-02-1.89125E-01-7.54246E-01
 -1         8 1.44176E-01-1.53694E-01-4.99134E-01
 -1         9 1.95409E-01 5.48814E-04-7.65247E-01
 -1        10 1.95694E-01-9.40090E-04-7.65595E-01
 -1        11 1.75770E-01 3.32202E-02-9.78490E-01
 -1        12 1.71607E-01-3.84563E-02-9.73641E-01
 -1        13 1.79806E-01-8.07742E-02-7.60779E-01
 -1        14-7.88402E-02-1.82750E-01-7.57852E-01
 -1        15-8.65495E-02-1.94547E-01-2.23230E-01
 -1        16-7.84199E-02-1.79701E-01-7.56300E-01
 -1        17-7.74505E-02-1.81811E-01-7.54965E-01
 -1        18-1.01832E-01-1.45848E-01-9.71847E-01
 -1        19-3.62465E-02-1.74631E-01-9.69670E-01
 -1        20-1.01810E-01-1.44236E-01-9.67779E-01
 -1        21-1.46944E-01-9.96331E-02-9.67106E-01
 -1        22-1.40590E-01-1.36803E-01-7.53739E-01
 -1        23-1.74528E-01-3.19531E-02-9.67478E-01
 -1        24-1.75907E-01-3.20323E-02-9.71017E-01
 -1        25-1.73995E-01 3.78983E-02-9.67518E-01
 -1        26-2.07874E-01 3.23192E-03-4.97563E-01
 -1        27-1.97700E-01 2.66910E-03-7.50360E-01
 -1        28-1.98148E-01 3.96463E-03-7.51616E-01
 -1        29-2.11811E-01 2.25041E-03-2.21200E-01
 -1        30-2.09259E-01 3.24394E-03-4.95885E-01
 -1        31-8.10982E-02 1.94088E-01-5.00807E-01
 -1        32-1.49242E-01-1.46113E-01-4.99797E-01
 -1        33-1.93983E-01-8.25693E-02-2.21028E-01
 -1        34-1.81768E-01-7.53840E-02-7.50889E-01
 -1        35-1.91580E-01-7.92092E-02-4.97158E-01
 -1        36-1.85719E-01-7.61975E-02-7.52974E-01
 -1        37-1.40016E-01-1.37738E-01-7.52766E-01
 -1        38-1.42026E-01-1.39325E-01-7.52642E-01
 -1        39-1.42394E-01-1.38945E-01-7.55111E-01
 -1        40-7.97010E-02 1.85362E-01-7.54931E-01
 -1        41-8.05735E-02 1.99400E-01-2.23810E-01
 -1        42-7.77080E-02 1.82305E-01-7.54359E-01
 -1        43-8.15454E-02 1.93896E-01-5.01396E-01
 -1        44-7.87855E-02 1.82137E-01-7.55517E-01
 -1        45 8.32847E-04 2.00134E-01-7.55432E-01
 -1        46-3.70112E-02 1.79071E-01-9.70522E-01
 -1        47 3.66309E-02 1.75849E-01-9.72304E-01
 -1        48-2.89286E-04 2.00313E-01-7.55411E-01
 -1        49-1.83257E-01 7.66045E-02-7.49813E-01
 -1        50-1.85420E-01 7.58377E-02-7.50302E-01
 -1        51-1.50599E-01 9.40219E-02-9.65505E-01
 -1        52-1.50662E-01 9.60636E-02-9.70468E-01
 -1        53-1.94706E-01 7.87540E-02-4.92523E-01
 -1        54-1.95243E-01 7.84336E-02-4.93386E-01
 -1        55-1.41299E-01 1.37139E-01-7.54236E-01
 -1        56-1.02634E-01 1.47296E-01-9.69587E-01
 -1        57-1.40607E-01 1.38373E-01-7.53391E-01
 -1        58-1.50561E-01 1.45688E-01-5.00351E-01
 -1        59-1.48383E-01 1.44387E-01-5.00207E-01
 -1        60-1.49551E-01 1.45661E-01-4.99649E-01
 -1        61-1.53432E-01 1.47440E-01-2.25808E-01
 -1        62-7.93295E-02 1.84203E-01-7.56707E-01
 -1        63 1.05859E-03 2.12691E-01-4.97590E-01
 -1        64 7.65122E-02 1.90339E-01-7.58718E-01
 -1        65 4.29100E-03-1.98419E-01-7.53618E-01
 -1        66 4.51128E-03-2.09172E-01-4.98009E-01
 -1        67 2.15017E-03-2.13791E-01-2.22209E-01
 -1        68 4.23530E-03-2.10808E-01-4.97843E-01
 -1        69-3.65134E-02-1.76036E-01-9.73946E-01
 -1        70 7.77358E-02-1.84115E-01-7.52234E-01
 -1        71 8.15934E-02-1.99942E-01-2.12840E-01
 -1        72 8.22850E-02-2.01153E-01-2.12583E-01
 -1        73 4.20533E-03-2.01968E-01-7.56778E-01
 -1        74 4.62247E-03-2.10342E-01-4.99472E-01
 -1        75 1.66636E-03 2.11515E-01-4.99220E-01
 -1        76 1.46435E-01 9.94261E-02-9.77377E-01
 -1        77 1.36459E-01 1.43999E-01-7.58605E-01
 -1        78 1.37050E-01-1.43578E-01-7.55358E-01
 -1        79 1.43762E-01 1.56437E-01-5.01773E-01
 -1        80 1.36052E-01 1.45466E-01-7.61913E-01
 -1        81 1.38190E-01 1.46248E-01-7.57616E-01
 -1        82 1.43524E-01 1.57077E-01-5.05969E-01
 -1        83 1.80474E-01 7.86177E-02-7.62135E-01
 -1        84 1.80075E-01 7.98361E-02-7.63767E-01
 -1        85 1.82384E-01 8.04299E-02-7.65500E-01
 -1        86 1.92426E-01 8.27943E-02-5.09302E-01
 -1        87 1.92137E-01 8.33162E-02-5.11144E-01
 -1        88 1.94273E-01-9.07573E-02-2.31928E-01
 -1        89 1.95256E-01-9.16260E-02-2.36128E-01
 -1        90 1.43771E-01-1.54666E-01-5.02427E-01
 -1        91 1.46149E-01-1.59733E-01-2.22898E-01
 -1        92 2.09171E-01 1.31964E-03-5.14172E-01
 -1        93 1.44922E-01 1.62087E-01-2.20676E-01
 -1        94 1.97043E-01 8.49760E-02-2.31398E-01
 -1        95-3.16222E-02-6.61414E-04-7.56506E-01
 -1        96-3.45451E-02 1.69132E-03-4.96796E-01
 -1        97-2.12094E-01 2.17583E-03-2.20233E-01
 -1        98-3.14487E-02 2.04281E-03-7.55402E-01
 -1        99-2.09167E-01 2.70689E-03-4.94770E-01
 -1       100-3.13170E-02 4.81525E-03-7.51910E-01
 -1       101-2.00284E-01 2.99786E-03-7.50507E-01
 -1       102-2.08399E-01 2.65865E-03-4.94907E-01
 -1       103-3.54752E-02-2.47052E-03-4.96526E-01
 -1       104-2.00796E-01 3.67145E-03-7.52932E-01
 -1       105-1.48461E-01-9.96071E-02-9.71181E-01
 -1       106-2.53649E-02-4.65705E-03-9.86474E-01
 -1       107-1.94841E-01-8.29901E-02-2.21855E-01
 -1       108-2.98779E-02-1.50971E-02-2.19930E-01
 -1       109-1.92690E-01-7.96731E-02-4.96063E-01
 -1       110-1.83027E-01-7.43836E-02-7.52016E-01
 -1       111-3.21479E-02-1.19992E-02-4.98074E-01
 -1       112-1.92529E-01-8.02776E-02-4.95703E-01
 -1       113-3.13614E-02-7.42057E-03-7.52665E-01
 -1       114-2.91125E-02-1.09294E-02-7.56167E-01
 -1       115-1.84264E-01-7.60570E-02-7.51448E-01
 -1       116-2.67474E-02-1.64666E-02-7.53161E-01
 -1       117-2.82395E-02-1.27066E-02-7.57505E-01
 -1       118-1.91850E-01-8.00210E-02-4.96683E-01
 -1       119-1.32195E-02-2.10375E-02-9.88635E-01
 -1       120-2.30587E-02-2.50393E-02-5.02766E-01
 -1       121-1.52111E-01-1.50133E-01-2.21740E-01
 -1       122-2.25188E-02-2.11775E-02-7.57302E-01
 -1       123-1.52192E-01-1.50497E-01-2.21174E-01
 -1       124-1.48814E-01-1.46287E-01-4.98660E-01
 -1       125-2.04783E-02-2.30005E-02-7.59487E-01
 -1       126-2.49401E-02-2.32933E-02-5.00989E-01
 -1       127-1.48173E-01-1.45634E-01-4.98933E-01
 -1       128-1.48265E-01-1.45084E-01-5.01360E-01
 -1       129-4.57016E-03-2.55679E-02-9.89835E-01
 -1       130-1.51201E-02-3.12666E-02-2.21576E-01
 -1       131-8.72259E-02-1.95759E-01-2.25468E-01
 -1       132-8.15490E-02-1.92029E-01-5.02383E-01
 -1       133-1.02476E-02-2.96448E-02-7.61235E-01
 -1       134-4.55952E-03-2.61910E-02-9.86034E-01
 -1       135-1.40417E-02-3.19529E-02-5.04441E-01
 -1       136-1.30738E-02-2.81686E-02-7.59827E-01
 -1       137-7.86148E-02-1.84079E-01-7.55232E-01
 -1       138-8.09671E-02-1.92374E-01-5.01669E-01
 -1       139-8.05952E-02-1.91638E-01-5.02008E-01
 -1       140-1.04071E-02-3.28559E-02-5.05287E-01
 -1       141-1.50001E-02-3.10027E-02-5.00984E-01
 -1       142-8.10848E-02-1.90939E-01-5.03911E-01
 -1       143-6.83381E-03-3.15995E-02-7.57778E-01
 -1       144 3.73629E-02-1.78089E-01-9.74113E-01
 -1       145 2.06218E-03-2.14794E-01-2.21309E-01
 -1       146 2.57381E-03-3.54578E-02-5.00759E-01
 -1       147 2.97678E-03-3.22028E-02-7.58676E-01
 -1       148-3.40623E-04-3.20243E-02-7.60473E-01
 -1       149 5.16767E-03-1.98703E-01-7.55458E-01
 -1       150-3.62713E-03-3.49900E-02-2.19975E-01
 -1       151 5.19047E-05-3.54155E-02-5.02743E-01
 -1       152 4.60671E-03-2.01565E-01-7.53410E-01
 -1       153-2.81782E-03-3.57464E-02-4.99497E-01
 -1       154 4.66171E-03-2.09361E-01-5.00973E-01
 -1       155 9.83111E-02-1.51314E-01-9.73740E-01
 -1       156 1.46424E-02-3.40722E-02-2.12293E-01
 -1       157 8.02909E-02-1.97275E-01-4.94432E-01
 -1       158 9.71614E-02-1.50807E-01-9.69218E-01
 -1       159 3.76897E-02-1.76655E-01-9.70115E-01
 -1       160 1.36877E-02-3.29400E-02-4.95245E-01
 -1       161 7.65709E-02-1.85864E-01-7.53058E-01
 -1       162 1.75046E-02-2.80863E-02-7.54632E-01
 -1       163 8.09074E-02-1.96918E-01-4.93363E-01
 -1       164 7.98344E-02-1.96416E-01-4.95702E-01
 -1       165 8.06435E-02-1.96063E-01-4.93830E-01
 -1       166 7.82992E-02-1.86571E-01-7.53095E-01
 -1       167 2.63072E-02-2.55412E-02-2.20969E-01
 -1       168 1.45331E-01-1.03330E-01-9.71766E-01
 -1       169 2.14945E-02-2.37637E-02-7.59779E-01
 -1       170 1.55333E-02-2.18062E-02-9.86796E-01
 -1       171 1.45816E-01-1.58942E-01-2.18713E-01
 -1       172 1.98018E-02-2.59179E-02-7.55560E-01
 -1       173 2.32158E-02-2.18532E-02-7.62985E-01
 -1       174 1.36207E-01-1.44954E-01-7.58258E-01
 -1       175 1.38502E-01-1.46912E-01-7.60588E-01
 -1       176 2.32593E-02-2.68796E-02-5.02287E-01
 -1       177 1.43108E-01-1.52606E-01-4.98739E-01
 -1       178 1.38478E-01-1.45529E-01-7.54633E-01
 -1       179 1.43134E-01-1.54069E-01-5.04882E-01
 -1       180 2.13281E-02-1.43874E-02-9.92457E-01
 -1       181 1.46624E-01-1.03604E-01-9.75984E-01
 -1       182 1.73009E-01-3.81481E-02-9.77302E-01
 -1       183 2.53207E-02-5.04837E-03-9.94789E-01
 -1       184 3.28518E-02-1.39884E-02-5.14298E-01
 -1       185 2.96197E-02-1.21590E-02-7.67648E-01
 -1       186 2.21074E-02-1.44912E-02-9.88316E-01
 -1       187 2.85328E-02-1.46111E-02-7.66400E-01
 -1       188 1.82041E-01-8.19634E-02-7.60157E-01
 -1       189 3.19110E-02-8.96501E-03-7.66269E-01
 -1       190 3.17344E-02-1.68279E-02-5.13048E-01
 -1       191 1.88873E-01-8.51617E-02-5.08876E-01
 -1       192 1.90677E-01-8.55835E-02-5.09293E-01
 -1       193 3.37106E-02-1.29813E-02-5.14117E-01
 -1       194 2.15676E-01 3.35577E-03-2.37342E-01
 -1       195 2.14915E-01 2.92307E-03-2.36435E-01
 -1       196 3.73207E-02 1.83376E-03-2.32969E-01
 -1       197 1.75224E-01 3.18979E-02-9.73769E-01
 -1       198 3.27716E-02 1.21057E-03-7.71353E-01
 -1       199 3.30607E-02-5.12029E-03-7.67284E-01
 -1       200 3.28120E-02-1.91917E-03-7.71357E-01
 -1       201 1.98499E-01-7.07622E-04-7.66434E-01
 -1       202 3.29179E-02 4.46667E-03-7.67475E-01
 -1       203 2.08058E-01 1.24047E-03-5.15099E-01
 -1       204 3.54193E-02 1.70192E-03-5.16635E-01
 -1       205 2.08641E-01 3.59623E-04-5.14328E-01
 -1       206 1.98404E-01 1.48590E-04-7.66176E-01
 -1       207 3.55075E-02-2.41176E-03-5.15905E-01
 -1       208 2.07087E-01 3.27000E-04-5.15251E-01
 -1       209 2.52377E-02 5.91934E-03-9.93701E-01
 -1       210 1.97770E-01 8.55842E-02-2.32775E-01
 -1       211 3.28694E-02 1.42113E-02-2.28601E-01
 -1       212 1.45217E-01 9.85190E-02-9.73493E-01
 -1       213 2.95777E-02 1.38242E-02-7.67349E-01
 -1       214 2.60297E-02 6.02233E-03-9.90550E-01
 -1       215 3.24927E-02 7.93970E-03-7.66540E-01
 -1       216 3.41763E-02 1.08771E-02-5.12313E-01
 -1       217 3.35979E-02 1.29487E-02-5.14589E-01
 -1       218 1.91553E-01 8.24132E-02-5.09656E-01
 -1       219 1.90886E-01 8.28079E-02-5.12713E-01
 -1       220 3.11308E-02 1.70830E-02-5.08884E-01
 -1       221 1.83234E-01 8.00878E-02-7.62336E-01
 -1       222 1.45157E-01 1.62691E-01-2.25384E-01
 -1       223 2.52785E-02 2.85632E-02-2.19336E-01
 -1       224 2.19025E-02 2.41622E-02-7.64570E-01
 -1       225 1.42903E-01 1.56439E-01-5.08682E-01
 -1       226 2.53306E-02 2.55898E-02-5.07970E-01
 -1       227 1.42655E-01 1.55189E-01-5.00907E-01
 -1       228 1.38470E-01 1.47491E-01-7.64314E-01
 -1       229 2.34459E-02 2.84964E-02-5.00987E-01
 -1       230 9.76599E-02 1.49922E-01-9.75524E-01
 -1       231 1.47469E-02 2.27566E-02-9.90955E-01
 -1       232 8.24440E-02 2.02926E-01-2.14471E-01
 -1       233 8.29828E-02 2.03577E-01-2.13930E-01
 -1       234 4.43256E-03 2.70613E-02-9.88994E-01
 -1       235 7.55850E-02 1.85689E-01-7.55717E-01
 -1       236 9.99868E-02 1.47338E-01-9.71417E-01
 -1       237 7.45107E-02 1.87313E-01-7.57531E-01
 -1       238 7.97131E-02 1.98864E-01-4.98396E-01
 -1       239 1.27389E-02 3.03453E-02-7.61891E-01
 -1       240 7.63084E-02 1.88311E-01-7.55908E-01
 -1       241 1.60676E-02 3.37556E-02-4.98483E-01
 -1       242 7.92369E-02 1.97829E-01-4.99715E-01
 -1       243 8.04901E-02 1.98616E-01-4.97194E-01
 -1       244 8.00016E-02 1.97469E-01-4.97690E-01
 -1       245-5.29479E-03 2.64709E-02-9.92004E-01
 -1       246-3.77628E-02 1.80021E-01-9.75283E-01
 -1       247 3.53984E-02 1.77506E-01-9.76388E-01
 -1       248 4.54646E-03 2.60700E-02-9.92119E-01
 -1       249 5.01102E-03 2.18091E-01-2.16679E-01
 -1       250-5.68009E-03 2.66576E-02-9.87513E-01
 -1       251 1.93285E-03 3.36366E-02-2.11959E-01
 -1       252 1.45360E-03 3.55077E-02-4.99491E-01
 -1       253 4.73778E-03 2.16762E-01-2.14782E-01
 -1       254 5.70026E-04 2.03141E-01-7.56088E-01
 -1       255-7.38052E-04 3.30964E-02-7.60412E-01
 -1       256 2.11278E-03 3.59960E-02-4.97403E-01
 -1       257 9.92240E-04 2.11270E-01-4.98381E-01
 -1       258 1.87248E-03 2.12936E-01-4.98117E-01
 -1       259-2.04691E-03 3.58458E-02-5.01092E-01
 -1       260-2.00648E-03 3.62324E-02-4.99107E-01
 -1       261 4.89849E-03 3.35469E-02-7.57404E-01
 -1       262 1.93978E-05 2.02759E-01-7.56172E-01
 -1       263-4.29658E-03 3.31249E-02-7.57294E-01
 -1       264-1.39350E-02 2.22295E-02-9.88675E-01
 -1       265-8.08646E-02 2.00338E-01-2.24087E-01
 -1       266-1.44811E-02 2.26789E-02-9.84911E-01
 -1       267-1.14454E-02 3.04407E-02-7.60334E-01
 -1       268-8.11894E-02 1.92931E-01-5.02444E-01
 -1       269-1.40249E-02 3.33614E-02-5.03861E-01
 -1       270-8.07167E-02 1.93076E-01-5.01272E-01
 -1       271-1.76309E-02 3.20288E-02-5.00446E-01
 -1       272-1.11273E-02 3.45794E-02-5.03443E-01
 -1       273-1.02070E-01 1.49025E-01-9.74092E-01
 -1       274-1.53356E-01 1.47635E-01-2.24335E-01
 -1       275-2.58082E-02 2.36083E-02-5.02102E-01
 -1       276-2.33504E-02 2.62537E-02-5.02925E-01
 -1       277-1.42949E-01 1.39286E-01-7.55522E-01
 -1       278-2.31072E-02 2.22040E-02-7.58681E-01
 -1       279-1.42600E-01 1.40035E-01-7.53619E-01
 -1       280-1.50081E-01 1.45249E-01-5.01854E-01
 -1       281-2.02093E-02 2.65251E-02-7.55669E-01
 -1       282-2.54321E-02 2.00152E-02-7.53682E-01
 -1       283-2.72880E-02 2.32662E-02-4.99194E-01
 -1       284-2.11676E-02 1.44611E-02-9.87894E-01
 -1       285-1.95643E-01 8.12274E-02-2.17340E-01
 -1       286-1.96824E-01 8.17529E-02-2.17610E-01
 -1       287-3.30827E-02 1.19537E-02-4.94760E-01
 -1       288-3.20325E-02 1.45026E-02-4.95548E-01
 -1       289-1.85475E-01 7.71401E-02-7.50572E-01
 -1       290-2.98055E-02 1.06223E-02-7.55050E-01
 -1       291-1.94783E-01 7.81777E-02-4.94481E-01
 -1       292-1.87786E-01 7.70772E-02-7.51185E-01
 -1       293-1.93734E-01 7.84317E-02-4.93169E-01
 -1       294 0.00000E+00 0.00000E+00 0.00000E+00
 -1       295 0.00000E+00 0.00000E+00 0.00000E+00
 -1       296 0.00000E+00 0.00000E+00 0.00000E+00
 -1       297 0.00000E+00 0.00000E+00 0.00000E+00
 -1       298 0.00000E+00 0.00000E+00 0.00000E+00
 -1       299 0.00000E+00 0.00000E+00 0.00000E+00
 -1       300 0.00000E+00 0.00000E+00 0.00000E+00
 -1       301 0.00000E+00 0.00000E+00 0.00000E+00
 -1       302 0.00000E+00 0.00000E+00 0.00000E+00
 -1       303 0.00000E+00 0.00000E+00 0.00000E+00
 -1       304 0.00000E+00 0.00000E+00 0.00000E+00
 -1       305 0.00000E+00 0.00000E+00 0.00000E+00
 -1       306 0.00000E+00 0.00000E+00 0.00000E+00
 -1       307 0.00000E+00 0.00000E+00 0.00000E+00
 -1       308 0.00000E+00 0.00000E+00 0.00000E+00
 -1       309 0.00000E+00 0.00000E+00 0.00000E+00
 -1       310 0.00000E+00 0.00000E+00 0.00000E+00
 -1       311 0.00000E+00 0.00000E+00 0.00000E+00
 -1       312 0.00000E+00 0.00000E+00 0.00000E+00
 -1       313 0.00000E+00 0.00000E+00 0.00000E+00
 -1       314 0.00000E+00 0.00000E+00 0.00000E+00
 -1       315 0.00000E+00 0.00000E+00 0.00000E+00
 -1       316 0.00000E+00 0.00000E+00 0.00000E+00
 -1       317 0.00000E+00 0.00000E+00 0.00000E+00
 -1       318 0.00000E+00 0.00000E+00 0.00000E+00
 -1       319 0.00000E+00 0.00000E+00 0.00000E+00
 -1       320 0.00000E+00 0.00000E+00 0.00000E+00
 -1       321 0.00000E+00 0.00000E+00 0.00000E+00
 -1       322 0.00000E+00 0.00000E+00 0.00000E+00
 -1       323 0.00000E+00 0.00000E+00 0.00000E+00
 -1       324 0.00000E+00 0.00000E+00 0.00000E+00
 -1       325 0.00000E+00 0.00000E+00 0.00000E+00
 -1       326 0.00000E+00 0.00000E+00 0.00000E+00
 -1       327 0.00000E+00 0.00000E+00 0.00000E+00
 -1       328 0.00000E+00 0.00000E+00 0.00000E+00
 -1       329 0.00000E+00 0.00000E+00 0.00000E+00
 -1       330 0.00000E+00 0.00000E+00 0.00000E+00
 -1       331 3.06888E-02 1.16728E-02-7.69354E-01
 -1       332 2.65139E-02 2.09737E-02-7.64137E-01
 -1       333 2.35320E-02 2.26219E-02-7.67227E-01
 -1       334 2.82497E-02 1.80097E-02-7.63539E-01
 -1       335 2.19964E-02 1.55911E-02-9.88974E-01
 -1       336 2.78475E-02 2.36282E-02-5.07727E-01
 -1       337 1.66545E-02 2.89864E-02-7.59109E-01
 -1       338 1.94264E-02 2.67476E-02-7.59851E-01
 -1       339 1.51890E-02 2.35186E-02-9.87576E-01
 -1       340 1.58051E-02 3.30808E-02-5.01284E-01
 -1       341 1.56046E-02 3.35001E-02-2.12163E-01
 -1       342 1.54696E-02-3.21957E-02-4.96420E-01
 -1       343 1.74528E-02-3.07937E-02-4.94898E-01
 -1       344 2.23954E-02-2.78619E-02-4.98287E-01
 -1       345 1.41085E-02-2.97594E-02-7.58184E-01
 -1       346 1.38986E-03 3.27492E-02-7.60901E-01
 -1       347 1.18126E-02 3.08319E-02-7.60864E-01
 -1       348-7.92434E-03 3.25082E-02-7.57083E-01
 -1       349-2.20609E-02 2.36403E-02-7.59391E-01
 -1       350-1.76056E-02 2.84699E-02-7.55353E-01
 -1       351-1.39609E-02 2.96623E-02-7.59671E-01
 -1       352-2.20827E-02 1.49651E-02-9.84421E-01
 -1       353-2.84820E-02 1.34283E-02-7.55685E-01
 -1       354-2.58993E-02 5.21666E-03-9.84318E-01
 -1       355-3.11833E-02 8.14888E-03-7.51302E-01
 -1       356-2.75219E-02 1.73084E-02-7.52621E-01
 -1       357-2.93841E-02-1.29677E-02-2.18948E-01
 -1       358 0.00000E+00 0.00000E+00 0.00000E+00
 -1       359 0.00000E+00 0.00000E+00 0.00000E+00
 -1       360-2.32245E-02-2.70734E-02-2.18909E-01
 -1       361-1.08688E-02-3.31267E-02-2.23313E-01
 -1       362-8.79101E-03-3.44387E-02-5.03802E-01
 -1       363 0.00000E+00 0.00000E+00 0.00000E+00
 -1       364 5.84762E-03-3.48295E-02-4.95910E-01
 -1       365 1.12264E-02-3.44756E-02-4.93108E-01
 -1       366 2.44546E-03-3.66508E-02-2.22091E-01
 -1       367 1.15832E-02-3.23690E-02-2.11965E-01
 -1       368 2.20592E-02-2.75775E-02-2.17205E-01
 -1       369 0.00000E+00 0.00000E+00 0.00000E+00
 -1       370 0.00000E+00 0.00000E+00 0.00000E+00
 -1       371-3.08504E-02-1.51275E-02-4.96549E-01
 -1       372-3.10719E-02-1.44101E-02-4.98039E-01
 -1       373-2.41500E-02-2.42350E-02-2.19856E-01
 -1       374 0.00000E+00 0.00000E+00 0.00000E+00
 -1       375-3.41578E-02-8.36238E-04-2.19993E-01
 -1       376 0.00000E+00 0.00000E+00 0.00000E+00
 -1       377 0.00000E+00 0.00000E+00 0.00000E+00
 -1       378-3.27309E-02 4.16335E-03-2.19604E-01
 -1       379-3.44573E-02-1.43920E-03-4.97926E-01
 -1       380-3.47369E-02 1.09154E-02-2.16517E-01
 -1       381-3.51064E-02 2.76429E-03-4.94360E-01
 -1       382-3.31567E-02 1.23215E-02-4.91770E-01
 -1       383-2.83948E-02 1.39659E-02-2.17814E-01
 -1       384-3.23250E-02 1.51746E-02-4.93207E-01
 -1       385-2.65457E-02 2.40658E-02-2.22723E-01
 -1       386-1.50196E-02 3.35815E-02-2.21110E-01
 -1       387-2.29807E-02 2.55453E-02-2.23714E-01
 -1       388-2.28595E-02 2.75154E-02-5.02187E-01
 -1       389 0.00000E+00 0.00000E+00 0.00000E+00
 -1       390-1.30702E-02 3.45823E-02-2.20287E-01
 -1       391-1.31503E-02 3.34885E-02-5.04049E-01
 -1       392-2.35435E-04 3.28083E-02-2.13547E-01
 -1       393 0.00000E+00 0.00000E+00 0.00000E+00
 -1       394 1.07998E-02 3.48871E-02-4.97065E-01
 -1       395 8.50481E-03 3.28012E-02-7.57247E-01
 -1       396 1.23704E-02 3.43274E-02-5.00030E-01
 -1       397 1.02465E-02 3.55572E-02-2.11645E-01
 -1       398 2.42888E-02 2.70295E-02-5.05553E-01
 -1       399 0.00000E+00 0.00000E+00 0.00000E+00
 -1       400-3.17699E-02-3.78604E-03-7.53390E-01
 -1       401-3.35431E-02-1.15936E-02-4.96287E-01
 -1       402-2.61070E-02-5.22588E-03-9.83237E-01
 -1       403-2.62505E-02-2.28339E-02-4.99149E-01
 -1       404-2.05221E-02-2.74673E-02-5.01166E-01
 -1       405-1.88891E-02-2.51038E-02-7.55945E-01
 -1       406-2.12464E-02-1.34310E-02-9.84163E-01
 -1       407-2.47356E-02-1.90381E-02-7.53529E-01
 -1       408-1.65518E-02-2.69741E-02-7.55617E-01
 -1       409-1.39013E-02-2.14443E-02-9.84774E-01
 -1       410-3.36131E-03-3.22774E-02-7.57910E-01
 -1       411 5.79088E-03-3.25954E-02-7.54735E-01
 -1       412 5.89024E-03-2.54486E-02-9.86562E-01
 -1       413 8.85773E-03-3.22397E-02-7.54262E-01
 -1       414 1.22805E-02-3.05277E-02-7.58796E-01
 -1       415 3.25742E-02 1.50169E-02-5.12677E-01
 -1       416 2.52130E-02 2.88872E-02-2.23115E-01
 -1       417 0.00000E+00 0.00000E+00 0.00000E+00
 -1       418 3.45257E-02 1.48605E-02-2.28979E-01
 -1       419 2.55323E-02-2.43694E-02-5.05882E-01
 -1       420 3.05458E-02-1.87898E-02-5.08660E-01
 -1       421 2.54663E-02-2.03087E-02-7.60892E-01
 -1       422 2.85159E-02-2.22313E-02-5.03533E-01
 -1       423 2.74857E-02-1.79424E-02-7.61169E-01
 -1       424 3.59365E-02-1.05310E-03-5.17576E-01
 -1       425 3.55705E-02-1.64503E-02-2.32756E-01
 -1       426 3.53793E-02-1.66433E-02-2.30154E-01
 -1       427 2.57756E-02-5.39668E-03-9.90568E-01
 -1       428 3.64859E-02 3.84805E-03-5.13652E-01
 -1       429 3.90583E-02-1.87327E-04-2.34645E-01
 -1       430-2.05516E-02-1.28737E-02-9.88015E-01
 -1       431 5.52969E-03-2.46151E-02-9.90576E-01
 -1       432 1.47976E-02-2.11259E-02-9.90671E-01
 -1       433 2.14035E-02 1.49665E-02-9.92791E-01
 -1       434 0.00000E+00 0.00000E+00 0.00000E+00
 -1       435 0.00000E+00 0.00000E+00 0.00000E+00
 -1       436 0.00000E+00 0.00000E+00 0.00000E+00
 -1       437 0.00000E+00 0.00000E+00 0.00000E+00
 -1       438 0.00000E+00 0.00000E+00 0.00000E+00
 -1       439 0.00000E+00 0.00000E+00 0.00000E+00
 -1       440 0.00000E+00 0.00000E+00 0.00000E+00
 -1       441 0.00000E+00 0.00000E+00 0.00000E+00
 -1       442 0.00000E+00 0.00000E+00 0.00000E+00
 -1       443 0.00000E+00 0.00000E+00 0.00000E+00
 -1       444 0.00000E+00 0.00000E+00 0.00000E+00
 -1       445 0.00000E+00 0.00000E+00 0.00000E+00
 -1       446 0.00000E+00 0.00000E+00 0.00000E+00
 -1       447 0.00000E+00 0.00000E+00 0.00000E+00
 -1       448 0.00000E+00 0.00000E+00 0.00000E+00
 -1       449-1.06055E-01-1.91402E-02-9.86182E-01
 -1       450-1.06138E-01 2.15398E-02-9.85619E-01
 -1       451 1.86031E-01-8.35264E-02-6.35860E-01
 -1       452 1.84621E-01-8.41861E-02-6.41971E-01
 -1       453 7.79206E-02 1.94058E-01-6.30360E-01
 -1       454 7.83933E-02-1.93266E-01-6.26895E-01
 -1       455 1.41420E-01-1.49683E-01-6.28600E-01
 -1       456 1.41573E-01-1.51470E-01-6.35047E-01
 -1       457 1.80882E-01 1.09882E-03-8.80731E-01
 -1       458 1.80929E-01-1.04326E-03-8.80647E-01
 -1       459 1.67342E-01 7.07840E-02-8.78094E-01
 -1       460 1.67300E-01 7.35943E-02-8.79495E-01
 -1       461 7.82074E-02 1.94279E-01-6.28550E-01
 -1       462 1.66197E-01-7.32618E-02-8.77548E-01
 -1       463 1.66110E-01-7.61832E-02-8.79663E-01
 -1       464 7.93292E-02-1.91378E-01-6.25442E-01
 -1       465-8.01855E-02-1.86524E-01-6.32732E-01
 -1       466-8.40628E-02-1.94843E-01-3.61933E-01
 -1       467-8.49391E-02-1.96220E-01-3.63934E-01
 -1       468-7.28583E-02-1.68136E-01-8.71535E-01
 -1       469-7.47212E-02-1.66189E-01-8.73665E-01
 -1       470-7.98220E-02-1.88050E-01-6.30239E-01
 -1       471-1.30012E-01-1.27794E-01-8.70196E-01
 -1       472-1.31344E-01-1.26417E-01-8.71258E-01
 -1       473-1.69576E-01-7.07370E-02-8.69757E-01
 -1       474-1.70291E-01-6.76975E-02-8.69778E-01
 -1       475-1.83809E-01 4.91628E-03-8.70232E-01
 -1       476-1.84666E-01 2.88850E-03-8.68008E-01
 -1       477-2.05400E-01 3.87068E-03-6.27075E-01
 -1       478-2.05539E-01 2.85236E-03-6.24757E-01
 -1       479-2.11981E-01 2.34046E-03-3.57763E-01
 -1       480-2.11940E-01 2.26430E-03-3.56712E-01
 -1       481-8.01436E-02 1.89924E-01-6.29539E-01
 -1       482-1.52266E-01-1.49172E-01-3.58717E-01
 -1       483-1.52483E-01-1.48949E-01-3.60380E-01
 -1       484-1.95115E-01-8.17644E-02-3.57710E-01
 -1       485-1.94937E-01-8.16607E-02-3.57253E-01
 -1       486-1.89268E-01-7.83203E-02-6.25578E-01
 -1       487-1.89039E-01-7.78539E-02-6.25857E-01
 -1       488-1.45353E-01-1.42660E-01-6.27723E-01
 -1       489-1.46332E-01-1.42346E-01-6.30406E-01
 -1       490-8.14230E-02 1.98927E-01-3.62125E-01
 -1       491-8.13873E-02 1.98405E-01-3.61542E-01
 -1       492-7.18360E-02 1.69785E-01-8.71203E-01
 -1       493-7.45274E-02 1.69001E-01-8.73449E-01
 -1       494 1.01066E-03 1.86234E-01-8.73835E-01
 -1       495-1.36032E-03 1.84999E-01-8.74136E-01
 -1       496 2.42653E-03 2.17183E-01-3.57143E-01
 -1       497 2.42944E-03 2.16638E-01-3.56322E-01
 -1       498-1.68834E-01 7.36672E-02-8.69793E-01
 -1       499-1.70944E-01 7.19064E-02-8.69063E-01
 -1       500-1.89642E-01 7.81792E-02-6.23432E-01
 -1       501-1.91701E-01 7.77779E-02-6.23980E-01
 -1       502-1.97679E-01 7.98139E-02-3.53632E-01
 -1       503-1.96815E-01 7.98015E-02-3.54350E-01
 -1       504-1.30068E-01 1.29106E-01-8.70991E-01
 -1       505-1.31728E-01 1.27287E-01-8.71158E-01
 -1       506-1.45348E-01 1.43532E-01-6.28959E-01
 -1       507-1.46794E-01 1.42652E-01-6.30747E-01
 -1       508-1.53484E-01 1.47110E-01-3.60677E-01
 -1       509-1.53530E-01 1.47065E-01-3.62573E-01
 -1       510-8.01693E-02 1.88767E-01-6.30909E-01
 -1       511 4.12448E-05 2.07512E-01-6.29359E-01
 -1       512 7.16089E-02 1.71419E-01-8.75248E-01
 -1       513 6.95150E-02 1.72518E-01-8.75137E-01
 -1       514 8.14872E-02 2.03582E-01-3.54444E-01
 -1       515 8.11996E-02 2.03246E-01-3.55641E-01
 -1       516 3.99578E-03-2.06562E-01-6.27788E-01
 -1       517 3.26055E-03-2.14162E-01-3.59847E-01
 -1       518 3.52268E-03-1.85432E-01-8.73299E-01
 -1       519 1.12691E-03-1.84205E-01-8.73091E-01
 -1       520 3.07260E-03-2.14271E-01-3.59095E-01
 -1       521 7.22411E-02-1.72818E-01-8.72770E-01
 -1       522 7.00529E-02-1.71760E-01-8.74312E-01
 -1       523 8.32815E-02-1.99660E-01-3.52636E-01
 -1       524 8.33101E-02-1.99813E-01-3.52480E-01
 -1       525 4.95023E-03-2.06431E-01-6.30950E-01
 -1       526 1.65369E-03 2.08043E-01-6.29905E-01
 -1       527 1.27711E-01 1.31836E-01-8.75853E-01
 -1       528 1.26198E-01 1.34130E-01-8.78531E-01
 -1       529 1.27581E-01-1.33290E-01-8.73375E-01
 -1       530 1.25926E-01-1.34306E-01-8.75611E-01
 -1       531 1.41243E-01 1.50750E-01-6.31550E-01
 -1       532 1.41194E-01 1.52901E-01-6.38523E-01
 -1       533 1.87864E-01 8.15081E-02-6.37402E-01
 -1       534 1.86429E-01 8.20789E-02-6.40772E-01
 -1       535 2.14452E-01 1.87222E-03-3.76293E-01
 -1       536 2.14135E-01 1.54393E-03-3.75705E-01
 -1       537 1.94367E-01-8.86081E-02-3.69788E-01
 -1       538 1.95109E-01-8.94016E-02-3.73875E-01
 -1       539 1.46092E-01-1.57998E-01-3.58494E-01
 -1       540 1.46325E-01-1.58659E-01-3.62760E-01
 -1       541 2.03601E-01 5.28933E-04-6.42460E-01
 -1       542 2.03739E-01-6.23588E-04-6.42842E-01
 -1       543 1.44936E-01 1.61218E-01-3.59687E-01
 -1       544 1.45342E-01 1.62000E-01-3.64818E-01
 -1       545 1.97132E-01 8.40651E-02-3.70311E-01
 -1       546 1.97589E-01 8.45268E-02-3.71221E-01
 -1       547-1.23173E-01 9.13942E-04-2.20927E-01
 -1       548-1.23447E-01 1.19541E-03-2.19990E-01
 -1       549-3.62349E-02-1.41287E-03-3.57914E-01
 -1       550-1.21561E-01 1.83365E-03-4.96844E-01
 -1       551-1.14852E-01 2.30182E-03-7.54501E-01
 -1       552-2.91352E-02-1.47976E-03-8.76781E-01
 -1       553-1.05078E-01-1.96917E-02-9.80996E-01
 -1       554-1.05393E-01 2.09260E-02-9.80477E-01
 -1       555-2.90637E-02 3.92335E-03-8.73554E-01
 -1       556-1.15118E-01 2.08003E-03-7.53605E-01
 -1       557-1.21676E-01 1.82728E-03-4.95560E-01
 -1       558-3.54589E-02 2.97860E-04-3.55837E-01
 -1       559-1.16676E-01 2.58697E-03-7.52655E-01
 -1       560-1.16535E-01 1.68927E-03-7.54963E-01
 -1       561-1.21356E-01 1.86476E-03-4.95572E-01
 -1       562-1.21325E-01 2.00726E-03-4.98243E-01
 -1       563-3.30138E-02 5.33463E-03-6.28081E-01
 -1       564-3.26935E-02-2.95748E-03-6.29429E-01
 -1       565-8.97831E-02-5.75053E-02-9.86576E-01
 -1       566-1.12606E-01-4.84589E-02-2.20789E-01
 -1       567-1.13837E-01-4.84921E-02-2.21597E-01
 -1       568-3.29691E-02-1.43364E-02-3.57053E-01
 -1       569-1.11221E-01-4.65077E-02-4.96724E-01
 -1       570-1.05796E-01-4.36523E-02-7.54899E-01
 -1       571-2.44425E-02-1.29568E-02-8.77212E-01
 -1       572-8.92182E-02-5.67111E-02-9.81084E-01
 -1       573-2.68473E-02-9.64098E-03-8.75404E-01
 -1       574-1.05520E-01-4.39496E-02-7.54019E-01
 -1       575-1.11790E-01-4.63618E-02-4.97135E-01
 -1       576-3.30213E-02-1.13236E-02-3.57939E-01
 -1       577-1.06731E-01-4.43593E-02-7.54107E-01
 -1       578-1.06241E-01-4.37799E-02-7.55518E-01
 -1       579-1.11584E-01-4.62175E-02-4.97716E-01
 -1       580-1.11260E-01-4.63419E-02-4.97561E-01
 -1       581-3.05072E-02-1.17561E-02-6.28927E-01
 -1       582-2.85558E-02-1.60875E-02-6.28966E-01
 -1       583-6.07907E-02-8.91626E-02-9.87503E-01
 -1       584-8.84818E-02-8.79658E-02-2.21192E-01
 -1       585-8.85703E-02-8.80307E-02-2.20890E-01
 -1       586-2.48085E-02-2.58509E-02-3.60900E-01
 -1       587-8.57980E-02-8.50405E-02-5.01238E-01
 -1       588-8.13526E-02-7.96564E-02-7.56704E-01
 -1       589-1.84805E-02-2.21478E-02-8.78861E-01
 -1       590-6.01523E-02-8.91353E-02-9.82496E-01
 -1       591-8.08763E-02-8.00563E-02-7.55890E-01
 -1       592-2.22524E-02-1.71458E-02-8.74711E-01
 -1       593-8.61028E-02-8.47907E-02-4.99820E-01
 -1       594-2.72451E-02-2.40407E-02-3.59908E-01
 -1       595-8.23556E-02-8.08866E-02-7.54614E-01
 -1       596-8.22840E-02-8.13493E-02-7.57127E-01
 -1       597-8.59372E-02-8.43623E-02-4.99955E-01
 -1       598-8.54016E-02-8.47626E-02-5.02315E-01
 -1       599-2.40972E-02-2.11725E-02-6.32267E-01
 -1       600-1.99280E-02-2.61478E-02-6.32685E-01
 -1       601-2.14789E-02-1.05285E-01-9.89235E-01
 -1       602-5.05815E-02-1.12860E-01-2.22772E-01
 -1       603-5.08668E-02-1.14158E-01-2.25036E-01
 -1       604-1.30424E-02-3.34493E-02-3.64223E-01
 -1       605-4.68373E-02-1.11609E-01-5.04307E-01
 -1       606-4.49459E-02-1.05006E-01-7.59802E-01
 -1       607-7.80921E-03-2.80465E-02-8.79314E-01
 -1       608-2.14301E-02-1.04503E-01-9.83946E-01
 -1       609-4.49124E-02-1.05506E-01-7.57652E-01
 -1       610-1.16761E-02-2.65545E-02-8.77215E-01
 -1       611-4.68379E-02-1.11547E-01-5.02656E-01
 -1       612-1.48020E-02-3.26962E-02-3.62309E-01
 -1       613-4.52605E-02-1.05919E-01-7.57360E-01
 -1       614-4.49143E-02-1.05170E-01-7.60424E-01
 -1       615-4.68266E-02-1.11077E-01-5.02626E-01
 -1       616-4.63918E-02-1.11139E-01-5.05250E-01
 -1       617-1.67756E-02-2.83149E-02-6.33884E-01
 -1       618-8.76647E-03-3.24869E-02-6.35974E-01
 -1       619 2.16707E-02-1.05997E-01-9.89394E-01
 -1       620 5.26727E-04-1.24977E-01-2.21797E-01
 -1       621 9.87297E-04-1.25897E-01-2.21028E-01
 -1       622 1.53833E-03-3.78152E-02-3.58767E-01
 -1       623 3.04416E-03-1.22731E-01-4.99128E-01
 -1       624 3.00505E-03-1.15554E-01-7.56795E-01
 -1       625 4.03611E-03-2.90425E-02-8.79688E-01
 -1       626 2.16469E-02-1.05284E-01-9.84362E-01
 -1       627 3.00925E-03-1.15889E-01-7.58439E-01
 -1       628-1.77413E-03-2.92532E-02-8.80969E-01
 -1       629 2.81154E-03-1.22579E-01-5.00537E-01
 -1       630-3.32687E-04-3.70460E-02-3.61123E-01
 -1       631 2.64646E-03-1.17346E-01-7.58675E-01
 -1       632 3.53287E-03-1.17669E-01-7.55527E-01
 -1       633 2.65832E-03-1.22149E-01-5.01688E-01
 -1       634 3.07830E-03-1.22408E-01-4.98538E-01
 -1       635-2.99064E-03-3.33216E-02-6.32981E-01
 -1       636 6.60221E-03-3.37190E-02-6.31079E-01
 -1       637 5.96116E-02-9.06714E-02-9.90476E-01
 -1       638 4.68210E-02-1.16113E-01-2.12444E-01
 -1       639 4.77857E-02-1.17547E-01-2.12390E-01
 -1       640 1.53372E-02-3.42375E-02-3.53106E-01
 -1       641 4.72812E-02-1.14279E-01-4.95216E-01
 -1       642 4.54923E-02-1.07864E-01-7.55879E-01
 -1       643 1.34586E-02-2.62377E-02-8.79848E-01
 -1       644 5.91963E-02-9.05442E-02-9.85235E-01
 -1       645 4.53253E-02-1.07393E-01-7.56004E-01
 -1       646 9.31758E-03-2.79302E-02-8.80867E-01
 -1       647 4.76207E-02-1.14625E-01-4.94729E-01
 -1       648 1.41503E-02-3.45008E-02-3.52040E-01
 -1       649 4.56372E-02-1.08148E-01-7.56193E-01
 -1       650 4.57591E-02-1.08731E-01-7.56587E-01
 -1       651 4.73070E-02-1.14242E-01-4.94686E-01
 -1       652 4.71760E-02-1.13590E-01-4.96184E-01
 -1       653 1.08183E-02-3.28102E-02-6.28689E-01
 -1       654 1.57412E-02-2.98421E-02-6.30052E-01
 -1       655 8.87239E-02-6.14556E-02-9.91967E-01
 -1       656 8.52820E-02-9.22762E-02-2.18147E-01
 -1       657 8.55022E-02-9.28758E-02-2.22457E-01
 -1       658 2.52268E-02-2.60393E-02-3.63044E-01
 -1       659 8.38506E-02-8.95370E-02-5.03472E-01
 -1       660 7.98232E-02-8.35795E-02-7.61268E-01
 -1       661 2.22673E-02-1.92681E-02-8.82018E-01
 -1       662 8.82545E-02-6.11361E-02-9.87147E-01
 -1       663 8.00501E-02-8.32744E-02-7.58786E-01
 -1       664 1.87749E-02-2.34630E-02-8.79961E-01
 -1       665 8.36796E-02-8.92886E-02-5.01061E-01
 -1       666 2.32416E-02-2.81918E-02-3.59293E-01
 -1       667 8.06738E-02-8.46325E-02-7.56969E-01
 -1       668 8.14770E-02-8.45836E-02-7.62629E-01
 -1       669 8.31909E-02-8.89036E-02-5.00081E-01
 -1       670 8.39646E-02-8.93742E-02-5.05685E-01
 -1       671 2.08890E-02-2.62067E-02-6.30938E-01
 -1       672 2.65262E-02-2.06478E-02-6.38325E-01
 -1       673 1.03939E-01-2.19438E-02-9.92935E-01
 -1       674 1.14450E-01-5.28783E-02-2.31233E-01
 -1       675 1.15448E-01-5.39265E-02-2.35431E-01
 -1       676 3.47884E-02-1.45394E-02-3.74844E-01
 -1       677 1.10861E-01-5.01322E-02-5.13712E-01
 -1       678 1.04385E-01-4.72742E-02-7.66556E-01
 -1       679 2.81148E-02-8.17910E-03-8.85618E-01
 -1       680 1.03234E-01-2.19514E-02-9.88434E-01
 -1       681 2.62089E-02-1.39904E-02-8.85510E-01
 -1       682 1.04578E-01-4.72063E-02-7.63532E-01
 -1       683 1.10886E-01-5.00542E-02-5.10536E-01
 -1       684 3.40820E-02-1.49409E-02-3.71342E-01
 -1       685 1.05178E-01-4.75925E-02-7.62215E-01
 -1       686 1.04992E-01-4.74056E-02-7.68158E-01
 -1       687 1.10262E-01-5.00160E-02-5.09588E-01
 -1       688 1.10461E-01-4.97903E-02-5.15564E-01
 -1       689 2.96963E-02-1.61058E-02-6.38870E-01
 -1       690 3.26787E-02-1.04722E-02-6.45504E-01
 -1       691 1.04131E-01 2.14665E-02-9.92453E-01
 -1       692 1.26897E-01 2.53398E-03-2.36547E-01
 -1       693 1.26014E-01 2.00736E-03-2.35726E-01
 -1       694 3.70894E-02-1.05773E-04-3.76338E-01
 -1       695 1.21628E-01 9.61811E-04-5.15587E-01
 -1       696 1.13803E-01-4.88620E-04-7.68522E-01
 -1       697 2.95152E-02 1.56865E-03-8.87633E-01
 -1       698 1.03494E-01 2.11567E-02-9.87294E-01
 -1       699 2.94461E-02-2.86386E-03-8.88320E-01
 -1       700 1.14798E-01-1.76758E-04-7.68898E-01
 -1       701 1.21757E-01 6.90290E-04-5.15869E-01
 -1       702 3.74399E-02 5.41185E-04-3.76812E-01
 -1       703 1.16351E-01-3.71728E-04-7.69081E-01
 -1       704 1.15796E-01 8.32494E-05-7.68378E-01
 -1       705 1.21227E-01 6.80085E-04-5.16515E-01
 -1       706 1.21006E-01 1.02887E-03-5.16091E-01
 -1       707 3.40859E-02-4.24386E-03-6.45891E-01
 -1       708 3.41366E-02 3.23488E-03-6.45037E-01
 -1       709 8.94606E-02 6.00313E-02-9.92285E-01
 -1       710 1.16392E-01 5.05436E-02-2.32298E-01
 -1       711 1.15368E-01 5.00407E-02-2.30817E-01
 -1       712 3.44145E-02 1.39642E-02-3.71366E-01
 -1       713 1.11970E-01 4.84285E-02-5.10739E-01
 -1       714 1.05495E-01 4.64209E-02-7.65812E-01
 -1       715 2.63427E-02 1.44946E-02-8.84980E-01
 -1       716 8.86910E-02 6.00124E-02-9.87294E-01
 -1       717 2.83701E-02 9.25981E-03-8.86117E-01
 -1       718 1.05068E-01 4.63725E-02-7.66902E-01
 -1       719 1.12185E-01 4.86297E-02-5.12704E-01
 -1       720 3.42431E-02 1.39596E-02-3.71918E-01
 -1       721 1.05994E-01 4.67232E-02-7.68227E-01
 -1       722 1.06103E-01 4.68201E-02-7.65051E-01
 -1       723 1.11415E-01 4.83659E-02-5.14068E-01
 -1       724 1.11711E-01 4.82187E-02-5.10913E-01
 -1       725 3.22082E-02 1.12088E-02-6.44049E-01
 -1       726 2.98566E-02 1.65278E-02-6.40147E-01
 -1       727 5.90718E-02 9.09583E-02-9.91194E-01
 -1       728 8.48816E-02 9.56677E-02-2.24966E-01
 -1       729 8.48536E-02 9.51739E-02-2.20271E-01
 -1       730 8.38230E-02 9.07508E-02-5.03186E-01
 -1       731 2.37202E-02 2.89423E-02-3.60534E-01
 -1       732 5.88283E-02 9.01862E-02-9.86056E-01
 -1       733 8.03356E-02 8.35360E-02-7.62111E-01
 -1       734 2.02065E-02 2.17658E-02-8.84698E-01
 -1       735 2.26424E-02 1.92668E-02-8.84540E-01
 -1       736 8.01308E-02 8.43891E-02-7.65175E-01
 -1       737 8.41038E-02 9.11470E-02-5.07279E-01
 -1       738 2.54837E-02 2.86652E-02-3.65367E-01
 -1       739 8.16789E-02 8.57816E-02-7.66732E-01
 -1       740 8.09750E-02 8.49288E-02-7.60125E-01
 -1       741 8.39689E-02 9.09611E-02-5.09568E-01
 -1       742 8.33253E-02 9.00903E-02-5.02168E-01
 -1       743 2.55946E-02 2.30911E-02-6.40688E-01
 -1       744 2.09283E-02 2.67472E-02-6.35859E-01
 -1       745 2.10671E-02 1.05663E-01-9.91352E-01
 -1       746 4.84650E-02 1.18938E-01-2.13969E-01
 -1       747 4.87189E-02 1.19826E-01-2.13309E-01
 -1       748 4.68976E-02 1.15662E-01-4.99074E-01
 -1       749 1.19906E-02 3.62695E-02-3.54557E-01
 -1       750 2.01102E-02 1.04880E-01-9.86325E-01
 -1       751 4.43772E-02 1.08757E-01-7.59249E-01
 -1       752 9.18300E-03 2.90328E-02-8.83315E-01
 -1       753 1.40638E-02 2.62538E-02-8.80594E-01
 -1       754 4.39162E-02 1.09237E-01-7.60738E-01
 -1       755 4.68421E-02 1.15682E-01-4.99561E-01
 -1       756 1.48875E-02 3.49338E-02-3.56754E-01
 -1       757 4.40576E-02 1.09373E-01-7.61139E-01
 -1       758 4.44490E-02 1.09661E-01-7.58353E-01
 -1       759 4.64898E-02 1.15492E-01-5.00691E-01
 -1       760 4.68223E-02 1.15194E-01-4.99139E-01
 -1       761 1.61632E-02 3.07141E-02-6.33670E-01
 -1       762 1.00597E-02 3.31615E-02-6.31609E-01
 -1       763-2.31968E-02 1.05182E-01-9.89949E-01
 -1       764 2.90562E-03 1.25772E-01-2.14256E-01
 -1       765 2.97354E-03 1.27332E-01-2.16353E-01
 -1       766 1.14228E-03 1.23718E-01-4.99063E-01
 -1       767-2.65274E-04 3.72278E-02-3.57176E-01
 -1       768-2.31725E-02 1.04289E-01-9.84892E-01
 -1       769 6.78501E-04 1.16799E-01-7.58683E-01
 -1       770-2.80488E-03 3.02012E-02-8.80817E-01
 -1       771 1.00360E-03 3.05373E-02-8.80063E-01
 -1       772 1.40580E-04 1.16501E-01-7.58427E-01
 -1       773 8.92803E-04 1.23478E-01-4.99099E-01
 -1       774 1.16020E-03 3.64433E-02-3.55499E-01
 -1       775 3.22296E-04 1.17886E-01-7.58601E-01
 -1       776 2.54430E-04 1.18635E-01-7.58204E-01
 -1       777 1.00571E-03 1.22782E-01-4.99372E-01
 -1       778 9.76113E-04 1.23426E-01-5.00011E-01
 -1       779 3.44496E-03 3.38751E-02-6.32079E-01
 -1       780-2.23421E-03 3.44181E-02-6.32935E-01
 -1       781-5.89524E-02 9.03532E-02-9.88283E-01
 -1       782-4.75326E-02 1.17500E-01-2.22913E-01
 -1       783-4.74518E-02 1.17848E-01-2.23782E-01
 -1       784-4.74735E-02 1.12971E-01-5.02284E-01
 -1       785-1.71178E-02 3.45647E-02-3.63168E-01
 -1       786-5.78958E-02 8.97192E-02-9.83241E-01
 -1       787-4.57783E-02 1.06614E-01-7.57550E-01
 -1       788-1.30906E-02 2.72151E-02-8.76927E-01
 -1       789-8.58579E-03 2.86441E-02-8.79493E-01
 -1       790-4.57751E-02 1.06351E-01-7.58512E-01
 -1       791-4.75933E-02 1.13051E-01-5.02599E-01
 -1       792-1.35679E-02 3.45039E-02-3.61378E-01
 -1       793-4.58217E-02 1.06781E-01-7.58933E-01
 -1       794-4.61248E-02 1.07503E-01-7.57348E-01
 -1       795-4.73851E-02 1.12440E-01-5.03581E-01
 -1       796-4.75223E-02 1.12778E-01-5.02224E-01
 -1       797-9.70057E-03 3.30040E-02-6.34760E-01
 -1       798-1.62950E-02 3.01031E-02-6.32807E-01
 -1       799-8.95937E-02 6.00415E-02-9.86292E-01
 -1       800-8.99109E-02 8.60193E-02-2.23874E-01
 -1       801-8.99749E-02 8.64101E-02-2.25553E-01
 -1       802-8.73647E-02 8.42853E-02-5.00470E-01
 -1       803-2.76947E-02 2.41498E-02-3.60954E-01
 -1       804-8.91427E-02 5.93454E-02-9.80961E-01
 -1       805-8.16683E-02 8.01916E-02-7.56153E-01
 -1       806-2.35878E-02 1.75770E-02-8.77409E-01
 -1       807-2.02295E-02 2.14054E-02-8.78164E-01
 -1       808-8.21449E-02 8.04666E-02-7.57545E-01
 -1       809-8.73267E-02 8.48880E-02-5.01577E-01
 -1       810-2.67782E-02 2.56092E-02-3.62960E-01
 -1       811-8.31689E-02 8.16920E-02-7.58007E-01
 -1       812-8.30649E-02 8.08368E-02-7.55395E-01
 -1       813-8.69803E-02 8.48451E-02-5.02927E-01
 -1       814-8.72491E-02 8.39713E-02-5.00602E-01
 -1       815-2.12799E-02 2.57776E-02-6.34529E-01
 -1       816-2.62616E-02 2.06152E-02-6.32006E-01
 -1       817-1.14777E-01 4.73405E-02-2.17495E-01
 -1       818-1.13525E-01 4.68872E-02-2.17248E-01
 -1       819-3.36867E-02 1.26036E-02-3.53631E-01
 -1       820-1.13093E-01 4.56672E-02-4.93913E-01
 -1       821-1.06802E-01 4.41223E-02-7.53337E-01
 -1       822-2.79556E-02 8.24541E-03-8.76082E-01
 -1       823-2.46727E-02 1.58352E-02-8.76335E-01
 -1       824-1.07422E-01 4.42611E-02-7.53040E-01
 -1       825-1.13298E-01 4.56408E-02-4.94047E-01
 -1       826-3.27399E-02 1.52198E-02-3.54519E-01
 -1       827-1.08142E-01 4.47274E-02-7.53285E-01
 -1       828-1.07263E-01 4.42308E-02-7.53047E-01
 -1       829-1.13023E-01 4.57057E-02-4.95002E-01
 -1       830-1.12586E-01 4.52978E-02-4.94184E-01
 -1       831-3.00511E-02 1.52770E-02-6.26762E-01
 -1       832-3.19279E-02 9.90369E-03-6.26499E-01
 -1       833 0.00000E+00 0.00000E+00 0.00000E+00
 -1       834 0.00000E+00 0.00000E+00 0.00000E+00
 -1       835 0.00000E+00 0.00000E+00 0.00000E+00
 -1       836 0.00000E+00 0.00000E+00 0.00000E+00
 -1       837 0.00000E+00 0.00000E+00 0.00000E+00
 -1       838 0.00000E+00 0.00000E+00 0.00000E+00
 -1       839 0.00000E+00 0.00000E+00 0.00000E+00
 -1       840 0.00000E+00 0.00000E+00 0.00000E+00
 -1       841 0.00000E+00 0.00000E+00 0.00000E+00
 -1       842 0.00000E+00 0.00000E+00 0.00000E+00
 -1       843 0.00000E+00 0.00000E+00 0.00000E+00
 -1       844 0.00000E+00 0.00000E+00 0.00000E+00
 -1       845 0.00000E+00 0.00000E+00 0.00000E+00
 -1       846 0.00000E+00 0.00000E+00 0.00000E+00
 -1       847 0.00000E+00 0.00000E+00 0.00000E+00
 -1       848 0.00000E+00 0.00000E+00 0.00000E+00
 -1       849 0.00000E+00 0.00000E+00 0.00000E+00
 -1       850 0.00000E+00 0.00000E+00 0.00000E+00
 -1       851 0.00000E+00 0.00000E+00 0.00000E+00
 -1       852 0.00000E+00 0.00000E+00 0.00000E+00
 -1       853 0.00000E+00 0.00000E+00 0.00000E+00
 -1       854 0.00000E+00 0.00000E+00 0.00000E+00
 -1       855 0.00000E+00 0.00000E+00 0.00000E+00
 -1       856 0.00000E+00 0.00000E+00 0.00000E+00
 -1       857 0.00000E+00 0.00000E+00 0.00000E+00
 -1       858 0.00000E+00 0.00000E+00 0.00000E+00
 -1       859 0.00000E+00 0.00000E+00 0.00000E+00
 -1       860 0.00000E+00 0.00000E+00 0.00000E+00
 -1       861 0.00000E+00 0.00000E+00 0.00000E+00
 -1       862 0.00000E+00 0.00000E+00 0.00000E+00
 -1       863 0.00000E+00 0.00000E+00 0.00000E+00
 -1       864 0.00000E+00 0.00000E+00 0.00000E+00
 -1       865 0.00000E+00 0.00000E+00 0.00000E+00
 -1       866 0.00000E+00 0.00000E+00 0.00000E+00
 -1       867 0.00000E+00 0.00000E+00 0.00000E+00
 -1       868 0.00000E+00 0.00000E+00 0.00000E+00
 -1       869 0.00000E+00 0.00000E+00 0.00000E+00
 -1       870 0.00000E+00 0.00000E+00 0.00000E+00
 -1       871 0.00000E+00 0.00000E+00 0.00000E+00
 -1       872 0.00000E+00 0.00000E+00 0.00000E+00
 -1       873 0.00000E+00 0.00000E+00 0.00000E+00
 -1       874 0.00000E+00 0.00000E+00 0.00000E+00
 -1       875 0.00000E+00 0.00000E+00 0.00000E+00
 -1       876 0.00000E+00 0.00000E+00 0.00000E+00
 -1       877 0.00000E+00 0.00000E+00 0.00000E+00
 -1       878 0.00000E+00 0.00000E+00 0.00000E+00
 -1       879 0.00000E+00 0.00000E+00 0.00000E+00
 -1       880 0.00000E+00 0.00000E+00 0.00000E+00
 -1       881 0.00000E+00 0.00000E+00 0.00000E+00
 -1       882 0.00000E+00 0.00000E+00 0.00000E+00
 -1       883 0.00000E+00 0.00000E+00 0.00000E+00
 -1       884 0.00000E+00 0.00000E+00 0.00000E+00
 -1       885 0.00000E+00 0.00000E+00 0.00000E+00
 -1       886 0.00000E+00 0.00000E+00 0.00000E+00
 -1       887 0.00000E+00 0.00000E+00 0.00000E+00
 -1       888 0.00000E+00 0.00000E+00 0.00000E+00
 -1       889 0.00000E+00 0.00000E+00 0.00000E+00
 -1       890 0.00000E+00 0.00000E+00 0.00000E+00
 -1       891 0.00000E+00 0.00000E+00 0.00000E+00
 -1       892 0.00000E+00 0.00000E+00 0.00000E+00
 -1       893 0.00000E+00 0.00000E+00 0.00000E+00
 -1       894 0.00000E+00 0.00000E+00 0.00000E+00
 -1       895 0.00000E+00 0.00000E+00 0.00000E+00
 -1       896 0.00000E+00 0.00000E+00 0.00000E+00
 -1       897 7.86102E-02 1.96789E-01-5.65518E-01
 -1       898 1.42844E-01-1.51139E-01-5.63519E-01
 -1       899 1.87987E-01 8.53338E-04-8.24514E-01
 -1       900 1.71745E-01 5.16779E-04-9.32889E-01
 -1       901 1.73268E-01 7.68611E-02-8.23381E-01
 -1       902 7.73291E-02 1.90106E-01-6.93242E-01
 -1       903 7.98694E-02-1.94982E-01-5.59733E-01
 -1       904-8.28324E-02-1.94536E-01-4.32938E-01
 -1       905-8.02210E-02-1.90752E-01-5.66847E-01
 -1       906-1.34791E-01-1.32811E-01-8.12968E-01
 -1       907-1.23698E-01-1.21894E-01-9.25435E-01
 -1       908-1.63428E-01-6.36770E-02-9.25077E-01
 -1       909-1.91176E-01 2.71871E-03-8.10668E-01
 -1       910-2.02634E-01 4.15488E-03-6.90804E-01
 -1       911-2.10822E-01 2.91309E-03-4.26795E-01
 -1       912-2.11997E-01 2.56075E-03-2.88078E-01
 -1       913-7.90094E-02 1.87353E-01-6.93420E-01
 -1       914-1.95107E-01-8.20563E-02-2.89296E-01
 -1       915-1.91124E-01-7.86027E-02-5.61831E-01
 -1       916-1.87374E-01-7.62181E-02-6.90064E-01
 -1       917-1.44315E-01-1.39677E-01-6.94070E-01
 -1       918-7.68286E-02 1.75202E-01-8.16224E-01
 -1       919 5.32546E-04 1.78095E-01-9.28648E-01
 -1       920 3.62458E-03 2.16675E-01-2.84728E-01
 -1       921-1.78299E-01 7.40780E-02-8.10544E-01
 -1       922-1.96678E-01 7.89732E-02-4.22736E-01
 -1       923-1.95988E-01 8.03230E-02-2.85331E-01
 -1       924-1.24088E-01 1.24067E-01-9.25097E-01
 -1       925-1.36665E-01 1.32306E-01-8.14371E-01
 -1       926-1.51988E-01 1.46407E-01-4.29926E-01
 -1       927-1.53281E-01 1.47506E-01-2.93697E-01
 -1       928-7.99862E-02 1.85854E-01-6.94505E-01
 -1       929-8.09471E-02 1.91784E-01-5.67244E-01
 -1       930 3.69525E-04 2.10025E-01-5.64258E-01
 -1       931 4.40262E-03-1.91997E-01-8.15477E-01
 -1       932-9.45756E-04-1.76160E-01-9.27621E-01
 -1       933 1.42378E-01 1.55318E-01-5.73684E-01
 -1       934 1.94453E-01-8.98902E-02-3.00141E-01
 -1       935 1.93229E-01-8.73726E-02-4.42471E-01
 -1       936 1.46125E-01-1.58409E-01-2.88074E-01
 -1       937 2.06769E-01 9.99574E-04-5.78959E-01
 -1       938 1.44467E-01 1.59184E-01-4.30511E-01
 -1       939 1.45394E-01 1.62284E-01-2.94525E-01
 -1       940 1.97914E-01 8.46961E-02-3.01109E-01
 -1       941-3.52752E-02 7.48458E-04-4.27134E-01
 -1       942-2.78493E-02-3.28893E-03-9.33554E-01
 -1       943-3.01800E-02 1.27955E-03-8.16520E-01
 -1       944-3.52939E-02 4.31724E-04-2.87400E-01
 -1       945-3.36411E-02 4.08491E-03-5.61413E-01
 -1       946-3.34547E-02-2.80902E-03-5.64444E-01
 -1       947-3.20816E-02-2.78836E-03-6.94009E-01
 -1       948-3.17204E-02-1.46454E-02-4.28280E-01
 -1       949-2.29717E-02-1.44694E-02-9.32741E-01
 -1       950-2.83024E-02-9.77745E-03-8.17494E-01
 -1       951-3.32551E-02-1.19253E-02-2.89559E-01
 -1       952-3.12064E-02-9.47268E-03-6.92352E-01
 -1       953-3.22647E-02-9.91234E-03-5.63344E-01
 -1       954-2.91737E-02-1.60331E-02-5.63547E-01
 -1       955-2.75347E-02-1.53985E-02-6.93078E-01
 -1       956-2.41667E-02-2.51222E-02-4.32317E-01
 -1       957-1.64702E-02-2.19693E-02-9.35808E-01
 -1       958-2.18427E-02-1.96546E-02-8.17602E-01
 -1       959-2.55321E-02-2.55155E-02-2.88632E-01
 -1       960-2.61635E-02-2.04046E-02-5.66273E-01
 -1       961-2.17550E-02-2.62690E-02-5.67954E-01
 -1       962-1.97144E-02-2.52835E-02-6.96026E-01
 -1       963-1.25556E-02-3.31746E-02-4.35074E-01
 -1       964-8.03746E-03-2.65776E-02-9.35094E-01
 -1       965-1.25854E-02-2.70134E-02-8.20100E-01
 -1       966-1.40788E-02-3.15441E-02-2.91738E-01
 -1       967-1.58970E-02-2.75817E-02-6.96907E-01
 -1       968-1.41230E-02-3.04507E-02-5.68742E-01
 -1       969-9.61110E-03-3.24697E-02-5.71132E-01
 -1       970-8.36444E-03-3.11876E-02-6.99014E-01
 -1       971 1.41470E-03-3.63587E-02-4.29656E-01
 -1       972 4.61012E-03-2.75337E-02-9.35104E-01
 -1       973-5.83697E-04-3.10768E-02-8.21615E-01
 -1       974 1.79115E-04-3.67235E-02-2.90190E-01
 -1       975-1.34517E-03-3.33715E-02-6.97211E-01
 -1       976-2.13678E-03-3.44654E-02-5.68107E-01
 -1       977 4.39482E-03-3.47042E-02-5.64076E-01
 -1       978 5.65114E-03-3.28238E-02-6.94262E-01
 -1       979 1.45857E-02-3.39335E-02-2.81111E-01
 -1       980 1.66007E-02-3.28124E-02-4.24316E-01
 -1       981 1.38914E-02-2.44800E-02-9.34559E-01
 -1       982 1.21003E-02-2.90609E-02-8.19993E-01
 -1       983 1.24279E-02-3.24348E-02-2.81415E-01
 -1       984 1.07601E-02-3.16293E-02-6.93458E-01
 -1       985 1.15910E-02-3.31496E-02-5.61975E-01
 -1       986 1.47027E-02-3.14899E-02-5.64356E-01
 -1       987 1.62687E-02-2.90691E-02-6.93383E-01
 -1       988 2.54141E-02-2.57737E-02-2.91117E-01
 -1       989 2.53535E-02-2.52459E-02-4.34660E-01
 -1       990 2.40108E-02-1.62955E-02-9.37678E-01
 -1       991 2.02872E-02-2.29313E-02-8.21349E-01
 -1       992 2.47513E-02-2.66247E-02-2.87735E-01
 -1       993 2.03678E-02-2.55018E-02-6.96831E-01
 -1       994 2.16562E-02-2.70841E-02-5.65718E-01
 -1       995 2.68931E-02-2.21970E-02-5.72848E-01
 -1       996 2.58497E-02-2.06830E-02-7.01987E-01
 -1       997 3.59559E-02-1.46196E-02-3.03126E-01
 -1       998 3.42106E-02-1.37943E-02-4.45478E-01
 -1       999 2.71330E-02-8.45663E-03-9.39063E-01
 -1      1000 2.73081E-02-1.37324E-02-8.26333E-01
 -1      1001 3.50647E-02-1.51697E-02-2.99044E-01
 -1      1002 2.87158E-02-1.61252E-02-7.01556E-01
 -1      1003 3.04878E-02-1.63973E-02-5.74806E-01
 -1      1004 3.30502E-02-1.12950E-02-5.81002E-01
 -1      1005 3.16673E-02-9.58668E-03-7.07555E-01
 -1      1006 3.68988E-02 5.69284E-04-3.04077E-01
 -1      1007 3.62833E-02-1.10313E-04-4.47341E-01
 -1      1008 2.81537E-02 2.31042E-03-9.40664E-01
 -1      1009 3.15214E-02-2.48084E-03-8.30094E-01
 -1      1010 3.87773E-02-5.16333E-04-3.06382E-01
 -1      1011 3.34255E-02-5.98228E-03-7.09112E-01
 -1      1012 3.48289E-02-1.63403E-03-5.81480E-01
 -1      1013 3.49921E-02 3.66365E-03-5.81241E-01
 -1      1014 3.31019E-02 4.34208E-03-7.08382E-01
 -1      1015 3.40213E-02 1.52499E-02-3.00051E-01
 -1      1016 3.32099E-02 1.60992E-02-4.42694E-01
 -1      1017 2.45002E-02 1.50573E-02-9.38798E-01
 -1      1018 2.90027E-02 1.21967E-02-8.28605E-01
 -1      1019 3.54548E-02 1.36590E-02-3.00543E-01
 -1      1020 3.14710E-02 1.06066E-02-7.07027E-01
 -1      1021 3.31856E-02 1.14874E-02-5.79530E-01
 -1      1022 3.03952E-02 1.78179E-02-5.75909E-01
 -1      1023 2.87172E-02 1.64053E-02-7.03817E-01
 -1      1024 2.44493E-02 2.87097E-02-2.88062E-01
 -1      1025 2.43961E-02 2.83848E-02-4.33957E-01
 -1      1026 1.68961E-02 2.29657E-02-9.36906E-01
 -1      1027 2.35066E-02 2.05913E-02-8.27363E-01
 -1      1028 2.65784E-02 2.84511E-02-2.93590E-01
 -1      1029 2.65316E-02 2.12763E-02-7.04320E-01
 -1      1030 2.66847E-02 2.34061E-02-5.75756E-01
 -1      1031 2.19498E-02 2.74857E-02-5.69864E-01
 -1      1032 2.02797E-02 2.63180E-02-6.99315E-01
 -1      1033 1.38134E-02 3.49900E-02-4.28355E-01
 -1      1034 7.09823E-03 2.88429E-02-9.37908E-01
 -1      1035 1.28870E-02 2.89386E-02-8.23668E-01
 -1      1036 1.39519E-02 3.55854E-02-2.82968E-01
 -1      1037 1.68812E-02 3.16754E-02-5.67699E-01
 -1      1038 1.19085E-02 3.36255E-02-5.66052E-01
 -1      1039 1.03162E-02 3.23831E-02-6.96416E-01
 -1      1040 9.23433E-04 3.65657E-02-4.30005E-01
 -1      1041-4.05529E-03 2.91103E-02-9.36597E-01
 -1      1042 9.59586E-04 3.14983E-02-8.21068E-01
 -1      1043 1.44244E-03 3.59877E-02-2.84002E-01
 -1      1044 4.19396E-03 3.36586E-02-6.96385E-01
 -1      1045 2.53523E-03 3.49604E-02-5.65486E-01
 -1      1046-2.17195E-03 3.48148E-02-5.66967E-01
 -1      1047-3.51618E-03 3.36639E-02-6.97029E-01
 -1      1048-1.43910E-02 3.53899E-02-2.93033E-01
 -1      1049-1.57291E-02 3.40974E-02-4.34391E-01
 -1      1050-1.33708E-02 2.55663E-02-9.34532E-01
 -1      1051-1.13791E-02 2.91883E-02-8.22471E-01
 -1      1052-1.44105E-02 3.47751E-02-2.91307E-01
 -1      1053-9.79418E-03 3.18959E-02-6.97724E-01
 -1      1054-1.14001E-02 3.29109E-02-5.69520E-01
 -1      1055-1.67101E-02 3.15538E-02-5.67699E-01
 -1      1056-1.59571E-02 2.99311E-02-6.96287E-01
 -1      1057-2.71100E-02 2.49002E-02-2.91232E-01
 -1      1058-2.61799E-02 2.52669E-02-4.31047E-01
 -1      1059-2.22618E-02 1.75009E-02-9.32903E-01
 -1      1060-2.03465E-02 2.33425E-02-8.19778E-01
 -1      1061-2.61870E-02 2.57744E-02-2.93133E-01
 -1      1062-2.15168E-02 2.53085E-02-6.97024E-01
 -1      1063-2.14809E-02 2.68062E-02-5.68982E-01
 -1      1064-2.71338E-02 2.15370E-02-5.66515E-01
 -1      1065-2.62695E-02 1.93394E-02-6.94696E-01
 -1      1066-3.41959E-02 1.31744E-02-4.24540E-01
 -1      1067-2.68502E-02 9.44416E-03-9.31899E-01
 -1      1068-2.71732E-02 1.31106E-02-8.17094E-01
 -1      1069-3.28780E-02 1.32191E-02-2.83960E-01
 -1      1070-3.05923E-02 1.54063E-02-5.61531E-01
 -1      1071-3.26957E-02 1.00563E-02-5.60350E-01
 -1      1072-3.14255E-02 8.94927E-03-6.89961E-01
 -1      1073 0.00000E+00 0.00000E+00 0.00000E+00
 -1      1074 0.00000E+00 0.00000E+00 0.00000E+00
 -1      1075 0.00000E+00 0.00000E+00 0.00000E+00
 -1      1076 0.00000E+00 0.00000E+00 0.00000E+00
 -1      1077 0.00000E+00 0.00000E+00 0.00000E+00
 -1      1078 0.00000E+00 0.00000E+00 0.00000E+00
 -1      1079 0.00000E+00 0.00000E+00 0.00000E+00
 -1      1080 0.00000E+00 0.00000E+00 0.00000E+00
 -1      1081 0.00000E+00 0.00000E+00 0.00000E+00
 -1      1082 0.00000E+00 0.00000E+00 0.00000E+00
 -1      1083 0.00000E+00 0.00000E+00 0.00000E+00
 -1      1084 0.00000E+00 0.00000E+00 0.00000E+00
 -1      1085 0.00000E+00 0.00000E+00 0.00000E+00
 -1      1086 0.00000E+00 0.00000E+00 0.00000E+00
 -1      1087 0.00000E+00 0.00000E+00 0.00000E+00
 -1      1088 0.00000E+00 0.00000E+00 0.00000E+00
 -1      1089 0.00000E+00 0.00000E+00 0.00000E+00
 -1      1090 0.00000E+00 0.00000E+00 0.00000E+00
 -1      1091 0.00000E+00 0.00000E+00 0.00000E+00
 -1      1092 0.00000E+00 0.00000E+00 0.00000E+00
 -1      1093 0.00000E+00 0.00000E+00 0.00000E+00
 -1      1094 0.00000E+00 0.00000E+00 0.00000E+00
 -1      1095 0.00000E+00 0.00000E+00 0.00000E+00
 -1      1096 0.00000E+00 0.00000E+00 0.00000E+00
 -1      1097 0.00000E+00 0.00000E+00 0.00000E+00
 -1      1098 0.00000E+00 0.00000E+00 0.00000E+00
 -1      1099 0.00000E+00 0.00000E+00 0.00000E+00
 -1      1100 0.00000E+00 0.00000E+00 0.00000E+00
 -1      1101 0.00000E+00 0.00000E+00 0.00000E+00
 -1      1102 0.00000E+00 0.00000E+00 0.00000E+00
 -1      1103 0.00000E+00 0.00000E+00 0.00000E+00
 -1      1104 0.00000E+00 0.00000E+00 0.00000E+00
 -1      1105 0.00000E+00 0.00000E+00 0.00000E+00
 -1      1106 0.00000E+00 0.00000E+00 0.00000E+00
 -1      1107 0.00000E+00 0.00000E+00 0.00000E+00
 -1      1108 0.00000E+00 0.00000E+00 0.00000E+00
 -1      1109 0.00000E+00 0.00000E+00 0.00000E+00
 -1      1110 0.00000E+00 0.00000E+00 0.00000E+00
 -1      1111 0.00000E+00 0.00000E+00 0.00000E+00
 -1      1112 0.00000E+00 0.00000E+00 0.00000E+00
 -1      1113 0.00000E+00 0.00000E+00 0.00000E+00
 -1      1114 0.00000E+00 0.00000E+00 0.00000E+00
 -1      1115 0.00000E+00 0.00000E+00 0.00000E+00
 -1      1116 0.00000E+00 0.00000E+00 0.00000E+00
 -1      1117 0.00000E+00 0.00000E+00 0.00000E+00
 -1      1118 0.00000E+00 0.00000E+00 0.00000E+00
 -1      1119 0.00000E+00 0.00000E+00 0.00000E+00
 -1      1120 0.00000E+00 0.00000E+00 0.00000E+00
 -1      1121 0.00000E+00 0.00000E+00 0.00000E+00
 -1      1122 0.00000E+00 0.00000E+00 0.00000E+00
 -1      1123 0.00000E+00 0.00000E+00 0.00000E+00
 -1      1124 0.00000E+00 0.00000E+00 0.00000E+00
 -1      1125 0.00000E+00 0.00000E+00 0.00000E+00
 -1      1126 0.00000E+00 0.00000E+00 0.00000E+00
 -1      1127 0.00000E+00 0.00000E+00 0.00000E+00
 -1      1128 0.00000E+00 0.00000E+00 0.00000E+00
 -1      1129 0.00000E+00 0.00000E+00 0.00000E+00
 -1      1130 1.88532E-01-8.41944E-02-5.72937E-01
 -1      1131 1.83951E-01-8.23671E-02-6.98435E-01
 -1      1132 1.82021E-01-8.35997E-02-7.04336E-01
 -1      1133 1.87819E-01-8.51187E-02-5.78433E-01
 -1      1134 7.62503E-02 1.92196E-01-6.95309E-01
 -1      1135 7.76881E-02-1.91173E-01-6.91122E-01
 -1      1136 7.90846E-02-1.95789E-01-5.61879E-01
 -1      1137 1.39720E-01-1.46985E-01-6.92353E-01
 -1      1138 1.39278E-01-1.48981E-01-6.98787E-01
 -1      1139 1.42436E-01-1.53346E-01-5.69724E-01
 -1      1140 1.72851E-01 4.07650E-05-9.33472E-01
 -1      1141 1.88097E-01-1.31174E-03-8.24749E-01
 -1      1142 1.59317E-01 6.58209E-02-9.31061E-01
 -1      1143 1.73743E-01 7.46807E-02-8.21511E-01
 -1      1144 1.59773E-01 6.97222E-02-9.32571E-01
 -1      1145 7.97681E-02 1.96174E-01-5.63305E-01
 -1      1146 1.58257E-01-7.26327E-02-9.33261E-01
 -1      1147 1.73075E-01-7.76162E-02-8.20079E-01
 -1      1148 1.58889E-01-6.97312E-02-9.29979E-01
 -1      1149 1.71554E-01-7.90564E-02-8.22833E-01
 -1      1150 7.91281E-02-1.88447E-01-6.89877E-01
 -1      1151-7.99258E-02-1.83938E-01-6.95947E-01
 -1      1152-8.04766E-02-1.89695E-01-5.68342E-01
 -1      1153-8.54522E-02-1.94984E-01-2.92203E-01
 -1      1154-8.22283E-02-1.94260E-01-4.32046E-01
 -1      1155-8.60365E-02-1.96110E-01-2.94125E-01
 -1      1156-7.17376E-02-1.58760E-01-9.27568E-01
 -1      1157-7.53869E-02-1.74819E-01-8.14086E-01
 -1      1158-6.90697E-02-1.60549E-01-9.25579E-01
 -1      1159-7.66937E-02-1.72114E-01-8.16416E-01
 -1      1160-7.86368E-02-1.86068E-01-6.93076E-01
 -1      1161-1.25429E-01-1.22033E-01-9.24219E-01
 -1      1162-1.36155E-01-1.31214E-01-8.14230E-01
 -1      1163-1.75362E-01-7.31095E-02-8.11963E-01
 -1      1164-1.62344E-01-6.73776E-02-9.24712E-01
 -1      1165-1.76376E-01-7.12069E-02-8.12104E-01
 -1      1166-1.76106E-01 5.85290E-03-9.25598E-01
 -1      1167-1.90860E-01 4.76765E-03-8.12572E-01
 -1      1168-1.77576E-01 3.35270E-03-9.23485E-01
 -1      1169-2.07149E-01 3.93441E-03-5.62008E-01
 -1      1170-2.07491E-01 2.64952E-03-5.59408E-01
 -1      1171-2.02047E-01 2.52376E-03-6.88605E-01
 -1      1172-2.11915E-01 2.57481E-03-2.89329E-01
 -1      1173-2.11216E-01 2.48225E-03-4.25341E-01
 -1      1174-8.04483E-02 1.91923E-01-5.65349E-01
 -1      1175-1.52358E-01-1.50096E-01-2.89602E-01
 -1      1176-1.50850E-01-1.47940E-01-4.28669E-01
 -1      1177-1.51648E-01-1.47703E-01-4.30412E-01
 -1      1178-1.52376E-01-1.49613E-01-2.90606E-01
 -1      1179-1.94193E-01-8.10929E-02-4.26461E-01
 -1      1180-1.94172E-01-8.05648E-02-4.26780E-01
 -1      1181-1.94663E-01-8.19585E-02-2.88918E-01
 -1      1182-1.90960E-01-7.96056E-02-5.61124E-01
 -1      1183-1.85665E-01-7.73997E-02-6.89438E-01
 -1      1184-1.48002E-01-1.43776E-01-5.65975E-01
 -1      1185-1.47462E-01-1.44851E-01-5.63418E-01
 -1      1186-1.42972E-01-1.40866E-01-6.90979E-01
 -1      1187-8.11286E-02 1.96993E-01-4.31608E-01
 -1      1188-8.11855E-02 1.99920E-01-2.92805E-01
 -1      1189-8.09956E-02 1.99205E-01-2.92079E-01
 -1      1190-8.12853E-02 1.96600E-01-4.31052E-01
 -1      1191-6.96623E-02 1.63623E-01-9.26200E-01
 -1      1192-7.48804E-02 1.76120E-01-8.14237E-01
 -1      1193-7.13806E-02 1.63743E-01-9.27837E-01
 -1      1194 1.44309E-03 1.92403E-01-8.15954E-01
 -1      1195 2.49322E-03 2.15572E-01-4.27684E-01
 -1      1196-6.48249E-04 1.93046E-01-8.15983E-01
 -1      1197-2.45490E-03 1.76543E-01-9.28471E-01
 -1      1198 3.85394E-03 2.17977E-01-2.86606E-01
 -1      1199 1.91373E-03 2.15213E-01-4.26941E-01
 -1      1200-1.61018E-01 7.03688E-02-9.24472E-01
 -1      1201-1.75158E-01 7.53502E-02-8.11269E-01
 -1      1202-1.62399E-01 6.82376E-02-9.23333E-01
 -1      1203-1.87134E-01 7.78517E-02-6.87646E-01
 -1      1204-1.92575E-01 7.83541E-02-5.58388E-01
 -1      1205-1.93994E-01 7.80286E-02-5.59645E-01
 -1      1206-1.89775E-01 7.69268E-02-6.88084E-01
 -1      1207-1.97200E-01 8.08678E-02-2.85299E-01
 -1      1208-1.96573E-01 7.86626E-02-4.23889E-01
 -1      1209-1.35128E-01 1.33714E-01-8.13916E-01
 -1      1210-1.25801E-01 1.22119E-01-9.26094E-01
 -1      1211-1.43425E-01 1.41708E-01-6.92005E-01
 -1      1212-1.47238E-01 1.44646E-01-5.64608E-01
 -1      1213-1.48919E-01 1.44877E-01-5.66235E-01
 -1      1214-1.44670E-01 1.40201E-01-6.94004E-01
 -1      1215-1.53320E-01 1.47603E-01-2.92172E-01
 -1      1216-1.52555E-01 1.46479E-01-4.31264E-01
 -1      1217-2.15694E-04 2.04681E-01-6.93563E-01
 -1      1218 7.20083E-02 1.79543E-01-8.17730E-01
 -1      1219 6.87954E-02 1.63424E-01-9.29563E-01
 -1      1220 7.38651E-02 1.78108E-01-8.17296E-01
 -1      1221 6.59349E-02 1.64260E-01-9.29042E-01
 -1      1222 8.17657E-02 2.03284E-01-2.84297E-01
 -1      1223 8.11655E-02 2.01488E-01-4.26110E-01
 -1      1224 8.22533E-02 2.03725E-01-2.83750E-01
 -1      1225 8.05625E-02 2.01576E-01-4.27008E-01
 -1      1226 3.72250E-03-2.03559E-01-6.91518E-01
 -1      1227 3.93940E-03-2.08452E-01-5.62704E-01
 -1      1228 3.06414E-03-2.14035E-01-2.90893E-01
 -1      1229 3.88993E-03-2.12695E-01-4.29596E-01
 -1      1230 1.88994E-03-1.76813E-01-9.27485E-01
 -1      1231 2.29354E-03-1.91047E-01-8.14939E-01
 -1      1232 3.19570E-03-2.13285E-01-4.28617E-01
 -1      1233 3.22169E-03-2.14598E-01-2.89616E-01
 -1      1234 4.88722E-03-2.08403E-01-5.65579E-01
 -1      1235 7.57927E-02-1.77438E-01-8.14085E-01
 -1      1236 6.87668E-02-1.64251E-01-9.26526E-01
 -1      1237 6.69922E-02-1.64501E-01-9.26906E-01
 -1      1238 7.45852E-02-1.77825E-01-8.13582E-01
 -1      1239 8.25572E-02-1.99674E-01-2.82237E-01
 -1      1240 8.22794E-02-1.98810E-01-4.22732E-01
 -1      1241 8.15885E-02-1.98942E-01-4.23655E-01
 -1      1242 8.29499E-02-2.00597E-01-2.82134E-01
 -1      1243 5.40987E-03-2.03110E-01-6.95012E-01
 -1      1244 1.38822E-01 1.49848E-01-7.02667E-01
 -1      1245 1.60656E-03 2.05067E-01-6.94011E-01
 -1      1246 1.80802E-03 2.10829E-01-5.64661E-01
 -1      1247 1.20574E-01-1.28834E-01-9.30320E-01
 -1      1248 1.31431E-01 1.38889E-01-8.20958E-01
 -1      1249 1.23023E-01 1.26485E-01-9.30354E-01
 -1      1250 1.32461E-01 1.37218E-01-8.19123E-01
 -1      1251 1.22509E-01 1.28685E-01-9.32718E-01
 -1      1252 1.32658E-01-1.38463E-01-8.15558E-01
 -1      1253 1.22099E-01-1.26544E-01-9.27874E-01
 -1      1254 1.30398E-01-1.39205E-01-8.18464E-01
 -1      1255 1.39737E-01 1.47881E-01-6.95655E-01
 -1      1256 1.42739E-01 1.53359E-01-5.66603E-01
 -1      1257 1.85629E-01 8.03103E-02-7.00648E-01
 -1      1258 1.90466E-01 8.19355E-02-5.74021E-01
 -1      1259 1.89517E-01 8.26373E-02-5.76938E-01
 -1      1260 1.83852E-01 8.15603E-02-7.03678E-01
 -1      1261 2.15200E-01 2.87205E-03-3.06272E-01
 -1      1262 2.12120E-01 1.70114E-03-4.45383E-01
 -1      1263 2.12265E-01 8.65499E-04-4.45282E-01
 -1      1264 2.14767E-01 2.20438E-03-3.05152E-01
 -1      1265 1.93199E-01-8.68104E-02-4.39934E-01
 -1      1266 1.95443E-01-9.07434E-02-3.04307E-01
 -1      1267 1.45309E-01-1.56257E-01-4.28916E-01
 -1      1268 1.45383E-01-1.57434E-01-4.32780E-01
 -1      1269 1.46437E-01-1.59256E-01-2.92200E-01
 -1      1270 2.00499E-01 8.14209E-04-7.05213E-01
 -1      1271 2.00451E-01-1.39167E-03-7.05865E-01
 -1      1272 2.05997E-01-5.53075E-04-5.79076E-01
 -1      1273 1.45148E-01 1.61694E-01-2.89727E-01
 -1      1274 1.44865E-01 1.60031E-01-4.35705E-01
 -1      1275 1.95405E-01 8.32363E-02-4.40177E-01
 -1      1276 1.97578E-01 8.45671E-02-3.00369E-01
 -1      1277 1.95355E-01 8.35944E-02-4.40967E-01
 -1      1278-3.53022E-02-7.18837E-04-2.87962E-01
 -1      1279-3.00638E-02-1.37250E-03-8.18701E-01
 -1      1280-2.75491E-02 3.08040E-03-9.30339E-01
 -1      1281-3.57381E-02 2.63687E-04-4.25914E-01
 -1      1282-3.19878E-02 5.09091E-03-6.91869E-01
 -1      1283-3.20988E-02-1.38991E-02-2.88367E-01
 -1      1284-2.68400E-02-1.27806E-02-8.16969E-01
 -1      1285-2.71394E-02-6.65529E-03-9.30788E-01
 -1      1286-3.23653E-02-1.41702E-02-4.28190E-01
 -1      1287-2.53085E-02-2.60743E-02-2.90036E-01
 -1      1288-1.89507E-02-2.26747E-02-8.21198E-01
 -1      1289-2.13381E-02-1.64202E-02-9.30723E-01
 -1      1290-2.52652E-02-2.45676E-02-4.31571E-01
 -1      1291-2.45795E-02-1.96718E-02-6.93565E-01
 -1      1292-1.38151E-02-3.34430E-02-2.93732E-01
 -1      1293-1.01230E-02-2.89819E-02-8.22560E-01
 -1      1294-1.36680E-02-2.39409E-02-9.33951E-01
 -1      1295-1.36285E-02-3.22711E-02-4.33744E-01
 -1      1296 1.90471E-03-3.67564E-02-2.89519E-01
 -1      1297 2.97771E-03-3.09825E-02-8.21492E-01
 -1      1298-3.23429E-03-2.74809E-02-9.36284E-01
 -1      1299-3.74646E-04-3.65294E-02-4.32143E-01
 -1      1300 1.42926E-02-2.84422E-02-8.20437E-01
 -1      1301 9.21940E-03-2.70377E-02-9.33740E-01
 -1      1302 1.43951E-02-3.34740E-02-4.24896E-01
 -1      1303 2.25526E-02-2.16985E-02-8.24261E-01
 -1      1304 1.72690E-02-2.25382E-02-9.35336E-01
 -1      1305 2.46706E-02-2.68034E-02-4.31590E-01
 -1      1306 2.96611E-02-1.05004E-02-8.28016E-01
 -1      1307 2.47291E-02-1.41473E-02-9.39203E-01
 -1      1308 3.32420E-02-1.52270E-02-4.42668E-01
 -1      1309 3.12251E-02 1.56861E-03-8.31355E-01
 -1      1310 2.80013E-02-2.92592E-03-9.41258E-01
 -1      1311 3.67021E-02-1.25994E-03-4.48658E-01
 -1      1312 2.79082E-02 1.46588E-02-8.27407E-01
 -1      1313 2.78550E-02 6.97891E-03-9.40631E-01
 -1      1314 3.32692E-02 1.41393E-02-4.43402E-01
 -1      1315 2.04697E-02 2.39221E-02-8.27023E-01
 -1      1316 2.21824E-02 1.85497E-02-9.39386E-01
 -1      1317 2.61499E-02 2.66061E-02-4.38503E-01
 -1      1318 1.45186E-02 3.63735E-02-2.82725E-01
 -1      1319 1.05131E-02 3.04841E-02-8.24981E-01
 -1      1320 1.45441E-02 2.47814E-02-9.36852E-01
 -1      1321 1.46915E-02 3.45579E-02-4.30359E-01
 -1      1322 1.51309E-02 2.98046E-02-6.98704E-01
 -1      1323-8.70980E-06 3.63961E-02-2.85907E-01
 -1      1324-1.25741E-03 3.16461E-02-8.22943E-01
 -1      1325 3.85918E-03 2.91145E-02-9.36958E-01
 -1      1326 1.43367E-03 3.68291E-02-4.29203E-01
 -1      1327-1.42878E-02 2.76117E-02-8.19889E-01
 -1      1328-8.06913E-03 2.86757E-02-9.35525E-01
 -1      1329-1.47193E-02 3.36698E-02-4.32868E-01
 -1      1330-2.28095E-02 2.07032E-02-8.18444E-01
 -1      1331-1.70597E-02 2.33918E-02-9.33413E-01
 -1      1332-2.60052E-02 2.51333E-02-4.32995E-01
 -1      1333-3.43447E-02 1.21361E-02-2.83462E-01
 -1      1334-2.87951E-02 1.07449E-02-8.17299E-01
 -1      1335-2.53750E-02 1.40969E-02-9.31112E-01
 -1      1336-3.30457E-02 1.42211E-02-4.25591E-01
 -1      1337-2.89472E-02 1.52370E-02-6.91258E-01
 -1      1338 0.00000E+00 0.00000E+00 0.00000E+00
 -1      1339 0.00000E+00 0.00000E+00 0.00000E+00
 -1      1340 0.00000E+00 0.00000E+00 0.00000E+00
 -1      1341 0.00000E+00 0.00000E+00 0.00000E+00
 -1      1342 0.00000E+00 0.00000E+00 0.00000E+00
 -1      1343 0.00000E+00 0.00000E+00 0.00000E+00
 -1      1344 0.00000E+00 0.00000E+00 0.00000E+00
 -1      1345 0.00000E+00 0.00000E+00 0.00000E+00
 -1      1346 0.00000E+00 0.00000E+00 0.00000E+00
 -1      1347 0.00000E+00 0.00000E+00 0.00000E+00
 -1      1348 0.00000E+00 0.00000E+00 0.00000E+00
 -1      1349 0.00000E+00 0.00000E+00 0.00000E+00
 -1      1350 0.00000E+00 0.00000E+00 0.00000E+00
 -1      1351 0.00000E+00 0.00000E+00 0.00000E+00
 -1      1352 0.00000E+00 0.00000E+00 0.00000E+00
 -1      1353 0.00000E+00 0.00000E+00 0.00000E+00
 -1      1354 0.00000E+00 0.00000E+00 0.00000E+00
 -1      1355 0.00000E+00 0.00000E+00 0.00000E+00
 -1      1356 0.00000E+00 0.00000E+00 0.00000E+00
 -1      1357 0.00000E+00 0.00000E+00 0.00000E+00
 -1      1358 0.00000E+00 0.00000E+00 0.00000E+00
 -1      1359 0.00000E+00 0.00000E+00 0.00000E+00
 -1      1360 0.00000E+00 0.00000E+00 0.00000E+00
 -1      1361 0.00000E+00 0.00000E+00 0.00000E+00
 -1      1362 0.00000E+00 0.00000E+00 0.00000E+00
 -1      1363 0.00000E+00 0.00000E+00 0.00000E+00
 -1      1364 0.00000E+00 0.00000E+00 0.00000E+00
 -1      1365 0.00000E+00 0.00000E+00 0.00000E+00
 -1      1366 0.00000E+00 0.00000E+00 0.00000E+00
 -1      1367 0.00000E+00 0.00000E+00 0.00000E+00
 -1      1368 0.00000E+00 0.00000E+00 0.00000E+00
 -1      1369 0.00000E+00 0.00000E+00 0.00000E+00
 -1      1370 0.00000E+00 0.00000E+00 0.00000E+00
 -1      1371 0.00000E+00 0.00000E+00 0.00000E+00
 -1      1372 0.00000E+00 0.00000E+00 0.00000E+00
 -1      1373 0.00000E+00 0.00000E+00 0.00000E+00
 -1      1374 0.00000E+00 0.00000E+00 0.00000E+00
 -1      1375 0.00000E+00 0.00000E+00 0.00000E+00
 -1      1376 0.00000E+00 0.00000E+00 0.00000E+00
 -1      1377 0.00000E+00 0.00000E+00 0.00000E+00
 -1      1378 0.00000E+00 0.00000E+00 0.00000E+00
 -1      1379 0.00000E+00 0.00000E+00 0.00000E+00
 -1      1380 0.00000E+00 0.00000E+00 0.00000E+00
 -1      1381 0.00000E+00 0.00000E+00 0.00000E+00
 -1      1382 0.00000E+00 0.00000E+00 0.00000E+00
 -1      1383 0.00000E+00 0.00000E+00 0.00000E+00
 -1      1384 0.00000E+00 0.00000E+00 0.00000E+00
 -1      1385 0.00000E+00 0.00000E+00 0.00000E+00
 -1      1386 0.00000E+00 0.00000E+00 0.00000E+00
 -1      1387 0.00000E+00 0.00000E+00 0.00000E+00
 -1      1388 0.00000E+00 0.00000E+00 0.00000E+00
 -1      1389 0.00000E+00 0.00000E+00 0.00000E+00
 -1      1390 0.00000E+00 0.00000E+00 0.00000E+00
 -1      1391 0.00000E+00 0.00000E+00 0.00000E+00
 -1      1392 0.00000E+00 0.00000E+00 0.00000E+00
 -1      1393 0.00000E+00 0.00000E+00 0.00000E+00
 -1      1394 0.00000E+00 0.00000E+00 0.00000E+00
 -1      1395 0.00000E+00 0.00000E+00 0.00000E+00
 -1      1396 0.00000E+00 0.00000E+00 0.00000E+00
 -1      1397 0.00000E+00 0.00000E+00 0.00000E+00
 -1      1398 0.00000E+00 0.00000E+00 0.00000E+00
 -1      1399 0.00000E+00 0.00000E+00 0.00000E+00
 -1      1400 0.00000E+00 0.00000E+00 0.00000E+00
 -1      1401 0.00000E+00 0.00000E+00 0.00000E+00
 -1      1402 0.00000E+00 0.00000E+00 0.00000E+00
 -1      1403 0.00000E+00 0.00000E+00 0.00000E+00
 -1      1404 0.00000E+00 0.00000E+00 0.00000E+00
 -1      1405 0.00000E+00 0.00000E+00 0.00000E+00
 -1      1406 0.00000E+00 0.00000E+00 0.00000E+00
 -1      1407 0.00000E+00 0.00000E+00 0.00000E+00
 -1      1408 0.00000E+00 0.00000E+00 0.00000E+00
 -1      1409 1.39424E-01-3.14932E-02-9.84341E-01
 -1      1410 1.40461E-01-3.08925E-02-9.88747E-01
 -1      1411-1.21165E-02-6.59370E-02-9.86002E-01
 -1      1412-1.24984E-02-6.65509E-02-9.91440E-01
 -1      1413 5.60534E-02-3.90329E-02-9.89208E-01
 -1      1414 5.64364E-02-3.92600E-02-9.94577E-01
 -1      1415 8.12408E-02-1.20477E-01-9.79676E-01
 -1      1416 8.11358E-02-1.21913E-01-9.84794E-01
 -1      1417-3.74179E-02 5.72423E-02-9.84989E-01
 -1      1418-3.79090E-02 5.75514E-02-9.90504E-01
 -1      1419 6.56984E-02 1.54281E-02-9.89876E-01
 -1      1420 6.65697E-02 1.49706E-02-9.95121E-01
 -1      1421 1.19105E-01 8.03781E-02-9.83093E-01
 -1      1422 1.19679E-01 8.15766E-02-9.88039E-01
 -1      1423 1.39520E-02-6.66253E-02-9.86101E-01
 -1      1424 1.42240E-02-6.70571E-02-9.91489E-01
 -1      1425 1.33661E-02 6.74301E-02-9.87772E-01
 -1      1426 1.33639E-02 6.79898E-02-9.93039E-01
 -1      1427 1.41839E-01 2.80688E-02-9.83310E-01
 -1      1428 1.42590E-01 2.86848E-02-9.87938E-01
 -1      1429 2.72366E-02 1.44183E-01-9.81884E-01
 -1      1430 2.70148E-02 1.45330E-01-9.87041E-01
 -1      1431 5.69151E-02 3.74606E-02-9.89586E-01
 -1      1432 5.73187E-02 3.79268E-02-9.94841E-01
 -1      1433 6.66598E-02 1.59386E-01-9.81048E-01
 -1      1434 1.54597E-04 2.49695E-02-9.94734E-01
 -1      1435 2.36354E-02 8.47166E-04-9.95723E-01
 -1      1436 3.80773E-02-5.67777E-02-9.86729E-01
 -1      1437 3.84895E-02-5.70811E-02-9.92265E-01
 -1      1438 1.53803E-01-6.76097E-02-9.80781E-01
 -1      1439-8.30947E-02-1.16672E-01-9.76674E-01
 -1      1440-8.28463E-02-1.18278E-01-9.81737E-01
 -1      1441 1.76203E-02-1.77988E-02-9.94244E-01
 -1      1442 9.92979E-03-2.26213E-02-9.93473E-01
 -1      1443 7.96724E-02 1.24074E-01-9.87342E-01
 -1      1444 7.93479E-02 1.23658E-01-9.82371E-01
 -1      1445-3.10770E-02-1.42551E-01-9.79154E-01
 -1      1446-3.01235E-02-1.43797E-01-9.84120E-01
 -1      1447-1.20442E-01-7.85432E-02-9.76902E-01
 -1      1448-1.21117E-01-7.93217E-02-9.81716E-01
 -1      1449-9.46884E-03 2.37305E-02-9.93285E-01
 -1      1450-2.99835E-02 1.44861E-01-9.80520E-01
 -1      1451-2.99071E-02 1.45822E-01-9.85412E-01
 -1      1452-6.58721E-02 1.37181E-02-9.82855E-01
 -1      1453-6.65241E-02 1.39255E-02-9.88212E-01
 -1      1454-5.52314E-02-3.47129E-02-9.83900E-01
 -1      1455-5.54892E-02-3.56717E-02-9.89121E-01
 -1      1456-5.50850E-02 3.69239E-02-9.83803E-01
 -1      1457-5.55656E-02 3.75673E-02-9.89487E-01
 -1      1458 1.21455E-01-2.63485E-02-9.86107E-01
 -1      1459 1.22548E-01-2.64256E-02-9.91129E-01
 -1      1460-3.73552E-02-5.45078E-02-9.84212E-01
 -1      1461-3.73566E-02-5.53349E-02-9.89447E-01
 -1      1462-1.43636E-01-2.64962E-02-9.75090E-01
 -1      1463-1.44525E-01-2.63586E-02-9.80452E-01
 -1      1464-1.43903E-01 3.11818E-02-9.75779E-01
 -1      1465-1.44655E-01 3.12940E-02-9.80621E-01
 -1      1466 1.22461E-01 2.49521E-02-9.85460E-01
 -1      1467 1.23292E-01 2.47428E-02-9.90463E-01
 -1      1468-1.20682E-01 8.19535E-02-9.76960E-01
 -1      1469-1.21383E-01 8.24027E-02-9.81812E-01
 -1      1470 1.17144E-01-8.70883E-02-9.81212E-01
 -1      1471 1.18676E-01-8.65031E-02-9.86126E-01
 -1      1472-1.70828E-01 4.38944E-03-9.74730E-01
 -1      1473-1.23815E-01 2.69316E-02-9.79168E-01
 -1      1474-1.24671E-01 2.70308E-02-9.83931E-01
 -1      1475 6.52167E-02-1.59336E-01-9.79081E-01
 -1      1476 1.20382E-01 1.20705E-01-9.81937E-01
 -1      1477-8.15071E-02 1.20820E-01-9.78050E-01
 -1      1478-8.17439E-02 1.21669E-01-9.82776E-01
 -1      1479-1.31195E-02 6.76818E-02-9.87392E-01
 -1      1480-1.32549E-02 6.81993E-02-9.92576E-01
 -1      1481 3.17157E-02-1.43070E-01-9.79664E-01
 -1      1482 3.08730E-02-1.44372E-01-9.84523E-01
 -1      1483-1.69565E-02-1.65177E-02-9.90639E-01
 -1      1484-2.62741E-02 4.06932E-02-9.90790E-01
 -1      1485-2.63223E-02 4.03645E-02-9.85388E-01
 -1      1486-4.98822E-04-1.70586E-01-9.78891E-01
 -1      1487 1.23205E-01 1.25571E-01-9.56696E-01
 -1      1488-6.56014E-02-9.96520E-03-9.83425E-01
 -1      1489-6.60474E-02-1.05383E-02-9.88892E-01
 -1      1490-3.73303E-03 1.73087E-01-9.80493E-01
 -1      1491-2.41335E-02 1.96110E-04-9.90172E-01
 -1      1492-6.96855E-02-1.56584E-01-9.76907E-01
 -1      1493 1.64529E-01-2.33835E-03-9.81162E-01
 -1      1494 3.78517E-02 5.69002E-02-9.87858E-01
 -1      1495 3.79732E-02 5.73594E-02-9.93335E-01
 -1      1496 1.18479E-01-1.24030E-01-9.80862E-01
 -1      1497-2.19357E-02 9.22396E-03-9.90127E-01
 -1      1498 1.59283E-02-8.63543E-02-9.85393E-01
 -1      1499 1.69995E-02-8.68869E-02-9.90751E-01
 -1      1500-6.99546E-02-1.04445E-01-9.79428E-01
 -1      1501-7.12673E-02-1.04417E-01-9.84313E-01
 -1      1502-1.21564E-01 1.22175E-01-9.75443E-01
 -1      1503 2.66529E-02-3.82028E-02-9.92294E-01
 -1      1504 2.65200E-02-3.77076E-02-9.87006E-01
 -1      1505 6.55412E-02-1.34158E-02-9.95614E-01
 -1      1506 6.49064E-02-1.34619E-02-9.90546E-01
 -1      1507-1.23860E-01-2.25925E-02-9.79036E-01
 -1      1508-1.24933E-01-2.27641E-02-9.84276E-01
 -1      1509 1.19050E-01 1.26531E-01-9.54583E-01
 -1      1510-8.51456E-02 1.81931E-02-9.82270E-01
 -1      1511-8.58444E-02 1.84725E-02-9.87541E-01
 -1      1512-2.18499E-02-7.71413E-03-9.89282E-01
 -1      1513-4.72840E-02 7.38138E-02-9.84535E-01
 -1      1514-4.83505E-02 7.39739E-02-9.89658E-01
 -1      1515-7.16721E-02 4.94669E-02-9.82640E-01
 -1      1516-7.23952E-02 4.97360E-02-9.87846E-01
 -1      1517 4.85542E-02 7.35795E-02-9.87696E-01
 -1      1518 4.84144E-02 7.41921E-02-9.92770E-01
 -1      1519-1.76711E-02-8.47943E-02-9.85539E-01
 -1      1520-1.75409E-02-8.54664E-02-9.90780E-01
 -1      1521-1.65483E-02 1.79241E-02-9.91008E-01
 -1      1522 2.47579E-02-1.24856E-01-9.81674E-01
 -1      1523 2.49872E-02-1.25734E-01-9.87027E-01
 -1      1524 2.25264E-02-8.91257E-03-9.96205E-01
 -1      1525 8.48075E-02 1.76577E-02-9.89498E-01
 -1      1526 8.55711E-02 1.77580E-02-9.94430E-01
 -1      1527 1.22302E-01-1.24970E-01-9.54771E-01
 -1      1528-1.62063E-02 8.57011E-02-9.86095E-01
 -1      1529-1.67388E-02 8.64268E-02-9.91497E-01
 -1      1530-3.73358E-02-2.56871E-02-9.89220E-01
 -1      1531-3.65434E-02-2.56920E-02-9.84046E-01
 -1      1532 5.29973E-02-1.68648E-01-9.78228E-01
 -1      1533-4.54118E-02 9.50024E-03-9.83804E-01
 -1      1534-4.59548E-02 9.67665E-03-9.89451E-01
 -1      1535-6.76568E-02 1.58114E-01-9.78946E-01
 -1      1536 1.13364E-01 2.27056E-02-9.86455E-01
 -1      1537 1.14140E-01 2.30110E-02-9.91662E-01
 -1      1538-8.48851E-02-1.34054E-02-9.84017E-01
 -1      1539-8.56767E-02-1.36260E-02-9.88964E-01
 -1      1540 7.28637E-02-4.94594E-02-9.87533E-01
 -1      1541 7.33211E-02-4.98663E-02-9.92900E-01
 -1      1542 9.13430E-03 2.30831E-02-9.94441E-01
 -1      1543-2.66069E-02 1.24651E-01-9.83567E-01
 -1      1544-2.64590E-02 1.25514E-01-9.88643E-01
 -1      1545 7.05627E-03 2.51246E-02-9.93986E-01
 -1      1546-4.87580E-02-7.07505E-02-9.84118E-01
 -1      1547-4.88996E-02-7.14125E-02-9.89207E-01
 -1      1548 1.71013E-02 1.71604E-02-9.95009E-01
 -1      1549-3.55394E-02-1.58694E-01-9.74481E-01
 -1      1550-3.44271E-02-1.60088E-01-9.79474E-01
 -1      1551-9.24122E-02 1.33955E-01-9.74459E-01
 -1      1552-9.21230E-02 1.35172E-01-9.79182E-01
 -1      1553 1.31593E-01 2.51222E-02-9.84861E-01
 -1      1554 1.32190E-01 2.64343E-02-9.89749E-01
 -1      1555-5.40370E-02-1.66651E-01-9.77880E-01
 -1      1556 7.32018E-02 4.73246E-02-9.88679E-01
 -1      1557 7.33788E-02 4.85055E-02-9.93780E-01
 -1      1558-6.86954E-02-1.60732E-01-9.52812E-01
 -1      1559 6.83477E-02 1.06111E-01-9.85314E-01
 -1      1560 6.90087E-02 1.06497E-01-9.89920E-01
 -1      1561-1.97118E-02 1.76295E-01-9.79028E-01
 -1      1562 7.05071E-02-1.05527E-01-9.82378E-01
 -1      1563 7.09951E-02-1.06106E-01-9.87519E-01
 -1      1564 3.87799E-02-2.60775E-02-9.89448E-01
 -1      1565 3.92038E-02-2.65690E-02-9.94679E-01
 -1      1566-8.54745E-02 1.56496E-01-9.76505E-01
 -1      1567-1.94916E-02 1.67116E-02-9.90730E-01
 -1      1568 1.62119E-02-1.90924E-02-9.93227E-01
 -1      1569-2.36231E-02-3.86073E-02-9.84552E-01
 -1      1570-2.41074E-02-3.89706E-02-9.90171E-01
 -1      1571 1.04827E-01-7.35564E-02-9.84610E-01
 -1      1572 1.05352E-01-7.40465E-02-9.89819E-01
 -1      1573 1.93816E-02-1.63316E-02-9.93444E-01
 -1      1574-7.22848E-02-4.65851E-02-9.82973E-01
 -1      1575-7.29121E-02-4.68522E-02-9.88253E-01
 -1      1576 2.18826E-02-1.15795E-02-9.94490E-01
 -1      1577 7.81108E-03-2.36668E-02-9.92579E-01
 -1      1578 1.76079E-02 8.57448E-02-9.87002E-01
 -1      1579 1.77639E-02 8.66602E-02-9.92291E-01
 -1      1580-8.87062E-03-2.20655E-02-9.90418E-01
 -1      1581-3.39070E-02 1.61386E-01-9.75093E-01
 -1      1582-3.42462E-02 1.62455E-01-9.80439E-01
 -1      1583-4.48145E-02-6.78914E-03-9.83337E-01
 -1      1584-4.52558E-02-7.18722E-03-9.88623E-01
 -1      1585 6.33790E-04-2.32997E-02-9.92780E-01
 -1      1586-1.04467E-01 6.96183E-02-9.80553E-01
 -1      1587-1.05169E-01 7.01236E-02-9.85136E-01
 -1      1588-7.01401E-02 1.05082E-01-9.81345E-01
 -1      1589-7.03145E-02 1.05948E-01-9.86520E-01
 -1      1590 3.39997E-02-1.61019E-01-9.74277E-01
 -1      1591 3.41634E-02-1.62212E-01-9.79559E-01
 -1      1592 1.01413E-02-4.51131E-02-9.87045E-01
 -1      1593 1.02093E-02-4.57209E-02-9.92539E-01
 -1      1594-7.13472E-03 4.66834E-02-9.87503E-01
 -1      1595-7.68372E-03 4.72122E-02-9.92973E-01
 -1      1596 1.03462E-01 6.99373E-02-9.84817E-01
 -1      1597 1.04453E-01 7.01050E-02-9.90039E-01
 -1      1598 4.78917E-02-7.35633E-02-9.86446E-01
 -1      1599 4.85185E-02-7.37373E-02-9.91438E-01
 -1      1600-1.02277E-01-7.02435E-02-9.79529E-01
 -1      1601-1.04064E-01-6.93476E-02-9.84388E-01
 -1      1602-1.20450E-01-1.17213E-01-9.76556E-01
 -1      1603 8.83631E-02-1.37538E-01-9.76571E-01
 -1      1604 8.89015E-02-1.38188E-01-9.80465E-01
 -1      1605 2.93759E-03-2.36574E-02-9.91659E-01
 -1      1606-6.72541E-02-9.57010E-02-9.81238E-01
 -1      1607-6.75837E-02-9.62309E-02-9.86036E-01
 -1      1608-2.23099E-02 1.16195E-02-9.89838E-01
 -1      1609 3.30956E-02 1.62058E-01-9.77560E-01
 -1      1610 3.24138E-02 1.63396E-01-9.82083E-01
 -1      1611-1.14319E-01-1.91468E-02-9.79716E-01
 -1      1612-1.15318E-01-1.98693E-02-9.85052E-01
 -1      1613 4.55995E-02 1.05761E-02-9.90519E-01
 -1      1614 4.59750E-02 1.06475E-02-9.95969E-01
 -1      1615 2.02047E-02 9.52222E-02-9.86903E-01
 -1      1616 2.04261E-02 9.61289E-02-9.92013E-01
 -1      1617 1.33448E-02 1.75348E-01-9.78021E-01
 -1      1618 2.47427E-02 3.32578E-03-9.95323E-01
 -1      1619-2.46108E-02-2.11125E-03-9.89123E-01
 -1      1620 2.26088E-02 1.06764E-02-9.95887E-01
 -1      1621 1.23559E-02-2.17407E-02-9.92856E-01
 -1      1622 1.30191E-01-2.65590E-02-9.85816E-01
 -1      1623 1.31206E-01-2.67945E-02-9.89987E-01
 -1      1624-9.57507E-02-1.76306E-02-9.81896E-01
 -1      1625-9.64149E-02-1.73618E-02-9.87506E-01
 -1      1626 1.58143E-01 6.33179E-02-9.82618E-01
 -1      1627-2.39875E-02 7.29111E-03-9.89552E-01
 -1      1628 1.69213E-01 1.16709E-03-9.56889E-01
 -1      1629 3.51692E-02 8.28900E-03-9.95168E-01
 -1      1630 3.44489E-02 8.36352E-03-9.90500E-01
 -1      1631-1.56749E-01 7.00324E-02-9.74486E-01
 -1      1632-9.75450E-02 6.43310E-02-9.80489E-01
 -1      1633-9.81254E-02 6.49984E-02-9.85269E-01
 -1      1634 8.39895E-03-3.47807E-02-9.86538E-01
 -1      1635 8.07811E-03-3.53338E-02-9.91702E-01
 -1      1636 6.41223E-02 4.38337E-02-9.88809E-01
 -1      1637 6.49404E-02 4.39176E-02-9.94035E-01
 -1      1638 7.54463E-02-1.13788E-01-9.86328E-01
 -1      1639 7.48618E-02-1.13224E-01-9.80845E-01
 -1      1640 1.57295E-01-3.38535E-02-9.78849E-01
 -1      1641 1.58429E-01-3.42634E-02-9.83752E-01
 -1      1642-6.29847E-02-4.12270E-02-9.83738E-01
 -1      1643-6.35007E-02-4.17472E-02-9.89018E-01
 -1      1644 1.08786E-01 1.36581E-01-9.78380E-01
 -1      1645 1.11331E-01-2.51710E-02-9.87027E-01
 -1      1646 1.12437E-01-2.50342E-02-9.92311E-01
 -1      1647 6.58881E-02-1.64620E-01-9.52587E-01
 -1      1648-6.32855E-02 4.36559E-02-9.83250E-01
 -1      1649-6.39417E-02 4.40458E-02-9.88581E-01
 -1      1650 8.16016E-02-1.55157E-01-9.76400E-01
 -1      1651-1.50955E-02 2.01048E-02-9.90354E-01
 -1      1652-7.45001E-03 2.50860E-02-9.93015E-01
 -1      1653-1.52289E-02 7.68920E-02-9.91941E-01
 -1      1654-1.58852E-02 7.63122E-02-9.87235E-01
 -1      1655-7.72805E-02-1.09484E-01-9.77748E-01
 -1      1656-7.72827E-02-1.10383E-01-9.82921E-01
 -1      1657-9.18622E-02-1.30639E-01-9.72972E-01
 -1      1658-9.18048E-02-1.32272E-01-9.77796E-01
 -1      1659-1.41839E-02-7.60824E-02-9.86248E-01
 -1      1660-1.48166E-02-7.64863E-02-9.91278E-01
 -1      1661-2.00906E-03-2.45155E-02-9.92239E-01
 -1      1662 1.09641E-01-1.37020E-01-9.77598E-01
 -1      1663-1.82925E-02-1.75192E-01-9.76686E-01
 -1      1664 5.18288E-02 1.69047E-01-9.80513E-01
 -1      1665 2.49398E-02 1.23418E-01-9.84573E-01
 -1      1666 2.48385E-02 1.24624E-01-9.89538E-01
 -1      1667-1.04269E-02-4.48292E-02-9.85726E-01
 -1      1668-1.00370E-02-4.55155E-02-9.91192E-01
 -1      1669 2.56233E-02 3.92890E-02-9.88086E-01
 -1      1670 2.57734E-02 3.98842E-02-9.93272E-01
 -1      1671 4.53588E-02-9.95597E-03-9.90414E-01
 -1      1672 4.60244E-02-9.66639E-03-9.95895E-01
 -1      1673 3.39402E-02 1.67543E-01-9.74675E-01
 -1      1674 3.31376E-02 1.69165E-01-9.79177E-01
 -1      1675-5.42832E-02 1.67925E-01-9.79433E-01
 -1      1676-1.32881E-01-2.41363E-02-9.78938E-01
 -1      1677-1.33848E-01-2.42284E-02-9.83473E-01
 -1      1678 1.71649E-02-1.74888E-01-9.77212E-01
 -1      1679-2.90974E-02 1.54161E-01-9.78608E-01
 -1      1680-3.06017E-02 1.54478E-01-9.83247E-01
 -1      1681 7.49185E-02 1.74104E-02-9.89942E-01
 -1      1682 7.57119E-02 1.70231E-02-9.94871E-01
 -1      1683-2.51595E-02-1.24459E-01-9.81482E-01
 -1      1684-2.56612E-02-1.25345E-01-9.86668E-01
 -1      1685 3.03475E-02 1.53358E-01-9.79904E-01
 -1      1686 2.96573E-02 1.54502E-01-9.84708E-01
 -1      1687 8.85238E-02 1.38725E-01-9.77048E-01
 -1      1688 8.91871E-02 1.39501E-01-9.81932E-01
 -1      1689-5.32849E-02 8.14514E-02-9.83607E-01
 -1      1690-5.42175E-02 8.17270E-02-9.88927E-01
 -1      1691-1.56652E-01-6.10428E-02-9.74636E-01
 -1      1692-1.60956E-01-6.64306E-02-9.49757E-01
 -1      1693-1.04817E-02-2.15224E-02-9.89551E-01
 -1      1694 8.48108E-02-1.87743E-02-9.89720E-01
 -1      1695 8.55629E-02-1.83123E-02-9.95075E-01
 -1      1696 3.02756E-02-2.02919E-02-9.88704E-01
 -1      1697 3.07910E-02-2.08276E-02-9.93864E-01
 -1      1698 2.36677E-02 1.15303E-01-9.85089E-01
 -1      1699 2.38402E-02 1.16120E-01-9.90144E-01
 -1      1700-7.11995E-02-1.58361E-01-9.50074E-01
 -1      1701-2.12607E-02-9.99976E-03-9.89209E-01
 -1      1702-1.57532E-01 3.46045E-02-9.72361E-01
 -1      1703-1.58710E-01 3.41338E-02-9.77190E-01
 -1      1704-4.21962E-02 6.58758E-02-9.84849E-01
 -1      1705-4.31304E-02 6.60125E-02-9.90063E-01
 -1      1706 1.62786E-01-5.49845E-02-9.81078E-01
 -1      1707 9.43000E-02-2.14876E-02-9.89045E-01
 -1      1708 9.51901E-02-2.06853E-02-9.94013E-01
 -1      1709 1.67354E-01-1.63943E-02-9.79749E-01
 -1      1710 2.40512E-03-1.76028E-01-9.53249E-01
 -1      1711-2.37368E-02-6.03712E-03-9.88361E-01
 -1      1712 9.28729E-02-1.43384E-01-9.71415E-01
 -1      1713 9.38128E-02-1.44094E-01-9.76583E-01
 -1      1714 6.45104E-02-9.89505E-02-9.83992E-01
 -1      1715 6.50132E-02-9.91597E-02-9.89066E-01
 -1      1716 4.36274E-02 1.73221E-01-9.78779E-01
 -1      1717 1.51963E-01-8.56394E-02-9.78654E-01
 -1      1718-2.25438E-03 2.60209E-02-9.93934E-01
 -1      1719-5.61096E-02 1.12872E-02-9.83396E-01
 -1      1720-5.66861E-02 1.15195E-02-9.88876E-01
 -1      1721-1.13042E-02 2.33772E-02-9.91451E-01
 -1      1722 2.34420E-02-1.15922E-01-9.83403E-01
 -1      1723 2.33713E-02-1.16555E-01-9.88606E-01
 -1      1724-7.26897E-03-2.41778E-02-9.90673E-01
 -1      1725 3.10356E-02-1.52610E-01-9.78284E-01
 -1      1726 3.13521E-02-1.53514E-01-9.82686E-01
 -1      1727 9.01523E-02-1.53628E-01-9.75083E-01
 -1      1728 1.34053E-01-9.36444E-02-9.77906E-01
 -1      1729 1.34670E-01-9.40726E-02-9.82024E-01
 -1      1730 5.53660E-02-1.21041E-02-9.90540E-01
 -1      1731 5.60641E-02-1.18411E-02-9.95789E-01
 -1      1732-6.07313E-03 1.77158E-01-9.53106E-01
 -1      1733-1.61241E-01-2.87286E-02-9.71880E-01
 -1      1734-1.62254E-01-2.91994E-02-9.76514E-01
 -1      1735-2.41908E-02-1.94675E-02-7.23386E-01
 -1      1736-2.72432E-02-1.52404E-02-7.28859E-01
 -1      1737-1.34404E-01 2.92275E-02-9.77718E-01
 -1      1738-1.34817E-01 2.93076E-02-9.82643E-01
 -1      1739 6.48126E-02-4.42283E-02-9.88320E-01
 -1      1740 6.49631E-02-4.46266E-02-9.93554E-01
 -1      1741 2.23913E-02 1.31146E-02-9.94842E-01
 -1      1742 1.47601E-01-3.53378E-02-9.81359E-01
 -1      1743 1.48581E-01-3.44259E-02-9.86353E-01
 -1      1744 6.89952E-02-1.61202E-01-9.51768E-01
 -1      1745-1.34624E-01 1.12031E-01-9.75380E-01
 -1      1746 8.10900E-02 1.56301E-01-9.79898E-01
 -1      1747 1.18509E-01-1.27682E-01-9.52326E-01
 -1      1748 9.66900E-02 6.38643E-02-9.85869E-01
 -1      1749 9.73243E-02 6.44279E-02-9.90947E-01
 -1      1750-1.73211E-01-1.22458E-02-9.72917E-01
 -1      1751 2.04832E-02-1.55423E-02-9.93123E-01
 -1      1752-3.71840E-02 2.58975E-02-9.84146E-01
 -1      1753-3.77299E-02 2.62663E-02-9.89369E-01
 -1      1754-1.66927E-01-4.82545E-02-9.73745E-01
 -1      1755 2.41538E-02 8.44602E-03-9.95220E-01
 -1      1756 9.17316E-03 4.66996E-02-9.88203E-01
 -1      1757 9.26079E-03 4.72668E-02-9.93734E-01
 -1      1758-3.50012E-02-1.67755E-01-9.71943E-01
 -1      1759-3.48942E-02-1.69007E-01-9.76574E-01
 -1      1760 1.61107E-01 6.52710E-02-9.57142E-01
 -1      1761 1.57106E-01-7.10394E-02-9.54569E-01
 -1      1762 1.34738E-01 8.79735E-02-9.78439E-01
 -1      1763 1.35032E-01 8.96842E-02-9.83113E-01
 -1      1764 3.18449E-02-4.73829E-02-9.87179E-01
 -1      1765 3.23140E-02-4.76110E-02-9.92602E-01
 -1      1766 4.27282E-02 6.58636E-02-9.87761E-01
 -1      1767 4.26305E-02 6.63359E-02-9.92862E-01
 -1      1768 7.49460E-02-1.58227E-02-9.90164E-01
 -1      1769 7.54234E-02-1.57575E-02-9.95331E-01
 -1      1770 1.53187E-01 8.11437E-02-9.81194E-01
 -1      1771 6.72551E-03-2.41768E-02-9.91663E-01
 -1      1772 6.46547E-04 1.75948E-01-9.53524E-01
 -1      1773 4.67568E-02-3.30163E-02-9.89664E-01
 -1      1774 4.72181E-02-3.30917E-02-9.94951E-01
 -1      1775-1.73924E-01 1.92059E-02-9.73894E-01
 -1      1776-7.27487E-02 1.60111E-01-9.49765E-01
 -1      1777 1.11744E-01-7.93326E-02-9.82893E-01
 -1      1778 1.12569E-01-7.93530E-02-9.87923E-01
 -1      1779 2.51632E-03 2.59781E-02-9.94224E-01
 -1      1780-6.85418E-02 1.63173E-01-9.53362E-01
 -1      1781 7.60501E-02 1.14211E-01-9.84071E-01
 -1      1782 7.60314E-02 1.14809E-01-9.89125E-01
 -1      1783 1.55465E-02 7.60373E-02-9.87277E-01
 -1      1784 1.55166E-02 7.68467E-02-9.92623E-01
 -1      1785-7.53578E-02-1.19887E-02-9.83597E-01
 -1      1786-7.60128E-02-1.23424E-02-9.88704E-01
 -1      1787 6.43453E-02 1.62895E-01-9.54147E-01
 -1      1788 9.43641E-02 2.18746E-02-9.88249E-01
 -1      1789 9.50442E-02 2.13071E-02-9.93401E-01
 -1      1790-1.51024E-02-1.85220E-02-9.90045E-01
 -1      1791 5.57730E-02 1.29931E-02-9.90060E-01
 -1      1792 5.63467E-02 1.27802E-02-9.95382E-01
 -1      1793 2.47022E-02-2.10568E-02-7.31394E-01
 -1      1794 2.82096E-02-1.65106E-02-7.37260E-01
 -1      1795 3.85659E-02 2.49237E-02-9.89658E-01
 -1      1796 3.88306E-02 2.56142E-02-9.94945E-01
 -1      1797-2.46835E-02 2.60037E-03-9.89678E-01
 -1      1798-7.18894E-02 1.14705E-01-9.79258E-01
 -1      1799-7.39015E-02 1.14613E-01-9.84458E-01
 -1      1800-1.62346E-01-5.98811E-02-9.48696E-01
 -1      1801-5.59154E-02-7.95645E-02-9.83459E-01
 -1      1802-5.59137E-02-8.03349E-02-9.88788E-01
 -1      1803-3.15778E-02 5.14116E-03-7.22482E-01
 -1      1804-3.08137E-02 9.09831E-03-7.26745E-01
 -1      1805 2.48776E-02 7.16725E-03-9.94641E-01
 -1      1806 2.45224E-02-1.82490E-03-9.95821E-01
 -1      1807 8.02308E-02 5.45637E-02-9.88346E-01
 -1      1808 8.09483E-02 5.50476E-02-9.93332E-01
 -1      1809 1.34214E-01 1.12109E-01-9.79290E-01
 -1      1810-8.11579E-02-5.01798E-02-9.82348E-01
 -1      1811-8.14063E-02-5.11705E-02-9.87570E-01
 -1      1812 1.11948E-01 7.56169E-02-9.89178E-01
 -1      1813 1.11374E-01 7.40546E-02-9.84333E-01
 -1      1814-1.75863E-01 3.41272E-03-9.51020E-01
 -1      1815 5.84740E-03 2.56450E-02-9.92906E-01
 -1      1816 1.48121E-02-7.64289E-02-9.85770E-01
 -1      1817 1.55311E-02-7.68342E-02-9.91165E-01
 -1      1818 2.06954E-02-2.95360E-02-9.86928E-01
 -1      1819 2.09691E-02-2.98747E-02-9.91997E-01
 -1      1820-1.12451E-01-1.30594E-01-9.75787E-01
 -1      1821 1.69299E-01-4.69925E-03-9.56190E-01
 -1      1822-6.38225E-02 9.72579E-02-9.83139E-01
 -1      1823-6.45707E-02 9.79121E-02-9.87831E-01
 -1      1824-1.34488E-01-9.05050E-02-9.72035E-01
 -1      1825-1.35133E-01-9.08609E-02-9.77435E-01
 -1      1826 2.48384E-02-3.68768E-03-9.95432E-01
 -1      1827-3.12756E-03-1.75573E-01-9.52303E-01
 -1      1828-1.11591E-01-7.31170E-02-9.77954E-01
 -1      1829-1.12733E-01-7.33275E-02-9.83201E-01
 -1      1830 2.91073E-02-1.34158E-01-9.80509E-01
 -1      1831 2.85040E-02-1.35255E-01-9.85902E-01
 -1      1832 3.04313E-02 4.80507E-02-9.88426E-01
 -1      1833 3.08648E-02 4.83672E-02-9.93597E-01
 -1      1834-1.75046E-01 7.23300E-03-9.47470E-01
 -1      1835-1.32638E-01-1.09631E-01-9.75394E-01
 -1      1836 1.58803E-01-6.82284E-02-9.57619E-01
 -1      1837-1.52396E-01-2.77776E-02-9.73410E-01
 -1      1838-1.53213E-01-2.80552E-02-9.78653E-01
 -1      1839 2.40524E-02 1.77271E-01-9.77018E-01
 -1      1840 5.42742E-02 8.18655E-02-9.86783E-01
 -1      1841 5.41812E-02 8.25582E-02-9.92195E-01
 -1      1842-9.65029E-02-6.28277E-02-9.80201E-01
 -1      1843-9.74548E-02-6.29053E-02-9.85020E-01
 -1      1844-1.21849E-01-1.20682E-01-9.50568E-01
 -1      1845 1.54137E-02 2.01354E-02-9.93244E-01
 -1      1846 4.23663E-03-2.44528E-02-9.91406E-01
 -1      1847-1.92777E-02-2.91557E-02-9.84723E-01
 -1      1848-1.91766E-02-2.98839E-02-9.89631E-01
 -1      1849-8.07136E-02 5.35661E-02-9.81756E-01
 -1      1850-8.08308E-02 5.43982E-02-9.87067E-01
 -1      1851 2.39677E-02-7.15970E-03-9.96116E-01
 -1      1852-1.52058E-01 3.30008E-02-9.78465E-01
 -1      1853-1.51473E-01 3.30069E-02-9.74117E-01
 -1      1854-1.12372E-01 7.68739E-02-9.78289E-01
 -1      1855-1.13064E-01 7.65507E-02-9.83549E-01
 -1      1856-3.47648E-02-6.50924E-03-9.83118E-01
 -1      1857-3.52410E-02-6.29955E-03-9.88082E-01
 -1      1858 1.18456E-02 2.27007E-02-9.93104E-01
 -1      1859-5.98750E-03-2.48523E-02-9.90424E-01
 -1      1860 1.28836E-02-1.79871E-01-9.64320E-01
 -1      1861 6.38144E-02 9.82264E-02-9.85679E-01
 -1      1862 6.45593E-02 9.88900E-02-9.90444E-01
 -1      1863 8.14212E-02-5.50832E-02-9.87074E-01
 -1      1864 8.18848E-02-5.54653E-02-9.92319E-01
 -1      1865 1.93512E-02 1.60766E-02-9.94731E-01
 -1      1866 1.70690E-01-1.18614E-02-9.64300E-01
 -1      1867-1.94631E-02-9.51428E-02-9.84731E-01
 -1      1868-1.91457E-02-9.59667E-02-9.90243E-01
 -1      1869-1.24041E-01-1.18735E-01-9.49779E-01
 -1      1870-2.81245E-02 1.35175E-01-9.81757E-01
 -1      1871-2.75068E-02 1.35788E-01-9.86781E-01
 -1      1872-4.61252E-02 1.75221E-01-9.77395E-01
 -1      1873-1.56793E-01 7.65877E-02-9.46331E-01
 -1      1874-4.59902E-02-3.03255E-02-9.84004E-01
 -1      1875-4.65336E-02-3.09178E-02-9.89433E-01
 -1      1876 1.55548E-02-2.02536E-02-9.91869E-01
 -1      1877-2.48572E-02 2.02870E-02-7.24389E-01
 -1      1878-2.83631E-02 1.55089E-02-7.27950E-01
 -1      1879 1.68798E-01-4.71873E-02-9.79241E-01
 -1      1880-2.42209E-02-1.14841E-01-9.82748E-01
 -1      1881-2.43127E-02-1.15662E-01-9.88208E-01
 -1      1882-1.18670E-02-2.17783E-02-9.89556E-01
 -1      1883-1.26607E-01-8.34958E-02-9.76221E-01
 -1      1884-1.27624E-01-8.41271E-02-9.80184E-01
 -1      1885 2.14217E-02-1.29515E-02-9.93512E-01
 -1      1886 4.78024E-02 3.21962E-02-9.89775E-01
 -1      1887 4.81886E-02 3.24340E-02-9.95158E-01
 -1      1888 8.52442E-02-1.28719E-01-9.78681E-01
 -1      1889 8.47985E-02-1.30273E-01-9.82996E-01
 -1      1890 6.81323E-02 1.62871E-01-9.55000E-01
 -1      1891-2.49740E-02-3.47442E-03-9.88198E-01
 -1      1892 1.33081E-01-1.14803E-01-9.79995E-01
 -1      1893 1.04447E-01-1.44767E-01-9.75354E-01
 -1      1894-1.61125E-01 6.81485E-02-9.50146E-01
 -1      1895-9.56136E-02 2.05421E-02-9.81203E-01
 -1      1896-9.63014E-02 2.06037E-02-9.86739E-01
 -1      1897 3.65325E-02-1.70273E-01-9.72726E-01
 -1      1898 3.63633E-02-1.71318E-01-9.77581E-01
 -1      1899-1.41974E-02-1.97347E-02-9.89451E-01
 -1      1900 1.08679E-02 5.75910E-02-9.88131E-01
 -1      1901 1.11461E-02 5.79708E-02-9.93461E-01
 -1      1902-2.75639E-02-1.76477E-01-9.74923E-01
 -1      1903-2.81845E-02-1.32998E-01-9.80759E-01
 -1      1904-2.79122E-02-1.34028E-01-9.85593E-01
 -1      1905 1.38120E-02-2.12818E-02-9.92155E-01
 -1      1906 1.65331E-01-3.71912E-02-9.76835E-01
 -1      1907 1.66628E-01-3.70219E-02-9.81022E-01
 -1      1908-1.41478E-01-9.61529E-02-9.69990E-01
 -1      1909-1.42641E-01-9.62425E-02-9.74746E-01
 -1      1910-8.33297E-02-1.51843E-01-9.74787E-01
 -1      1911-1.53681E-01-7.85666E-02-9.73877E-01
 -1      1912-2.00964E-02 3.12205E-02-9.90398E-01
 -1      1913-1.99111E-02 3.07475E-02-9.85173E-01
 -1      1914 4.57000E-02-1.74367E-01-9.76402E-01
 -1      1915 2.02769E-02 3.09027E-02-9.87648E-01
 -1      1916 2.02091E-02 3.15249E-02-9.92462E-01
 -1      1917-7.50806E-02 1.67826E-02-9.82604E-01
 -1      1918-7.58256E-02 1.68621E-02-9.87804E-01
 -1      1919-1.75764E-01-2.16658E-02-9.71969E-01
 -1      1920-1.32159E-01 9.15732E-02-9.73112E-01
 -1      1921-1.33179E-01 9.20035E-02-9.77614E-01
 -1      1922 8.14218E-03 3.56686E-02-9.88712E-01
 -1      1923 7.92718E-03 3.61380E-02-9.93612E-01
 -1      1924 2.83146E-02 1.33415E-01-9.83113E-01
 -1      1925 2.68286E-02 1.34464E-01-9.88337E-01
 -1      1926 9.03403E-02 1.54840E-01-9.77856E-01
 -1      1927-1.50596E-01 8.09482E-02-9.74134E-01
 -1      1928-1.26293E-01 1.20823E-01-9.48521E-01
 -1      1929 9.68106E-02-6.73120E-02-9.85860E-01
 -1      1930 9.70528E-02-6.78099E-02-9.91012E-01
 -1      1931-1.08126E-01-1.39023E-01-9.74021E-01
 -1      1932-1.41146E-01-1.05359E-01-9.73247E-01
 -1      1933 1.24435E-02-5.64558E-02-9.86705E-01
 -1      1934 1.24566E-02-5.68708E-02-9.92184E-01
 -1      1935-2.89561E-02 1.78667E-01-9.77111E-01
 -1      1936-1.67050E-01 3.65268E-02-9.70056E-01
 -1      1937-1.68219E-01 3.62004E-02-9.75069E-01
 -1      1938-1.09075E-01 1.29772E-01-9.76476E-01
 -1      1939 1.39523E-01-9.76821E-02-9.73656E-01
 -1      1940 1.40146E-01-9.83566E-02-9.78614E-01
 -1      1941-3.01627E-02 2.06648E-02-9.89111E-01
 -1      1942-2.97069E-02 2.04821E-02-9.84019E-01
 -1      1943-4.66648E-02 3.02746E-02-9.84175E-01
 -1      1944-4.65426E-02 3.14140E-02-9.89488E-01
 -1      1945 1.49791E-01-9.47272E-02-9.77433E-01
 -1      1946-1.52232E-01-8.98187E-02-9.72509E-01
 -1      1947-1.69293E-01-3.13811E-02-9.74367E-01
 -1      1948-1.67968E-01-3.13718E-02-9.70472E-01
 -1      1949 3.28375E-03 3.33296E-02-7.27582E-01
 -1      1950 9.72860E-03 3.23460E-02-7.32773E-01
 -1      1951 1.52357E-02 2.15514E-02-9.92209E-01
 -1      1952 2.51052E-02 4.54379E-03-9.95186E-01
 -1      1953 1.65812E-01 5.01178E-02-9.81596E-01
 -1      1954 1.34487E-02 2.27952E-02-9.91731E-01
 -1      1955-1.28104E-01 8.53866E-02-9.76180E-01
 -1      1956-1.28746E-01 8.60189E-02-9.80123E-01
 -1      1957-9.40950E-02 1.53205E-01-9.74745E-01
 -1      1958-3.07999E-02-4.65342E-02-9.84336E-01
 -1      1959-3.09901E-02-4.72454E-02-9.89691E-01
 -1      1960 1.39771E-01 9.43196E-02-9.75761E-01
 -1      1961 1.40554E-01 9.51969E-02-9.80458E-01
 -1      1962-3.68308E-03 2.62782E-02-9.93244E-01
 -1      1963 2.75141E-02-1.77932E-01-9.75642E-01
 -1      1964 1.40421E-01-1.09574E-01-9.77650E-01
 -1      1965 3.54557E-03 2.59459E-02-9.92805E-01
 -1      1966 2.18354E-02 1.39472E-02-9.93575E-01
 -1      1967-1.72035E-01-4.10323E-02-9.72357E-01
 -1      1968 1.50736E-01 9.05326E-02-9.79479E-01
 -1      1969 1.58213E-01 6.86351E-02-9.55798E-01
 -1      1970-1.75985E-01 2.82894E-02-9.72692E-01
 -1      1971-1.27836E-02 2.28480E-02-9.90282E-01
 -1      1972 1.28110E-01 8.43590E-02-9.85470E-01
 -1      1973 1.28667E-01 8.18801E-02-9.80726E-01
 -1      1974-2.46499E-02 3.66680E-03-9.88629E-01
 -1      1975-2.13164E-02 2.51497E-02-7.26634E-01
 -1      1976-1.62702E-02 2.92279E-02-7.31593E-01
 -1      1977-2.18231E-02 1.31436E-02-9.89084E-01
 -1      1978 1.98326E-02-9.60445E-02-9.84561E-01
 -1      1979 2.03130E-02-9.66583E-02-9.89938E-01
 -1      1980 9.48994E-03 1.76892E-01-9.63426E-01
 -1      1981-1.18316E-01 1.27221E-01-9.49745E-01
 -1      1982 1.58135E-01 3.19310E-02-9.77831E-01
 -1      1983 1.58888E-01 3.24307E-02-9.82952E-01
 -1      1984-3.64639E-02 1.70201E-01-9.72816E-01
 -1      1985-3.68522E-02 1.71148E-01-9.78109E-01
 -1      1986-1.86314E-02-1.50783E-02-9.89650E-01
 -1      1987-3.46089E-02 7.53572E-03-9.84070E-01
 -1      1988-3.50917E-02 7.56507E-03-9.89200E-01
 -1      1989 2.53321E-02 2.18131E-02-7.34818E-01
 -1      1990 2.87314E-02 1.63354E-02-7.39566E-01
 -1      1991 8.75393E-02 1.29273E-01-9.79834E-01
 -1      1992 8.59927E-02 1.30833E-01-9.84418E-01
 -1      1993-1.66074E-01 5.55645E-02-9.74773E-01
 -1      1994-2.04521E-02 1.55846E-02-9.89261E-01
 -1      1995-2.89786E-02-1.98165E-02-9.83842E-01
 -1      1996-2.95152E-02-1.98694E-02-9.89005E-01
 -1      1997-1.46007E-03-3.26748E-02-7.28108E-01
 -1      1998-8.30321E-03-3.08038E-02-7.34354E-01
 -1      1999-6.34885E-03 2.57672E-02-9.92689E-01
 -1      2000 9.31895E-02 1.45711E-01-9.74730E-01
 -1      2001 9.35517E-02 1.46559E-01-9.78865E-01
 -1      2002-1.96084E-02-1.40232E-02-9.88838E-01
 -1      2003-9.76089E-02-1.38643E-01-9.70545E-01
 -1      2004-9.74833E-02-1.40095E-01-9.75312E-01
 -1      2005-9.28419E-02-1.50100E-01-9.72918E-01
 -1      2006 1.00861E-01 1.43453E-01-9.77320E-01
 -1      2007-1.71172E-01 4.65794E-02-9.73529E-01
 -1      2008-2.44563E-02 6.18450E-03-9.88731E-01
 -1      2009-1.14527E-01 2.33929E-02-9.79788E-01
 -1      2010-1.15361E-01 2.37002E-02-9.84745E-01
 -1      2011-2.10619E-02-1.16085E-02-9.89086E-01
 -1      2012 3.30082E-02-4.65109E-03-7.38788E-01
 -1      2013 3.10580E-02-1.03132E-02-7.42918E-01
 -1      2014 3.27174E-02 3.83775E-03-7.37737E-01
 -1      2015 3.17318E-02 9.66111E-03-7.42325E-01
 -1      2016 1.70042E-01 1.59327E-02-9.80629E-01
 -1      2017 2.92792E-02 2.06162E-02-9.89409E-01
 -1      2018 2.96545E-02 2.08863E-02-9.94151E-01
 -1      2019-1.43779E-01 1.04475E-01-9.72451E-01
 -1      2020-2.00283E-02-2.42129E-02-7.26680E-01
 -1      2021-1.54451E-02-2.74408E-02-7.32058E-01
 -1      2022 1.50036E-01 2.78393E-02-9.82240E-01
 -1      2023 1.50309E-01 2.87760E-02-9.86156E-01
 -1      2024-1.09580E-02-5.61635E-02-9.85861E-01
 -1      2025-1.07758E-02-5.66066E-02-9.91212E-01
 -1      2026 2.02543E-02 1.54505E-02-9.93695E-01
 -1      2027 1.71309E-01 4.14827E-02-9.78971E-01
 -1      2028 1.71657E-01-2.66897E-02-9.78033E-01
 -1      2029-1.59909E-01-7.53163E-02-9.60663E-01
 -1      2030 1.72634E-01 2.54858E-02-9.79593E-01
 -1      2031-3.54961E-03 3.30939E-02-7.26967E-01
 -1      2032-9.59091E-03 3.16213E-02-7.33181E-01
 -1      2033-3.17254E-02-2.91621E-03-7.23486E-01
 -1      2034-3.08957E-02-8.72170E-03-7.28215E-01
 -1      2035 2.07234E-02-2.48374E-02-7.26289E-01
 -1      2036 1.63575E-02-2.86672E-02-7.30017E-01
 -1      2037 4.83170E-03-3.24632E-02-7.24408E-01
 -1      2038 1.01683E-02-3.16664E-02-7.29572E-01
 -1      2039 1.99500E-02 2.61195E-02-7.29538E-01
 -1      2040 1.49506E-02 2.95443E-02-7.34807E-01
 -1      2041 2.44596E-02-6.14935E-03-9.95503E-01
 -1      2042 3.33045E-02 3.18401E-02-8.87154E-01
 -1      2043-1.66838E-02-3.72595E-02-1.98104E-01
 -1      2044 3.82955E-02 2.61566E-02-2.04549E-01
 -1      2045-4.90410E-02-1.46428E-02-7.30371E-01
 -1      2046-3.00377E-02 3.02258E-02-2.08372E-01
 -1      2047 8.25497E-03-5.63957E-02-3.99107E-01
 -1      2048-4.70618E-02-7.93761E-04-2.22987E-01
 -1      2049-2.01352E-02-1.91551E-02-6.80447E-02
 -1      2050-1.68381E-02-2.44364E-02-9.21819E-02
 -1      2051-7.49535E-03-1.59423E-02-6.97909E-02
 -1      2052-4.86616E-03-2.33557E-02-9.73714E-02
 -1      2053 8.21430E-04-2.58843E-02-6.55778E-02
 -1      2054 5.88982E-03-2.64588E-02-9.15888E-02
 -1      2055 6.82515E-03-2.07765E-02-6.17735E-02
 -1      2056 1.19072E-02-2.24022E-02-9.06390E-02
 -1      2057-2.69867E-02-1.15990E-02-7.17234E-02
 -1      2058-1.80381E-02-1.27345E-02-9.40203E-02
 -1      2059-2.86224E-02-4.59010E-04-7.23604E-02
 -1      2060-2.52142E-02 2.98602E-03-9.68518E-02
 -1      2061-2.50008E-02-5.14079E-03-9.95186E-02
 -1      2062-2.26152E-02 1.00168E-02-7.09881E-02
 -1      2063-2.23484E-02 1.44221E-02-9.58060E-02
 -1      2064-2.93141E-02 2.09901E-02-2.34332E-01
 -1      2065-2.06374E-02 1.73849E-02-7.17205E-02
 -1      2066-1.37342E-02 2.47041E-02-9.33218E-02
 -1      2067-9.66265E-03 2.37285E-02-6.76938E-02
 -1      2068-3.19864E-03 2.45032E-02-9.63537E-02
 -1      2069-6.63192E-04 2.86133E-02-6.73133E-02
 -1      2070 4.82418E-03 2.85308E-02-8.80671E-02
 -1      2071 8.48288E-03 1.74054E-02-6.14641E-02
 -1      2072 1.25014E-02 2.19270E-02-8.81840E-02
 -1      2073 1.70925E-02 1.80056E-02-6.80555E-02
 -1      2074-6.97908E-03-2.55339E-02-1.17382E-01
 -1      2075 2.33604E-02 1.68445E-02-9.71465E-02
 -1      2076 1.95111E-02 1.08416E-02-7.24499E-02
 -1      2077 1.00638E-02-1.01156E-02-6.76154E-02
 -1      2078-2.33750E-02-3.32260E-02-1.11678E-01
 -1      2079 2.17984E-02-1.49693E-02-1.00683E-01
 -1      2080 2.52564E-02-1.03878E-02-7.18337E-02
 -1      2081 2.77741E-02 6.67205E-03-1.00377E-01
 -1      2082 2.73893E-02-5.05077E-03-9.83613E-02
 -1      2083 2.76211E-02-6.16485E-05-7.07347E-02
 -1      2084 1.53590E-02 7.80223E-03-4.69398E-02
 -1      2085 3.74877E-03 7.87101E-04-1.05500E+00
 -1      2086-8.04928E-03-2.05201E-02-5.61663E-02
 -1      2087 2.58597E-02-3.40918E-02-2.06536E-01
 -1      2088 1.95867E-02 4.12572E-02-2.12552E-01
 -1      2089-3.44132E-02-6.19379E-03-2.35342E-01
 -1      2090-1.47187E-02-1.58403E-02-5.32732E-02
 -1      2091-2.81809E-02-1.16865E-03-1.20169E-01
 -1      2092 7.73463E-03-1.43525E-02-4.26372E-02
 -1      2093 3.24268E-02-1.72393E-02-1.26851E-01
 -1      2094 1.65466E-02-2.90941E-03-4.53401E-02
 -1      2095 3.22196E-02-1.05945E-02-1.23639E-01
 -1      2096-7.49641E-04 2.72835E-02-1.13700E-01
 -1      2097-9.05593E-03 3.74000E-02-3.79720E-01
 -1      2098-2.27422E-02 3.31233E-02-3.05213E-01
 -1      2099-2.96455E-02-1.38310E-02-1.21999E-01
 -1      2100-2.07933E-02-3.09095E-02-2.36750E-01
 -1      2101 8.08984E-03-3.40283E-02-2.30185E-01
 -1      2102-5.66947E-04 4.25883E-02-2.09506E-01
 -1      2103-3.19097E-02 3.28952E-03-8.83120E-02
 -1      2104 3.75469E-02-1.57423E-02-2.05983E-01
 -1      2105 1.01917E-02 5.40211E-02-6.03778E-01
 -1      2106-2.52840E-02 7.26490E-03-1.19805E-01
 -1      2107 4.18115E-02 1.17292E-03-2.08339E-01
 -1      2108 2.76063E-02 6.49126E-03-1.33478E-01
 -1      2109-1.25987E-02 8.02965E-03-4.81880E-02
 -1      2110-4.74610E-02-2.02537E-02-2.70378E-01
 -1      2111-3.21112E-02 8.58576E-03-2.29163E-01
 -1      2112 9.49605E-03 2.78652E-02-1.08807E-01
 -1      2113-1.43847E-02 4.62527E-03-4.71402E-02
 -1      2114 1.46005E-03 2.92367E-02-1.13078E-01
 -1      2115 2.45124E-02-2.46625E-02-1.13358E-01
 -1      2116 1.29807E-02-2.18871E-02-1.12221E-01
 -1      2117 1.83511E-02-2.03218E-02-1.08876E-01
 -1      2118 1.12467E-02 2.53430E-02-1.08022E-01
 -1      2119-4.63610E-03 1.51416E-02-4.52134E-02
 -1      2120-5.72952E-03-1.31229E-02-4.19526E-02
 -1      2121 1.03846E-02 2.61284E-02-7.13519E-02
 -1      2122 1.67193E-02-1.25397E-02-4.36590E-02
 -1      2123-2.98272E-02-2.07180E-02-3.01691E-01
 -1      2124-1.02039E-02-1.06512E-02-3.65672E-02
 -1      2125 2.11485E-02-1.00214E-02-6.21213E-02
 -1      2126-1.56852E-02 3.74882E-02-1.99248E-01
 -1      2127 3.39183E-03-2.91028E-02-1.20529E-01
 -1      2128-4.24899E-02 2.26882E-02-2.15333E-01
 -1      2129 3.64212E-02 4.37705E-02-4.74636E-01
 -1      2130-5.93103E-03-4.01291E-02-2.36863E-01
 -1      2131 7.75047E-03 1.13424E-02-3.85467E-02
 -1      2132 5.29456E-03 2.06895E-02-4.59680E-02
 -1      2133-5.55608E-03 3.74211E-02-1.06316E-01
 -1      2134-1.77764E-02 3.04368E-02-1.94619E-01
 -1      2135 3.07144E-02-7.87927E-03-1.01585E-01
 -1      2136-3.96977E-02-3.17819E-02-2.67595E-01
 -1      2137 4.30216E-02-3.42180E-02-4.32509E-01
 -1      2138-1.83164E-02-2.13326E-02-1.20003E-01
 -1      2139-3.50540E-02-1.84415E-02-1.05938E-01
 -1      2140-1.69040E-02-1.54101E-04-3.67137E-02
 -1      2141-5.18862E-03-4.05220E-02-1.49960E-01
 -1      2142 3.60198E-02 5.23532E-03-2.46875E-01
 -1      2143-3.58719E-02 8.04681E-03-3.64468E-01
 -1      2144 2.17358E-03 9.91519E-03-3.93796E-02
 -1      2145-1.37044E-02-1.05355E-02-4.59322E-02
 -1      2146 1.35145E-02-9.76189E-03-4.44744E-02
 -1      2147-3.37808E-02 3.79166E-02-7.43934E-01
 -1      2148-1.24196E-02-6.07435E-03-4.56838E-02
 -1      2149 4.11735E-03-3.73823E-02-1.36292E-01
 -1      2150-1.73163E-02 5.08150E-03-4.47356E-02
 -1      2151 5.81623E-03 3.69953E-02-2.30765E-01
 -1      2152 3.00622E-02 2.13557E-02-2.43975E-01
 -1      2153 2.50783E-02 1.73991E-03-6.50296E-02
 -1      2154 3.88507E-02-9.49939E-03-2.51612E-01
 -1      2155 2.55595E-02-4.83617E-02-5.18148E-01
 -1      2156-4.18734E-02-7.61834E-03-1.25156E-01
 -1      2157 2.94131E-02 4.45375E-02-6.94345E-01
 -1      2158-2.27672E-02 1.08119E-02-6.34662E-02
 -1      2159 2.65992E-02 3.32576E-02-1.69233E-01
 -1      2160 2.94940E-02-1.84019E-02-2.42317E-01
 -1      2161-3.26262E-02 1.98658E-02-3.66380E-01
 -1      2162-1.58524E-02-4.30595E-03-3.92693E-02
 -1      2163-6.81432E-03-4.45402E-02-8.66917E-01
 -1      2164-4.19845E-03 3.42360E-02-2.05427E-01
 -1      2165-7.91172E-03-1.28303E-02-3.66561E-02
 -1      2166-5.06632E-02 1.91289E-02-5.72795E-01
 -1      2167-3.63130E-02-7.16577E-03-3.67431E-01
 -1      2168-2.58940E-02 2.17851E-02-8.79729E-02
 -1      2169 5.19997E-02 2.10006E-02-5.60755E-01
 -1      2170-5.01622E-03-1.17380E-02-3.03469E-02
 -1      2171 2.37993E-02 5.15678E-02-4.38655E-01
 -1      2172-1.06834E-02 5.11050E-02-3.09850E-01
 -1      2173 2.55803E-02 1.21148E-02-7.30576E-02
 -1      2174-1.85891E-02 2.91227E-02-1.04691E-01
 -1      2175 1.76295E-02 2.13214E-02-5.65307E-02
 -1      2176-1.80944E-03-2.00217E-02-4.69062E-02
 -1      2177-2.66781E-02 4.54749E-02-3.10625E-01
 -1      2178-7.68477E-03-9.21068E-03-4.03178E-02
 -1      2179 1.82098E-02 3.13895E-02-8.31413E-02
 -1      2180-5.13434E-02 1.28754E-02-3.27561E-01
 -1      2181 4.48422E-02 2.93851E-02-6.97723E-01
 -1      2182-8.56015E-03 1.35942E-02-6.56542E-02
 -1      2183 4.66685E-02 3.13961E-02-4.43607E-01
 -1      2184 4.83886E-02 1.17646E-02-2.53116E-01
 -1      2185 4.08377E-02 3.90621E-02-5.64838E-01
 -1      2186-5.21378E-02-1.01631E-02-3.27385E-01
 -1      2187-2.31121E-02 1.75883E-02-1.24677E-01
 -1      2188 1.57189E-02 7.84582E-03-4.42157E-02
 -1      2189-1.22683E-02 6.61663E-03-2.99548E-02
 -1      2190-6.07171E-03 4.46568E-02-2.03630E-01
 -1      2191 2.48982E-02 4.31124E-02-2.14004E-01
 -1      2192-8.28426E-03 1.94984E-02-6.08895E-02
 -1      2193-4.31417E-02 3.53703E-02-4.89105E-01
 -1      2194 4.90182E-02 3.10844E-03-8.00233E-01
 -1      2195-1.17330E-02-5.49115E-02-4.31285E-01
 -1      2196-2.15889E-02 3.88507E-02-1.91693E-01
 -1      2197-1.58005E-02 5.27455E-02-6.12359E-01
 -1      2198 3.10724E-02-2.22598E-02-3.76249E-01
 -1      2199-2.86178E-02 7.98229E-03-6.82649E-02
 -1      2200 5.36896E-02 6.49744E-03-4.08680E-01
 -1      2201-2.72430E-02-3.33605E-02-1.90079E-01
 -1      2202 1.36321E-02-3.26154E-02-1.07856E-01
 -1      2203 3.84016E-02-9.23246E-03-3.88713E-01
 -1      2204 8.58868E-03-1.76230E-02-6.61011E-02
 -1      2205-2.28147E-02-1.03146E-02-1.23972E-01
 -1      2206 1.84490E-02-2.91167E-02-1.99875E-01
 -1      2207 8.93983E-03-1.47884E-02-4.15719E-02
 -1      2208 3.60082E-02 1.68940E-02-1.67287E-01
 -1      2209 1.47662E-02 1.83610E-03-4.17320E-02
 -1      2210 1.19976E-02-2.92051E-03-4.22839E-02
 -1      2211-2.77020E-02 2.22147E-02-9.23163E-02
 -1      2212 4.63773E-02 2.63372E-02-3.15088E-01
 -1      2213-4.42341E-02 1.39996E-02-8.23844E-01
 -1      2214 4.51133E-02 1.93634E-02-8.13924E-01
 -1      2215-1.44530E-02-8.10216E-04-4.07144E-02
 -1      2216-4.41918E-03 1.66997E-02-4.16845E-02
 -1      2217 1.00402E-02 4.15901E-02-1.89374E-01
 -1      2218 1.98025E-02 2.48002E-02-1.15004E-01
 -1      2219 9.34590E-03 5.36122E-02-3.92158E-01
 -1      2220 1.86902E-02 2.94097E-02-2.29987E-01
 -1      2221 1.40210E-02 1.95517E-02-7.92239E-02
 -1      2222 2.09519E-03 1.19730E-02-3.74305E-02
 -1      2223-8.92698E-03 1.84545E-02-4.53621E-02
 -1      2224-9.12676E-03 1.29744E-02-4.82248E-02
 -1      2225 3.86746E-02 3.11394E-02-7.95763E-01
 -1      2226-3.52577E-02 1.28878E-03-1.04078E-01
 -1      2227 1.89740E-02-1.50802E-02-6.63372E-02
 -1      2228 2.86393E-02 3.92137E-02-7.99063E-01
 -1      2229 2.20646E-02-3.30614E-02-1.33134E-01
 -1      2230-1.29019E-02-4.94608E-02-2.61021E-01
 -1      2231 5.32326E-03-2.63206E-02-1.22556E-01
 -1      2232-1.16244E-02 3.21219E-02-1.14102E-01
 -1      2233 5.07048E-02 1.98234E-02-6.91855E-01
 -1      2234 9.04900E-03 3.75172E-02-3.68015E-01
 -1      2235 4.82308E-03 8.31620E-03-3.89089E-02
 -1      2236-2.47575E-02 1.09915E-02-1.27294E-01
 -1      2237 5.46145E-02 4.14652E-03-6.33674E-01
 -1      2238 5.35455E-03-2.39822E-02-5.37819E-02
 -1      2239 3.81567E-02 1.00318E-02-3.82803E-01
 -1      2240 5.21901E-02 1.57490E-02-4.09010E-01
 -1      2241 1.49653E-02 3.62986E-02-1.04697E-01
 -1      2242-2.83299E-03 3.24867E-02-9.59814E-02
 -1      2243-4.72892E-03-1.83905E-02-4.66883E-02
 -1      2244 3.76329E-03-1.30765E-02-3.64354E-02
 -1      2245-5.55570E-02 2.14488E-04-4.82113E-01
 -1      2246-2.66079E-02 2.69010E-02-1.13179E-01
 -1      2247-3.94163E-02 1.51004E-02-1.29584E-01
 -1      2248 3.03251E-02 4.68294E-02-5.56372E-01
 -1      2249-3.63847E-02 2.68906E-02-2.26547E-01
 -1      2250 2.62794E-02 4.68732E-02-3.18016E-01
 -1      2251-1.02678E-02 4.39815E-02-1.94947E-01
 -1      2252-3.34131E-02-4.41229E-02-5.98545E-01
 -1      2253 2.99030E-02 4.76332E-02-4.40609E-01
 -1      2254-3.58267E-02 4.13551E-02-3.65331E-01
 -1      2255-7.32545E-03 1.29053E-02-3.38723E-02
 -1      2256-4.89534E-02 2.52668E-02-4.13742E-01
 -1      2257-4.81155E-02-7.22177E-03-2.09458E-01
 -1      2258-1.04969E-02 1.04854E-02-4.18556E-02
 -1      2259-1.38760E-02 4.26112E-03-3.73051E-02
 -1      2260-1.25244E-02-3.84749E-02-1.26883E-01
 -1      2261-5.33819E-02 1.23557E-02-4.70376E-01
 -1      2262 9.76488E-03 9.70279E-03-3.41955E-02
 -1      2263 3.56651E-02 5.67110E-03-1.68486E-01
 -1      2264-2.12926E-02-3.09504E-02-3.83374E-01
 -1      2265 7.28407E-03-5.25055E-02-6.72581E-01
 -1      2266 1.34571E-03-2.18805E-02-4.72294E-02
 -1      2267-9.81764E-03-2.06878E-02-4.76501E-02
 -1      2268-6.12682E-03-3.81308E-02-3.72508E-01
 -1      2269 3.13990E-02 2.93806E-02-1.50504E-01
 -1      2270 1.53675E-02-7.25248E-03-1.03204E+00
 -1      2271 3.60623E-02-3.62322E-02-2.77899E-01
 -1      2272-4.49920E-02 2.65366E-02-6.89734E-01
 -1      2273 5.79536E-03-9.89396E-03-3.23075E-02
 -1      2274-2.50672E-04-1.79000E-02-3.14958E-02
 -1      2275 3.30650E-02-4.35673E-03-1.36170E-01
 -1      2276 2.24051E-02-3.10083E-02-3.08215E-01
 -1      2277-1.64392E-02 4.24071E-03-3.95501E-02
 -1      2278-8.62659E-03-1.26375E-02-4.65343E-02
 -1      2279 2.45386E-02-2.24848E-02-1.33987E-01
 -1      2280-1.24263E-03-3.27806E-02-1.20212E-01
 -1      2281-1.54733E-02-2.61879E-02-1.29739E-01
 -1      2282-3.75694E-02 3.97508E-02-6.26430E-01
 -1      2283-7.61461E-04 1.16383E-02-3.63200E-02
 -1      2284 1.46415E-02 4.79310E-02-7.66389E-01
 -1      2285-2.07684E-02-1.63747E-02-1.15926E-01
 -1      2286 1.59141E-02 9.17088E-03-4.30186E-02
 -1      2287 1.05300E-02 1.26425E-02-4.35474E-02
 -1      2288 2.24712E-02 1.91844E-02-1.26907E-01
 -1      2289 1.54248E-02 3.08280E-04-3.71688E-02
 -1      2290 2.74705E-02 2.41550E-03-5.00561E-02
 -1      2291 3.49867E-02 2.17526E-02-1.45789E-01
 -1      2292-4.69158E-02 2.87286E-02-5.53433E-01
 -1      2293-6.61020E-03-1.58976E-02-4.85956E-02
 -1      2294 1.02154E-02-1.62359E-02-3.85991E-02
 -1      2295-7.13078E-03 4.98177E-02-3.13029E-01
 -1      2296 1.98604E-02-6.83009E-03-3.99124E-02
 -1      2297-1.54192E-02 1.12454E-03-3.35101E-02
 -1      2298-4.08944E-02 3.25995E-02-3.47881E-01
 -1      2299 6.16762E-03 1.63249E-02-3.81863E-02
 -1      2300-8.87073E-03 3.11559E-02-9.81072E-01
 -1      2301-4.55625E-02-9.93162E-03-2.23047E-01
 -1      2302-5.42906E-02-1.15236E-02-5.34164E-01
 -1      2303-5.34057E-02 6.61084E-03-5.86966E-01
 -1      2304 2.34539E-02 3.27407E-02-3.67105E-01
 -1      2305 1.30691E-02 1.45291E-02-1.02310E+00
 -1      2306-2.83102E-02-1.79406E-02-1.88286E-01
 -1      2307 1.14837E-02-1.33985E-02-4.21781E-02
 -1      2308 5.41886E-02-1.34498E-02-4.55812E-01
 -1      2309 1.68827E-02-9.06889E-03-4.87079E-02
 -1      2310 3.75317E-02 3.65963E-02-7.14709E-01
 -1      2311-2.78729E-02 3.26267E-02-1.43998E-01
 -1      2312-1.36172E-02 3.50172E-02-1.29846E-01
 -1      2313-1.61204E-02-5.27346E-03-4.27033E-02
 -1      2314-3.47240E-02-3.15035E-02-8.25172E-01
 -1      2315 3.19826E-02-8.80547E-03-1.22201E-01
 -1      2316 1.52936E-02-3.61775E-03-3.57607E-02
 -1      2317 2.68773E-02 1.57998E-02-1.35123E-01
 -1      2318 3.04973E-02 8.28100E-03-1.06877E-01
 -1      2319 3.42790E-02-4.31249E-02-4.28970E-01
 -1      2320-4.46801E-02-2.90046E-02-6.33233E-01
 -1      2321 1.13225E-02-7.55381E-03-3.18567E-02
 -1      2322-1.38534E-02-1.03134E-03-3.60666E-02
 -1      2323-2.42701E-02 4.45208E-02-2.92054E-01
 -1      2324-1.09529E-02-5.27178E-02-6.58173E-01
 -1      2325 3.61527E-02-2.58729E-02-2.28713E-01
 -1      2326-4.30757E-02-2.55958E-02-2.43588E-01
 -1      2327-3.51863E-02-2.42555E-02-1.45305E-01
 -1      2328-5.34863E-02 3.61065E-03-3.69588E-01
 -1      2329 3.11199E-03 3.31523E-02-1.03708E-01
 -1      2330 5.02398E-02 2.44247E-02-6.06056E-01
 -1      2331-2.00837E-02 2.35387E-02-1.25549E-01
 -1      2332 7.24276E-03-3.61774E-02-3.64284E-01
 -1      2333 2.84816E-03-1.64405E-02-3.52555E-02
 -1      2334 5.12137E-02-1.67656E-02-6.76533E-01
 -1      2335 1.18711E-02-5.01633E-02-2.79431E-01
 -1      2336 5.05343E-03 5.19436E-02-3.11735E-01
 -1      2337 1.88478E-02-4.18576E-02-2.28505E-01
 -1      2338-3.31962E-03-5.35416E-02-2.98087E-01
 -1      2339 4.94621E-02-2.43181E-02-3.89779E-01
 -1      2340-8.86775E-04 5.34541E-02-6.91162E-01
 -1      2341 3.13839E-02-4.14546E-02-3.07415E-01
 -1      2342-8.72229E-03 2.84278E-02-1.29041E-01
 -1      2343-3.61893E-02-1.34975E-02-1.34925E-01
 -1      2344-2.20895E-02-5.20784E-03-4.30010E-02
 -1      2345-8.37662E-03 2.69554E-03-3.37261E-02
 -1      2346 1.05075E-03-4.03760E-02-1.65426E-01
 -1      2347-4.48236E-02-2.12024E-02-7.54501E-01
 -1      2348-4.93875E-02-2.09425E-02-6.26262E-01
 -1      2349-4.61972E-02-3.12356E-02-4.40459E-01
 -1      2350-3.96405E-02-2.00392E-02-1.85292E-01
 -1      2351 1.12905E-02-4.23249E-02-1.58363E-01
 -1      2352 9.58865E-03-5.29193E-02-2.63384E-01
 -1      2353 1.68258E-02-5.31003E-02-4.43992E-01
 -1      2354 1.38906E-02 1.10509E-02-4.41315E-02
 -1      2355 2.30998E-02-3.86855E-02-8.59447E-01
 -1      2356-5.18994E-02 1.88226E-02-4.57300E-01
 -1      2357 4.69093E-03 3.47162E-02-1.10525E-01
 -1      2358-5.32609E-02-1.71153E-02-4.01274E-01
 -1      2359-5.17032E-02-6.88547E-03-3.08240E-01
 -1      2360-4.51350E-02 2.76593E-02-3.04133E-01
 -1      2361-4.86687E-02 2.07310E-02-3.14441E-01
 -1      2362-8.95410E-03 1.61602E-02-3.95796E-02
 -1      2363-1.00406E-02 1.04965E-02-3.03098E-02
 -1      2364 3.41680E-02 4.21086E-02-3.19187E-01
 -1      2365 1.58058E-02 5.16125E-02-3.26397E-01
 -1      2366-9.55799E-03 5.47639E-02-4.74742E-01
 -1      2367 4.81640E-02 1.61374E-02-7.65448E-01
 -1      2368-3.12764E-02 4.04508E-02-2.51124E-01
 -1      2369 3.96291E-02 1.33304E-02-9.48984E-01
 -1      2370 1.31761E-02 4.16188E-02-1.53566E-01
 -1      2371-3.47542E-03 1.54293E-02-3.23713E-02
 -1      2372 6.17741E-03 5.23123E-02-6.93886E-01
 -1      2373 8.49152E-03-5.51871E-02-5.38592E-01
 -1      2374-2.17257E-02-4.66788E-02-7.45342E-01
 -1      2375-3.70205E-02-4.26723E-02-4.29184E-01
 -1      2376-3.74753E-02-3.57047E-02-7.18844E-01
 -1      2377 5.07671E-02-8.66043E-03-2.63785E-01
 -1      2378 1.65339E-02-3.22479E-02-1.25417E-01
 -1      2379 4.20789E-02-2.44052E-02-2.70197E-01
 -1      2380 4.58415E-02 5.03581E-03-2.54192E-01
 -1      2381-4.46153E-02 9.98428E-03-1.79828E-01
 -1      2382 3.76039E-02 4.05258E-02-5.91873E-01
 -1      2383-1.68524E-02 3.81958E-03-3.31654E-02
 -1      2384-2.03864E-02-5.29723E-02-5.24916E-01
 -1      2385-2.50255E-02-2.42342E-02-1.08740E-01
 -1      2386-2.65426E-02-4.56430E-02-2.93767E-01
 -1      2387-5.18631E-02-1.15510E-02-6.35570E-01
 -1      2388-2.02133E-02-2.71511E-02-1.16749E-01
 -1      2389 8.30066E-04 1.70280E-02-3.22467E-02
 -1      2390 3.53951E-03-8.20572E-03-3.31004E-02
 -1      2391 3.94132E-02 4.86818E-03-1.37169E-01
 -1      2392-3.10005E-02-1.93555E-02-4.10973E-01
 -1      2393-1.34473E-02-1.03474E-02-4.12926E-02
 -1      2394 2.99061E-02-1.35399E-02-1.31795E-01
 -1      2395 4.57764E-02 2.93773E-02-3.19772E-01
 -1      2396 2.57996E-02 1.90947E-02-1.06524E-01
 -1      2397-5.45753E-02-9.05039E-03-4.45847E-01
 -1      2398 4.99991E-02 1.98607E-02-3.28331E-01
 -1      2399-3.06578E-02 3.06455E-02-9.04764E-01
 -1      2400 4.19321E-02-1.89028E-02-8.82817E-01
 -1      2401-1.93125E-02-3.58793E-02-1.37639E-01
 -1      2402 4.00916E-02-6.36333E-03-1.49716E-01
 -1      2403-1.40065E-02 2.56324E-02-1.20480E-01
 -1      2404 6.08463E-03-3.39154E-02-9.73433E-01
 -1      2405-1.86315E-02 4.38737E-02-8.42073E-01
 -1      2406 3.07833E-03-9.68257E-03-3.04852E-02
 -1      2407 3.62316E-02 3.54556E-02-2.43709E-01
 -1      2408-5.37595E-04-1.29168E-02-3.63612E-02
 -1      2409 2.60494E-03 1.83795E-02-3.53130E-02
 -1      2410 4.97522E-02 4.04803E-04-3.11421E-01
 -1      2411-1.58433E-02-4.80361E-02-7.64895E-01
 -1      2412 1.57857E-02 5.26830E-02-4.30656E-01
 -1      2413-4.12883E-02-3.54318E-02-3.81517E-01
 -1      2414-4.96455E-02 6.96675E-03-2.56752E-01
 -1      2415 3.92700E-02-3.48736E-02-6.96476E-01
 -1      2416-1.99501E-02 3.74653E-02-9.20397E-01
 -1      2417 3.00531E-02-2.77731E-02-9.53746E-01
 -1      2418 4.80470E-02-1.04809E-02-7.95425E-01
 -1      2419 4.33386E-02 3.83080E-02-4.46997E-01
 -1      2420 1.43012E-02 2.33379E-03-3.10359E-02
 -1      2421-1.23768E-02-5.44271E-02-5.46230E-01
 -1      2422 5.20205E-02 2.41914E-02-4.56297E-01
 -1      2423-2.61568E-02-8.68248E-04-1.28329E-01
 -1      2424-3.91130E-02-8.81860E-03-9.21820E-01
 -1      2425-3.70246E-02-3.11836E-03-9.51543E-02
 -1      2426 5.33765E-02-3.39048E-03-7.10185E-01
 -1      2427-1.50306E-02-7.02186E-03-3.60404E-02
 -1      2428-1.33709E-02 4.96824E-02-3.11290E-01
 -1      2429 3.02475E-02 2.29378E-02-3.78852E-01
 -1      2430 2.08875E-02 5.18212E-02-5.41203E-01
 -1      2431 1.31804E-02-9.87106E-03-2.86504E-02
 -1      2432-3.99040E-02-1.97476E-02-8.56315E-01
 -1      2433-3.77522E-02 1.09471E-02-9.45078E-01
 -1      2434 4.25648E-02-2.81437E-02-3.46762E-01
 -1      2435 8.44684E-03-4.60462E-02-8.15292E-01
 -1      2436 1.45228E-02-4.09695E-02-8.96641E-01
 -1      2437 5.54661E-02 1.19842E-02-5.00822E-01
 -1      2438 3.06875E-02 2.58784E-02-9.66008E-01
 -1      2439-1.83606E-02-5.21188E-02-3.66641E-01
 -1      2440 2.29038E-02-3.93197E-03-3.67803E-02
 -1      2441 1.22197E-02 2.05779E-03-2.73798E-02
 -1      2442-1.93863E-02 1.40511E-02-3.74059E-02
 -1      2443-6.31045E-04 5.54714E-02-5.63357E-01
 -1      2444-4.21618E-02-3.72950E-02-4.90983E-01
 -1      2445-3.40592E-02-3.86533E-02-3.03878E-01
 -1      2446-2.64797E-02 5.03864E-02-4.98892E-01
 -1      2447 4.59104E-02-2.82265E-03-8.90888E-01
 -1      2448-1.96608E-02-2.90277E-02-9.77448E-01
 -1      2449 3.60985E-02-3.14924E-02-8.18967E-01
 -1      2450 1.32871E-02-1.15767E-02-3.66336E-02
 -1      2451-4.79839E-02 1.77143E-02-7.02781E-01
 -1      2452-1.57642E-02 1.22208E-02-3.90573E-02
 -1      2453 3.73533E-02-2.63332E-02-1.59684E-01
 -1      2454-3.29851E-02-3.73696E-02-7.56729E-01
 -1      2455 5.36727E-02 1.36325E-02-6.38144E-01
 -1      2456-9.19342E-05 1.40196E-02-3.73177E-02
 -1      2457-1.22151E-03-5.68532E-02-4.91705E-01
 -1      2458-3.88933E-02-3.89365E-02-5.99447E-01
 -1      2459 1.41470E-02 4.02067E-02-9.18476E-01
 -1      2460-9.38589E-03-3.84159E-02-9.54529E-01
 -1      2461-3.15348E-03-9.97656E-03-1.03886E+00
 -1      2462-5.02512E-03 6.39993E-03-1.04149E+00
 -1      2463 2.01443E-02 5.01235E-02-6.69005E-01
 -1      2464-2.15699E-02-4.00451E-02-8.65201E-01
 -1      2465 4.11439E-02 5.32251E-03-1.59520E-01
 -1      2466 4.52013E-02 1.05489E-02-8.69857E-01
 -1      2467-2.11866E-02 2.11449E-02-9.89386E-01
 -1      2468 3.67039E-02-1.24547E-02-9.70161E-01
 -1      2469-3.33324E-03-1.21374E-02-1.04019E+00
 -1      2470-3.17006E-03 1.67905E-02-2.92348E-02
 -1      2471 2.04193E-04 9.99578E-03-2.49958E-02
 -1      2472 2.61722E-02-4.34471E-02-3.05476E-01
 -1      2473 2.85430E-02-1.90078E-02-1.09880E-01
 -1      2474 4.73179E-02-1.78190E-02-3.08588E-01
 -1      2475 1.20566E-03-3.54058E-02-1.13174E-01
 -1      2476 6.94783E-03 1.91475E-02-3.22648E-02
 -1      2477-1.58950E-03 5.52401E-02-4.19372E-01
 -1      2478 4.09713E-02 2.99342E-02-2.53099E-01
 -1      2479 5.35102E-02-5.82214E-03-3.81235E-01
 -1      2480-1.11601E-03-5.17362E-02-7.27578E-01
 -1      2481 5.19783E-02-1.63738E-02-4.03946E-01
 -1      2482-2.49539E-02-3.64136E-02-2.04620E-01
 -1      2483-3.27608E-02 4.55926E-02-4.37353E-01
 -1      2484-1.54002E-02-1.48257E-03-1.03045E+00
 -1      2485-3.10811E-02-1.39645E-02-9.55491E-02
 -1      2486 1.72371E-02 4.99292E-03-3.61469E-02
 -1      2487-2.21906E-02 4.99351E-02-6.55952E-01
 -1      2488-3.34257E-02-2.18006E-02-9.42245E-01
 -1      2489 5.20531E-02-1.07177E-02-3.58877E-01
 -1      2490-2.72937E-02 3.79861E-02-8.46693E-01
 -1      2491 5.54238E-02 3.53644E-04-5.17683E-01
 -1      2492 2.30602E-02-4.66603E-02-6.95297E-01
 -1      2493-5.44801E-02-3.15922E-03-5.52045E-01
 -1      2494-4.29443E-03 1.09445E-02-1.04349E+00
 -1      2495 3.57082E-03-5.15612E-02-2.86018E-01
 -1      2496 1.93263E-02-5.06746E-02-6.04224E-01
 -1      2497-1.33714E-02 5.37867E-02-4.18967E-01
 -1      2498-3.31290E-03-4.55237E-02-2.02023E-01
 -1      2499-4.82763E-02-2.68281E-02-5.35629E-01
 -1      2500-4.60319E-02-2.61589E-02-3.53510E-01
 -1      2501 2.33312E-02 3.88592E-02-8.76166E-01
 -1      2502 1.10787E-02 6.65227E-03-3.24555E-02
 -1      2503-7.77258E-03-5.56882E-03-3.07895E-02
 -1      2504-5.03338E-02-2.29241E-02-4.41346E-01
 -1      2505-3.80908E-02 4.16281E-02-4.70477E-01
 -1      2506 2.28949E-02 5.46729E-03-1.01644E+00
 -1      2507-2.08569E-02 5.12312E-02-4.15144E-01
 -1      2508-4.58546E-02-8.98867E-04-8.18702E-01
 -1      2509-4.63749E-02 1.40144E-02-2.18774E-01
 -1      2510 5.03078E-02-2.33081E-02-5.71248E-01
 -1      2511 4.88278E-02 9.97057E-03-3.42608E-01
 -1      2512-5.23928E-02 2.65015E-04-6.87190E-01
 -1      2513-3.00048E-02-4.80408E-02-4.54205E-01
 -1      2514-2.04085E-02-5.07466E-02-6.43370E-01
 -1      2515-2.56722E-02-4.89178E-02-3.72575E-01
 -1      2516-1.54489E-02-1.31024E-02-3.77211E-02
 -1      2517-3.81643E-02 2.94480E-02-7.99898E-01
 -1      2518 4.07298E-02-2.99979E-02-2.89778E-01
 -1      2519-4.71059E-03-5.58408E-02-5.78537E-01
 -1      2520-5.50255E-03-5.58575E-02-4.04881E-01
 -1      2521-2.33240E-02 4.54740E-02-7.55781E-01
 -1      2522 4.97367E-02-7.81892E-03-2.76050E-01
 -1      2523-1.53687E-03 4.72443E-02-8.30825E-01
 -1      2524-1.40947E-02 5.00627E-02-7.39572E-01
 -1      2525 4.52540E-02-2.09113E-02-7.76766E-01
 -1      2526-2.31284E-02-4.34951E-02-2.69457E-01
 -1      2527-4.47586E-02 4.41303E-03-1.72521E-01
 -1      2528 3.68741E-02-4.05150E-02-5.88579E-01
 -1      2529 1.97141E-02-4.49372E-02-7.79860E-01
 -1      2530 3.92541E-02 3.92770E-02-3.51014E-01
 -1      2531 7.75452E-03 3.45486E-04-1.04060E+00
 -1      2532 6.73425E-03 5.56317E-02-5.03025E-01
 -1      2533-8.27008E-03 5.41524E-02-5.73857E-01
 -1      2534 5.83991E-03 9.51205E-03-1.03483E+00
 -1      2535 6.14264E-03 2.82685E-02-9.92234E-01
 -1      2536-9.61508E-03-2.85475E-03-1.03868E+00
 -1      2537-1.08992E-04-1.44880E-02-2.69264E-02
 -1      2538 2.01651E-02-4.98627E-02-3.57793E-01
 -1      2539 2.86958E-02-4.59276E-02-4.16528E-01
 -1      2540-2.22433E-02 3.18395E-02-4.07128E-01
 -1      2541-4.14820E-03-9.23856E-03-2.28822E-02
 -1      2542-2.18277E-02-9.67526E-03-3.96924E-02
 -1      2543-1.86488E-03 4.19600E-02-9.20764E-01
 -1      2544 1.67916E-02-3.31767E-02-4.11847E-01
 -1      2545-1.05769E-02-3.02945E-03-3.21869E-02
 -1      2546 8.40926E-03 3.22533E-03-1.05217E+00
 -1      2547-3.18542E-02 4.36853E-02-6.49128E-01
 -1      2548 3.37186E-02-3.75307E-02-7.41901E-01
 -1      2549 5.50751E-02-6.67535E-03-5.85788E-01
 -1      2550-1.87170E-02 5.33658E-02-5.13016E-01
 -1      2551-4.38409E-02-1.33781E-02-8.20868E-01
 -1      2552-4.86522E-02 5.13761E-03-7.58800E-01
 -1      2553 5.24575E-02-2.07173E-02-5.19132E-01
 -1      2554 4.86847E-02-2.82525E-02-4.69489E-01
 -1      2555 4.36189E-02-3.40075E-02-5.58930E-01
 -1      2556-3.44995E-02-4.53734E-02-5.00101E-01
 -1      2557 1.02824E-02 7.16521E-03-2.63089E-02
 -1      2558 4.80003E-02-2.33792E-02-6.76729E-01
 -1      2559 5.57685E-02-4.06292E-03-4.84770E-01
 -1      2560 2.80754E-02-4.58104E-02-6.08956E-01
 -1      2561 5.87014E-03-1.00417E-02-1.03454E+00
 -1      2562 1.11983E-02 4.28646E-03-2.77202E-02
 -1      2563-3.22035E-02 4.58554E-02-5.48195E-01
 -1      2564 3.92718E-02-3.91846E-02-4.99721E-01
 -1      2565-1.17913E-01 2.09041E-03-6.58197E-01
 -1      2566 2.64330E-03-1.18728E-01-6.61095E-01
 -1      2567-8.36859E-02-8.18946E-02-6.63964E-01
 -1      2568 4.55113E-02-1.12749E-01-9.88464E-01
 -1      2569-8.55176E-02 8.32810E-02-5.98399E-01
 -1      2570-9.90709E-03 5.24318E-02-6.74166E-01
 -1      2571 3.19803E-03-1.18596E-01-6.64525E-01
 -1      2572 3.26279E-02 3.95690E-02-7.39088E-01
 -1      2573-1.96636E-02-1.24680E-02-1.00467E+00
 -1      2574-8.48334E-02-8.29312E-02-5.96730E-01
 -1      2575 3.27480E-02 7.69896E-02-9.94052E-01
 -1      2576 7.69830E-02 3.28694E-02-9.95344E-01
 -1      2577 7.58474E-02-3.21379E-02-9.95149E-01
 -1      2578 1.08339E-01 4.56322E-02-9.91218E-01
 -1      2579 2.53822E-02-5.76361E-02-9.93554E-01
 -1      2580 3.29131E-02-7.80248E-02-9.35473E-01
 -1      2581 1.08870E-01-4.91707E-02-6.05729E-01
 -1      2582-2.15932E-03 1.21161E-01-9.90415E-01
 -1      2583-4.70832E-02-1.09411E-01-6.00188E-01
 -1      2584 1.16593E-01-4.60621E-04-9.92736E-01
 -1      2585-1.11626E-01 4.57133E-02-5.93015E-01
 -1      2586 8.24664E-02-8.61317E-02-6.68295E-01
 -1      2587-8.58157E-06-8.32644E-02-9.92480E-01
 -1      2588-3.25670E-02-7.60784E-02-9.91553E-01
 -1      2589 1.47114E-02 5.08309E-02-7.06226E-01
 -1      2590-8.41192E-02 6.50330E-04-9.89406E-01
 -1      2591 9.51667E-02-4.15216E-02-9.08548E-01
 -1      2592 9.51265E-02-4.22717E-02-9.16739E-01
 -1      2593-5.93446E-02 5.86249E-02-9.90070E-01
 -1      2594-7.64020E-02 3.24540E-02-9.88917E-01
 -1      2595 2.94810E-02 1.42044E-02-9.91419E-01
 -1      2596-1.09542E-01-4.60333E-02-5.94869E-01
 -1      2597 1.09754E-01-4.97151E-02-9.46619E-01
 -1      2598-1.07994E-01 4.80684E-02-9.85818E-01
 -1      2599-1.17664E-01 2.00371E-03-6.60525E-01
 -1      2600-1.08551E-01-4.46999E-02-6.59054E-01
 -1      2601-8.45979E-02-8.17441E-02-9.85603E-01
 -1      2602-1.11242E-01-4.35855E-02-9.86772E-01
 -1      2603-1.20709E-01 3.00708E-03-9.86071E-01
 -1      2604 5.79413E-02-1.35624E-01-9.84394E-01
 -1      2605-4.72267E-02-1.10067E-01-9.87495E-01
 -1      2606-9.68033E-02 4.14838E-02-9.00966E-01
 -1      2607-9.59014E-02 4.18323E-02-9.07763E-01
 -1      2608 7.65096E-03-1.64709E-02-1.02312E+00
 -1      2609-4.28280E-02-4.35498E-02-9.90745E-01
 -1      2610 5.38171E-02 1.31940E-01-9.87957E-01
 -1      2611 6.68678E-04 1.21824E-01-5.98098E-01
 -1      2612-3.34377E-02 7.57837E-02-9.91252E-01
 -1      2613-2.02750E-03-1.20938E-01-9.88725E-01
 -1      2614-1.10995E-01 4.48308E-02-5.92222E-01
 -1      2615 1.04179E-03 1.47555E-01-9.85637E-01
 -1      2616 3.26417E-02-7.81958E-02-9.34195E-01
 -1      2617 1.03250E-01-6.37862E-04-9.11636E-01
 -1      2618 1.03070E-01 1.33528E-04-9.17537E-01
 -1      2619-9.03939E-03-2.44684E-02-1.00421E+00
 -1      2620 1.91507E-02 3.32092E-02-9.61617E-01
 -1      2621 9.68560E-02 3.12151E-02-9.93709E-01
 -1      2622 1.11064E-01 1.06536E-02-9.93937E-01
 -1      2623 5.68848E-02 6.04518E-02-9.94505E-01
 -1      2624-1.07701E-01 3.53082E-02-9.86148E-01
 -1      2625 5.82212E-02-6.03766E-02-9.94597E-01
 -1      2626-5.85471E-03-1.47476E-01-9.85161E-01
 -1      2627 1.09845E-01 4.82970E-02-6.06866E-01
 -1      2628-7.76235E-02 3.27275E-02-9.45427E-01
 -1      2629-3.36655E-02-2.78457E-03-9.80458E-01
 -1      2630-4.54543E-02-1.09569E-01-6.02057E-01
 -1      2631-7.23151E-04 6.35534E-02-9.94247E-01
 -1      2632 4.43080E-02-1.32235E-01-9.84927E-01
 -1      2633-8.53759E-02 8.42318E-02-5.99399E-01
 -1      2634-2.54278E-02 9.54216E-03-1.00103E+00
 -1      2635 8.13466E-02 8.69007E-02-9.91621E-01
 -1      2636 1.42223E-01-3.41753E-03-9.88311E-01
 -1      2637-5.93461E-02-1.32421E-01-9.82537E-01
 -1      2638-2.29871E-02 5.14506E-02-9.92993E-01
 -1      2639 1.09687E-01 4.75667E-02-6.10313E-01
 -1      2640-4.10145E-02-9.57764E-02-9.02602E-01
 -1      2641-4.14891E-02-9.46964E-02-9.10571E-01
 -1      2642-1.03026E-01 8.62343E-03-9.86760E-01
 -1      2643-1.50605E-02 1.54537E-01-9.83796E-01
 -1      2644 8.18737E-02 8.78069E-02-6.72227E-01
 -1      2645-8.74932E-02 1.16435E-02-9.87920E-01
 -1      2646 5.02580E-02-1.21606E-01-9.38124E-01
 -1      2647-1.08015E-01-3.13373E-02-9.86684E-01
 -1      2648-6.06645E-02 7.37524E-02-9.89807E-01
 -1      2649-7.46660E-02 7.35039E-02-9.02481E-01
 -1      2650-7.52276E-02 7.31116E-02-9.09462E-01
 -1      2651 8.10949E-02-8.62645E-02-6.62396E-01
 -1      2652-6.78791E-02 2.97812E-02-9.38335E-01
 -1      2653 4.63632E-02-1.12378E-01-5.95966E-01
 -1      2654 4.58744E-02-1.12517E-01-5.94174E-01
 -1      2655 8.68925E-02-8.18915E-04-9.95580E-01
 -1      2656 9.25865E-03 4.57943E-02-8.44001E-01
 -1      2657 1.08928E-01-4.85529E-02-6.11829E-01
 -1      2658-1.01343E-01-1.18437E-03-9.88529E-01
 -1      2659-1.04845E-01 2.86977E-03-9.02016E-01
 -1      2660-1.04274E-01 2.11427E-03-9.05917E-01
 -1      2661-1.16445E-01-1.02168E-02-9.87212E-01
 -1      2662 1.17547E-01-4.34047E-04-6.76050E-01
 -1      2663-3.18328E-02 1.93408E-02-9.62557E-01
 -1      2664 1.19559E-01-8.00014E-05-6.11708E-01
 -1      2665 1.32570E-03-1.04639E-01-9.04477E-01
 -1      2666 1.78095E-03-1.05138E-01-9.10933E-01
 -1      2667 7.60287E-03-1.01375E-01-9.91453E-01
 -1      2668-5.17315E-04 3.57916E-02-9.68305E-01
 -1      2669-3.99201E-02 3.86122E-02-9.90186E-01
 -1      2670 8.47240E-02-8.55148E-02-9.88478E-01
 -1      2671 8.23894E-02 8.84101E-02-6.00084E-01
 -1      2672-6.28944E-02 4.51418E-03-9.90024E-01
 -1      2673-9.87532E-02 1.39453E-02-9.87200E-01
 -1      2674 5.80834E-02 1.49899E-03-9.96825E-01
 -1      2675 4.46167E-02 1.12188E-01-6.62572E-01
 -1      2676 4.63575E-02 1.13213E-01-5.99196E-01
 -1      2677-9.02852E-02 4.56535E-02-9.87437E-01
 -1      2678-4.61074E-02 1.11038E-01-6.00671E-01
 -1      2679-4.69039E-02 1.09486E-01-6.62862E-01
 -1      2680 1.29746E-01-1.38948E-02-9.91333E-01
 -1      2681-6.30546E-04-3.11374E-02-9.88957E-01
 -1      2682-8.89937E-02 2.73284E-02-9.88748E-01
 -1      2683-1.22036E-01 5.27460E-02-9.38266E-01
 -1      2684-1.08705E-02 4.70931E-02-8.16756E-01
 -1      2685-3.99204E-02-2.41808E-02-8.07405E-01
 -1      2686 2.25327E-02-5.01295E-02-9.54889E-01
 -1      2687-9.61856E-02-3.81322E-02-9.07964E-01
 -1      2688-9.60087E-02-3.93778E-02-9.06125E-01
 -1      2689 6.10758E-04 1.21548E-01-5.98155E-01
 -1      2690 1.03930E-01-4.12672E-02-9.93096E-01
 -1      2691 4.54626E-02 2.40654E-02-7.57554E-01
 -1      2692 4.84061E-02-2.42872E-02-9.96331E-01
 -1      2693-4.12252E-02-3.56788E-02-9.90723E-01
 -1      2694-7.37464E-02 5.09614E-04-9.39604E-01
 -1      2695 6.43038E-03-1.37155E-01-9.86619E-01
 -1      2696 1.29405E-01 1.54804E-02-9.88859E-01
 -1      2697 1.28465E-01-5.59700E-02-9.88100E-01
 -1      2698 2.65650E-03 9.26943E-02-9.93344E-01
 -1      2699-7.35780E-02-2.83956E-02-9.89191E-01
 -1      2700-1.46130E-01-3.44044E-03-9.80370E-01
 -1      2701-1.47859E-02 4.47772E-02-9.93457E-01
 -1      2702 3.36965E-02-8.66352E-02-9.92581E-01
 -1      2703-1.02372E-01-8.21169E-03-9.87926E-01
 -1      2704-8.61647E-02-2.49297E-02-9.88084E-01
 -1      2705-1.57114E-01 1.82516E-02-9.78479E-01
 -1      2706-1.20312E-01 1.35406E-02-9.85183E-01
 -1      2707-4.80353E-02-2.11232E-02-9.90780E-01
 -1      2708-4.67638E-02 1.11000E-01-9.89569E-01
 -1      2709-3.20689E-03-1.02080E-01-9.91190E-01
 -1      2710-3.73887E-02 3.58659E-02-7.21471E-01
 -1      2711-4.79662E-02-5.80583E-03-7.76807E-01
 -1      2712 6.48104E-02-8.09173E-02-9.91820E-01
 -1      2713-7.47942E-02-7.16060E-02-9.02999E-01
 -1      2714-7.37857E-02-7.24722E-02-9.07592E-01
 -1      2715 1.37734E-02-4.90543E-02-7.42218E-01
 -1      2716 4.70907E-02 1.14276E-02-8.16932E-01
 -1      2717-6.48026E-02 1.35931E-01-9.84776E-01
 -1      2718-1.02244E-01 2.82646E-02-9.87229E-01
 -1      2719-1.16428E-01 2.41450E-03-9.40803E-01
 -1      2720 1.82714E-02-3.09297E-02-9.81450E-01
 -1      2721 4.00676E-02 9.79990E-02-9.12619E-01
 -1      2722 4.09059E-02 9.76144E-02-9.07113E-01
 -1      2723-5.22628E-02 5.17788E-02-9.39376E-01
 -1      2724 3.88736E-02 1.30971E-03-9.71238E-01
 -1      2725 2.63618E-02-1.68785E-02-9.96569E-01
 -1      2726 1.27538E-01 5.74773E-05-9.45007E-01
 -1      2727-4.55831E-02 7.04017E-03-8.22009E-01
 -1      2728-6.00441E-02-5.76727E-02-9.45589E-01
 -1      2729 4.87965E-02-9.04269E-02-9.91321E-01
 -1      2730-4.16953E-02 9.72046E-02-9.04824E-01
 -1      2731-4.08160E-02 9.69811E-02-9.09264E-01
 -1      2732-4.29379E-04 1.06334E-01-9.11670E-01
 -1      2733-8.42022E-04 1.05142E-01-9.11084E-01
 -1      2734 4.32025E-02-1.45402E-02-9.96285E-01
 -1      2735 9.56758E-02 4.13727E-02-9.10329E-01
 -1      2736 9.50690E-02 4.01370E-02-9.15246E-01
 -1      2737 4.69659E-02-1.12050E-01-9.49113E-01
 -1      2738 3.74094E-02-7.12762E-02-9.92875E-01
 -1      2739 9.80299E-03 1.08484E-01-9.91915E-01
 -1      2740-6.25990E-02-3.19620E-02-9.90313E-01
 -1      2741-1.66925E-02-2.47282E-02-7.96593E-01
 -1      2742 4.07141E-02-3.71261E-02-9.94811E-01
 -1      2743-4.34938E-02-1.25464E-02-9.89253E-01
 -1      2744 3.04551E-02 7.81116E-03-8.07289E-01
 -1      2745 5.31157E-02 7.43051E-03-7.03295E-01
 -1      2746-2.82321E-02 4.99836E-02-9.92039E-01
 -1      2747-1.23683E-01-4.96383E-02-9.37387E-01
 -1      2748 5.09039E-02-1.13850E-02-7.29618E-01
 -1      2749 2.88391E-02 6.62321E-02-9.44849E-01
 -1      2750 2.35227E-02-7.14237E-02-9.93290E-01
 -1      2751-3.94140E-02-3.00897E-02-7.54438E-01
 -1      2752 3.33777E-02-1.06459E-01-9.89204E-01
 -1      2753-3.02218E-02-4.35743E-02-6.82592E-01
 -1      2754-3.47725E-02 6.59198E-02-9.91605E-01
 -1      2755-5.58044E-02 4.86551E-02-9.89865E-01
 -1      2756 1.27255E-02 2.15344E-02-1.00083E+00
 -1      2757 8.47977E-04-7.30887E-02-9.42358E-01
 -1      2758 7.70522E-02-7.16650E-02-9.91531E-01
 -1      2759 4.36139E-02-2.74513E-02-7.32164E-01
 -1      2760-6.92082E-03-5.15679E-02-7.19753E-01
 -1      2761-3.86318E-03-4.81948E-02-7.97814E-01
 -1      2762-2.96332E-02 6.87484E-03-7.92810E-01
 -1      2763-1.64587E-02-5.40749E-02-4.56734E-01
 -1      2764 5.01467E-02 7.82435E-03-7.74149E-01
 -1      2765-1.32482E-02-1.33937E-01-9.87685E-01
 -1      2766-6.38272E-03 3.05356E-02-7.99021E-01
 -1      2767 1.18407E-01 3.78857E-02-9.91823E-01
 -1      2768-2.80698E-02 6.67543E-02-9.43675E-01
 -1      2769-2.52477E-02-4.16448E-02-8.02108E-01
 -1      2770-1.26572E-01 4.03802E-02-9.83381E-01
 -1      2771 8.67893E-02 4.35831E-05-9.49923E-01
 -1      2772-1.19832E-01 3.38962E-02-9.83455E-01
 -1      2773-1.78314E-02 3.07097E-02-9.70363E-01
 -1      2774-4.59912E-02 1.12026E-02-7.90518E-01
 -1      2775-2.02647E-02-1.51870E-01-9.84057E-01
 -1      2776-4.77085E-02 1.39990E-02-7.45573E-01
 -1      2777 2.50744E-02-1.79805E-02-8.01697E-01
 -1      2778-2.96388E-02 4.41778E-02-7.06954E-01
 -1      2779-2.44835E-02 4.17661E-02-8.13428E-01
 -1      2780 4.00046E-02-2.82087E-02-7.89936E-01
 -1      2781 9.51085E-02 1.09520E-01-9.87454E-01
 -1      2782 8.08140E-02 2.59024E-02-9.94493E-01
 -1      2783 1.06711E-01 3.17156E-02-9.93620E-01
 -1      2784 1.30261E-01 3.50901E-04-9.46193E-01
 -1      2785 8.79223E-02 8.48072E-03-9.95159E-01
 -1      2786 2.44565E-02-4.33153E-02-7.56666E-01
 -1      2787 1.32829E-01 5.44583E-03-9.65094E-01
 -1      2788 6.15321E-02-1.18763E-01-9.88729E-01
 -1      2789-6.59336E-02-6.47709E-02-9.43700E-01
 -1      2790-7.17376E-02-8.30784E-02-9.87404E-01
 -1      2791 7.49561E-02 1.56198E-03-9.95816E-01
 -1      2792-6.58612E-02-6.16431E-02-9.89148E-01
 -1      2793-5.31362E-02 5.32343E-02-9.43865E-01
 -1      2794 3.04710E-02-3.27076E-03-1.00284E+00
 -1      2795-1.33187E-01-1.04469E-02-9.82902E-01
 -1      2796 6.36244E-02-3.48811E-02-9.95882E-01
 -1      2797-2.90224E-02-6.70614E-02-9.40113E-01
 -1      2798 3.79922E-02-2.18262E-02-9.95860E-01
 -1      2799-7.82025E-02 9.02968E-02-9.87963E-01
 -1      2800 1.24485E-01-4.22683E-02-9.89079E-01
 -1      2801 6.73149E-02-5.56887E-02-9.93735E-01
 -1      2802 5.22388E-02-4.75262E-02-9.94744E-01
 -1      2803 4.64578E-02 1.02111E-01-9.93537E-01
 -1      2804 7.45774E-02-9.24028E-02-9.90828E-01
 -1      2805 4.19650E-02 2.61419E-02-8.08095E-01
 -1      2806-8.33071E-02-9.93543E-02-9.84012E-01
 -1      2807 2.01963E-03-1.22733E-02-1.02212E+00
 -1      2808-6.54591E-02-2.60120E-02-9.41338E-01
 -1      2809-6.74758E-03 8.16970E-02-9.93769E-01
 -1      2810 7.27318E-02-7.56500E-02-9.05041E-01
 -1      2811 7.23700E-02-7.62340E-02-9.13224E-01
 -1      2812 7.85702E-02-7.92757E-02-9.49472E-01
 -1      2813 1.19038E-01 5.01895E-02-9.43706E-01
 -1      2814 6.49690E-02 2.90711E-02-9.47930E-01
 -1      2815-1.03853E-01 9.83679E-02-9.84023E-01
 -1      2816 2.92827E-03-5.35997E-02-9.93011E-01
 -1      2817 7.27331E-02 7.47360E-02-9.15254E-01
 -1      2818 7.32966E-02 7.47355E-02-9.13821E-01
 -1      2819-1.16492E-02 1.39647E-01-9.87300E-01
 -1      2820 9.97210E-02-1.08323E-01-9.84887E-01
 -1      2821 1.22544E-01 1.76171E-02-9.90915E-01
 -1      2822-5.84916E-02-2.02357E-02-9.89863E-01
 -1      2823 2.59029E-02-8.76191E-02-9.91636E-01
 -1      2824 9.97000E-02 1.42844E-02-9.94372E-01
 -1      2825 1.40506E-02 9.78048E-02-9.92008E-01
 -1      2826 7.61855E-02 6.64333E-02-9.93109E-01
 -1      2827 2.88623E-02 9.12466E-02-9.93317E-01
 -1      2828-2.32778E-03 1.77654E-02-1.02186E+00
 -1      2829 3.93500E-02 3.67457E-02-9.94622E-01
 -1      2830 8.23493E-03-8.43154E-02-9.92012E-01
 -1      2831-9.40329E-02-2.56912E-03-9.56526E-01
 -1      2832-2.15072E-02-5.04558E-02-9.91248E-01
 -1      2833 1.15596E-01 4.50130E-02-9.64405E-01
 -1      2834 1.18678E-01 1.02135E-01-9.85227E-01
 -1      2835 9.22021E-02 4.20288E-02-9.93799E-01
 -1      2836-5.12083E-02 1.20194E-01-9.38914E-01
 -1      2837-3.43094E-02-6.53732E-02-9.90679E-01
 -1      2838 8.43729E-03-1.54168E-01-9.82499E-01
 -1      2839 4.96172E-02 5.16307E-02-9.46456E-01
 -1      2840-2.05093E-02 1.44687E-01-9.85303E-01
 -1      2841 8.91294E-02-4.74920E-02-9.93293E-01
 -1      2842 7.05404E-02-4.59072E-04-9.49376E-01
 -1      2843 6.63766E-02-9.04880E-02-9.90890E-01
 -1      2844 6.77183E-02 2.79891E-02-9.46795E-01
 -1      2845 1.05096E-02-7.82562E-03-1.02075E+00
 -1      2846 8.96113E-02-1.21609E-01-9.84451E-01
 -1      2847-4.14584E-03 5.20621E-02-7.32804E-01
 -1      2848-1.00221E-01 1.16886E-01-9.80792E-01
 -1      2849 5.15940E-02-5.29248E-02-9.42585E-01
 -1      2850-4.25031E-02-1.30497E-01-9.84909E-01
 -1      2851-4.99923E-02 2.39770E-02-9.90393E-01
 -1      2852-7.88155E-02 7.32070E-02-9.88301E-01
 -1      2853-1.11511E-04 7.51563E-02-9.46672E-01
 -1      2854-3.21422E-02-1.15967E-02-9.69048E-01
 -1      2855-1.66513E-03 1.72561E-01-9.45978E-01
 -1      2856 5.29616E-02-1.47111E-01-9.82944E-01
 -1      2857 5.16134E-02-3.02421E-02-9.95989E-01
 -1      2858 1.19566E-01-5.36819E-02-9.46066E-01
 -1      2859 3.58310E-02 1.12037E-01-9.91077E-01
 -1      2860 5.51496E-02 4.82368E-02-9.95379E-01
 -1      2861 1.08953E-01 1.47042E-05-9.59697E-01
 -1      2862 4.42922E-02 5.03446E-03-9.96105E-01
 -1      2863 4.62871E-02-4.94464E-02-9.94592E-01
 -1      2864 1.42103E-01-2.00024E-02-9.89103E-01
 -1      2865 6.66048E-03-1.17795E-02-1.01804E+00
 -1      2866 4.47592E-02 8.66961E-02-9.93750E-01
 -1      2867 6.54288E-02-1.60119E-01-9.44076E-01
 -1      2868 5.58982E-03-4.28868E-02-9.93219E-01
 -1      2869-5.06113E-02-1.05386E-03-9.89785E-01
 -1      2870-2.50696E-02-2.26711E-02-9.73974E-01
 -1      2871-1.02655E-01-4.15787E-02-9.44080E-01
 -1      2872 9.37234E-02 7.92056E-02-9.91879E-01
 -1      2873-1.02886E-01 5.86175E-02-9.85429E-01
 -1      2874-4.69397E-02-9.01255E-02-9.88719E-01
 -1      2875 1.14313E-01-3.49627E-02-9.92231E-01
 -1      2876-9.94697E-02-2.40991E-02-9.87581E-01
 -1      2877-4.58050E-02 1.69621E-02-9.90207E-01
 -1      2878-1.06638E-02 3.98704E-03-1.02405E+00
 -1      2879-3.59301E-03 4.58590E-02-9.94400E-01
 -1      2880-1.96996E-02 6.48830E-02-9.93254E-01
 -1      2881-3.64070E-02 9.70383E-02-9.89988E-01
 -1      2882 1.12827E-04-1.29974E-01-9.39286E-01
 -1      2883 1.25219E-01-3.41781E-02-9.90201E-01
 -1      2884 4.99913E-02 5.08740E-02-9.47266E-01
 -1      2885 9.36930E-03 5.02359E-02-7.32647E-01
 -1      2886 4.89260E-02 1.48514E-01-9.86258E-01
 -1      2887 4.97845E-02-4.99505E-02-9.41180E-01
 -1      2888 3.88084E-02-9.81674E-02-9.54896E-01
 -1      2889 8.48753E-02-3.63636E-02-9.53464E-01
 -1      2890 1.93285E-02-4.01058E-02-9.93660E-01
 -1      2891-7.40085E-02-2.18305E-02-9.89171E-01
 -1      2892-8.80230E-02-4.48453E-03-9.88612E-01
 -1      2893 5.35824E-03-1.53134E-02-1.00922E+00
 -1      2894 2.92767E-02 3.62309E-02-9.94294E-01
 -1      2895 9.07278E-02 5.16154E-03-9.71799E-01
 -1      2896 7.74636E-02 1.00313E-02-9.95667E-01
 -1      2897 1.63640E-01 2.27848E-03-9.67499E-01
 -1      2898 1.42900E-01-5.21241E-02-9.84978E-01
 -1      2899-5.93036E-02-1.12665E-01-9.86563E-01
 -1      2900-1.58644E-02 1.30440E-01-9.87088E-01
 -1      2901 9.98010E-02-1.09695E-03-9.58946E-01
 -1      2902 1.60655E-03-1.33821E-01-9.41213E-01
 -1      2903 5.46300E-02 9.87519E-02-9.91518E-01
 -1      2904 7.93083E-02-6.19017E-02-9.92560E-01
 -1      2905-5.98037E-02-3.56969E-02-9.89924E-01
 -1      2906-5.53426E-02-6.28621E-03-9.89471E-01
 -1      2907-5.10435E-02 1.45898E-01-9.83763E-01
 -1      2908-2.75901E-03-4.55030E-02-9.92650E-01
 -1      2909 5.75832E-02-1.63409E-01-9.63293E-01
 -1      2910-3.15129E-03-6.59079E-02-9.93953E-01
 -1      2911 3.18081E-02-3.44537E-02-9.94398E-01
 -1      2912-3.17460E-02 3.89783E-02-9.91559E-01
 -1      2913 8.82196E-02-1.03698E-01-9.88270E-01
 -1      2914 6.13601E-02-4.76112E-02-9.94319E-01
 -1      2915-3.74852E-02 1.14384E-01-9.88649E-01
 -1      2916-4.10513E-02 1.32154E-01-9.86452E-01
 -1      2917 2.55020E-02 4.96702E-02-9.94461E-01
 -1      2918-4.53297E-02 4.85513E-02-9.90642E-01
 -1      2919-7.02076E-02 5.92607E-02-9.89540E-01
 -1      2920-8.00140E-02 8.14719E-02-9.44816E-01
 -1      2921-1.15158E-01-1.35404E-03-9.60092E-01
 -1      2922-7.58801E-03 1.04213E-02-1.02227E+00
 -1      2923-9.26858E-03-8.17219E-02-9.92721E-01
 -1      2924 7.93120E-02-1.05319E-01-9.88646E-01
 -1      2925 1.36775E-04-9.35504E-02-9.48327E-01
 -1      2926 3.82865E-02-4.86098E-02-9.93916E-01
 -1      2927-7.41563E-04 1.33375E-01-9.41682E-01
 -1      2928 1.96102E-02-1.50908E-01-9.83179E-01
 -1      2929 1.20755E-01 5.02937E-02-9.45117E-01
 -1      2930-7.88720E-02-4.05503E-02-9.88865E-01
 -1      2931 1.06028E-01-4.32653E-02-9.63583E-01
 -1      2932 3.47482E-02-2.81490E-02-9.95009E-01
 -1      2933 1.30562E-02 1.61262E-01-9.82522E-01
 -1      2934-2.82245E-02-3.32257E-02-9.90677E-01
 -1      2935 2.81476E-02 6.93819E-02-9.44976E-01
 -1      2936-5.11589E-02-4.68921E-02-9.62387E-01
 -1      2937 6.16770E-02-6.01507E-02-9.61404E-01
 -1      2938-3.26467E-02 1.31066E-01-9.87308E-01
 -1      2939 4.02161E-02 1.34608E-01-9.87933E-01
 -1      2940 4.99762E-02-2.27380E-02-9.57559E-01
 -1      2941-2.00805E-03 7.20718E-02-9.44841E-01
 -1      2942-1.80806E-02 9.54373E-04-1.01077E+00
 -1      2943-5.20658E-02-6.08720E-02-9.89787E-01
 -1      2944-5.99759E-03 6.49506E-02-9.93979E-01
 -1      2945 5.04961E-02 1.23767E-01-9.42606E-01
 -1      2946-1.38117E-02-1.61651E-01-9.81371E-01
 -1      2947 7.40239E-03 8.01711E-02-9.94262E-01
 -1      2948 5.04474E-02 1.20842E-01-9.41373E-01
 -1      2949-2.27130E-02 3.23756E-02-9.90792E-01
 -1      2950 7.41279E-02-1.42649E-01-9.81062E-01
 -1      2951 4.37258E-02 5.00634E-02-9.95291E-01
 -1      2952 5.42779E-02 2.27611E-03-9.59282E-01
 -1      2953-7.56209E-02 4.17941E-02-9.89128E-01
 -1      2954-1.03408E-01 1.04153E-01-9.47690E-01
 -1      2955-4.06159E-02 1.49121E-01-9.83956E-01
 -1      2956 1.04103E-01-9.26948E-02-9.86890E-01
 -1      2957-8.22005E-02 7.97323E-02-9.40430E-01
 -1      2958 5.63451E-02 1.19687E-01-9.63650E-01
 -1      2959 5.97698E-02-1.36802E-01-9.54593E-01
 -1      2960 7.12010E-02 5.76449E-02-9.93648E-01
 -1      2961 6.84273E-02-5.31011E-03-9.96674E-01
 -1      2962 3.07459E-02-5.37099E-02-9.93162E-01
 -1      2963 3.52775E-02 7.47509E-03-9.80057E-01
 -1      2964 1.12227E-01-1.14905E-02-9.93613E-01
 -1      2965-4.20593E-02 9.26303E-02-9.91049E-01
 -1      2966 7.68579E-02 7.79052E-02-9.50911E-01
 -1      2967-7.14814E-02-1.16758E-01-9.84298E-01
 -1      2968 1.54093E-01-6.81949E-02-9.48095E-01
 -1      2969-2.81046E-02 6.88839E-02-9.41726E-01
 -1      2970 5.07129E-02 6.63292E-02-9.93946E-01
 -1      2971-1.37834E-01 8.91129E-03-9.83498E-01
 -1      2972-1.34034E-01 1.96590E-02-9.82345E-01
 -1      2973 1.28585E-01 5.98093E-02-9.88835E-01
 -1      2974 8.20766E-03-3.03374E-02-7.96645E-01
 -1      2975-4.50216E-04-6.59478E-02-9.23482E-01
 -1      2976-5.15457E-02-1.18746E-01-9.36687E-01
 -1      2977 5.08894E-02 2.07377E-02-9.95900E-01
 -1      2978-6.21396E-02 3.48074E-02-9.90438E-01
 -1      2979-1.31879E-01 2.57418E-03-9.36494E-01
 -1      2980-8.77297E-02-3.34119E-02-9.43353E-01
 -1      2981-8.38343E-02 6.60882E-02-9.87595E-01
 -1      2982 6.59707E-02 5.04011E-02-9.94491E-01
 -1      2983-1.80432E-03 1.30910E-01-9.43192E-01
 -1      2984 3.52225E-02-1.21620E-01-9.87477E-01
 -1      2985-3.91256E-02-4.62489E-02-9.90703E-01
 -1      2986-3.71990E-02-1.20374E-01-9.86657E-01
 -1      2987-5.14693E-04-1.71688E-01-9.44684E-01
 -1      2988-6.65706E-03 1.04808E-01-9.92536E-01
 -1      2989-4.97011E-02 6.22264E-02-9.91048E-01
 -1      2990 4.45690E-02-1.45834E-01-9.83591E-01
 -1      2991 5.62780E-02-1.20876E-01-9.63472E-01
 -1      2992 5.02882E-02-2.62274E-03-7.66007E-01
 -1      2993-4.12732E-02 7.82161E-02-9.91748E-01
 -1      2994 1.53488E-02-4.22425E-02-9.93102E-01
 -1      2995 9.50725E-02-8.17873E-02-9.90160E-01
 -1      2996-6.95864E-02 4.24629E-02-9.89110E-01
 -1      2997-1.44041E-03 1.34508E-01-9.88442E-01
 -1      2998-2.58476E-03 1.39362E-02-1.02612E+00
 -1      2999 9.73043E-02-1.11706E-02-9.94795E-01
 -1      3000-6.16988E-02 2.45706E-02-9.90141E-01
 -1      3001-6.33618E-02-7.12217E-02-9.88118E-01
 -1      3002-1.30407E-02-7.99267E-02-9.92233E-01
 -1      3003 6.58474E-02 2.06151E-02-9.95322E-01
 -1      3004 6.89452E-02 7.29590E-02-9.93606E-01
 -1      3005 6.20163E-02-2.29695E-02-9.96819E-01
 -1      3006-9.27979E-03 3.70065E-02-9.93711E-01
 -1      3007-8.89037E-03 7.59615E-02-9.93319E-01
 -1      3008 1.06435E-01-8.28583E-03-9.72858E-01
 -1      3009 9.79927E-02 1.25522E-01-9.83750E-01
 -1      3010-6.71584E-02 6.47853E-02-9.56403E-01
 -1      3011-7.55648E-02 2.62564E-02-9.89286E-01
 -1      3012-3.31400E-02 5.17829E-03-9.75908E-01
 -1      3013-4.56645E-02 1.21972E-01-9.61974E-01
 -1      3014-4.25749E-02 2.68153E-02-7.44654E-01
 -1      3015 8.99777E-02-9.41740E-02-9.39168E-01
 -1      3016-1.00032E-02-1.27987E-02-1.02722E+00
 -1      3017 3.46054E-02 6.48013E-02-9.94513E-01
 -1      3018 1.43256E-02 2.37861E-03-1.01985E+00
 -1      3019 5.63637E-02-1.01616E-01-9.90814E-01
 -1      3020-6.29399E-02 3.01940E-02-9.61110E-01
 -1      3021 5.79018E-02-1.67705E-02-9.96474E-01
 -1      3022-3.92622E-02 5.00934E-02-9.91760E-01
 -1      3023-8.46330E-02-2.62508E-02-9.62871E-01
 -1      3024-9.04492E-02 1.53181E-02-9.87760E-01
 -1      3025 3.88860E-02 9.48684E-02-9.56671E-01
 -1      3026 7.20739E-02-1.32049E-01-9.84405E-01
 -1      3027-5.29554E-02-1.20935E-01-9.41014E-01
 -1      3028 5.14356E-02-6.37609E-02-9.92583E-01
 -1      3029-5.42213E-02-1.89147E-02-9.45265E-01
 -1      3030 1.00918E-01 5.53068E-02-9.93365E-01
 -1      3031-9.10865E-02 8.38863E-02-9.85308E-01
 -1      3032-2.32563E-02 5.15535E-02-9.62766E-01
 -1      3033 7.10055E-02-7.51996E-02-9.54416E-01
 -1      3034-1.10022E-01-2.52338E-02-9.86784E-01
 -1      3035 1.00744E-02-1.70776E-01-9.63139E-01
 -1      3036-5.74137E-02-9.80585E-02-9.87568E-01
 -1      3037-9.59144E-02 8.74083E-02-9.57873E-01
 -1      3038-4.42569E-02 2.54163E-03-9.90269E-01
 -1      3039 8.28001E-02-7.87016E-03-9.96436E-01
 -1      3040-5.17952E-02 5.75291E-03-9.89634E-01
 -1      3041-4.50742E-03 3.89853E-02-9.93319E-01
 -1      3042-5.98154E-02-1.40773E-02-9.89641E-01
 -1      3043-3.63833E-02 1.09582E-02-9.89050E-01
 -1      3044-4.30348E-02 5.89032E-02-9.91133E-01
 -1      3045-1.47278E-01 5.16991E-02-9.79674E-01
 -1      3046-9.21098E-02 1.04682E-01-9.83628E-01
 -1      3047-7.14021E-02-2.79740E-03-9.89292E-01
 -1      3048-1.23132E-01-3.69537E-02-9.84232E-01
 -1      3049-9.29764E-02 2.61172E-03-9.44189E-01
 -1      3050-2.68155E-02 8.43185E-02-9.92490E-01
 -1      3051-1.52213E-02 5.87835E-02-9.92995E-01
 -1      3052-3.71011E-02-9.31027E-02-9.90486E-01
 -1      3053-4.36612E-02 1.02049E-01-9.46403E-01
 -1      3054 6.40908E-02 6.24466E-02-9.64283E-01
 -1      3055 3.77878E-02-1.39132E-01-9.85669E-01
 -1      3056 4.47816E-02-2.64149E-03-9.97660E-01
 -1      3057-9.52590E-02-9.22305E-02-9.40490E-01
 -1      3058-2.36902E-02-1.60423E-01-9.80621E-01
 -1      3059-6.49509E-02 8.38953E-03-9.89469E-01
 -1      3060-3.10942E-02-4.09489E-02-9.90524E-01
 -1      3061-1.27736E-01-1.53733E-02-9.84742E-01
 -1      3062 9.05353E-02-7.11750E-02-9.91413E-01
 -1      3063 2.00536E-02-3.48476E-02-9.92786E-01
 -1      3064-3.81108E-02 4.13403E-02-9.61613E-01
 -1      3065 1.27891E-01-6.12338E-03-9.66244E-01
 -1      3066-2.40011E-02 1.55332E-01-9.83823E-01
 -1      3067 7.81273E-02-4.12572E-02-9.94834E-01
 -1      3068 9.13348E-02 9.43596E-02-9.42870E-01
 -1      3069 3.91223E-02-6.50899E-02-9.93049E-01
 -1      3070-5.00045E-02-2.08247E-02-9.61198E-01
 -1      3071 6.19512E-02 1.12829E-01-9.89954E-01
 -1      3072-3.51968E-02-1.32868E-01-9.85328E-01
 -1      3073-8.15484E-02-1.72655E-02-9.88776E-01
 -1      3074-1.93860E-02-3.82443E-02-9.91282E-01
 -1      3075-5.50478E-02-9.08249E-02-9.88331E-01
 -1      3076 1.22246E-02 1.28977E-01-9.90793E-01
 -1      3077-1.03495E-01-9.87905E-02-9.80963E-01
 -1      3078-5.46516E-02-1.36878E-01-9.57407E-01
 -1      3079-7.93827E-02-8.19034E-02-9.56493E-01
 -1      3080 8.11126E-02 1.02643E-01-9.88969E-01
 -1      3081 4.69648E-02-3.70315E-02-9.95051E-01
 -1      3082-3.01823E-02 4.19875E-02-9.91379E-01
 -1      3083-8.13162E-02-3.47012E-02-9.58459E-01
 -1      3084 4.43611E-02-5.95518E-02-9.93028E-01
 -1      3085 4.11372E-02 2.23795E-02-9.95446E-01
 -1      3086 2.57437E-02-1.07263E-01-9.89506E-01
 -1      3087 5.48557E-02-6.01046E-02-9.63874E-01
 -1      3088-9.04589E-03 1.59929E-02-1.01916E+00
 -1      3089-6.77082E-03-5.98168E-02-9.92749E-01
 -1      3090-8.08378E-02 1.07238E-01-9.85295E-01
 -1      3091-3.97017E-02-3.97555E-02-9.52217E-01
 -1      3092 4.31469E-02-2.74677E-02-9.95761E-01
 -1      3093 4.33910E-02 7.49769E-02-9.94138E-01
 -1      3094 1.37040E-01-7.63864E-02-9.84214E-01
 -1      3095-9.69039E-02 7.47770E-02-9.84989E-01
 -1      3096-1.50495E-01-1.86592E-02-9.80702E-01
 -1      3097-1.23869E-02 4.06425E-02-9.26543E-01
 -1      3098 1.43804E-02-9.86214E-02-9.91163E-01
 -1      3099-6.30143E-02 1.18384E-01-9.87124E-01
 -1      3100 1.05590E-01-1.70079E-02-9.93673E-01
 -1      3101 4.76179E-02 4.49623E-02-9.67684E-01
 -1      3102 1.22662E-01-1.75566E-02-9.92046E-01
 -1      3103-2.29787E-02-7.60377E-02-9.92096E-01
 -1      3104 8.98858E-02-2.95753E-02-9.94634E-01
 -1      3105 7.63105E-02-2.12677E-02-9.95164E-01
 -1      3106-4.68554E-02 3.86388E-02-9.90400E-01
 -1      3107-5.57488E-02 4.35105E-02-9.89653E-01
 -1      3108-1.32435E-01 3.46475E-02-9.82536E-01
 -1      3109-5.62105E-02 1.02215E-01-9.88396E-01
 -1      3110-9.09389E-02-9.48548E-03-9.88787E-01
 -1      3111-5.13310E-02 4.82474E-02-9.61349E-01
 -1      3112-4.74093E-02-1.47579E-01-9.83591E-01
 -1      3113-3.62393E-02-8.56768E-02-9.47688E-01
 -1      3114 8.59104E-02-2.28700E-02-9.94881E-01
 -1      3115-7.45537E-02 3.77758E-03-9.60176E-01
 -1      3116-6.63818E-02-1.05975E-01-9.86028E-01
 -1      3117 1.35318E-01-4.19825E-02-9.86807E-01
 -1      3118 5.87317E-02 7.81175E-02-9.93314E-01
 -1      3119-9.43441E-02 8.86348E-03-9.63543E-01
 -1      3120 1.62787E-02 4.57835E-02-9.94488E-01
 -1      3121-1.02802E-01 4.29466E-02-9.54764E-01
 -1      3122-4.98010E-03 6.99709E-02-9.66195E-01
 -1      3123 8.26719E-02-9.29181E-02-9.60945E-01
 -1      3124 2.25551E-03 4.49283E-02-9.94615E-01
 -1      3125 5.76125E-02-6.76095E-03-9.97018E-01
 -1      3126-6.16611E-02-1.34108E-01-9.53909E-01
 -1      3127 4.00054E-02-4.52708E-02-9.67402E-01
 -1      3128 4.92758E-02-1.30810E-02-9.96291E-01
 -1      3129 1.17620E-01-1.23485E-01-9.50098E-01
 -1      3130 6.66260E-02-1.93067E-02-9.96178E-01
 -1      3131-1.94424E-02 5.23719E-02-9.62044E-01
 -1      3132-4.97394E-02 1.41498E-02-9.89774E-01
 -1      3133-1.01139E-01-6.26041E-03-9.67408E-01
 -1      3134 8.86660E-02 6.84952E-02-9.92488E-01
 -1      3135 6.17870E-02 1.05195E-01-9.90299E-01
 -1      3136 2.90569E-02 7.70136E-02-9.65680E-01
 -1      3137 5.97072E-02-3.74688E-02-9.95058E-01
 -1      3138 4.57329E-02-1.59537E-01-9.81167E-01
 -1      3139-4.44336E-02-2.67167E-02-6.97478E-01
 -1      3140 2.28262E-02 7.09675E-02-9.94671E-01
 -1      3141 7.28978E-02-1.07855E-02-9.96626E-01
 -1      3142-1.11074E-02-1.14680E-01-9.89536E-01
 -1      3143 1.34509E-01-2.14643E-02-9.90435E-01
 -1      3144 2.85963E-02-4.24956E-02-7.11191E-01
 -1      3145 1.44501E-01 4.50727E-02-9.85456E-01
 -1      3146-4.51967E-02-1.62219E-01-9.80026E-01
 -1      3147-1.39518E-02-4.60784E-02-9.91686E-01
 -1      3148-9.14637E-02 1.18746E-01-9.81407E-01
 -1      3149 1.01657E-01-3.13733E-02-9.93381E-01
 -1      3150-7.23918E-02 1.48622E-01-9.81394E-01
 -1      3151-8.45099E-02 1.45100E-01-9.79583E-01
 -1      3152-2.81681E-02-5.15820E-02-9.91517E-01
 -1      3153-3.43566E-02-7.90764E-03-9.88341E-01
 -1      3154 9.65702E-02-2.58888E-02-9.94113E-01
 -1      3155 8.26545E-03-6.75771E-02-9.92437E-01
 -1      3156-1.19785E-01 5.13235E-02-9.35585E-01
 -1      3157-4.09010E-02-3.73724E-03-9.89483E-01
 -1      3158 1.06499E-02 1.41864E-01-9.87422E-01
 -1      3159-8.28083E-03-4.85254E-03-1.02339E+00
 -1      3160-1.16035E-02-9.81005E-02-9.91799E-01
 -1      3161-1.09025E-01-4.03547E-02-9.56141E-01
 -1      3162-1.61569E-03-5.94918E-02-9.55212E-01
 -1      3163 5.87968E-02 2.99998E-02-9.95946E-01
 -1      3164-6.78761E-02-8.22961E-03-9.89139E-01
 -1      3165 1.19719E-01 3.01371E-02-9.91852E-01
 -1      3166 7.41693E-03 5.71324E-02-9.94153E-01
 -1      3167 8.86449E-02 4.80012E-02-9.94465E-01
 -1      3168-8.99746E-02 9.35202E-02-9.60581E-01
 -1      3169 2.36667E-02 4.52253E-02-7.59052E-01
 -1      3170 4.03514E-02 1.38340E-02-9.95696E-01
 -1      3171 1.28934E-01-8.20040E-02-9.84470E-01
 -1      3172 9.35356E-02 3.96347E-02-9.44166E-01
 -1      3173 7.01110E-02 7.30177E-02-9.56008E-01
 -1      3174-8.01914E-02 2.34566E-02-9.88682E-01
 -1      3175 5.29056E-02 2.98093E-02-9.95503E-01
 -1      3176 7.14468E-02 3.00743E-03-9.70747E-01
 -1      3177-9.08696E-02-9.79976E-02-9.59088E-01
 -1      3178 6.84773E-03-5.58471E-02-9.93063E-01
 -1      3179 4.75081E-02-7.96217E-02-9.91715E-01
 -1      3180 1.06418E-01-5.68829E-02-9.91978E-01
 -1      3181-6.53868E-02-3.03386E-02-9.66059E-01
 -1      3182 9.86437E-02-6.05867E-02-9.91984E-01
 -1      3183 3.35772E-02-7.35983E-02-9.61437E-01
 -1      3184-7.97438E-02-9.24217E-02-9.66489E-01
 -1      3185 8.25492E-03 1.28636E-02-1.02029E+00
 -1      3186 6.16712E-02 7.43734E-03-9.97016E-01
 -1      3187 6.75691E-02 1.38601E-01-9.84264E-01
 -1      3188-6.39182E-02 5.35215E-02-9.68341E-01
 -1      3189 7.18438E-04-4.01610E-02-9.43659E-01
 -1      3190 5.12828E-04 1.50097E-01-9.57544E-01
 -1      3191 2.96262E-02 1.04733E-01-9.92198E-01
 -1      3192 3.05083E-03 1.70728E-01-9.60971E-01
 -1      3193 4.69214E-02 3.73229E-02-9.95386E-01
 -1      3194-6.52129E-02-6.40149E-02-6.61305E-01
 -1      3195-8.87662E-03-7.12331E-02-9.93135E-01
 -1      3196 9.05559E-02 1.43822E-02-9.95286E-01
 -1      3197 1.10111E-01-6.82945E-02-9.90686E-01
 -1      3198 7.14008E-02-1.22314E-01-9.86695E-01
 -1      3199 3.66968E-02-2.08968E-02-9.42913E-01
 -1      3200-5.69713E-02 1.32817E-01-9.41576E-01
 -1      3201 2.36812E-03-1.01833E-01-9.53982E-01
 -1      3202 4.83087E-02-1.01469E-01-9.65699E-01
 -1      3203 5.53738E-02-9.29380E-02-9.91247E-01
 -1      3204 5.94849E-02-1.74538E-03-9.69172E-01
 -1      3205 1.08157E-01-1.19090E-01-9.82219E-01
 -1      3206-7.59548E-02 1.28272E-01-9.83973E-01
 -1      3207 3.81074E-02-1.12127E-01-9.66427E-01
 -1      3208-6.83585E-02 8.68806E-02-9.88381E-01
 -1      3209-3.48824E-03-1.39402E-02-1.02114E+00
 -1      3210 1.11664E-01-1.27961E-01-9.60974E-01
 -1      3211-4.21389E-02-9.32208E-02-9.52028E-01
 -1      3212 1.35956E-01-6.01917E-02-9.45132E-01
 -1      3213 1.26789E-01-4.87576E-02-9.64245E-01
 -1      3214 3.02372E-02-3.84751E-02-9.93611E-01
 -1      3215-5.90424E-02 1.61759E-01-9.63922E-01
 -1      3216 1.37965E-01 7.61715E-02-9.86194E-01
 -1      3217-5.78651E-02 1.41067E-01-9.49419E-01
 -1      3218 5.55876E-02-7.61861E-02-9.91420E-01
 -1      3219 1.39658E-01 5.02500E-02-9.62321E-01
 -1      3220 9.04677E-02 3.48257E-02-9.62193E-01
 -1      3221 5.50623E-02 6.15690E-02-9.65324E-01
 -1      3222 3.78896E-02-4.86478E-03-9.96701E-01
 -1      3223-1.39501E-02 1.09690E-02-1.02277E+00
 -1      3224-1.20181E-01 6.19004E-02-9.82742E-01
 -1      3225-5.58753E-02 2.19333E-02-9.57958E-01
 -1      3226-4.72819E-02 1.39257E-01-9.64541E-01
 -1      3227-1.72388E-01 4.69913E-03-9.42216E-01
 -1      3228 3.00309E-02 6.37444E-02-9.66817E-01
 -1      3229-1.95501E-02 7.51737E-02-9.92998E-01
 -1      3230 1.07854E-01 9.11697E-02-9.89224E-01
 -1      3231-7.05392E-02-3.84475E-02-9.89561E-01
 -1      3232 7.21014E-02-4.39193E-02-9.94549E-01
 -1      3233 5.14443E-02-1.40794E-01-9.53858E-01
 -1      3234 5.30193E-02-2.09713E-02-9.56684E-01
 -1      3235 7.79549E-02 3.92959E-02-9.95426E-01
 -1      3236 3.66433E-02 4.92452E-02-9.93997E-01
 -1      3237 1.96450E-02-5.59104E-02-9.93326E-01
 -1      3238-7.55962E-02-1.30823E-01-9.81064E-01
 -1      3239-4.40614E-02-7.76830E-02-9.89321E-01
 -1      3240-7.11149E-02-1.71464E-02-9.89438E-01
 -1      3241 3.61570E-03 1.27936E-02-1.01809E+00
 -1      3242 2.92200E-02-7.19655E-02-9.59456E-01
 -1      3243 9.91245E-02-1.28340E-01-9.80994E-01
 -1      3244-9.70899E-02-4.58218E-02-9.87443E-01
 -1      3245-1.64789E-02-2.12509E-03-1.01498E+00
 -1      3246-8.66381E-03 1.45064E-01-9.59260E-01
 -1      3247-8.51990E-02-6.94965E-02-9.86863E-01
 -1      3248-1.01901E-01-8.33443E-02-9.84413E-01
 -1      3249-1.32709E-01-5.75963E-02-9.80830E-01
 -1      3250-1.18530E-01-6.08584E-02-9.84397E-01
 -1      3251 4.47502E-02-4.11470E-02-9.64163E-01
 -1      3252-7.94527E-03 5.01907E-02-7.73258E-01
 -1      3253-1.33997E-02 1.72800E-01-9.64552E-01
 -1      3254 7.90887E-02 3.78206E-02-9.64951E-01
 -1      3255-1.20340E-02 1.61305E-01-9.62066E-01
 -1      3256-8.36410E-02 5.05646E-02-9.87624E-01
 -1      3257-5.38918E-02-1.11795E-01-9.58202E-01
 -1      3258-1.44204E-01-4.41489E-02-9.80498E-01
 -1      3259-6.20800E-02-7.65485E-02-9.88577E-01
 -1      3260-1.02376E-02-3.74359E-02-9.91043E-01
 -1      3261 4.45911E-03-1.49432E-01-9.55858E-01
 -1      3262-7.57413E-02-9.43791E-02-9.85370E-01
 -1      3263 7.49618E-02 2.17562E-02-9.95069E-01
 -1      3264 9.51271E-02 2.57501E-02-9.93759E-01
 -1      3265 1.34341E-01-8.63077E-02-9.82230E-01
 -1      3266 1.12144E-02-1.33724E-02-1.01302E+00
 -1      3267-1.38915E-01-3.43247E-02-9.82363E-01
 -1      3268-1.41044E-01-5.28308E-02-9.53034E-01
 -1      3269-3.29737E-03-7.99335E-02-9.65263E-01
 -1      3270 6.69928E-02-1.08765E-01-9.88054E-01
 -1      3271-1.44526E-01 8.76095E-04-9.49591E-01
 -1      3272 1.47534E-01-1.16887E-03-9.57968E-01
 -1      3273 1.75292E-02 1.18904E-01-9.90975E-01
 -1      3274 2.09271E-02-8.01576E-02-9.92161E-01
 -1      3275 9.54062E-02 9.48017E-02-9.60937E-01
 -1      3276 8.00598E-02-3.53735E-02-9.56359E-01
 -1      3277-3.19700E-03-1.51217E-01-9.57541E-01
 -1      3278-7.29893E-02 1.20712E-01-9.85055E-01
 -1      3279-4.64154E-02 2.78904E-02-9.90131E-01
 -1      3280 3.30456E-02 1.25109E-01-9.88817E-01
 -1      3281-2.75204E-02 2.63772E-02-9.90311E-01
 -1      3282 4.29112E-03 6.54630E-02-9.94241E-01
 -1      3283 2.48092E-02-4.44501E-02-9.93257E-01
 -1      3284 5.57527E-02 2.03930E-02-9.66441E-01
 -1      3285 2.93362E-02-5.81896E-02-9.69448E-01
 -1      3286 1.17221E-01 6.20990E-02-9.90223E-01
 -1      3287 8.24812E-02 9.08976E-02-9.63423E-01
 -1      3288 8.00124E-02 6.19702E-02-9.93295E-01
 -1      3289 2.31170E-02 8.28024E-02-9.93621E-01
 -1      3290 7.78164E-02-4.03990E-03-9.72653E-01
 -1      3291 5.33925E-02 1.72898E-02-9.95601E-01
 -1      3292 6.94173E-02 1.15582E-02-9.96102E-01
 -1      3293-8.01836E-02-7.59022E-02-9.54019E-01
 -1      3294 6.49864E-02 1.59637E-01-9.48387E-01
 -1      3295 6.54422E-02 1.26383E-01-9.86754E-01
 -1      3296-7.03164E-02-1.87579E-03-9.60791E-01
 -1      3297-9.82107E-02-1.09473E-01-9.81154E-01
 -1      3298 5.44159E-02 5.31630E-03-9.74803E-01
 -1      3299 4.39691E-02 2.65471E-02-9.95559E-01
 -1      3300 1.03587E-01 4.52967E-02-9.63921E-01
 -1      3301 7.16187E-02 9.17810E-02-9.90841E-01
 -1      3302 2.60248E-02 1.80948E-02-8.04263E-01
 -1      3303 1.27386E-02 5.89292E-03-1.02448E+00
 -1      3304 1.57491E-01-5.91316E-02-9.66966E-01
 -1      3305 4.38064E-02 5.77150E-02-9.94261E-01
 -1      3306 7.07716E-02 1.20379E-01-9.88123E-01
 -1      3307-1.22182E-01-9.88325E-02-9.79096E-01
 -1      3308-5.80755E-02-6.57069E-02-9.63409E-01
 -1      3309 2.50124E-02-2.95838E-02-9.93896E-01
 -1      3310-7.36264E-02 8.19094E-02-9.63648E-01
 -1      3311-5.06381E-02-1.07675E-02-9.89363E-01
 -1      3312-5.14586E-02-1.57315E-02-9.65033E-01
 -1      3313-1.07545E-01-5.85484E-02-9.85447E-01
 -1      3314 1.32941E-01 1.01949E-01-9.81490E-01
 -1      3315 2.99866E-02 4.22661E-02-9.94050E-01
 -1      3316-9.49659E-02 5.53001E-02-9.86263E-01
 -1      3317 1.55749E-01-1.68400E-02-9.83618E-01
 -1      3318 4.04566E-02 9.41468E-02-9.51630E-01
 -1      3319-1.68388E-01-6.30775E-03-9.59036E-01
 -1      3320-9.04595E-02-2.14923E-02-9.88278E-01
 -1      3321 3.47671E-02 5.92109E-03-9.95584E-01
 -1      3322-6.35660E-02 1.09496E-01-9.86860E-01
 -1      3323-7.66127E-03-1.34576E-02-1.01860E+00
 -1      3324 6.34126E-02-3.17459E-02-9.68680E-01
 -1      3325 2.96700E-02 1.14612E-01-9.90472E-01
 -1      3326 1.46563E-03 1.02279E-01-9.56889E-01
 -1      3327 5.79466E-02 4.29959E-02-9.94732E-01
 -1      3328-6.14642E-02 8.27890E-02-9.89227E-01
 -1      3329 7.84863E-02-7.10141E-02-9.68110E-01
 -1      3330 2.99540E-02 5.30505E-02-9.94280E-01
 -1      3331 5.58637E-02-1.97250E-02-9.73723E-01
 -1      3332 8.46145E-03-1.18419E-01-9.90319E-01
 -1      3333-7.65256E-02-5.93936E-02-9.88664E-01
 -1      3334-1.50439E-01 6.06992E-03-9.52710E-01
 -1      3335 1.41114E-03 8.29946E-02-9.65635E-01
 -1      3336 5.16380E-02 7.32206E-02-9.92880E-01
 -1      3337 3.10545E-03 4.92020E-02-7.85271E-01
 -1      3338-1.32818E-02 9.49530E-02-9.92052E-01
 -1      3339 5.23518E-02 8.83802E-03-9.96313E-01
 -1      3340-1.03326E-02 1.18906E-01-9.89632E-01
 -1      3341-9.72370E-02-7.20424E-02-9.85251E-01
 -1      3342 1.66607E-02-1.33954E-01-9.87820E-01
 -1      3343 4.87829E-03-3.30967E-02-9.92324E-01
 -1      3344 1.15541E-02-7.84801E-02-9.91732E-01
 -1      3345-5.76402E-02-4.71734E-02-9.90578E-01
 -1      3346-5.04601E-02 9.07426E-02-9.90285E-01
 -1      3347 1.52495E-01-2.48514E-02-9.85320E-01
 -1      3348 1.79822E-02 8.39645E-03-1.01272E+00
 -1      3349 1.05165E-01 8.11822E-02-9.90462E-01
 -1      3350 1.18964E-01-6.09663E-02-9.90066E-01
 -1      3351 8.86231E-02 1.18566E-01-9.86856E-01
 -1      3352 1.19651E-01 1.24473E-01-9.44169E-01
 -1      3353-3.84565E-02 9.43526E-02-9.51677E-01
 -1      3354-3.70767E-02 8.17750E-02-9.59949E-01
 -1      3355-5.29726E-02-4.04922E-02-9.90091E-01
 -1      3356-8.62662E-02-4.79499E-02-9.87989E-01
 -1      3357 1.28087E-02 8.87274E-02-9.93056E-01
 -1      3358-8.62594E-02 3.12918E-02-9.63293E-01
 -1      3359 2.00343E-02 4.21328E-03-1.00841E+00
 -1      3360 9.80550E-02-4.82767E-02-9.65399E-01
 -1      3361 5.24512E-02 9.06557E-02-9.92397E-01
 -1      3362-5.05511E-02-2.71998E-02-9.90355E-01
 -1      3363-3.52120E-02-5.95631E-02-9.90354E-01
 -1      3364 6.55868E-02 3.58590E-02-9.95630E-01
 -1      3365-1.12256E-01 6.76644E-02-9.84585E-01
 -1      3366-1.29724E-01-7.16958E-02-9.81280E-01
 -1      3367 3.80463E-03-1.25289E-01-9.60391E-01
 -1      3368-1.61546E-01-1.05820E-02-9.77311E-01
 -1      3369-1.76179E-02-6.01475E-02-9.92099E-01
 -1      3370-6.54895E-02 2.01909E-02-9.89337E-01
 -1      3371-6.82738E-02-1.54381E-01-9.47864E-01
 -1      3372 6.43483E-02 7.39237E-02-9.70739E-01
 -1      3373-1.34163E-01 6.33740E-02-9.51700E-01
 -1      3374 1.41009E-01-1.06364E-02-9.70328E-01
 -1      3375-8.55340E-02 1.13306E-01-9.82594E-01
 -1      3376 1.39583E-01-7.00528E-02-9.60761E-01
 -1      3377-3.95551E-02-1.43906E-01-9.84150E-01
 -1      3378 7.41888E-02-1.54403E-01-9.61649E-01
 -1      3379-5.34291E-02 7.18404E-02-9.90152E-01
 -1      3380 8.49131E-02-5.11878E-02-9.93379E-01
 -1      3381-5.44178E-03-1.68479E-01-9.58626E-01
 -1      3382 8.54696E-02-1.13802E-01-9.86268E-01
 -1      3383 1.01888E-01-1.09370E-01-9.53875E-01
 -1      3384-7.53826E-02 9.10455E-03-9.89611E-01
 -1      3385-8.81043E-02-1.08881E-01-9.82966E-01
 -1      3386 4.38566E-02 1.61104E-01-9.83158E-01
 -1      3387 1.14671E-02 1.51582E-01-9.85675E-01
 -1      3388-9.56415E-03-1.06109E-01-9.90731E-01
 -1      3389-3.02919E-02 1.08271E-01-9.89448E-01
 -1      3390-1.32947E-01-5.36903E-02-9.47885E-01
 -1      3391 3.90871E-02 1.50147E-01-9.85630E-01
 -1      3392-3.92092E-02-1.05391E-01-9.89027E-01
 -1      3393-4.44636E-02-5.87328E-02-9.89769E-01
 -1      3394 7.92709E-02 7.16244E-02-9.68799E-01
 -1      3395-1.24548E-01-1.12802E-01-9.60595E-01
 -1      3396 2.36093E-02-1.64668E-01-9.80341E-01
 -1      3397-1.25918E-02-1.20647E-02-1.01033E+00
 -1      3398-1.44426E-01 1.85597E-02-9.81410E-01
 -1      3399 6.48049E-02 8.87292E-02-9.91740E-01
 -1      3400-6.51984E-03 3.76585E-02-9.52672E-01
 -1      3401-2.89863E-02-9.80604E-02-9.90825E-01
 -1      3402-8.56605E-02 3.20657E-03-7.06022E-01
 -1      3403-8.04250E-02-6.99548E-03-9.88915E-01
 -1      3404-3.54534E-02 5.91706E-02-9.91215E-01
 -1      3405-1.69951E-01 1.50198E-02-9.59004E-01
 -1      3406 4.83166E-02-2.45593E-02-9.73053E-01
 -1      3407 3.65741E-02 6.10648E-02-9.93696E-01
 -1      3408 2.14591E-02 3.91982E-02-9.94025E-01
 -1      3409-3.07306E-02 1.19498E-01-9.88602E-01
 -1      3410-1.68398E-02-1.09734E-01-9.89883E-01
 -1      3411 1.65582E-02 5.88715E-02-9.94327E-01
 -1      3412 3.25802E-02 2.65145E-02-9.94843E-01
 -1      3413-7.13754E-02 9.63598E-02-9.87460E-01
 -1      3414-5.60845E-03 5.36210E-02-9.93781E-01
 -1      3415 1.72278E-02 6.94150E-02-9.93634E-01
 -1      3416-4.26052E-03-3.49196E-02-9.91574E-01
 -1      3417 1.34351E-01 4.09168E-02-9.88890E-01
 -1      3418-4.17417E-02 7.16828E-02-9.91335E-01
 -1      3419-4.40503E-02-1.07299E-01-9.59295E-01
 -1      3420-1.39294E-01 4.14778E-02-9.81739E-01
 -1      3421 4.50727E-02 6.66316E-02-9.93182E-01
 -1      3422 3.70857E-02 4.17490E-02-9.64684E-01
 -1      3423 1.08119E-01-8.61687E-02-9.87272E-01
 -1      3424-1.22840E-01 1.20528E-01-9.43973E-01
 -1      3425-8.15950E-02 7.73098E-02-9.57028E-01
 -1      3426 1.49610E-01-4.29208E-02-9.85441E-01
 -1      3427-2.82617E-02 9.68637E-02-9.90853E-01
 -1      3428 1.09679E-02-3.65042E-02-9.92508E-01
 -1      3429 7.53351E-02 1.54605E-01-9.64804E-01
 -1      3430-3.03840E-02 2.47100E-02-9.89512E-01
 -1      3431 8.17683E-02 1.14644E-01-9.88685E-01
 -1      3432 9.91441E-05-1.62117E-02-1.01250E+00
 -1      3433 1.44342E-01-5.40433E-02-9.64534E-01
 -1      3434-1.57421E-01 6.65924E-02-9.43003E-01
 -1      3435-8.67442E-02-6.35872E-02-9.86845E-01
 -1      3436-6.71414E-02-5.00578E-02-9.89874E-01
 -1      3437-1.98359E-02 3.81359E-02-9.92632E-01
 -1      3438-1.37142E-01-1.74197E-02-9.82734E-01
 -1      3439-4.21266E-02-6.89346E-02-9.89287E-01
 -1      3440-3.72634E-02 1.95920E-02-9.90839E-01
 -1      3441 7.46843E-02 2.69788E-02-9.71056E-01
 -1      3442 1.31330E-02-1.35107E-03-1.02133E+00
 -1      3443 7.32757E-02-1.45536E-01-9.60683E-01
 -1      3444 4.80069E-02-5.67485E-03-9.97142E-01
 -1      3445-1.18740E-02 4.89739E-02-9.93247E-01
 -1      3446 2.63775E-02 4.48369E-02-9.93856E-01
 -1      3447 1.00288E-01-1.02352E-01-9.52832E-01
 -1      3448-1.26957E-01 2.23904E-02-9.84044E-01
 -1      3449-1.15032E-01-4.98417E-02-9.59380E-01
 -1      3450 4.85650E-02 1.02024E-01-9.67434E-01
 -1      3451-7.84755E-02 5.83815E-02-9.88280E-01
 -1      3452-3.67249E-02-1.86862E-02-9.90876E-01
 -1      3453 7.65615E-02-2.88351E-02-9.69586E-01
 -1      3454 2.90258E-02-9.78233E-02-9.90948E-01
 -1      3455 3.93219E-02 8.22660E-02-9.67597E-01
 -1      3456 8.90803E-02 4.62636E-02-9.73240E-01
 -1      3457-9.59903E-02 1.07294E-01-9.63229E-01
 -1      3458-1.89157E-02-1.26268E-01-9.87830E-01
 -1      3459-1.27971E-01 9.39069E-03-9.56882E-01
 -1      3460-9.42107E-02 4.11782E-02-9.50641E-01
 -1      3461-5.24632E-02 1.05871E-01-9.63003E-01
 -1      3462 5.22198E-02 1.39876E-01-9.56699E-01
 -1      3463 6.06053E-02-6.13976E-02-7.16375E-01
 -1      3464 3.48143E-03-7.95336E-02-9.63643E-01
 -1      3465-3.28179E-02-9.13471E-02-9.66249E-01
 -1      3466-2.44842E-02-6.44975E-02-9.60621E-01
 -1      3467 7.35201E-02 1.03142E-01-9.89611E-01
 -1      3468 9.41309E-02-3.29173E-02-9.71348E-01
 -1      3469 5.34532E-02 2.75456E-02-9.67691E-01
 -1      3470-3.24680E-02 6.63082E-02-9.68265E-01
 -1      3471-2.08984E-02-6.64070E-02-9.73702E-01
 -1      3472-2.06587E-02-2.33305E-03-1.00186E+00
 -1      3473-1.50315E-01-3.59171E-02-9.79919E-01
 -1      3474 1.19277E-01-9.49498E-02-9.86446E-01
 -1      3475-1.21709E-01-7.02660E-02-9.82879E-01
 -1      3476-1.27905E-02-5.11057E-02-9.91793E-01
 -1      3477 4.12751E-03 3.76882E-02-9.94049E-01
 -1      3478-1.10691E-01 1.39152E-02-9.85928E-01
 -1      3479-3.80686E-03-1.92256E-02-1.00622E+00
 -1      3480 4.19079E-03 1.98935E-02-1.00687E+00
 -1      3481 9.60411E-03 7.04367E-02-9.93928E-01
 -1      3482 1.25945E-01 7.16348E-02-9.88409E-01
 -1      3483 6.08220E-02 1.59718E-01-9.61986E-01
 -1      3484-6.56829E-03-1.41474E-02-1.00958E+00
 -1      3485 4.29736E-02 1.23781E-01-9.65810E-01
 -1      3486-1.39788E-01 5.51314E-02-9.53144E-01
 -1      3487-2.29083E-02 8.94460E-02-9.91739E-01
 -1      3488 8.77209E-03 1.07568E-01-9.70901E-01
 -1      3489-2.76310E-02 7.54306E-02-9.63224E-01
 -1      3490 1.27579E-02 4.83106E-02-9.94616E-01
 -1      3491-1.52398E-01 2.64340E-02-9.79117E-01
 -1      3492-1.50462E-01 4.09177E-02-9.80032E-01
 -1      3493 9.06182E-02-1.39629E-02-9.95383E-01
 -1      3494-1.50952E-02-4.81609E-03-1.01301E+00
 -1      3495-2.14235E-02-1.36548E-01-9.86755E-01
 -1      3496 1.98155E-02 5.64797E-02-9.68737E-01
 -1      3497-1.60606E-01-5.19292E-02-9.58944E-01
 -1      3498 3.57293E-03 5.58267E-02-9.63368E-01
 -1      3499-1.20602E-01-3.03971E-02-9.85257E-01
 -1      3500 1.92229E-02 1.47764E-01-9.86791E-01
 -1      3501 5.07891E-02 1.55059E-01-9.63530E-01
 -1      3502-1.22716E-01 4.58826E-02-9.56236E-01
 -1      3503-1.16960E-01-1.21984E-01-9.60835E-01
 -1      3504 1.65499E-01-1.41077E-02-9.70800E-01
 -1      3505 8.97087E-03-4.04357E-02-9.32063E-01
 -1      3506 1.60209E-03-1.93100E-02-1.01925E+00
 -1      3507-1.00311E-02 8.08113E-03-1.01822E+00
 -1      3508-1.10382E-01-1.00490E-01-9.55147E-01
 -1      3509 6.61750E-02 3.49655E-02-9.74132E-01
 -1      3510 8.25146E-02-1.47627E-01-9.78046E-01
 -1      3511-6.80612E-02-7.73050E-02-9.67570E-01
 -1      3512 1.17086E-01-5.82578E-02-9.63484E-01
 -1      3513-1.54123E-01-6.28134E-02-9.53815E-01
 -1      3514-3.19738E-02-1.13802E-01-9.88550E-01
 -1      3515-9.41901E-02-1.20307E-01-9.81095E-01
 -1      3516 4.47436E-02 1.36873E-01-9.69343E-01
 -1      3517-5.28882E-02 5.79837E-02-9.64228E-01
 -1      3518-6.69663E-02-8.76428E-02-9.87019E-01
 -1      3519-4.78075E-02 8.08819E-02-9.90642E-01
 -1      3520-8.18358E-02 1.32376E-02-9.88507E-01
 -1      3521-3.13076E-02-6.69057E-02-9.62807E-01
 -1      3522-4.95519E-03-1.29772E-01-9.60808E-01
 -1      3523 3.13529E-02 2.00758E-02-9.94801E-01
 -1      3524 3.13136E-02-1.13752E-01-9.88223E-01
 -1      3525-2.15259E-02-2.86575E-02-9.90227E-01
 -1      3526 9.05944E-03-1.42317E-01-9.65652E-01
 -1      3527-1.87413E-02-3.64951E-02-9.28953E-01
 -1      3528-6.08194E-02-1.57558E-01-9.60394E-01
 -1      3529-5.98507E-02 5.64575E-03-9.68451E-01
 -1      3530-5.40014E-02-6.81473E-02-9.89356E-01
 -1      3531-1.22826E-01 1.01804E-01-9.79784E-01
 -1      3532-1.31711E-01-3.12652E-02-9.83640E-01
 -1      3533-5.55774E-02-5.34956E-02-7.08183E-01
 -1      3534 5.51619E-02-4.93554E-02-9.72490E-01
 -1      3535-8.06818E-02 3.99079E-02-9.64258E-01
 -1      3536-6.03883E-03-4.94120E-02-7.64964E-01
 -1      3537-1.03234E-01 8.58710E-02-9.83824E-01
 -1      3538-8.81252E-02 7.17795E-02-9.86488E-01
 -1      3539-2.92430E-02-8.76113E-02-9.91308E-01
 -1      3540 8.10977E-03-1.09234E-01-9.67616E-01
 -1      3541 1.44879E-02-1.11364E-01-9.90448E-01
 -1      3542 1.45298E-02-8.99710E-02-9.91413E-01
 -1      3543 5.06150E-03-9.40931E-02-9.67100E-01
 -1      3544-9.26352E-03-1.54455E-02-1.00484E+00
 -1      3545 2.09295E-03-1.90499E-02-1.00611E+00
 -1      3546-1.79851E-02-7.18759E-02-9.92018E-01
 -1      3547-1.74927E-02 6.39357E-03-1.00977E+00
 -1      3548-6.50015E-02 5.21283E-02-9.89132E-01
 -1      3549 1.15609E-01 1.23738E-01-9.61520E-01
 -1      3550-1.58440E-01 6.04194E-02-9.59520E-01
 -1      3551-1.58634E-01-4.24425E-02-9.76568E-01
 -1      3552-3.67281E-02 3.25472E-02-9.89894E-01
 -1      3553 9.94190E-02 1.09186E-01-9.59281E-01
 -1      3554 1.32134E-01-3.56172E-02-9.87952E-01
 -1      3555-5.03197E-02-9.79284E-02-9.65565E-01
 -1      3556 1.69510E-02-1.42765E-01-9.85252E-01
 -1      3557 4.07003E-02 2.97736E-02-9.95213E-01
 -1      3558 2.02139E-02 7.43937E-03-1.00914E+00
 -1      3559-8.16445E-02-1.07606E-01-9.83549E-01
 -1      3560-1.35644E-01 7.07962E-02-9.78282E-01
 -1      3561-1.13886E-01-9.11941E-02-9.81489E-01
 -1      3562-1.13390E-01 9.30743E-02-9.82691E-01
 -1      3563 9.86504E-02 7.26016E-02-9.91149E-01
 -1      3564 1.16951E-02 1.17937E-02-1.01656E+00
 -1      3565-1.27758E-01 7.69643E-02-9.79752E-01
 -1      3566-1.12351E-01-8.33188E-02-9.83052E-01
 -1      3567 2.11036E-02-5.61617E-02-9.68063E-01
 -1      3568 4.39182E-03-5.94263E-02-9.67907E-01
 -1      3569-1.21479E-02 1.33624E-02-1.01219E+00
 -1      3570-4.16102E-02-2.45237E-02-9.90181E-01
 -1      3571-1.21222E-01 7.22147E-02-9.82518E-01
 -1      3572 7.48341E-02 4.38632E-02-9.95047E-01
 -1      3573-6.24746E-02 1.24920E-01-9.58706E-01
 -1      3574-1.24762E-01-9.10776E-02-9.79635E-01
 -1      3575-3.95788E-02-3.04108E-02-9.90290E-01
 -1      3576 1.54711E-01 6.51696E-02-9.49974E-01
 -1      3577-2.98982E-03 1.13503E-01-9.59813E-01
 -1      3578-4.29233E-02-8.05594E-02-9.66252E-01
 -1      3579 1.14888E-02 1.61303E-02-1.00716E+00
 -1      3580-1.45637E-01-8.81127E-03-9.63092E-01
 -1      3581-1.40970E-01 8.02277E-02-9.75730E-01
 -1      3582 7.24192E-04 1.84169E-02-1.01252E+00
 -1      3583-2.35300E-02 3.97386E-02-9.91684E-01
 -1      3584 1.09361E-01 6.43875E-02-9.91091E-01
 -1      3585 1.41539E-02-1.17598E-02-1.00796E+00
 -1      3586 1.75789E-02-1.03861E-02-1.00503E+00
 -1      3587 1.17626E-01 7.20175E-02-9.89491E-01
 -1      3588 1.50143E-02-4.95087E-02-9.93208E-01
 -1      3589 1.12867E-01-1.07093E-01-9.85366E-01
 -1      3590 1.20495E-01-7.43968E-02-9.88445E-01
 -1      3591 9.12770E-02-8.65254E-02-9.62815E-01
 -1      3592-4.47272E-02-1.23338E-01-9.65194E-01
 -1      3593 4.30844E-02-1.29607E-01-9.64665E-01
 -1      3594-3.81455E-02 5.12581E-03-9.89655E-01
 -1      3595 1.55781E-02 1.05310E-02-1.00819E+00
 -1      3596-3.88371E-02 3.02391E-02-9.90214E-01
 -1      3597 1.20315E-01 1.17002E-01-9.61468E-01
 -1      3598 2.20067E-02 6.79785E-03-1.00302E+00
 -1      3599 1.80635E-02 1.38415E-01-9.88569E-01
 -1      3600-9.53986E-02-8.75473E-02-9.58655E-01
 -1      3601-6.89652E-02 1.60377E-01-9.40074E-01
 -1      3602 1.51998E-01 7.07901E-02-9.64340E-01
 -1      3603 3.20806E-02 1.00518E-02-9.95425E-01
 -1      3604 1.03098E-01 3.50786E-02-9.72077E-01
 -1      3605-1.29029E-01-4.08086E-02-9.61752E-01
 -1      3606 1.76779E-02-6.46759E-02-9.92943E-01
 -1      3607-9.92904E-02-5.56346E-02-9.86982E-01
 -1      3608-1.13149E-01 8.78187E-02-9.82322E-01
 -1      3609 1.12138E-01 1.09368E-01-9.63531E-01
 -1      3610-1.61513E-01-2.05692E-02-9.77877E-01
 -1      3611 4.56559E-02-1.42223E-01-9.66635E-01
 -1      3612 1.29461E-01 3.52315E-02-9.90660E-01
 -1      3613 1.27247E-01 9.63350E-02-9.84206E-01
 -1      3614 1.71923E-02 3.08302E-02-9.93294E-01
 -1      3615-3.52780E-02 2.12869E-02-9.89893E-01
 -1      3616-9.97282E-02 1.32659E-01-9.78801E-01
 -1      3617 8.82099E-02 1.04149E-01-9.69160E-01
 -1      3618 3.02683E-02-4.83610E-02-9.92743E-01
 -1      3619 1.50547E-01-7.20170E-02-9.62046E-01
 -1      3620 1.22042E-01-1.18937E-01-9.63315E-01
 -1      3621-6.61822E-02 6.40679E-02-6.63008E-01
 -1      3622 1.71285E-02-1.22403E-01-9.89101E-01
 -1      3623-1.05149E-01-1.06212E-01-9.48384E-01
 -1      3624 1.07611E-02-1.56132E-02-1.00717E+00
 -1      3625-1.22949E-01 9.23146E-02-9.80280E-01
 -1      3626 1.52397E-02-1.53197E-01-9.66329E-01
 -1      3627-3.52784E-03 1.91965E-02-1.00983E+00
 -1      3628-1.41511E-01-7.00499E-02-9.77818E-01
 -1      3629 2.78517E-02-3.82980E-02-8.08032E-01
 -1      3630 1.52098E-02 1.06940E-01-9.91819E-01
 -1      3631 1.27720E-01-1.03929E-01-9.82628E-01
 -1      3632 1.17176E-01 9.49218E-02-9.87392E-01
 -1      3633-3.84566E-02-4.40804E-02-9.68396E-01
 -1      3634-9.73884E-02-4.29818E-02-9.61166E-01
 -1      3635 1.78974E-02-4.30153E-03-1.00821E+00
 -1      3636 8.92078E-03-1.83573E-02-1.00233E+00
 -1      3637-1.98806E-02 4.09837E-03-1.00227E+00
 -1      3638 1.21687E-01 5.60409E-02-9.63502E-01
 -1      3639 1.39479E-02 1.71249E-01-9.67124E-01
 -1      3640-4.72098E-02 1.61285E-01-9.81771E-01
 -1      3641-6.60414E-02 6.49220E-02-6.64004E-01
 -1      3642-2.02222E-02 1.70223E-03-1.00038E+00
 -1      3643 4.08514E-03 3.19032E-02-8.00583E-01
 -1      3644 3.47664E-02-9.41228E-03-9.95828E-01
 -1      3645-3.70821E-02 1.05937E-01-9.68278E-01
 -1      3646 6.99973E-02-6.08528E-02-9.73734E-01
 -1      3647-1.65926E-01 2.48550E-02-9.76548E-01
 -1      3648-2.01361E-02 1.21050E-01-9.88741E-01
 -1      3649 1.59802E-01-4.59954E-02-9.83032E-01
 -1      3650 5.96411E-02 1.40767E-01-9.53880E-01
 -1      3651-1.23735E-02 1.28880E-01-9.65797E-01
 -1      3652-2.56916E-02 1.66636E-01-9.81076E-01
 -1      3653-8.63534E-03 1.77129E-02-1.00910E+00
 -1      3654-1.06823E-01 7.95676E-02-9.84311E-01
 -1      3655-9.83976E-02-1.09991E-01-9.63113E-01
 -1      3656 9.09081E-02-5.61667E-02-9.92450E-01
 -1      3657-1.02715E-01-1.26843E-01-9.78707E-01
 -1      3658-5.64084E-02 5.31904E-02-7.09843E-01
 -1      3659 6.84070E-02 1.30311E-01-9.67329E-01
 -1      3660 3.42337E-03 1.30338E-01-9.63459E-01
 -1      3661 2.96682E-02-1.70991E-02-9.94826E-01
 -1      3662-7.93460E-02-1.48935E-01-9.59891E-01
 -1      3663-4.04556E-03-1.00947E-01-9.65659E-01
 -1      3664-7.18120E-02-1.41390E-01-9.78615E-01
 -1      3665-1.33636E-01-1.00746E-01-9.76622E-01
 -1      3666-1.35573E-01 7.18995E-02-9.63392E-01
 -1      3667 1.37898E-01 6.53904E-02-9.62301E-01
 -1      3668 7.46633E-03 1.76291E-02-1.01216E+00
 -1      3669-1.04926E-02-1.16933E-01-9.69883E-01
 -1      3670 1.13805E-02-1.84857E-02-9.99724E-01
 -1      3671 1.03488E-01 1.24377E-01-9.64075E-01
 -1      3672-8.46955E-02-1.42785E-01-9.77186E-01
 -1      3673-1.35291E-01 4.54535E-02-9.63609E-01
 -1      3674-7.11035E-02 1.55748E-01-9.57750E-01
 -1      3675-1.41335E-01 1.50672E-02-9.62076E-01
 -1      3676 1.73835E-03 2.14023E-02-1.00552E+00
 -1      3677-1.43136E-01-6.59654E-02-9.57464E-01
 -1      3678-2.49093E-02 1.79081E-02-7.94012E-01
 -1      3679-1.28645E-01 1.11361E-01-9.60784E-01
 -1      3680 8.00300E-02 1.46882E-01-9.81824E-01
 -1      3681-1.34764E-01-7.99123E-02-9.79292E-01
 -1      3682 1.59142E-03-4.98739E-02-7.56126E-01
 -1      3683 2.15525E-02 2.93216E-02-9.93438E-01
 -1      3684-1.46547E-02-9.05204E-03-1.00623E+00
 -1      3685 7.10118E-02-8.49889E-02-9.68665E-01
 -1      3686-5.51932E-02 5.56941E-02-7.11359E-01
 -1      3687-1.11530E-01 1.10148E-02-9.63148E-01
 -1      3688-1.59869E-02-1.32507E-02-1.00296E+00
 -1      3689-2.97198E-02-5.71674E-03-7.94712E-01
 -1      3690-2.76418E-02-4.23891E-02-7.54604E-01
 -1      3691 1.31081E-01 2.13121E-02-9.89465E-01
 -1      3692-1.35114E-01 7.87380E-02-9.78837E-01
 -1      3693 1.46264E-01 1.27861E-02-9.86687E-01
 -1      3694 7.29022E-02 1.31917E-01-9.85885E-01
 -1      3695 1.61276E-02 2.69998E-02-8.01451E-01
 -1      3696-1.72963E-02-7.19684E-03-1.00288E+00
 -1      3697 8.63635E-03-4.87006E-02-7.73732E-01
 -1      3698 1.72299E-02-2.62235E-02-7.96810E-01
 -1      3699 1.02959E-01-1.25674E-01-9.61314E-01
 -1      3700-1.13839E-01 2.99379E-02-9.84978E-01
 -1      3701-7.27498E-03-5.05231E-02-9.92145E-01
 -1      3702-3.01786E-02 3.94486E-02-7.74268E-01
 -1      3703 2.72565E-02-2.16815E-02-9.94083E-01
 -1      3704-2.50592E-02-1.59887E-02-7.93869E-01
 -1      3705-1.14164E-02 1.70256E-02-1.00696E+00
 -1      3706 1.16455E-01-1.07192E-01-9.62107E-01
 -1      3707 1.40846E-01 1.93757E-02-9.88171E-01
 -1      3708 1.52199E-01 5.19202E-03-9.63915E-01
 -1      3709 4.27396E-02-4.36821E-03-9.39977E-01
 -1      3710 8.57361E-02 9.96537E-04-7.23114E-01
 -1      3711 1.60034E-01 5.34464E-02-9.66461E-01
 -1      3712-1.75892E-02-1.00198E-02-9.98594E-01
 -1      3713-1.09707E-02 2.03101E-02-1.00271E+00
 -1      3714-3.63092E-03-5.83990E-02-9.70479E-01
 -1      3715-1.54184E-02-2.96141E-02-9.90432E-01
 -1      3716 1.11624E-02 3.58060E-02-9.93671E-01
 -1      3717-6.67609E-02-5.82165E-02-9.63517E-01
 -1      3718 1.09035E-03 9.39069E-02-6.63804E-01
 -1      3719 5.23647E-03 6.79758E-02-9.73203E-01
 -1      3720 1.59587E-01 2.31554E-02-9.84124E-01
 -1      3721 1.45698E-01 3.63448E-02-9.85851E-01
 -1      3722 1.63670E-03 7.91874E-02-7.11614E-01
 -1      3723-1.59956E-01 4.74623E-02-9.77699E-01
 -1      3724-1.32555E-01 1.04834E-01-9.78089E-01
 -1      3725-2.18077E-02-8.63814E-02-9.91169E-01
 -1      3726 1.51229E-01 2.13507E-02-9.86202E-01
 -1      3727-1.13461E-01 5.51950E-02-9.56421E-01
 -1      3728 1.58885E-01 4.37691E-02-9.83550E-01
 -1      3729 6.80777E-03 2.04273E-02-1.00450E+00
 -1      3730 3.12701E-02-7.47870E-03-8.07760E-01
 -1      3731 1.00668E-02 1.83129E-02-1.00526E+00
 -1      3732 6.10236E-02 6.27068E-02-7.19812E-01
 -1      3733-1.10713E-01 9.47466E-02-9.62886E-01
 -1      3734 1.74865E-02 7.10341E-05-1.01551E+00
 -1      3735 1.72394E-02 1.68751E-01-9.79963E-01
 -1      3736 1.33265E-02-1.62196E-02-1.00378E+00
 -1      3737 2.07217E-02-1.75515E-03-1.00701E+00
 -1      3738-1.66275E-02 2.68813E-02-7.96041E-01
 -1      3739 1.63821E-01-2.09609E-02-9.81050E-01
 -1      3740 1.56581E-03-8.67831E-02-7.12125E-01
 -1      3741-5.32183E-03-3.01875E-02-7.98681E-01
 -1      3742-1.37343E-02 1.11451E-01-9.90911E-01
 -1      3743-1.60205E-02 1.11590E-02-1.00532E+00
 -1      3744-2.97781E-02-2.34164E-02-9.90318E-01
 -1      3745-1.52174E-01-7.18269E-02-9.61900E-01
 -1      3746-5.05786E-02 7.94604E-03-6.80540E-01
 -1      3747 9.27533E-02-9.26778E-04-6.75734E-01
 -1      3748 1.89426E-02 1.10395E-02-1.00426E+00
 -1      3749-5.97930E-02-6.03990E-02-7.11244E-01
 -1      3750 2.59723E-02 2.05287E-02-9.94225E-01
 -1      3751-1.85799E-02 8.85437E-03-1.00421E+00
 -1      3752-1.55513E-02 1.44180E-02-1.00466E+00
 -1      3753-1.45280E-01-8.10975E-02-9.76791E-01
 -1      3754 2.16479E-04 9.42529E-02-6.63414E-01
 -1      3755 7.83755E-02-2.16104E-03-7.22948E-01
 -1      3756-8.56699E-02 7.26509E-06-7.08793E-01
 -1      3757 5.18446E-02 5.73948E-04-7.48332E-01
 -1      3758-5.08383E-02 2.66655E-03-7.18304E-01
 -1      3759 5.87862E-02-6.29402E-02-7.10425E-01
 -1      3760 3.49473E-03-8.68800E-02-7.08820E-01
 -1      3761 6.36050E-02 6.81445E-02-6.65850E-01
 -1      3762-1.87358E-02 1.08797E-02-9.99419E-01
 -1      3763-2.49225E-04 7.96794E-02-7.11441E-01
 -1      3764 5.00406E-02 5.53196E-04-7.84548E-01
 -1      3765 5.53563E-02-3.89123E-03-5.85414E-01
 -1      3766-3.55656E-04 5.01645E-02-7.72792E-01
 -1      3767 3.66523E-03 5.43453E-02-6.32252E-01
 -1      3768 5.36826E-02 5.76489E-02-7.13746E-01
 -1      3769 5.43189E-02-1.33154E-03-6.52444E-01
 -1      3770-3.16460E-03 5.50963E-02-6.21553E-01
 -1      3771 4.45321E-04 4.85991E-02-8.05740E-01
 -1      3772 5.54191E-02-2.22121E-04-6.18767E-01
 -1      3773 1.38903E-03 4.98135E-02-7.76084E-01
 -1      3774 8.58124E-04 5.48308E-02-6.04828E-01
 -1      3775-2.70755E-03 5.53209E-02-5.83666E-01
 -1      3776-2.19676E-04 5.23024E-02-7.32950E-01
 -1      3777 5.48013E-03 5.17475E-03-9.87054E-01
 -1      3778-1.90050E-04-1.20370E-03-9.89862E-01
 -1      3779-2.31196E-03 1.99159E-03-9.88683E-01
 -1      3780-9.97033E-04-5.05681E-03-9.90714E-01
 -1      3781 6.84906E-03 4.94040E-03-7.22083E-01
 -1      3782 4.14904E-03 1.46247E-02-9.63882E-01
 -1      3783-3.18501E-03 7.69807E-04-9.92133E-01
 -1      3784-3.56198E-03-1.11895E-03-7.35999E-01
 -1      3785-9.27047E-04 3.99211E-03-9.88260E-01
 -1      3786 4.78735E-03-1.53255E-03-9.85949E-01
 -1      3787 6.23852E-04 3.42214E-04-9.88873E-01
 -1      3788 2.03824E-04 2.89210E-03-9.88644E-01
 -1      3789 3.00425E-03 4.05152E-03-9.87323E-01
 -1      3790 2.99461E-03-6.10868E-03-9.89226E-01
 -1      3791 4.04900E-03 4.77750E-03-9.88553E-01
 -1      3792 4.70515E-03 7.07156E-03-7.24839E-01
 -1      3793-9.18370E-03-4.14271E-03-7.83269E-01
 -1      3794 7.65350E-03 1.00223E-02-9.89958E-01
 -1      3795-1.37697E-02 5.66224E-03-9.58016E-01
 -1      3796-3.96641E-03-2.27300E-03-9.92060E-01
 -1      3797-8.02880E-03-2.29884E-03-7.89229E-01
 -1      3798 3.82308E-02-3.94928E-02-9.57213E-01
 -1      3799-4.03928E-04 2.44527E-03-9.71547E-01
 -1      3800 1.28442E-02-2.61615E-02-9.59853E-01
 -1      3801 6.61237E-02 1.14895E-04-9.63051E-01
 -1      3802 2.10725E-03-8.47988E-03-9.89081E-01
 -1      3803 6.94645E-04 1.46911E-03-9.86201E-01
 -1      3804-3.29080E-04 7.67238E-02-9.61310E-01
 -1      3805 4.82134E-02-1.17748E-01-9.57722E-01
 -1      3806 4.05775E-03-5.94581E-04-9.66839E-01
 -1      3807 9.41341E-04 8.32965E-04-9.86357E-01
 -1      3808 3.12767E-03-1.04764E-02-9.88797E-01
 -1      3809 8.72144E-04-2.06026E-04-9.88311E-01
 -1      3810 4.57553E-04-4.85478E-03-9.88956E-01
 -1      3811-6.91697E-02 5.39653E-04-9.61976E-01
 -1      3812 1.14893E-01 1.18463E-03-9.69539E-01
 -1      3813 7.54590E-03-1.09093E-02-9.89217E-01
 -1      3814-6.83180E-02 2.90505E-02-9.56438E-01
 -1      3815-1.53479E-02-3.58338E-02-9.55538E-01
 -1      3816-9.02875E-03 2.50865E-03-9.86786E-01
 -1      3817 9.37112E-03 6.82273E-03-7.69139E-01
 -1      3818 2.89211E-02 1.28782E-03-9.64160E-01
 -1      3819 2.23640E-03 9.81843E-03-9.90982E-01
 -1      3820-4.70568E-04-3.83856E-03-7.26435E-01
 -1      3821-1.54734E-03 2.73826E-04-9.73284E-01
 -1      3822 1.30446E-02-9.61507E-03-9.65857E-01
 -1      3823-3.52435E-02 1.05320E-03-9.53163E-01
 -1      3824 4.36408E-03-1.82127E-03-7.21355E-01
 -1      3825 3.63823E-02 9.85432E-02-9.71475E-01
 -1      3826-6.01380E-02-5.79933E-02-9.56164E-01
 -1      3827-1.02778E-03 4.96885E-03-9.87997E-01
 -1      3828-2.68947E-02-1.23684E-02-9.56266E-01
 -1      3829 1.47648E-02-1.45437E-03-7.65368E-01
 -1      3830 1.47639E-03-4.07144E-05-9.93542E-01
 -1      3831 6.23806E-02 2.66198E-02-9.63570E-01
 -1      3832 7.31757E-03 1.12790E-02-7.73297E-01
 -1      3833-5.29965E-03 1.37906E-02-9.61109E-01
 -1      3834-6.29830E-02-2.40708E-02-9.53768E-01
 -1      3835-4.46710E-03 2.72456E-03-7.29650E-01
 -1      3836 4.89664E-03 1.70466E-03-1.01171E+00
 -1      3837-8.62055E-03 1.42082E-02-9.87060E-01
 -1      3838 1.28553E-02-2.08368E-03-9.93308E-01
 -1      3839 1.22529E-01 4.41950E-02-9.74231E-01
 -1      3840-1.21645E-03 5.46453E-04-1.01408E+00
 -1      3841 3.08429E-03-1.84348E-02-9.88401E-01
 -1      3842-5.77290E-04-1.12502E-01-9.57002E-01
 -1      3843 7.07833E-03 2.32380E-03-9.89599E-01
 -1      3844-5.63928E-02 1.25276E-01-9.60130E-01
 -1      3845-1.28348E-02 1.34967E-02-9.58752E-01
 -1      3846-1.07658E-01 2.27258E-03-9.50317E-01
 -1      3847 5.16860E-03-2.32883E-03-9.87330E-01
 -1      3848 2.79830E-02-7.39162E-02-9.72153E-01
 -1      3849 1.12455E-02 2.11654E-03-9.92681E-01
 -1      3850-4.66061E-03-2.10660E-03-7.33148E-01
 -1      3851 2.24208E-02-4.94787E-02-9.68345E-01
 -1      3852 2.33881E-03-3.92852E-02-9.57213E-01
 -1      3853 3.83183E-03-1.62006E-02-9.88985E-01
 -1      3854 5.03512E-02 5.24185E-02-9.70327E-01
 -1      3855-1.78165E-03-1.08495E-02-9.87884E-01
 -1      3856 2.23970E-02-2.39452E-02-9.71461E-01
 -1      3857-1.20597E-01-4.77620E-02-9.48413E-01
 -1      3858-7.04238E-03 2.70372E-03-9.86342E-01
 -1      3859 4.64039E-03 7.86488E-04-9.70155E-01
 -1      3860 6.46136E-03 1.48900E-01-9.68748E-01
 -1      3861-6.85702E-02-2.24889E-02-9.66212E-01
 -1      3862-1.52336E-03 9.32154E-03-9.89452E-01
 -1      3863 1.99385E-04 3.72862E-03-7.27412E-01
 -1      3864-1.09523E-03 1.32619E-01-9.56508E-01
 -1      3865 2.66466E-03 1.91616E-03-9.91755E-01
 -1      3866-1.76186E-04 6.64813E-03-7.76845E-01
 -1      3867-6.63188E-02 7.34652E-02-9.70250E-01
 -1      3868-1.69645E-03-1.68227E-02-9.88466E-01
 -1      3869-4.12808E-02 9.58919E-02-9.63930E-01
 -1      3870-8.21949E-03 5.17893E-03-9.86927E-01
 -1      3871 3.12117E-03 8.62671E-02-9.74453E-01
 -1      3872-3.16632E-02-7.22072E-02-9.59922E-01
 -1      3873 2.95744E-02 7.55478E-02-9.71919E-01
 -1      3874 1.16577E-01-5.19241E-02-9.57939E-01
 -1      3875-1.04826E-01-3.37733E-02-9.68927E-01
 -1      3876-8.68667E-02-8.40264E-02-9.57635E-01
 -1      3877-7.13909E-03-1.42858E-03-9.85841E-01
 -1      3878-3.21229E-02 3.30299E-02-9.62024E-01
 -1      3879 1.12834E-01-4.34360E-02-9.70981E-01
 -1      3880-3.16923E-02-2.99189E-02-9.54364E-01
 -1      3881 2.71754E-02-1.21993E-02-9.62608E-01
 -1      3882-8.77242E-03 7.05909E-03-7.77154E-01
 -1      3883-1.20667E-01-1.30007E-03-9.64718E-01
 -1      3884-4.19173E-02-9.78177E-02-9.59462E-01
 -1      3885-1.83265E-03-9.46690E-02-9.71368E-01
 -1      3886 9.07772E-02-9.99002E-02-9.66209E-01
 -1      3887 1.12898E-02 1.62234E-02-9.89708E-01
 -1      3888-5.51762E-02 1.93218E-02-9.71461E-01
 -1      3889-2.37993E-03-3.21644E-03-9.98429E-01
 -1      3890 1.16462E-01-4.70966E-03-9.71965E-01
 -1      3891 8.34691E-02-3.80487E-02-9.70247E-01
 -1      3892 5.80632E-02 5.47988E-02-9.74169E-01
 -1      3893-8.51089E-04-6.98561E-02-9.68907E-01
 -1      3894 1.72616E-03-6.40366E-03-1.00496E+00
 -1      3895 6.69947E-02 4.20272E-03-9.78796E-01
 -1      3896-3.75918E-03-7.31123E-03-9.87882E-01
 -1      3897 3.39337E-03-2.33094E-03-9.96638E-01
 -1      3898-6.01527E-03 1.21220E-02-9.87389E-01
 -1      3899-1.48664E-03-4.47971E-04-9.87678E-01
 -1      3900-1.44777E-01 4.98123E-03-9.57662E-01
 -1      3901 2.22133E-03 2.52537E-04-9.64354E-01
 -1      3902 2.73227E-04 5.21987E-03-9.67098E-01
 -1      3903 1.29944E-03 1.30806E-02-9.90832E-01
 -1      3904-3.84360E-02-1.07056E-01-9.71598E-01
 -1      3905 2.85222E-03-3.30707E-02-9.75945E-01
 -1      3906-7.38811E-02-6.57819E-02-9.66283E-01
 -1      3907-4.56320E-02-4.12055E-02-9.69108E-01
 -1      3908 7.86126E-03 2.02165E-03-9.89677E-01
 -1      3909-1.13284E-02 2.08524E-03-9.86753E-01
 -1      3910 9.54926E-03 6.28232E-03-9.91275E-01
 -1      3911 4.65297E-02-5.05502E-02-9.72336E-01
 -1      3912-5.63071E-02 5.62768E-02-9.58222E-01
 -1      3913-6.81653E-02 3.30183E-02-9.69872E-01
 -1      3914-1.22864E-01-5.60393E-02-9.62861E-01
 -1      3915 4.96751E-02-1.77092E-03-9.75941E-01
 -1      3916 9.19860E-03-1.18176E-02-9.89699E-01
 -1      3917-8.31891E-04-1.14744E-02-9.60846E-01
 -1      3918-1.71959E-02 4.03197E-02-9.61748E-01
 -1      3919 5.02121E-02 1.19198E-01-9.64755E-01
 -1      3920-1.13280E-03 1.19054E-02-9.89858E-01
 -1      3921 3.20858E-03-3.13088E-04-9.88795E-01
 -1      3922-2.56105E-03-1.69193E-02-9.88245E-01
 -1      3923-7.83429E-03-8.23349E-04-9.72576E-01
 -1      3924-8.96769E-02 9.43979E-02-9.67148E-01
 -1      3925 1.04466E-02-8.06190E-03-9.81176E-01
 -1      3926 9.03363E-02 8.72888E-02-9.70205E-01
 -1      3927 1.12214E-02-7.76884E-03-9.91224E-01
 -1      3928 1.01119E-02-4.98438E-03-7.68550E-01
 -1      3929 2.02196E-02 2.30050E-02-9.61976E-01
 -1      3930-1.31061E-02-1.77716E-03-9.85472E-01
 -1      3931 3.03001E-04 1.02777E-03-9.57677E-01
 -1      3932 1.54779E-02 3.74032E-03-9.92740E-01
 -1      3933-4.81947E-02 4.38147E-02-9.71430E-01
 -1      3934 5.03185E-03 6.45071E-04-1.00914E+00
 -1      3935 6.95214E-02 7.47536E-02-9.73132E-01
 -1      3936-7.87957E-02 3.13812E-03-9.64891E-01
 -1      3937-7.45931E-02 7.05500E-02-9.66292E-01
 -1      3938-5.37583E-03-9.17972E-03-9.99135E-01
 -1      3939 2.35500E-03-1.97793E-03-7.25409E-01
 -1      3940 3.67740E-02-9.27627E-02-9.70817E-01
 -1      3941-2.67625E-02-5.68497E-02-9.71207E-01
 -1      3942 3.41734E-03 1.80902E-02-9.90992E-01
 -1      3943-2.52757E-02 5.57243E-02-9.71808E-01
 -1      3944 5.79201E-02-1.24430E-01-9.68671E-01
 -1      3945 1.83843E-02 3.74561E-03-9.92735E-01
 -1      3946-7.62127E-03-1.51915E-01-9.65831E-01
 -1      3947-2.93738E-03 1.65582E-02-9.89906E-01
 -1      3948-1.43254E-01-4.79652E-02-9.63262E-01
 -1      3949 4.16002E-02 9.06703E-02-9.73481E-01
 -1      3950-9.22170E-02 4.34136E-02-9.65382E-01
 -1      3951 1.25264E-01-6.04770E-02-9.69067E-01
 -1      3952 7.85444E-03 1.25337E-02-9.90157E-01
 -1      3953-6.88622E-02-2.97453E-02-9.68929E-01
 -1      3954-1.06141E-01 1.03786E-01-9.58146E-01
 -1      3955-5.78046E-02-1.20728E-01-9.64713E-01
 -1      3956 8.62795E-02-3.99739E-03-9.77079E-01
 -1      3957 1.43789E-02-1.06355E-02-9.90087E-01
 -1      3958 2.24135E-02 1.23055E-02-9.64441E-01
 -1      3959 6.90666E-03-8.29792E-03-7.71010E-01
 -1      3960-7.73893E-03-1.22868E-02-9.87813E-01
 -1      3961-5.39389E-04 7.66916E-03-1.00739E+00
 -1      3962 2.23722E-03 1.08841E-02-7.73061E-01
 -1      3963-1.55712E-02 3.25191E-03-9.86962E-01
 -1      3964-9.22859E-02 3.77924E-02-9.65021E-01
 -1      3965 6.01917E-03-1.31540E-01-9.70283E-01
 -1      3966-9.88818E-02-8.93965E-02-9.65288E-01
 -1      3967 1.42916E-01-4.44006E-03-9.71252E-01
 -1      3968-1.75340E-02-3.88945E-03-9.85048E-01
 -1      3969-8.13239E-04-6.20031E-03-1.00456E+00
 -1      3970 9.00412E-02-3.83800E-02-9.72217E-01
 -1      3971-1.11635E-02 8.47272E-03-9.87640E-01
 -1      3972-9.43630E-04 1.56036E-03-9.57132E-01
 -1      3973-1.48561E-02 9.65199E-03-9.87070E-01
 -1      3974-2.67890E-04-1.17450E-03-1.01476E+00
 -1      3975-9.90600E-04 1.82855E-03-1.01207E+00
 -1      3976 3.07801E-02-1.41771E-02-9.79701E-01
 -1      3977-1.21992E-02-6.43118E-03-9.86307E-01
 -1      3978-3.90663E-02 1.81044E-02-9.62012E-01
 -1      3979 6.71057E-02-2.78545E-02-9.71569E-01
 -1      3980 9.02493E-02 3.83284E-02-9.62281E-01
 -1      3981-2.54739E-03 2.62233E-02-9.61378E-01
 -1      3982-1.51630E-01-3.44570E-03-9.62936E-01
 -1      3983-1.09531E-02-7.15609E-03-9.87004E-01
 -1      3984 1.20336E-02 9.27242E-03-9.91250E-01
 -1      3985 1.41788E-02 1.03240E-02-9.91237E-01
 -1      3986 6.81237E-03-5.26620E-03-1.00554E+00
 -1      3987-1.18226E-02 2.85499E-03-7.67626E-01
 -1      3988 1.58272E-02 3.75491E-02-9.67002E-01
 -1      3989 9.00909E-05-7.26722E-03-7.26174E-01
 -1      3990-4.31997E-02-1.91678E-02-9.70965E-01
 -1      3991 6.20629E-03 1.29588E-03-7.22169E-01
 -1      3992-1.27566E-01 5.39264E-02-9.57584E-01
 -1      3993 4.94918E-03 2.68403E-03-1.00587E+00
 -1      3994-2.05814E-03 4.25347E-03-7.24070E-01
 -1      3995-4.81176E-05-5.92510E-03-9.55989E-01
 -1      3996-1.67628E-02 4.89899E-02-9.74384E-01
 -1      3997 1.05327E-01 1.00411E-01-9.69545E-01
 -1      3998 1.17762E-02-3.05000E-03-9.92541E-01
 -1      3999 1.65737E-03 2.59371E-03-1.01412E+00
 -1      4000-2.09422E-03-8.17611E-03-7.71189E-01
 -1      4001 1.94401E-03-3.51299E-03-1.00798E+00
 -1      4002-1.72777E-04 8.72484E-03-7.22364E-01
 -1      4003 9.09888E-04 4.93078E-04-9.55719E-01
 -1      4004-4.72913E-03-6.28477E-03-7.28424E-01
 -1      4005-5.48526E-04 6.22171E-04-1.01408E+00
 -1      4006-1.40658E-02-3.05854E-02-9.74040E-01
 -1      4007-3.41607E-02 8.63754E-02-9.66297E-01
 -1      4008 1.08177E-01 4.70527E-02-9.70574E-01
 -1      4009 1.66888E-02-3.53589E-03-9.92927E-01
 -1      4010-4.50609E-02 5.11370E-02-9.72260E-01
 -1      4011 4.84708E-03-1.33337E-03-1.01649E+00
 -1      4012-3.02630E-02-7.62271E-02-9.66903E-01
 -1      4013 9.80319E-03 3.05269E-03-7.67975E-01
 -1      4014-5.25447E-03-7.90530E-03-7.81333E-01
 -1      4015-9.76437E-03-1.34138E-01-9.69361E-01
 -1      4016 2.27793E-04-6.41757E-03-7.79562E-01
 -1      4017-1.00815E-01-4.50994E-02-9.68538E-01
 -1      4018-8.58434E-03-1.54413E-02-9.87145E-01
 -1      4019 6.56601E-02-6.64456E-02-9.64597E-01
 -1      4020 5.47423E-03 1.30493E-01-9.70859E-01
 -1      4021-1.17470E-02-4.21901E-03-9.70344E-01
 -1      4022-1.24811E-01 6.07984E-02-9.63483E-01
 -1      4023 6.28589E-03 8.02924E-03-9.63084E-01
 -1      4024-3.59397E-03 7.22250E-03-7.76861E-01
 -1      4025 2.59698E-02-2.33822E-02-9.77471E-01
 -1      4026 6.90183E-03-1.28259E-03-1.00774E+00
 -1      4027-6.35067E-04 2.55611E-04-1.01128E+00
 -1      4028-2.57211E-03 1.07335E-01-9.68529E-01
 -1      4029 9.39702E-04-2.22556E-02-6.40651E-01
 -1      4030-2.04111E-02 3.27528E-04-5.97309E-01
 -3
    1PSTEP                         2           1           1          
  100CL  101 1.000000000        4030                     0    1           1
 -4  STRESS      6    1
 -5  SXX         1    4    1    1
 -5  SYY         1    4    2    2
 -5  SZZ         1    4    3    3
 -5  SXY         1    4    1    2
 -5  SYZ         1    4    2    3
 -5  SZX         1    4    3    1
 -1         1-1.92631E+01-2.04743E+01-1.08602E+01 6.04035E-01 2.42681E+00-6.61184E+00
 -1         2-1.21467E+01-8.46727E+01-4.22638E+00-1.45098E+01 1.22918E+00 2.81725E+00
 -1         3-6.43772E+00-2.31837E+00 4.94286E-01 2.13539E+00-4.01258E-03 7.15562E-02
 -1         4-3.14070E+00-1.37640E+00 2.60260E-01 1.21952E+00 6.14703E-01-9.01597E-01
 -1         5-3.20627E+00 1.59103E-01 1.65433E+00-6.29135E-01 6.85652E-01 9.95778E-03
 -1         6-1.00268E+00-1.34250E+00 7.27738E-01 1.32729E+00 8.76209E-01-2.31992E-01
 -1         7-1.35313E+00-7.95447E-01 2.00257E+00 1.19876E+00 5.12939E-01 2.72689E-01
 -1         8-1.79025E+00-1.90296E+00 2.92561E-01 1.43061E+00 4.78217E-01-7.41695E-01
 -1         9-7.58716E+00-1.34430E+00 6.15277E-01 4.59790E-01-5.73190E-02-1.61003E-02
 -1        10-6.14343E+00-1.33040E+00 5.07751E-01-8.87337E-01-4.17515E-04 2.39780E-01
 -1        11-1.30137E+01-6.53494E+01-2.43680E+00 1.41513E+01-4.82773E+00 5.94547E-01
 -1        12-1.07151E+01-9.18301E+01-3.47485E+00-1.52884E+01-9.79851E-01-6.05018E-01
 -1        13-5.06264E+00-2.39297E+00 4.43931E-01 2.35337E+00 4.89195E-02 4.83725E-02
 -1        14-1.13540E-01-2.13576E+00 2.43998E+00 3.55455E-01 4.81220E-01 2.99980E-01
 -1        15-3.35782E-01-3.51156E-01-6.66721E-01-5.02905E-02 4.52564E-01 2.30418E-01
 -1        16-2.16777E+00-6.97327E+00 5.70643E-01-2.12967E+00-1.91010E-02 1.08960E-01
 -1        17-2.13151E+00-5.29216E+00 4.13851E-01-2.22098E+00-5.35079E-02-2.93631E-02
 -1        18-6.63606E+01-2.94809E+01-3.19269E+00 3.46062E+01 3.73696E+00-1.28610E+00
 -1        19-7.30749E+01-9.67875E+00-3.60432E+00 1.64680E+01 1.06666E+00-2.46535E+00
 -1        20-5.99685E+01-2.82006E+01-3.76074E+00 3.45248E+01 7.65305E-01-2.54292E+00
 -1        21-3.32958E+01-6.02351E+01-2.99570E+00 3.60863E+01 1.09561E-01 1.52257E+00
 -1        22-3.96667E+00-4.53983E+00 4.08069E-01-2.87086E+00 3.15017E-02-3.79877E-02
 -1        23-9.85317E+00-8.21556E+01-2.30355E+00 1.43037E+01 1.48111E+00-6.63576E-01
 -1        24-1.02051E+01-8.72704E+01-1.75443E+00 1.45773E+01 1.16853E+00-1.28354E+00
 -1        25-9.08360E+00-7.49568E+01-4.38314E+00-1.39173E+01 3.34036E-01-1.82370E-01
 -1        26-7.84961E-01 1.27718E-01 6.43711E-01 2.76887E-01-7.26325E-01 3.96802E-01
 -1        27-6.84716E+00-1.35400E+00 4.79528E-01 2.50617E-01-2.12739E-03 2.01724E-02
 -1        28-5.89304E+00-1.39692E+00 5.52782E-01-9.62350E-01 7.32117E-02 7.53028E-02
 -1        29-2.43954E-01-2.67761E-01-4.23054E-01-4.15018E-02 5.46526E-02 3.21256E-01
 -1        30-2.39668E+00-3.66025E-01 1.05878E-01 4.45314E-02-1.34377E-01 9.28350E-01
 -1        31-8.23063E-01-3.16344E+00 1.62083E-01 5.77693E-01-6.78893E-01 3.48468E-01
 -1        32-2.05899E+00-1.87535E+00 1.63232E-01-1.22596E+00 5.83741E-01 7.13752E-01
 -1        33-2.37561E-01-3.84334E-01-4.38918E-01 8.42079E-03 1.83462E-01 2.84774E-01
 -1        34-6.39032E+00-2.01798E+00 5.46298E-01-1.99229E+00 2.43134E-02 1.04916E-02
 -1        35-8.95472E-01 1.11258E-01 3.10156E-01-9.32949E-02-3.96354E-01 6.20872E-01
 -1        36-6.75850E-01-1.45906E+00 2.14273E+00-1.22410E+00-5.84688E-02 6.89386E-01
 -1        37-4.29654E+00-2.60537E+00 8.38131E-01-2.17694E+00-1.45041E-02 1.11319E-01
 -1        38-3.64205E+00 2.29719E-02 9.37213E-01-7.07408E-01 3.98265E-01 5.35983E-02
 -1        39-1.57770E-02-3.62769E+00 9.74047E-01-8.18407E-01-2.21802E-01 3.58328E-01
 -1        40-1.47482E+00-7.71572E-01 2.20211E+00 1.18013E+00-4.27749E-01-3.60274E-01
 -1        41-1.90402E-01-2.67351E-01-7.53650E-01 6.02594E-02-4.28522E-01 2.51518E-01
 -1        42-2.58791E+00-5.79438E+00 6.91326E-01 2.14036E+00-1.93398E-01-1.90535E-02
 -1        43-8.16548E-01-2.46628E+00 2.35880E-01 8.30087E-01-8.44892E-01 5.77306E-01
 -1        44-1.38728E+00-6.13547E+00 6.56829E-01 1.49514E+00-4.83388E-02 5.53626E-02
 -1        45-1.42518E+00-7.40158E+00 4.80440E-01 2.34955E-01 1.31543E-01-4.46119E-02
 -1        46-7.21209E+01-9.59951E+00-5.26687E+00-1.69274E+01 4.67201E+00 2.22285E+00
 -1        47-7.87341E+01-6.74558E+00-6.47899E+00 9.84117E+00 3.70420E+00 5.26660E+00
 -1        48-1.16098E+00-5.82501E+00 8.46785E-01-8.98733E-01-3.08995E-02 2.80149E-02
 -1        49-6.64759E+00-2.01248E+00 6.32439E-01 1.97267E+00 1.25708E-02 8.95733E-02
 -1        50-5.03319E+00-2.09505E+00 5.38400E-01 2.15709E+00 1.05574E-02 2.67056E-02
 -1        51-3.65732E+01-6.85304E+01-1.86130E+00-3.66879E+01-2.52100E+00-5.13789E+00
 -1        52-3.13366E+01-5.47931E+01 3.90696E+00-3.56297E+01-3.18774E+00-2.44202E+00
 -1        53-2.11680E+00-7.77890E-01 1.40003E-01 6.92682E-01-6.19533E-01 9.03232E-01
 -1        54-1.83585E+00-5.22455E-01-5.76595E-02 5.00643E-01-2.16379E-01 7.46613E-01
 -1        55-3.71356E+00-4.41753E+00 5.38210E-01 2.82708E+00-7.94239E-03 8.15084E-02
 -1        56-5.49511E+01-2.90575E+01-3.32443E+00-3.17033E+01-5.47468E-01-2.67908E+00
 -1        57-4.38018E+00-2.75842E+00 4.38758E-01 2.26446E+00 8.96033E-02 4.62358E-02
 -1        58-1.97818E+00-1.39283E+00 1.14747E-01 1.02112E+00-5.61778E-01 6.92975E-01
 -1        59-4.15847E-01-9.89858E-01 2.02137E-01 2.51110E-01-7.41486E-01 4.53962E-02
 -1        60-1.06843E+00-1.42056E+00 9.53038E-02 1.02742E+00-7.90986E-01 5.26394E-01
 -1        61-3.28361E-01-2.59138E-01-5.60416E-01 2.94149E-02-2.68691E-01 3.33150E-01
 -1        62 7.22752E-02-3.39669E+00 1.28574E+00-7.08379E-01-9.07879E-02 5.13425E-01
 -1        63-5.19612E-01-3.26454E+00 7.09355E-02-3.76511E-02-9.63079E-01 1.61902E-01
 -1        64-1.60434E+00-9.80544E-01 2.11076E+00-1.10382E+00-4.78912E-01-6.04463E-02
 -1        65-1.63878E+00-7.20866E+00 4.18212E-01 5.28004E-01-1.04267E-02-3.46870E-02
 -1        66-4.84819E-01-1.00955E+00 4.81630E-01-4.85066E-01 4.14622E-01 3.45853E-01
 -1        67-4.85273E-01-3.64839E-01-6.32687E-01-1.29492E-01 4.80446E-01 1.70525E-01
 -1        68-6.59926E-01-2.86061E+00 1.97063E-01-2.56093E-01 9.11598E-01 6.78019E-02
 -1        69-7.68793E+01-9.80482E+00-2.07851E+00 2.06478E+01 1.17059E+00-3.90411E+00
 -1        70-2.16909E+00-7.28219E+00 6.54969E-01 1.90468E+00 1.74851E-01-1.34222E-01
 -1        71-4.73586E-01-8.52563E-02-4.69451E-01-4.29537E-02 2.56350E-01-1.92478E-01
 -1        72-3.06050E-01-2.89481E-01-3.76545E-01 6.11387E-03 3.33757E-01-2.70725E-01
 -1        73-1.35908E+00-1.51874E+00 1.63803E+00-1.26207E+00 2.95444E-01 1.03161E-01
 -1        74-5.30958E-01-2.37845E+00 1.29317E-01 1.88475E-01 7.87173E-01-1.33281E-01
 -1        75-5.69171E-01-1.00834E+00 4.17399E-01-6.16863E-01-3.31033E-01-5.50270E-01
 -1        76-3.36766E+01-5.82966E+01-5.61581E+00 3.68721E+01-1.29153E+00-6.77530E-01
 -1        77-4.01782E+00-5.46861E+00 5.60045E-01-3.21739E+00 1.21898E-01 6.10878E-02
 -1        78-3.72369E+00-4.81642E+00 5.57965E-01 2.94385E+00-4.30203E-02 2.51901E-04
 -1        79-1.78236E+00-2.12769E+00 2.30188E-01-1.40663E+00-5.66235E-01-8.28552E-01
 -1        80-4.18049E+00-2.97943E+00 9.80954E-01-2.53344E+00 8.23116E-02 1.52748E-01
 -1        81 2.27541E-02-4.59983E+00 1.20112E+00-9.16504E-01-1.19151E-02-4.99037E-01
 -1        82-1.20585E+00-2.26033E+00 1.94743E-01-1.20998E+00-5.01369E-01-4.39264E-01
 -1        83-6.22427E+00-2.93981E+00 7.21838E-01-2.54633E+00 5.20144E-02-1.04690E-01
 -1        84-6.22124E+00-1.47363E+00 8.22974E-01-1.74581E+00-6.56282E-02 4.82844E-03
 -1        85-3.13478E+00 1.81381E-01 1.91160E+00 6.76910E-01-7.62392E-01-1.39808E-01
 -1        86-3.30625E+00-8.15165E-01 2.47310E-01-7.51930E-01-3.24367E-01-7.17490E-01
 -1        87-2.81698E+00-9.85683E-01 4.17592E-01-1.04770E+00-6.38774E-01-8.39882E-01
 -1        88-4.08531E-01 4.41610E-02-8.22592E-01 1.86845E-01 2.05058E-01-5.91190E-01
 -1        89-4.07205E-01 1.68667E-02-8.31920E-01 1.53462E-01 2.54464E-01-5.87166E-01
 -1        90-1.42918E+00-1.92362E+00 3.95685E-03 1.22978E+00 5.37142E-01-3.43884E-01
 -1        91-1.84462E-01-1.73434E-01-6.65243E-01 2.04664E-01 3.52074E-01-3.62342E-01
 -1        92-3.57281E+00-6.22053E-01 2.66748E-01-2.96418E-01-1.56907E-01-7.23894E-01
 -1        93-1.14241E-01-1.56038E-01-5.36372E-01-1.74159E-01-3.07470E-01-2.68549E-01
 -1        94-3.80867E-01-2.99953E-01-7.64534E-01-1.01612E-01-2.74799E-01-5.14578E-01
 -1        95-8.95524E-01-2.15536E+00 7.87809E-03-1.87483E-01 3.74140E-02 7.53719E-01
 -1        96-1.13418E+00-6.69870E-01 2.23266E-01-5.05964E-02 3.57297E-01 1.72576E+00
 -1        97-2.75119E-01-1.13951E-01-3.66387E-01-8.53625E-02-4.53844E-03 2.74688E-01
 -1        98-5.06193E-01-2.39489E+00 9.65187E-02 5.32708E-02-1.78418E-01 4.99261E-01
 -1        99-2.15386E+00-3.49732E-01 2.70089E-02-2.82456E-01 1.43001E-01 7.55223E-01
 -1       100-6.22646E+00-1.29803E+01-3.87762E+00-7.28064E-01-1.55231E+00-3.67338E-01
 -1       101-2.45553E+00-1.08661E+00 1.14054E+00 1.83663E+00 2.81223E-01 4.11910E-01
 -1       102-1.26173E+00-2.04391E-01 2.41868E-01-6.16776E-01 4.23918E-01 4.59428E-01
 -1       103-2.94865E+00-2.53658E+00-1.02974E+00 1.56017E-01 3.09810E-01 2.17234E+00
 -1       104-2.62470E+00-1.11648E+00 9.60515E-01-1.88333E+00-2.83777E-01 2.76431E-01
 -1       105-2.80408E+01-6.53282E+01 1.24002E+00 3.49378E+01 1.03437E+00 1.33035E+00
 -1       106-1.89592E+01-1.74480E+01-1.24129E+01-1.05333E+00 2.13232E-01-6.87474E+00
 -1       107-2.14514E-01-2.60080E-01-4.07517E-01-1.39459E-01 1.08916E-01 2.83281E-01
 -1       108 2.47421E-01 4.76867E-02 1.06484E-01-3.81186E-01 1.87037E+00 2.28975E+00
 -1       109-1.90896E+00-3.70516E-01-6.52002E-03-5.95237E-01 1.63659E-01 7.06051E-01
 -1       110-5.04134E+00-2.46470E+00 7.05261E-01-2.48514E+00 1.08330E-01 2.48426E-01
 -1       111-1.61940E+00-1.74985E+00-6.87959E-01-2.23797E-01 3.40099E-01 1.52005E+00
 -1       112-2.02183E+00-8.29747E-01 2.21932E-01-7.17731E-01 4.76432E-01 7.62628E-01
 -1       113-6.30811E+00-1.48622E+01-3.42090E+00 1.28935E+00 5.88077E-01-1.78837E-02
 -1       114-1.95350E+00-3.30096E+00 2.62752E-01 6.41541E-01 4.87853E-01 5.32455E-01
 -1       115-3.23819E+00 1.57561E-01 1.80270E+00 7.00337E-01 7.15951E-01 1.47077E-01
 -1       116-7.60511E+00-1.04665E+01-3.61616E+00 3.88096E+00-6.16563E-01 2.34527E-01
 -1       117-5.22643E-01-1.79155E+00 1.75106E-01 7.44570E-01 2.82631E-01 6.91171E-01
 -1       118-6.21654E-01-7.10762E-01 6.59308E-01-8.19162E-01 7.02498E-01 1.48981E-01
 -1       119-2.25722E+01-2.25496E+01-8.90849E+00-4.98064E-01-4.20335E+00-3.82199E+00
 -1       120-1.38446E+00-1.54133E+00-3.64651E-01 2.77227E-01 7.15805E-01 1.08474E+00
 -1       121-1.27667E-01-3.19999E-01-6.06283E-01-1.25780E-01 4.15096E-01 2.36002E-01
 -1       122-3.11404E+00-3.16973E+00-3.81156E-01 9.80644E-01 2.41513E-01 8.51954E-01
 -1       123-1.00148E-01-2.62612E-01-4.00159E-01-1.67649E-01 3.31730E-01 2.00378E-01
 -1       124-1.27965E+00-1.87545E+00 2.07960E-01-9.90891E-01 6.28043E-01 3.82413E-01
 -1       125-5.43125E-01-1.25932E+00-2.29105E-01 1.91591E-01 7.60088E-01 5.99954E-01
 -1       126-2.49992E+00-3.59975E+00-1.00911E+00 4.69867E-01 8.28243E-01 1.02285E+00
 -1       127-6.77609E-02-1.60506E+00 5.46059E-01-5.62947E-01 5.83889E-01-1.08835E-01
 -1       128-1.60789E+00-1.08405E-01 4.64112E-01-6.29709E-01-4.28829E-02 7.43978E-01
 -1       129-2.11567E+01-1.73347E+01-9.21107E+00-4.78089E-01-4.70262E+00-1.23758E+00
 -1       130-7.97621E-01-4.72300E-01 3.68876E-01 8.72249E-01 2.37104E+00 1.46078E+00
 -1       131-2.27082E-01-2.98985E-01-6.01116E-01-1.52517E-01 4.13424E-01 1.44587E-01
 -1       132-1.31411E+00-2.75666E+00 2.81023E-01-1.12597E+00 8.63919E-01 5.67282E-01
 -1       133-1.94854E+00-1.45302E+00-8.37275E-01 6.83641E-01 3.25469E-01 6.68443E-01
 -1       134-1.84444E+01-1.37336E+01-8.57449E+00 1.41567E+00-3.36653E+00 6.34025E-01
 -1       135-1.75170E+00-1.47491E+00-5.05514E-01 3.65472E-01 1.25051E+00 9.38685E-01
 -1       136-4.36225E+00-2.12426E+00-5.07898E-01 5.75790E-01 3.32580E-01 2.48094E-01
 -1       137-2.23896E+00-1.06576E+00 1.19091E+00-1.75704E+00 2.28869E-01-5.25802E-01
 -1       138-7.88833E-01-2.38495E+00-1.52577E-02-7.36165E-01 8.07341E-01 2.34355E-01
 -1       139 6.51233E-02-1.67553E+00 1.51361E-01 6.60625E-02 6.40934E-01-1.89150E-01
 -1       140-2.32888E+00-1.87647E+00-7.28369E-01 2.16935E-01 1.62753E+00 7.20790E-01
 -1       141-2.92189E+00-2.02866E+00-1.56179E+00 2.57603E-01 1.46623E+00 1.55771E+00
 -1       142-1.28506E+00-9.02824E-01 7.17243E-01-1.23167E+00 1.58680E-01 7.59167E-01
 -1       143-1.59495E+01-7.09546E+00-5.72102E+00 1.72908E+00-8.15070E-01 9.46545E-01
 -1       144-8.41784E+01-1.17614E+01-3.84054E+00-1.19599E+01 3.83955E+00-1.71355E-01
 -1       145-1.94204E-01-4.69096E-01-4.86978E-01-1.96469E-01 4.16100E-01 5.94098E-02
 -1       146-3.21932E-01-7.97427E-01 3.15949E-01-3.30704E-01 1.55477E+00 1.39205E-01
 -1       147-2.16030E+00-6.73306E-01 2.96134E-01-1.92672E-02 7.44592E-01-3.04638E-01
 -1       148-1.48477E+00 8.08650E-02 4.50381E-01-1.16791E-01 6.90735E-01 5.28172E-01
 -1       149-1.55806E+00-5.83292E+00 8.39775E-01-6.41005E-01 1.07854E-01-1.52155E-03
 -1       150-5.78344E-01 8.37281E-01-8.82485E-02-5.74959E-01 2.86512E+00 7.77676E-01
 -1       151-2.04080E+00-1.75983E+00-1.06299E-01 1.08790E-01 1.33122E+00 2.36133E-01
 -1       152-1.25513E+00-2.89429E+00 9.26068E-01 2.07105E+00 2.93081E-01 2.55903E-01
 -1       153-6.61652E+00-4.43273E+00-1.63136E+00 3.15175E-01 1.99463E+00 9.12232E-01
 -1       154-2.41188E-01-1.33835E+00 2.59019E-01 6.72973E-01 4.48865E-01-4.25237E-01
 -1       155-5.56481E+01-3.28231E+01-5.86962E+00-3.27803E+01-2.58766E-01-8.45429E-01
 -1       156-2.62513E-02 6.63789E-01 2.71627E-01-4.13964E-01 2.46316E+00-1.58414E+00
 -1       157-7.00572E-01-2.07459E+00-9.02234E-02 7.48623E-01 8.67021E-01-2.47202E-01
 -1       158-4.50544E+01-2.24194E+01-3.70029E+00-2.78813E+01-5.23695E+00 1.88045E+00
 -1       159-7.48744E+01-1.03856E+01-4.14999E+00-1.47733E+01-2.74291E-01 1.25951E+00
 -1       160-2.58591E+00-1.84626E+00-1.22340E-01-3.27827E-02 1.57752E+00-4.04982E-01
 -1       161-2.27139E+00-5.80914E+00 4.69807E-01 2.47554E+00 1.80479E-01-5.06803E-02
 -1       162-9.70420E+00-7.98153E+00-3.16735E+00-3.71411E+00 2.23060E-01 7.24518E-01
 -1       163-1.08664E+00-2.32961E+00 6.75630E-02 1.08475E+00 9.93353E-01-6.08969E-01
 -1       164 7.12468E-02-1.45954E+00 7.85687E-02 2.24252E-03 7.02980E-01 1.71322E-01
 -1       165-1.15485E+00-9.88885E-01 2.35184E-01 1.16658E+00 4.24390E-01-8.04586E-01
 -1       166 1.64941E-01-3.72807E+00 2.10802E+00-8.62047E-01 3.04253E-01-8.11091E-01
 -1       167-5.84490E-01-1.15176E+00-3.25945E-02-5.55262E-01 2.52983E+00-1.93826E+00
 -1       168-2.29032E+01-5.43734E+01-6.89974E+00-2.90171E+01-5.35675E+00-1.77918E-01
 -1       169-1.41310E+00-2.73203E+00-5.01882E-01-6.04163E-01 5.88072E-01 9.44293E-02
 -1       170-1.32085E+01-1.26698E+01-6.97765E+00-9.77262E-01-1.25264E+00 8.40149E-01
 -1       171-2.25922E-01-2.01607E-01-7.08502E-01 2.13710E-01 3.77948E-01-4.00510E-01
 -1       172-1.03617E+01-8.21104E+00-3.94467E+00-3.86991E+00 2.27395E-01 7.08285E-01
 -1       173-2.10446E+00-1.65548E+00-5.71640E-01-7.31606E-01 2.36441E-01-1.51200E-01
 -1       174-4.81161E+00-3.19311E+00 4.37191E-01 2.60858E+00-1.99823E-01 8.75820E-02
 -1       175-3.92901E+00-4.59447E-02 9.00839E-01 8.92644E-01 3.21334E-01 2.55366E-01
 -1       176-1.54380E+00-1.67783E+00 2.05589E-01-3.73692E-01 1.06858E+00-8.60038E-01
 -1       177-1.60392E+00-5.47436E-02 8.78241E-01 6.72112E-01-1.93199E-01-8.48444E-01
 -1       178 7.69516E-02-3.95459E+00 1.23308E+00 7.30241E-01 1.49789E-01-5.39874E-01
 -1       179-1.08023E-01-1.53969E+00 3.29627E-01 5.64527E-01 6.19380E-01 1.22317E-02
 -1       180-1.96082E+01-1.97124E+01-1.12545E+01-1.89374E-01-7.51602E-01 3.98883E+00
 -1       181-2.75936E+01-6.21957E+01-5.36089E+00-3.25568E+01-3.72578E+00 5.71484E-01
 -1       182-1.04641E+01-9.29752E+01-5.04802E-01-1.13969E+01-1.56218E+00-3.93692E-01
 -1       183-1.62638E+01-2.18361E+01-1.06935E+01-4.53760E-01-8.35944E-01 4.30784E+00
 -1       184-2.01016E+00-2.71167E+00-1.74503E-01-2.70426E-01 1.12618E+00-1.14831E+00
 -1       185-1.92265E+00-3.03253E+00 1.48896E-01-1.24226E+00 1.23211E+00-2.55449E-02
 -1       186-1.33833E+01-1.42539E+01-9.43475E+00-2.88300E+00-5.69416E-01 2.70402E+00
 -1       187-9.49186E-01-1.52583E+00-4.83458E-01-6.78549E-01 5.23148E-01-7.18174E-01
 -1       188-1.15109E+00-2.57748E+00 9.91875E-01 1.89875E+00-3.51357E-01-2.48632E-01
 -1       189-7.20943E+00-1.60403E+01-5.27614E+00-2.34778E+00 7.41245E-01 1.19593E+00
 -1       190-1.18806E+00-1.30520E+00 1.66775E-01-7.13627E-02 8.42621E-01-8.96579E-01
 -1       191-1.37500E+00-3.37688E-01 4.88884E-01-2.84170E-01-2.05217E-01-4.73122E-01
 -1       192-2.86981E+00-8.14849E-01 1.69346E-01 8.33747E-01 2.67674E-01-7.51286E-01
 -1       193-1.68330E+00-2.19626E+00-3.31118E-02 3.10393E-01 3.58637E-01-1.57561E+00
 -1       194-5.17554E-01 1.46355E-01-8.97519E-01-3.61928E-02-4.76613E-02-6.81553E-01
 -1       195-4.25453E-01 7.82756E-02-8.31897E-01-6.53127E-02-5.67296E-03-6.27300E-01
 -1       196-1.38255E+00-1.17605E-01 2.13153E-01 4.22242E-02-5.22841E-01-3.34854E+00
 -1       197-9.56918E+00-7.09115E+01-4.18664E+00 1.48591E+01-3.78281E+00 4.47609E+00
 -1       198-9.91278E-01-2.87333E+00-9.48288E-03 9.76473E-02-1.74270E-01-8.06987E-01
 -1       199-6.26456E+00-1.35209E+01-3.98857E+00-1.58834E+00 9.83563E-01 1.06050E+00
 -1       200 7.50720E-02-1.44666E+00 5.86763E-01 4.94567E-01-1.78052E-01-2.61125E-01
 -1       201-2.81778E+00-1.08800E+00 8.22453E-01-1.90168E+00 3.67332E-01-5.00596E-02
 -1       202-6.01431E+00-1.46584E+01-4.23842E+00 1.42233E+00-5.98673E-01-2.74750E-01
 -1       203-1.69194E+00-4.29365E-01 8.16280E-01-1.03125E+00-5.28929E-01-1.97008E-01
 -1       204-1.75736E+00-2.32335E+00-7.40614E-01 2.78211E-01 1.18195E-01-1.14430E+00
 -1       205-3.27594E+00-4.78377E-01 5.75186E-02 1.72915E-01 7.29017E-02-7.27849E-01
 -1       206-2.72174E+00-1.11011E+00 1.82997E+00 2.06574E+00-5.46314E-01-5.18154E-01
 -1       207-2.36248E+00-3.48651E+00-1.20364E+00-2.22006E-01 2.57700E-01-1.42665E+00
 -1       208-1.52255E+00-2.92981E-01 3.17015E-01 7.83534E-01 4.70119E-01-4.73823E-01
 -1       209-2.43300E+01-2.17666E+01-1.31143E+01-9.46130E-01 1.88948E+00 7.84321E+00
 -1       210-3.58562E-01-1.69533E-01-6.47907E-01-2.19776E-01-2.78391E-01-4.79428E-01
 -1       211-5.83735E-01-5.94891E-01-8.30223E-01 4.00776E-02-9.74472E-01-2.74488E+00
 -1       212-2.76600E+01-5.12885E+01-4.22765E+00 3.24030E+01 3.20462E-01 4.74851E-01
 -1       213-1.76290E+00-2.96870E+00 9.39267E-02 1.15401E+00-3.48759E-01-7.47801E-01
 -1       214-1.12658E+01-1.44326E+01-6.83952E+00 1.69872E+00 1.62405E+00 2.98362E+00
 -1       215-5.22812E+00-1.34450E+01-3.17495E+00 1.41290E+00-6.11924E-01-9.88704E-02
 -1       216-3.08420E+00-3.64581E+00-1.33830E+00 5.08347E-01-5.11534E-01-2.02813E+00
 -1       217-1.95551E-01-4.41200E-01-5.85657E-02-2.81144E-01-6.66919E-01-1.36358E+00
 -1       218-1.81870E+00 1.78425E-01 7.97316E-01 7.26766E-02 4.66464E-01-6.93357E-01
 -1       219-8.52708E-01-1.09410E+00 8.05987E-01-1.14607E+00-8.45969E-01-1.73537E-01
 -1       220-2.54171E+00-2.56617E+00-6.50549E-01 8.66778E-01-1.68420E+00-1.27631E+00
 -1       221-1.29785E+00-2.91188E+00 1.52118E+00-2.21437E+00 5.38879E-01-3.81297E-01
 -1       222-1.43220E-01-1.35531E-01-5.13170E-01-1.67844E-01-3.05943E-01-2.71783E-01
 -1       223 2.00760E-01-3.44239E-03-1.63815E-01 1.45880E-01-2.20733E+00-1.63261E+00
 -1       224-3.10230E+00-2.84516E+00-3.87762E-01 9.78635E-01-1.31109E+00-1.65928E-01
 -1       225-1.21219E-01-2.01682E+00 2.67100E-01-6.18567E-01-5.18935E-01 6.49747E-03
 -1       226-2.47239E+00-2.44785E+00-6.19752E-01 3.18719E-01-1.10932E+00-4.66056E-01
 -1       227-1.33420E+00-9.80686E-02 8.63304E-01-7.46868E-01 1.24636E-01-1.15990E+00
 -1       228-3.49400E+00 6.44681E-02 1.45133E+00-8.08406E-01-5.47551E-01 2.62384E-01
 -1       229-3.82834E+00-3.50003E+00-1.06997E+00 8.00466E-02-1.46109E+00-1.27015E+00
 -1       230-5.11010E+01-2.07469E+01 5.74190E+00 2.67853E+01-1.08338E+01 3.61402E+00
 -1       231-1.88954E+01-2.36655E+01-1.23397E+01-1.13176E+00 6.75424E+00 4.26306E+00
 -1       232-2.44832E-01-3.89411E-01-7.46295E-01-8.78473E-02-5.18033E-01-2.30273E-01
 -1       233-2.15002E-01-3.88124E-01-8.18264E-01-1.60445E-01-5.53356E-01-1.62712E-01
 -1       234-1.64354E+01-1.49145E+01-7.78742E+00 1.38547E+00 4.10318E+00 2.25677E+00
 -1       235-2.12517E+00-7.38553E+00 5.15000E-01-2.05590E+00-2.75779E-02 1.31765E-01
 -1       236-5.62873E+01-1.87619E+01 1.87640E+00 2.86197E+01-5.79820E+00 5.83687E+00
 -1       237-2.48095E+00-5.63455E+00 8.54655E-01-2.57765E+00-2.52817E-01-2.25596E-02
 -1       238-5.20325E-01-2.85958E+00 1.42064E-01-8.21180E-01-7.88209E-01-1.96682E-01
 -1       239-2.18955E+00-2.06174E+00-2.96510E-01 8.73044E-01-5.62692E-01 3.76432E-03
 -1       240 4.23876E-02-4.03313E+00 1.31055E+00 8.57620E-01-1.47754E-01-5.12428E-01
 -1       241-1.85886E+00-3.39884E+00-1.34181E+00 6.84064E-01-1.42289E+00-1.17748E+00
 -1       242 1.12745E-01-2.01945E+00 4.29255E-01 9.96281E-02-7.24084E-01 3.20422E-01
 -1       243-9.65834E-01-2.93154E+00 4.26063E-01-1.05376E+00-8.44879E-01-5.87706E-01
 -1       244-1.02435E+00-7.76246E-01 9.46470E-01-1.09062E+00-9.30089E-02-8.28117E-01
 -1       245-2.05962E+01-1.27045E+01-8.61455E+00-1.07647E+00 3.76568E+00 1.85742E-01
 -1       246-7.77595E+01-1.40188E+01-4.34560E+00-1.66038E+01 1.72819E+00 1.85985E+00
 -1       247-9.40288E+01-1.05535E+01-8.48840E+00 8.27193E+00 3.28270E+00 5.60193E+00
 -1       248-2.16108E+01-2.78973E+01-1.50071E+01 4.33302E-01 8.96313E+00 2.94312E+00
 -1       249-8.77645E-02-3.51052E-01-6.08779E-01-2.80592E-02-4.62292E-01-3.69504E-02
 -1       250-1.67387E+01-9.30038E+00-6.97310E+00 4.75368E-01 1.77242E+00 6.61631E-01
 -1       251-6.08066E-01-5.40030E-03-5.98742E-01-2.98098E-01-2.10275E+00-7.05598E-01
 -1       252-1.85254E+00-1.58123E+00-1.08771E-01-1.16051E-01-1.21432E+00 2.58635E-01
 -1       253 7.97207E-03-3.03971E-01-6.28191E-01-4.04929E-02-4.41850E-01-4.51421E-02
 -1       254-1.05104E+00-2.70316E+00 1.04405E+00 1.87523E+00-1.52513E-01-4.07034E-01
 -1       255-3.40291E+00-1.97010E+00 6.59395E-02-2.86117E-01-7.35653E-01 5.63976E-01
 -1       256-7.49460E-01-1.20938E+00-1.08920E-01 6.79491E-02-1.81251E+00-2.65861E-01
 -1       257-2.33211E-01-1.68404E+00 4.41046E-01 8.14564E-01-6.30968E-01 6.35239E-01
 -1       258-3.37902E-01-2.62776E+00 7.97388E-02-4.84139E-01-6.87908E-01-1.51802E-01
 -1       259-8.19351E-01-1.31771E+00-5.94559E-01-3.77299E-01-1.03833E+00 4.04933E-01
 -1       260-3.75235E+00-2.26121E+00-1.01168E+00 4.59344E-02-1.63896E+00 2.01342E-01
 -1       261-1.38713E+01-5.62917E+00-3.38521E+00 9.60967E-01 9.92757E-02-2.51469E-01
 -1       262-9.93013E-01-2.56678E+00 1.42294E+00-1.85374E+00-2.94906E-01 4.96751E-01
 -1       263-1.58772E+01-7.11342E+00-4.76448E+00-1.56633E+00 1.31801E-01 8.39826E-01
 -1       264-1.87673E+01-1.93651E+01-1.27380E+01-6.16771E-02 5.09116E+00-2.63323E+00
 -1       265-2.64850E-01-2.70036E-01-4.73088E-01 1.54586E-01-4.08754E-01 2.49539E-01
 -1       266-1.44792E+01-1.30370E+01-7.09953E+00-1.59711E+00 2.07155E+00-1.57826E+00
 -1       267-2.42198E+00-2.02359E+00-6.66078E-01-6.04154E-01-6.22417E-01 6.28150E-01
 -1       268-8.43534E-01-7.56275E-01 6.86545E-01 9.68934E-01-2.19166E-01 8.27069E-01
 -1       269-2.50969E+00-1.78621E+00-1.14275E-01 2.82821E-02-1.07019E+00 4.26698E-01
 -1       270 3.60776E-02-2.20026E+00 3.27388E-01-2.67519E-01-4.04259E-01-2.15151E-01
 -1       271-6.81934E+00-5.08708E+00-1.92871E+00-1.32307E+00-1.10317E+00 1.63921E+00
 -1       272-1.91264E+00-1.97353E+00-1.04515E+00-4.33367E-03-1.92766E+00 4.02338E-01
 -1       273-5.23220E+01-2.47456E+01-3.81171E-01-3.02933E+01-1.66645E+00-2.03798E+00
 -1       274-1.75881E-01-1.04771E-01-5.56842E-01 1.02196E-01-1.90853E-01 3.12412E-01
 -1       275-1.47540E+00-1.62122E+00-6.11365E-01 1.37577E-01-1.07943E+00 1.06743E+00
 -1       276-3.50743E+00-2.56910E+00-1.44552E+00-4.95496E-01-1.06119E+00 1.19251E+00
 -1       277 1.12236E-01-3.62111E+00 1.49653E+00 7.21194E-01-1.01135E-02 6.20824E-01
 -1       278-1.66059E+00-1.17989E+00-1.14784E-01-5.83215E-01-1.40745E-01 7.22599E-01
 -1       279-3.57530E+00-3.61418E-02 7.37703E-01 7.63129E-01-2.82297E-01-1.13498E-01
 -1       280-1.71453E+00-5.88765E-02 5.68654E-01 5.61378E-01 1.29561E-01 5.27064E-01
 -1       281-1.09877E+01-8.15082E+00-4.19753E+00-3.69820E+00-1.73666E-01-1.45657E+00
 -1       282-9.80484E+00-1.17029E+01-5.62697E+00-4.36034E+00 1.01237E+00 5.08334E-01
 -1       283-3.10665E+00-2.81629E+00-1.44827E+00-1.70437E-01-1.02148E+00 1.69401E+00
 -1       284-2.10496E+01-2.14434E+01-8.77931E+00 5.78811E-01 4.00953E+00-5.51342E+00
 -1       285-1.16512E-01-3.36759E-02-1.47441E-01-2.73702E-02 1.63260E-02 1.27954E-01
 -1       286-4.52428E-02 4.59636E-04-1.31681E-01-1.02082E-02 1.62242E-02 7.73451E-02
 -1       287-1.44054E+00-1.49893E+00-1.65650E-01 7.18146E-01-6.08962E-01 1.42897E+00
 -1       288-1.31707E+00-8.88233E-02 8.14961E-02 1.13723E-01-5.54532E-01 1.34791E+00
 -1       289-3.45459E+00 8.13122E-02 1.52672E+00-7.95413E-01-5.76886E-01 2.73716E-01
 -1       290-1.00874E+00-9.23066E-01-5.39333E-02-6.60215E-01-7.13779E-01 1.06924E+00
 -1       291-1.32537E+00 6.73405E-02 1.57173E-01-2.83821E-02 1.76507E-01 5.64759E-01
 -1       292-1.00469E+00-2.28112E+00 1.16814E+00 1.72155E+00 3.95209E-01 3.05273E-01
 -1       293-7.50091E-01-7.12674E-01 6.02696E-01 9.05571E-01-8.76919E-01 2.93496E-01
 -1       294 1.85456E+00 2.71450E+00 1.67332E+00-4.37713E+00-2.00927E+00 9.18244E+00
 -1       295-1.74610E+01-7.32920E+00-7.43706E+00-9.79266E-02-5.49771E-01 1.26246E+01
 -1       296 1.94399E-01-9.49113E-01-4.84987E-01 1.42352E+00-7.30802E+00-1.03596E+00
 -1       297-7.97325E+00-1.47212E+01-6.80832E+00-3.03684E+00-1.08292E+01-4.06433E+00
 -1       298-2.66970E+00-8.98401E+00-3.74047E+00 1.36096E+00-8.06089E+00-1.10745E+00
 -1       299 2.99814E+00-2.79874E+00 1.12092E-01-1.25352E+00 5.11334E+00 8.14822E+00
 -1       300-1.05765E+01-1.05335E+01-6.33299E+00-4.22194E+00 7.40190E+00 7.43010E+00
 -1       301 3.05829E+00 3.38149E+00 2.65919E+00-1.85942E+00 6.92329E+00-3.58849E+00
 -1       302 1.55846E+01 1.19335E+01 8.25545E+00-5.20007E+00 5.33775E+00-7.96580E+00
 -1       303-1.56188E+01-7.10608E+00-6.81745E+00-1.60248E+00 1.91917E+00 9.55014E+00
 -1       304-4.65151E+00-2.57261E+00-3.27323E+00 6.00015E-01 1.07321E+00-5.35801E+00
 -1       305-1.46762E+01-6.29178E+00-6.29038E+00-3.21537E-01-2.44431E-02-1.09160E+01
 -1       306 2.90150E+00-2.59716E+00 2.71025E-01-1.61326E+00 7.19424E+00-5.18250E+00
 -1       307-6.13098E+00-6.41678E+00-2.47679E+00 3.74722E+00 8.84589E+00-4.89557E+00
 -1       308-1.86558E+00 1.31820E+00-1.55216E-01 2.98845E+00 8.38286E+00-1.24237E+00
 -1       309 3.98148E-01-9.84341E+00-3.21439E+00-8.87523E-01 6.75409E+00-4.46054E+00
 -1       310-3.00471E+00-4.99608E+00-4.52664E+00 5.75004E-01-7.33265E+00 3.27820E+00
 -1       311-2.38285E+00-6.33161E+00-2.19881E+00 4.06150E+00-6.79814E+00 1.40566E-01
 -1       312-3.29917E+00-3.55839E+00-3.21752E+00-9.40475E-01-4.94574E+00-3.76518E+00
 -1       313-6.45196E-01-1.81559E+00-5.40374E+00-1.66753E-01 1.78505E-01-6.25127E+00
 -1       314-7.12318E+00-2.51896E+00-2.85746E+00-7.58936E-01 3.20938E+00 7.80990E+00
 -1       315-4.48058E-01-8.33954E+00-3.10407E+00-3.56634E+00 5.06952E+00 7.40387E+00
 -1       316-9.95613E-01-3.98646E+00-5.30185E-01-7.58079E-01 9.82401E+00 5.75920E+00
 -1       317-7.11539E+00-1.36407E+01-6.22682E+00 2.61060E+00-1.03287E+01 4.30147E+00
 -1       318 4.98093E-01 2.03082E+00 4.46899E-01 1.50060E+00-5.71600E+00 1.49096E+00
 -1       319-6.47636E+00-1.59037E+01-6.59723E+00 6.31392E+00-6.59137E+00 6.14042E-01
 -1       320 1.58225E+00 8.88399E-01 2.99190E+00 3.31067E-01 5.67794E+00 5.17127E-01
 -1       321-5.87697E+00-1.37132E+01-5.87705E+00 1.92397E-02 1.04292E+01 1.71776E-02
 -1       322-5.86523E+00-3.77367E+00-3.40476E+00 5.50100E+00 7.60600E+00-1.37514E+00
 -1       323-1.11087E+01-1.12840E+01-6.71781E+00-4.47890E+00-7.83825E+00-7.86767E+00
 -1       324-4.40211E+00-3.37330E+00-2.77502E+00 2.30749E+00 7.51968E+00-8.24893E+00
 -1       325 4.02151E+00 2.91788E+00 3.64767E+00 8.81680E-01-3.27704E+00-5.44262E+00
 -1       326-1.05028E+00-2.29834E-01 3.16681E+00 9.93973E-01 1.52125E+00-2.85363E+00
 -1       327-1.40954E+01-7.42209E+00-6.45523E+00 2.74733E+00 4.23230E+00-1.02701E+01
 -1       328 2.70421E+00 1.77277E+00 2.97014E+00 2.68043E-01-2.38550E+00-5.92251E+00
 -1       329 1.76575E+00 1.84855E+00 3.17825E+00 2.98786E-01 5.57217E+00 2.35408E+00
 -1       330 6.70769E+00 1.35557E+01 6.07900E+00 2.33313E+00 9.66490E+00 1.90170E+00
 -1       331-1.61332E+00-3.44849E+00-3.11725E-03 1.16868E+00-9.01603E-01-7.08675E-01
 -1       332-8.36558E+00-1.08946E+01-4.38217E+00 3.80101E+00 6.66994E-01 2.15151E-01
 -1       333-1.40276E+00-6.26140E-01-4.88471E-02 4.61292E-01-4.77731E-01-2.02219E-01
 -1       334-9.40187E+00-1.32927E+01-4.89056E+00 4.53075E+00 5.47767E-01-6.13706E-03
 -1       335-1.56899E+01-1.64525E+01-1.07225E+01 3.08963E-01 2.30973E+00 2.40439E+00
 -1       336-3.76514E+00-3.69813E+00-2.60997E+00 7.37526E-01-1.44005E+00-7.98950E-01
 -1       337-1.31248E+01-1.00501E+01-4.94514E+00 4.55565E+00-3.03159E-01 8.40522E-01
 -1       338-1.23103E+01-9.56456E+00-4.21639E+00 4.42297E+00-5.00996E-01 3.83578E-01
 -1       339-1.62738E+01-1.50815E+01-1.04255E+01 1.37451E+00 4.03033E+00 2.98402E+00
 -1       340-1.40496E+00-2.68660E+00-7.56072E-01 7.61113E-01-8.70382E-01-1.03416E+00
 -1       341 4.48645E-01 2.37952E+00 6.86292E-01 1.34003E+00-3.22330E+00-1.43708E+00
 -1       342-1.62812E+00-1.47172E+00-5.27601E-01 2.03030E-01 1.56575E+00-5.91947E-01
 -1       343-2.52822E+00-1.71582E+00-2.12331E+00 5.51773E-01 2.43180E+00-6.58334E-01
 -1       344-2.88349E+00-3.09644E+00-1.20397E+00-6.53023E-01 2.00514E+00-6.79259E-01
 -1       345-1.68943E+00-9.21105E-01 7.53942E-01-9.46553E-01 1.26805E+00 1.10925E-01
 -1       346-2.21372E+00 1.30427E-01 4.28892E-01-6.56083E-01-6.72934E-01 1.41395E-01
 -1       347-2.84931E+00-2.21476E+00-3.47368E-01 1.14204E+00-7.32792E-01-7.06401E-01
 -1       348-1.64264E+01-7.49220E+00-5.31870E+00-1.72073E+00 5.24915E-01 1.31161E+00
 -1       349-1.76223E+00-2.22139E+00-6.09980E-01-8.05474E-01-5.60452E-01 1.24353E-01
 -1       350-1.08988E+01-8.24232E+00-4.06950E+00-3.49802E+00 3.04354E-01-1.15903E+00
 -1       351-2.63716E+00-1.81025E+00-3.73194E-01-7.32741E-01-2.96710E-01-2.80642E-01
 -1       352-1.56068E+01-1.73374E+01-4.62815E+00-1.18163E+00 2.73218E+00-2.31216E+00
 -1       353-1.78347E+00-3.47235E+00-2.11679E-02-7.06285E-01-3.60992E-01 1.10910E+00
 -1       354-1.36819E+01-1.42452E+01-4.37345E+00 6.87898E-01 1.33742E+00-2.97494E+00
 -1       355-6.53319E+00-1.34301E+01-4.34818E+00-1.06302E+00-1.18100E+00-2.65135E-01
 -1       356-1.00149E+01-1.25366E+01-5.05268E+00-4.47594E+00 8.16746E-01 4.36782E-01
 -1       357-1.65394E-01 4.21295E-01 3.73346E-01-1.02905E+00 8.17895E-01 3.08144E+00
 -1       358-5.79056E-01 4.22208E-01-4.86395E+00 1.26793E+00 3.89592E+00 3.13690E+00
 -1       359 7.12547E+00 1.25402E+01 5.89969E+00 2.85580E+00 8.22361E+00 3.38081E+00
 -1       360 3.79581E-01-6.88751E-01 1.34769E-01 3.53018E-01 1.99357E+00 1.63007E+00
 -1       361-4.20482E-01 7.81922E-01 2.03649E-02 6.06081E-01 4.01183E+00 3.55435E-01
 -1       362 6.36727E-02-2.14187E+00-1.52746E+00 2.79025E-02 2.28452E+00 2.18054E-01
 -1       363-2.85204E-01 2.28246E+00-2.64248E+00 3.10896E-01 4.45175E+00 6.83122E-01
 -1       364-5.76253E+00-3.34725E+00-1.87808E+00-8.14023E-01 2.18764E+00-9.22405E-01
 -1       365-3.33884E+00-2.91554E+00-1.53621E+00-9.37518E-01 1.95360E+00-2.51512E-01
 -1       366-5.06932E-01 1.69263E+00 6.31723E-01 8.63435E-02 2.18695E+00-3.53140E-01
 -1       367 7.17136E-01 2.52357E+00 1.06743E+00 2.15867E-01 3.21021E+00-1.52009E+00
 -1       368 7.16709E-01 1.21582E+00 4.72828E-01-1.33420E+00 4.26124E+00-1.88692E+00
 -1       369 1.27305E+00 3.26212E+00 1.16752E+00-2.04755E-01 6.46499E+00-7.15426E+00
 -1       370 2.42018E+00 1.05289E+00-1.81303E+00 1.69142E+00 5.74695E+00 2.20970E+00
 -1       371-1.98572E+00-8.58953E-01-3.63825E-01 1.60883E-01 6.88559E-01 1.89079E+00
 -1       372-1.63148E+00-1.33013E+00 1.53858E-01 4.53869E-01 1.24007E-01 1.43112E+00
 -1       373 1.20247E+00-5.73825E-02 9.89087E-01 7.66385E-01 1.25143E+00 2.26090E+00
 -1       374 8.23179E-01-9.29203E-01-3.15513E+00 2.69305E-01 1.04470E+00 4.02586E+00
 -1       375 1.88333E+00 2.49139E-02 7.43823E-01 7.32185E-01 5.92693E-01 2.68654E+00
 -1       376-1.01573E+00 2.12036E+00 1.46156E+00 1.63273E+00 3.21668E+00 7.39875E+00
 -1       377-3.45271E-01-6.11350E-01-2.86464E+00 1.01193E+00-1.23076E+00 4.74485E+00
 -1       378 2.64225E+00 8.57505E-01 1.06595E+00-3.04337E-01-8.77090E-01 3.11404E+00
 -1       379-2.59100E+00-3.40986E+00-1.10779E+00 3.24926E-01 2.03706E-01 1.98482E+00
 -1       380-5.02399E-01-4.35039E-02 2.96002E-01-9.67083E-01-6.90518E-01 2.55980E+00
 -1       381-1.84583E+00-1.81652E+00-7.19602E-05 4.14426E-02-2.68555E-01 2.08447E+00
 -1       382-1.01544E+00-1.41315E+00 2.23319E-01 1.09396E+00-3.49154E-02 1.99256E+00
 -1       383 2.60184E+00 1.17168E+00 1.38374E+00-1.40882E+00-1.64026E+00 3.11701E+00
 -1       384-2.79650E+00-2.17508E+00-9.39347E-02-5.62607E-01-9.91001E-01 1.70722E+00
 -1       385-3.78316E-01-3.10654E-01 6.33423E-02-2.53365E-01-1.41676E+00 2.33765E+00
 -1       386-1.26314E+00-3.69235E-01-5.95302E-01-4.88947E-01-3.23285E+00 1.66408E+00
 -1       387-2.12388E-01-4.93748E-01 1.49498E+00-1.14319E-01-2.78760E+00 1.25768E+00
 -1       388-1.33098E+00-1.80496E+00-1.10164E+00 1.89685E-01-1.32805E+00 1.60698E+00
 -1       389-1.50090E+00-1.77113E+00-2.63153E+00-1.93472E-01-4.68685E+00 2.98120E+00
 -1       390-8.72123E-01-4.63374E-01-3.14459E-01 2.01512E-01-2.89686E+00 4.23403E-01
 -1       391-2.57369E+00-1.33310E+00-5.83740E-01 2.27970E-01-1.31963E+00 6.31215E-01
 -1       392-1.34311E+00-5.15356E-01 7.68205E-01 2.70504E-01-3.02313E+00 7.71303E-01
 -1       393 9.01063E+00 1.96331E+01 8.59312E+00-2.14785E+00-9.61114E+00 1.92515E+00
 -1       394-3.27510E+00-2.22551E+00-5.37835E-01 3.62329E-01-1.93691E+00-5.92810E-01
 -1       395-1.74458E+01-7.70331E+00-4.62693E+00 1.45022E+00 1.02741E-01-2.74015E-01
 -1       396-1.09030E+00-1.49379E+00 2.63104E-01 1.04477E-01-1.34491E+00-8.56238E-01
 -1       397 1.86290E-01 2.18035E+00 4.79805E-01 1.77899E+00-3.03871E+00-1.20943E+00
 -1       398-7.31858E-01 2.29930E-01 1.59435E-02-3.74043E-01-9.63768E-01-1.02434E+00
 -1       399-2.01533E+00 3.14804E+00-3.58374E-01-1.87798E+00-5.75249E+00-2.29491E+00
 -1       400-6.37964E+00-1.49663E+01-4.43157E+00 1.13527E+00 6.23968E-01 2.42995E-02
 -1       401-2.40486E+00-2.26626E+00-9.80543E-01-2.43392E-01 5.42545E-02 1.99246E+00
 -1       402-1.09471E+01-1.34393E+01-5.82153E+00-2.04999E+00 1.44492E-01-2.01001E+00
 -1       403-1.88358E+00-2.88104E+00-5.20382E-01-7.37126E-03 6.34074E-01 1.85482E+00
 -1       404-3.65114E+00-4.26444E+00-2.77531E+00 8.52673E-01 1.18987E+00 1.58867E+00
 -1       405-1.09404E+01-8.56397E+00-5.05149E+00 3.48116E+00 3.23232E-02-5.87337E-01
 -1       406-1.40734E+01-1.56458E+01-6.34758E+00 2.33759E+00-2.28552E+00-2.44265E+00
 -1       407-8.24847E+00-1.10440E+01-4.14788E+00 4.01604E+00-5.55994E-01 4.89208E-01
 -1       408-1.20695E+01-9.39212E+00-5.71029E+00 3.78628E+00-1.82808E-01-6.59108E-01
 -1       409-1.82668E+01-1.36674E+01-7.88128E+00 2.54357E+00-2.36245E+00-2.53364E+00
 -1       410-1.51352E+01-7.02557E+00-4.81528E+00 1.80306E+00-4.68914E-01 6.99078E-01
 -1       411-1.31914E+01-5.74866E+00-4.25615E+00-1.19175E+00 1.44282E-01-5.72500E-01
 -1       412-1.81157E+01-1.35509E+01-8.70041E+00 6.78022E-02-2.56557E+00 1.55413E+00
 -1       413-1.23907E+01-5.29592E+00-3.46090E+00-1.24194E+00 1.23064E-01-4.35298E-01
 -1       414-1.30365E+00-4.69994E-01-1.02409E-01-4.84893E-01 1.17415E+00-4.06859E-01
 -1       415-2.04748E+00-2.89058E+00 6.60574E-01 9.77395E-01-3.68404E-01-1.13008E+00
 -1       416 3.00473E-01-1.29318E+00-9.27469E-01-4.00559E-01-1.31218E+00-2.19154E+00
 -1       417-1.59987E+00-1.56218E+00-4.42540E+00 1.69745E-01-4.32795E+00-4.54098E+00
 -1       418-2.08346E-01-5.52020E-01 1.28958E-01-1.33123E-01-7.31272E-01-3.52859E+00
 -1       419-1.55040E+00-2.07182E+00 2.77547E-03-5.87304E-01 1.36595E+00-9.53309E-01
 -1       420-3.01495E+00-3.33075E+00-1.91811E+00-4.79095E-01 1.84688E+00-1.13093E+00
 -1       421-8.74299E+00-1.08202E+01-4.88170E+00-3.72369E+00-3.18404E-01 1.22418E-01
 -1       422-5.91897E+00-4.16295E+00-2.57132E+00-1.46862E+00 1.54068E+00-1.86205E+00
 -1       423-9.08529E+00-1.16026E+01-4.77554E+00-3.81965E+00-4.80039E-01 1.61580E-02
 -1       424-1.03374E+00-1.59626E+00-3.27398E-01 5.94121E-02-4.66686E-02-7.77805E-01
 -1       425-6.52274E-01-5.11838E-01-7.46044E-01 3.95651E-01 9.51831E-02-1.93482E+00
 -1       426-5.00499E-01-7.54047E-01-5.18126E-03 3.37126E-01 1.29763E+00-1.20602E+00
 -1       427-1.23492E+01-1.79775E+01-7.14328E+00-9.75493E-01-3.59170E-01 2.38880E+00
 -1       428-2.82958E+00-4.56175E+00-1.32724E+00 8.53143E-02-6.33299E-01-1.70711E+00
 -1       429-1.31636E+00-1.28415E+00-2.23120E-01-4.33005E-01 4.48385E-01-3.18640E+00
 -1       430-2.49703E+01-2.55224E+01-1.40415E+01-2.14234E+00-4.40630E+00-5.69994E+00
 -1       431-2.12479E+01-2.22623E+01-1.10044E+01 1.35273E+00-4.74793E+00 2.41843E+00
 -1       432-2.37882E+01-2.36341E+01-1.52653E+01 3.53297E+00-6.22908E+00 4.05568E+00
 -1       433-2.00741E+01-1.84804E+01-1.03667E+01-1.79116E+00 3.93913E+00 4.50742E+00
 -1       434-1.29530E+00-1.71707E+00-5.67787E+00-4.96218E-01 2.66233E+00-5.74099E+00
 -1       435-1.82977E+01-8.49889E+00-8.03898E+00 2.17715E+00 1.99670E+00-1.00945E+01
 -1       436-4.56184E+00-4.88104E+00-6.44727E+00 1.35100E+00-5.05274E+00 4.98202E+00
 -1       437-3.87119E+00-2.87604E+00-3.84322E+00 8.00457E-01-3.89697E+00 6.12198E+00
 -1       438-1.00548E+01-1.34454E+01-7.05007E+00 4.07383E+00-1.11911E+01 6.05555E+00
 -1       439-1.20079E+01-1.21140E+01-7.23658E+00 5.22824E+00-7.70932E+00 8.09409E+00
 -1       440-8.86244E+00-1.23764E+01-6.37166E+00-3.87103E+00-8.57778E+00-5.77006E+00
 -1       441 1.53799E+01 7.00085E+00 6.71423E+00 1.58065E+00-1.90678E+00-9.70827E+00
 -1       442-1.41782E+00 1.26797E-01 2.42365E+00-5.07714E-01-9.36293E-01-5.09575E+00
 -1       443 1.37681E+01 7.54894E+00 6.39513E+00 2.91828E+00-3.73082E+00-9.12554E+00
 -1       444 1.29810E+01 9.65867E+00 6.79191E+00 4.21338E+00-5.26303E+00-7.91786E+00
 -1       445-8.92962E+00-3.45804E+00-3.37320E+00 1.16137E+00-3.22239E+00 9.00521E+00
 -1       446-1.33253E+01-9.78812E+00-6.93404E+00 4.27099E+00-6.01827E+00 8.99119E+00
 -1       447-6.37466E+00 1.70463E-02-2.03695E+00-6.12727E+00-1.38084E+00 8.40026E+00
 -1       448-2.32762E+00 2.04188E+00 2.53115E+00-1.26586E+00-3.03048E+00 7.93802E+00
 -1       449-9.09106E+00-5.57578E+01-1.05665E+01 7.96407E+00 1.95798E+00-5.85991E-01
 -1       450-8.99013E+00-5.39417E+01-1.18164E+01-6.91292E+00-4.98798E-01-9.05310E-01
 -1       451-3.15239E+00-1.11104E+00 3.65797E-02 1.06017E+00 2.33694E-01-2.42112E-01
 -1       452-3.06792E+00-1.09057E+00-1.61069E-03 1.26298E+00 1.93642E-02-5.38049E-01
 -1       453-1.47263E+00-2.92945E+00 1.15488E-01-1.15265E+00-3.33985E-01-3.01371E-01
 -1       454-8.23086E-01-3.09615E+00 1.42179E-01 9.73144E-01 3.21890E-01-1.25059E-01
 -1       455-1.89928E+00-2.08818E+00-2.32498E-02 1.31722E+00 4.28624E-01-4.40800E-01
 -1       456-2.04579E+00-1.64886E+00-2.74528E-01 1.42817E+00 1.98645E-01-6.91691E-01
 -1       457-1.01203E+01-1.50945E+00 1.10432E+00 2.46603E-01 3.71499E-02 8.17272E-02
 -1       458-1.02871E+01-4.52910E-01 1.26126E+00 4.80186E-01 9.66056E-02 1.63586E-01
 -1       459-8.51859E+00-2.44916E+00 1.40167E+00-3.58695E+00 1.60938E-01 1.92735E-02
 -1       460-8.28798E+00-1.76394E+00 5.64615E-01-3.62193E+00 3.12600E-01 5.09068E-02
 -1       461-1.63564E+00-3.32128E+00 5.33718E-02-1.27242E+00-5.74850E-01-1.71083E-01
 -1       462-8.54195E+00-2.73925E+00 1.15065E+00 3.61899E+00 2.26723E-01 1.96240E-02
 -1       463-8.00902E+00-1.97081E+00 9.61102E-01 3.31502E+00-6.37044E-02-1.29893E-01
 -1       464-9.13107E-01-3.28972E+00-1.21304E-01 1.25436E+00 7.41939E-01-4.65263E-02
 -1       465-9.55798E-01-2.95704E+00-2.63987E-02-1.13858E+00 6.36287E-01 6.23000E-02
 -1       466-1.13941E+00-1.24417E+00-3.04093E-01-1.29933E-01 1.47558E+00 7.62892E-01
 -1       467-6.28624E-01-1.15230E+00-4.11064E-01-1.67163E-01 1.19917E+00 5.50332E-01
 -1       468-1.78452E+00-8.36002E+00 7.50288E-01-3.83931E+00-1.28139E-01 2.94980E-01
 -1       469-2.07387E+00-7.60846E+00 1.08967E+00-3.00922E+00 1.96513E-02-7.33182E-02
 -1       470-1.28442E+00-3.09747E+00 9.87619E-02-9.24164E-01 2.11345E-01 1.71213E-01
 -1       471-5.92084E+00-5.50643E+00 1.01089E+00-4.27349E+00-8.33876E-02 3.23713E-01
 -1       472-5.86778E+00-4.80828E+00 1.15176E+00-4.69174E+00-2.29021E-01 4.50252E-01
 -1       473-8.67790E+00-1.34429E+00 2.79736E-01-2.67263E+00-2.38020E-01 2.23657E-01
 -1       474-8.57778E+00-1.69496E+00 9.86307E-01-3.74240E+00-2.45031E-01 2.41571E-02
 -1       475-9.87984E+00-5.50222E-01 6.71445E-01 7.15622E-02-5.12815E-02 1.01617E-01
 -1       476-9.11667E+00-7.48519E-01 1.27039E+00 3.52369E-03-1.21707E-01-1.45716E-01
 -1       477-3.12800E+00-5.82105E-01-6.50800E-02-1.18993E-01-5.81725E-02 6.94446E-01
 -1       478-3.31116E+00-4.98213E-01-1.17466E-01 2.08952E-01-1.85131E-01 8.08383E-01
 -1       479-5.94219E-01-6.74205E-01-4.82512E-01-1.36461E-01 5.06031E-02 1.16905E+00
 -1       480-2.43960E-01-9.48789E-02-3.39534E-01 1.51862E-02-1.71552E-02 1.04439E+00
 -1       481-1.22042E+00-3.36577E+00 7.61094E-02 8.20551E-01-4.27421E-01 1.92725E-01
 -1       482-1.45496E+00-1.47033E+00-4.39965E-01-2.05845E-01 1.11881E+00 1.27400E+00
 -1       483-5.05604E-01-6.84243E-01-5.25533E-02-5.60866E-01 1.15224E+00 1.23763E+00
 -1       484-8.28466E-01-1.37441E+00-5.93644E-01 3.68121E-01 4.04600E-01 1.00876E+00
 -1       485-1.01883E+00-4.82200E-01-1.71267E-01-1.19456E-01 6.50735E-01 1.35710E+00
 -1       486-2.92676E+00-1.35102E+00 8.09863E-02-1.14936E+00 2.58095E-01 5.78596E-01
 -1       487-2.54864E+00-1.23588E+00 9.48698E-02-1.04921E+00 3.63844E-01 4.03538E-01
 -1       488-2.32063E+00-2.12555E+00 6.43499E-02-1.56512E+00 3.70596E-01 5.75625E-01
 -1       489-2.10493E+00-2.07843E+00 1.74258E-01-1.45334E+00 5.19530E-01 6.05873E-01
 -1       490-1.44541E+00-1.78907E+00-4.32169E-01 1.65718E-02-1.55999E+00 5.50621E-01
 -1       491-4.38084E-01-1.05789E+00-3.74760E-01 3.45326E-01-1.26786E+00 2.70146E-01
 -1       492-2.67504E+00-8.23249E+00 1.31049E+00 3.35528E+00 1.53413E-01-5.10506E-02
 -1       493-1.58965E+00-8.46694E+00 5.89734E-01 2.76350E+00 2.88226E-01-4.13609E-01
 -1       494-7.03203E-01-9.91782E+00 1.04898E+00-1.01018E-01-5.15822E-02 5.23906E-02
 -1       495-6.48751E-01-9.97757E+00 1.30204E+00-4.19035E-01-9.14039E-02-2.79225E-01
 -1       496-8.96622E-01-8.52427E-01-3.88786E-01 6.54808E-02-1.69598E+00-9.94233E-02
 -1       497-1.33145E-01-2.91941E-01-1.41641E-01-2.97323E-03-1.84976E+00-7.57145E-02
 -1       498-8.21719E+00-2.28533E+00 1.22845E+00 3.12221E+00-1.96652E-01 5.15747E-02
 -1       499-9.27428E+00-2.22980E+00 8.16597E-01 3.92998E+00-5.17524E-01-1.60312E-01
 -1       500-2.70576E+00-9.11047E-01 2.69135E-02 1.18769E+00-1.35574E-01 7.48791E-01
 -1       501-2.71472E+00-9.42654E-01 7.15162E-02 9.16982E-01-2.66007E-01 3.80034E-01
 -1       502-9.09075E-01-1.17142E+00-7.63200E-01-5.87977E-01-5.01607E-01 1.34347E+00
 -1       503-7.74013E-01-7.59802E-01-1.34385E-01-9.59251E-02-7.00118E-01 1.46464E+00
 -1       504-5.45690E+00-5.00706E+00 5.80428E-01 4.89280E+00 1.38087E-01 2.98356E-01
 -1       505-5.68076E+00-5.70707E+00 1.08861E+00 4.59522E+00-1.54799E-01 3.81124E-01
 -1       506-2.00224E+00-2.12863E+00 9.87399E-02 1.35770E+00-5.42210E-01 4.21493E-01
 -1       507-1.94459E+00-2.40863E+00-2.83554E-01 1.77245E+00-8.17983E-01 2.75523E-01
 -1       508-1.06962E+00-9.76488E-01-4.26207E-01 9.42057E-02-8.94118E-01 1.10962E+00
 -1       509-3.12605E-01-4.52535E-01 1.89808E-02 2.62624E-01-9.69923E-01 1.01235E+00
 -1       510-1.29892E+00-3.80348E+00-2.93984E-02 9.66205E-01-3.84058E-01 2.03530E-01
 -1       511-6.84133E-01-3.51553E+00-2.53720E-02-3.07148E-02-6.64230E-01 6.15601E-02
 -1       512-1.73017E+00-8.65382E+00 7.87665E-01-3.41973E+00 2.90570E-03 2.17134E-01
 -1       513-2.25845E+00-8.83154E+00 1.36938E+00-3.38965E+00 3.36977E-01-4.63770E-03
 -1       514-1.19118E+00-1.60624E+00-7.75015E-01 4.42451E-02-1.81422E+00-5.34259E-01
 -1       515-6.28384E-01-1.49323E+00 8.52022E-02-2.70185E-01-1.86039E+00-6.83123E-01
 -1       516-5.91860E-01-3.28128E+00-6.78570E-02 1.54235E-01 6.33530E-01 3.03106E-02
 -1       517-1.31453E+00-1.15190E+00-4.56916E-01 2.44442E-02 1.44050E+00-4.74168E-02
 -1       518-5.48621E-01-9.42676E+00 1.22733E+00 2.30308E-01-4.30084E-02-3.90248E-01
 -1       519-1.22281E-01-9.51137E+00 6.97546E-01 3.11129E-01-3.72481E-02-6.00613E-01
 -1       520-4.57750E-02-6.42245E-01-1.69826E-01 1.11403E-01 1.35608E+00-2.55025E-04
 -1       521-3.13270E+00-6.75652E+00 7.14261E-01 1.71442E+00-1.41799E-01 3.70513E-01
 -1       522-2.30424E+00-7.53432E+00 1.01643E+00 2.42908E+00-5.23193E-01 4.44339E-01
 -1       523-7.74096E-01-2.53362E-01-3.78841E-01-1.22900E-01 1.45052E+00-5.66576E-01
 -1       524-1.10484E+00-1.52482E+00-3.60750E-01 5.78072E-02 1.30537E+00-8.07675E-01
 -1       525-4.55799E-01-3.22392E+00 4.70252E-02-2.58775E-01 7.66642E-01 1.28519E-01
 -1       526-2.94707E-01-3.56718E+00-2.44021E-01 4.67575E-02-6.43462E-01 3.10687E-01
 -1       527-5.29985E+00-6.61618E+00 1.20712E+00-4.66955E+00 7.74982E-02 7.75083E-02
 -1       528-6.06258E+00-4.50026E+00 1.02308E+00-4.88232E+00 4.78612E-01 1.36882E-01
 -1       529-5.15214E+00-5.70981E+00 5.26109E-01 4.74404E+00 3.11531E-01 2.37383E-01
 -1       530-5.07490E+00-5.32310E+00 1.25446E+00 4.16864E+00-5.59117E-02 2.09068E-01
 -1       531-2.10316E+00-2.54100E+00-3.26600E-02-1.75407E+00-6.74259E-01-4.29127E-01
 -1       532-2.14343E+00-2.55115E+00-1.29078E-01-1.78844E+00-5.88257E-01-4.74096E-01
 -1       533-3.25868E+00-1.09823E+00-7.26176E-02-9.84625E-01-3.49482E-01-3.71266E-01
 -1       534-3.08483E+00-1.09962E+00-8.25289E-02-1.22394E+00-3.59238E-02-6.42115E-01
 -1       535-1.55146E+00-5.39478E-01-1.41499E-01-1.92699E-02-7.05228E-03-1.82634E+00
 -1       536-1.05137E+00 2.42390E-02-1.97078E-02-1.33908E-01 5.32560E-02-1.89580E+00
 -1       537-1.89080E+00-1.02485E+00-6.24964E-02 3.55625E-01 7.77444E-01-1.77854E+00
 -1       538-1.66530E+00-7.60584E-01-5.41585E-01 3.77540E-01 7.35188E-01-1.55609E+00
 -1       539-1.24073E+00-1.32453E+00-3.95885E-01 6.09974E-03 1.24920E+00-1.11575E+00
 -1       540-5.30185E-01-2.45276E-01-5.76229E-02 4.40676E-01 1.13364E+00-1.04125E+00
 -1       541-3.91453E+00-6.66987E-01-3.00290E-02 2.72184E-04 2.17051E-01-7.13195E-01
 -1       542-3.61818E+00-5.54745E-01 1.28202E-01-4.82364E-02 9.26136E-02-8.04330E-01
 -1       543-1.54377E+00-1.58646E+00-5.11785E-01-7.46570E-02-1.53869E+00-1.18582E+00
 -1       544-7.23998E-01-6.20560E-01-2.35248E-02-5.71881E-01-1.41337E+00-1.27052E+00
 -1       545-1.58680E+00-7.49530E-01-3.83243E-02-1.80015E-01-6.02694E-01-1.69807E+00
 -1       546-1.85550E+00-1.14614E+00-6.56950E-01-7.64924E-02-4.79019E-01-1.56209E+00
 -1       547 2.25116E-01-6.01039E-01-6.65975E-01-3.31985E-02 1.88410E-01 3.00429E-01
 -1       548 2.92266E-01-1.35657E+00-7.65444E-01 1.84899E-01-1.66746E-01 1.40336E-01
 -1       549-1.61004E+00-7.09848E-01-5.31710E-01-2.86997E-01 3.00464E-01 2.55009E+00
 -1       550-2.33109E+00-1.14665E+00-5.30365E-02-9.10153E-03 1.60328E-01 1.32397E+00
 -1       551-4.26039E+00-1.21320E+00 7.12880E-01-1.90019E-01 1.97634E-01 2.45747E-01
 -1       552-2.32405E+00-3.07604E+00 3.53899E-02 1.80273E-01 2.16999E-01 1.07780E+00
 -1       553-8.79120E+00-5.93782E+01-1.26627E+01 9.98941E+00 2.42308E+00-1.64502E+00
 -1       554-8.19743E+00-5.59088E+01-1.32324E+01-7.52807E+00-1.43434E+00-1.70019E+00
 -1       555-3.84024E+00-5.77185E+00-6.18348E-01-6.83757E-01 2.36755E-02 6.59333E-01
 -1       556-3.64583E+00-1.25383E+00 8.20827E-01 3.70336E-01-3.61967E-01 2.06226E-01
 -1       557-2.29367E+00-8.95510E-01 1.08735E-01-1.80011E-01-2.42678E-01 1.06732E+00
 -1       558-1.33856E+00-1.61464E+00-6.92738E-01 1.61132E-01-1.00075E-01 2.19251E+00
 -1       559-2.03947E+00-2.33596E+00 2.51676E-01 1.06332E+00-1.18054E+00 3.07411E-01
 -1       560-2.11369E+00-2.63807E+00 1.83250E-01-1.16529E+00 1.26624E+00 1.91506E-01
 -1       561-2.11825E+00-1.16446E+00-3.89409E-01-5.37994E-01-3.38667E-01 8.40343E-01
 -1       562-2.26056E+00-4.48887E-01-4.54045E-01 1.41849E-01 9.47255E-02 1.22828E+00
 -1       563-4.95199E-01-6.60605E-01-2.52028E-01-4.65371E-01 5.81910E-01 1.76547E+00
 -1       564-2.32676E+00-3.03066E+00-2.55135E+00 1.68668E-01-4.14164E-01 1.73170E+00
 -1       565-1.99183E+01-4.34212E+01-1.02232E+01 2.18295E+01-1.30865E+00-1.19968E+00
 -1       566 2.39771E-01-1.13655E+00-5.92660E-01 1.47252E-01 3.34869E-01 2.96280E-01
 -1       567 6.80987E-01-1.13529E+00-9.30953E-01-8.12751E-02 1.61143E-01 3.86105E-01
 -1       568-3.74223E-01-6.12881E-02-4.18075E-01-7.86668E-03 1.22464E+00 1.62929E+00
 -1       569-2.04792E+00-1.32289E+00-1.06093E-01-3.11827E-01 5.34317E-01 1.06548E+00
 -1       570-3.48517E+00-1.97646E+00 3.72644E-01-8.06473E-01 3.41517E-01 8.13431E-02
 -1       571-1.01595E+00-1.20235E+00 9.37415E-02 3.80215E-01 8.23735E-01 1.25326E+00
 -1       572-1.83302E+01-3.79931E+01-8.11842E+00 2.21216E+01-3.40300E+00-1.32685E+00
 -1       573-2.91899E+00-6.22988E+00-5.95641E-01 6.32869E-01 5.74436E-01 1.38514E+00
 -1       574-4.05615E+00-2.29075E+00 8.53231E-02-6.80401E-01-7.80072E-01 3.42956E-01
 -1       575-1.68096E+00-1.25268E+00 2.61317E-01-5.99477E-01 1.74343E-01 1.12248E+00
 -1       576-1.10905E+00-2.51835E-01-3.93484E-01 1.20106E-01 6.44848E-01 1.88578E+00
 -1       577-2.55801E+00-5.57483E-01 1.03502E-01 6.97001E-02-5.39488E-01 5.28026E-01
 -1       578-1.55847E+00-7.52023E-01-4.49089E-01-4.49322E-01 6.24072E-01-1.65441E-01
 -1       579-1.73463E+00-1.51673E+00-2.58319E-01-6.23623E-01 4.16187E-02 9.38692E-01
 -1       580-1.54501E+00-2.30810E-01-2.48951E-01-3.22949E-01 3.74351E-01 1.00910E+00
 -1       581-1.09966E+00-1.64811E+00 7.10509E-01 3.44092E-01 6.44796E-02 1.31250E+00
 -1       582-2.40316E+00-3.18871E+00-5.68735E-01 6.00670E-01 6.21196E-01 1.05416E+00
 -1       583-3.14085E+01-2.41814E+01-6.26337E+00 1.90915E+01-2.64702E+00-1.77843E+00
 -1       584 7.92665E-02-9.30114E-01-1.26900E+00 1.15652E-01 8.17137E-01 4.02418E-01
 -1       585-1.14949E-02-9.16164E-01-1.22906E+00 4.40546E-01 6.29303E-01 7.49948E-04
 -1       586-7.26235E-01-1.03883E+00 8.68624E-02-2.30878E-01 1.47712E+00 1.32869E+00
 -1       587-1.86618E+00-1.76465E+00 2.85586E-01-6.26050E-01 7.70426E-01 7.58643E-01
 -1       588-2.40750E+00-3.06927E+00 6.22535E-01-1.29524E+00 2.40992E-01 9.92609E-02
 -1       589-2.77567E+00-3.35625E+00 6.58048E-01 6.41080E-01 1.00724E+00 1.21339E+00
 -1       590-4.52415E+01-3.11020E+01-1.35109E+01 2.74513E+01-2.92238E+00-1.71373E+00
 -1       591-2.99545E+00-2.28374E+00 4.33691E-01-1.82988E+00-2.06823E-01 4.77549E-01
 -1       592-1.82576E+00-4.17934E+00 2.28955E-01 3.18957E-01-1.73708E-01 1.48718E+00
 -1       593-1.51408E+00-2.27649E+00 2.36299E-01-6.15571E-01 5.93462E-01 9.52016E-01
 -1       594-1.35726E+00-7.04896E-01-2.24859E-01-4.54324E-01 1.46183E+00 2.10181E+00
 -1       595-3.50405E+00-1.47159E+00-2.38666E-01 1.22899E-01-7.79002E-01 1.18748E+00
 -1       596-1.13838E+00-3.30815E+00 2.79235E-01 8.91001E-02 8.85270E-01-8.14831E-01
 -1       597-1.15297E+00-2.52023E+00-1.78743E-01-4.07056E-01 3.80736E-01 7.84063E-01
 -1       598-2.26470E+00-1.75313E+00-3.92658E-01 3.67094E-02 9.64286E-01 2.02735E-01
 -1       599-6.42225E-01-1.66944E+00-1.35385E-01 3.68629E-01 4.93024E-01 1.14971E+00
 -1       600-1.51138E+00-1.16265E+00-8.43099E-01-1.25752E-01 9.41853E-01 4.20821E-01
 -1       601-5.20396E+01-9.37701E+00-1.01744E+01 8.44255E+00-1.25066E+00-1.47614E+00
 -1       602-7.48285E-01-5.71922E-01-9.72221E-01 1.22718E-01 7.47060E-01 4.22346E-01
 -1       603-1.37886E+00-8.12358E-01-1.47895E+00 5.50962E-01 7.94345E-01 7.44818E-02
 -1       604-1.63629E-02-6.96027E-01 6.77649E-02 3.11237E-02 2.04308E+00 2.87595E-01
 -1       605-1.16116E+00-1.74267E+00 5.61272E-01-7.87431E-01 1.08365E+00 1.76180E-01
 -1       606-1.37155E+00-3.70503E+00 6.43147E-01-7.35224E-01 5.12066E-01-3.51244E-01
 -1       607-4.29226E+00-3.31945E+00-8.18701E-01 5.02634E-01 1.30152E+00 2.85378E-01
 -1       608-5.53643E+01-9.51732E+00-1.14731E+01 1.11308E+01-2.18747E+00 1.46305E-01
 -1       609-1.98035E+00-3.08257E+00 5.40863E-01-8.20322E-01 1.56772E-01 3.92880E-01
 -1       610-5.56005E+00-5.40021E+00-2.86794E-02 2.25091E+00 1.25920E+00 1.45252E+00
 -1       611-1.53550E+00-2.32317E+00 1.46777E-01-4.25685E-01 1.19159E+00 4.42013E-01
 -1       612-1.86798E+00-9.63618E-01 2.13536E-01 2.48410E-02 1.88368E+00 7.31301E-01
 -1       613-2.82415E+00-1.89518E+00-2.45024E-01-6.44729E-01-2.11561E-01 1.01720E+00
 -1       614-2.29985E+00-2.62986E+00-1.01750E+00 2.84643E-01 1.17100E+00-1.33384E+00
 -1       615-1.06809E+00-2.16524E+00-3.47204E-01 1.42811E-01 7.65126E-01 8.39872E-01
 -1       616-2.15231E+00-2.08402E+00-3.15984E-01-3.84849E-01 1.16958E+00-1.68793E-01
 -1       617-2.81958E+00-2.06954E+00-1.38154E+00 4.05977E-01 1.23450E+00 2.29989E-01
 -1       618-1.02927E+00-1.30835E+00-1.93957E-01 2.69339E-02 1.09775E+00 2.57016E-01
 -1       619-4.51192E+01-7.86504E+00-1.04333E+01-6.02190E+00-2.69997E+00-2.17758E+00
 -1       620-1.06152E+00 6.22618E-02-1.02018E+00-7.64796E-01 6.81719E-01 4.47720E-01
 -1       621-2.19917E+00-9.18291E-01-1.24293E+00-3.79351E-01 4.34626E-01 3.89038E-01
 -1       622-1.37976E+00-1.25990E+00 5.39199E-02 7.02341E-02 2.18101E+00 1.10626E-01
 -1       623-9.97671E-01-2.35260E+00 2.73462E-01-1.60419E-01 1.04914E+00-2.14923E-01
 -1       624-1.45302E+00-4.08101E+00 6.19166E-01 3.88277E-01 2.74137E-01-3.27343E-01
 -1       625-5.56601E+00-3.27572E+00-4.29686E-01-5.90259E-01 1.21376E+00-2.22624E-01
 -1       626-5.15939E+01-6.89787E+00-1.19808E+01-8.68585E+00-2.12926E+00-1.14210E+00
 -1       627-1.42405E+00-3.66961E+00 8.04062E-01-2.08240E-01 1.83942E-01 3.38297E-01
 -1       628-2.27780E+00-1.41162E+00-2.02785E-01 8.00615E-02 1.47756E+00 1.05184E-01
 -1       629-1.20090E+00-2.34038E+00 4.36276E-01 3.63523E-03 1.03320E+00 2.01168E-01
 -1       630 8.12072E-02-1.39915E+00-5.19558E-01-2.83477E-01 2.16498E+00 3.44039E-01
 -1       631-2.50231E+00-1.87786E+00-1.86922E-01-5.93506E-01 2.45761E-01 1.60443E+00
 -1       632-2.49331E+00-2.26311E+00 8.20248E-02 1.22788E+00 3.42020E-01-1.25720E+00
 -1       633-2.15919E+00-2.50870E+00-6.61306E-01 3.44727E-01 9.52217E-01 8.68102E-01
 -1       634-2.50887E+00-2.31471E+00-1.26169E+00-2.47892E-01 9.12099E-01-1.27196E+00
 -1       635-5.01225E+00-2.65068E+00-2.32537E+00 3.87926E-01 1.48651E+00-1.71129E-01
 -1       636-1.95120E+00-8.59647E-01-7.99638E-01-3.35913E-02 1.49324E+00 4.93160E-01
 -1       637-2.54019E+01-1.83898E+01-6.56010E+00-1.44189E+01-2.86778E+00 1.34071E+00
 -1       638-1.67385E+00-3.29157E-01-9.55538E-01 2.06380E-01 2.71916E-01-1.36412E-01
 -1       639-1.03282E+00-2.70502E-01-6.87051E-01 7.16558E-02 2.43064E-01-2.96097E-01
 -1       640 4.60862E-01-3.54711E-01 1.47552E-01 1.27460E-01 2.55798E+00-1.46986E+00
 -1       641-1.25942E+00-1.94571E+00 6.15578E-02 6.92479E-01 1.31836E+00-5.20886E-01
 -1       642-1.84443E+00-3.29265E+00 3.30027E-01 6.48918E-01 2.52576E-01-5.13759E-01
 -1       643-1.00678E+00-1.97859E+00 1.98842E-01-2.49147E-01 3.49857E-01-6.61239E-01
 -1       644-4.08871E+01-2.49441E+01-1.40031E+01-2.16634E+01-2.62432E+00 1.02793E+00
 -1       645-1.85820E+00-3.45520E+00 6.96973E-01 5.90177E-01 7.96740E-01 4.06389E-01
 -1       646-2.53225E+00-1.51892E+00-8.66609E-02-1.82174E-01 1.24397E+00-3.33667E-01
 -1       647-1.70924E+00-1.93621E+00-1.25157E-01 8.40822E-01 1.28740E+00-4.90298E-01
 -1       648-1.12102E+00-5.79498E-01 3.22881E-01-1.32501E-01 2.55350E+00-1.24448E+00
 -1       649-5.80281E-01-2.56192E+00 2.15460E-01 1.14038E-01 6.86152E-01 3.56719E-01
 -1       650-7.16267E-01-1.46334E+00-3.84549E-01 5.26349E-01-3.30893E-01-4.52850E-01
 -1       651-2.62298E+00-2.15218E+00-8.51038E-01 4.96520E-01 1.32710E+00-8.19747E-02
 -1       652-1.56841E+00-1.76626E+00-3.74594E-01-7.39786E-02 1.04530E+00-7.88087E-01
 -1       653-2.72630E+00-1.59940E+00-5.70358E-01 2.94861E-01 1.37382E+00-1.62277E-01
 -1       654-2.48880E+00-2.61739E+00-1.41824E+00-3.55310E-01 9.25126E-01-7.05973E-01
 -1       655-2.06800E+01-2.91115E+01-9.31463E+00-1.71842E+01-3.68609E+00 4.82757E-01
 -1       656-9.40451E-01-8.89520E-01-1.21828E+00-2.11307E-01 5.52099E-01-5.44335E-01
 -1       657-6.39451E-01-2.73917E-01-1.11863E+00 2.04930E-01 3.60401E-01-5.98759E-01
 -1       658-8.31898E-01-6.51867E-01 2.00489E-01-3.01619E-01 1.45272E+00-1.91823E+00
 -1       659-1.80454E+00-1.91737E+00 3.81387E-01 6.33932E-01 6.77910E-01-8.12231E-01
 -1       660-3.12641E+00-2.71985E+00 5.48062E-01 1.59198E+00 4.34478E-02-4.87217E-02
 -1       661-3.99302E+00-5.26506E+00-2.17745E-01-1.22165E+00 3.23543E-01-1.23819E+00
 -1       662-2.20345E+01-3.62870E+01-1.24337E+01-2.13649E+01-2.96033E+00 6.23316E-01
 -1       663-1.62940E+00-2.92430E+00 8.26281E-01 1.33942E+00 6.18988E-01 2.93541E-01
 -1       664-4.27657E+00-3.39527E+00-6.31634E-01-1.12779E+00 9.38007E-01-2.87116E-01
 -1       665-1.50613E+00-1.14521E+00 5.58714E-01 8.77640E-01 9.80146E-01-5.02937E-01
 -1       666-2.19303E+00-2.33976E+00 1.14194E-01-7.56003E-01 1.95764E+00-1.40768E+00
 -1       667-1.11921E+00-3.58924E+00 1.16247E-01-1.00069E-01 1.10034E+00 6.50055E-01
 -1       668-3.54885E+00-1.08331E+00 5.93198E-02-2.36849E-02-7.07013E-01-6.39476E-01
 -1       669-2.17724E+00-1.28697E+00-2.01479E-01 4.58426E-01 1.00998E+00-2.63988E-01
 -1       670-2.35491E+00-2.82180E+00-6.59028E-01 6.03861E-02 5.20749E-02-1.29312E+00
 -1       671-2.75914E+00-2.52822E+00-3.38733E-02-3.30910E-01 1.22301E+00-5.62560E-01
 -1       672 8.07333E-01 1.47998E+00-4.41993E-01 1.19024E+00 7.94095E-01-1.45161E+00
 -1       673-7.30418E+00-4.93477E+01-9.65673E+00-6.08274E+00-1.33675E+00 3.98416E-01
 -1       674-8.29834E-01-9.05796E-01-1.54025E+00 2.86014E-01 4.21947E-01-1.03754E+00
 -1       675-6.21040E-01-3.00469E-01-1.47045E+00 3.36540E-01 3.36706E-01-8.61426E-01
 -1       676-1.90652E+00-4.28206E-01-3.41334E-01 4.78123E-02 6.78369E-01-1.88919E+00
 -1       677-1.94411E+00-1.26014E+00 3.66155E-01 9.21480E-01 3.31503E-01-1.07156E+00
 -1       678-3.93692E+00-1.67457E+00 3.79119E-01 7.67525E-01-4.60382E-01-3.78586E-01
 -1       679-2.59607E+00-5.27187E+00-3.46663E-01-5.77573E-01 1.10079E+00-1.05479E+00
 -1       680-1.30857E+01-5.81041E+01-1.36543E+01-9.24533E+00 4.88781E-01 7.19621E-01
 -1       681-2.89615E-01-5.71350E-01-6.33868E-01-4.91729E-01 9.28343E-01-1.91075E+00
 -1       682-3.12421E+00-1.93851E+00 5.72337E-01 8.32104E-01 3.95131E-01-2.52815E-01
 -1       683-2.45708E+00-1.48233E+00 2.52548E-01 4.85041E-01 5.02031E-01-9.92864E-01
 -1       684-1.80504E+00-3.81911E-01 5.73542E-01-3.09144E-01 1.55985E+00-1.59649E+00
 -1       685-1.88452E+00-2.52773E+00 5.28909E-02 5.93311E-01 1.35376E+00-8.56804E-02
 -1       686-3.09487E+00-1.64147E+00-3.41435E-01-5.60663E-01-6.83911E-01-6.84638E-01
 -1       687-2.01861E+00-1.93251E+00-3.31092E-01-5.80907E-02 1.27378E+00-2.95114E-01
 -1       688-1.68051E+00-2.14692E+00-2.85060E-01 8.73037E-01 2.03545E-01-1.07710E+00
 -1       689-2.25727E+00-2.49261E+00-7.60859E-01-5.85101E-01 1.07896E+00-4.73343E-01
 -1       690-1.45716E+00-1.95391E+00-6.02858E-01-5.60566E-02 7.70114E-01-9.54190E-01
 -1       691-1.00500E+01-4.59169E+01-1.01718E+01 1.00572E+01-3.47125E+00 1.04032E+00
 -1       692-1.26192E+00-1.08643E+00-1.79939E+00 3.88404E-02-8.00751E-02-1.41773E+00
 -1       693-7.57112E-01-1.48105E-01-1.50199E+00-7.42219E-02-7.18595E-02-9.78253E-01
 -1       694-1.12525E+00-7.89592E-02 1.11553E-01 3.02829E-01-1.02136E-01-2.36918E+00
 -1       695-2.76135E+00-1.01638E+00 1.54057E-01 1.10987E-01-1.20075E-01-9.26822E-01
 -1       696-5.22490E+00-1.34904E+00 8.44796E-01-2.83950E-01-3.12403E-01-3.49950E-02
 -1       697-3.27073E+00-5.48816E+00-2.92599E-01 1.23754E-01 6.65802E-01-7.53045E-01
 -1       698-1.13790E+01-5.93734E+01-1.42781E+01 1.16156E+01-1.53010E+00 2.14706E+00
 -1       699-1.76284E+00-1.94381E+00-1.97078E-01-2.61978E-01 7.27822E-01-7.86691E-01
 -1       700-4.15639E+00-1.76731E+00 5.74622E-01 1.95182E-01 4.66928E-01-2.73990E-01
 -1       701-2.40763E+00-1.43159E+00 1.94481E-01-9.37298E-02 2.71870E-01-8.69162E-01
 -1       702-2.45169E+00-1.42694E+00-1.21016E+00 5.21196E-01-4.09641E-02-1.98770E+00
 -1       703-2.38519E+00-1.03588E+00 5.88555E-01 1.25957E+00 6.92545E-01-4.34199E-01
 -1       704-2.34856E+00-2.65785E+00 2.44673E-01-1.21021E+00-1.25383E+00-1.69506E-01
 -1       705-1.72373E+00-4.54558E-01 3.76935E-01-6.08963E-01-2.28989E-02-5.03976E-01
 -1       706-2.45800E+00-1.80987E+00-7.89277E-01 2.83017E-01-6.03214E-01-1.01229E+00
 -1       707-1.18635E+00-2.08457E+00 2.12739E-01-6.65244E-01 1.86106E-01-1.21674E+00
 -1       708-1.99315E+00-2.11927E+00-3.34608E-01 3.24362E-01 1.61960E-01-9.60924E-01
 -1       709-2.18039E+01-4.16356E+01-9.53559E+00 2.09858E+01-1.51446E+00 2.90196E+00
 -1       710-4.79272E-01-6.80545E-01-1.75844E+00-7.53261E-02-3.01133E-01-8.85132E-01
 -1       711-3.55459E-01-8.34076E-01-1.28256E+00 3.54136E-01-2.56007E-01-9.38020E-01
 -1       712-5.41659E-01-4.13829E-01-2.56272E-01-5.27239E-01-1.17697E+00-1.98801E+00
 -1       713-2.48204E+00-1.54284E+00 1.00959E-01-2.62104E-01-7.14654E-01-8.62934E-01
 -1       714-3.01888E+00-1.91818E+00 5.24940E-01-9.57446E-01-3.96664E-01-3.66342E-01
 -1       715-3.02121E+00-4.43763E+00 4.69624E-01 1.14315E+00-1.09052E+00-1.08959E+00
 -1       716-2.70049E+01-5.33347E+01-1.48361E+01 2.68132E+01-1.15916E+00 3.25967E+00
 -1       717-2.34096E+00-5.94851E+00 9.52717E-01 7.86722E-01-8.26848E-01-1.56205E+00
 -1       718-3.75935E+00-2.17037E+00 3.61895E-01-8.17558E-01 6.09866E-01-3.16256E-01
 -1       719-2.49175E+00-1.46339E+00 1.70661E-01-7.34486E-01-3.42231E-01-1.38163E+00
 -1       720-7.36853E-01-5.54102E-01-1.45563E-01-6.74605E-01-7.00727E-01-1.81574E+00
 -1       721-2.13820E+00-6.30038E-01 1.84248E-01-1.74445E-01 3.87105E-01-5.06224E-01
 -1       722-1.84300E+00-3.03236E+00-1.84036E-01-6.38310E-01-1.13047E+00-1.57884E-01
 -1       723-1.30499E+00-1.09654E+00 4.94565E-02-9.23585E-01-4.11675E-01-8.74901E-01
 -1       724-1.95288E+00-1.76746E-01-1.15342E-01-6.72063E-02-2.90514E-01-7.15331E-01
 -1       725-1.54695E+00-1.58154E+00 3.10457E-01-2.07645E-01-3.91066E-01-1.00965E+00
 -1       726-2.74192E+00-2.75483E+00-5.55997E-01 3.47301E-01-4.30614E-01-1.12534E+00
 -1       727-3.45456E+01-1.95903E+01-9.66353E+00 1.95425E+01 1.48399E+00 3.10901E-01
 -1       728-6.88719E-01-4.27404E-01-1.05859E+00 6.65319E-02-3.76594E-01-4.38372E-01
 -1       729-5.66398E-01-1.60332E-01-9.60602E-01-2.40629E-01-3.15392E-01-2.60284E-01
 -1       730-2.08890E+00-2.32899E+00 4.80560E-02-6.76544E-01-1.09152E+00-8.86968E-01
 -1       731-1.69986E+00-1.30913E+00-5.00293E-01-1.19959E-01-2.18166E+00-1.48454E+00
 -1       732-3.34042E+01-1.76783E+01-9.44728E+00 2.10468E+01 2.17167E+00-3.83307E-01
 -1       733-2.48591E+00-3.29648E+00 8.27904E-01-1.53088E+00-2.24110E-01-8.73260E-02
 -1       734-2.68654E+00-1.96171E+00-2.79728E-01 4.80397E-01-9.90980E-01-4.05958E-01
 -1       735-1.70851E+00-1.68870E+00-9.03247E-01 3.89884E-01-1.62510E+00-7.58194E-01
 -1       736-3.22348E+00-2.97159E+00 2.42549E-01-1.78895E+00 6.55645E-01-2.82862E-01
 -1       737-1.28465E+00-1.95402E+00 1.52683E-01-1.00454E+00-3.82683E-01-8.32407E-01
 -1       738-9.93964E-01-1.11396E+00-1.13854E-01-6.60438E-01-1.43886E+00-1.94238E+00
 -1       739-2.90140E+00-3.64420E-01 5.64451E-02-6.59742E-01 3.16269E-01-4.29913E-01
 -1       740-1.41889E+00-3.76066E+00 4.98076E-01 1.30536E-01-1.28964E+00 6.51648E-01
 -1       741-1.97532E+00-2.93304E+00-9.39626E-01-2.07915E-01-1.14227E-01-1.00267E+00
 -1       742-1.71901E+00-7.76962E-01 2.26521E-01-9.05713E-01-7.07013E-01-1.02122E+00
 -1       743-1.68785E+00-1.86567E+00 3.60123E-02 2.27229E-01-1.17820E+00-3.75862E-01
 -1       744-1.17936E+00-1.06202E+00 1.88505E-01 4.54335E-01-9.86556E-01-3.85835E-01
 -1       745-5.10168E+01-7.77383E+00-1.09144E+01 9.64298E+00 3.15427E+00-1.11515E-01
 -1       746-1.79162E-01 3.49451E-01-8.72745E-01-2.78111E-02-4.83036E-01-4.91174E-01
 -1       747-1.27371E+00-5.20590E-01-1.58561E+00 7.87024E-01-6.54728E-01-8.51787E-02
 -1       748-1.19683E+00-2.30236E+00 1.07250E-01-5.65167E-01-1.27138E+00-7.48881E-02
 -1       749-1.09636E+00-2.15955E+00-1.82526E-01 5.48761E-01-2.26232E+00-4.11194E-01
 -1       750-5.66211E+01-9.61566E+00-1.35793E+01 1.22629E+01 3.06281E+00-2.60631E+00
 -1       751-1.41855E+00-4.11673E+00 5.92805E-01-5.63545E-01-4.64164E-01 4.28529E-01
 -1       752-2.32694E+00-9.14929E-01 7.82743E-01-3.00174E-01-1.22958E+00-3.10692E-01
 -1       753-7.08727E+00-5.24065E+00-4.79460E-01 2.23810E+00-7.43074E-01-7.02517E-01
 -1       754-1.76637E+00-3.65934E+00 4.92612E-01-1.21431E+00-1.86075E-01-2.68905E-01
 -1       755-1.29148E+00-2.78840E+00 5.94966E-02-4.41857E-01-1.16460E+00-7.39468E-01
 -1       756-1.09964E+00-1.45705E+00 6.07760E-02 4.90502E-01-2.14068E+00-1.27991E+00
 -1       757-2.61477E+00-2.07777E+00-8.13659E-01-6.05773E-02 1.32761E-01-1.27693E+00
 -1       758-1.80790E+00-3.34185E+00-2.08167E-01 6.87846E-01-9.42483E-01 1.03805E+00
 -1       759-2.39135E-01-2.56849E+00-4.08551E-01-2.54125E-01-9.56050E-01-4.00888E-01
 -1       760-9.18346E-01-1.56345E+00 7.61907E-02-8.42098E-01-7.89710E-01-3.32360E-01
 -1       761-3.42198E+00-3.28169E+00-1.54761E+00 5.05385E-01-1.67172E+00 9.93320E-03
 -1       762-3.13957E+00-1.99161E+00-1.95674E-01 1.92913E-01-9.81460E-01-1.25410E-01
 -1       763-4.82768E+01-7.52331E+00-1.00048E+01-9.21028E+00 2.09937E+00-1.79290E+00
 -1       764-5.03377E-01 1.84347E-01-9.99743E-01-7.89009E-02-6.67307E-01-1.73825E-01
 -1       765-6.68579E-01 9.05183E-01-1.41051E+00-1.28449E-01-5.75919E-01 6.19875E-03
 -1       766-1.01933E+00-2.36148E+00 1.02810E-01-1.44195E-01-1.02952E+00 3.17460E-03
 -1       767-9.60306E-01-1.01038E+00-5.53704E-01-9.51879E-02-2.48691E+00-1.67205E-01
 -1       768-4.77841E+01-6.93307E+00-1.00770E+01-9.27241E+00 1.93649E+00-2.39082E+00
 -1       769-1.04390E+00-4.26055E+00 7.00896E-01 2.13268E-01-2.30060E-01 8.30722E-02
 -1       770-1.03625E+00-9.71006E-01-2.95057E-01-8.12983E-02-1.71162E+00 1.85573E-02
 -1       771-6.56270E+00-3.73034E+00-7.19203E-01 1.56600E+00-1.65951E+00 7.36510E-04
 -1       772-1.50623E+00-4.22530E+00 4.79896E-01-2.38599E-01-2.66555E-02-5.41637E-01
 -1       773-4.95339E-01-2.02906E+00 1.08990E-01 1.94032E-01-1.11184E+00-9.94389E-02
 -1       774-1.94369E+00-1.08366E+00-1.17069E+00-2.58900E-01-2.72144E+00-2.39462E-01
 -1       775-9.25294E-01-2.16336E+00 5.32447E-01-1.17049E+00-2.88175E-01-4.89475E-01
 -1       776-2.59441E+00-2.28133E+00 8.66459E-02 9.48004E-01-2.53381E-01 1.19225E+00
 -1       777-1.05627E+00-1.80783E+00-4.91495E-01 4.51298E-01-1.08236E+00-2.69645E-01
 -1       778-6.60002E-01-1.53224E+00 2.08374E-01-1.68793E-01-8.48800E-01 5.62133E-01
 -1       779-1.34205E+00-9.19474E-01-2.71247E-01 3.88788E-01-1.30030E+00 5.18268E-01
 -1       780-3.58317E+00-1.81774E+00-1.16663E+00-7.18299E-01-1.42548E+00 2.18958E-01
 -1       781-3.45364E+01-2.19169E+01-1.28182E+01-2.23155E+01 2.35379E+00 8.08106E-01
 -1       782-1.12855E+00-6.82897E-01-2.23094E+00-2.62502E-01-9.51095E-01 4.14583E-01
 -1       783-2.89742E-01 8.89436E-02-1.02283E+00 1.34674E-01-8.45096E-01 3.95725E-01
 -1       784-1.12480E+00-2.42528E+00 3.15410E-01 3.71830E-01-7.28296E-01 4.91340E-01
 -1       785-2.35468E+00-1.96631E+00-1.24717E+00-6.12428E-02-1.86164E+00 7.27824E-01
 -1       786-3.04208E+01-1.71498E+01-1.09867E+01-2.06401E+01 1.57828E+00 7.33852E-01
 -1       787-2.21236E+00-3.53279E+00 2.54684E-01 5.51167E-01 2.15684E-01 4.19248E-01
 -1       788-5.27257E+00-4.47289E+00-3.02787E-01-1.72991E+00-7.45873E-01 1.09553E+00
 -1       789-5.44420E+00-2.72440E+00-5.27157E-01-6.33525E-01-1.31842E+00 1.83919E-01
 -1       790-1.59095E+00-4.18717E+00 4.90347E-01 7.57278E-01-4.17547E-01-3.55596E-01
 -1       791-1.44904E+00-2.34995E+00 1.33638E-01 7.32267E-01-1.34558E+00 3.44282E-01
 -1       792-8.82251E-01-1.22372E+00-3.10048E-01-3.61066E-02-1.87263E+00 1.66449E-01
 -1       793-1.93640E+00-3.00619E+00-4.44833E-01-4.14112E-01-1.04451E+00-9.50677E-01
 -1       794-9.23356E-01-1.67065E+00-3.97346E-01 5.30472E-01 6.35662E-01 5.47726E-01
 -1       795-9.98746E-01-1.28331E+00 2.33984E-01 8.97431E-01-7.00669E-01 4.78688E-01
 -1       796-2.22950E+00-3.01989E+00-7.92196E-01-3.16511E-01-3.94047E-01 1.01045E+00
 -1       797-2.77652E+00-9.75835E-01-3.18321E-01 1.39401E-01-7.48375E-01 5.16285E-01
 -1       798-2.73645E+00-1.64557E+00-6.00822E-01-3.06335E-01-1.24184E+00 5.67006E-01
 -1       799-1.99000E+01-3.14774E+01-8.49474E+00-1.94311E+01 1.65507E+00-1.88723E+00
 -1       800-4.05102E-01-2.97924E-01-7.82709E-01-2.90949E-01-2.89852E-01 4.45508E-01
 -1       801-6.28893E-01-6.26412E-01-1.28096E+00-8.20012E-01-5.87674E-01 2.03064E-01
 -1       802-1.63787E+00-1.63403E+00 1.82871E-01 5.89763E-01-8.97317E-01 8.16924E-01
 -1       803-2.04384E+00-1.38032E+00-8.02009E-01 4.97320E-02-1.46236E+00 1.64429E+00
 -1       804-1.67738E+01-3.06815E+01-8.07359E+00-1.89462E+01 1.95928E+00-1.69475E+00
 -1       805-2.93608E+00-2.60822E+00 6.65578E-01 1.48345E+00-2.33949E-02 3.05486E-01
 -1       806-1.54718E+00-2.15144E+00-6.77413E-01-7.14995E-01-3.60574E-01 1.48829E+00
 -1       807-1.87933E+00-1.40584E+00 1.14848E-02-1.35563E-01-6.77796E-01 5.63675E-01
 -1       808-2.46140E+00-2.80175E+00 4.24035E-01 1.09184E+00-6.21450E-01-3.27898E-01
 -1       809-2.39302E+00-1.42877E+00 2.21749E-01 3.26128E-01-9.97073E-01 4.77569E-01
 -1       810-8.88417E-01-1.17905E+00-5.70043E-01 2.81955E-01-1.97317E+00 6.75388E-01
 -1       811-4.15342E-01-2.63304E+00 2.57152E-01 5.81818E-01-7.51360E-01-1.84053E-01
 -1       812-3.41278E+00-1.38174E+00 8.75265E-02-1.87304E-01 9.14638E-01 9.20201E-01
 -1       813-2.18893E+00-1.17313E+00-4.21752E-02 3.21333E-01-7.90097E-01 2.15603E-01
 -1       814-1.43665E+00-1.87207E+00-4.74542E-01 1.82296E-01-5.72886E-01 1.28786E+00
 -1       815-1.52448E+00-1.94553E+00-4.74519E-01-4.41747E-01-1.03939E+00 4.40947E-01
 -1       816 3.03222E-01 2.72811E-01-5.59803E-01 9.44656E-01-7.38338E-01 1.11074E+00
 -1       817-2.73721E-01 2.17258E-02-6.14995E-01-2.94372E-01 2.85216E-01 1.49429E-01
 -1       818 2.87867E-02-6.00563E-01-4.98670E-01-8.42755E-01 1.98421E-01-2.35012E-01
 -1       819-1.48342E+00-1.84369E+00-3.48137E-01-2.00279E-01-1.03307E+00 2.28340E+00
 -1       820-1.65140E+00-1.01983E+00 2.74535E-01 7.43122E-01-4.18565E-01 1.14758E+00
 -1       821-3.94127E+00-1.52396E+00 5.35785E-01 7.42739E-01 3.84255E-01 7.50041E-01
 -1       822-2.01084E+00-2.96831E+00-2.11050E-01-3.17028E-01-2.25938E-01 1.56789E+00
 -1       823-2.70005E+00-4.55092E+00-1.72593E+00-1.29207E+00-6.71165E-01 1.03784E+00
 -1       824-3.04345E+00-1.89211E+00 5.44461E-01 8.09239E-01-4.11990E-01 4.74662E-01
 -1       825-2.11176E+00-1.34467E+00 1.40065E-02 3.45677E-01-5.21751E-01 1.11569E+00
 -1       826-1.37117E+00-1.51270E-01-1.92790E-01 2.44084E-01-1.34962E+00 2.01060E+00
 -1       827-1.93679E+00-2.65471E+00 7.79752E-02 5.07445E-01-1.22295E+00 1.72238E-01
 -1       828-2.91182E+00-1.35447E+00-2.07582E-01-3.82281E-01 8.28996E-01 1.39322E+00
 -1       829-1.95465E+00-8.76670E-01-3.75070E-01-6.73312E-03-7.89851E-01 7.48429E-01
 -1       830-1.22055E+00-1.32010E+00-2.83374E-01 8.47283E-01-2.20060E-01 1.21627E+00
 -1       831-2.84198E+00-3.40651E+00-3.62329E-01-9.64088E-01-9.94503E-01 8.23174E-01
 -1       832-1.51153E+00-1.94250E+00 1.36197E-01-8.11103E-02-7.60550E-01 1.31941E+00
 -1       833 8.22883E+00 9.56056E+00 5.33682E+00 3.49513E+00 9.24426E+00 7.58639E+00
 -1       834-2.11255E+00-2.68888E+00 7.44081E-01-1.43577E+00 4.73264E+00 3.83962E+00
 -1       835 4.78068E+00 6.33425E-01 1.53083E+00 3.26065E+00-8.15559E-01 9.77117E+00
 -1       836-9.02847E-01-2.70647E+00-1.24892E+00 5.78238E+00-5.73656E-01 8.24488E+00
 -1       837 4.92854E+00 8.76778E+00 4.10890E+00 2.05763E+00-1.08987E+01-3.30614E+00
 -1       838-2.18879E+00-4.37468E+00-1.70537E+00-8.36595E-01-6.08068E+00-8.38474E-01
 -1       839 1.35305E+01-3.05324E+00 2.93430E+00 1.54552E-01 6.03304E+00 7.72427E+00
 -1       840 8.68009E+00-1.03845E+01-1.94495E+00-2.53455E+00 3.91350E+00 5.08809E+00
 -1       841-2.88440E+00 8.59400E+00 1.71860E+00 4.43785E+00 8.80036E+00-2.50758E+00
 -1       842-8.08248E+00 6.10258E+00-5.85184E-01 8.18343E+00 7.74584E+00-2.10063E+00
 -1       843-1.61130E+01-1.02806E+01-7.91807E+00 4.40010E+00 5.34775E+00-1.00046E+01
 -1       844-2.98990E-01 3.15650E-02-1.97497E+00-5.71967E-01 2.54974E+00-5.79303E+00
 -1       845-7.29180E-03-4.91402E+00-1.51549E+00-3.41366E+00-2.64774E+00-6.31143E+00
 -1       846 1.15718E+01-1.85163E+00 2.55495E+00-2.24427E+00-3.57429E+00-7.26894E+00
 -1       847 4.44963E+00 1.22248E+00 1.75169E+00-3.50389E-01 2.88185E+00 9.39824E+00
 -1       848-8.49287E+00-5.43987E+00-4.05739E+00-2.78352E+00 2.26298E+00 7.18921E+00
 -1       849 1.12528E+01 6.98223E+00 5.47052E+00 2.95946E+00 5.68460E+00 1.06347E+01
 -1       850-5.19782E+00-2.70986E+00-1.28032E-01-1.85356E+00 2.29380E+00 3.52674E+00
 -1       851-8.07517E-01 4.41976E+00 8.51101E-01-1.03509E+00 9.03292E+00 4.71886E+00
 -1       852-5.33155E+00 6.40918E-01-1.81732E+00-3.34299E+00 7.67575E+00 3.95498E+00
 -1       853 9.60371E-01-3.28180E-01 5.30931E-01 3.33371E+00 9.22319E+00 6.54372E-01
 -1       854-1.45750E+00-7.23826E+00-2.04917E+00 4.72990E+00 8.12625E+00 4.18257E-01
 -1       855-1.91878E+00-1.57770E+00-9.43133E-01 4.03805E+00 1.08106E+00-9.57320E+00
 -1       856 6.83055E+00 1.77666E+00 2.70891E+00 5.80861E+00 1.07952E+00-9.05186E+00
 -1       857-5.02535E+00-7.51325E-01-1.06749E+00 1.18577E+00 4.72070E+00-5.86503E+00
 -1       858 1.95804E+00 8.85912E+00 3.94391E+00-2.56914E+00 5.45446E+00-7.35911E+00
 -1       859 1.73968E+00-1.94487E+00 1.86005E-01-1.34491E+00 6.67744E+00-3.51633E+00
 -1       860-1.55963E+00-1.12387E+01-3.76456E+00-3.52969E-01 7.65610E+00-4.08780E+00
 -1       861 1.22452E-01 1.46491E+00 6.60908E-01 4.16834E+00 8.39908E+00-1.08740E+00
 -1       862-3.52997E+00-6.22363E+00-2.61240E+00 6.90317E+00 7.06263E+00-1.10397E+00
 -1       863-5.31465E+00-5.01873E+00-4.38803E+00 1.83355E+00 5.79319E+00-4.90821E+00
 -1       864-1.22721E+01-1.35143E+01-7.73592E+00 5.13477E+00 8.34291E+00-6.84669E+00
 -1       865 1.47703E+01 6.39653E+00 6.35004E+00 6.50644E-01 1.16802E+00 1.18600E+01
 -1       866-4.01694E+00-1.12402E+00 4.37492E-01-3.40334E-01 6.54435E-01 4.94248E+00
 -1       867 5.00680E+00 1.20559E+01 5.11880E+00-4.70344E-01-9.85347E+00 5.96110E-01
 -1       868-1.77608E+00-4.96998E+00-4.32114E-01 4.54630E-01-4.53150E+00-4.11948E-02
 -1       869 6.98001E+00 1.39185E+01 6.26956E+00-2.33116E+00-1.14201E+01 3.46429E+00
 -1       870-2.14493E-02-1.80169E+00 1.84353E+00 3.17097E-01-4.82484E+00 1.79869E+00
 -1       871 1.84653E+00-2.08976E+00-8.95409E-01-1.38095E+00-6.27488E+00 3.49440E+00
 -1       872-1.11112E+01-1.66204E+01-8.31948E+00 4.82995E+00-9.86726E+00 5.27436E+00
 -1       873-6.59239E-01 4.77599E-01 1.39708E-01-2.50740E+00-8.81111E+00-8.98303E-01
 -1       874-3.74529E+00-5.47383E+00-2.52736E+00-4.23887E+00-8.36047E+00-8.85915E-01
 -1       875 3.36212E+00-1.75878E+00 1.03730E+00 7.41206E-01-7.19069E+00-5.59220E+00
 -1       876-1.28819E+00-9.28665E+00-3.56293E+00-1.62947E+00-5.58512E+00-4.30935E+00
 -1       877-3.60446E+00-1.28039E+00-3.00164E-01-1.46057E+00-3.23448E-01-7.24462E+00
 -1       878 6.52056E+00 2.29728E+00 2.80834E+00-1.77689E+00-8.91141E-01-8.47383E+00
 -1       879-5.76340E+00-3.66862E+00-2.43931E+00 1.84620E+00-2.24636E+00 7.52785E+00
 -1       880-7.52423E+00 4.35966E+00-7.71755E-01-4.66101E+00-4.83269E+00 9.20875E+00
 -1       881-6.06729E+00-2.35617E+00-2.12697E+00 1.50275E+00-5.31162E+00 5.26258E+00
 -1       882 2.10354E+00-6.71612E+00-1.72487E+00-2.19255E-01-7.67737E+00 6.70821E+00
 -1       883 6.91027E-01-1.45191E+00 2.28741E+00-7.73187E-03 5.84115E+00 1.80118E+00
 -1       884 8.05125E-01 2.06943E+00 1.04670E+00 2.17904E-01-7.26711E+00-4.48417E+00
 -1       885 3.93603E+00-8.14091E+00-1.54051E+00-1.15466E+00-4.21810E+00-6.43084E+00
 -1       886-4.33009E-01-4.09177E+00-8.52704E-01-3.76262E+00-1.86877E+00-6.99469E+00
 -1       887-4.94409E+00-1.26259E+00 3.63519E-01 3.96058E-01 3.22195E+00-8.26701E+00
 -1       888 7.13101E+00 1.33835E+01 6.15437E+00 2.72860E+00 1.03586E+01 3.90054E+00
 -1       889-1.42183E+00-2.43433E+00-7.74210E-01 1.51308E+00-2.53418E+00 9.15630E+00
 -1       890-3.64028E+00 1.14128E+01 2.60095E+00-9.07578E+00-4.23620E+00 8.17106E+00
 -1       891-1.04840E-01 4.84016E+00-2.40250E-01-2.07791E+00-6.45938E+00 6.61841E+00
 -1       892 9.10999E+00-3.23167E+00 1.29618E+00-2.83973E+00-7.03517E+00 6.37681E+00
 -1       893 4.88901E+00 9.40822E+00 4.28917E+00 1.92924E+00-1.01655E+01-5.43379E+00
 -1       894 2.27974E+00 2.12953E+00 4.76613E-01-1.97191E+00 3.04017E+00-9.04930E+00
 -1       895 1.56687E+01-6.65766E+00 2.28503E+00 1.48891E+00-4.60282E+00-6.90109E+00
 -1       896 1.38491E+01-2.20277E+00 3.07536E+00-4.84561E+00-2.35653E+00-9.03252E+00
 -1       897-3.45282E-01-2.59459E+00 1.53325E-01-6.27993E-01-4.37080E-01-1.28094E-01
 -1       898-1.61938E+00-1.53820E+00 4.59834E-01 1.17917E+00 3.02081E-01-4.57800E-01
 -1       899-8.97079E+00-1.59071E+00-6.56452E-01 2.20842E-01 1.22500E-02 5.60756E-02
 -1       900-1.13331E+01-6.60126E+00 1.96633E+00-4.35723E-01 6.81364E-01-1.71653E-02
 -1       901-7.48706E+00-1.70833E+00-4.32476E-01-2.98581E+00 2.57888E-01 3.04372E-01
 -1       902-1.11101E+00-4.70025E+00 7.29561E-01-1.13182E+00-6.56008E-01 2.03994E-02
 -1       903-1.15247E+00-2.42740E+00 1.44428E-01 1.01147E+00 7.40660E-01-3.78312E-01
 -1       904-1.52556E+00-2.87562E+00-1.58702E-01-7.93932E-01 1.43111E+00 6.50181E-01
 -1       905-6.25958E-01-2.28962E+00 1.10439E-01-3.91936E-01 5.03621E-01 2.56276E-01
 -1       906-4.98169E+00-5.00274E+00-5.12809E-01-3.71013E+00-5.69130E-04-7.71565E-02
 -1       907-7.97550E+00-4.50747E+00 3.46844E+00-3.70252E+00-2.04335E+00-3.56259E-01
 -1       908-6.97650E+00-3.48568E+00 2.96078E+00-3.60149E+00-6.33909E-01-7.89451E-01
 -1       909-8.28114E+00-1.23339E+00-2.80199E-01 4.02778E-02-7.62680E-02-8.05918E-03
 -1       910-3.83021E+00-9.05734E-01 5.69786E-01-5.16408E-01 9.70587E-02 3.03960E-01
 -1       911-2.00974E+00-2.11378E-01-2.82258E-01 1.41291E-02-9.38263E-02 1.41720E+00
 -1       912-2.05539E-01-5.63341E-01-6.30885E-01-5.12620E-03 9.67427E-02 4.85132E-01
 -1       913-1.32102E+00-2.61873E+00 7.62912E-01 1.29418E+00-3.67592E-01 1.91066E-01
 -1       914-4.13956E-01-9.36483E-01-5.19701E-01 1.94376E-01 1.58801E-01 4.37387E-01
 -1       915-1.67280E+00-2.63470E-01 5.74061E-02-4.64302E-01 6.80692E-02 5.54711E-01
 -1       916-2.66888E+00-1.35559E+00 5.86568E-01-1.24710E+00 2.59990E-01 5.84657E-01
 -1       917-1.79944E+00-3.00465E+00 4.93918E-01-1.46634E+00 2.71240E-01 1.00054E-01
 -1       918-1.46190E+00-7.33445E+00-3.92766E-01 2.74817E+00-4.47992E-02-9.66541E-02
 -1       919-4.11907E+00-8.70353E+00 1.82489E+00-2.17235E+00 2.13050E+00 4.00764E-01
 -1       920-6.64073E-01-4.77731E-01-7.61473E-01-8.05437E-02-8.03835E-01-9.22750E-02
 -1       921-8.11049E+00-2.60263E+00-5.55888E-01 2.99541E+00 5.98065E-03-1.45138E-01
 -1       922-2.31991E+00-1.18868E+00-1.45623E-01 4.09654E-01-6.09707E-01 1.39681E+00
 -1       923-1.91455E-01-6.78552E-01-9.42187E-01-3.67223E-01-3.53336E-02 5.46333E-01
 -1       924-5.76177E+00-6.55176E+00 2.18318E+00-8.09840E-01 2.66546E+00-1.08390E+00
 -1       925-4.67074E+00-4.92333E+00-2.29525E-01 3.57508E+00-4.99966E-02 1.33926E-01
 -1       926-1.89147E+00-1.55802E+00-1.57979E-01 1.12002E+00-1.10634E+00 1.14049E+00
 -1       927-5.19575E-01-5.77191E-01-6.79277E-01-1.46346E-01-4.54948E-01 5.08440E-01
 -1       928-1.14711E+00-3.81451E+00 5.76190E-01 9.31669E-01-4.72973E-01 1.71946E-01
 -1       929-9.57000E-01-2.29992E+00 2.92762E-01 8.81473E-01-4.53011E-01 3.39672E-01
 -1       930-4.82450E-01-2.61700E+00 1.68237E-01 7.93491E-02-7.46004E-01 1.40937E-01
 -1       931-1.70714E+00-8.76678E+00-5.41030E-01 1.21206E-01-1.55687E-01 1.73662E-02
 -1       932-2.76549E+00-8.62028E+00 1.46853E+00 3.50063E-02-1.16700E+00-5.68941E-01
 -1       933-1.53776E+00-1.94560E+00 9.37014E-02-1.25641E+00-4.48333E-01-3.83402E-01
 -1       934-8.47365E-01-6.17429E-01-1.04140E+00 9.87433E-02 3.88579E-01-1.00388E+00
 -1       935-3.43442E+00-1.65522E+00 1.18210E-02 8.72736E-01 5.90191E-01-1.46377E+00
 -1       936-5.58000E-01-5.48812E-01-7.78459E-01 2.62094E-02 5.40403E-01-6.19081E-01
 -1       937-2.88432E+00-5.96197E-01 2.01040E-01-4.39367E-01-3.29774E-02-3.34982E-01
 -1       938-2.30779E+00-3.06540E+00-4.10363E-02-7.82395E-01-1.47462E+00-1.10949E+00
 -1       939-6.47214E-01-6.20393E-01-9.65630E-01 1.26506E-01-6.35629E-01-4.70014E-01
 -1       940-7.58168E-01-8.27647E-01-8.35466E-01 1.54571E-01-2.55213E-01-8.91895E-01
 -1       941-1.32899E+00 3.92291E-01-5.19279E-01-4.07973E-01 6.83182E-02 2.18654E+00
 -1       942-1.75555E+00-4.67490E+00-1.53281E+00 4.79354E-01 5.69264E-01 8.54435E-01
 -1       943-9.95533E-01-1.30424E+00 4.89469E-01-1.97126E-01-1.29601E-01 7.80850E-01
 -1       944 5.89595E-01-4.55505E-01 4.64753E-02 2.26992E-01-2.92578E-01 2.32693E+00
 -1       945-2.33286E+00-2.86758E+00-5.28753E-01-5.46571E-01-3.92964E-01 1.60196E+00
 -1       946-2.55029E+00-2.42287E+00-1.71966E+00 6.03213E-02 9.99815E-02 1.72012E+00
 -1       947-1.03118E+00-1.86513E+00-7.42120E-01 2.90911E-01 3.88802E-02 9.55282E-01
 -1       948-1.49082E+00-8.41655E-01-2.20153E-01-7.01068E-01 5.90348E-01 1.76358E+00
 -1       949-3.92826E+00-5.73726E+00-1.05177E+00 7.70311E-01 1.72220E+00 1.73179E+00
 -1       950-1.01919E+00-1.56237E+00 9.69887E-01 1.28762E-01 5.84091E-01 9.98477E-01
 -1       951 2.62978E-01-1.10155E+00-5.81184E-01 7.66075E-01 9.88803E-01 1.42400E+00
 -1       952-2.81595E+00-5.37336E+00-6.50056E-01 5.00273E-01 8.77578E-02 8.75837E-01
 -1       953-2.19553E+00-2.10521E+00-1.25465E-01 1.10924E-01 3.50315E-01 1.30811E+00
 -1       954-2.67036E+00-1.78209E+00-2.44623E-02 5.88065E-01 6.73141E-01 1.34155E+00
 -1       955-1.81087E+00-2.60260E+00-1.95623E-01 1.16022E-02 5.66727E-01 8.88275E-01
 -1       956-1.62701E+00-1.40936E+00-2.02519E-01-5.60974E-01 1.32571E+00 1.20175E+00
 -1       957-4.05658E+00-4.02219E+00-2.52044E-01 1.38565E+00 1.68084E+00 1.16009E+00
 -1       958-2.30485E+00-3.51191E+00 9.99827E-01 3.20687E-01 2.36461E-02 5.86512E-01
 -1       959 3.62399E-04-8.97671E-01-7.11444E-01 1.81789E-01 1.06688E+00 1.66582E+00
 -1       960-2.33971E+00-2.50566E+00-9.59326E-01 9.52481E-02 8.15419E-01 1.16515E+00
 -1       961-2.52654E+00-1.81691E+00-8.50499E-01 3.24055E-01 9.01724E-01 8.03000E-01
 -1       962-2.67799E+00-2.95689E+00-1.32683E+00 3.04646E-01 8.18736E-01 1.00200E+00
 -1       963-1.84286E+00-1.92933E+00-5.76951E-01-2.87918E-01 1.70699E+00 6.55527E-01
 -1       964-8.18180E+00-4.24703E+00-2.24915E+00 9.08329E-01 1.43519E+00 6.97741E-01
 -1       965-4.12755E+00-2.60519E+00-3.52060E-01 8.13984E-01 8.21228E-01 1.77516E-01
 -1       966-9.64787E-01-7.29361E-01 6.68208E-01 3.20538E-01 2.03323E+00 8.70749E-01
 -1       967-3.41129E+00-2.12786E+00-7.85353E-01 3.92470E-01 6.11084E-01 5.94128E-01
 -1       968-1.57147E+00-2.64173E+00-7.39160E-01 6.54998E-01 1.18929E+00 9.93108E-01
 -1       969-1.75277E+00-2.00335E+00-2.94369E-01 1.75017E-01 1.43496E+00 4.78744E-01
 -1       970-4.09792E+00-3.04361E+00-1.41794E+00 4.62503E-01 8.68412E-01 7.76586E-01
 -1       971-2.86265E-01-1.90983E+00 2.27955E-01-1.82449E-01 2.00036E+00-1.73630E-02
 -1       972-1.03001E+01-6.29882E+00-2.30772E+00-2.17238E-01 1.24971E+00 2.52860E-01
 -1       973-1.81032E+00-1.48320E+00 8.93175E-01 2.46687E-01 9.78414E-01 1.45323E-01
 -1       974-6.80047E-01-2.38008E-01-2.08005E-01 1.39333E-01 2.13587E+00 8.30423E-01
 -1       975-4.06432E+00-1.42164E+00-5.71768E-01 2.60730E-01 1.10214E+00 3.21319E-01
 -1       976-2.11694E+00-1.44057E+00-5.84580E-01-6.59665E-02 1.13716E+00 1.44784E-01
 -1       977-3.17337E+00-1.92843E+00-5.56484E-01-5.84458E-01 1.60414E+00-4.43238E-01
 -1       978-3.86755E+00-1.99402E+00-1.63448E+00 2.60219E-01 4.62436E-01-7.28454E-01
 -1       979-4.85251E-01-1.08302E+00-5.34100E-01-1.33157E-01 2.01978E+00-1.25634E+00
 -1       980-1.87278E+00-2.26858E+00-8.63634E-01 4.09193E-01 1.71184E+00-1.18164E+00
 -1       981-6.14213E+00-4.89857E+00-2.01803E+00-5.82998E-01 1.33205E+00-6.70685E-01
 -1       982-4.99254E+00-4.05617E+00-2.67901E-01 7.41010E-01 1.16574E+00 8.92086E-02
 -1       983-8.86332E-01 3.06258E-01 5.48417E-01 9.65810E-02 2.38411E+00-1.32488E+00
 -1       984-2.02672E+00-1.79767E+00-6.00092E-01-3.44187E-01 1.11888E+00-2.96567E-01
 -1       985-1.96791E+00-1.83234E+00-6.61148E-01-8.40945E-02 1.62870E+00-6.47731E-01
 -1       986-3.62513E-01-9.81431E-01-4.33363E-01 6.79613E-02 1.53230E+00-5.93184E-01
 -1       987-5.84371E+00-3.59762E+00-1.44627E+00-1.33270E+00 7.15920E-01-2.86869E-01
 -1       988-8.64815E-01-8.17874E-01 4.25558E-01 3.27249E-01 1.74093E+00-1.69210E+00
 -1       989-1.31463E+00-1.27954E+00 1.31378E-01 3.34389E-01 1.44535E+00-1.40507E+00
 -1       990-6.83344E+00-6.92270E+00-2.12931E+00-2.28264E+00 6.95438E-01-1.17665E+00
 -1       991-1.67253E+00-1.57629E+00 8.67112E-01-4.57207E-01 8.32370E-01-7.63652E-01
 -1       992-1.22896E+00-1.00793E+00 5.90949E-01-3.59471E-01 2.47333E+00-1.71152E+00
 -1       993-1.83110E-01 1.01983E-01-5.24223E-01-6.65303E-02 1.09953E+00-3.79517E-01
 -1       994-2.35628E+00-1.47828E+00-8.94664E-03-7.53197E-02 1.02262E+00-7.42282E-01
 -1       995-2.40510E+00-2.96195E+00-3.91546E-01-3.32074E-01 1.07301E+00-9.90662E-01
 -1       996-2.38923E+00-1.88144E+00-4.43969E-01-1.15569E-01 6.58275E-01-6.14502E-01
 -1       997-1.39672E+00-8.27477E-01-6.35683E-01 2.14414E-01 6.46338E-01-1.46003E+00
 -1       998-2.64838E+00-1.22150E+00-2.11718E-01-1.73175E-01 7.75950E-01-1.46616E+00
 -1       999-5.83100E+00-9.32844E+00-1.02039E+00-1.12173E+00 1.20799E+00-1.09818E+00
 -1      1000-3.34303E+00-4.23779E+00-2.91026E-01-3.21792E-01 6.49435E-01-6.66628E-01
 -1      1001-7.50625E-01 2.99492E-01 6.39127E-01 4.24683E-01 1.55243E+00-1.48605E+00
 -1      1002-3.65537E+00-5.15185E+00-1.46258E+00-8.52425E-01 9.90655E-01-5.05063E-01
 -1      1003-2.70893E+00-2.99641E+00-7.64246E-01-1.56124E-01 1.45516E+00-2.87053E-01
 -1      1004-1.93437E+00-2.65868E+00-3.80050E-01 7.95957E-02 7.73333E-01-9.68936E-01
 -1      1005-2.79000E+00-3.18460E+00-8.97089E-01-7.66038E-01 5.27041E-01-9.11208E-01
 -1      1006-5.33266E-01-4.64288E-01 6.65698E-01-2.09784E-01-2.17761E-01-2.38425E+00
 -1      1007-2.20389E+00-1.39722E+00-1.28149E-01 1.73595E-01 6.16921E-03-1.52838E+00
 -1      1008-4.41946E+00-7.04016E+00-1.20899E+00 1.35026E+00 6.14848E-01-1.69830E+00
 -1      1009-3.74420E+00-3.99103E+00 5.27400E-01-4.94904E-01 9.19221E-02-3.77935E-01
 -1      1010-1.64167E+00-9.98426E-01-1.03250E-01-2.06159E-06 5.27177E-01-2.54254E+00
 -1      1011-8.38439E-01-1.38398E+00 2.24086E-01 4.60826E-01 3.43069E-01-9.47525E-01
 -1      1012-1.93915E+00-2.66757E+00-3.72264E-01-4.31918E-01 5.41107E-01-9.71463E-01
 -1      1013-1.76959E+00-2.27070E+00-3.94974E-01 1.00045E-01-2.21811E-01-1.28355E+00
 -1      1014-2.59719E+00-4.80906E+00-8.41945E-01 9.71770E-04-1.04120E-01-7.93338E-01
 -1      1015-9.18135E-01-1.21644E+00-3.20434E-01 3.55577E-01-1.04698E+00-2.16584E+00
 -1      1016-2.01763E+00-1.71798E+00-1.62838E-01-1.84685E-01-8.19947E-01-1.62346E+00
 -1      1017-6.96841E+00-8.99050E+00-2.41356E+00 1.79559E+00-3.94582E-01-1.10915E+00
 -1      1018-2.92478E+00-7.66944E+00 4.65073E-01-3.64520E-01 2.99553E-01-9.23930E-01
 -1      1019-9.85916E-01-4.35674E-01-7.32573E-02 1.25719E-01-6.95660E-01-2.23118E+00
 -1      1020-1.88948E+00-3.84698E+00-8.13038E-01 4.77790E-01-3.34752E-01-9.25947E-01
 -1      1021-1.96977E+00-2.38486E+00-1.56522E-02 1.47457E-01-5.30548E-01-1.10239E+00
 -1      1022-2.16929E+00-2.68713E+00-2.73924E-01 7.38178E-01-1.17951E+00-6.95559E-01
 -1      1023-2.28372E+00-3.51414E+00-8.24609E-01 8.85047E-01-4.88033E-01-1.05769E+00
 -1      1024-6.57673E-01-1.08751E+00-5.39948E-02-3.96748E-01-1.68484E+00-1.25113E+00
 -1      1025-1.00372E+00-2.64064E+00-5.97759E-01-1.90791E-01-1.68917E+00-1.05667E+00
 -1      1026-6.46336E+00-4.85636E+00-9.50434E-01 1.71033E+00-1.67253E+00-1.30266E+00
 -1      1027-2.73224E+00-2.09494E+00 5.53328E-01-7.69974E-02-5.28030E-01-7.19676E-02
 -1      1028-1.04304E+00-8.02682E-01-4.40838E-01 7.85641E-02-1.26117E+00-1.58081E+00
 -1      1029-2.52925E+00-2.91384E+00-1.30376E+00 4.56297E-01-8.41473E-01-8.02052E-01
 -1      1030-1.81603E+00-2.29723E+00-1.02850E+00 4.84851E-02-9.30556E-01-9.75665E-01
 -1      1031-2.78203E+00-1.82126E+00 2.07437E-01 1.45535E-01-1.51749E+00-5.76509E-01
 -1      1032-3.52512E+00-3.14924E+00-1.10724E+00 1.10540E+00-1.63345E+00-2.15743E-01
 -1      1033-1.25592E+00-1.82287E+00-7.02706E-02-3.02953E-01-1.83103E+00-8.78361E-01
 -1      1034-7.13776E+00-4.22550E+00-1.03905E+00 7.27139E-01-1.34797E+00 1.62289E-01
 -1      1035-2.91250E+00-2.60444E+00 4.95546E-02 6.88761E-01-8.12882E-01-2.56658E-01
 -1      1036-2.84223E-01-1.05551E+00 3.39531E-01-2.04793E-01-2.23683E+00-1.21744E+00
 -1      1037-1.27063E+00-1.76208E+00-6.00879E-01-7.58269E-02-1.17426E+00-7.89251E-01
 -1      1038-2.39091E+00-1.78514E+00 2.49658E-01-5.57296E-02-1.14438E+00-3.41591E-01
 -1      1039-3.80344E+00-2.28252E+00-6.97787E-01 5.27009E-01-1.00542E+00-1.11866E-01
 -1      1040-9.84258E-01-1.82384E+00-2.37621E-01-1.20253E-01-1.74956E+00 1.34635E-01
 -1      1041-6.46537E+00-4.80044E+00-2.06507E+00-1.72229E+00-1.42034E+00 3.70574E-01
 -1      1042-4.20697E+00-2.77452E+00 6.14649E-01 2.05705E-01-8.09821E-01 5.09770E-01
 -1      1043-1.12255E+00 5.78312E-01-1.25817E+00 5.11253E-02-2.19057E+00-8.27458E-01
 -1      1044-2.61417E+00-1.64039E+00-6.26262E-01 2.38859E-01-1.48244E+00 1.83201E-01
 -1      1045-2.40292E+00-2.17019E+00-5.67402E-01 3.02517E-01-1.41760E+00 1.87918E-01
 -1      1046-1.53805E+00-1.51222E+00-2.96739E-01-1.89186E-01-1.14047E+00 2.76016E-01
 -1      1047-4.25216E+00-1.98514E+00-5.73963E-01-3.49093E-01-8.93440E-01 8.51579E-01
 -1      1048-3.74449E-01-9.21589E-01-3.32129E-01 2.86150E-01-1.37676E+00 1.11874E+00
 -1      1049-1.14419E+00-1.53144E+00-1.46007E-01 7.00552E-01-1.69935E+00 6.32947E-01
 -1      1050-4.87555E+00-3.93204E+00-1.60999E+00-8.28895E-01-1.50964E+00 7.60815E-01
 -1      1051-2.39027E+00-7.77368E-01-1.95083E-01 1.38112E-01-1.12772E+00 6.05499E-01
 -1      1052 6.12818E-02-1.74533E-01-4.09938E-01-3.74410E-02-2.13301E+00 6.78081E-01
 -1      1053-2.54654E+00-2.08612E+00-8.07890E-01-2.32707E-01-6.57765E-01 3.79384E-01
 -1      1054-2.94413E+00-2.43261E+00-2.48361E-01 9.22213E-02-1.17229E+00 4.06881E-01
 -1      1055-2.73510E+00-2.64682E+00-3.48472E-01-5.49799E-01-6.23371E-01 1.08554E+00
 -1      1056-4.52928E+00-3.69906E+00-1.23422E+00-1.06090E+00-9.18711E-01 2.40392E-01
 -1      1057-1.23192E-01-4.76041E-01-8.74719E-01-3.24399E-01-7.74715E-01 1.55549E+00
 -1      1058-1.64763E+00-1.75600E+00-2.78016E-01 2.71519E-01-1.45052E+00 1.49008E+00
 -1      1059-5.86139E+00-7.55392E+00-1.69083E+00-1.97237E+00-6.87703E-01 1.62260E+00
 -1      1060-2.84630E+00-3.73948E+00 4.20283E-01-2.66367E-01-6.02317E-01 5.68176E-01
 -1      1061-5.26655E-02-6.64404E-01-6.93830E-01-8.19898E-01-1.31322E+00 7.81161E-01
 -1      1062-2.34025E+00-1.81357E+00-1.17727E+00-6.42121E-01-1.07756E+00 2.25828E-01
 -1      1063-2.58258E+00-2.47438E+00-8.58381E-01-1.84411E-01-1.06569E+00 1.07225E+00
 -1      1064-1.86659E+00-2.50524E+00-1.09116E+00-5.34312E-02-1.06572E+00 1.02666E+00
 -1      1065-2.83859E+00-2.73675E+00-1.18726E+00-3.44563E-01-3.62542E-01 8.68484E-01
 -1      1066-1.40896E+00-1.31027E+00 8.81103E-02 4.54148E-02-7.54251E-01 1.74725E+00
 -1      1067-5.15096E+00-6.93737E+00-1.04272E-02-1.07588E+00 4.85029E-01 5.89393E-01
 -1      1068-2.38419E+00-3.06258E+00 3.96842E-01-4.75817E-01 1.94144E-02 1.13158E+00
 -1      1069 1.02170E-01-4.59291E-02 2.33997E-01-6.74218E-01-1.45697E+00 2.12530E+00
 -1      1070-2.25831E+00-2.32133E+00 3.67278E-01-4.58051E-01-1.06743E+00 1.01709E+00
 -1      1071-1.07449E+00-9.60864E-01 1.67704E-01 2.02413E-01-3.43183E-01 1.48219E+00
 -1      1072-3.30313E+00-4.13715E+00-1.19112E+00-9.04212E-01 1.33538E-01 1.24812E+00
 -1      1073 4.54861E-01-1.96157E+00-1.52630E+00 2.18408E-02 7.01651E+00 5.98552E+00
 -1      1074-1.38332E+00-3.19654E+00 4.86963E-01-1.47855E+00 5.24255E+00 5.31460E+00
 -1      1075-4.56226E+00-3.14347E+00-8.69072E-01-2.31312E+00 6.45265E+00 6.28162E+00
 -1      1076-1.33607E+00-9.37751E+00-3.50674E+00 6.46005E-01-6.27300E+00-9.22367E-01
 -1      1077 4.76695E-01 4.56378E+00 1.12862E+00 1.77303E+00 3.98769E+00 5.09084E+00
 -1      1078 2.53277E+00 1.81783E+00 1.45673E+00-2.84684E+00 5.89545E+00-9.48674E-01
 -1      1079-9.22238E-01 6.87534E-02 1.33699E+00-1.95340E-01-1.81658E+00-4.32684E+00
 -1      1080 1.96851E+00-1.11008E+00-6.81890E-01-2.52846E+00 2.14866E+00 8.22153E+00
 -1      1081 3.26451E+00-7.90935E-01-1.48022E+00 9.77541E-04 2.89280E+00 5.42902E+00
 -1      1082-4.67060E+00-1.23827E+00-2.43283E+00-1.31574E-01 4.63532E+00 8.29218E+00
 -1      1083 2.75922E+00 1.49968E+00 1.32439E+00 1.98376E+00 6.31179E+00 2.52295E+00
 -1      1084 8.16985E+00 1.19067E+01 6.02297E+00 3.58071E+00 1.08327E+01 5.79043E+00
 -1      1085-5.22314E+00-1.23158E+01-3.17203E+00-2.19139E+00 6.63694E+00 3.33896E+00
 -1      1086 6.46498E-01 6.56594E-01 2.69356E+00 3.46626E-01 2.66620E+00-3.53446E+00
 -1      1087-2.98736E+00-2.53344E+00-1.52213E+00 9.21245E-01 4.80964E+00-6.63575E+00
 -1      1088-1.60824E+00 4.29525E+00 1.08197E+00 1.20856E+00 6.84831E+00-3.69659E+00
 -1      1089 5.53188E+00 9.22188E+00 4.42613E+00-2.31606E+00 9.67260E+00-5.17031E+00
 -1      1090-5.33618E+00-4.06283E+00-3.13726E+00 2.49896E+00 7.02949E+00-3.85719E+00
 -1      1091-1.34795E+00-7.23346E-01-2.73462E+00-4.91097E-01 5.04419E+00-1.06323E+00
 -1      1092-1.60995E-01-5.08329E+00-1.33492E+00-2.00163E+00 6.37942E+00-8.14719E-01
 -1      1093-3.97559E-01-1.40261E+00-2.35611E-01-6.92430E-01 5.80671E+00-3.41539E+00
 -1      1094 6.86041E+00 5.66292E+00 3.16017E+00-2.27426E+00 5.07219E+00-4.73183E+00
 -1      1095-1.11020E+01-1.12791E+01-6.71433E+00 3.94854E+00 9.95614E+00-6.95111E+00
 -1      1096-2.77848E-01-1.13134E-01-1.62153E+00 1.56999E+00 1.29910E+00 8.60072E+00
 -1      1097 5.03097E-01-4.14045E-01-7.86100E-01-1.36712E+00 1.61165E+00 6.56802E+00
 -1      1098-3.87117E+00-7.63434E-01 2.99233E-05 5.77873E-01 1.77022E+00 6.47711E+00
 -1      1099 5.31566E+00 1.24510E+01 5.32999E+00-2.77919E-01-8.90347E+00 8.76854E-01
 -1      1100 8.09993E+00 1.69667E+01 7.52000E+00-3.06134E+00-1.04108E+01 2.56248E+00
 -1      1101-1.18368E+00-4.72778E+00-5.24337E-01 1.21251E-01-7.13897E+00 2.69311E+00
 -1      1102 1.44739E+00 7.33336E+00 3.89054E-01-3.23745E-01-6.41738E+00 4.41563E+00
 -1      1103-1.11112E+01-1.66204E+01-8.31948E+00 4.82995E+00-9.86726E+00 5.27436E+00
 -1      1104 5.45179E+00 1.23194E+01 5.33135E+00 9.55537E-01-1.09232E+01-1.07576E+00
 -1      1105-7.05702E+00-1.68174E+01-7.16234E+00-7.75459E-01-1.00880E+01-4.22750E-01
 -1      1106-2.18389E+00-8.35169E-01-2.51415E+00-1.79523E-01-4.04487E+00-2.97035E+00
 -1      1107-5.30839E+00-2.57131E+00-1.78799E+00 1.02767E+00-1.90031E+00 6.80850E+00
 -1      1108-1.40053E+01-9.20343E+00-6.96261E+00 4.27704E+00-5.96155E+00 9.98474E+00
 -1      1109-1.38034E+01-1.20828E+01-7.76587E+00 5.10756E+00-6.83035E+00 8.32300E+00
 -1      1110-1.18582E+01-1.36339E+01-7.64763E+00 5.02170E+00-9.42228E+00 7.73248E+00
 -1      1111-5.84986E+00-4.09936E+00-3.29517E+00 3.14367E+00-6.36348E+00 6.14728E+00
 -1      1112-3.12164E+00-7.77660E+00-2.35057E+00-7.96917E-01 7.71709E+00 1.30840E+00
 -1      1113-9.50480E-01-3.78209E+00 1.68038E+00-8.72499E-01 4.87473E+00 1.02247E+00
 -1      1114-5.93687E+00-3.63079E+00-3.37565E+00-4.35343E+00-5.99507E+00-3.69477E+00
 -1      1115-3.29385E+00-7.16627E+00-3.04357E+00-1.26419E+00-6.47424E+00-4.58733E+00
 -1      1116-5.86043E+00-2.52567E-01-1.95023E+00-1.46643E+00-4.84545E+00-6.63143E+00
 -1      1117-7.73322E+00-4.12844E+00-1.67582E+00-2.21584E+00-3.68080E+00-4.84589E+00
 -1      1118-3.07062E+00-1.13884E+00 9.43175E-01-9.86121E-01-9.19341E-01-5.16168E+00
 -1      1119-4.84419E+00-1.05810E+00 5.51943E-02-1.02302E-01-2.07947E+00-6.84726E+00
 -1      1120-1.47272E+01-7.38861E+00-6.63475E+00 2.46998E+00 3.29992E+00-1.08782E+01
 -1      1121 7.00786E+00 1.31325E+01 6.04210E+00 2.66726E+00 8.78076E+00 2.66366E+00
 -1      1122 1.02930E+01 2.69189E+00 4.41337E+00 1.18304E+00-2.62837E+00 7.08720E+00
 -1      1123 5.18877E+00 1.06934E+00 1.98331E+00 3.46197E-01-3.31860E+00 5.67283E+00
 -1      1124 7.28888E+00 4.01296E+00 1.55803E+00-1.95215E+00-5.10431E+00 6.30978E+00
 -1      1125-2.25614E+00-2.12425E+00-3.22834E+00-5.77818E-02-5.21640E+00 3.63977E+00
 -1      1126-2.39177E-01 1.87472E+00 5.13209E-01-1.85372E+00-8.46963E+00-5.08544E+00
 -1      1127 8.05756E+00 2.61957E+00 2.10601E+00-2.93711E-01 1.79643E+00-6.28137E+00
 -1      1128 8.24526E-01 3.68424E+00-4.19885E-01 1.08594E+00-4.90178E+00-7.05579E+00
 -1      1129 1.47294E+01 7.64258E+00 6.71159E+00 2.75062E+00-3.01033E+00-9.92358E+00
 -1      1130-2.19439E+00-6.52804E-01 1.50187E-01 4.14816E-01 1.96717E-01-3.97354E-01
 -1      1131-3.05315E+00-1.39056E+00 4.47579E-01 1.41354E+00 2.59420E-01-2.69837E-01
 -1      1132-3.85384E+00-1.15661E+00 7.31297E-01 1.27305E+00 1.20760E-01-4.31372E-01
 -1      1133-2.60937E+00-1.27503E+00 2.57620E-01 1.08011E+00 3.87102E-01-5.07972E-01
 -1      1134-1.56898E+00-3.10558E+00 5.32061E-01-1.23399E+00-5.19488E-01-2.81876E-01
 -1      1135-8.47813E-01-2.53429E+00 7.30404E-01 1.25079E+00 3.72266E-01-1.17138E-01
 -1      1136-6.00005E-01-2.06987E+00 7.74581E-02 5.11546E-01 6.46628E-01-2.05188E-01
 -1      1137-1.93589E+00-3.06410E+00 6.61465E-01 1.45499E+00 4.04000E-01-1.56515E-01
 -1      1138-3.25354E+00-2.10462E+00 3.79861E-01 1.77509E+00-2.71888E-02-2.88818E-01
 -1      1139-1.52488E+00-1.53780E+00-4.91575E-02 1.15673E+00 3.26838E-01-3.56119E-01
 -1      1140-1.07492E+01-2.52602E+00 3.60258E+00-5.93901E-01 1.30900E-01 1.56140E+00
 -1      1141-9.75088E+00-9.85144E-01-6.39069E-01-1.23452E-02-1.51800E-01 2.07331E-01
 -1      1142-1.05997E+01-4.24885E+00 1.48941E+00-2.27427E+00-2.91065E-01 1.28603E+00
 -1      1143-8.15990E+00-2.97866E+00-6.71743E-01-3.00449E+00 1.17425E-01 1.70785E-01
 -1      1144-8.54134E+00-4.98450E+00 7.05364E-01-3.30943E+00 1.91213E+00 1.13760E+00
 -1      1145-1.00545E+00-2.51178E+00 3.23222E-01-9.43285E-01-4.03150E-01-3.39129E-01
 -1      1146-8.82957E+00-5.75674E+00 3.67109E-01 3.93161E+00-2.02257E+00 7.86105E-01
 -1      1147-7.83568E+00-2.96951E+00-6.08806E-01 3.14797E+00-6.37436E-02 1.28104E-01
 -1      1148-8.95519E+00-3.98728E+00 2.90696E+00 4.15237E+00 1.44063E-01 2.46815E-01
 -1      1149-6.79477E+00-2.07518E+00 5.75653E-02 2.69554E+00-2.52993E-01-6.41165E-02
 -1      1150-9.09387E-01-4.31230E+00 8.40758E-01 1.21012E+00 7.13815E-01-2.25113E-01
 -1      1151-9.52801E-01-3.58647E+00 8.45383E-01-1.12305E+00 5.87335E-01 1.36664E-01
 -1      1152-1.31414E+00-2.49877E+00 2.89276E-01-9.08704E-01 5.30926E-01 3.43999E-01
 -1      1153-2.06500E-01-4.35039E-01-4.88674E-01-1.44869E-01 7.85902E-01 4.24058E-01
 -1      1154-8.31150E-01-2.37913E+00 2.42712E-02-1.03657E+00 1.48075E+00 6.85639E-01
 -1      1155-5.30238E-01-5.40192E-01-6.29065E-01 7.74340E-02 6.92325E-01 3.17607E-01
 -1      1156-3.90458E+00-8.22460E+00 1.69195E+00-2.76704E+00-5.20122E-01-4.65799E-01
 -1      1157-2.54757E+00-7.67119E+00-4.78292E-01-3.02827E+00-3.07241E-01-5.36471E-02
 -1      1158-2.69386E+00-6.53305E+00 2.62850E+00-2.78808E+00-1.54639E+00-4.01740E-02
 -1      1159-2.07349E+00-7.14911E+00-2.76953E-01-2.79866E+00 1.12919E-01-9.51677E-02
 -1      1160-1.33546E+00-3.10999E+00 4.30806E-01-1.28220E+00 2.68408E-01 1.64150E-01
 -1      1161-5.50558E+00-6.47444E+00 3.18463E+00-3.53702E+00-6.19622E-01-8.58666E-01
 -1      1162-4.58380E+00-4.84834E+00-2.37922E-01-4.14393E+00 2.28768E-01 7.68383E-02
 -1      1163-6.93668E+00-1.50413E+00-4.77286E-01-2.79903E+00-1.52445E-01 1.70513E-01
 -1      1164-7.83347E+00-4.50843E+00 2.37993E+00-3.30377E+00-6.00390E-01-2.94626E-01
 -1      1165-7.36505E+00-2.39569E+00-4.67422E-01-2.87616E+00-1.33909E-01 6.48904E-02
 -1      1166-8.74001E+00-1.85500E+00 1.19720E+00 6.67503E-01 4.17390E-01-1.21756E+00
 -1      1167-9.10233E+00-9.87062E-01-7.16278E-01-1.12647E-01 1.27131E-01-6.62240E-02
 -1      1168-5.90246E+00-1.52701E+00 3.62567E+00 5.35010E-02 5.11168E-01-2.34725E+00
 -1      1169-1.87587E+00-5.96229E-03 3.27313E-01 6.10806E-02-2.81544E-01 5.92254E-01
 -1      1170-2.50692E+00-4.74862E-01-5.08119E-02-8.38774E-02 1.76650E-02 6.35954E-01
 -1      1171-3.88951E+00-8.94464E-01 6.29536E-01 4.74498E-01-2.12009E-01 4.65150E-01
 -1      1172 5.19496E-02-1.46311E-01-5.88990E-01 1.54186E-02 1.02438E-01 4.94745E-01
 -1      1173-2.27662E+00-4.72425E-01-2.59765E-01-1.17724E-01-6.74994E-02 1.40986E+00
 -1      1174-9.18980E-01-2.48251E+00 2.00966E-01 4.70480E-01-3.37502E-01 2.52211E-01
 -1      1175-1.43039E-01-4.48886E-01-6.62424E-01-1.72397E-01 4.39391E-01 3.48762E-01
 -1      1176-2.34682E+00-2.26978E+00-6.45228E-02-1.17714E+00 1.05641E+00 1.12264E+00
 -1      1177-1.53426E+00-1.53079E+00 1.82467E-01-1.37469E+00 9.93669E-01 1.02155E+00
 -1      1178-3.07685E-01-6.72025E-01-6.99717E-01-1.38447E-01 6.08355E-01 7.30616E-01
 -1      1179-2.20251E+00-1.09173E+00-4.67364E-02-5.96338E-01 6.35324E-01 1.30841E+00
 -1      1180-1.91386E+00-5.47227E-01-4.15845E-03-8.41969E-01 6.05955E-01 1.24395E+00
 -1      1181 2.93809E-01-1.03895E-01-2.16498E-01 4.46330E-03 2.60493E-01 5.59328E-01
 -1      1182-2.03923E+00-8.76893E-01 2.11225E-01-6.77655E-01 3.53149E-01 5.11648E-01
 -1      1183-4.03809E+00-8.85730E-01 8.09115E-01-1.04345E+00 1.71023E-01 5.45160E-01
 -1      1184-1.75253E+00-1.75106E+00 1.01620E-01-1.12404E+00 3.53393E-01 4.97261E-01
 -1      1185-1.53506E+00-1.95315E+00 9.92311E-02-1.01537E+00 4.12663E-01 3.14043E-01
 -1      1186-2.78130E+00-1.90674E+00 6.45830E-01-1.61775E+00 1.58037E-01 3.47122E-01
 -1      1187-9.57341E-01-3.32313E+00 9.34879E-02 7.69876E-01-1.39169E+00 6.85646E-01
 -1      1188-2.46191E-01-6.30765E-01-2.53344E-01 1.91167E-01-8.24369E-01 3.15727E-01
 -1      1189-2.10608E-01-4.90501E-01-5.22638E-01 1.43530E-01-7.98300E-01 2.11379E-01
 -1      1190-1.16513E+00-2.79542E+00-4.08378E-02 5.86636E-01-1.68515E+00 5.08319E-01
 -1      1191-2.30240E+00-6.64420E+00 3.66792E+00 1.23272E+00 2.57641E+00-1.07948E+00
 -1      1192-2.43931E+00-7.59665E+00-3.14770E-01 2.65147E+00 5.90250E-02-1.61693E-02
 -1      1193-2.32707E+00-4.56494E+00 1.75910E+00 1.47101E+00 2.04850E+00-1.53624E+00
 -1      1194-1.04876E+00-8.33300E+00-1.44844E-01-1.22526E-02 1.08574E-01 1.15914E-01
 -1      1195-2.81357E-01-3.16705E+00-9.72243E-03-1.22732E-01-1.34070E+00-3.11840E-03
 -1      1196-1.43915E+00-9.54759E+00-6.84667E-01-1.67452E-01 2.76480E-01-8.83411E-02
 -1      1197-1.58934E+00-1.00990E+01 2.37487E+00 6.56896E-02 5.50201E-01 2.97834E-01
 -1      1198-1.57809E-01-5.10283E-01-5.93951E-01-5.51092E-02-5.76663E-01-2.99853E-02
 -1      1199-7.93012E-01-3.15588E+00-1.99623E-02-2.15811E-01-1.43224E+00-7.43783E-02
 -1      1200-8.56711E+00-3.63643E+00 2.08164E+00 3.51433E+00 1.09437E-01-3.32703E-01
 -1      1201-7.62577E+00-2.10895E+00-3.50264E-01 2.73753E+00-5.72032E-02 3.56303E-01
 -1      1202-1.24390E+01-6.30623E+00 1.54121E+00-3.00047E-01 9.11964E-01-1.68328E+00
 -1      1203-3.76322E+00-9.92603E-01 7.89058E-01 1.19100E+00-1.05014E-01 6.91693E-01
 -1      1204-2.08337E+00-9.13692E-01 1.83162E-01 7.62861E-01-4.54133E-01 6.02178E-01
 -1      1205-1.86875E+00-5.37263E-01 1.53789E-03 3.89302E-01-1.74303E-01 5.07715E-01
 -1      1206-2.83063E+00-1.29345E+00 4.61738E-01 1.29998E+00-2.57493E-01 3.95781E-01
 -1      1207 4.44697E-02-1.20450E-01-5.44871E-01-6.03649E-02 6.89629E-02 1.86678E-01
 -1      1208-1.68971E+00-4.97449E-01 4.54157E-02 6.07128E-01-5.94787E-01 1.31175E+00
 -1      1209-5.05169E+00-4.80392E+00-6.86191E-01 4.03528E+00 2.48366E-01 5.48673E-02
 -1      1210-7.92290E+00-5.11878E+00 1.43785E+00 3.50816E+00 1.14183E+00-3.69111E-01
 -1      1211-2.76674E+00-2.02023E+00 5.56789E-01 1.50562E+00-6.70041E-02 2.29844E-01
 -1      1212-1.45440E+00-1.34273E+00 1.20681E-01 8.48398E-01-6.49531E-01 4.68106E-01
 -1      1213-2.00473E+00-1.46552E+00-5.02878E-02 9.70949E-01-4.06258E-01 3.67996E-01
 -1      1214-1.63985E+00-2.77499E+00 6.97856E-01 1.59733E+00-4.73437E-01 2.61762E-01
 -1      1215-1.66205E-01-1.83759E-01-5.68892E-01 2.69533E-02-3.06485E-01 4.44668E-01
 -1      1216-1.78586E+00-1.52329E+00 5.75751E-02 9.32366E-01-1.04804E+00 8.93557E-01
 -1      1217-7.53166E-01-4.11163E+00 7.35608E-01-3.86419E-01-3.90640E-01-3.69290E-02
 -1      1218-2.60079E+00-8.43106E+00-4.98794E-01-2.88937E+00 6.81446E-02 7.10774E-02
 -1      1219-4.80520E+00-8.53347E+00 1.17038E+00-3.69304E+00 1.16160E+00 1.02398E+00
 -1      1220-1.62400E+00-7.97200E+00-3.07847E-01-2.97237E+00-2.29714E-01 9.96925E-02
 -1      1221-3.46939E+00-8.63680E+00 2.02224E+00-3.00172E+00 7.83902E-01-1.03017E-02
 -1      1222-2.26531E-01-2.60559E-01-7.86056E-01-1.93152E-01-7.97965E-01-3.44846E-01
 -1      1223-8.55329E-01-3.29332E+00 9.54620E-02-7.78785E-01-1.59283E+00-6.56023E-01
 -1      1224-2.17400E-01-3.76466E-01-7.54017E-01-9.04704E-02-6.16592E-01-3.38202E-01
 -1      1225-1.11596E+00-3.22945E+00 1.03333E-01-7.52138E-01-1.54559E+00-5.79738E-01
 -1      1226-9.88157E-01-3.86905E+00 4.24724E-01 5.82636E-01 3.08453E-01-1.81318E-01
 -1      1227-3.61407E-01-2.17180E+00 1.81788E-01-9.35900E-02 5.67284E-01 4.93131E-02
 -1      1228-2.42572E-01 1.52451E-01-4.08183E-01-1.53997E-01 7.43367E-01 7.56867E-02
 -1      1229-1.17346E+00-3.04464E+00-1.76495E-01-1.76551E-01 1.50856E+00-1.53826E-02
 -1      1230-1.43212E+00-9.81337E+00 3.02642E+00 1.18013E+00-6.47418E-01-8.52792E-01
 -1      1231-5.58002E-01-9.00656E+00-5.05215E-01 2.14063E-01 3.03031E-01-1.73320E-01
 -1      1232-1.42478E-01-2.42555E+00-4.11614E-02-1.38412E-01 1.30854E+00 7.43400E-03
 -1      1233-8.35361E-01-4.03459E-01-5.99762E-01-2.19954E-01 6.78202E-01 5.49840E-02
 -1      1234-6.86027E-01-2.74398E+00 1.14274E-02 7.05643E-02 5.83507E-01 4.30782E-03
 -1      1235-1.84280E+00-6.74916E+00 7.31237E-01 2.50393E+00 4.56855E-02 1.37148E-01
 -1      1236-5.57090E+00-9.23171E+00 3.10308E-01 3.01414E+00-9.29841E-01 1.52525E+00
 -1      1237-4.60125E+00-9.99912E+00 2.14786E+00 2.02397E+00-5.26333E-01 2.79190E-01
 -1      1238-3.43815E+00-8.11268E+00-4.86239E-02 2.38605E+00 5.47933E-02 1.06038E-02
 -1      1239-7.40035E-01-1.50293E-01-6.56493E-01-1.14221E-01 4.16614E-01-2.24711E-01
 -1      1240-1.63343E+00-2.49132E+00-3.71644E-01 7.16817E-01 1.34590E+00-8.44849E-01
 -1      1241-8.88635E-01-2.16285E+00-3.06070E-01 1.21890E+00 1.47007E+00-8.34159E-01
 -1      1242-2.99934E-01-5.12071E-01-6.86460E-01-1.99360E-02 6.20729E-01-4.21659E-01
 -1      1243-9.01782E-01-3.84272E+00 6.55190E-01-3.59725E-01 3.73631E-01 1.32524E-01
 -1      1244-2.75549E+00-2.20953E+00 8.27268E-01-1.98596E+00-2.62116E-01-3.22780E-01
 -1      1245-8.06558E-01-3.82445E+00 4.75431E-01 6.18751E-01-3.42898E-01 2.58031E-01
 -1      1246-4.13607E-01-2.55211E+00-1.11894E-02-2.34735E-01-5.30792E-01-4.32932E-02
 -1      1247-5.88128E+00-7.31167E+00 1.16143E+00 4.10947E+00-6.79262E-01 6.66676E-01
 -1      1248-5.22715E+00-5.89866E+00-3.02304E-01-4.00883E+00 2.15304E-01 2.45484E-02
 -1      1249-5.24358E+00-3.75534E+00 2.26280E+00-2.35751E+00 9.55971E-01 2.15875E+00
 -1      1250-4.34795E+00-5.00698E+00 4.05936E-01-4.15868E+00-2.68531E-03-1.21059E-01
 -1      1251-2.12881E+00-7.99712E-01 3.91621E+00-1.06546E+00 2.35421E+00 1.65647E+00
 -1      1252-4.64592E+00-5.26972E+00-4.32021E-01 3.72310E+00-1.14878E-01 2.05255E-01
 -1      1253-5.23135E+00-5.76831E+00 2.48878E+00 3.25417E+00-8.57760E-01 1.30994E+00
 -1      1254-5.03555E+00-5.34262E+00-3.97064E-01 3.99669E+00 9.72431E-03-7.54653E-02
 -1      1255-1.72349E+00-3.31874E+00 6.56348E-01-1.55657E+00-5.03165E-01-2.12442E-01
 -1      1256-1.55817E+00-1.34193E+00 2.46048E-01-1.25890E+00-2.77279E-01-6.92041E-01
 -1      1257-3.53104E+00-1.50434E+00 6.66698E-01-1.50501E+00-3.23305E-01-4.60441E-01
 -1      1258-2.34943E+00-3.68226E-01 3.31109E-01-5.21118E-01-8.52120E-02-4.57800E-01
 -1      1259-2.66024E+00-1.09696E+00 1.93346E-01-9.47112E-01-4.58627E-01-4.19874E-01
 -1      1260-3.86272E+00-9.88524E-01 9.47910E-01-1.19832E+00-2.11656E-01-5.50324E-01
 -1      1261-1.14213E+00-6.47403E-01-8.97824E-01-3.94104E-02-1.84146E-01-1.19324E+00
 -1      1262-3.90168E+00-1.23566E+00-4.90986E-02 4.01127E-03 1.11322E-01-1.28765E+00
 -1      1263-3.72499E+00-3.21871E-01-1.12316E-02-8.65456E-02-2.93758E-02-1.31542E+00
 -1      1264-7.83173E-01 8.02189E-02-8.62837E-01-1.00931E-01-4.71663E-02-9.23870E-01
 -1      1265-2.98208E+00-9.37111E-01 1.79395E-01 1.17126E+00 6.86021E-01-1.49163E+00
 -1      1266-5.21803E-01-6.74938E-02-8.36169E-01 2.63954E-01 2.07903E-01-7.34610E-01
 -1      1267-2.10743E+00-2.35815E+00-1.24479E-01 1.09057E+00 1.03608E+00-1.11996E+00
 -1      1268-1.70559E+00-1.71254E+00-1.35324E-01 1.47498E+00 8.77067E-01-9.23110E-01
 -1      1269-2.87564E-01-2.17895E-01-7.04074E-01 2.39961E-01 4.79492E-01-5.13206E-01
 -1      1270-4.15589E+00-7.71722E-01 8.00681E-01 5.59324E-01 1.12081E-01-5.47722E-01
 -1      1271-4.39037E+00-8.25002E-01 4.90544E-01-6.23364E-01-1.29712E-01-1.98599E-01
 -1      1272-3.02303E+00-5.11242E-01 2.39619E-02-4.13861E-02 8.59001E-02-5.73057E-01
 -1      1273-3.58162E-01-1.65519E-01-8.56716E-01-1.68532E-01-4.33835E-01-2.34646E-01
 -1      1274-1.67777E+00-2.21102E+00 2.59387E-01-1.33843E+00-1.16397E+00-1.12952E+00
 -1      1275-3.50771E+00-1.11571E+00 3.74459E-02-9.29808E-01-9.18205E-01-1.43268E+00
 -1      1276-2.43626E-01-1.39247E-01-3.86154E-01-3.15447E-02-4.31477E-01-1.03448E+00
 -1      1277-3.30743E+00-1.61317E+00-1.54793E-01-5.24549E-01-6.89062E-01-1.62745E+00
 -1      1278 2.33198E-01-9.05668E-01-2.07883E-01 5.42446E-01 6.64434E-01 2.56747E+00
 -1      1279-1.04679E+00-1.83775E+00 1.47699E-01 6.33708E-02-5.61972E-01 1.34029E+00
 -1      1280-4.98573E+00-1.03441E+01-1.74432E+00-2.86028E-01 1.95541E-01 1.28256E+00
 -1      1281-1.35921E+00-9.47801E-01-1.42601E-01-5.14096E-01 3.21358E-01 1.89731E+00
 -1      1282-1.77863E+00-2.48800E+00-6.31408E-01 1.16946E-01 1.45891E-01 1.14866E+00
 -1      1283 4.15427E-01-1.07301E+00-7.98519E-01 3.54661E-01 9.66769E-01 6.87652E-01
 -1      1284-3.38214E+00-2.56062E+00 6.79764E-01 1.72771E-01 3.74739E-01 4.72980E-01
 -1      1285-5.28147E+00-8.86397E+00-2.16123E+00 1.23761E+00 7.29827E-01 1.13319E+00
 -1      1286-1.63335E+00-1.01768E+00-4.89687E-01 6.86827E-02 5.11973E-01 1.77294E+00
 -1      1287-6.86563E-03-6.69783E-01 2.43810E-01-1.74005E-01 1.62181E+00 1.17823E+00
 -1      1288-1.89108E+00-1.99490E+00-1.12467E-02 4.40934E-01 1.15648E+00 6.23060E-01
 -1      1289-6.58520E+00-6.68741E+00-1.50916E+00 2.27270E+00 6.42073E-01 2.04023E+00
 -1      1290-2.54039E+00-1.70810E+00-2.54552E-01-2.11659E-01 1.27484E+00 1.27829E+00
 -1      1291-3.48584E+00-4.79796E+00-1.72837E+00 1.00029E+00-7.67537E-02 1.00379E+00
 -1      1292-9.65948E-01-8.83429E-01 7.38172E-02 2.12090E-01 2.24304E+00 1.02827E-01
 -1      1293-2.34938E+00-1.42903E+00-6.44730E-01 2.51877E-02 8.93315E-01 3.97302E-01
 -1      1294-8.91726E+00-6.81443E+00-1.83747E+00 2.44035E+00 1.35498E+00 6.25624E-01
 -1      1295-1.94203E+00-1.82110E+00-3.52760E-01-1.88493E-01 1.65244E+00 8.53421E-01
 -1      1296-1.35228E+00-1.91781E-01 2.69675E-01-2.48637E-01 2.07970E+00-9.79435E-02
 -1      1297-1.97035E+00-1.01050E+00 8.21821E-01 2.44809E-01 1.41921E+00 1.40038E-01
 -1      1298-9.51198E+00-5.64230E+00-2.21380E+00 6.60988E-01 1.36772E+00 1.38230E+00
 -1      1299-1.44149E+00-1.99115E+00-2.21048E-01-2.55202E-01 1.92723E+00-1.07501E-01
 -1      1300-3.36502E+00-3.58088E+00 3.43283E-01-4.50626E-02 1.05293E+00-3.44837E-01
 -1      1301-1.08021E+01-6.89968E+00-2.00499E+00-1.29326E+00 6.56268E-01-2.76311E-03
 -1      1302-1.14112E+00-1.33792E+00 4.33901E-01 1.07559E-01 1.74294E+00-6.29308E-01
 -1      1303-8.84046E-01-2.26860E+00 2.38100E-01 3.44425E-02 6.45665E-01-7.84037E-01
 -1      1304-7.17547E+00-6.72310E+00-1.76560E+00-2.12745E+00 1.32560E+00-4.04582E-01
 -1      1305-1.66333E+00-1.81982E+00 6.80636E-02-6.77553E-02 1.54179E+00-1.32188E+00
 -1      1306-3.66025E+00-4.55150E+00-1.57601E-01-3.20038E-01 6.63046E-01-1.91380E-01
 -1      1307-4.66855E+00-4.82333E+00-1.77227E+00-3.37104E-01 1.46724E+00-7.56184E-01
 -1      1308-2.50435E+00-1.69084E+00 1.84386E-01-3.09904E-01 1.50847E+00-1.22017E+00
 -1      1309-3.16058E+00-4.72262E+00 2.51529E-01-2.68185E-01 5.66062E-01-8.16583E-01
 -1      1310-5.13620E+00-8.19639E+00-1.55315E+00-3.14513E-01 5.13990E-01-1.13750E+00
 -1      1311-2.13346E+00-1.46025E+00-5.56464E-01 3.33802E-01-1.92444E-01-1.55942E+00
 -1      1312-2.19022E+00-2.67022E+00 5.61430E-01 3.70346E-01-8.26616E-01-3.50468E-01
 -1      1313-6.33422E+00-1.15167E+01-2.33980E-01 1.29711E+00 4.26192E-01-1.10022E+00
 -1      1314-1.55808E+00-1.24152E+00-2.09697E-01-3.27288E-02-1.74544E-01-1.98546E+00
 -1      1315-1.43652E+00-2.11986E+00-3.55949E-01 6.31726E-01-8.08162E-01-9.41195E-01
 -1      1316-7.24142E+00-9.23599E+00-1.29904E+00 2.33360E+00-6.88673E-01-1.07845E+00
 -1      1317-1.06994E+00-1.40006E+00-1.63338E-02-6.35603E-01-1.24664E+00-1.31078E+00
 -1      1318-9.08441E-01-1.45604E+00-3.28246E-01-1.22637E-01-2.57938E+00-1.02824E+00
 -1      1319-4.38769E+00-1.95820E+00-1.30023E-01 6.60161E-01-1.43982E+00-8.10492E-01
 -1      1320-9.21517E+00-5.33866E+00-1.72261E+00 2.64675E+00-1.17028E+00-1.25501E+00
 -1      1321-6.91437E-01-1.08278E+00-9.71583E-02-5.10329E-01-1.55882E+00-8.98531E-01
 -1      1322-3.26349E+00-2.33781E+00-7.38729E-01 4.74116E-01-9.71154E-01-2.38963E-01
 -1      1323-9.47199E-01 1.13871E+00-1.07953E+00 2.25097E-01-1.88695E+00-4.81540E-01
 -1      1324-1.86858E+00-7.21040E-01 1.73257E-01-4.46954E-01-1.03479E+00 1.81909E-01
 -1      1325-7.60418E+00-4.42058E+00-1.15441E+00 2.57618E-01-1.51996E+00-3.63181E-01
 -1      1326-5.45553E-01-1.40575E+00 5.01541E-04-1.37160E-01-1.92454E+00 2.10288E-01
 -1      1327-3.26075E+00-2.94047E+00 2.54160E-01-7.13534E-01-7.24239E-01 3.13746E-01
 -1      1328-8.25502E+00-5.12259E+00-8.08254E-01-1.77555E+00-1.10548E+00 4.64929E-01
 -1      1329-2.34751E+00-2.07450E+00-6.13030E-01-9.86703E-02-2.08912E+00 3.51777E-01
 -1      1330-2.84397E+00-6.03129E+00-5.59915E-01-5.61220E-01 2.76003E-01 1.09534E+00
 -1      1331-7.08226E+00-5.50071E+00-5.35733E-01-1.81109E+00-1.27773E+00 7.39492E-01
 -1      1332-1.71250E+00-1.38445E+00-6.67760E-01 5.06498E-01-1.51684E+00 1.16940E+00
 -1      1333-9.51926E-01-7.88343E-01-3.06925E-01-1.96663E-01-7.23193E-01 2.05907E+00
 -1      1334-2.03851E+00-3.64689E+00-7.19650E-02 3.74167E-01 3.11398E-02 1.24138E+00
 -1      1335-6.35251E+00-9.02518E+00-1.41404E+00-1.25063E+00-1.74328E-02 1.34075E+00
 -1      1336-9.16083E-01-6.40899E-01 4.35276E-02 5.58371E-01-8.73960E-01 1.45929E+00
 -1      1337-3.32200E+00-4.89206E+00-9.07274E-01-6.85993E-01-7.42860E-01 8.87245E-01
 -1      1338-1.83415E+00 1.18739E+00-9.50916E-01-2.07591E-01 4.89181E+00 6.03739E+00
 -1      1339 1.78988E+01 8.97069E+00 8.06085E+00-1.03332E+00-1.28832E+00 1.15414E+01
 -1      1340-1.00449E+00-1.77389E+00-2.73383E+00-5.60996E-01-1.28857E+00 6.21173E+00
 -1      1341-1.68008E+01-7.17334E+00-7.19225E+00 3.77129E-01-1.14013E+00 1.15768E+01
 -1      1342 1.41690E+00 1.69683E+00 5.78453E-01-3.37300E-01-3.80133E-01 5.64842E+00
 -1      1343-2.13244E+00 1.09908E+00-1.05574E+00-1.81065E+00-7.95134E+00-1.92100E+00
 -1      1344-3.73378E+00-5.80002E+00-2.77994E+00-2.23361E+00-7.97071E+00-1.54274E+00
 -1      1345-3.65700E+00-1.63825E+01-5.92395E+00-8.32687E-02-9.47986E+00-2.42057E+00
 -1      1346-7.29410E-01 1.70373E+00-2.41400E+00 1.19254E+00 4.76122E+00 6.26675E+00
 -1      1347-2.57894E+00 9.53845E-01-1.53474E+00 1.41666E-01 5.77383E+00 6.65461E+00
 -1      1348-7.05503E+00-2.26031E+00-3.19914E+00-1.35927E+00 5.80007E+00 7.08959E+00
 -1      1349 8.31018E+00 1.44103E+01 6.81614E+00-2.53496E+00 1.12867E+01-3.09357E+00
 -1      1350 2.42485E+00 5.70786E-02 1.16670E+00-1.17570E+00 5.54561E+00-8.10242E-01
 -1      1351-2.36239E+00-7.62016E+00-3.38555E+00-5.00020E-01 7.79399E+00-2.01625E+00
 -1      1352-1.53238E+01-8.35982E+00-7.10508E+00 3.95439E+00 5.67958E+00-1.09135E+01
 -1      1353-2.41184E+00-2.76637E+00 7.43733E-01 2.05510E+00 2.28481E+00-5.30718E+00
 -1      1354 2.56317E+00-4.10143E-01-7.36173E-01-1.93485E-01 3.97143E+00-6.27269E+00
 -1      1355-3.68292E+00-2.62004E+00-4.07749E+00 4.93398E-01 3.12946E+00-5.46810E+00
 -1      1356-9.79883E+00-4.27971E+00-2.03615E+00-1.96478E+00-2.94434E+00-4.85765E+00
 -1      1357 7.91561E-01 1.38197E+00 3.97764E-01 1.14185E+00-3.02375E+00-6.23388E+00
 -1      1358 1.39377E+01 9.24764E+00 6.95560E+00 4.24688E+00-5.32187E+00-9.12250E+00
 -1      1359 1.31607E+01 6.54023E+00 5.91027E+00 2.13805E+00 3.34657E+00 1.10320E+01
 -1      1360 2.52164E-01 1.51897E-01 2.32615E-01 2.41571E-02 2.20218E+00 7.06120E+00
 -1      1361-1.42132E+00-2.01660E+00-1.35831E+00-2.58743E+00 1.39749E+00 6.32457E+00
 -1      1362 1.75217E+00 3.53499E+00 1.49969E+00 2.06095E+00 3.86997E+00 6.89353E+00
 -1      1363-8.30537E-01-3.24074E+00-1.69795E+00-1.80488E+00 4.33005E+00 8.26902E+00
 -1      1364-4.42327E-01-1.86071E+00 2.53782E+00-1.54274E+00 4.73903E+00 1.86592E+00
 -1      1365 5.81561E-02 5.05017E+00 2.37804E+00-1.68126E+00 6.68363E+00 1.05731E+00
 -1      1366-2.38012E-01-2.11682E-01-3.27044E-01-2.15992E+00 8.61725E+00 9.43070E-01
 -1      1367-1.09897E+00-3.49304E+00-8.52551E-01-1.81478E+00 6.87485E+00 5.25173E-01
 -1      1368-6.40614E+00-1.02717E+01-4.10461E+00-3.45252E+00 8.75617E+00 9.80760E-01
 -1      1369-1.72395E+01-7.10373E+00-7.30296E+00-1.50250E-01 6.65207E-01-1.15064E+01
 -1      1370-1.04567E+01-3.10567E+00-4.25794E+00-1.09407E+00 1.14305E+00-6.27181E+00
 -1      1371 8.50912E+00 4.23983E+00 2.71086E+00-1.96692E+00 5.25855E-01-6.28290E+00
 -1      1372-3.08610E+00-2.08031E+00-3.66103E+00-4.93915E-01 1.01939E+00-6.87200E+00
 -1      1373-1.15339E+01-1.06549E+01-6.65664E+00 4.43728E+00 7.98007E+00-9.72397E+00
 -1      1374 1.30030E+01 1.12913E+01 7.28829E+00-4.77069E+00 6.52647E+00-8.86131E+00
 -1      1375 2.85902E-01-2.82843E-01 1.11048E+00 3.00337E-01 6.45440E+00-3.96587E+00
 -1      1376 4.01980E+00 4.82480E+00 2.61951E+00-4.20872E+00 6.02975E+00-9.41555E-02
 -1      1377-7.67646E+00-1.75833E+01-7.57792E+00-6.62200E-02 1.05030E+01-9.50418E-01
 -1      1378-1.25118E+00-5.39362E+00-2.69085E+00 1.63771E+00 7.01376E+00-6.13245E+00
 -1      1379-6.47864E+00-2.54464E+00-1.41101E+00-1.57595E+00 1.21326E+00 7.72051E+00
 -1      1380 1.59233E-01 2.52015E+00 5.75479E-01 6.21697E-01-6.29914E+00 9.82130E-01
 -1      1381-1.58550E+00-4.66880E+00-2.74715E-01-1.41530E+00-6.67676E+00 1.51830E+00
 -1      1382 1.06458E+00 2.38025E+00 1.18918E+00-4.01230E-02-5.82213E+00 9.34477E-01
 -1      1383 1.84606E+00 3.94179E+00-1.54620E+00-2.29141E+00-7.17787E+00 1.74435E+00
 -1      1384 2.44055E-01-1.09441E+00 1.03187E+00-1.43716E-01-4.73617E+00 1.10772E+00
 -1      1385-1.17119E+00-7.40532E-01-1.92814E+00 2.27739E-01-3.85947E+00 1.93164E+00
 -1      1386-2.83425E-01-3.94022E+00-1.98593E+00 5.51670E-01-6.70288E+00 3.69574E+00
 -1      1387 3.85096E-01 2.49371E+00-1.56740E+00 5.22505E-02-2.86715E+00 4.86587E-01
 -1      1388 4.73574E-01 4.85379E-01 3.11774E-01-7.10097E-02-6.38162E+00-3.93282E-01
 -1      1389-2.63008E+00 7.33124E+00 9.07237E-01-1.09640E+00-6.44695E+00-5.22549E+00
 -1      1390-4.91397E+00 7.72233E-01-1.57687E+00-2.11991E+00-7.06378E+00-5.75260E+00
 -1      1391-1.13256E+01-1.22960E+01-7.08648E+00-4.74219E+00-8.85406E+00-7.67399E+00
 -1      1392 6.05563E-01 1.01830E+00 2.80945E+00 1.00203E-01-2.00441E-01-5.76268E+00
 -1      1393-1.50559E+01-6.54237E+00-6.47949E+00-7.41568E-01-1.09950E+00-1.11641E+01
 -1      1394-3.04266E+00-2.31287E+00-3.85891E+00 1.23794E-01-1.37384E+00-6.82325E+00
 -1      1395 1.44786E+01 6.12127E+00 6.17996E+00 8.04255E-01-1.30693E+00-1.06156E+01
 -1      1396-4.70547E+00-4.58030E+00-2.69195E+00 3.92717E+00-2.79474E+00 8.57517E+00
 -1      1397-5.42019E+00-5.97871E+00-2.96331E+00 3.77611E+00-4.08839E+00 6.38768E+00
 -1      1398-4.18661E+00-6.62240E+00-4.57503E+00 2.54824E+00-5.62043E+00 7.02445E+00
 -1      1399-7.79736E+00-3.83638E+00-7.88649E-01 2.92116E+00 1.12905E+00-7.73212E+00
 -1      1400 2.79431E+00 4.23896E+00 2.64530E+00 1.27274E+00 9.40244E+00 1.61788E+00
 -1      1401 1.04691E+01 5.28752E+00 4.72700E+00-1.79483E+00-3.50660E+00 1.15595E+01
 -1      1402-3.39100E-01-1.57311E+00-1.66279E+00 2.37834E-01-3.02321E+00 5.15578E+00
 -1      1403-3.16654E+00-3.95031E+00-6.73583E+00 2.28867E-01-3.37494E+00 4.51002E+00
 -1      1404 2.52486E+00 7.68514E+00 4.05012E+00-5.38360E-01-7.28360E+00 6.99187E+00
 -1      1405 1.72620E+00 1.87376E+00 1.18541E-02 1.37286E+00-7.89981E+00-4.72333E+00
 -1      1406-3.64433E+00-3.02058E+00-4.97538E+00 3.68692E-01 1.75695E+00-7.04612E+00
 -1      1407 3.62547E-01 2.55237E+00 5.67899E-01 1.28500E+00-3.82004E+00-5.78289E+00
 -1      1408-6.85333E-01 6.36373E-02-6.55674E-01 1.42512E+00-1.07590E+00-7.15998E+00
 -1      1409-1.41802E+01-7.77094E+01-1.20102E+01-1.25150E+01-6.29798E+00 1.48794E+00
 -1      1410-8.34550E+00-6.13190E+01-7.23604E+00-7.06957E+00-4.29943E+00 1.94641E+00
 -1      1411-3.84556E+01-6.53327E+00-1.35988E+01 6.49944E+00-3.06639E+00-1.21193E+00
 -1      1412-2.89385E+01-4.79261E+00-1.06415E+01 7.99333E+00-2.00220E+00 5.63503E-02
 -1      1413-1.52340E+01-2.92450E+01-8.38525E+00-1.55292E+01-9.99439E-01 2.77136E+00
 -1      1414-1.05690E+01-2.20204E+01-4.59182E+00-1.13754E+01-8.36778E-01 2.29860E+00
 -1      1415-4.66856E+01-2.28595E+01-9.31470E+00-2.69374E+01-2.20467E+00 1.92383E-01
 -1      1416-5.47799E+01-2.13120E+01-7.60165E+00-2.71340E+01-1.92006E+00-1.27818E+00
 -1      1417-2.01156E+01-1.21554E+01-8.25414E+00-1.25965E+01 2.43798E+00-7.05970E-02
 -1      1418-1.85416E+01-1.26086E+01-7.11603E+00-1.25021E+01 9.30969E-01-1.03212E+00
 -1      1419-3.98341E+00-3.37157E+01-1.02707E+01 6.03044E+00 5.04728E-01 2.58448E+00
 -1      1420-6.22191E+00-3.30751E+01-1.04759E+01 6.47615E+00-1.06318E+00 1.65372E+00
 -1      1421-2.57966E+01-5.00501E+01-9.38766E+00 2.98896E+01-1.26371E+00 3.51025E+00
 -1      1422-2.59831E+01-4.68071E+01-7.56738E+00 2.88793E+01-1.64510E+00 2.20029E+00
 -1      1423-3.63676E+01-5.50844E+00-8.33519E+00-5.59480E+00-1.90422E+00-1.21635E+00
 -1      1424-2.96502E+01-4.26376E+00-5.89988E+00-3.62431E+00-9.51348E-01 5.51596E-01
 -1      1425-3.84715E+01-6.15870E+00-1.03481E+01 7.87427E+00 8.28628E-01 1.20348E+00
 -1      1426-3.12141E+01-5.31973E+00-8.01450E+00 5.68548E+00 7.74730E-01 6.30942E-01
 -1      1427-1.09955E+01-6.35587E+01-9.46824E+00 1.41012E+01-1.40514E+00 3.11991E+00
 -1      1428-1.08392E+01-5.76371E+01-5.23298E+00 1.36324E+01-1.81104E+00 1.73997E+00
 -1      1429-7.21136E+01-7.54561E+00-1.21878E+01 1.24765E+01 3.38594E+00-2.17201E+00
 -1      1430-6.80863E+01-1.15394E+01-9.84608E+00 1.40482E+01 2.36567E+00 8.65730E-02
 -1      1431-1.69671E+01-3.23353E+01-1.13565E+01 1.63299E+01 9.96665E-01 2.02860E+00
 -1      1432-1.37741E+01-2.43311E+01-7.74627E+00 1.41998E+01 4.77000E-01 1.86702E+00
 -1      1433-5.38905E+01-1.47446E+01-3.05456E+00 1.75236E+01 4.93526E+00 1.58191E+00
 -1      1434-1.35800E+01-1.28686E+01-5.65282E+00 7.70074E-01 8.08093E-01-9.37132E-03
 -1      1435-1.53113E+01-1.67941E+01-7.65277E+00-3.42333E-01 2.47630E-01 2.28757E+00
 -1      1436-2.13952E+01-1.18258E+01-7.86985E+00-1.25880E+01-2.85211E+00 9.11051E-01
 -1      1437-1.90773E+01-1.00217E+01-6.82592E+00-1.07417E+01-1.05483E+00 9.92152E-01
 -1      1438-1.42831E+01-5.35636E+01-2.84836E+00-1.93960E+01-1.55139E+00 4.09173E+00
 -1      1439-5.38752E+01-2.75385E+01-1.26497E+01 3.08924E+01 5.68417E-01-1.96257E+00
 -1      1440-5.01515E+01-2.52367E+01-9.75012E+00 2.89087E+01 8.94099E-01-4.48230E-01
 -1      1441-1.14249E+01-1.00644E+01-4.82127E+00-1.61736E+00-3.07729E-01 1.01077E+00
 -1      1442-1.42846E+01-1.12087E+01-4.85464E+00-5.17493E-01-1.48294E+00 8.00869E-01
 -1      1443-4.98491E+01-2.55991E+01-4.70963E+00 2.18639E+01 1.35263E+00 1.38036E+00
 -1      1444-6.35033E+01-3.34720E+01-1.28283E+01 3.28653E+01 1.38484E+00 1.63684E+00
 -1      1445-6.93398E+01-7.70663E+00-9.20081E+00 1.22457E+01-2.38974E+00-1.32799E+00
 -1      1446-6.42130E+01-7.84429E+00-7.32991E+00 8.59926E+00-1.33266E+00-1.03081E-01
 -1      1447-2.34057E+01-4.36471E+01-1.04501E+01 2.65429E+01-1.46459E+00-1.12249E+00
 -1      1448-2.90662E+01-4.86267E+01-1.09300E+01 2.79250E+01-2.17777E+00-9.60943E-01
 -1      1449-1.25192E+01-1.02256E+01-4.85095E+00-8.43184E-01 5.90774E-01 5.77242E-01
 -1      1450-7.88666E+01-1.49961E+01-1.59542E+01-1.40858E+01 2.50601E+00 1.04502E-02
 -1      1451-5.96796E+01-1.04063E+01-7.90310E+00-1.22402E+01 1.46736E+00-1.40360E+00
 -1      1452-6.70350E+00-3.75135E+01-9.68715E+00-7.30359E+00 1.91151E+00-1.33285E+00
 -1      1453-5.26029E+00-3.60492E+01-7.99386E+00-7.00054E+00 2.35060E+00-7.82173E-01
 -1      1454-1.23887E+01-2.01841E+01-9.00100E+00 1.30156E+01-1.68345E-01-2.30361E+00
 -1      1455-1.37256E+01-2.18707E+01-9.41574E+00 1.54024E+01-1.21905E+00-1.47724E+00
 -1      1456-1.27421E+01-2.30251E+01-7.39313E+00-1.51429E+01 3.43865E+00-1.61156E+00
 -1      1457-1.25326E+01-2.33153E+01-7.64431E+00-1.54935E+01 1.31090E+00-1.11518E+00
 -1      1458-5.89838E+00-5.30429E+01-1.07254E+01-9.91432E+00 3.32735E+00 3.16586E+00
 -1      1459-8.09654E+00-5.94545E+01-9.63856E+00-1.15734E+01 3.79571E+00 2.14947E+00
 -1      1460-2.51545E+01-1.40415E+01-1.00276E+01 1.51865E+01-1.26537E+00-2.35884E+00
 -1      1461-2.38070E+01-1.25037E+01-8.48298E+00 1.44781E+01-1.12199E+00-1.05568E+00
 -1      1462-1.13447E+01-7.62012E+01-6.66387E+00 1.39721E+01 3.59359E-01-3.73753E+00
 -1      1463-8.89822E+00-6.04447E+01-2.91704E+00 9.56372E+00-3.84784E-01-3.11748E-01
 -1      1464-9.79106E+00-6.98354E+01-9.89269E+00-1.04340E+01 1.80658E+00-1.27663E+00
 -1      1465-8.40430E+00-5.60069E+01-4.82393E+00-7.20636E+00 1.56003E+00-3.75308E-01
 -1      1466-8.37449E+00-5.75747E+01-1.23352E+01 1.12557E+01-5.69118E-01 2.87954E+00
 -1      1467-9.85055E+00-4.91648E+01-1.01844E+01 1.07507E+01 1.03621E+00 1.26632E+00
 -1      1468-2.90427E+01-5.03257E+01-1.20735E+01-2.82681E+01 1.57273E+00-5.93358E-02
 -1      1469-2.65198E+01-4.42959E+01-5.85325E+00-2.56004E+01 2.36649E+00 7.55115E-01
 -1      1470-2.50165E+01-5.19061E+01-9.32505E+00-2.84640E+01-2.66262E+00 6.25189E-01
 -1      1471-1.83857E+01-5.08740E+01-5.22662E+00-2.36671E+01-1.66843E+00-9.86461E-02
 -1      1472-5.98271E+00-5.46930E+01-2.58713E+00 1.83054E+00 9.89106E-01-2.46502E+00
 -1      1473-1.00797E+01-5.98938E+01-1.21943E+01-9.01701E+00 3.33178E+00-3.42866E+00
 -1      1474-6.95798E+00-5.13481E+01-8.24501E+00-7.63899E+00 2.94270E+00-3.66777E+00
 -1      1475-4.61913E+01-1.73113E+01-1.81809E+00-1.90386E+01-2.18000E+00 3.21667E+00
 -1      1476-3.40942E+01-3.65478E+01-3.42982E+00 2.83768E+01 9.30245E-01 4.98264E+00
 -1      1477-5.26665E+01-2.82892E+01-1.11030E+01-2.98877E+01-1.66685E+00-5.01746E+00
 -1      1478-4.20364E+01-2.42670E+01-5.05162E+00-2.45450E+01 6.44955E-01-2.07286E+00
 -1      1479-3.50774E+01-6.77957E+00-1.11515E+01-5.57138E+00 1.46092E+00-8.70352E-01
 -1      1480-3.12425E+01-4.56086E+00-8.68400E+00-5.83613E+00 1.70561E+00-8.06933E-01
 -1      1481-7.34867E+01-9.70946E+00-1.35338E+01-1.00171E+01-1.91590E+00-6.71596E-01
 -1      1482-7.02830E+01-6.36488E+00-8.15147E+00-4.45598E+00-1.81395E+00-2.14431E-01
 -1      1483-1.54519E+01-1.58104E+01-5.69220E+00 6.54126E-01-1.94696E+00-1.35929E+00
 -1      1484-1.42761E+01-7.55791E+00-7.54221E+00-7.37339E+00 3.56062E+00-1.05342E+00
 -1      1485-2.16213E+01-1.18261E+01-8.75293E+00-1.01914E+01 3.79536E+00-1.99886E+00
 -1      1486-6.58671E+01-3.55882E+00-3.31891E+00 2.22882E+00-2.89166E+00-2.83434E+00
 -1      1487 7.23349E-01-2.85271E+01 2.52194E+00-8.45128E-01 1.74671E+00 3.51264E+00
 -1      1488-4.55088E+00-2.78326E+01-9.64780E+00 6.32595E+00 1.19433E+00-2.81885E+00
 -1      1489-3.88658E+00-2.32200E+01-7.54046E+00 7.28128E+00 4.32444E-01-1.92325E+00
 -1      1490-6.41225E+01-7.95649E+00-5.14631E+00 5.67130E-01 5.09652E+00 7.85857E-01
 -1      1491-1.23017E+01-1.41194E+01-5.35986E+00-4.36089E-01 3.69993E-01-1.31828E+00
 -1      1492-5.16259E+01-1.42507E+01-2.06018E+00 1.79981E+01-4.33377E+00-8.94559E-01
 -1      1493-2.96878E+00-5.86900E+01-2.12845E-01-4.07516E+00-3.73225E+00 2.21183E+00
 -1      1494-2.33719E+01-1.21471E+01-8.13378E+00 1.20184E+01 4.24285E+00 1.17588E+00
 -1      1495-1.86920E+01-9.86104E+00-5.71042E+00 1.05199E+01 2.82577E+00-1.49926E-01
 -1      1496-3.06548E+01-3.57485E+01-2.38460E+00-2.47272E+01-3.88278E+00 3.13600E+00
 -1      1497-1.35663E+01-1.49841E+01-6.24940E+00-2.67569E-02 8.26741E-01-1.46543E+00
 -1      1498-4.51621E+01-6.06925E+00-1.08325E+01-9.18722E+00-1.54853E+00 1.00495E+00
 -1      1499-3.87824E+01-6.90314E+00-8.78735E+00-9.79273E+00-1.20223E+00 1.64506E+00
 -1      1500-5.26420E+01-3.17984E+01-1.30506E+01 2.84888E+01-3.31994E-01 1.49172E-01
 -1      1501-3.89426E+01-2.76099E+01-8.61856E+00 2.34647E+01-3.63371E-01 2.28510E-01
 -1      1502-3.56091E+01-3.87673E+01-5.44833E+00-2.54232E+01 2.12468E+00-3.36912E+00
 -1      1503-1.65018E+01-8.56831E+00-9.13941E+00-9.03893E+00-2.67259E+00 2.64942E+00
 -1      1504-1.64371E+01-8.87156E+00-8.38249E+00-8.42660E+00-2.61795E+00 3.30963E+00
 -1      1505-4.05716E+00-3.10187E+01-8.69794E+00-4.05716E+00 6.18223E-01 2.45905E+00
 -1      1506-4.96954E+00-3.33955E+01-9.17205E+00-5.60746E+00 2.01810E+00 2.93821E+00
 -1      1507-6.76036E+00-5.53027E+01-1.27238E+01 1.04068E+01-2.12300E+00-1.27601E+00
 -1      1508-7.31085E+00-5.73003E+01-1.08016E+01 1.04045E+01-9.09568E-01-6.30856E-01
 -1      1509-2.07062E+01 4.29693E-01 1.69909E+00 3.11629E+00 4.07588E+00 4.77227E+00
 -1      1510-7.41411E+00-4.19639E+01-1.00154E+01-8.94402E+00 8.91613E-02-2.83451E+00
 -1      1511-6.00941E+00-3.88507E+01-8.95030E+00-8.20006E+00 4.75858E-01-2.64036E+00
 -1      1512-1.33577E+01-1.49266E+01-5.78996E+00 7.82733E-01-6.90851E-01-2.20804E-01
 -1      1513-2.90715E+01-1.68354E+01-8.85322E+00-1.81927E+01 1.73668E+00-1.64992E-01
 -1      1514-2.66250E+01-1.55765E+01-7.98640E+00-1.68244E+01 1.63567E+00-9.18959E-01
 -1      1515-1.84229E+01-3.03967E+01-8.47191E+00-1.88044E+01 9.35733E-01-1.80307E+00
 -1      1516-1.66233E+01-2.91055E+01-7.66242E+00-1.79401E+01 4.68439E-01-2.28452E+00
 -1      1517-2.89806E+01-1.44106E+01-9.01920E+00 1.47754E+01 8.32403E-01 1.73873E+00
 -1      1518-2.12695E+01-1.06226E+01-6.91090E+00 1.06028E+01 1.78024E+00 1.03182E+00
 -1      1519-3.96501E+01-4.58371E+00-7.91676E+00 6.56739E+00-1.39817E+00-9.36478E-01
 -1      1520-3.20922E+01-4.14277E+00-6.59599E+00 6.34724E+00-1.77196E+00 6.10145E-01
 -1      1521-1.55918E+01-1.49647E+01-4.96441E+00-1.04875E+00 1.94076E-01-3.67457E-01
 -1      1522-6.67308E+01-1.12578E+01-1.22689E+01-1.21506E+01-1.73709E+00 1.26648E+00
 -1      1523-5.53804E+01-1.07622E+01-9.31699E+00-1.35968E+01-1.23617E+00-8.19189E-01
 -1      1524-1.02808E+01-1.22090E+01-4.07224E+00-1.30133E+00 5.20418E-01 7.88627E-02
 -1      1525-8.31735E+00-4.63671E+01-1.12120E+01 9.07255E+00-1.02157E+00 2.98788E+00
 -1      1526-6.63452E+00-4.11852E+01-9.21812E+00 8.89665E+00-6.97609E-01 3.17665E+00
 -1      1527 1.35975E+00-2.34721E+01 1.44700E-01-4.15265E+00-4.98845E+00 2.42857E+00
 -1      1528-4.18807E+01-7.33658E+00-8.48532E+00-7.94900E+00 1.67399E+00-1.26478E+00
 -1      1529-4.00878E+01-5.18596E+00-8.31653E+00-8.60617E+00 7.09543E-01-1.94283E+00
 -1      1530-9.64906E+00-2.15882E+01-1.07787E+01 1.17513E+01-8.65724E-01-2.15331E+00
 -1      1531-7.57867E+00-1.74989E+01-8.14079E+00 8.71806E+00-1.01765E+00-1.42257E+00
 -1      1532-7.10658E+01-1.00553E+01-4.54081E+00-1.80821E+01-5.22849E+00 4.41362E+00
 -1      1533-3.41998E+00-2.79476E+01-8.12376E+00-6.02648E+00-7.45713E-01-4.40181E+00
 -1      1534-3.30314E+00-2.52221E+01-8.46965E+00-5.11734E+00-5.06664E-01-2.57905E+00
 -1      1535-5.56621E+01-1.36960E+01-1.92389E+00-1.85673E+01 1.72289E+00-9.41189E-01
 -1      1536-9.13530E+00-5.62748E+01-1.10734E+01 1.03539E+01 1.53959E+00 3.00380E+00
 -1      1537-7.88925E+00-5.35179E+01-9.15537E+00 1.04966E+01 6.26762E-01 2.00278E+00
 -1      1538-6.42066E+00-4.08386E+01-9.13718E+00 6.86076E+00-2.36391E+00-2.02438E+00
 -1      1539-3.72134E+00-3.74963E+01-8.17240E+00 7.31077E+00-2.63044E+00-3.13285E+00
 -1      1540-1.62236E+01-3.05219E+01-8.57125E+00-1.84904E+01-7.25915E-01 2.17654E+00
 -1      1541-1.62473E+01-2.36051E+01-6.54827E+00-1.58149E+01 1.07349E+00 1.99966E+00
 -1      1542-1.56270E+01-1.52975E+01-6.54205E+00 9.50226E-01 1.07862E+00 3.29104E-01
 -1      1543-6.14577E+01-1.13061E+01-1.18343E+01-1.19988E+01 4.30660E+00 2.23499E+00
 -1      1544-4.83499E+01-7.95175E+00-7.09255E+00-1.05215E+01 3.58736E+00 3.11706E+00
 -1      1545-1.87897E+01-2.15673E+01-8.81725E+00 1.57019E+00 4.89654E+00 1.10538E+00
 -1      1546-3.33651E+01-2.01840E+01-1.28555E+01 1.81634E+01-1.81037E+00-3.96012E+00
 -1      1547-2.65265E+01-1.55454E+01-1.02768E+01 1.52356E+01-1.66537E+00-3.28629E+00
 -1      1548-1.62089E+01-1.71849E+01-5.68478E+00 1.21495E-01 8.28918E-01 1.89518E+00
 -1      1549-7.95976E+01-1.06461E+01-6.99196E+00 1.45368E+01-1.65585E+00 4.80104E-01
 -1      1550-7.31969E+01-9.27419E+00-4.74969E+00 1.09520E+01 1.09717E+00-1.33183E+00
 -1      1551-5.08540E+01-2.80133E+01-8.51802E+00-3.09602E+01 2.03075E+00-2.04332E+00
 -1      1552-4.80450E+01-2.48559E+01-4.65529E+00-2.62424E+01 1.12024E+00-5.51133E-01
 -1      1553-9.35789E+00-5.70145E+01-1.12638E+01 1.32907E+01 4.01512E-01 3.62280E+00
 -1      1554-1.04402E+01-4.92715E+01-6.86663E+00 1.57855E+01 4.13888E+00 4.25862E+00
 -1      1555-7.75201E+01-1.42917E+01-1.42663E+00 2.48284E+01-4.01293E+00-4.21782E+00
 -1      1556-1.88415E+01-3.43801E+01-1.30349E+01 1.93567E+01-3.20547E-01 2.80287E+00
 -1      1557-2.01252E+01-2.65845E+01-1.00305E+01 1.95184E+01-1.61957E-01 2.35065E+00
 -1      1558-2.59895E+01 4.02503E+00 1.88375E+00-7.55154E+00-4.53337E+00-1.89616E+00
 -1      1559-4.01282E+01-2.41595E+01-1.27227E+01 2.30882E+01 2.59306E+00 2.65727E+00
 -1      1560-3.06917E+01-1.97046E+01-9.70538E+00 1.83328E+01 3.92994E+00 3.32895E+00
 -1      1561-8.62870E+01-9.04644E+00-8.62561E+00-9.59049E+00 9.92799E+00-2.53316E-01
 -1      1562-4.47140E+01-2.61363E+01-9.34322E+00-2.60944E+01 9.00302E-02 1.01428E+00
 -1      1563-3.43819E+01-2.06617E+01-5.35346E+00-2.09902E+01 1.45482E+00 2.17647E+00
 -1      1564-7.21511E+00-1.41755E+01-1.01931E+01-8.74782E+00-2.28753E+00 1.95806E+00
 -1      1565-7.01307E+00-1.45541E+01-1.12977E+01-9.21814E+00-2.20420E+00 1.98038E+00
 -1      1566-6.27258E+01-2.08702E+01-2.01054E+00-2.89165E+01 1.94050E+00 1.46113E+00
 -1      1567-1.84245E+01-1.76495E+01-5.26401E+00-1.58296E+00 1.55095E+00-2.18900E+00
 -1      1568-1.35453E+01-1.23409E+01-5.14625E+00-6.07277E-01-1.01938E+00 1.34890E+00
 -1      1569-2.06887E+01-1.00076E+01-7.92151E+00 1.00654E+01-2.46832E+00-1.52473E+00
 -1      1570-1.70987E+01-8.43961E+00-8.56634E+00 1.01603E+01-3.24518E+00-2.54406E-01
 -1      1571-2.82190E+01-4.74999E+01-1.17244E+01-2.67327E+01-2.03169E+00 1.45369E+00
 -1      1572-2.13393E+01-3.62314E+01-5.92653E+00-2.08212E+01-1.35084E+00 9.42723E-01
 -1      1573-1.58605E+01-1.40095E+01-8.49418E+00-1.69833E+00-1.57532E-01 2.68827E+00
 -1      1574-1.67135E+01-2.91375E+01-7.88622E+00 1.73687E+01 9.98429E-04-2.52352E+00
 -1      1575-1.49565E+01-3.02264E+01-7.10038E+00 1.63640E+01 2.64605E-01-2.05718E+00
 -1      1576-1.49531E+01-1.70900E+01-8.56166E+00-1.56931E+00-7.37463E-01 1.57597E+00
 -1      1577-1.73301E+01-1.73028E+01-7.60279E+00-7.59678E-01-3.31416E+00 1.29426E-01
 -1      1578-4.11711E+01-4.89556E+00-1.17864E+01 7.30087E+00 1.84273E+00 2.05540E+00
 -1      1579-4.45483E+01-5.63761E+00-1.25544E+01 7.96779E+00 1.26157E+00 2.34607E+00
 -1      1580-1.59508E+01-1.85968E+01-7.80046E+00-5.31336E-01-1.94635E+00-1.78401E-01
 -1      1581-8.51578E+01-1.36564E+01-8.40309E+00-1.74714E+01 6.01864E-01-4.36491E+00
 -1      1582-6.98184E+01-9.40494E+00-3.96890E+00-1.30741E+01-2.29667E+00-3.47468E+00
 -1      1583-4.86776E+00-2.36518E+01-1.07688E+01 5.02852E+00 2.71588E+00-3.60161E+00
 -1      1584-3.25397E+00-1.92739E+01-9.10249E+00 6.26357E+00 1.41781E+00-3.23407E+00
 -1      1585-1.56857E+01-1.51063E+01-6.34823E+00-3.98565E-01-1.50254E+00-2.82953E-01
 -1      1586-1.94267E+01-3.79069E+01-9.84576E+00-2.13576E+01 3.24117E+00-4.61704E-01
 -1      1587-1.66847E+01-3.11670E+01-7.66525E+00-1.95166E+01 4.14097E+00-2.44387E+00
 -1      1588-5.00765E+01-2.77594E+01-9.63940E+00-2.68815E+01 3.42935E+00 2.52429E+00
 -1      1589-4.32564E+01-2.32981E+01-6.29442E+00-2.36028E+01 2.73276E+00 1.04145E+00
 -1      1590-8.63319E+01-1.24299E+01-9.89483E+00-1.63274E+01-3.60283E+00 3.00025E+00
 -1      1591-7.14011E+01-8.99838E+00-5.09824E+00-1.33899E+01 3.34456E-01 1.65236E+00
 -1      1592-2.62830E+01-2.89031E+00-1.01552E+01-3.57213E+00-4.07217E+00 4.35023E-02
 -1      1593-2.33185E+01-1.91042E+00-9.53372E+00-4.01527E+00-2.95000E+00 4.72665E-01
 -1      1594-2.55241E+01-6.49979E+00-9.51877E+00-3.94614E+00 3.51368E+00 1.05700E+00
 -1      1595-2.52561E+01-3.48841E+00-9.29496E+00-6.67842E+00 2.09253E+00 1.78590E-01
 -1      1596-1.93117E+01-4.10791E+01-1.09391E+01 2.34832E+01 5.47271E-01 8.54963E-01
 -1      1597-1.55947E+01-4.18868E+01-9.19345E+00 2.01472E+01 7.27929E-01-3.22436E-01
 -1      1598-2.61334E+01-1.70491E+01-9.00527E+00-1.52249E+01-2.00875E+00-2.65766E-01
 -1      1599-2.16671E+01-1.47143E+01-6.97924E+00-1.33708E+01-2.06036E+00-6.40002E-01
 -1      1600-1.57637E+01-4.43803E+01-8.67922E+00 2.24389E+01-7.96767E-01-1.15252E+00
 -1      1601-1.13902E+01-4.86415E+01-9.07370E+00 1.95043E+01-1.45149E+00-1.37788E+00
 -1      1602-3.44342E+01-3.08440E+01-4.72680E+00 2.61217E+01-2.10992E+00-2.57821E+00
 -1      1603-6.37280E+01-3.26367E+01-4.46082E+00-3.41813E+01-2.54513E+00-1.39179E-01
 -1      1604-5.16661E+01-2.81864E+01 4.30119E+00-3.17688E+01 1.15260E+00 2.16903E+00
 -1      1605-1.74300E+01-1.59544E+01-9.24383E+00 2.05370E+00-4.21093E+00 2.47875E+00
 -1      1606-4.95228E+01-3.00690E+01-1.28579E+01 2.84697E+01-2.00217E-01-3.85847E-01
 -1      1607-3.95938E+01-2.54250E+01-7.05666E+00 2.20707E+01-1.61955E+00 1.66568E+00
 -1      1608-1.60425E+01-1.88674E+01-7.59724E+00-4.27809E-01 3.40585E+00-1.80963E+00
 -1      1609-8.49480E+01-8.86109E+00-7.66488E+00 1.17294E+01-8.68366E-01 2.38840E+00
 -1      1610-7.95378E+01-9.44607E+00-5.22163E+00 9.39331E+00-1.13448E+00 2.45310E+00
 -1      1611-7.52521E+00-5.81460E+01-1.15755E+01 1.12083E+01-5.78207E-01-1.62936E+00
 -1      1612-6.89142E+00-5.63825E+01-1.20903E+01 1.00369E+01-2.28873E+00-6.66414E-01
 -1      1613-5.58642E+00-3.02919E+01-1.01360E+01 6.48462E+00 1.22345E+00 4.37369E+00
 -1      1614-2.05072E+00-2.25402E+01-8.43700E+00 4.51222E+00 7.75680E-01 4.48351E+00
 -1      1615-4.24399E+01-4.87416E+00-1.00475E+01 9.58196E+00 1.38816E+00-2.02103E-01
 -1      1616-4.44101E+01-5.58286E+00-1.09644E+01 8.98691E+00 1.26960E+00 1.53360E+00
 -1      1617-8.06117E+01-5.58657E+00-2.57124E+00 9.87419E+00 3.36642E+00-5.90312E-01
 -1      1618-1.79412E+01-2.06676E+01-1.11143E+01-9.20514E-01 3.23097E+00 3.38741E+00
 -1      1619-1.16615E+01-1.64287E+01-6.40446E+00-1.11602E+00-7.66429E-01-1.94258E+00
 -1      1620-1.41912E+01-1.56867E+01-5.75845E+00-2.77093E-01 1.44409E+00 1.61290E+00
 -1      1621-1.80832E+01-1.47461E+01-7.63901E+00-1.24583E+00-2.33482E+00 1.60404E+00
 -1      1622-8.41694E+00-6.04947E+01-1.23817E+01-1.03910E+01 1.31233E+00 2.11780E+00
 -1      1623-8.64216E+00-6.03514E+01-1.13699E+01-9.22252E+00 6.83183E-01 3.79785E+00
 -1      1624-1.01709E+01-6.09839E+01-1.08831E+01 1.00541E+01-7.18786E-01-2.55498E+00
 -1      1625-7.71551E+00-4.83273E+01-4.85924E+00 6.64139E+00-2.32319E+00-2.85391E+00
 -1      1626-1.72456E+01-5.84065E+01-5.93468E+00 2.21473E+01 3.17983E+00 5.88461E+00
 -1      1627-1.75863E+01-1.80501E+01-7.59769E+00-1.59980E+00 7.40091E-01-4.13070E+00
 -1      1628-2.90442E+00-2.59387E+01 2.32400E-01 7.43125E+00-1.22293E+00 3.21258E+00
 -1      1629-1.06820E+01-2.17704E+01-1.54064E+01 1.87618E+00 2.52989E+00 7.79312E+00
 -1      1630-3.66882E+00-1.78651E+01-6.65197E+00 3.80875E+00 1.37051E+00 3.63375E+00
 -1      1631-1.70163E+01-5.51281E+01-4.92033E+00-1.77106E+01 2.97633E+00-2.35873E+00
 -1      1632-1.91643E+01-3.18033E+01-1.00925E+01-2.03022E+01 2.89330E-03-1.17581E+00
 -1      1633-2.05547E+01-3.27352E+01-1.04372E+01-2.07863E+01 5.57571E-01-1.66555E+00
 -1      1634-1.87637E+01-7.11772E+00-9.57664E+00-1.28245E+00-3.31701E+00 1.19276E+00
 -1      1635-2.19107E+01-8.79194E+00-1.44125E+01-1.66163E+00-5.21499E+00 1.58776E+00
 -1      1636-1.57386E+01-3.42889E+01-1.15009E+01 1.73578E+01-1.17386E+00 3.70619E+00
 -1      1637-1.59974E+01-3.10768E+01-1.05020E+01 1.68964E+01-2.20522E-01 1.80341E+00
 -1      1638-4.32514E+01-2.36594E+01-8.50419E+00-2.36802E+01-2.33483E-02 7.57527E-02
 -1      1639-4.31503E+01-2.62385E+01-8.77207E+00-2.67555E+01-4.69682E-01 2.21732E+00
 -1      1640-9.85832E+00-8.07346E+01-8.07214E+00-1.69758E+01 2.68121E-01 2.94554E+00
 -1      1641-1.09189E+01-7.60768E+01-4.88921E+00-1.45389E+01-4.11577E-01 2.81622E-01
 -1      1642-1.54063E+01-2.60747E+01-8.98622E+00 1.50672E+01-1.94749E+00-1.15538E+00
 -1      1643-1.51977E+01-2.59911E+01-8.78221E+00 1.62436E+01-1.38576E+00-2.52001E+00
 -1      1644-6.46831E+01-4.83196E+01-6.94681E+00 3.84207E+01 4.71586E+00 5.75693E+00
 -1      1645-6.70116E+00-5.10956E+01-8.80659E+00-8.59069E+00-5.84059E-01 1.79923E+00
 -1      1646-5.52197E+00-5.31721E+01-9.92802E+00-8.98262E+00 6.40766E-02 1.59350E+00
 -1      1647-2.19690E+01 1.66801E+00 2.00155E+00 3.06843E+00-3.90105E+00 2.33652E+00
 -1      1648-1.54536E+01-2.58339E+01-7.78979E+00-1.66697E+01 2.67960E+00-7.59540E-01
 -1      1649-1.68176E+01-2.80581E+01-7.76229E+00-1.80223E+01 2.15047E+00-1.04341E+00
 -1      1650-6.65813E+01-3.17159E+01-6.56960E+00-3.58781E+01-4.84287E+00 2.79839E+00
 -1      1651-1.77509E+01-1.82506E+01-8.17360E+00-6.79234E-01 2.46850E+00-1.03016E+00
 -1      1652-1.56667E+01-1.22461E+01-5.04255E+00-1.51074E+00 1.25152E+00 1.16837E+00
 -1      1653-3.88252E+01-6.61817E+00-8.76056E+00-4.15214E+00 1.16594E+00 5.86018E-01
 -1      1654-4.50830E+01-9.83519E+00-1.19146E+01-4.03478E+00 9.06852E-01 4.93210E-01
 -1      1655-5.54409E+01-2.87072E+01-1.38045E+01 2.84617E+01 1.00097E-01-3.70475E+00
 -1      1656-4.39940E+01-2.41644E+01-9.50149E+00 2.34569E+01 5.08642E-01-1.47645E+00
 -1      1657-6.18791E+01-2.75619E+01-8.77399E+00 3.41260E+01-2.25559E+00-2.70303E+00
 -1      1658-6.02164E+01-2.76200E+01-8.69234E+00 3.23802E+01 5.75171E-01-1.27061E+00
 -1      1659-3.66270E+01-5.94207E+00-1.15200E+01 8.24432E+00-1.78870E+00-1.02053E+00
 -1      1660-3.09489E+01-5.38837E+00-8.84435E+00 6.36736E+00-1.30176E+00-1.82780E+00
 -1      1661-1.84922E+01-1.57105E+01-6.14463E+00-1.24548E+00-2.31667E+00-9.46375E-01
 -1      1662-4.68016E+01-3.87608E+01-4.04999E+00-3.49388E+01-6.84177E+00 3.69999E+00
 -1      1663-8.15124E+01-4.75118E+00-3.90185E+00 8.01978E+00-2.59862E+00 2.16361E-01
 -1      1664-7.66729E+01-1.68157E+01-3.82760E+00 2.10615E+01 6.20983E+00 5.05206E+00
 -1      1665-6.00372E+01-9.05625E+00-1.30713E+01 1.12188E+01 1.03592E+00-8.61142E-02
 -1      1666-5.71865E+01-6.39360E+00-1.16087E+01 1.05042E+01 1.66961E+00-3.40349E+00
 -1      1667-2.97687E+01-5.84599E+00-1.24716E+01 3.31738E+00-4.37765E+00 1.31226E-01
 -1      1668-2.55207E+01-1.66339E+00-1.14838E+01 8.97893E-01-3.44120E+00 1.08928E+00
 -1      1669-1.63885E+01-9.04945E+00-1.15402E+01 9.04584E+00 3.31558E+00 1.28016E+00
 -1      1670-1.48590E+01-8.15871E+00-1.16021E+01 9.44158E+00 2.78501E+00 9.50493E-01
 -1      1671-4.84807E+00-2.76574E+01-1.09983E+01-4.85577E+00-9.41953E-01 3.81436E+00
 -1      1672-2.75098E+00-2.50857E+01-1.03693E+01-3.84455E+00-1.16914E-01 2.44350E+00
 -1      1673-8.40901E+01-8.83359E+00-6.07609E+00 1.25525E+01 9.76763E-01 1.76014E+00
 -1      1674-8.84242E+01-8.35543E+00-6.46134E+00 7.93525E+00-1.46404E+00 3.29168E+00
 -1      1675-7.36784E+01-9.37300E+00-5.56343E+00-2.29731E+01 5.70672E+00-2.96185E+00
 -1      1676-8.03166E+00-6.46910E+01-9.07606E+00 1.29047E+01-3.02276E-01-4.01149E+00
 -1      1677-8.53967E+00-6.07170E+01-5.32619E+00 1.08250E+01-6.10100E-01-3.86640E+00
 -1      1678-8.99292E+01-6.06360E+00-7.42562E+00-9.40993E+00-8.01043E+00-3.19375E+00
 -1      1679-9.02423E+01-1.95573E+01-1.45242E+01-1.66714E+01 1.71288E+00 1.09710E+00
 -1      1680-6.76923E+01-1.41285E+01-4.67969E+00-1.32089E+01-2.45668E-01-3.88568E-01
 -1      1681-8.36989E+00-4.08149E+01-1.25282E+01 7.36883E+00-9.06711E-01 1.58674E+00
 -1      1682-7.27519E+00-4.16534E+01-1.10151E+01 7.42058E+00-2.33443E+00 3.04677E+00
 -1      1683-6.47266E+01-8.21205E+00-1.23674E+01 1.24668E+01-1.14432E+00-3.96439E-01
 -1      1684-5.67151E+01-8.98856E+00-7.99907E+00 1.21175E+01-7.64123E-01 1.41539E+00
 -1      1685-8.49163E+01-8.31211E+00-1.03661E+01 1.22830E+01 2.04166E+00 4.82090E+00
 -1      1686-7.63002E+01-9.98943E+00-5.81812E+00 7.68705E+00 1.60406E+00 4.16618E+00
 -1      1687-6.38131E+01-2.82612E+01-7.31392E+00 3.20224E+01 3.53923E+00-1.28820E+00
 -1      1688-4.97639E+01-2.81075E+01-1.70120E+00 3.00923E+01 1.52270E+00-1.88797E+00
 -1      1689-3.23209E+01-1.65898E+01-8.98660E+00-1.95611E+01 1.81727E+00 3.12574E-01
 -1      1690-2.83542E+01-1.92556E+01-8.15191E+00-1.89495E+01 1.44158E+00 3.63114E-02
 -1      1691-1.11463E+01-5.35790E+01-1.83540E+00 1.89192E+01 1.64530E+00-2.38591E+00
 -1      1692-5.54373E+00-4.73152E+00 3.70984E+00 6.40031E+00-1.17221E+00-3.62666E+00
 -1      1693-1.80364E+01-1.91938E+01-8.52876E+00-1.88699E+00-1.72312E+00-3.35616E+00
 -1      1694-5.57396E+00-4.42888E+01-1.03338E+01-5.59377E+00-2.03084E+00 2.48073E+00
 -1      1695-4.49294E+00-3.73927E+01-7.62583E+00-4.12965E+00-3.40700E-01 1.30396E+00
 -1      1696-6.56882E+00-1.20429E+01-1.10276E+01-7.77765E+00-2.02088E+00 3.13246E+00
 -1      1697-1.53527E+01-1.87610E+01-1.77659E+01-6.41439E+00-3.42616E+00 6.24822E+00
 -1      1698-5.79288E+01-8.62504E+00-1.20143E+01 1.05095E+01 1.93653E+00 1.29956E+00
 -1      1699-5.47253E+01-8.25147E+00-1.18518E+01 7.94182E+00 9.66446E-01-4.71257E-01
 -1      1700-4.26228E+00-2.22101E+01 3.12438E+00 1.36053E+01-3.87957E+00-2.76610E+00
 -1      1701-1.26947E+01-1.73282E+01-7.15891E+00 4.93653E-01-1.92568E+00-1.73957E-01
 -1      1702-8.53754E+00-6.56348E+01-6.86891E+00-1.18327E+01 1.10151E+00-9.18936E-01
 -1      1703-5.82564E+00-6.09777E+01-5.73538E+00-8.12584E+00 6.40444E-01 4.40526E-01
 -1      1704-2.54960E+01-1.50723E+01-1.00085E+01-1.61257E+01 2.68421E+00 1.49547E+00
 -1      1705-2.30412E+01-1.60922E+01-8.84002E+00-1.56265E+01 1.65132E+00 7.22272E-01
 -1      1706-1.10809E+01-7.19901E+01-4.91320E+00-2.10627E+01-2.90974E+00 6.09632E+00
 -1      1707-7.56398E+00-5.01617E+01-1.09524E+01-8.16180E+00-2.20301E-01 1.65801E+00
 -1      1708-6.28870E+00-4.51025E+01-7.59868E+00-5.21038E+00-5.74340E-01 1.32285E+00
 -1      1709 4.58420E+00-7.76401E+01-2.21333E+00-1.07907E+01 2.74908E+00 2.22634E+00
 -1      1710-7.57847E+00 1.02242E+00 3.51676E+00-6.03522E+00-5.85856E+00-2.30125E-01
 -1      1711-1.90844E+01-1.53052E+01-7.50252E+00 5.08017E-01 3.57917E-01-2.74026E+00
 -1      1712-5.74727E+01-3.20501E+01-4.90938E-01-3.47770E+01-1.15439E+00 1.21884E+00
 -1      1713-5.08972E+01-2.90128E+01 2.45169E+00-3.28776E+01 1.98823E+00-7.26644E-01
 -1      1714-4.36736E+01-2.27634E+01-9.07475E+00-2.27296E+01-5.06890E-01 7.11435E-01
 -1      1715-3.61090E+01-1.75581E+01-4.43341E+00-1.72287E+01 3.54489E-01 9.69844E-01
 -1      1716-7.64986E+01-1.17313E+01-4.14326E+00 1.84900E+01 2.18549E+00 6.47693E+00
 -1      1717-2.24898E+01-6.59670E+01-6.10437E+00-3.17909E+01 6.18768E-01 5.71213E+00
 -1      1718-1.77284E+01-1.52765E+01-5.91525E+00 2.28336E+00 2.92179E+00-2.25454E+00
 -1      1719-6.34046E+00-3.58477E+01-9.35438E+00-7.25531E+00 1.85751E-01-3.21796E+00
 -1      1720-4.71039E+00-3.28633E+01-7.31382E+00-6.08651E+00 7.91907E-01-2.07920E+00
 -1      1721-1.61927E+01-1.39531E+01-9.28209E+00-1.45367E+00 1.25270E+00-1.22611E+00
 -1      1722-6.70142E+01-1.19557E+01-1.37235E+01-1.03590E+01-2.74783E+00-1.56775E+00
 -1      1723-5.31815E+01-1.08503E+01-8.43021E+00-8.84723E+00-1.17729E+00-1.91805E+00
 -1      1724-1.74292E+01-1.81276E+01-7.41122E+00 1.55123E+00-3.32865E+00 1.67733E+00
 -1      1725-8.31551E+01-1.22421E+01-1.05343E+01-1.59472E+01-1.72577E+00-4.43232E-01
 -1      1726-7.21135E+01-1.13452E+01-4.83934E+00-1.26773E+01-1.34639E+00 1.14814E+00
 -1      1727-6.16254E+01-2.33224E+01-4.76250E+00-3.06650E+01-3.59390E+00-7.36642E-01
 -1      1728-2.83337E+01-5.71920E+01-2.76628E+00-3.15237E+01 5.39036E-01 3.80527E-01
 -1      1729-2.36791E+01-4.86078E+01-2.11912E+00-2.50924E+01-1.38364E+00 3.95127E-01
 -1      1730-4.40687E+00-3.12180E+01-1.05400E+01-5.17736E+00-2.35544E-01 2.43939E+00
 -1      1731-2.92295E+00-2.84294E+01-8.83691E+00-4.22855E+00 1.75771E-01 1.76330E+00
 -1      1732-1.43168E+01-8.13051E+00 9.70774E-01-1.22278E+01 6.21511E+00-3.04463E-01
 -1      1733-7.75361E+00-6.47656E+01-7.51710E+00 1.58627E+01-7.93328E-01-1.09805E+00
 -1      1734-1.18516E+01-6.78327E+01-5.16545E+00 1.71923E+01 2.18457E-03 6.14812E-02
 -1      1735-7.40454E+00-9.46222E+00-3.34923E+00 3.27360E+00-9.27383E-01 7.91226E-01
 -1      1736-6.40858E+00-8.70677E+00-3.24844E+00 3.12896E+00 4.63446E-01-2.09312E-01
 -1      1737-1.23098E+01-7.08308E+01-1.24081E+01-1.07338E+01 6.55446E-01-3.76281E+00
 -1      1738-9.28114E+00-4.97015E+01-4.49906E+00-6.88199E+00-3.05760E-02-4.59152E+00
 -1      1739-1.60599E+01-3.33100E+01-8.76175E+00-1.83932E+01-5.14585E-01 2.45645E+00
 -1      1740-1.41585E+01-2.51356E+01-5.20650E+00-1.30483E+01 2.55574E-01 2.10059E+00
 -1      1741-1.68111E+01-1.99174E+01-1.23701E+01-2.28254E-01 3.92018E+00 4.60213E+00
 -1      1742-1.34180E+01-8.34497E+01-8.46142E+00-1.48524E+01-5.14531E-01 3.46818E+00
 -1      1743-1.09176E+01-6.97870E+01-3.19315E+00-9.81427E+00 1.53389E+00 2.45578E+00
 -1      1744-9.11690E+00-2.04749E+01-3.23302E-02-1.23805E+01-5.24779E+00 1.79787E+00
 -1      1745-3.39090E+01-5.09469E+01-1.28037E+00-3.97678E+01 1.01457E+00-2.46188E+00
 -1      1746-5.96829E+01-1.83706E+01-6.37983E+00 2.93057E+01 5.34736E+00 3.24846E+00
 -1      1747-2.40991E+01 3.42665E+00 2.10851E+00-3.54977E+00-4.40345E+00 3.66250E+00
 -1      1748-2.39008E+01-4.67358E+01-1.12990E+01 2.51696E+01 1.45129E+00 1.07454E+00
 -1      1749-1.88137E+01-3.79854E+01-8.22524E+00 2.09635E+01 6.46964E-01 1.83685E-01
 -1      1750-1.08343E-01-7.73403E+01-1.52623E+00 1.04648E+01 2.97928E+00-1.65371E+00
 -1      1751-2.06819E+01-1.86228E+01-1.14243E+01-1.69086E+00-1.62668E-01 4.32082E+00
 -1      1752-8.97840E+00-1.55649E+01-8.54571E+00-8.41115E+00 2.34049E-01-1.74994E+00
 -1      1753-7.87840E+00-1.66062E+01-9.82565E+00-1.08699E+01 1.31639E+00-1.36318E+00
 -1      1754-3.96092E+00-6.64790E+01-3.90410E+00 1.96850E+01-3.36197E-01-1.68200E+00
 -1      1755-1.68603E+01-1.87065E+01-8.67180E+00 1.76274E+00 3.00464E-01 3.51652E+00
 -1      1756-3.29056E+01-5.53783E+00-1.02144E+01 4.72102E+00 5.33892E+00 1.11846E+00
 -1      1757-2.79594E+01-3.58781E+00-9.04156E+00 4.12533E+00 3.67875E+00 6.73173E-01
 -1      1758-7.27319E+01-7.31511E+00-4.75343E+00 1.29963E+01-2.41875E+00 6.25818E-01
 -1      1759-8.14717E+01-1.15067E+01-6.45687E+00 1.35107E+01 7.54421E-01 1.01528E-01
 -1      1760 1.85323E+00-2.59771E+01 4.18393E-01-6.32590E+00 2.07746E+00 6.52924E+00
 -1      1761-1.33755E+01-2.63418E+00 3.01645E+00-1.14178E+01-1.96523E+00 3.76865E+00
 -1      1762-2.75302E+01-5.37551E+01-4.25437E+00 3.32956E+01 2.37355E+00-6.18490E-01
 -1      1763-2.91667E+01-5.09994E+01-4.01825E+00 3.23447E+01 2.88605E-01-2.59440E-01
 -1      1764-1.87648E+01-1.14923E+01-8.83176E+00-1.12633E+01-5.28404E+00 1.23209E+00
 -1      1765-1.33843E+01-1.02728E+01-5.98413E+00-1.03281E+01-3.65195E+00 2.44245E+00
 -1      1766-2.93210E+01-1.25170E+01-1.17256E+01 1.26909E+01 3.02896E+00 8.61559E-01
 -1      1767-2.11877E+01-7.59664E+00-7.39101E+00 8.38609E+00 2.46932E+00 5.86884E-02
 -1      1768-4.70869E+00-3.56833E+01-7.93744E+00-5.35229E+00-2.59333E+00 3.19132E+00
 -1      1769-4.08410E+00-3.04574E+01-6.90690E+00-3.25530E+00-4.21530E-01 2.84225E+00
 -1      1770-2.55277E+01-6.95952E+01-3.53964E+00 3.14879E+01 1.02657E-01 7.84036E+00
 -1      1771-1.79903E+01-1.69594E+01-8.86502E+00-8.70633E-01-4.30470E+00 8.16656E-01
 -1      1772-8.06453E+00-3.92470E+00 6.03438E+00 6.87725E+00 5.00527E+00 4.13064E-01
 -1      1773-1.25589E+01-2.46344E+01-1.03428E+01-1.13541E+01-3.12034E+00 2.83918E+00
 -1      1774-7.25999E+00-1.91169E+01-7.14601E+00-9.20188E+00-2.47425E+00 3.00710E+00
 -1      1775-2.08774E+00-7.13913E+01-2.35822E+00-7.22588E+00-1.12801E+00-1.98068E+00
 -1      1776-4.60057E+00-1.32881E+01 5.27585E+00-1.22616E+01 4.13055E+00-1.29254E+00
 -1      1777-2.68624E+01-5.19372E+01-8.85350E+00-2.90264E+01-4.25594E+00-1.13070E+00
 -1      1778-2.14018E+01-4.39876E+01-4.76683E+00-2.22898E+01-2.19590E+00-1.13021E+00
 -1      1779-1.80596E+01-1.51932E+01-8.13713E+00 1.72830E-01 3.91749E+00 1.36927E+00
 -1      1780-2.37083E+01 1.21234E+00 1.25660E+00 3.95322E+00 5.90821E+00-2.93732E+00
 -1      1781-5.18588E+01-2.89698E+01-1.40041E+01 2.72929E+01 3.06798E+00 1.56750E+00
 -1      1782-3.46901E+01-1.92536E+01-6.47710E+00 1.74186E+01 3.28720E+00 3.59690E+00
 -1      1783-3.83894E+01-3.90066E+00-9.47613E+00 6.97131E+00 1.56549E+00 1.20727E+00
 -1      1784-3.89768E+01-4.75909E+00-1.00835E+01 5.94666E+00 3.51945E-01 1.25047E+00
 -1      1785-3.47886E+00-2.88787E+01-1.04585E+01 4.78010E+00 6.93562E-01-2.13204E+00
 -1      1786-4.07012E+00-3.00748E+01-1.07005E+01 6.70728E+00 1.29433E+00-2.44125E+00
 -1      1787-2.14283E+01 1.07144E-01 2.07122E-01-5.63788E+00 4.36707E+00 2.88666E+00
 -1      1788-9.59484E+00-5.45322E+01-1.16239E+01 7.66799E+00-1.92659E+00 2.30286E+00
 -1      1789-6.31814E+00-4.30491E+01-6.52311E+00 4.31561E+00 5.48354E-02 2.02825E+00
 -1      1790-1.80043E+01-1.74194E+01-5.54362E+00 1.46562E+00-3.47344E+00-6.29594E-01
 -1      1791-5.20442E+00-3.53268E+01-9.85807E+00 5.55066E+00 2.13853E+00 3.39710E+00
 -1      1792-4.29120E+00-3.01640E+01-7.54647E+00 4.41396E+00 4.64901E-01 2.89978E+00
 -1      1793-5.98190E+00-5.43575E+00-3.04807E+00-1.77861E+00-1.08197E+00-1.88108E-01
 -1      1794-6.39144E+00-8.80856E+00-3.58844E+00-2.93060E+00 1.04334E+00 6.31498E-03
 -1      1795-1.09197E+01-1.59384E+01-1.05212E+01 1.11241E+01 9.36936E-01 4.96728E+00
 -1      1796-9.78442E+00-1.24028E+01-1.08951E+01 1.05303E+01 1.29509E+00 4.34677E+00
 -1      1797-1.74893E+01-1.93817E+01-8.95519E+00 1.31255E+00 2.35127E+00-5.07088E+00
 -1      1798-4.76297E+01-2.97898E+01-1.14003E+01-2.82669E+01 1.71334E+00-2.49480E+00
 -1      1799-4.68168E+01-2.78664E+01-8.54330E+00-2.71920E+01 1.44012E+00-1.72083E+00
 -1      1800-3.79518E+00-3.54765E+01 1.49460E+00-3.91528E+00 5.24738E-01-2.17766E+00
 -1      1801-3.96770E+01-2.47353E+01-1.28467E+01 2.23496E+01-3.25323E+00-1.17655E+00
 -1      1802-3.25223E+01-1.67201E+01-9.24732E+00 1.72666E+01-2.64793E+00-3.42385E+00
 -1      1803-3.40685E+00-6.07073E+00-2.96883E+00-3.56977E-01-7.45067E-01 5.38762E-01
 -1      1804-3.56572E+00-5.74876E+00-2.70483E+00-1.36155E+00-5.48576E-01 9.68457E-01
 -1      1805-2.17162E+01-2.30644E+01-1.42934E+01 3.98819E-01 2.18563E+00 7.48174E+00
 -1      1806-1.47652E+01-2.01972E+01-8.11802E+00-2.22240E-01-1.48595E+00 2.18477E+00
 -1      1807-1.98231E+01-4.08453E+01-1.30127E+01 2.17967E+01 1.02765E+00 1.59053E+00
 -1      1808-1.70471E+01-3.37330E+01-1.06353E+01 1.90017E+01 1.09438E+00 1.62103E+00
 -1      1809-3.43362E+01-4.79974E+01-2.59661E+00 3.61755E+01 1.32008E+00 2.01154E+00
 -1      1810-1.90045E+01-3.39794E+01-8.88780E+00 1.99900E+01 9.72301E-01-2.29120E+00
 -1      1811-1.90613E+01-3.06887E+01-7.38715E+00 1.95878E+01-5.03829E-01-1.36748E+00
 -1      1812-2.29796E+01-4.52612E+01-1.28141E+01 2.58415E+01 1.91016E+00 6.04906E-01
 -1      1813-2.17423E+01-4.33341E+01-1.25428E+01 2.68135E+01-2.89451E-01 1.91476E+00
 -1      1814-8.35983E+00-2.02555E+01 2.63008E+00 1.51426E+01-1.41490E+00-3.85599E+00
 -1      1815-2.14786E+01-2.23843E+01-1.14653E+01 1.51025E+00 8.33424E+00 2.95080E+00
 -1      1816-4.00464E+01-6.14499E+00-1.10532E+01-7.28170E+00-2.27932E+00-2.18617E+00
 -1      1817-3.39130E+01-6.83855E+00-9.31860E+00-6.90356E+00-1.42877E+00-9.13841E-01
 -1      1818-1.36376E+01-9.35448E+00-8.34833E+00-5.30434E+00-2.18493E+00 1.92885E+00
 -1      1819-1.69786E+01-1.17107E+01-1.32047E+01-5.43682E+00-4.01961E+00 2.97607E+00
 -1      1820-5.30650E+01-2.63035E+01-1.17734E+00 3.41518E+01-6.81489E-01-6.06194E+00
 -1      1821-5.07423E+00-1.25151E+01 5.69723E+00-5.16275E+00-6.30732E-01 5.51610E+00
 -1      1822-3.77216E+01-2.12342E+01-1.04886E+01-2.25691E+01 1.02098E+00-9.06844E-01
 -1      1823-3.77161E+01-1.94585E+01-7.64079E+00-2.02544E+01 1.48014E+00-1.56628E+00
 -1      1824-3.23631E+01-5.79150E+01-4.93035E+00 3.48136E+01-4.52321E+00-1.59164E+00
 -1      1825-2.78788E+01-4.79795E+01-1.38037E+00 2.65067E+01-1.87450E+00 1.62608E+00
 -1      1826-1.52791E+01-2.02415E+01-8.54877E+00 1.53033E+00-1.76669E+00 3.72453E+00
 -1      1827-2.03677E+01-1.21412E+01 4.26912E+00 1.46599E+01-3.88526E+00-1.53467E+00
 -1      1828-1.95131E+01-4.35158E+01-8.74103E+00 2.69226E+01-4.54039E-01-3.20515E+00
 -1      1829-2.12367E+01-4.65119E+01-9.68659E+00 2.46677E+01 4.65406E-01-3.36417E+00
 -1      1830-6.80818E+01-9.48933E+00-1.47533E+01-1.11357E+01-1.74312E+00 2.74023E+00
 -1      1831-6.18859E+01-9.02219E+00-1.18964E+01-7.58253E+00-7.86130E-01 2.32655E+00
 -1      1832-1.98106E+01-1.21467E+01-9.14965E+00 1.08911E+01 3.32816E+00 1.89200E+00
 -1      1833-1.61164E+01-8.94575E+00-7.27183E+00 1.01671E+01 2.76450E+00 2.41204E+00
 -1      1834-1.61478E+01-2.05365E+01 1.90909E+00-1.19671E+01 1.83495E+00-3.41627E+00
 -1      1835-2.70223E+01-4.65978E+01-2.52421E+00 3.47990E+01-4.84878E+00-1.03558E+00
 -1      1836-6.60938E-01-3.08418E+01 7.48039E-01 4.09774E+00-4.37412E+00 4.26349E+00
 -1      1837-7.60046E+00-6.73559E+01-7.58044E+00 1.36848E+01-6.37328E-01-2.56341E+00
 -1      1838-1.10892E+01-6.25097E+01-6.83639E+00 1.19314E+01 8.59145E-01-1.63229E-01
 -1      1839-1.06941E+02-6.71123E+00-1.17644E+01 5.32522E+00 4.19374E+00 3.79961E+00
 -1      1840-3.49053E+01-1.77011E+01-9.65119E+00 1.93465E+01 2.08865E+00 3.49472E-01
 -1      1841-2.75834E+01-1.43554E+01-6.63288E+00 1.39078E+01 1.94896E+00 2.80309E-01
 -1      1842-2.12334E+01-3.67375E+01-9.87108E+00 2.28187E+01-2.14532E+00 9.34115E-01
 -1      1843-1.79010E+01-4.11489E+01-9.72684E+00 2.06257E+01-2.59148E+00 1.79095E-01
 -1      1844-2.62932E+01-1.72865E+00 3.43314E+00 1.26396E+01-4.79112E+00-2.95023E+00
 -1      1845-2.04693E+01-2.50210E+01-1.17854E+01-2.67073E-01 4.25984E+00 3.22880E+00
 -1      1846-2.08077E+01-1.92862E+01-1.06675E+01 1.33864E+00-4.21985E+00 3.12514E+00
 -1      1847-1.70886E+01-7.86467E+00-8.49636E+00 5.83834E+00-4.32229E+00-5.23860E-01
 -1      1848-2.00204E+01-1.29940E+01-1.41979E+01 5.91918E+00-6.28711E+00-2.58913E+00
 -1      1849-2.05462E+01-3.10557E+01-8.40202E+00-1.94589E+01 4.35730E-01-2.72799E+00
 -1      1850-1.69200E+01-2.69857E+01-6.50114E+00-1.66535E+01-3.64862E-01-2.38892E+00
 -1      1851-1.70710E+01-1.65634E+01-7.50658E+00-1.06062E+00 8.91512E-01 2.17642E+00
 -1      1852-1.22409E+01-5.65036E+01-7.33854E+00-1.17003E+01 8.62589E-01 3.32293E+00
 -1      1853-1.19730E+01-7.85525E+01-1.40459E+01-1.56445E+01 1.07243E+00 2.77333E+00
 -1      1854-2.44517E+01-5.19367E+01-8.71156E+00-2.57209E+01 4.35584E+00-5.16808E-01
 -1      1855-1.88668E+01-3.98034E+01-3.16693E+00-1.92159E+01 3.79855E+00-1.93330E+00
 -1      1856-9.93611E+00-1.62700E+01-9.34396E+00 8.78492E-03 1.38576E+00-4.07707E+00
 -1      1857-3.85126E+00-1.74296E+01-1.25605E+01 4.19840E+00 3.35686E+00-4.07124E+00
 -1      1858-1.88959E+01-1.65405E+01-8.49795E+00 3.51873E-01 3.65542E+00 1.88179E+00
 -1      1859-1.89274E+01-2.05293E+01-7.50732E+00 1.67897E+00-4.05273E+00 4.16392E-01
 -1      1860-1.31624E+01 8.27288E-01 6.97465E+00-2.20525E+01-1.12626E+01 2.30830E+00
 -1      1861-3.53608E+01-1.78913E+01-1.10768E+01 2.16688E+01 1.73061E+00-4.16672E-01
 -1      1862-3.47407E+01-2.13868E+01-1.09024E+01 2.11789E+01 2.38156E+00 7.50702E-02
 -1      1863-1.72899E+01-3.08693E+01-1.14430E+01-1.89199E+01-1.80278E+00 3.74807E-01
 -1      1864-1.74685E+01-2.67014E+01-8.81161E+00-1.60408E+01-4.47370E-01 1.11198E+00
 -1      1865-1.84100E+01-1.75206E+01-7.04540E+00-3.62092E-01 1.44376E+00 3.83088E+00
 -1      1866-6.59388E+00-5.03485E+01-1.42837E+00-2.38241E+01 2.38310E+00 3.24261E+00
 -1      1867-4.95749E+01-8.86771E+00-1.12740E+01 9.36058E+00-1.53526E+00-4.66558E-01
 -1      1868-4.25716E+01-6.07320E+00-8.75654E+00 7.43914E+00-1.53522E+00 6.26473E-01
 -1      1869-6.18787E+00-2.87197E+01 1.33262E+00 1.33398E+01-2.79507E+00-2.53389E+00
 -1      1870-7.71812E+01-1.60943E+01-1.54815E+01-1.09093E+01 4.78424E+00-1.05196E+00
 -1      1871-5.83134E+01-1.13396E+01-8.01815E+00-7.29471E+00 4.26171E+00-8.49055E-01
 -1      1872-8.40921E+01-1.69776E+01-9.16376E+00-2.58385E+01 2.00234E+00-1.91162E+00
 -1      1873-1.93120E+01-2.05625E+01 2.69762E+00-1.32992E+01 3.56575E+00-2.09572E+00
 -1      1874-1.19505E+01-2.13378E+01-9.07117E+00 1.31675E+01 1.30801E+00-4.49598E+00
 -1      1875-1.39639E+01-2.27632E+01-1.01308E+01 1.57261E+01 1.14167E+00-3.58583E+00
 -1      1876-1.80354E+01-1.85952E+01-1.14091E+01-1.21051E+00-4.23529E+00 2.39229E+00
 -1      1877-7.14635E+00-6.15959E+00-4.43709E+00-2.37617E+00 1.55405E+00 9.69585E-01
 -1      1878-6.81349E+00-9.38800E+00-3.62944E+00-3.09619E+00-5.07587E-01 4.97862E-01
 -1      1879-1.31000E+01-8.36230E+01-1.94599E+00-2.22300E+01-2.75637E+00 9.50792E-04
 -1      1880-6.31548E+01-1.00800E+01-1.16093E+01 1.29395E+01-3.29576E+00-3.03111E-01
 -1      1881-5.71657E+01-1.09869E+01-9.75196E+00 1.16639E+01-1.96012E+00 7.14461E-01
 -1      1882-2.34514E+01-2.05117E+01-1.21888E+01-1.79939E-01-3.67314E+00-5.11619E+00
 -1      1883-2.53951E+01-4.96811E+01-6.31697E+00 3.07231E+01-3.08189E+00-1.23751E+00
 -1      1884-2.51068E+01-4.87620E+01-4.65598E+00 2.78962E+01-2.71907E+00-7.01833E-01
 -1      1885-1.93852E+01-2.25015E+01-1.36249E+01 9.98330E-02-3.22720E+00 3.83021E+00
 -1      1886-1.51006E+01-2.75111E+01-1.22687E+01 1.41154E+01 2.90065E+00 4.28953E+00
 -1      1887-1.17582E+01-1.92423E+01-8.95181E+00 1.14582E+01 2.51734E+00 3.81454E+00
 -1      1888-4.63970E+01-2.34318E+01-8.14957E+00-2.79381E+01-3.66970E+00-2.89996E-01
 -1      1889-5.16509E+01-2.58277E+01-8.01303E+00-2.81518E+01-4.96583E+00-1.88890E+00
 -1      1890-6.03919E+00-2.01701E+01 1.89797E+00 1.38401E+01 2.10682E+00 2.83883E+00
 -1      1891-1.25013E+01-1.83056E+01-1.03791E+01-2.87021E+00-4.15674E-01-4.95750E+00
 -1      1892-3.77276E+01-4.98634E+01-4.41382E+00-3.50342E+01-7.92362E+00 3.26572E+00
 -1      1893-5.02726E+01-4.34551E+01-5.98286E+00-3.82005E+01-2.48252E+00 2.15514E+00
 -1      1894 5.46513E-01-2.67073E+01 9.06130E-01 5.48557E+00 2.48956E+00-3.55120E+00
 -1      1895-8.83457E+00-5.23325E+01-1.06041E+01-9.29635E+00-2.40831E+00-3.21127E+00
 -1      1896-7.14065E+00-4.24496E+01-7.35883E+00-8.29443E+00-3.77148E-01-2.04046E+00
 -1      1897-7.20702E+01-8.21691E+00-5.48577E+00-1.37131E+01-3.22231E+00 1.61233E+00
 -1      1898-7.31074E+01-1.06456E+01-4.74565E+00-1.12616E+01 7.26990E-01 1.10522E+00
 -1      1899-1.94657E+01-1.90542E+01-7.67500E+00 2.17460E+00-5.22899E+00-1.72092E+00
 -1      1900-3.67276E+01-6.99828E+00-1.10927E+01 7.70733E+00 3.46016E+00 4.14346E-01
 -1      1901-2.71244E+01-5.42207E+00-7.34253E+00 6.52562E+00 2.94992E+00 8.63274E-01
 -1      1902-8.39618E+01-3.85445E+00-4.95563E+00 8.15543E+00-8.23980E-01-4.06988E-01
 -1      1903-6.26090E+01-6.64545E+00-1.22577E+01 1.17756E+01-2.62801E+00-2.09094E+00
 -1      1904-5.91695E+01-9.45997E+00-1.10981E+01 1.01678E+01-2.35977E+00 1.63779E-01
 -1      1905-2.10004E+01-1.53881E+01-1.20910E+01-4.12842E-01-3.14404E+00 3.17660E+00
 -1      1906-7.61551E+00-8.86418E+01-7.09633E+00-1.50232E+01-2.60560E+00 2.12867E+00
 -1      1907-1.13840E+01-8.83356E+01-5.51873E+00-1.04097E+01-3.05929E+00-4.06772E-01
 -1      1908-3.07854E+01-6.00773E+01-6.99599E+00 3.47249E+01-1.24120E+00-2.10741E+00
 -1      1909-2.79124E+01-6.35468E+01-3.75273E+00 3.05606E+01 6.28195E-01 8.10830E-01
 -1      1910-6.09293E+01-1.76005E+01-2.55830E+00 2.97830E+01-2.96632E+00-3.83380E+00
 -1      1911-2.20750E+01-6.92187E+01-3.94497E+00 3.51982E+01-1.09925E+00-4.33543E+00
 -1      1912-1.25203E+01-5.24812E+00-1.33886E+01-6.35126E+00 4.89781E+00-2.21810E+00
 -1      1913-1.53136E+01-9.14049E+00-1.13480E+01-5.10825E+00 4.65263E+00-2.79061E+00
 -1      1914-7.70579E+01-1.27635E+01-4.04011E+00-2.01693E+01 5.55002E-01 4.19432E+00
 -1      1915-1.38101E+01-9.77887E+00-9.16309E+00 4.17587E+00 2.60083E+00 2.61684E+00
 -1      1916-1.73138E+01-1.35373E+01-1.55759E+01 5.46262E+00 5.30958E+00 3.04082E+00
 -1      1917-6.36950E+00-3.74098E+01-1.00743E+01-7.21229E+00 2.88421E+00-1.46053E+00
 -1      1918-6.00948E+00-3.72653E+01-1.02829E+01-7.95531E+00 1.64047E+00-1.29266E+00
 -1      1919-4.87815E+00-9.18458E+01-4.49888E+00 8.70372E+00 1.73809E+00-9.75050E-01
 -1      1920-3.30217E+01-6.60258E+01-8.54335E+00-3.37603E+01-1.12979E-01 4.67851E-01
 -1      1921-2.86212E+01-6.26742E+01-2.31499E+00-3.24749E+01-2.16590E+00 5.14466E-02
 -1      1922-2.31529E+01-1.03348E+01-8.84816E+00 1.95633E+00 4.58125E+00 2.40631E+00
 -1      1923-2.49987E+01-9.30180E+00-1.33837E+01 2.90759E+00 6.20825E+00 2.11628E+00
 -1      1924-7.18702E+01-1.05823E+01-1.32667E+01 9.57315E+00 4.52885E+00-1.19658E+00
 -1      1925-6.31710E+01-1.03060E+01-1.07954E+01 8.01858E+00 4.72880E+00-2.85729E+00
 -1      1926-6.90906E+01-2.29422E+01-3.47953E+00 3.14433E+01-2.75909E+00 2.20815E+00
 -1      1927-2.32373E+01-4.27079E+01-1.67591E+00-1.75246E+01 1.06716E+00-3.85736E+00
 -1      1928-3.98782E+00-2.95382E+01 3.24354E+00-5.08084E+00 8.80373E-01-3.86202E+00
 -1      1929-2.66298E+01-4.18190E+01-1.16776E+01-2.31275E+01-3.40141E+00 2.34350E+00
 -1      1930-2.07212E+01-3.40801E+01-7.94496E+00-1.78235E+01-2.87094E+00 1.59731E+00
 -1      1931-5.88179E+01-3.47851E+01-3.57333E+00 3.84357E+01 2.16387E+00-4.85659E+00
 -1      1932-3.59653E+01-5.33829E+01-1.79742E+00 3.83828E+01-1.43638E+00 2.19581E+00
 -1      1933-3.75014E+01-6.20876E+00-9.94093E+00-5.54550E+00-4.31723E+00 3.26722E-02
 -1      1934-2.82106E+01-4.62964E+00-6.16053E+00-4.66377E+00-3.44954E+00 2.94433E-01
 -1      1935-8.36195E+01-8.52100E+00-5.97807E+00-6.89153E+00 4.42980E+00 4.84885E+00
 -1      1936-1.00383E+01-7.19642E+01-4.03123E+00-1.40983E+01 2.07394E+00-1.56881E+00
 -1      1937-1.04450E+01-7.19920E+01-2.36535E+00-1.38819E+01 2.95449E+00 1.32073E-01
 -1      1938-5.22956E+01-3.63761E+01-6.28165E+00-2.74323E+01-2.39356E+00-2.05499E+00
 -1      1939-2.74098E+01-5.21062E+01-1.93492E+00-3.16727E+01-3.00646E+00-9.07115E-01
 -1      1940-2.55368E+01-5.17007E+01 1.18479E+00-2.86897E+01-2.14063E+00-3.16742E+00
 -1      1941-8.05174E+00-1.48255E+01-1.07682E+01-8.94710E+00 1.99688E+00-1.85281E+00
 -1      1942-1.21691E+01-1.55107E+01-7.67242E+00-3.85296E+00 3.05975E+00-2.30425E+00
 -1      1943-1.33690E+01-1.90102E+01-8.02153E+00-1.24271E+01 7.52500E-01-3.31298E+00
 -1      1944-1.13860E+01-1.59735E+01-7.68111E+00-1.25073E+01 1.05420E+00-2.89685E+00
 -1      1945-2.57647E+01-7.01643E+01-1.02522E+01-3.09357E+01-1.36450E+00 1.60289E+00
 -1      1946-2.58353E+01-8.30332E+01-5.06816E+00 3.62695E+01 1.73273E+00-1.20414E+00
 -1      1947-1.05644E+01-7.89778E+01-5.95940E+00 1.40697E+01-8.56205E-03 1.65431E-01
 -1      1948-7.61307E+00-7.37828E+01-6.29413E+00 1.32125E+01-3.31736E-01-8.60814E-01
 -1      1949-8.78891E+00-3.63877E+00-2.02020E+00 1.13336E-01-5.10278E-01-8.32892E-01
 -1      1950-1.16133E+01-5.07615E+00-2.90776E+00 2.00164E+00-3.68886E-01-5.93681E-02
 -1      1951-1.87472E+01-2.53814E+01-1.41231E+01-5.11453E-01 7.43915E+00 5.15334E+00
 -1      1952-1.94664E+01-2.04063E+01-1.16192E+01-1.67399E-02 2.99526E+00 4.48740E+00
 -1      1953-1.01200E+01-7.45239E+01-7.47659E+00 2.08675E+01 2.52667E+00 7.30217E+00
 -1      1954-2.53569E+01-2.62990E+01-1.62922E+01-1.51263E+00 9.04795E+00 4.45602E+00
 -1      1955-4.21339E+01-6.81764E+01-1.87727E+01-3.61025E+01-1.62017E+00 4.35553E-02
 -1      1956-3.06400E+01-5.13520E+01-9.19549E+00-2.84150E+01 1.94629E+00 1.06491E+00
 -1      1957-6.78698E+01-2.16783E+01-1.20170E+00-3.27750E+01 1.80133E+00-6.30606E-01
 -1      1958-2.29903E+01-1.21928E+01-9.16031E+00 1.49788E+01-7.35708E-01-5.66308E+00
 -1      1959-2.41879E+01-1.07949E+01-8.31261E+00 1.33974E+01-1.00188E+00-3.47381E+00
 -1      1960-2.29752E+01-5.31143E+01-3.16927E+00 2.95581E+01 1.78903E+00 1.34095E+00
 -1      1961-2.77233E+01-5.65493E+01-2.07154E+00 3.20840E+01-2.17166E-01-1.96313E+00
 -1      1962-1.77671E+01-1.24137E+01-5.84106E+00 1.93848E+00 2.52532E+00-1.45211E+00
 -1      1963-9.35934E+01-7.98316E+00-6.46081E+00-7.27999E+00-1.35599E+00-3.78757E+00
 -1      1964-3.68429E+01-5.18889E+01-6.28026E+00-3.53199E+01-5.73706E+00-1.33877E+00
 -1      1965-2.09600E+01-2.09255E+01-1.34002E+01-1.68133E+00 8.02508E+00 3.33120E+00
 -1      1966-1.65706E+01-1.93685E+01-1.15350E+01-1.01750E+00 4.63978E+00 4.40009E+00
 -1      1967-1.04153E+01-7.98092E+01-3.68346E+00 2.17895E+01 3.32877E-01-1.07412E+00
 -1      1968-2.72450E+01-7.08963E+01-6.80554E+00 3.34111E+01-1.98569E+00 3.05592E+00
 -1      1969-1.87989E+01-5.89583E+00 4.47217E-01 1.42098E+01 1.03903E+00 4.83816E+00
 -1      1970-6.49002E+00-8.62426E+01-4.00980E+00-8.17902E+00-3.95863E-01 2.52481E-01
 -1      1971-2.00729E+01-1.61107E+01-1.33724E+01-2.82144E+00 4.27876E+00-2.88980E+00
 -1      1972-3.40399E+01-4.79694E+01-4.51339E+00 3.23570E+01-2.89285E+00 2.69099E+00
 -1      1973-3.16006E+01-5.44174E+01-6.87209E+00 3.38617E+01-2.31081E+00 3.97406E+00
 -1      1974-2.05105E+01-1.95785E+01-9.96931E+00 2.29917E+00 2.57456E+00-7.05364E+00
 -1      1975-8.00950E+00-6.67577E+00-2.94278E+00-2.87365E+00-9.38988E-01-1.44875E+00
 -1      1976-9.33181E+00-7.26876E+00-3.14864E+00-3.37245E+00 4.63353E-01-1.24312E-01
 -1      1977-1.87129E+01-2.12367E+01-9.55063E+00-1.58211E+00 4.66451E+00-4.82415E+00
 -1      1978-4.74307E+01-6.89284E+00-1.15531E+01-8.66720E+00-1.86977E+00 9.81680E-01
 -1      1979-4.24546E+01-7.41401E+00-8.87195E+00-8.08445E+00-1.02590E+00 1.81193E+00
 -1      1980-2.86237E+01-1.12254E+01 3.72651E+00 2.43707E+01 6.58294E+00 6.42796E-01
 -1      1981-4.21957E+01-1.95903E+01-5.10993E+00-1.75946E+01 2.96332E+00-1.73001E+00
 -1      1982-8.95161E+00-7.19713E+01-3.30810E+00 1.53297E+01 7.53942E-01 2.78145E+00
 -1      1983-9.29392E+00-6.00124E+01-8.60222E-01 1.15126E+01 9.09776E-01-1.36371E+00
 -1      1984-7.85289E+01-9.41847E+00-6.93841E+00-1.57278E+01 3.94844E+00-1.04885E+00
 -1      1985-7.49714E+01-1.31884E+01-5.83643E+00-1.44313E+01-4.13378E-01 2.62747E-01
 -1      1986-1.58789E+01-1.76563E+01-7.46103E+00 1.12490E+00-1.38740E+00-2.93529E+00
 -1      1987-9.28942E+00-1.78373E+01-7.53808E+00-1.40357E+00 1.51319E+00-4.39501E+00
 -1      1988-2.75504E+00-1.91198E+01-1.06981E+01-3.87036E+00 1.04991E+00-4.02447E+00
 -1      1989-5.94798E+00-5.84599E+00-2.87904E+00 2.13316E+00 7.66458E-01-6.60068E-01
 -1      1990-5.58892E+00-1.00125E+01-3.37338E+00 3.20313E+00-4.47585E-01-3.28884E-01
 -1      1991-7.20284E+01-3.14321E+01-9.97948E+00 3.27524E+01 1.89006E+00 1.77434E+00
 -1      1992-5.89782E+01-2.16239E+01-1.76291E+00 2.29608E+01 4.25470E+00-3.43151E+00
 -1      1993-1.19617E+01-7.39393E+01-3.23701E+00-2.27023E+01 3.48039E+00-2.47174E+00
 -1      1994-1.99130E+01-2.05181E+01-8.30247E+00-7.62876E-01 4.79141E+00-5.09395E+00
 -1      1995-9.22351E+00-1.60961E+01-8.90130E+00 7.39787E+00-3.80448E+00-1.37041E+00
 -1      1996-1.17634E+01-2.06581E+01-1.29043E+01 6.47886E+00-4.68918E+00-3.61227E+00
 -1      1997-1.01947E+01-5.74967E+00-3.05869E+00 1.40645E+00 1.99144E-01 1.28396E+00
 -1      1998-1.20005E+01-5.89526E+00-4.61061E+00 1.95829E+00 3.69135E-01-1.14278E-01
 -1      1999-1.59727E+01-1.13309E+01-6.83130E+00-1.01552E+00 2.19453E+00 1.08185E+00
 -1      2000-5.89129E+01-2.83825E+01-3.72896E+00 3.32533E+01-3.10026E+00 2.94735E+00
 -1      2001-4.99556E+01-3.06931E+01-4.76644E-01 3.07270E+01-1.04029E+00 6.86150E-02
 -1      2002-1.96224E+01-2.13146E+01-1.13358E+01 1.84904E+00-3.29978E+00-5.53412E+00
 -1      2003-5.99408E+01-2.73786E+01-4.36711E+00 3.34759E+01-1.37342E+00-3.70903E+00
 -1      2004-6.28728E+01-2.84136E+01-3.58369E+00 3.29503E+01 6.90239E-01-3.02798E+00
 -1      2005-7.55812E+01-2.34263E+01-3.84615E+00 3.40873E+01 1.35960E-01-1.26948E+00
 -1      2006-5.62274E+01-2.75972E+01 5.91554E-01 3.31605E+01-2.26362E+00 2.09019E+00
 -1      2007-1.52915E+01-7.89788E+01-3.04866E+00-2.34925E+01 2.92086E+00 1.00238E+00
 -1      2008-1.98681E+01-1.88779E+01-9.44496E+00-5.28676E-01 1.17216E+00-6.36373E+00
 -1      2009-9.93045E+00-5.82390E+01-1.35244E+01-8.95885E+00 2.47849E+00-1.80233E+00
 -1      2010-9.85406E+00-5.67158E+01-1.25047E+01-8.28968E+00 3.16726E+00-2.32157E+00
 -1      2011-1.63209E+01-2.26693E+01-1.15353E+01 2.26221E+00-4.16099E+00-2.18614E+00
 -1      2012-4.09578E+00-8.42538E+00-2.77217E+00 4.50267E-02 8.16141E-01 2.08838E-01
 -1      2013-3.89134E+00-6.16404E+00-1.79162E+00-2.21998E+00 4.69953E-01 5.51298E-02
 -1      2014-5.58780E+00-1.32524E+01-4.36423E+00 9.17529E-01-1.19483E+00-1.11098E-01
 -1      2015-4.09091E+00-1.18257E+01-3.42684E+00 9.66076E-01 6.16962E-01-3.98435E-01
 -1      2016-5.57645E+00-8.94702E+01-7.24580E+00 8.51912E+00-3.60030E+00 7.45932E+00
 -1      2017-1.01068E+01-1.30066E+01-9.04265E+00 4.98044E+00 6.00064E-01 4.13818E+00
 -1      2018-1.30031E+01-1.59499E+01-1.46139E+01 6.25251E+00 1.44696E+00 5.27932E+00
 -1      2019-4.67045E+01-6.82192E+01 1.69066E+00-4.84231E+01 3.13852E+00-7.00005E-01
 -1      2020-5.45568E+00-5.33885E+00-3.01157E+00 1.38688E+00 7.66446E-01-3.66080E-01
 -1      2021-9.43561E+00-5.92246E+00-4.03055E+00 2.49085E+00-1.86057E-01 4.28420E-01
 -1      2022-1.41174E+01-7.65716E+01-8.42976E+00 1.39206E+01-1.43821E-01 3.66097E+00
 -1      2023-1.13643E+01-5.79039E+01-1.54278E-01 1.08130E+01-5.32328E-01 2.44114E+00
 -1      2024-4.10249E+01-5.55272E+00-1.50444E+01 4.45103E+00-4.21670E+00 2.93507E+00
 -1      2025-2.72730E+01-4.31323E+00-1.05728E+01 2.92053E+00-3.35553E+00 3.02130E+00
 -1      2026-2.20185E+01-2.03859E+01-9.90844E+00-1.48424E+00 3.72807E+00 5.01504E+00
 -1      2027-1.70815E+01-8.57337E+01-2.38199E+00 2.51527E+01 2.44050E+00 5.19350E+00
 -1      2028-5.39207E+00-1.05881E+02-7.24472E+00-6.63009E+00 6.34306E-01 1.06141E+00
 -1      2029-2.68744E+01-3.62572E+00 1.77909E+00 2.45442E+01-1.02106E+00-8.17034E+00
 -1      2030-4.49496E+00-7.69519E+01-7.89849E-01 6.54009E+00-7.44970E+00 3.85205E+00
 -1      2031-1.40575E+01-6.41125E+00-4.05432E+00-1.51769E+00 1.67177E-01 1.29740E+00
 -1      2032-1.14743E+01-5.18254E+00-4.11078E+00-1.68665E+00-4.22797E-01-2.55742E-01
 -1      2033-5.76580E+00-1.32521E+01-3.93644E+00 1.12161E+00 1.43318E+00-2.44382E-01
 -1      2034-4.90527E+00-1.18375E+01-2.84315E+00 1.37520E+00 2.80245E-01 1.81634E-01
 -1      2035-4.98100E+00-4.97136E+00-1.87236E+00-1.94894E+00 8.48586E-01 1.56228E+00
 -1      2036-8.35805E+00-6.50413E+00-2.64798E+00-3.27259E+00 2.18320E-01 2.50942E-02
 -1      2037-8.13750E+00-3.95983E+00-3.21533E+00-4.53154E-02-1.21770E-01-1.08963E+00
 -1      2038-1.08101E+01-4.25367E+00-3.61054E+00-1.08704E+00 3.34709E-01 5.12325E-01
 -1      2039-1.09005E+01-8.20518E+00-3.25899E+00 3.89792E+00-1.01035E+00 5.98633E-01
 -1      2040-9.61888E+00-6.51700E+00-3.73817E+00 3.16917E+00-1.75894E-01-4.80553E-01
 -1      2041-1.84941E+01-1.72545E+01-8.00759E+00-2.83172E-01 3.26610E-01 3.02406E+00
 -1      2042 4.01309E+00 3.10536E+00 8.19222E-01-2.99420E-01 6.04388E-01 2.03530E+00
 -1      2043 4.36084E-01-8.99181E-01-2.70310E-01-6.14006E-01-4.82687E+00-1.67522E+00
 -1      2044-5.33878E+00-1.47766E+00 3.70183E-01-2.14322E+00 2.03387E+00 3.29828E+00
 -1      2045 4.74748E+00 7.85578E+00 4.44567E-01-6.98190E-01-5.26320E-01-9.86293E-01
 -1      2046-1.80691E-01-6.42589E-01 7.36010E-01 1.70292E+00 3.05905E+00-2.13569E+00
 -1      2047 1.04126E+00-7.53929E-01 2.00857E-01-1.33831E-01-1.89357E+00 7.63410E-02
 -1      2048-3.58218E+00 2.14814E+00 5.43205E-01-2.81120E-01 3.69703E-01-2.16830E+00
 -1      2049 4.75596E-01 2.48372E+00 1.09769E+00 1.37411E+00 1.80603E+00 2.10186E+00
 -1      2050 3.02894E-01 1.88372E+00-7.71878E-01 4.84872E-01 1.58143E+00 1.26487E+00
 -1      2051 1.03688E-02 2.21675E+00 2.36443E+00 5.81736E-01 4.49585E+00 1.47143E+00
 -1      2052 1.24716E+00 5.48512E+00 3.10071E+00-1.45179E-01 4.16840E+00 1.12649E+00
 -1      2053-1.46601E-01 1.33394E+00 3.29891E-01-2.86912E-02 3.36686E+00 2.18940E-01
 -1      2054 7.77323E-01 1.90746E+00 2.62650E+00 5.30944E-01 4.10845E+00-1.59718E+00
 -1      2055 1.04303E+00 2.34903E+00 2.50715E+00-7.74513E-01 4.10255E+00-1.83849E+00
 -1      2056 9.57390E-01 1.41774E+00 1.86408E+00-4.61148E-01 3.06746E+00-2.44163E+00
 -1      2057 2.31809E+00 2.86160E+00-4.53812E-01 1.73631E+00 2.34213E+00 3.43307E+00
 -1      2058-1.02617E+00-8.77233E-01-1.12315E-01-5.71163E-01 2.93539E+00 3.84523E+00
 -1      2059 1.86257E+00-2.88222E-01-4.74578E-01-7.32194E-02-3.41120E-01 2.24504E+00
 -1      2060 2.37760E+00 3.18498E-01 1.31154E+00 1.72679E-01-9.50869E-01 3.50394E+00
 -1      2061-1.58573E-01-6.83766E-01 2.69240E+00 6.88621E-02 1.30104E+00 4.24996E+00
 -1      2062 1.51128E+00 9.05179E-01-9.55243E-01-6.86717E-01-2.69351E+00 3.35584E+00
 -1      2063-2.94133E-01-4.83217E-01 1.99627E+00-8.93658E-03-2.49817E+00 3.10032E+00
 -1      2064 1.61601E+00 4.98537E-02 6.16626E-01-9.63626E-01-8.57328E-01 2.34353E+00
 -1      2065 3.12541E+00 2.69986E+00 1.75921E-02-2.49854E+00-2.66846E+00 2.86705E+00
 -1      2066 1.61898E+00 2.32811E+00 1.97667E+00-1.00651E+00-2.27523E+00 3.14384E+00
 -1      2067 1.21325E+00 3.91468E+00 4.97514E-01-1.24848E+00-3.30305E+00 1.54349E+00
 -1      2068 6.09137E-01 1.38407E+00 2.92584E+00-5.29904E-03-5.02567E+00 1.59390E+00
 -1      2069-3.74591E-01 8.97162E-01-8.38169E-01 3.45502E-01-3.23953E+00 2.17725E-01
 -1      2070 9.77320E-02 1.60999E+00-2.25217E-02 3.63309E-01-4.59746E+00-4.62325E-01
 -1      2071 2.81552E+00 7.94940E+00 1.77473E+00 1.53724E+00-4.21300E+00-1.70796E+00
 -1      2072 7.83333E-01-1.81239E+00 1.06556E+00 2.38542E-01-3.66018E+00-2.53147E+00
 -1      2073 3.13807E+00 2.79158E+00-4.30047E-01 2.11191E+00-2.33075E+00-2.04254E+00
 -1      2074-3.99349E-01-1.09806E+00-1.85341E+00 1.55009E-01 4.49263E+00 1.81940E+00
 -1      2075 1.83274E+00 3.29231E-01 2.98893E+00-1.86221E-02-2.73975E+00-3.46439E+00
 -1      2076 2.21109E+00 5.42428E-01 1.71314E+00 2.96487E-01-2.02719E+00-4.80442E+00
 -1      2077 2.86440E+00 1.98595E+00 1.19094E+00-1.59085E+00 4.42709E+00-3.95121E+00
 -1      2078-2.09175E+00-7.25054E+00-1.15787E+00-2.65478E+00-3.73384E+00-1.97589E+00
 -1      2079 4.09754E+00 2.90123E+00 3.46864E+00-2.14109E+00 1.42844E+00-3.13679E+00
 -1      2080 3.27753E+00 4.33607E-01-1.09190E+00-1.13341E+00 1.24093E+00-2.65929E+00
 -1      2081 2.15224E+00 1.36983E+00 2.34979E+00 7.01353E-01-7.32152E-01-5.03170E+00
 -1      2082 1.79978E+00 7.32763E-01 6.50599E-01-3.23115E-01 5.24677E-01-3.86175E+00
 -1      2083 2.37684E+00-3.26701E-01-4.80106E-01 7.02482E-02-2.39651E-01-3.61475E+00
 -1      2084 7.47528E+00 1.23384E+00 3.32057E+00 5.23377E-02-5.89526E-01-5.98836E+00
 -1      2085-3.08180E+00-2.21000E+00-1.72133E+00-1.35781E-01-2.71621E-01 5.78441E-01
 -1      2086-2.51881E+00-1.95630E+00-4.63823E-01-1.65164E+00-4.51674E+00-1.28589E+00
 -1      2087-1.07349E+00-2.49952E+00 7.44296E-01 1.49653E+00-2.94335E+00 2.36585E+00
 -1      2088 6.85834E-01-2.60418E+00 6.46478E-01-1.00033E+00 2.52652E+00 9.53623E-01
 -1      2089 2.92636E-01-1.08055E+00 5.12314E-01 8.45891E-03 1.25010E+00 2.96079E+00
 -1      2090-2.81748E+00-3.93296E+00-2.65782E+00-1.62735E+00-3.87785E+00-3.47065E+00
 -1      2091-5.50248E-01-1.30178E+00 6.78184E-01-7.69252E-01 6.21649E-01 3.81496E+00
 -1      2092 2.90217E-01 5.99821E+00 2.79482E+00 1.25835E+00 5.00763E+00-1.29415E+00
 -1      2093-6.32745E-01-2.22498E-01-1.36800E+00 4.87301E-01 6.04487E-01-2.84154E+00
 -1      2094 1.70096E+00 8.57903E-01 1.43118E+00 5.91841E-01 5.89290E-01-4.50226E+00
 -1      2095 1.91472E+00 1.66294E-01 9.24002E-01-4.97390E-01 5.17819E-01-3.36352E+00
 -1      2096 1.31553E+00 3.15926E+00 1.84233E+00-1.72448E-01-5.21692E+00 1.43790E+00
 -1      2097-3.23544E+00-1.42371E+00 4.02181E-01-7.10627E-03-2.40510E+00-5.89857E-01
 -1      2098-6.34895E-01-1.55940E+00 6.68874E-01-2.51041E-01-1.97894E+00 1.35286E+00
 -1      2099 7.52673E-01-6.84024E-01 3.60821E-01-5.52777E-01 8.40546E-01 3.53807E+00
 -1      2100-7.78362E-01-4.98576E-02 1.66960E-01 3.15752E-01 1.79085E+00 1.02736E+00
 -1      2101 2.82199E-01 2.27027E-01 1.68343E+00-1.21142E-01 2.57038E+00-1.46959E+00
 -1      2102 1.06608E+00-6.43919E-01-6.82658E-02-2.82426E-01 3.99201E+00 5.22817E-01
 -1      2103-6.21723E+00-1.18528E+00-1.11441E+00 1.69564E+00 4.65648E-01-4.80859E+00
 -1      2104-1.03528E+00 5.83518E-01-4.63132E-01 7.70397E-01-2.07496E+00 4.31305E+00
 -1      2105 4.58344E+00 1.89399E+00-4.71691E-01-6.50415E-01 1.57678E+00-5.27604E-01
 -1      2106 5.08206E+00-2.29949E-01 8.74534E-01 1.16572E-01-1.30851E+00 4.02387E+00
 -1      2107-8.10174E-01 1.66976E+00-1.82681E-01 3.83094E-01-1.33019E-01 4.05561E+00
 -1      2108 6.73252E-01 4.92213E-01 1.63225E+00 1.00022E+00-1.77195E+00-4.52242E+00
 -1      2109 2.45085E+00 2.08842E+00-3.45816E-01-1.20171E+00-4.19750E+00 3.94656E+00
 -1      2110-1.53942E+00 1.64980E+00 1.02828E-01-1.31695E+00-9.38826E-01-2.18366E+00
 -1      2111 3.43816E-01-2.73577E-01 1.86237E+00 1.34444E-01-1.20239E+00 3.52329E+00
 -1      2112 1.81671E-01 2.00603E+00 8.85004E-01 9.22783E-01-5.04285E+00-8.37957E-01
 -1      2113 4.94516E+00 3.56276E+00 2.65558E+00-2.35172E+00-2.84348E+00 4.68869E+00
 -1      2114 4.80506E-01 1.72932E-02 9.06667E-01-8.56775E-02-4.14604E+00-1.27609E+00
 -1      2115-3.64121E+00-3.58730E+00 2.63077E-02 2.90513E+00-1.85671E+00 2.09896E+00
 -1      2116-6.64598E-01-9.33553E-01 5.05767E-01 4.09478E-01 4.30002E+00-2.56703E+00
 -1      2117 7.68643E-01 4.71839E-01 1.85686E+00 1.65519E-01 3.68450E+00-3.68446E+00
 -1      2118 2.92060E-01 1.33209E+00 4.40818E-01-1.12361E-01-5.12948E+00-3.35794E+00
 -1      2119 1.54859E+00 3.36859E+00 2.64172E+00-9.75933E-01-5.72545E+00 2.01836E+00
 -1      2120 1.11866E+00 2.67819E+00 2.24193E+00-2.51572E-01 5.45593E+00 1.24236E+00
 -1      2121-5.59133E-01-5.04059E+00 8.68093E-01-7.99718E-01 3.20268E+00 6.08753E-01
 -1      2122 3.05434E+00 2.11913E+00-8.33042E-03-8.88859E-01 4.12436E-01-2.39668E+00
 -1      2123-8.67402E-01-1.00182E+00 4.78689E-01 4.72768E-01 1.84680E+00 2.30349E+00
 -1      2124-6.32312E+00-4.72117E+00-4.17508E+00-2.39302E+00-3.43169E+00-4.24978E+00
 -1      2125-3.06498E+00-5.95702E-01-1.29933E+00 9.66915E-01-2.50930E+00 5.07046E+00
 -1      2126 2.86832E-01-1.99770E+00-1.62082E+00 1.52937E+00 3.14397E+00-1.77048E+00
 -1      2127 9.08123E-01 2.37401E+00 1.53752E+00-6.73254E-01 2.77769E+00-6.69515E-01
 -1      2128-2.88143E+00 4.95641E-01 3.83788E-01 2.43875E+00 7.45600E-01-1.38158E+00
 -1      2129 1.88614E+00 1.02755E+00 4.52148E-02-1.20235E+00 1.12657E+00 1.20266E+00
 -1      2130-3.45824E-01 3.37855E-01 4.32779E-01 4.45779E-01 2.17043E+00 1.80703E-01
 -1      2131 2.10191E+00 4.35786E+00 1.35005E+00 1.07458E+00-3.49983E+00-3.03180E+00
 -1      2132-2.07244E+00-6.44368E+00-2.28372E+00-2.06151E+00 4.46408E+00 4.72222E-01
 -1      2133-1.84347E+00-7.43923E+00-8.40547E-01 2.19276E+00 3.19502E+00-1.70894E+00
 -1      2134-7.33206E-01-5.99798E-01-7.49012E-01-3.80462E-01-2.36552E+00 2.57049E+00
 -1      2135-4.58542E+00-7.21601E-01 5.88278E-01 7.88115E-01-5.88355E-01 4.12405E+00
 -1      2136-1.52983E-01-8.17902E-01-1.59858E-01-1.44625E+00-1.86819E+00-1.78718E+00
 -1      2137-2.75086E-02 5.64236E-01-1.33414E-01 1.36247E+00-1.32576E+00 1.62002E+00
 -1      2138-3.39779E-01 8.09022E-02-1.43876E+00 6.30993E-01 3.35865E+00 2.02852E+00
 -1      2139-5.39674E+00-1.70599E+00 6.52971E-01-2.63194E+00-1.88463E+00-4.06551E+00
 -1      2140-8.77750E+00-3.32187E+00-2.14968E+00 1.55355E+00 8.30876E-01-4.83473E+00
 -1      2141 3.45762E-01-4.86214E+00 1.16924E+00-7.09427E-01-2.61955E+00-1.05460E+00
 -1      2142-1.30683E-01-8.54838E-01 1.67007E+00 9.47419E-01-1.29850E+00-2.78216E+00
 -1      2143-7.95548E-01-1.38562E+00 8.60698E-01-3.41616E-01-1.00861E+00 2.61653E+00
 -1      2144 7.73348E-01 3.22210E+00-9.39961E-02 6.86637E-02-5.69619E+00-4.24118E+00
 -1      2145 6.12655E+00-1.82676E-01 1.29985E+00 7.90385E-01 3.52182E+00 4.40766E+00
 -1      2146 2.88943E-01 1.89528E+00 2.96417E+00 5.82093E-02 2.69309E+00-3.51122E+00
 -1      2147 5.17344E+00 3.34718E+00 1.08556E+00 7.82541E-01 5.92871E-01-8.62373E-01
 -1      2148 1.50637E+00 1.01841E+00 1.01465E+00 7.86646E-01 3.27247E+00 5.34451E+00
 -1      2149 9.44827E-01-3.10028E+00 2.88936E+00 8.80132E-01-3.12930E+00 1.49806E+00
 -1      2150 2.97466E+00 1.35352E+00 2.11156E+00 6.12402E-01-5.65683E-01 4.75387E+00
 -1      2151-3.06503E-01-5.42187E-01 9.97105E-01 2.06294E-01-2.90464E+00-8.76284E-01
 -1      2152 5.65494E-01-7.44306E-01 7.33934E-01 1.14127E+00-1.49900E+00-1.79083E+00
 -1      2153-7.13518E+00-2.54458E+00-2.83978E+00-2.42733E-01-7.36440E-02 4.58225E+00
 -1      2154 4.58022E-01-1.01810E+00 5.41812E-01-3.72461E-01-1.19266E-02-2.40304E+00
 -1      2155 9.06819E-01 4.97564E-01 3.08055E-01 6.54813E-01-1.37617E+00 5.88986E-01
 -1      2156-7.13806E+00-1.23222E+00-7.78151E-01-7.38373E-01-3.12757E-01-2.53660E+00
 -1      2157 3.73207E+00 2.47481E+00-1.76653E+00-9.42141E-01 1.50942E+00 5.24568E-01
 -1      2158-3.85493E+00-1.70856E+00-2.79561E+00 1.74266E+00 1.54813E+00-4.18810E+00
 -1      2159-2.38736E+00-3.48502E+00-9.01585E-01-2.69486E+00 2.81379E+00 2.17865E+00
 -1      2160-1.30634E+00-9.23972E-01 1.66314E+00-5.33116E-01 1.68903E+00-1.77915E+00
 -1      2161-2.55985E+00-2.26922E+00-3.91027E-01-1.51598E-01-1.22955E+00 2.37219E+00
 -1      2162 4.04430E+00 1.29001E+00 1.49624E+00 7.78202E-01 8.79055E-01 5.73262E+00
 -1      2163 1.99993E+00 2.70997E+00 5.00718E-01 3.96822E-03-1.69175E+00-1.34570E-01
 -1      2164 1.64725E-01-6.40886E-01 1.67038E+00-6.69381E-02-2.98522E+00 1.03883E+00
 -1      2165-4.16209E+00-3.97832E+00-2.65434E+00-1.97053E+00-4.47989E+00-3.65200E+00
 -1      2166 1.95536E+00 3.68105E+00 1.28574E+00 7.10481E-01-4.24192E-02-1.04345E+00
 -1      2167-2.11641E+00-2.22348E+00 7.17440E-01 4.35794E-01 5.74135E-01 2.95739E+00
 -1      2168-1.86155E+00-5.20296E-01 1.25934E+00 1.36153E+00 3.06061E+00-3.03706E+00
 -1      2169 1.23186E+00 3.29279E+00 2.05391E+00-6.28971E-01 1.79772E-01 1.46160E+00
 -1      2170 1.70109E+00 1.55641E+00 2.80575E+00 3.92923E-01 5.45154E+00 5.62394E-01
 -1      2171 2.47000E+00 7.11734E-01 5.45587E-01-8.90888E-01 1.54088E+00 8.50169E-01
 -1      2172 1.95092E+00-2.34250E-01 2.01224E+00 4.62523E-01 2.91596E+00-1.24856E+00
 -1      2173-3.65209E+00-8.37342E-01 2.58730E+00-1.59737E+00 2.73256E+00 3.24203E+00
 -1      2174-4.02093E+00-5.68943E+00-6.28273E-01 2.91902E+00 1.92303E+00-2.28250E+00
 -1      2175-4.19709E+00-4.28599E+00 6.97970E-01-2.96693E+00 1.58278E+00 1.74074E+00
 -1      2176-1.64322E+00-4.74903E+00-1.75395E+00-1.14008E+00-4.91208E+00-6.44473E-01
 -1      2177 1.17398E+00-6.80759E-02 2.35437E-01 8.72860E-01 2.50573E+00-1.74848E+00
 -1      2178 1.41385E+00 2.70006E+00 8.30881E-01 9.34887E-01 3.73132E+00 3.86892E+00
 -1      2179-2.07003E+00-3.20684E+00-1.10957E-01-2.99003E+00 2.32203E+00 1.47280E+00
 -1      2180-1.04929E+00 2.40653E+00 4.82071E-01 8.30720E-01 2.63284E-01-1.84648E+00
 -1      2181 4.46219E+00 3.99205E+00-5.21922E-01-1.77774E+00 1.39556E+00 5.71514E-01
 -1      2182-2.64076E+00-3.34223E+00 2.55150E-01 1.73136E+00 5.04408E+00-4.77112E+00
 -1      2183-5.32809E-01 3.31643E-01 3.21533E-01-7.07063E-01 8.50873E-01 2.10912E+00
 -1      2184-1.73888E+00 1.06048E+00 4.71362E-01-1.09131E+00 9.46219E-01 2.87362E+00
 -1      2185 2.18007E+00 1.74312E+00 4.54952E-01-8.98569E-01 1.97748E-01 1.51953E+00
 -1      2186-7.40619E-01-2.31620E-01 2.30373E+00-5.65831E-01-6.02455E-01-2.47596E+00
 -1      2187 2.89873E-01-3.29072E-01 1.75438E+00 5.18948E-01-2.91443E+00 2.84431E+00
 -1      2188-2.44091E+00-2.51781E-01-8.68007E-02-3.87768E-01 2.43286E+00 4.48218E+00
 -1      2189-6.05678E+00-4.42153E+00-3.08256E+00 2.62334E+00 2.87418E+00-5.72201E+00
 -1      2190-4.96670E-01-2.30941E+00 3.45265E-03 5.47054E-01 3.06329E+00-9.56854E-01
 -1      2191-1.34146E+00-1.84823E+00-5.52059E-03-1.86551E+00 2.52328E+00 1.93274E+00
 -1      2192-4.01446E+00-7.92293E+00-1.13233E+00 2.15433E+00 4.34292E+00-1.80930E+00
 -1      2193 8.63167E-02 9.88553E-01-1.55266E-01 8.51055E-01 1.68957E+00-1.21181E+00
 -1      2194 5.85626E+00 9.38259E+00 2.18637E+00-1.08517E+00-1.02772E+00 1.36349E+00
 -1      2195 2.29889E+00-3.42974E-01 1.11949E+00-3.71355E-01-2.17167E+00-2.72592E-01
 -1      2196-6.72537E-01-1.90992E+00-3.35638E-01 1.27088E+00 2.75727E+00-2.03934E+00
 -1      2197 3.74874E+00 2.56093E+00 9.40072E-01 1.13091E+00 1.34922E+00-3.09970E-02
 -1      2198-2.04085E+00-2.10800E+00-1.48757E-01-6.86676E-01 1.87015E+00-1.57366E+00
 -1      2199-5.46150E+00-1.47857E+00 5.07857E-01 5.68421E-01 7.79178E-01-3.15027E+00
 -1      2200-1.67705E+00 1.86301E+00 1.18539E-01-1.48940E-01 5.09044E-02 2.52574E+00
 -1      2201-7.02692E-01-2.61224E+00-8.51328E-01-2.97636E+00-2.57406E+00-1.58444E+00
 -1      2202-1.08098E+00-3.82114E+00-5.26899E-01 1.24631E+00-3.17663E+00 1.33735E+00
 -1      2203-2.50108E+00-2.14814E+00-3.28002E-02-5.86620E-02 2.29128E-01-1.86935E+00
 -1      2204-1.70052E+00-1.98572E+00-1.04680E-01 1.10904E+00-4.85833E+00 4.23821E+00
 -1      2205 1.39167E+00 2.33497E+00 3.42569E+00 9.57471E-01 4.06935E+00 3.85034E+00
 -1      2206 2.99708E-01 9.28536E-01 1.79742E+00-8.94608E-02 2.59240E+00-1.86417E+00
 -1      2207 6.28414E+00 3.71559E+00 3.03330E+00-2.45706E+00 3.21164E+00-3.91737E+00
 -1      2208-3.30563E+00 1.19354E+00 1.23623E+00-1.94022E+00 2.15217E+00 3.51860E+00
 -1      2209 2.24855E+00 7.44092E-01 1.78738E+00 9.35589E-02-1.55407E-01-5.00756E+00
 -1      2210 3.21836E+00 8.02152E-01 9.29212E-01-7.52243E-01 1.36382E+00-4.91341E+00
 -1      2211-2.81453E+00-1.44703E+00-1.09088E+00 1.19181E+00 2.77731E-01-3.40661E+00
 -1      2212-5.50250E-01 7.83320E-01 7.01561E-01-1.29338E+00 1.34889E+00 2.34455E+00
 -1      2213 3.83740E+00 5.44890E+00 1.56011E+00 4.44838E-01 5.75274E-01-1.07166E+00
 -1      2214 4.30202E+00 6.55527E+00 2.01849E+00-8.90853E-01 8.28334E-01 1.18089E+00
 -1      2215 3.61682E+00 1.34911E+00 1.74561E+00 1.38570E-01 1.37533E+00 5.27364E+00
 -1      2216-2.80025E+00-2.68339E+00-1.27268E+00 1.31070E+00 4.82738E+00-1.06259E+00
 -1      2217-1.84824E-01-2.27126E+00-7.73579E-01-8.57036E-02 3.64753E+00 1.01363E+00
 -1      2218-1.23057E+00 1.54512E-01-9.26956E-01-4.92335E-01-3.22697E+00-2.61229E+00
 -1      2219 1.81853E+00-1.51353E+00 2.88381E-01-4.74540E-01 2.07949E+00 3.97961E-01
 -1      2220 8.09808E-01 1.68186E-01 1.89285E+00 8.95177E-01-2.90346E+00-2.28979E+00
 -1      2221-2.66048E+00-3.24713E+00-1.11648E+00-1.75361E+00 4.02947E+00 2.62611E+00
 -1      2222 1.42635E+00 5.13130E+00 5.39064E-01 1.69550E-01-5.59370E+00-5.05462E-01
 -1      2223 3.33166E+00 3.49113E+00 1.01319E+00-1.57006E+00-2.57333E+00 1.59900E+00
 -1      2224 3.11866E+00 2.88709E+00 2.07919E+00-1.39650E+00-3.64847E+00 3.94062E+00
 -1      2225 5.56758E+00 5.46404E+00 2.25767E+00-1.54683E+00 8.96213E-01 1.07022E+00
 -1      2226-6.00960E+00-1.49228E+00-5.29753E-01-3.35504E-01-1.80665E-01-3.90543E+00
 -1      2227-5.52232E+00-3.21999E+00-8.26075E-01 2.65389E+00-2.84776E+00 1.54696E+00
 -1      2228 4.33948E+00 4.42977E+00 9.14143E-01-9.55019E-01 1.09624E+00 6.08130E-01
 -1      2229-2.36614E+00-1.80619E+00 6.01398E-01 1.68075E+00-2.96611E+00 1.78838E+00
 -1      2230 6.56470E-01-2.17894E+00 2.46185E-01-8.58963E-01-2.34776E+00-7.55362E-01
 -1      2231 8.63439E-01 6.30007E-02 1.42750E+00-5.31950E-01 4.04974E+00-2.17369E+00
 -1      2232-7.26057E-01-4.51388E+00-1.25163E+00 5.55451E-01 5.17514E+00-2.53150E+00
 -1      2233 3.31172E+00 4.68977E+00 1.27975E+00-5.08566E-01 5.54821E-01 9.46966E-01
 -1      2234-2.39991E+00-2.27202E+00-6.72555E-01-2.81648E-01-2.43825E+00-3.31137E-01
 -1      2235 2.25420E+00 3.68527E+00 3.17029E-01 1.20977E+00-5.13110E+00-1.50342E-01
 -1      2236 1.25136E+00-4.94594E-01 1.07886E+00 1.40086E+00-2.52150E+00 4.28764E+00
 -1      2237 2.60536E+00 6.78885E+00 4.59538E-01-4.33496E-01-3.89697E-01 1.51857E+00
 -1      2238-1.08809E+00-5.82604E+00 1.60816E+00 1.20474E+00-2.08987E+00 1.56151E+00
 -1      2239-1.68088E+00-2.72589E+00 7.34832E-01 2.17622E-01-7.46075E-02-2.03897E+00
 -1      2240-8.15385E-01 1.50763E+00 4.06084E-01-5.76210E-01 6.46818E-01 2.22237E+00
 -1      2241-2.07017E+00-4.58924E+00-1.57764E+00-8.02583E-01 3.30043E+00 1.14691E+00
 -1      2242-1.33551E+00-8.15017E+00 1.97094E-01-4.20862E-01 5.48859E+00 3.81932E-01
 -1      2243-1.54010E+00-4.13531E+00-2.09776E+00-4.78933E-01-4.86781E+00-7.40474E-01
 -1      2244-2.56398E+00-4.70966E+00-2.44366E+00 1.29602E+00-4.46462E+00 2.25512E+00
 -1      2245 2.79276E-01 2.90850E+00-1.18194E-01 8.49644E-02 8.88183E-03-1.39472E+00
 -1      2246-2.99953E+00-3.56398E+00-1.70064E+00 1.68669E+00 4.26753E+00-2.95073E+00
 -1      2247-4.53536E+00-1.78051E+00-5.79035E-01 1.94189E+00 6.66801E-01-2.79470E+00
 -1      2248 6.19492E-01 1.21936E+00-8.94421E-01-7.02745E-01 1.88166E+00-1.38431E-01
 -1      2249-2.54585E+00-1.33935E+00 3.98990E-01 1.24691E+00 2.05390E+00-2.31518E+00
 -1      2250 6.30683E-01-9.57966E-01 5.85564E-01-8.94286E-01 2.28151E+00 1.11025E+00
 -1      2251 6.02052E-01-2.38048E+00 2.01554E-01 6.32241E-01 3.30982E+00-2.10644E+00
 -1      2252 1.44101E+00 1.75261E+00-6.69273E-01-5.32087E-01-1.23447E+00-5.74505E-01
 -1      2253 9.36611E-01 7.67979E-02 6.69862E-01-1.19305E+00 1.57091E+00 9.96559E-01
 -1      2254 3.71612E-01 2.77255E-01 3.80734E-01 1.66165E+00 2.02582E+00-1.64022E+00
 -1      2255-2.76933E+00-5.37978E+00-2.59292E+00 1.48012E+00 3.90776E+00-2.82395E+00
 -1      2256-5.28683E-01 1.36837E+00 9.50878E-02 5.53036E-01 1.58219E+00-1.40045E+00
 -1      2257-3.20863E+00 4.87020E-01 1.14548E+00-6.65308E-01-7.33121E-01-2.26888E+00
 -1      2258-4.47578E+00-5.12204E+00-9.51442E-01 2.60674E+00 4.42160E+00-5.79319E+00
 -1      2259-5.83649E+00-2.62064E+00-3.07918E+00 9.19640E-01 2.44488E+00-6.07154E+00
 -1      2260-9.52882E-01-5.23408E+00 1.43885E-01-1.23144E+00-2.54994E+00-1.22342E+00
 -1      2261-1.27696E-01 2.51980E+00 9.89592E-01 3.87137E-01-1.43412E-01-1.67424E+00
 -1      2262-3.92331E+00-2.51465E+00-1.46184E+00-1.32725E+00 3.26938E+00 3.44314E+00
 -1      2263 1.16784E+00-4.34579E-01-5.48782E-01-1.30283E-02 7.33379E-02-3.23580E+00
 -1      2264-2.48652E+00-2.00496E+00 2.68519E-03 7.12196E-02 1.92405E+00 1.10580E+00
 -1      2265 3.36015E+00 1.75335E+00-1.05877E+00-1.93272E-01-1.33293E+00-4.12457E-01
 -1      2266-2.21468E+00-5.37235E+00-2.04350E-01 6.57544E-01-4.27134E+00 4.70436E-01
 -1      2267-8.34082E-01-5.06034E+00-1.97010E+00 3.87910E-01-4.07775E+00 1.37091E-02
 -1      2268-3.00390E+00-2.79507E+00-8.84858E-01 8.95477E-02 2.21605E+00-2.75120E-02
 -1      2269-4.08039E+00-2.83367E+00 9.83504E-01-2.77571E+00 1.49811E+00 2.67603E+00
 -1      2270 6.71481E+00 5.45819E+00 1.45620E-01 2.89668E-02-9.51417E-01 7.96279E-01
 -1      2271 7.70397E-01 6.80659E-01-2.70950E-01 2.01209E+00-1.67406E+00 1.13474E+00
 -1      2272 2.95482E+00 3.09540E+00-9.66593E-01 1.30756E+00 6.50273E-02-1.59750E+00
 -1      2273 3.21634E+00 5.06592E+00 9.97617E-01-1.80842E+00 4.44760E+00-3.01007E+00
 -1      2274-3.31030E+00-8.74100E+00-3.99597E+00 1.43190E+00-4.07866E+00 4.72828E-01
 -1      2275 1.64280E+00 2.97074E-01 6.69429E-01-3.80568E-01 4.91805E-01-4.35276E+00
 -1      2276-1.37003E+00-8.51781E-01 1.12322E-01-2.12118E-01 2.39429E+00-1.29715E+00
 -1      2277 1.33223E+00 5.41872E-01 1.44673E+00-1.30330E-01-8.65502E-01 4.46837E+00
 -1      2278 1.10618E+00 2.65065E+00 1.70792E+00-1.79825E-01 4.32717E+00 1.67330E+00
 -1      2279 2.34956E+00 1.45053E+00 7.05244E-01-1.19407E+00 2.07832E+00-1.86504E+00
 -1      2280 1.89042E+00 6.70483E+00 8.66903E-01-4.74781E-01 3.77019E+00 1.18421E-01
 -1      2281 1.02693E+00 1.93440E+00 2.45952E-03 8.31534E-01 1.28247E+00 1.31093E+00
 -1      2282 2.63267E+00 3.08888E+00 1.61633E+00 9.88096E-01 8.18981E-01-1.13888E+00
 -1      2283 1.15274E-02 1.78000E+00 1.55085E+00-4.14168E-01-5.98511E+00 1.10476E+00
 -1      2284 9.77745E+00 5.45171E+00-3.95858E-01-1.02237E+00 7.38349E-01 7.79354E-01
 -1      2285 1.13226E-01-1.45655E-01 4.00895E+00-6.55352E-01 2.49401E+00 3.92183E+00
 -1      2286 2.46291E+00 6.28346E-01 2.20092E+00-4.32706E-01-1.63215E+00-4.37702E+00
 -1      2287 5.74612E+00 9.17250E-01 1.93381E+00 1.37580E+00-2.64858E+00-5.09808E+00
 -1      2288 7.14435E-01 1.02572E+00 2.51405E+00 6.89514E-01-3.02299E+00-3.74866E+00
 -1      2289-5.13133E+00-2.14308E+00-1.98616E+00 6.88132E-01-7.53806E-01 4.81684E+00
 -1      2290-8.72417E+00-3.03270E+00 1.29740E-01-1.05987E+00 6.49055E-01 1.68664E+00
 -1      2291-2.89204E-01-2.11798E-01 1.39026E+00-1.75675E+00 2.64441E+00 3.21405E+00
 -1      2292-2.18113E-01 9.56918E-01-1.02351E+00 4.31758E-01 6.05188E-01-1.19941E+00
 -1      2293-3.83902E+00-6.24815E+00-2.49908E+00-2.84825E+00-3.49686E+00-2.69886E+00
 -1      2294-2.61442E+00-6.05049E+00-2.74785E+00 1.06195E+00-5.11979E+00 2.90665E+00
 -1      2295 2.42750E+00-1.22934E+00 1.01052E+00 2.98568E-01 2.55378E+00-3.59931E-01
 -1      2296-6.48897E+00-3.50043E+00-2.78112E+00 2.09919E+00-1.34278E+00 3.83418E+00
 -1      2297 4.36171E+00 3.88420E+00 2.27682E+00-3.06540E+00-6.81145E-01 4.50849E+00
 -1      2298-1.61825E-01 4.60344E-01 2.97142E-01 1.51279E+00 1.93561E+00-2.17700E+00
 -1      2299-3.86589E+00-6.42393E+00-5.46067E-01-2.49487E+00 4.84178E+00 2.18826E+00
 -1      2300 1.23989E+01 1.67571E+01-7.90921E-01-1.30935E+00 2.59737E+00-1.57372E+00
 -1      2301-1.11625E+00 7.35910E-01 8.73920E-01-3.60529E-02-1.24805E+00-3.26598E+00
 -1      2302 6.66742E-01 2.16902E+00-1.15435E-01-3.60822E-01-1.15355E+00-1.43400E+00
 -1      2303 7.94448E-01 1.44713E+00-3.23067E-01-6.75010E-02-2.41197E-01-1.11896E+00
 -1      2304-2.60305E+00-2.22080E+00-3.79371E-01 4.66101E-01-1.96263E+00-1.33762E+00
 -1      2305 5.65613E+00 4.46751E+00-7.66149E-01 1.60224E+00 1.30756E+00 9.92399E-01
 -1      2306 9.38892E-01 2.34547E-01 1.38150E+00 8.36770E-01 1.96951E+00 3.06745E+00
 -1      2307-2.77668E+00-5.21663E+00-2.93840E+00 1.54627E+00-4.39844E+00 3.99503E+00
 -1      2308-4.53795E-01 1.23734E+00 6.57265E-01 5.19882E-01-7.26430E-01 1.91821E+00
 -1      2309-2.16331E+00-8.50463E-01-1.26702E-01-1.56979E-02-2.69322E+00 4.61283E+00
 -1      2310 4.54754E+00 3.65557E+00 1.55005E+00-1.16343E+00 1.18939E+00 7.90818E-01
 -1      2311-2.77676E+00-3.84111E+00 3.37622E-01 3.39085E+00 2.82761E+00-2.00378E+00
 -1      2312-3.72696E+00-4.89133E+00-1.00634E+00 2.23878E+00 3.41556E+00-2.39581E+00
 -1      2313-3.02340E+00-2.27223E+00-8.54042E-01-1.26068E+00-7.19057E-01-5.48645E+00
 -1      2314 5.03630E+00 6.33280E+00 1.15153E+00-1.52918E+00-8.66207E-01-8.21126E-01
 -1      2315-2.87769E+00-1.23786E+00-7.94303E-01 1.84360E+00-1.05539E+00 2.83856E+00
 -1      2316-5.74207E+00-1.85567E+00-1.53550E+00-1.44468E-01-9.44432E-01 3.91212E+00
 -1      2317 1.36087E+00 1.21508E+00 1.22564E+00 1.25381E+00-1.63027E+00-2.99168E+00
 -1      2318-5.73073E+00-1.21587E+00 3.10209E-01-2.12938E+00 8.95589E-01 3.82750E+00
 -1      2319 1.39650E+00 1.18404E+00 2.48608E-01 1.49902E+00-1.65249E+00 1.26012E+00
 -1      2320 7.71903E-01 8.28072E-01-1.27526E+00-3.82928E-01-4.10696E-01-1.21313E+00
 -1      2321-3.65273E+00-3.16454E+00-3.18670E+00 1.75345E+00-2.99486E+00 4.22817E+00
 -1      2322-6.47927E+00-2.51868E+00-2.76059E+00-2.77410E-01-4.86965E-01-6.01982E+00
 -1      2323 1.78863E+00-2.54795E+00-1.01049E+00 9.84764E-01 2.38635E+00-1.94066E+00
 -1      2324 2.97212E+00 2.13404E+00-9.06250E-01-7.88596E-03-1.38131E+00-2.50506E-01
 -1      2325-1.70652E+00-9.19370E-01 4.38442E-01 7.57861E-01-2.11731E+00 3.39283E+00
 -1      2326-2.79171E-01 1.12033E-01-6.75239E-02-1.07152E+00-1.87686E+00-2.15473E+00
 -1      2327-4.50671E+00-3.55328E+00 5.37173E-01-3.73267E+00-2.74312E+00-1.64662E+00
 -1      2328-1.49536E+00 1.68814E+00 2.61185E-01 8.23447E-01 1.20934E-01-1.90860E+00
 -1      2329 9.25046E-01-6.17607E-01 6.55793E-01-7.71281E-01 4.68187E+00 3.76605E-01
 -1      2330 1.65397E+00 3.12151E+00 4.57422E-01-9.54431E-01 1.75150E-01 1.49228E+00
 -1      2331-1.09055E+00 1.35771E+00 1.58506E+00-6.89767E-01-3.06458E+00 2.38697E+00
 -1      2332-1.95657E+00-9.74973E-01 6.74392E-01-4.22709E-01 2.74968E+00-1.09761E+00
 -1      2333 1.26719E+00 1.13569E+00 2.38540E+00 7.78288E-01 4.06631E+00-5.46511E-01
 -1      2334 1.38359E+00 2.75555E+00 8.87790E-01 1.21179E-01-1.84661E-01 1.45029E+00
 -1      2335 1.34800E+00-1.39664E+00 7.16443E-01 1.02376E+00-1.94346E+00 8.53389E-01
 -1      2336 1.80229E+00-1.69670E+00 3.07030E-01-1.76411E-01 2.82170E+00 9.97412E-02
 -1      2337 3.53508E-01-3.31741E+00 8.42817E-02 1.87525E+00-2.12531E+00 1.86524E+00
 -1      2338 1.38709E+00-1.60513E+00 5.92747E-01-5.07927E-01-3.07774E+00 2.87806E-01
 -1      2339-4.99936E-01 3.24380E+00 4.74109E-01 1.78533E+00-8.19562E-01 1.89880E+00
 -1      2340 5.39052E+00 3.79582E+00 2.97274E+00 2.20190E-01 9.32718E-01 6.14898E-01
 -1      2341 9.91110E-01-1.02986E+00 1.26985E+00 1.20565E+00-2.52189E+00 5.57142E-01
 -1      2342 3.11516E-01 1.50520E+00 1.42622E+00 1.72822E-01-3.79383E+00 1.73760E+00
 -1      2343-2.46093E+00-4.72755E-02-2.48143E-02-5.05940E-01-7.38452E-01-4.48365E+00
 -1      2344-1.04964E+01-2.73890E+00 5.12998E-01-1.47219E+00 7.87018E-01-1.81913E+00
 -1      2345 2.36474E+00 8.53606E-01 9.72360E-01 2.18889E-01-1.73835E+00 5.98783E+00
 -1      2346-6.73412E-02-4.44100E+00 2.07016E+00 4.49280E-02-3.23237E+00 2.57776E-01
 -1      2347 5.13773E+00 6.63842E+00 2.34212E+00-6.66674E-01-3.11551E-01-1.37450E+00
 -1      2348 2.15103E+00 3.53801E+00 2.08270E+00-5.43871E-01-1.58826E-01-1.01125E+00
 -1      2349-8.99674E-04 1.36752E+00 9.35006E-01-9.82609E-01-8.17231E-01-1.58828E+00
 -1      2350-6.14766E+00-1.14421E+00-1.53372E-01-1.90202E+00-7.28028E-01-2.34488E+00
 -1      2351 2.84692E-01-4.25512E+00 1.22992E+00 1.87783E+00-1.21015E+00 1.13269E+00
 -1      2352 1.00941E+00-1.98887E+00 1.65123E+00 4.89739E-01-2.05579E+00 2.94786E-01
 -1      2353 9.87631E-01 1.58274E-01 1.63572E-01 8.86808E-01-1.79482E+00 4.80861E-01
 -1      2354-1.02670E+00-4.35963E+00-1.04176E+00-1.99362E+00 3.36809E+00 4.40449E+00
 -1      2355 2.46285E+00 1.93281E+00 1.00818E+00-5.16176E-01-1.54826E+00 9.48798E-01
 -1      2356-3.28665E-01 2.10442E+00 9.06141E-01 6.36580E-02 5.33333E-01-1.39751E+00
 -1      2357-7.02103E-01-4.34627E+00-4.24559E-01-1.38382E+00 3.97442E+00 1.48143E+00
 -1      2358-2.71733E-01 1.60034E+00-1.88095E-01-1.04805E+00-4.85997E-01-1.88671E+00
 -1      2359-1.03335E+00 2.65091E+00 1.01936E+00 5.01902E-03-5.37981E-01-2.56289E+00
 -1      2360-7.37704E-01 7.68417E-01 1.39983E+00 9.19069E-01 2.18091E+00-1.51581E+00
 -1      2361-6.06059E-01 2.24222E+00 2.23373E-01 1.43158E+00 9.18705E-01-1.67531E+00
 -1      2362-2.42089E+00-4.44005E+00-2.12557E+00 1.27068E+00 4.22344E+00-2.56867E+00
 -1      2363 1.09085E+00-2.86118E+00-7.48436E-01-5.13161E-01 4.50295E+00-4.37210E+00
 -1      2364 4.76412E-01-7.39721E-01 6.29693E-01-1.41350E+00 2.13624E+00 9.30220E-01
 -1      2365 1.88483E+00-9.92993E-01 1.26969E+00-8.32513E-01 2.41524E+00 4.84581E-01
 -1      2366 7.59346E-01-7.89402E-01 1.87136E-01-2.72836E-01 2.18622E+00-2.48817E-01
 -1      2367 5.28236E+00 7.59792E+00 1.42905E+00-7.49053E-01 7.26709E-01 1.11759E+00
 -1      2368-1.51983E-01-8.33466E-01 5.24426E-01 1.23419E+00 3.08161E+00-1.85729E+00
 -1      2369 6.39525E+00 5.55540E+00 7.99555E-01 1.94138E-01 8.02490E-01 2.11979E+00
 -1      2370 1.57702E+00-3.76662E+00 1.67345E-01-1.74913E+00 3.99295E+00 8.03959E-01
 -1      2371-2.59395E+00-5.55021E+00-1.92178E+00 1.57452E+00 4.54098E+00-4.10242E-01
 -1      2372 2.98470E+00 2.34305E+00 1.74051E-01-1.01007E-01 1.45562E+00-5.13788E-01
 -1      2373 6.93063E-01 7.10145E-02-8.50203E-01 4.24432E-01-1.46981E+00-2.89828E-01
 -1      2374 6.33956E+00 4.71172E+00 8.68194E-01-1.03503E+00-1.39367E+00 1.23782E-01
 -1      2375 8.45045E-01 6.23124E-01 2.18953E-01-1.51502E+00-1.59381E+00-8.93432E-01
 -1      2376 3.67994E+00 4.50796E+00 1.11544E+00-1.05654E+00-9.15928E-01-7.85240E-01
 -1      2377-2.16534E+00 9.12261E-01 1.41230E+00 9.20205E-01-4.47649E-01 2.51021E+00
 -1      2378-1.22799E+00-2.22421E+00-8.51617E-01 1.59787E+00-3.15024E+00 3.15740E+00
 -1      2379-1.58576E+00 8.03251E-01-4.78861E-01 1.01975E+00-1.53062E+00 3.45381E+00
 -1      2380-2.13088E+00 6.33240E-03-2.46230E-01-6.55881E-01 1.10641E+00 3.41583E+00
 -1      2381-3.96267E+00 5.00061E-02-3.68578E-02 9.13243E-01 7.85133E-01-3.95330E+00
 -1      2382 2.18902E+00 2.95627E+00 4.04025E-01-7.51481E-01 8.89990E-01 5.90415E-01
 -1      2383-4.62476E+00-1.68036E+00-2.78231E+00 2.96108E-01 5.37156E-01-4.27123E+00
 -1      2384 3.13929E+00 9.35582E-01 5.23968E-01-8.33156E-01-9.19787E-01-9.92643E-01
 -1      2385-2.54835E+00-3.39334E+00-1.32637E+00-2.07403E+00-3.03568E+00-2.88728E+00
 -1      2386-5.93469E-01-1.15802E+00 9.87731E-01-1.03676E+00-2.19379E+00-1.68996E+00
 -1      2387 7.09471E-01 1.01535E+00-1.14762E+00-4.15807E-01-1.37270E-01-1.12651E+00
 -1      2388-4.16840E+00-5.10831E+00-2.38790E+00-3.19279E+00-3.43207E+00-3.18675E+00
 -1      2389-3.43442E+00-9.33085E+00-2.30853E+00 2.15191E+00 4.73519E+00-8.19958E-01
 -1      2390 1.59507E+00 1.47741E+00 1.11874E+00-9.34317E-01 5.84497E+00-3.44656E+00
 -1      2391-6.51853E+00-2.31813E+00-1.14480E-01-1.33822E+00 6.77625E-01 3.66967E+00
 -1      2392-2.45779E+00-3.34680E+00 5.98171E-01 5.17679E-01 1.57715E+00 2.33131E+00
 -1      2393-2.62965E-01-3.94685E+00-9.21628E-02-8.23576E-01-3.31279E+00-4.71962E+00
 -1      2394-2.21197E+00-2.57463E+00-1.30078E+00 3.77126E+00-3.61784E+00 5.69290E+00
 -1      2395-1.30953E+00 2.47821E-02 7.88707E-01-1.35065E+00 1.14755E+00 2.22688E+00
 -1      2396-6.07660E+00-4.14424E+00-1.09942E+00-3.43662E+00 2.09369E+00 3.72010E+00
 -1      2397-4.69725E-01 7.74320E-01 1.04289E+00 2.53657E-02-1.32198E-01-1.70532E+00
 -1      2398 2.08799E-01 2.82428E+00 2.84292E-01-9.52322E-01 6.57501E-01 2.12292E+00
 -1      2399 4.95297E+00 5.61573E+00 4.95071E-01 1.26005E-02 1.33806E+00-1.99635E+00
 -1      2400 3.92921E+00 5.52699E+00 1.52406E+00 7.14595E-01-9.28423E-01 1.69214E+00
 -1      2401-4.08431E-01-3.69695E+00 1.18293E+00-1.75003E+00-3.46093E+00-1.27886E+00
 -1      2402-1.82515E+00 8.00384E-01 1.50514E+00-6.35471E-01-5.55025E-01 3.61114E+00
 -1      2403 2.61723E+00 5.51914E+00-7.36549E-01-2.39198E+00-2.60265E+00 2.59493E+00
 -1      2404 1.28926E+01 1.37655E+01 2.58764E-01-3.33336E-01-2.49502E+00 6.16246E-01
 -1      2405 7.08215E+00 4.45533E+00 2.53986E+00 1.01366E+00 1.58978E+00-6.56359E-01
 -1      2406 1.42368E+00 5.81534E+00 1.50552E+00-3.20729E-01 5.37442E+00-5.52304E-01
 -1      2407-2.62675E-01-8.77193E-01-2.03757E-01-2.26059E+00 1.79046E+00 1.92502E+00
 -1      2408 1.50150E+00 4.03603E+00 2.18223E+00 1.20526E+00 4.59748E+00 1.51300E-01
 -1      2409-2.44416E+00-6.88300E+00-5.12086E-01 9.12797E-01 4.70245E+00-1.50573E-01
 -1      2410-1.99813E+00 2.15440E+00-1.35516E+00 4.24053E-01 5.98383E-01 2.75098E+00
 -1      2411 8.36461E+00 4.60675E+00 1.25706E+00-1.94471E-01-1.21072E+00-6.97658E-01
 -1      2412 2.10383E+00-2.27886E-01-7.95453E-02-5.24860E-01 1.97799E+00 5.19857E-01
 -1      2413 6.34546E-01 1.25214E+00 5.33043E-01-1.93847E+00-1.12760E+00-2.10132E+00
 -1      2414-1.15372E+00 1.00611E+00 4.23465E-01-1.35880E-01 4.83934E-01-2.64413E+00
 -1      2415 3.37869E+00 4.30572E+00 3.36562E-01 1.14072E+00-3.62196E-01 1.14078E+00
 -1      2416 3.71523E+00 4.31016E+00-4.14274E-03 4.69282E-01 1.95831E+00-1.41853E+00
 -1      2417 6.10054E+00 6.88501E+00 1.68629E+00 3.77535E-01-1.85089E+00 1.92428E+00
 -1      2418 2.35176E+00 2.77809E+00 2.50851E-01 3.16789E-01-1.38789E-01 1.33475E+00
 -1      2419 1.18269E+00 1.37958E+00 2.14606E-01-1.54335E+00 6.39383E-01 1.48505E+00
 -1      2420-4.26059E+00-1.71140E+00-1.20858E+00-1.13330E+00 1.74256E+00 5.88210E+00
 -1      2421 9.23269E-01 4.12848E-01 8.72886E-01-1.20936E-01-1.31136E+00-9.40439E-01
 -1      2422 4.41079E-01 2.77805E+00 1.99311E-01-1.06676E+00 3.97064E-01 1.52632E+00
 -1      2423-1.36707E-01 5.16470E-01 8.63895E-01-1.77627E+00-1.38678E+00 3.93750E+00
 -1      2424 4.13345E+00 3.40923E+00 1.62568E+00 6.72911E-01-5.09811E-01-2.36272E+00
 -1      2425-4.30411E+00-4.13785E-01 2.53390E-01 3.40597E-01-1.06381E-01-3.80008E+00
 -1      2426 3.97633E+00 6.77751E+00 1.55382E+00 3.23208E-01 8.36857E-01 1.22358E+00
 -1      2427-4.86750E+00-3.82765E+00-7.47140E-01-2.73511E+00-2.28518E+00-4.78801E+00
 -1      2428 1.14950E+00-1.05661E+00 7.90999E-01 1.30766E+00 3.13690E+00-1.61844E+00
 -1      2429-2.06992E+00-2.70621E+00-6.64079E-02 2.05873E-01-1.28617E+00-2.16270E+00
 -1      2430 3.77429E+00 1.06766E+00 5.53117E-01-5.23296E-01 1.55614E+00 2.38141E-01
 -1      2431 2.46029E+00 1.21631E+00 4.10324E+00 3.87304E-01 2.31135E+00-3.83995E+00
 -1      2432 3.26605E+00 3.25765E+00 2.51348E+00 1.32268E-02-1.19246E+00-1.27750E+00
 -1      2433 4.94710E+00 4.45745E+00 2.32281E-01-1.22504E-01 5.78577E-01-2.51220E+00
 -1      2434-2.56484E+00-2.19982E-01-8.56483E-02 1.38311E+00-1.12220E+00 2.83564E+00
 -1      2435 2.85646E+00 3.37674E+00-3.06873E-01 5.12521E-01-1.33108E+00-1.75481E-01
 -1      2436 2.10735E+00 1.53079E+00-9.37392E-02-8.38312E-01-1.70699E+00 7.79661E-01
 -1      2437-9.51635E-02 3.00788E+00 6.07014E-01-7.26963E-01 2.50876E-01 1.76682E+00
 -1      2438 8.82010E+00 8.65063E+00 1.28278E-02 1.43950E+00 1.00954E+00 2.18837E+00
 -1      2439 1.60314E+00-1.94215E+00 4.54726E-01-6.22069E-01-2.30119E+00-8.89274E-01
 -1      2440 6.87656E+00 2.72729E+00 7.19027E-01-1.07329E+00-1.54114E-01-1.66509E+00
 -1      2441 3.75109E+00 2.00555E+00 2.99495E+00 8.62133E-01-6.00165E-01-6.00095E+00
 -1      2442-9.19365E+00-7.73166E+00-2.54476E-01 4.93583E+00 3.85064E-01-1.38239E+00
 -1      2443 5.13405E+00 2.36182E+00 2.10917E+00-2.29953E-01 9.70590E-01-3.39864E-01
 -1      2444 1.84212E+00 2.74050E+00-1.12499E-01-1.44377E+00-5.00168E-01-8.62441E-01
 -1      2445 5.53600E-01-5.98412E-01-1.47359E-01-2.19354E+00-2.19042E+00-1.44550E+00
 -1      2446 2.64180E+00 1.10671E+00-6.43625E-01 1.85275E+00 2.01238E+00-6.25459E-01
 -1      2447 3.15525E+00 3.69866E+00 1.29365E+00 1.90032E-01-5.12612E-01 1.81189E+00
 -1      2448 6.78274E+00 9.02442E+00-1.92406E-01 1.43679E+00-1.84095E+00-2.05655E+00
 -1      2449 4.99806E+00 4.68106E+00 1.49480E+00 1.17889E+00-5.09171E-01 1.32225E+00
 -1      2450-3.52945E+00-2.63859E+00-3.43028E+00 9.75925E-01-4.08069E+00 4.08506E+00
 -1      2451 2.00961E+00 4.55484E+00 1.85065E+00 4.34893E-02 7.89466E-01-7.81750E-01
 -1      2452 6.69414E+00 4.14271E+00-2.16687E-01-2.64587E+00-1.85684E+00 2.01532E+00
 -1      2453-7.96073E-01-2.43563E-01 1.57850E+00 1.90003E+00-1.32639E+00 1.56182E+00
 -1      2454 6.30950E+00 5.12155E+00 1.00661E+00-1.44229E+00-7.65231E-01-1.38322E+00
 -1      2455 4.39555E-01 1.29994E+00-1.16465E+00 1.20589E-01 3.57231E-01 1.25359E+00
 -1      2456-2.31921E+00-5.97452E+00-2.56719E+00-4.00253E-01 5.82958E+00 1.86616E-01
 -1      2457 2.59524E+00 4.09019E-01-1.29199E-01-1.91873E-01-1.21307E+00-1.61881E-01
 -1      2458 2.83817E+00 3.26854E+00 1.45255E+00-1.10800E+00-5.25453E-01-9.57536E-01
 -1      2459 4.39639E+00 4.17647E+00 4.68686E-01 6.10792E-01 2.48049E+00 3.49795E-01
 -1      2460 9.76096E+00 8.95033E+00 9.98434E-01-3.17441E-01-1.88781E+00-7.65992E-01
 -1      2461-3.88043E+00-4.55676E+00-2.12467E+00-9.27105E-02 8.19605E-01 3.58707E-01
 -1      2462-2.21122E+00-3.95442E+00-1.94335E+00 1.36281E+00-6.67612E-01 1.04850E+00
 -1      2463 3.90596E+00 2.07781E+00 1.45941E+00-5.69369E-01 1.07475E+00 1.95457E-01
 -1      2464 1.65409E+00 1.61404E+00 2.93117E-01 9.53270E-01-1.41674E+00-1.08809E+00
 -1      2465-2.88698E+00-4.50953E-01 1.87983E+00-6.66900E-01 8.78848E-01 2.93958E+00
 -1      2466 2.41383E+00 1.64619E+00 8.24949E-01-8.05763E-02 6.11648E-01 1.67564E+00
 -1      2467 1.54684E+01 1.36771E+01-6.11390E-01-2.30172E+00 1.45655E+00-1.95228E+00
 -1      2468 1.26274E+01 1.23437E+01 9.12128E-02-2.01600E-01-6.17960E-01 2.21854E+00
 -1      2469 5.32098E+00 5.87831E+00 2.48375E+00 4.10468E-01-4.22255E-01-2.03974E-01
 -1      2470 1.18319E+00 3.20481E+00 1.94576E+00 7.73164E-01-5.06382E+00 1.05251E+00
 -1      2471 6.58035E-01 1.72208E+00 1.05248E-01 1.19455E+00-5.43195E+00 5.83039E-01
 -1      2472-2.26853E-01-1.41142E+00-4.61319E-01 1.37194E+00-1.68642E+00 1.88464E+00
 -1      2473-8.28506E+00-4.31877E+00 1.45030E+00 3.80141E+00-2.37987E+00 2.06035E+00
 -1      2474-2.64914E+00 1.86448E+00 5.70476E-02 1.48411E+00-9.70695E-01 2.71284E+00
 -1      2475-7.62875E-01-5.73055E+00 2.01489E+00 9.29551E-01-3.30699E+00 1.44854E+00
 -1      2476-4.17631E+00-1.05152E+01 2.27751E+00-3.08645E+00 2.26732E+00 9.97214E-01
 -1      2477 4.11622E+00-2.60339E-01 6.63472E-01-3.71412E-02 1.83770E+00 3.73258E-01
 -1      2478 4.18796E-01 1.09275E+00 6.25378E-01-8.74590E-01 1.57285E+00 2.77126E+00
 -1      2479-1.57152E+00 9.70415E-01 1.36085E-01 9.33326E-02-1.34730E-01 2.23879E+00
 -1      2480 3.69894E+00 3.10864E+00 1.37639E+00-3.67893E-01-1.41899E+00 3.86850E-01
 -1      2481-4.64985E-01 1.26119E+00 6.60638E-01 1.13823E+00-8.45002E-01 1.91120E+00
 -1      2482-3.08979E-01-1.65182E+00 2.33184E-01-9.86766E-01-3.37781E+00-2.03838E+00
 -1      2483 5.06219E-01-8.07381E-02 3.81064E-01 9.58497E-01 1.90184E+00-1.28781E+00
 -1      2484 4.46358E+00 5.25274E+00-1.45723E-01-7.76806E-03-1.49362E-01-6.42897E-01
 -1      2485-5.93898E+00-1.94360E+00-1.60153E+00-1.40192E+00-1.59616E+00-4.49330E+00
 -1      2486-6.63546E+00-3.77843E+00-4.10545E+00-1.75865E+00 1.52311E+00 3.52788E+00
 -1      2487 2.34090E+00 2.22180E+00-2.36935E-01 7.65077E-01 1.20891E+00-5.80899E-01
 -1      2488 5.37245E+00 3.92457E+00 7.68189E-01 4.38211E-01-1.33903E+00-1.81019E+00
 -1      2489-3.00974E-01 1.38098E+00 8.84026E-02 7.53525E-01-1.36422E+00 2.90663E+00
 -1      2490 4.08871E+00 4.44295E+00 2.58961E+00 2.17252E-01 1.47872E+00-1.19007E+00
 -1      2491 6.14885E-01 3.59780E+00 6.06796E-01-1.48569E-01 3.01983E-01 1.78189E+00
 -1      2492 4.93728E+00 3.73822E+00 2.17919E+00 1.09011E+00-8.06711E-01 1.78427E-01
 -1      2493 1.64722E+00 4.14056E+00 1.20170E+00-7.51669E-02-3.04613E-01-9.03106E-01
 -1      2494 6.29773E+00 6.13646E+00 2.51089E+00 4.87585E-01 6.67291E-01-3.96653E-01
 -1      2495 1.67525E+00-1.02845E+00 1.73490E-01 5.37198E-01-3.20781E+00-1.18714E-01
 -1      2496 4.57535E+00 2.31985E+00 9.22466E-01 1.09872E+00-8.18277E-01 5.59300E-01
 -1      2497 7.09560E-01-9.26123E-01 9.27690E-01 2.32208E-01 2.16458E+00-9.26633E-01
 -1      2498 1.14081E+00-4.81230E+00 3.56633E+00-4.36883E-01-2.62939E+00-2.23896E-01
 -1      2499 8.39413E-01 1.27319E+00 4.88070E-01-8.14045E-03-4.45393E-01-1.30900E+00
 -1      2500-5.41908E-01 4.15996E-02 4.71453E-01-7.23854E-01-1.25574E+00-2.34268E+00
 -1      2501 3.40566E+00 1.85627E+00 1.01481E+00 4.75849E-01 1.84501E+00 7.22038E-01
 -1      2502-4.02603E+00-4.04361E+00-1.86349E+00-2.31765E+00 3.01973E+00 4.37643E+00
 -1      2503 3.90300E+00 1.91293E+00 8.39422E-01 9.09776E-01 3.89664E+00 5.23675E+00
 -1      2504 9.57271E-01 1.68767E+00 1.38131E-01-1.22396E+00-1.08537E+00-1.60638E+00
 -1      2505 1.90657E+00 1.59688E+00 1.00317E+00 1.06009E+00 1.51768E+00-6.11318E-01
 -1      2506 1.39793E+01 1.16393E+01 6.69199E-01-8.80281E-01-1.28144E-01 5.94474E-01
 -1      2507 2.00613E+00-2.90508E-01 1.09837E+00 1.38901E+00 1.83840E+00-1.00740E+00
 -1      2508 4.12425E+00 6.67646E+00 2.38719E+00-4.80321E-01-9.23181E-02-1.40644E+00
 -1      2509-1.47144E+00 7.97985E-01 1.01704E-01 9.76107E-01 2.40247E-01-2.08830E+00
 -1      2510 3.60452E-01 1.22202E+00 8.74291E-01-4.58445E-02-6.23445E-01 1.26695E+00
 -1      2511-2.24593E+00 9.84660E-01 5.07685E-01-2.70553E-01 8.58246E-01 3.01657E+00
 -1      2512 2.44308E+00 4.01021E+00 1.44355E+00 1.11844E-01-4.85172E-01-1.05544E+00
 -1      2513 4.93536E-01-6.37306E-01 4.90650E-02-6.13032E-01-1.66530E+00-7.94841E-01
 -1      2514 4.42195E+00 3.10503E+00 1.42871E+00-9.80002E-01-1.10996E+00-6.10336E-01
 -1      2515 2.14091E+00-8.52634E-02 1.30318E+00-1.28737E+00-1.92083E+00-1.67440E+00
 -1      2516-8.21939E+00-5.05735E+00 1.25357E-01-3.76455E+00-7.86800E-02-1.68053E+00
 -1      2517 2.58293E+00 1.13294E+00-4.69759E-01 2.09227E-01 4.81310E-01-1.07027E+00
 -1      2518-1.04797E+00 1.36108E-01-2.57352E-01 1.09285E+00-1.50814E+00 2.32797E+00
 -1      2519 3.36936E+00 1.58267E+00 8.85504E-01-2.30839E-01-1.14610E+00-3.08357E-01
 -1      2520 1.69281E+00-8.29312E-01-2.13230E-01-3.67566E-01-2.20483E+00 1.36860E-02
 -1      2521 7.42181E+00 7.40347E+00 1.59842E+00 1.42278E+00 1.54769E+00-8.86200E-02
 -1      2522-1.08848E+00 1.66028E+00 1.41744E+00 1.95039E-01-2.07794E-01 3.05821E+00
 -1      2523 7.73326E+00 5.52114E+00 2.68971E+00 6.50350E-01 1.87463E+00 2.21724E-01
 -1      2524 8.87812E+00 4.92720E+00-2.01424E-01 5.32337E-01 1.07276E+00-6.10550E-01
 -1      2525 5.32483E+00 6.30198E+00 1.48725E+00 9.99919E-01-4.28845E-01 1.85726E+00
 -1      2526 1.20602E-01-3.93849E+00 1.49204E+00-1.39684E+00-3.13749E+00-1.59671E+00
 -1      2527-6.98531E+00 4.88165E-02-8.57327E-01-2.09231E-01 8.82010E-01-3.35930E+00
 -1      2528 3.59692E+00 2.36578E+00 5.79429E-01 1.42760E+00-9.01470E-01 9.09380E-01
 -1      2529 6.29002E+00 4.85304E+00 1.04675E+00 6.58097E-01-1.19054E+00 6.97419E-01
 -1      2530 4.25057E-01 5.52027E-01-1.69924E-01-1.73523E+00 1.47816E+00 1.44479E+00
 -1      2531-4.85692E+00-3.37256E+00-1.29810E+00-1.19643E-01 3.49941E-01 3.90083E-02
 -1      2532 1.62659E+00-2.59703E-01 1.34840E-01-3.00788E-01 1.99826E+00-6.02259E-02
 -1      2533 3.22676E+00 1.64005E+00 7.14383E-01 5.35037E-01 2.09699E+00 6.55971E-01
 -1      2534-7.21375E+00-8.04995E+00 8.29105E-01 1.24689E+00 8.70499E-01 3.98627E-01
 -1      2535 1.34194E+01 1.54497E+01-1.95959E+00 1.85063E-01 3.11168E+00 7.10270E-01
 -1      2536-5.51771E+00-4.15879E+00-2.56361E+00 1.74955E-01 3.38029E-02 6.48963E-01
 -1      2537-2.30865E+00-7.14648E+00-1.06005E+00 1.15762E+00-3.51371E+00 1.17030E+00
 -1      2538 2.24303E+00 2.49568E-02-2.88845E-01 1.71743E+00-1.42426E+00 1.39340E+00
 -1      2539 8.19058E-01-1.02555E+00 2.49065E-01 1.06437E+00-1.62123E+00 1.38705E+00
 -1      2540-2.42917E+00-2.82084E+00 4.25650E-01-7.97464E-03-2.32425E+00 7.64264E-01
 -1      2541 1.60685E+00 1.08142E+00 3.50167E+00 3.46658E-01 5.25932E+00 1.91807E+00
 -1      2542-8.65334E+00-3.13757E+00 1.43879E-01-2.29980E+00-3.68389E-01-2.75031E+00
 -1      2543 7.31618E+00 5.73384E+00 2.41376E+00-3.91241E-01 2.72064E+00-4.94320E-01
 -1      2544-8.57560E-01-2.17064E+00-8.08048E-01 2.22622E-01 1.84877E+00-1.87807E+00
 -1      2545 3.99968E+00 1.36840E+00 4.31929E-01-1.17044E-01 2.11684E+00 6.14069E+00
 -1      2546 5.79112E+00 5.25894E+00 6.85063E-01 1.23324E+00-7.10289E-01 2.23222E-01
 -1      2547 4.03075E+00 3.33635E+00 9.68163E-02 1.42147E+00 6.94761E-01-1.36780E+00
 -1      2548 5.70585E+00 4.00398E+00 4.45817E-01 1.06885E+00-9.82127E-02 1.09002E+00
 -1      2549 9.06139E-01 2.36946E+00 3.59728E-01-1.91837E-02 1.92647E-01 1.64744E+00
 -1      2550 2.54384E+00 5.62624E-01 4.39270E-01 5.27013E-01 1.50700E+00 9.34662E-02
 -1      2551 2.54127E+00 1.11342E+00 1.94187E+00-2.56733E-01-2.77008E-01-1.32508E+00
 -1      2552 8.15477E+00 1.23497E+01 1.95129E+00 1.17564E+00-4.78031E-01-1.11838E+00
 -1      2553 1.29382E+00 3.01628E+00 1.33747E+00 1.21773E+00-4.66325E-01 1.42075E+00
 -1      2554-3.98373E-01 1.04688E+00 3.74908E-01 6.62009E-01-6.66431E-01 1.86254E+00
 -1      2555 3.75738E+00 4.13979E+00-9.34042E-01 2.34944E+00-7.94852E-01 8.56721E-01
 -1      2556 1.64326E+00 1.87930E+00-1.72232E-01-1.23619E+00-1.16591E+00-1.06317E+00
 -1      2557 2.82495E+00 3.09372E+00 2.78320E+00 1.65219E+00-2.81916E+00-5.04474E+00
 -1      2558 3.08471E+00 2.47900E+00-3.50295E-01 1.29105E+00-1.16378E-01 1.80020E+00
 -1      2559 1.93971E-01 2.77862E+00 6.25099E-02-1.20295E-01 2.51002E-01 1.94571E+00
 -1      2560 2.83807E+00 2.01937E+00 3.05014E-01 7.89915E-01-1.53361E+00 1.53805E-01
 -1      2561-3.11555E+00-3.58885E+00 6.17826E-01 1.02636E+00 1.85878E-01 2.34821E-02
 -1      2562 1.34758E+00 2.16714E+00 2.23531E+00 7.74276E-01-1.71409E+00-4.79729E+00
 -1      2563 5.64508E-01 2.66330E-01-2.90989E-01 3.45605E-01 1.11226E+00-1.05127E+00
 -1      2564 1.06338E+00 1.03447E+00-8.28490E-03 1.01260E+00-1.22236E+00 1.37101E+00
 -1      2565-2.69399E+00-1.44205E+00 2.63913E-01 6.44549E-02-5.45894E-01 7.79679E-01
 -1      2566-2.47294E+00-2.84572E+00-1.07411E-01 2.01694E-01 7.43266E-01-9.09495E-01
 -1      2567-1.66432E+00-1.94154E+00 1.07443E-01-9.34938E-01 8.62691E-01 6.37033E-02
 -1      2568-4.41659E+01-1.20033E+01-6.55489E+00-1.51626E+01-2.00499E+00-7.86775E-01
 -1      2569-1.74598E+00-1.52644E+00 2.89002E-01 6.57670E-01-3.27486E-01 1.24404E+00
 -1      2570 5.80627E+00 2.06331E+00 3.72649E-02-2.67182E-01 1.21650E+00 1.07560E+00
 -1      2571-1.45233E+00-2.74591E+00 1.13783E-01-1.43514E-01 7.16187E-01 5.08378E-01
 -1      2572 8.92923E+00 6.03127E+00 3.79513E-01-1.62913E+00 1.19841E+00 5.97662E-01
 -1      2573 1.17582E+01 9.61626E+00 2.65898E-01 8.99716E-01-1.21921E+00-2.16691E+00
 -1      2574-2.11025E+00-1.88102E+00 3.95465E-01-5.60317E-01 5.26752E-01 6.77833E-01
 -1      2575-2.83813E+01-6.47140E+00-7.82332E+00 1.17634E+01 2.43720E-01 2.79891E-01
 -1      2576-1.27745E+01-3.40964E+01-9.92922E+00 1.03420E+01-1.38622E+00 7.08832E-01
 -1      2577-8.59765E+00-3.13811E+01-6.47671E+00-1.04146E+01-9.00517E-01-6.46925E-01
 -1      2578-9.69831E+00-3.90078E+01-6.00818E+00 1.35451E+01 6.77080E-01-4.85556E-01
 -1      2579-2.62805E+01-7.66671E+00-8.78977E+00-8.53593E+00-2.90334E-02 2.17695E+00
 -1      2580-4.27389E+00-5.36800E+00 9.31371E-01 1.07262E+00-9.51287E-01-1.07691E-01
 -1      2581-2.41007E+00-1.50172E+00 1.52129E-01 4.44351E-01 5.80410E-01-3.59020E-01
 -1      2582-4.88817E+01-4.26190E+00-6.36222E+00-1.07942E+00 1.95659E+00-3.52422E+00
 -1      2583-1.07631E+00-2.32593E+00 4.96731E-01-2.57547E-01 4.09385E-01 5.78933E-01
 -1      2584-6.36109E+00-5.10158E+01-6.16259E+00 1.68737E+00-2.82284E-02-1.57960E-01
 -1      2585-2.06900E+00-1.27047E+00 2.15472E-01 3.32842E-01-5.60711E-01 5.73938E-01
 -1      2586-2.03213E+00-1.99956E+00 4.21719E-01 7.84816E-01 1.36241E-01-7.26430E-01
 -1      2587-4.10491E+01-2.88242E+00-9.10713E+00 4.05335E+00 1.84788E-01 7.66691E-02
 -1      2588-2.98216E+01-1.01931E+01-8.89466E+00 1.06140E+01 1.99358E-01-6.72719E-01
 -1      2589 9.97141E+00 4.84130E+00 3.32320E-01-1.08527E+00 5.15784E-01 9.96481E-01
 -1      2590-4.90478E+00-3.41831E+01-7.54390E+00-6.83115E-01 7.65758E-01 6.03360E-01
 -1      2591-5.47611E+00-3.20876E+00 8.43531E-01 1.28616E+00-1.84883E-01 5.20122E-01
 -1      2592-5.42452E+00-1.92222E+00 6.51409E-01 1.91935E+00-8.16478E-01 4.83899E-01
 -1      2593-1.58915E+01-1.73739E+01-6.35407E+00-1.38529E+01-7.38598E-05 3.04954E-01
 -1      2594-8.80544E+00-2.68087E+01-5.44491E+00-9.17023E+00 7.20267E-01 8.78379E-01
 -1      2595 1.49794E+01 1.42406E+01-1.20148E+00 8.72655E-01 1.91943E-01 7.49311E-01
 -1      2596-2.23110E+00-1.31191E+00 2.98413E-01-2.80769E-01 6.20228E-01 7.32185E-01
 -1      2597-2.63935E+00-3.56518E+00 2.49025E+00-2.69922E+00-8.49599E-01 1.69863E+00
 -1      2598-1.31869E+01-3.99164E+01-6.82663E+00-1.46282E+01-1.58242E-01 3.18554E-01
 -1      2599-2.50835E+00-2.03679E+00 2.31557E-01-1.42690E-01 5.83709E-01 7.68037E-01
 -1      2600-2.46907E+00-1.44393E+00 3.62509E-01-4.28227E-01 1.54903E-01 8.07936E-01
 -1      2601-2.40867E+01-2.76438E+01-5.97649E+00 1.98591E+01 7.55334E-02-2.01704E-01
 -1      2602-1.00217E+01-3.80743E+01-5.03198E+00 1.51972E+01 2.50253E-03-3.85352E-01
 -1      2603-8.69376E+00-5.22485E+01-7.73453E+00 1.66056E+00 1.31915E+00 6.58749E-01
 -1      2604-4.78775E+01-1.61109E+01-5.59838E+00-1.66035E+01 4.72326E-02 1.42630E+00
 -1      2605-4.15268E+01-1.09008E+01-4.91503E+00 1.54197E+01-1.54591E+00 2.93431E+00
 -1      2606-5.35836E+00-3.06446E+00 1.02366E+00 1.60370E+00-2.67384E-01-2.42399E-01
 -1      2607-4.52839E+00-1.03926E+00 1.57783E+00 1.19204E+00 5.39752E-01-2.98004E-01
 -1      2608 1.01754E+01 8.80213E+00-2.05506E-01-1.17117E+00-1.68972E+00 2.33596E-02
 -1      2609-1.66096E+01-1.43694E+01-6.40542E+00 1.09746E+01 4.89722E-01-5.66956E-01
 -1      2610-5.34924E+01-1.83803E+01-9.33756E+00 2.36258E+01 7.51850E-01-2.23158E+00
 -1      2611-1.18773E+00-2.43560E+00 1.72459E-01-2.07610E-02-8.80541E-01-1.36763E-03
 -1      2612-2.64295E+01-9.71606E+00-6.88527E+00-1.11730E+01-1.07664E-01-1.29411E+00
 -1      2613-4.67067E+01-5.41849E+00-5.70741E+00 2.50237E+00-1.34707E+00-1.86600E+00
 -1      2614-2.35503E+00-1.38491E+00 1.80802E-01 3.86591E-01 6.61212E-02 1.00725E+00
 -1      2615-5.94492E+01-2.89550E+00-4.72339E+00 2.92717E+00 3.59231E-01 4.26050E-01
 -1      2616-4.25427E+00-5.29969E+00 4.96367E-01 8.69147E-01-5.94928E-01 8.12162E-01
 -1      2617-6.12207E+00-1.72655E+00 8.16776E-01 3.51242E-01-5.71548E-02 5.44921E-01
 -1      2618-6.34013E+00-1.53905E+00 1.16370E+00 3.59754E-01 3.28567E-01 9.44223E-01
 -1      2619 1.55875E+01 1.86611E+01-1.38453E+00 7.59691E-01-5.75291E-01-9.32916E-01
 -1      2620 7.05011E+00 9.33377E+00 6.47498E-01 1.22243E+00 2.50460E+00 1.58316E+00
 -1      2621-6.63708E+00-3.30392E+01-6.40198E+00 5.89818E+00-1.83071E+00 7.18521E-01
 -1      2622-4.20697E+00-5.50011E+01-6.26294E+00 3.74391E+00 1.26413E+00 2.23128E+00
 -1      2623-2.02297E+01-1.79460E+01-7.17182E+00 1.50594E+01-1.11907E+00 1.13338E-01
 -1      2624-7.04845E+00-4.75433E+01-5.55221E+00-1.54729E+01-7.44810E-01 6.76531E-01
 -1      2625-2.08047E+01-2.24926E+01-7.81456E+00-1.70083E+01-1.66584E+00-7.60689E-01
 -1      2626-5.58030E+01-1.23974E+00-3.63748E+00 2.27215E+00-5.39320E-01 1.91070E-03
 -1      2627-2.51854E+00-1.46075E+00 7.92695E-02-4.00679E-01-6.71584E-01-4.29063E-01
 -1      2628-2.24993E+00-5.15402E+00 4.34504E-01 6.75456E-03 2.39457E+00-8.41612E-01
 -1      2629 1.07271E+01 1.01363E+01 7.45399E-01 9.32813E-01 1.37109E-01-1.97247E+00
 -1      2630-1.58536E+00-2.50916E+00 3.71147E-01-3.93777E-01 8.53311E-01-1.24168E-01
 -1      2631-2.92917E+01-6.32743E+00-8.17588E+00 1.70690E+00 4.82598E-01-1.84945E-01
 -1      2632-3.98385E+01-5.88200E+00-3.12731E+00-6.90758E+00 1.09884E-01 1.37028E+00
 -1      2633-2.05079E+00-2.13934E+00 2.39013E-01 4.49628E-01-7.87234E-01 5.01857E-01
 -1      2634 1.46626E+01 1.32518E+01-1.96894E-01-1.46098E+00 2.66721E-01-1.74492E+00
 -1      2635-2.64174E+01-2.79878E+01-7.42758E+00 2.49490E+01 2.40823E+00-1.65944E+00
 -1      2636-7.14322E+00-6.34827E+01-6.71987E+00-2.92769E+00 6.88142E-01-6.04867E-01
 -1      2637-5.26689E+01-1.49239E+01-5.39931E+00 2.05663E+01-2.42747E+00-2.76328E+00
 -1      2638-2.19676E+01-8.14534E+00-6.23420E+00-7.76082E+00 9.32592E-01 1.44016E-01
 -1      2639-2.55270E+00-1.21326E+00 3.67155E-01-4.51876E-01-4.07865E-02-7.61288E-01
 -1      2640-2.72681E+00-5.12143E+00 9.09440E-01-1.72833E+00-3.28248E-01 7.98893E-02
 -1      2641-2.01511E+00-5.27290E+00 1.08311E+00-1.25441E+00-3.59269E-01-4.54545E-01
 -1      2642-7.38593E+00-3.51535E+01-6.25291E+00-4.36515E+00 1.68953E+00 4.93157E-01
 -1      2643-5.09455E+01-8.07635E+00-5.45186E+00-5.89317E+00 2.12708E+00-1.50850E-01
 -1      2644-1.80098E+00-1.84672E+00 1.95393E-02-1.11877E+00-1.13115E-01-8.18235E-01
 -1      2645-4.62954E+00-3.65408E+01-4.33212E+00-5.22945E+00-4.17257E-01-5.87601E-03
 -1      2646-8.14853E+00-7.17769E+00 9.57688E-01 2.27082E+00-9.54764E-01 2.92839E-01
 -1      2647-5.04971E+00-5.31087E+01-9.54579E+00 1.57785E+01 1.10768E+00-1.46574E+00
 -1      2648-2.75220E+01-1.98952E+01-8.53311E+00-2.25172E+01 1.75254E+00 1.97977E+00
 -1      2649-4.29307E+00-4.60001E+00 9.41567E-01 2.74824E+00 4.02039E-01 1.82787E-01
 -1      2650-4.08001E+00-3.65471E+00 1.66260E+00 2.21169E+00 2.62768E-01-1.71818E-01
 -1      2651-1.70521E+00-2.20493E+00 4.88978E-01 6.19900E-01 8.47256E-01-2.82031E-01
 -1      2652-5.19392E+00-5.30336E+00 7.62537E-02-1.00850E+00-6.64669E-01-8.28479E-01
 -1      2653-1.03604E+00-2.10779E+00 4.48596E-01 4.29216E-01 5.51233E-01-5.00085E-01
 -1      2654-1.09797E+00-2.57262E+00 3.58479E-01 4.95695E-01 1.00837E+00-2.39617E-02
 -1      2655-3.66192E+00-3.89759E+01-7.78231E+00-1.87703E-01-1.05206E+00 3.34082E-01
 -1      2656 3.77130E+00 3.54625E+00 2.27265E-01-6.52026E-01 1.34382E+00 4.11273E-01
 -1      2657-2.48137E+00-1.42740E+00 3.89286E-01 5.30078E-01-1.45479E-01-7.66576E-01
 -1      2658-5.00083E+00-3.76173E+01-7.44625E+00 2.38220E+00 8.50025E-01-2.73639E-01
 -1      2659-6.00769E+00-1.45209E+00 1.13304E+00-5.14215E-02 8.53774E-02-2.99393E-01
 -1      2660-5.28802E+00-1.67413E+00 9.97036E-01 2.11164E-01-4.09632E-01-2.27277E-01
 -1      2661-4.55527E+00-5.73007E+01-8.71520E+00 6.07476E+00-3.92528E+00-1.14610E+00
 -1      2662-2.92131E+00-9.14181E-01 2.20996E-01-1.05392E-01-5.33084E-01-7.42252E-01
 -1      2663 8.73748E+00 1.08981E+01-6.66295E-01 3.15023E-01 6.65852E-01-1.84765E+00
 -1      2664-2.56004E+00-1.38938E+00 1.81924E-01-2.29672E-01 1.49301E-01-7.79501E-01
 -1      2665-2.37302E+00-6.21165E+00 8.42890E-01 6.05343E-02-3.44143E-01-2.72971E-01
 -1      2666-6.33737E-01-5.88445E+00 1.48081E+00 9.50703E-02-9.41701E-01 4.93954E-01
 -1      2667-3.42430E+01-3.03942E+00-5.81820E+00-4.23783E+00-1.88474E-01 5.96291E-01
 -1      2668 1.30265E+01 1.30889E+01-2.20441E-01-1.58386E-01 3.19982E+00 1.22099E-01
 -1      2669-1.29814E+01-1.50725E+01-7.63843E+00-9.74152E+00 1.30117E+00-1.82185E+00
 -1      2670-2.46978E+01-2.72528E+01-6.17017E+00-1.99628E+01 1.19396E+00 7.50645E-01
 -1      2671-1.92855E+00-1.89028E+00 3.74976E-01-7.47326E-01-7.00747E-01-6.34522E-01
 -1      2672-3.69380E+00-2.20110E+01-5.80512E+00-1.34664E+00 1.58691E+00-1.38235E+00
 -1      2673-7.36309E+00-4.86200E+01-1.01144E+01-6.69590E+00-8.58958E-01 2.65916E-01
 -1      2674-3.17861E+00-2.58565E+01-7.87716E+00-3.64672E-01-1.97370E+00 1.39939E+00
 -1      2675-1.57711E+00-2.72437E+00 3.11099E-01-5.34935E-01-7.67001E-01 2.06810E-02
 -1      2676-1.53695E+00-2.51454E+00 2.88569E-01-5.11002E-01-5.84907E-01-5.68799E-01
 -1      2677-1.23493E+01-3.83057E+01-7.68955E+00-1.29075E+01 1.23915E+00 6.34879E-01
 -1      2678-1.64708E+00-2.36666E+00 3.29069E-01 4.77113E-01-7.57320E-01 1.08240E-01
 -1      2679-1.68039E+00-2.41578E+00 3.84470E-01 5.13495E-01-4.83732E-01 4.30936E-01
 -1      2680-7.97165E+00-6.95734E+01-1.33580E+01-6.19178E+00-1.02892E+00-2.30367E+00
 -1      2681 1.04715E+01 1.19879E+01-3.05246E-01-2.55038E-01-1.84203E+00-9.35297E-02
 -1      2682-4.23389E+00-4.05270E+01-6.90979E+00-9.52848E+00-3.00845E+00-3.68979E+00
 -1      2683-5.34544E+00-6.03741E+00 2.65039E+00 1.19632E+00 3.91315E-01-1.09394E+00
 -1      2684 3.33211E+00 2.87296E+00 9.52803E-01 3.60642E-01 1.65809E+00-1.23123E-01
 -1      2685 3.76072E+00 6.11761E+00 1.32106E+00-9.69468E-01 2.24471E-01-3.25521E-01
 -1      2686-3.52242E+00-6.91124E+00-2.01022E+00-2.63279E+00-2.20759E+00-2.44359E-01
 -1      2687-3.87975E+00-2.09517E+00 2.07943E+00-2.11001E+00-5.13582E-02-6.35555E-01
 -1      2688-5.33946E+00-2.34977E+00 8.80327E-01-1.40093E+00-5.47369E-01-1.18912E-01
 -1      2689-5.70406E-01-2.05048E+00 7.15455E-02 1.13358E-01-1.05132E+00-4.60077E-01
 -1      2690-8.15217E+00-5.27007E+01-9.49521E+00-1.50003E+01-1.52762E+00 1.64270E-01
 -1      2691 7.53971E+00 8.53656E+00 3.02324E-01-1.85186E+00 5.06345E-01 1.18792E+00
 -1      2692-8.52394E+00-1.77210E+01-7.12910E+00-8.41214E+00-1.02447E+00-1.27510E-01
 -1      2693-1.52149E+01-1.61180E+01-8.25209E+00 1.17639E+01 3.05590E-01-2.01147E+00
 -1      2694-4.51194E+00-5.43057E+00 5.73093E-01 1.17224E+00 5.89715E-01-8.49443E-01
 -1      2695-6.22171E+01-5.67730E+00-5.96800E+00-1.22262E+00-4.09542E-01 4.56473E-01
 -1      2696-4.23366E+00-5.18133E+01-5.08622E+00 7.67913E+00 1.81602E+00 4.13430E-01
 -1      2697-1.43840E+01-4.59605E+01-3.89101E+00-1.69768E+01 2.45466E+00 1.03456E+00
 -1      2698-4.45442E+01-4.26384E+00-9.50030E+00 1.66360E+00-7.36246E-01 2.79799E+00
 -1      2699-1.00966E+01-3.09492E+01-7.24272E+00 1.27182E+01 9.57454E-01 2.74216E-01
 -1      2700-6.11812E+00-5.91148E+01-5.08281E+00 3.67670E+00 4.61259E-01-2.35286E+00
 -1      2701-2.28905E+01-7.09350E+00-8.50224E+00-5.69849E+00 2.74462E+00 1.40353E+00
 -1      2702-4.08143E+01-6.16924E+00-6.49666E+00-1.41942E+01-1.25866E+00-1.86706E+00
 -1      2703-5.97562E+00-6.08197E+01-1.28511E+01 8.18251E+00-1.48470E+00-1.39271E+00
 -1      2704-6.55176E+00-3.37631E+01-7.13437E+00 9.85824E+00 1.63507E-01 7.93151E-01
 -1      2705-6.97903E+00-7.08863E+01-6.35834E+00-5.99407E+00-9.48187E-01-2.94140E+00
 -1      2706-7.69653E+00-4.58146E+01-7.17864E+00-6.14038E+00 2.43602E+00-1.36967E-01
 -1      2707-6.89896E+00-2.07618E+01-7.77161E+00 1.11230E+01-2.25091E+00-1.36260E-01
 -1      2708-3.82006E+01-1.35551E+01-8.10033E+00-1.70047E+01 2.54197E-01 1.79632E+00
 -1      2709-4.75384E+01-1.09640E+00-6.77761E+00 4.64424E+00-5.15321E-01-5.91178E-01
 -1      2710 4.10914E+00 5.70610E+00 1.30429E+00 1.43949E+00 7.52396E-01-7.32361E-01
 -1      2711 7.47939E+00 1.09919E+01 1.13602E+00-4.06283E-01 1.03170E+00-1.53358E+00
 -1      2712-2.61252E+01-1.97848E+01-7.81273E+00-1.81075E+01 1.63808E-02-1.75536E+00
 -1      2713-3.80519E+00-4.48343E+00 1.11475E+00-1.80423E+00-1.79151E-01-9.12338E-02
 -1      2714-4.13405E+00-3.32777E+00 1.21363E+00-1.89027E+00-7.48905E-01-1.10483E-01
 -1      2715 1.01186E+01 5.10820E+00-1.37367E-01 1.05928E+00-6.24042E-01 8.72232E-01
 -1      2716 3.06553E+00 2.80333E+00 1.07822E+00-2.19081E-02-5.63962E-02 1.32848E+00
 -1      2717-5.61144E+01-1.90709E+01-7.65796E+00-2.63034E+01 1.35693E+00-2.13232E+00
 -1      2718-1.09004E+01-4.90191E+01-9.20033E+00-1.63356E+01-1.43172E+00-1.66432E+00
 -1      2719-4.13759E+00-2.96249E+00 1.89978E+00 1.67559E+00 8.36644E-01-1.12285E+00
 -1      2720 9.96645E+00 8.40084E+00-1.66574E-01 2.91161E-01-1.98513E+00 1.46401E+00
 -1      2721-1.96426E+00-6.43861E+00 5.82821E-01-1.79470E+00 1.24440E+00-2.90578E-01
 -1      2722-2.41295E+00-5.62520E+00 1.04539E+00-1.65134E+00 5.34795E-01 5.71321E-02
 -1      2723-3.63910E+00-3.96046E+00 1.09706E+00 5.43276E-02 8.53085E-01 3.45594E-02
 -1      2724 1.24424E+01 1.35984E+01 9.71009E-01-7.39564E-01-1.15745E-01 1.75108E+00
 -1      2725 1.31293E+01 1.17765E+01 1.82738E-01-8.02973E-01-8.43698E-01 1.75591E+00
 -1      2726-6.44969E+00-3.81279E+00 2.55884E+00-1.72959E-01-3.01434E-01 1.28915E+00
 -1      2727 2.66087E+00 4.82173E+00 1.41564E+00-3.18109E-01 2.32298E-02-8.25842E-01
 -1      2728-2.74816E+00-5.33379E+00 9.03952E-01-8.79439E-02-1.11199E+00 1.72995E-01
 -1      2729-2.60587E+01-1.40386E+01-6.94024E+00-1.49351E+01 2.89272E-01-3.29394E-01
 -1      2730-2.66070E+00-5.57864E+00 9.86427E-01 1.81264E+00 1.19900E-02-6.27814E-01
 -1      2731-2.23648E+00-5.21890E+00 1.88791E+00 1.88539E+00 6.64763E-02-4.43933E-01
 -1      2732-2.56646E+00-6.12448E+00 1.58368E+00 2.40206E-01 6.87623E-01 6.40314E-01
 -1      2733-1.84862E+00-6.94632E+00 9.95610E-01 1.26349E-01 6.26614E-01-1.41723E-01
 -1      2734-7.39296E+00-2.27110E+01-9.55773E+00-4.44544E+00 3.05048E-01 2.55060E+00
 -1      2735-5.62627E+00-3.10307E+00 7.78340E-01-1.65879E+00 2.98898E-01 2.81689E-01
 -1      2736-5.33825E+00-2.43014E+00 1.10092E+00-1.80356E+00-2.48187E-01 6.39393E-01
 -1      2737-3.63076E+00-7.02684E+00 2.71754E+00-2.50415E+00-1.44448E+00 7.51262E-01
 -1      2738-2.50436E+01-1.01840E+01-6.53099E+00-1.07582E+01 7.37126E-01 9.00618E-01
 -1      2739-4.75287E+01-3.46358E+00-9.71962E+00 4.53125E+00-1.45405E-01-2.52134E-01
 -1      2740-1.10228E+01-2.84925E+01-8.58278E+00 1.48678E+01-1.49468E+00-1.94811E-01
 -1      2741-1.08073E+01-7.04361E+00-3.27370E+00 2.54836E+00 6.13756E-01-6.66739E-01
 -1      2742-1.27570E+01-1.36869E+01-6.97295E+00-7.64170E+00-2.65299E-02 9.45964E-01
 -1      2743-6.87951E+00-2.24822E+01-1.04373E+01 3.97013E+00 1.33732E+00-2.87403E+00
 -1      2744-6.78250E+00-1.41808E+01-1.09685E+00 1.26882E+00 9.84589E-01-4.18160E-01
 -1      2745 5.27810E+00 1.08019E+01-3.07144E-01-8.70757E-01-3.42519E-01 8.62920E-01
 -1      2746-2.11071E+01-6.78460E+00-6.70524E+00-9.85387E+00 1.02377E+00-2.78524E+00
 -1      2747-1.55045E+00-3.45830E+00 3.03616E+00-1.10173E+00-1.19264E+00-1.19558E+00
 -1      2748 2.11469E+00 4.72785E+00-7.37433E-01-8.78072E-01-1.89525E-02 1.35664E+00
 -1      2749-6.45428E+00-5.69094E+00-2.68176E-01 8.30066E-01 9.73086E-01-2.12401E-01
 -1      2750-3.67371E+01-2.84552E+00-8.71153E+00-1.16832E+01-1.42193E+00-4.55559E-01
 -1      2751 7.98739E+00 1.19082E+01 1.30589E+00-2.14344E+00 2.13513E-02-9.88768E-01
 -1      2752-4.66832E+01-6.36944E+00-5.12076E+00-1.57784E+01 5.25893E-03-1.77242E+00
 -1      2753 3.32151E+00 2.70189E+00-1.16117E+00-6.82345E-01-1.13140E+00-7.81431E-01
 -1      2754-2.90307E+01-1.08572E+01-1.05725E+01-1.35909E+01-6.90363E-01-2.20054E+00
 -1      2755-1.67103E+01-2.02702E+01-9.07291E+00-1.36010E+01-1.82303E+00-1.76552E+00
 -1      2756 7.16391E+00 1.14751E+01 8.00213E-01 1.55667E+00 2.42970E+00 1.13256E+00
 -1      2757-4.38793E+00-5.32467E+00 7.43004E-01-3.41517E-01-1.03456E+00-1.00573E+00
 -1      2758-2.75815E+01-3.37523E+01-9.07034E+00-2.34632E+01 6.38686E-01 1.63942E+00
 -1      2759 9.26896E+00 1.22724E+01 2.56717E-01 3.50623E+00 2.26547E-01 2.27900E+00
 -1      2760 1.10934E+01 5.23881E+00-1.85624E-01 4.94113E-01-1.83361E+00 1.19191E+00
 -1      2761 5.00363E+00 4.72217E+00 2.30834E+00-4.05827E-01-1.28091E+00-4.37439E-02
 -1      2762-5.97065E+00-1.29261E+01-2.51536E+00-6.08945E-01 1.78783E-01 1.41337E-01
 -1      2763 2.28401E+00 6.08230E-01 1.15385E+00-6.16230E-01-1.76949E+00-6.73814E-01
 -1      2764 9.36102E+00 1.54617E+01 2.76569E-01-1.62448E+00-1.65325E+00 1.40391E+00
 -1      2765-6.95603E+01-9.84022E-01-1.05327E+01 6.52739E+00-2.47876E+00-1.57325E+00
 -1      2766-1.40422E+01-7.06626E+00-2.50364E+00-1.92846E+00-1.22175E-01 1.02677E+00
 -1      2767-1.67075E+00-5.11073E+01-4.54577E+00 1.29136E+01-1.39903E+00 5.13652E+00
 -1      2768-4.86479E+00-4.90827E+00 5.95000E-01-6.84024E-01 1.06403E+00 4.48078E-01
 -1      2769 4.71850E+00 4.09580E+00 2.49695E-01 4.30604E-01-1.08642E+00-4.74341E-01
 -1      2770-5.78515E+00-4.70717E+01-7.21362E+00-1.06358E+01 6.73656E-01-1.42438E+00
 -1      2771-3.32248E+00-1.61558E+00 1.90355E+00 1.34807E+00-3.11382E-01 5.30722E-01
 -1      2772-9.56314E+00-4.93643E+01-8.57047E+00-1.38916E+01-6.09182E-01-2.81469E+00
 -1      2773 1.33049E+01 1.58279E+01-6.56631E-01-7.99696E-01 2.63031E+00-1.63509E+00
 -1      2774 8.71763E+00 1.49437E+01 3.39477E+00 1.09771E+00-2.54207E-01-3.79689E-02
 -1      2775-8.31893E+01-3.99556E+00-8.44674E+00 5.06206E+00-1.03129E+00 3.89646E-01
 -1      2776 3.52267E+00 6.25463E+00 1.45268E+00-4.71369E-01 6.34788E-01-7.54379E-01
 -1      2777-7.87306E+00-1.09405E+01-2.47748E+00-2.93467E+00-7.81281E-01-1.85274E-01
 -1      2778 8.29256E+00 9.72524E+00-5.23209E-01 3.00356E+00 1.03126E+00-6.52623E-01
 -1      2779 4.67566E+00 3.81823E+00 2.65405E+00 6.28294E-01 1.06510E+00-5.36097E-01
 -1      2780 3.49717E+00 1.44617E+00 2.52732E-01 8.44103E-01 6.25174E-01 1.67918E+00
 -1      2781-3.30535E+01-2.38723E+01-4.98843E+00 2.29373E+01 1.01763E+00 1.79508E+00
 -1      2782-8.24577E+00-3.46549E+01-7.62321E+00 7.42378E+00-2.20527E+00 2.57912E+00
 -1      2783-1.28293E+01-5.77110E+01-1.45568E+01 1.34907E+01-9.95517E-01 2.49273E+00
 -1      2784-5.58853E+00-4.26394E+00 3.42151E+00-1.49902E+00-5.24892E-01 1.06381E+00
 -1      2785-2.98541E+00-3.90492E+01-8.43766E+00 4.49281E+00 1.34428E+00-1.87304E-01
 -1      2786 9.42579E+00 7.59477E+00 9.79977E-01 2.03924E+00-2.47789E-01-2.30573E-01
 -1      2787-3.86008E+00-4.56577E+01-6.83138E+00 1.31418E+01-2.19397E+00 1.85651E+00
 -1      2788-6.03687E+01-2.00218E+01-9.60181E+00-2.89171E+01-3.89490E+00-1.79487E-01
 -1      2789-7.74625E+00-2.62004E+00 1.30220E+00 2.76451E+00-1.79157E-01-1.30805E+00
 -1      2790-3.14239E+01-1.92060E+01-6.57962E+00 1.93322E+01-1.42216E+00 4.49269E-01
 -1      2791-4.33886E+00-3.00846E+01-6.55261E+00 2.52433E-01 1.27226E+00-5.69834E-01
 -1      2792-2.15353E+01-2.37542E+01-6.61329E+00 1.71601E+01 2.03499E-01-5.40110E-01
 -1      2793-4.82716E+00-2.11702E+00 1.02210E+00 1.01631E-01 6.25165E-01-7.20244E-01
 -1      2794 1.63044E+01 1.48418E+01-1.13505E-01-1.35523E+00-3.84302E-01 1.13620E+00
 -1      2795-7.17719E+00-6.09388E+01-8.15466E+00 7.13654E+00-1.55868E+00-4.06366E-01
 -1      2796-9.89674E+00-2.58504E+01-6.48617E+00-1.38755E+01-1.16407E+00 5.32010E-01
 -1      2797-4.18021E+00-4.02579E+00 9.04468E-01 7.40106E-02-9.54030E-01 7.30214E-01
 -1      2798-7.74168E+00-1.82587E+01-1.28639E+01-6.93134E+00-4.19344E+00 1.10412E+00
 -1      2799-3.34427E+01-2.62234E+01-7.64338E+00-2.50989E+01-1.19256E+00 7.37096E-01
 -1      2800-9.09446E+00-6.44833E+01-7.72978E+00-1.74501E+01 3.13711E+00-1.20154E+00
 -1      2801-1.77055E+01-2.99815E+01-8.64636E+00-1.95161E+01 1.37623E+00 2.93688E+00
 -1      2802-1.02092E+01-1.62995E+01-5.40154E+00-1.04774E+01 9.02066E-01-1.60203E-01
 -1      2803-3.46873E+01-1.08277E+01-6.79904E+00 1.39235E+01-6.28193E-01-2.32906E-01
 -1      2804-3.13030E+01-2.30837E+01-7.75143E+00-2.26672E+01 4.11327E-01 1.05054E+00
 -1      2805 2.45196E+00 2.61586E+00 8.21512E-01-8.74764E-01 2.45515E-01 7.98108E-01
 -1      2806-3.52099E+01-1.97091E+01-6.59956E+00 1.87585E+01-1.31042E+00 7.40884E-01
 -1      2807-1.23693E+01-1.01029E+01-2.25529E+00-4.07567E-01-6.71806E-01 1.29363E-01
 -1      2808-2.24299E+00-3.64495E+00 2.19908E+00 8.07651E-01 1.47473E-01-1.95749E+00
 -1      2809-3.10879E+01-6.03259E+00-7.60323E+00-2.36166E+00 7.29890E-01-3.01460E-01
 -1      2810-3.73204E+00-4.24074E+00 7.65116E-01 1.93757E+00-6.56930E-02 3.25350E-01
 -1      2811-3.42791E+00-4.47577E+00 1.26765E+00 2.33720E+00-8.47504E-01 2.94196E-01
 -1      2812-4.88060E+00-9.05730E+00 8.93168E-01-1.48370E+00-1.37348E+00 8.68030E-01
 -1      2813-6.68001E+00-5.73641E+00 1.72266E+00-2.40027E+00 2.86161E-01 7.72901E-01
 -1      2814-5.07999E+00-4.64186E+00 2.87218E-02 1.60342E+00-1.06582E+00 1.19959E+00
 -1      2815-3.53386E+01-3.36756E+01-9.62411E+00-2.52500E+01 4.34427E+00 5.48506E-01
 -1      2816-2.17188E+01-5.31657E+00-6.66419E+00-5.14282E-01-1.99952E+00 5.64546E-01
 -1      2817-4.28668E+00-4.14547E+00 1.23665E+00-2.71218E+00 7.24794E-01 2.93365E-01
 -1      2818-3.98468E+00-4.32093E+00 1.71121E+00-2.34475E+00 4.27093E-01 5.28842E-01
 -1      2819-4.80984E+01-8.61624E+00-6.50783E+00-4.89672E+00 6.15663E-01-1.72598E+00
 -1      2820-4.17259E+01-3.30473E+01-8.19392E+00-2.66616E+01-1.94177E+00 9.30934E-04
 -1      2821-5.30154E+00-5.50019E+01-6.65569E+00 3.54039E+00 4.21627E+00 1.46348E+00
 -1      2822-6.63911E+00-2.41220E+01-7.17714E+00 8.38083E+00 5.74920E-02-1.11112E+00
 -1      2823-4.29772E+01-7.55313E+00-8.17420E+00-1.53643E+01-1.63935E+00-1.04647E+00
 -1      2824-6.24122E+00-5.66230E+01-1.09158E+01 5.12904E+00-1.57210E-01 2.49237E+00
 -1      2825-5.22808E+01-6.99235E+00-1.33680E+01 6.94034E+00-5.45053E-01-9.65462E-01
 -1      2826-1.81446E+01-2.63056E+01-8.17478E+00 1.93321E+01-1.33410E+00 6.56068E-01
 -1      2827-4.13409E+01-6.26537E+00-9.14994E+00 1.33044E+01 2.72467E-01-4.08056E-01
 -1      2828 4.11658E+00 5.88338E+00-2.10131E-01 2.93816E-01 1.61708E+00-3.80695E-01
 -1      2829-1.23976E+01-1.58377E+01-8.76991E+00 8.20262E+00 4.55488E-01 2.19998E+00
 -1      2830-3.67987E+01-2.79095E+00-9.00891E+00-5.61557E+00-5.81039E-01 5.80588E-01
 -1      2831-6.04352E+00-1.58976E+01-9.97144E-01 6.15657E+00 2.49949E+00-3.80315E-01
 -1      2832-2.18666E+01-8.39535E+00-8.38644E+00 7.97439E+00-1.98968E+00-1.48096E+00
 -1      2833 2.68306E+00-2.72977E+01-8.61142E-01-2.22554E+00 3.77714E-02 2.09798E+00
 -1      2834-3.42346E+01-4.43858E+01-4.58232E+00 3.65969E+01 9.69685E-01 2.69969E+00
 -1      2835-1.41781E+01-3.51912E+01-6.86600E+00 1.54779E+01 6.35889E-01-3.49487E-01
 -1      2836-5.77505E+00-5.81315E+00 1.64831E+00 1.39891E+00 6.93263E-01-5.16693E-01
 -1      2837-3.27108E+01-1.26613E+01-8.96888E+00 1.45995E+01 1.12122E+00-3.15923E+00
 -1      2838-5.78254E+01-5.49229E+00-3.45223E+00-3.36330E+00-1.87087E+00 5.55072E-01
 -1      2839-4.52625E+00-4.77148E+00-2.64312E-01 7.14988E-01 2.47591E-02 2.46502E+00
 -1      2840-6.39788E+01-9.66113E+00-1.16697E+01-7.80188E+00 5.63159E-01 8.33993E-01
 -1      2841-1.43463E+01-3.95912E+01-9.99725E+00-1.46115E+01-3.44042E+00-3.05620E+00
 -1      2842-3.11453E+00-3.76840E+00 3.06067E-01-4.86706E-01 7.94697E-01 1.74432E+00
 -1      2843-3.66179E+01-2.63884E+01-1.06541E+01-2.48576E+01-5.50605E-01 8.12109E-01
 -1      2844-4.60398E+00-6.44427E+00-9.20660E-02-3.17671E-01 7.58345E-01 8.31496E-01
 -1      2845-1.24665E+01-1.19966E+01-2.23295E-01 1.65631E+00-6.87730E-02 1.60704E+00
 -1      2846-5.32025E+01-3.57030E+01-1.02375E+01-3.38395E+01-2.47060E+00-1.19328E+00
 -1      2847 6.75276E+00 4.03594E+00 1.96705E-01 7.65129E-01 6.91810E-01 4.95788E-01
 -1      2848-4.09098E+01-2.27470E+01-5.69358E+00-2.33497E+01 2.98554E+00-4.30658E-01
 -1      2849-4.28598E+00-3.56027E+00 5.73639E-01-3.30347E-01 1.14399E-01 1.73604E+00
 -1      2850-4.84867E+01-4.29109E+00-7.56112E+00 1.09345E+01-1.65729E+00 1.84669E+00
 -1      2851-7.34249E+00-1.94762E+01-5.65158E+00-7.94266E+00 4.66088E-01-7.41531E-01
 -1      2852-2.50671E+01-2.57189E+01-6.69188E+00-2.17795E+01-1.34607E+00 1.02478E+00
 -1      2853-3.32121E+00-3.81977E+00 1.30187E+00 1.02255E+00 1.26494E+00-1.46273E+00
 -1      2854 9.98562E+00 1.13426E+01-1.68330E+00-3.83362E-01-6.83781E-01-1.48532E+00
 -1      2855-1.01620E+01-9.68913E+00 2.10149E+00-2.23334E+00 2.21171E+00-1.65030E-02
 -1      2856-4.09279E+01-9.83157E+00-3.49061E+00-9.28869E+00-1.49372E+00 2.14297E-01
 -1      2857-1.27507E+01-2.64857E+01-9.44057E+00-1.40222E+01-2.06623E+00 7.60704E-01
 -1      2858-5.24777E+00-6.38729E+00 2.34775E+00 3.43543E+00 2.08105E-02 1.74006E+00
 -1      2859-4.60896E+01-8.77588E+00-6.24179E+00 1.54133E+01 2.42262E-01-3.34304E+00
 -1      2860-2.22681E+01-2.19204E+01-1.09818E+01 1.56753E+01 1.11982E+00 1.54016E+00
 -1      2861 1.96543E+00-1.41052E+01 1.86761E+00 7.37761E+00 8.88491E-01 3.03403E+00
 -1      2862-5.84294E+00-2.47574E+01-1.13661E+01 2.34501E+00 1.34490E+00 3.59037E+00
 -1      2863-1.96869E+01-1.42119E+01-8.55972E+00-1.44086E+01-1.08901E+00-6.97093E-01
 -1      2864-1.09633E+01-8.74742E+01-8.42912E+00-1.10376E+01-5.47862E+00 1.59641E+00
 -1      2865-5.41513E+00-8.22999E+00 3.05182E-01 2.44185E+00 5.38608E-01 1.98142E-01
 -1      2866-3.50725E+01-1.23677E+01-8.58508E+00 1.81431E+01 8.07574E-01-3.69806E-01
 -1      2867-1.63064E+01-1.19340E+01 8.07764E-01-2.44246E+00-1.30731E+00 1.25467E+00
 -1      2868-2.24647E+01-3.83232E+00-1.16499E+01 7.93538E-01-3.94209E+00 2.50449E+00
 -1      2869-6.75159E+00-2.36602E+01-7.78129E+00 1.90391E+00 1.29836E+00-2.03393E+00
 -1      2870 1.49838E+01 1.45093E+01 9.95716E-01 9.28342E-01-8.54297E-01-2.81054E+00
 -1      2871-2.83045E+00-2.64716E+00 3.07372E+00 7.94187E-01-2.28421E-01-1.31821E+00
 -1      2872-2.67685E+01-3.98434E+01-1.19422E+01 3.15746E+01 2.53697E+00 2.75531E+00
 -1      2873-1.81527E+01-4.19728E+01-1.17478E+01-1.96523E+01 3.40980E+00 1.76736E+00
 -1      2874-2.90446E+01-1.43287E+01-6.85761E+00 1.45173E+01 1.05319E+00-1.15506E+00
 -1      2875-6.74248E+00-5.47361E+01-7.55846E+00-1.54976E+01 2.56575E+00 2.78030E+00
 -1      2876-8.79537E+00-4.97520E+01-1.12466E+01 1.32499E+01 2.89428E+00-2.28738E+00
 -1      2877-4.12470E+00-2.07654E+01-7.60872E+00-5.20234E+00 1.44788E+00-2.00603E+00
 -1      2878-1.47153E+01-1.29946E+01-2.87593E+00 1.01688E+00 5.88144E-01 5.91430E-02
 -1      2879-1.82940E+01-8.74029E+00-7.15772E+00 1.89151E-01 2.39191E+00 1.41558E-02
 -1      2880-2.78484E+01-6.81121E+00-7.88236E+00-8.39898E+00 3.75701E-01 1.38779E+00
 -1      2881-3.41127E+01-1.00098E+01-6.67577E+00-1.19597E+01 2.41674E-02 2.62797E+00
 -1      2882-2.42728E+00-7.50346E+00 1.88212E+00-4.04469E-01-9.02584E-01-1.94893E-01
 -1      2883-1.12952E+01-6.34564E+01-9.74883E+00-1.78866E+01 8.16081E+00 1.95409E+00
 -1      2884-4.23996E+00-4.97616E+00-9.58324E-02 1.27529E-01 1.09347E+00 7.77514E-01
 -1      2885 1.41907E+01 7.34936E+00-6.34887E-01-1.82405E+00 5.92219E-01-8.92293E-01
 -1      2886-5.52544E+01-7.84676E+00-4.85028E+00 1.09681E+01 2.52139E+00 1.12031E+00
 -1      2887-4.50178E+00-5.45097E+00-2.63894E-01 5.31260E-02-1.05958E+00 3.08852E-01
 -1      2888-1.66775E+01-3.11684E-01-5.37588E-01-2.16549E-01-1.95317E+00 6.31156E-01
 -1      2889-4.15459E+00-7.26606E+00-2.61555E-01 1.68772E-01-1.14290E+00 1.06443E+00
 -1      2890-2.20196E+01-1.05778E+01-9.39195E+00-5.46512E+00-2.12834E+00 2.68730E+00
 -1      2891-8.52497E+00-4.09401E+01-1.00697E+01 1.04672E+01 3.25758E+00 3.99331E-02
 -1      2892-4.04717E+00-2.87443E+01-5.35295E+00 3.23494E+00 2.84004E-01 1.39913E+00
 -1      2893-1.68975E+01-2.44342E+01-2.36363E+00 1.77793E+00-1.52358E+00 1.11317E+00
 -1      2894-2.03315E+01-1.37647E+01-1.17761E+01 9.14015E+00 3.27874E+00 1.86041E+00
 -1      2895-4.55428E+00-3.51140E+01-5.87832E+00 1.06931E+01 5.54742E-01 1.67774E+00
 -1      2896-3.80919E+00-4.50292E+01-1.07311E+01 1.26323E+00 1.70547E+00 3.52857E-01
 -1      2897-7.77178E+00-5.22900E+01-1.70825E+00 8.52990E+00-7.60401E-01 3.49557E+00
 -1      2898-1.22657E+01-4.86706E+01-5.11694E+00-1.46019E+01-1.31852E+00 2.40298E+00
 -1      2899-5.52830E+01-1.76689E+01-9.89601E+00 2.21548E+01-3.23601E+00 1.79920E+00
 -1      2900-6.17636E+01-9.28719E+00-1.06352E+01-5.41279E+00 1.86374E+00-1.64768E+00
 -1      2901-3.55408E+00-8.22756E+00 1.13691E+00-3.77948E+00-3.07192E-01 1.92743E+00
 -1      2902 4.18552E-01-4.53787E+00 4.44331E+00 2.05254E+00-1.62911E+00 1.41235E-01
 -1      2903-4.29900E+01-1.31050E+01-9.75804E+00 1.92568E+01-2.18701E+00 1.67098E+00
 -1      2904-2.05374E+01-3.25397E+01-1.15723E+01-1.98452E+01 1.60169E-01 2.45954E+00
 -1      2905-1.18332E+01-2.39384E+01-9.13337E+00 1.41464E+01-2.97727E+00 2.87812E-02
 -1      2906-2.97561E+00-2.25704E+01-7.21737E+00 5.75417E+00-3.24889E+00-2.05508E+00
 -1      2907-5.32962E+01-9.04036E+00-4.88420E+00-1.72103E+01 2.14798E+00-1.42474E+00
 -1      2908-2.64853E+01-5.72984E+00-1.14613E+01 3.54417E+00-3.18436E+00-8.67736E-01
 -1      2909-5.26586E+01-5.47576E+00-3.70092E+00-8.38860E+00-4.21301E+00 9.12909E-01
 -1      2910-3.67213E+01-3.83498E+00-1.15259E+01 3.93812E+00-8.31107E-01-2.84441E+00
 -1      2911-1.59822E+01-1.40585E+01-8.48418E+00-8.18617E+00-1.13792E+00 1.37211E+00
 -1      2912-1.67013E+01-1.28546E+01-9.14208E+00-1.02601E+01 2.20484E+00-1.09043E+00
 -1      2913-4.06343E+01-2.92017E+01-6.55476E+00-3.11779E+01-2.42403E+00 2.94984E-01
 -1      2914-1.86464E+01-2.75511E+01-8.09090E+00-1.97192E+01 2.42056E+00 2.96848E+00
 -1      2915-4.22377E+01-7.24528E+00-7.62299E+00-1.03640E+01 1.05177E+00 3.59003E+00
 -1      2916-5.52182E+01-7.82442E+00-7.65751E+00-1.53678E+01 1.71500E+00-3.73674E-02
 -1      2917-1.98505E+01-7.94641E+00-7.86087E+00 6.36934E+00 8.65374E-01 9.43418E-01
 -1      2918-1.29270E+01-1.30846E+01-5.64360E+00-1.06394E+01 7.43625E-01 8.09957E-02
 -1      2919-1.85380E+01-2.53546E+01-8.40128E+00-1.63035E+01-8.39022E-01-1.06974E+00
 -1      2920-6.08969E+00-3.60011E+00 2.58936E+00-7.19560E-01-5.07406E-02-4.68122E-01
 -1      2921-1.33175E+00-1.14093E+01 6.34642E-01 1.15523E+01 4.01570E-02-2.46681E+00
 -1      2922-1.21987E+01-1.48221E+01-5.20809E+00 3.43047E+00-1.07997E+00 4.56805E-01
 -1      2923-3.95809E+01-4.10483E+00-8.32635E+00 5.89394E+00-1.47185E-01-5.06039E-01
 -1      2924-3.68619E+01-3.40322E+01-8.15475E+00-3.03673E+01-7.75503E-01 1.92994E+00
 -1      2925-4.94887E+00-3.29082E+00 1.43584E+00 9.28909E-01-2.06025E+00 7.53314E-01
 -1      2926-2.00644E+01-1.29829E+01-7.36842E+00-1.31579E+01-4.61057E+00-8.03755E-01
 -1      2927-4.16272E+00-8.66142E+00 2.04850E+00-2.21419E+00 1.31543E+00-4.37683E-01
 -1      2928-8.47751E+01-7.39627E+00-8.94611E+00-8.90115E+00-9.88775E-01 1.05667E+00
 -1      2929-6.16809E+00-4.19605E+00 3.28743E+00-3.38342E-01 3.26602E-01 9.03483E-01
 -1      2930-1.54368E+01-3.99202E+01-1.10975E+01 1.70636E+01 3.93029E-01 1.43517E+00
 -1      2931 2.04595E+00-2.11927E+01 3.50271E-01 2.50582E+00 5.83900E-01 3.08433E+00
 -1      2932-1.18600E+01-1.25599E+01-1.19806E+01-8.97129E+00-7.58888E-02 5.01269E+00
 -1      2933-8.50438E+01-2.61937E+00-5.98506E+00 7.21007E+00 5.70235E-01 2.90019E-01
 -1      2934-1.55830E+01-1.06941E+01-8.99104E+00 7.70784E+00-2.25465E+00-1.07426E+00
 -1      2935-5.35154E+00-4.69862E+00 5.43813E-01-1.55309E-01 8.17103E-01 1.64504E+00
 -1      2936 1.60378E+00-1.09605E+01-1.72973E+00-7.55120E-03 2.25816E-02-1.30241E+00
 -1      2937-8.99172E-01-9.50066E+00-3.64708E-01-2.76057E+00-5.56277E-01 1.11503E+00
 -1      2938-7.04820E+01-1.21721E+01-1.37213E+01-1.79709E+01 3.80683E+00 2.55576E+00
 -1      2939-6.63756E+01-9.15973E+00-1.31865E+01 1.25798E+01 2.02890E+00 9.83085E-01
 -1      2940-7.22234E+00-5.15159E+00 9.53244E-02-2.08770E+00 3.05935E-01 1.90709E+00
 -1      2941-5.84015E+00-5.13935E+00 1.67681E-01-1.23329E-01 7.75511E-01 6.32305E-01
 -1      2942-1.49621E+01-1.05324E+01-1.64256E+00 1.27488E+00 1.56545E+00-5.10110E-01
 -1      2943-2.10099E+01-1.31668E+01-5.65409E+00 1.15375E+01-2.11469E+00 5.44556E-01
 -1      2944-2.74404E+01-6.19860E+00-8.31850E+00-2.32150E+00 4.15076E-01-2.37172E+00
 -1      2945-4.28719E+00-7.06446E+00 2.14080E+00-3.42041E-01 1.73456E+00-5.36213E-01
 -1      2946-7.89723E+01-1.26232E+00-2.85252E+00 7.42910E+00-2.03798E+00 2.66129E-02
 -1      2947-4.29295E+01-1.38033E+00-1.03334E+01 3.52357E+00 1.16410E+00 2.07787E+00
 -1      2948-6.80183E+00-6.86276E+00 1.34554E+00-2.52638E+00 1.30669E+00-2.01825E-01
 -1      2949-1.64895E+01-1.12240E+01-1.25733E+01-5.99482E+00 5.59694E+00-7.16015E-01
 -1      2950-6.12711E+01-2.58730E+01-3.70505E+00-3.18934E+01-3.62917E-01 9.71116E-01
 -1      2951-2.36703E+01-1.53516E+01-1.12407E+01 1.60949E+01 2.54175E+00-7.48956E-01
 -1      2952-3.51619E+00-4.75922E+00-3.31350E-03 2.64704E+00-2.09809E+00 2.00454E+00
 -1      2953-1.59052E+01-3.71341E+01-9.03665E+00-1.67725E+01 1.86491E+00 1.54590E+00
 -1      2954-1.06777E+01-2.50337E+00 2.46757E+00-1.33228E+00 2.07105E+00 3.39974E-02
 -1      2955-8.41655E+01-1.56605E+01-1.27985E+01-2.41404E+01 2.36178E+00-1.48602E+00
 -1      2956-1.80996E+01-2.73312E+01-4.91532E+00-1.91517E+01 3.11989E-02 6.15094E-01
 -1      2957-4.35783E+00-4.09742E+00 2.04370E+00 5.64915E-02 6.48746E-01-3.58584E-01
 -1      2958-2.90938E+01-2.23700E+01-7.47282E+00 2.10364E+01 9.04224E-01 2.84466E+00
 -1      2959-6.51586E+00-1.47726E+01 3.01933E+00-1.00878E+01-1.80194E+00 8.66569E-01
 -1      2960-2.59773E+01-2.84390E+01-1.14690E+01 2.23983E+01-2.21048E+00 2.54456E+00
 -1      2961-4.66694E+00-3.26227E+01-8.68906E+00-3.16815E+00-1.26295E+00 3.80652E-02
 -1      2962-2.20960E+01-1.19954E+01-1.00314E+01-9.88128E+00-2.67586E-01 2.51192E+00
 -1      2963 1.50372E+01 1.35063E+01 8.40259E-01 6.57463E-01-3.11683E-01 8.78366E-01
 -1      2964-5.28932E+00-6.07744E+01-1.20701E+01-4.13596E+00-2.59310E+00 1.24824E+00
 -1      2965-3.07249E+01-1.21619E+01-6.83819E+00-1.34549E+01 1.67811E+00 1.66704E+00
 -1      2966-3.70859E+00-6.28979E+00 1.26740E+00-1.95945E-01 9.56771E-01 7.33635E-01
 -1      2967-6.87940E+01-1.83768E+01-1.27363E+01 2.52470E+01-3.23731E+00 1.23476E-01
 -1      2968-9.82716E+00-1.32203E+01 1.28360E+00 1.15828E+00-1.39149E+00 1.63037E+00
 -1      2969-5.02887E+00-4.33426E+00 3.31851E-01 7.60554E-01 1.87372E-01-3.78603E-01
 -1      2970-3.17884E+01-2.16939E+01-1.31250E+01 1.98175E+01-1.62273E+00 1.17862E-01
 -1      2971-8.58043E+00-6.07142E+01-7.00769E+00-7.71668E-01-1.73981E-01-1.75007E+00
 -1      2972-8.16195E+00-6.43258E+01-8.79823E+00-6.24533E+00 1.99498E+00-2.35562E+00
 -1      2973-1.53168E+01-4.34394E+01-6.02509E+00 1.82193E+01 1.00778E-01 8.69256E-01
 -1      2974-1.25422E+01-6.35233E+00-1.71330E+00-1.10051E+00 6.76231E-01 4.89226E-01
 -1      2975-5.70444E+00-6.14457E+00-1.78069E-01-9.54681E-02-1.11712E+00 2.67208E-01
 -1      2976-2.83566E+00-7.59696E+00 2.22782E+00-1.64529E+00-7.26013E-01-8.02371E-02
 -1      2977-1.22397E+01-2.44015E+01-9.46539E+00 5.12137E+00 4.75855E-01 2.95368E+00
 -1      2978-1.00221E+01-2.74189E+01-7.13130E+00-1.50145E+01 3.47142E+00 3.50115E-02
 -1      2979-7.38133E+00-3.09317E+00 1.65998E+00-1.32489E+00-1.44730E-01-1.16411E+00
 -1      2980-2.31094E+00-5.71613E+00 6.57466E-01-1.32181E+00-1.52596E+00-5.23824E-01
 -1      2981-3.04994E+01-3.24340E+01-9.59464E+00-2.60953E+01-9.33342E-01-2.51120E+00
 -1      2982-2.71345E+01-3.06941E+01-1.32737E+01 2.16839E+01-2.50742E+00 4.68689E+00
 -1      2983-1.05491E+00-5.05916E+00 3.65638E+00 1.03933E+00 1.22076E+00-1.13492E+00
 -1      2984-5.35471E+01-1.00605E+01-1.01518E+01-1.07561E+01-2.31340E+00 1.93318E-01
 -1      2985-1.86980E+01-1.14425E+01-6.33012E+00 1.10308E+01-7.76820E-01 6.07941E-01
 -1      2986-5.92845E+01-1.17958E+01-1.04078E+01 2.05760E+01-1.52951E+00 4.66009E+00
 -1      2987-1.14327E+01-1.11036E+01 2.35603E+00-5.44009E-01-1.82057E+00-1.47497E-02
 -1      2988-4.96244E+01-1.79841E+00-6.57476E+00-4.69134E+00 1.54070E+00-6.43199E-01
 -1      2989-2.42117E+01-2.15182E+01-9.37786E+00-2.06792E+01 2.66774E+00 1.73748E+00
 -1      2990-7.47750E+01-1.33897E+01-1.00314E+01-1.66837E+01-2.11444E+00 2.18654E-01
 -1      2991-2.16965E+01-2.36548E+01-3.95504E+00-2.28811E+01-1.93269E+00 3.52993E+00
 -1      2992 6.43377E+00 1.00879E+01 2.37209E+00 5.62165E-01 8.56322E-01 1.11438E+00
 -1      2993-2.44784E+01-1.17353E+01-7.32472E+00-1.40600E+01 4.97324E-01-6.75834E-01
 -1      2994-1.84848E+01-8.53509E+00-8.43353E+00-3.51151E+00-1.71694E+00 9.39938E-01
 -1      2995-2.36497E+01-3.71518E+01-6.55624E+00-2.46338E+01 2.38793E-01 6.13564E-01
 -1      2996-1.11500E+01-3.32168E+01-6.53654E+00-1.59397E+01 3.65898E+00 6.82270E-01
 -1      2997-5.69268E+01-6.05974E+00-4.62326E+00 6.61924E-01 3.46435E-01-1.13478E+00
 -1      2998-6.72711E+00-9.07220E+00-5.19065E-01-5.22273E-01-5.92468E-01-1.73898E-01
 -1      2999-4.33789E+00-5.64714E+01-1.07945E+01-2.46045E+00-3.14381E+00-1.33467E-01
 -1      3000-6.23479E+00-2.16166E+01-5.07942E+00-7.11859E+00-2.47807E-01-6.85318E-01
 -1      3001-2.18778E+01-1.80919E+01-4.42016E+00 1.38386E+01 9.57125E-01-8.12767E-01
 -1      3002-3.56541E+01-4.04629E+00-8.48163E+00 4.71854E+00-2.71913E-01-8.08749E-01
 -1      3003-8.43890E+00-2.88119E+01-9.61316E+00 5.69739E+00-1.99838E+00 1.49851E+00
 -1      3004-3.02457E+01-2.63546E+01-1.03796E+01 2.08931E+01-1.25067E+00 9.33120E-01
 -1      3005-6.48944E+00-3.59651E+01-9.34314E+00-8.10847E+00 2.45802E+00 1.45109E+00
 -1      3006-2.85153E+01-8.33748E+00-1.29664E+01-5.57729E+00 3.69341E+00 3.43120E+00
 -1      3007-3.94068E+01-7.90732E+00-1.04178E+01-1.66468E+00 3.66055E-01-1.65970E+00
 -1      3008-4.38722E+00-3.19010E+01-4.01389E+00-1.55086E+01-2.66794E+00 2.33794E+00
 -1      3009-5.55846E+01-3.40663E+01-5.94837E+00 3.43384E+01 1.68248E+00 1.94047E+00
 -1      3010 1.66248E+00-1.15324E+01 2.12911E+00-5.23115E+00 1.26213E+00-9.04734E-01
 -1      3011-6.53137E+00-3.17279E+01-8.28535E+00-7.34581E+00-1.53072E+00-3.00342E-01
 -1      3012 1.42763E+01 1.56540E+01 2.38595E-01 6.17612E-01 1.14467E+00-1.69241E+00
 -1      3013-4.70500E+01-4.72691E+00-7.45606E+00-6.22240E+00 2.37943E+00 1.32235E+00
 -1      3014 7.17103E+00 9.26935E+00 8.42012E-01 1.76499E+00-8.49523E-03-1.39326E+00
 -1      3015-5.68913E+00-4.90257E+00 2.15432E+00 2.06527E+00-5.18941E-01 5.76134E-01
 -1      3016 6.48155E+00 5.37717E+00 1.19537E+00 4.20533E-01-5.55007E-01-8.49093E-01
 -1      3017-2.06014E+01-1.00342E+01-7.77189E+00 1.19853E+01 1.68194E-01 1.28295E+00
 -1      3018-1.87846E+01-1.50742E+01-3.87460E+00-2.10468E+00-6.81995E-01 6.95132E-01
 -1      3019-4.42674E+01-1.81919E+01-8.50128E+00-2.16499E+01 2.89515E-01 1.05586E+00
 -1      3020-1.20332E+01-7.41480E+00-2.94743E+00-6.52442E+00 1.36966E+00-6.86132E-01
 -1      3021-4.55938E+00-3.32010E+01-1.01222E+01-5.51329E+00 4.29184E+00 3.48621E+00
 -1      3022-2.06922E+01-1.60084E+01-9.92195E+00-1.64113E+01 2.62767E+00-6.72777E-01
 -1      3023-4.90813E+00-3.52667E+01-6.70581E+00 3.52375E+00-7.45117E-01-4.80992E-01
 -1      3024-5.83609E+00-4.43473E+01-7.71231E+00-6.08377E+00-4.86079E-01-1.17949E+00
 -1      3025-1.55953E+01-3.38116E+00-1.06255E+00-1.36673E+00 1.57348E+00-4.58363E-01
 -1      3026-6.74833E+01-1.92354E+01-8.60124E+00-2.71882E+01-2.10787E+00-4.95676E-01
 -1      3027-6.27088E+00-4.08981E+00 2.86818E+00-9.45909E-01-1.20515E+00-1.58871E-01
 -1      3028-2.15940E+01-1.90658E+01-7.03748E+00-1.74295E+01-1.58805E+00-3.05531E+00
 -1      3029-5.55529E+00-9.23839E+00-1.73385E+00 4.65228E-02-1.17146E+00-9.88445E-01
 -1      3030-1.61815E+01-4.66053E+01-9.01348E+00 2.21445E+01 3.70578E+00-2.79296E-01
 -1      3031-2.67692E+01-3.01106E+01-7.70516E+00-2.13721E+01-1.52300E-01-9.65963E-01
 -1      3032-7.40048E+00-9.22207E+00-3.81272E+00-6.48276E+00 2.47074E+00-2.14196E+00
 -1      3033-7.38168E+00-1.30910E-01 2.18861E+00-2.39364E+00-6.99592E-01-1.05036E-01
 -1      3034-9.55446E+00-5.86528E+01-1.25361E+01 1.70735E+01 9.26922E-01-1.48559E+00
 -1      3035-5.48240E+01-7.31005E+00-4.01018E+00-1.26454E+01-5.65475E+00 4.43484E-01
 -1      3036-4.16767E+01-1.84047E+01-1.00769E+01 1.97828E+01 3.61845E-01 8.71016E-02
 -1      3037-1.13025E+01-3.02837E+01-4.49694E+00-1.80342E+01 2.72926E+00-4.77569E-01
 -1      3038-7.70223E+00-2.08146E+01-7.96806E+00-4.17073E-01 1.91539E+00-2.51340E+00
 -1      3039-2.93622E+00-5.22055E+01-1.11507E+01-4.04779E+00-2.04092E+00 3.15164E+00
 -1      3040-5.51324E+00-2.85910E+01-9.00785E+00-3.42924E+00 1.57901E+00-2.26715E+00
 -1      3041-1.82250E+01-9.05513E+00-8.84090E+00 4.41719E-01 4.35084E+00-2.06369E-01
 -1      3042-6.23177E+00-3.43071E+01-1.21415E+01 7.18716E+00 4.42130E+00-3.62605E+00
 -1      3043-6.85426E+00-2.13944E+01-8.61620E+00-5.81279E+00-5.80442E-01-3.78142E+00
 -1      3044-2.29123E+01-2.00889E+01-9.90301E+00-1.83744E+01 2.94122E+00 1.44150E+00
 -1      3045-9.34713E+00-6.51661E+01-7.03346E+00-1.82585E+01 1.68055E+00-1.66771E+00
 -1      3046-4.93248E+01-2.88329E+01-9.91245E+00-3.43848E+01 8.67846E-01 6.75196E-01
 -1      3047-5.54024E+00-2.95657E+01-8.75122E+00 2.17151E+00-7.09679E-01-8.02246E-01
 -1      3048-8.77101E+00-4.81747E+01-5.25704E+00 1.38573E+01 3.87859E-01-7.11917E-01
 -1      3049-4.54597E+00-6.29431E+00 5.93774E-01-2.59720E+00 3.94507E-01-3.75109E-01
 -1      3050-4.24720E+01-9.23258E+00-8.65091E+00-1.43096E+01 1.23495E+00-1.29068E+00
 -1      3051-2.87120E+01-6.84380E+00-9.47643E+00-1.17521E+01 2.70884E+00 2.86345E+00
 -1      3052-3.42807E+01-9.91495E+00-6.22273E+00 1.11163E+01 7.55853E-01-2.68530E-01
 -1      3053-6.23575E+00-4.75858E+00 2.76429E+00-3.17781E+00 1.75344E+00-6.67873E-01
 -1      3054 3.89238E+00-1.34600E+01 3.73796E-01 5.64381E+00 1.75444E-01 2.06739E+00
 -1      3055-7.42765E+01-1.11999E+01-1.49529E+01-1.49432E+01-7.72610E-01-5.07863E-01
 -1      3056-1.50735E+00-2.35957E+01-1.00660E+01-1.57017E+00-2.65537E+00 2.81564E+00
 -1      3057-7.73669E+00-4.13104E+00 1.48705E+00-1.10602E+00-5.90513E-01-8.42985E-02
 -1      3058-9.02820E+01-5.06138E+00-5.72473E+00 6.33557E+00-1.14314E+00 2.48237E+00
 -1      3059-4.95338E+00-3.73040E+01-1.00801E+01-4.26519E+00 5.31841E+00-1.89300E+00
 -1      3060-2.74444E+01-1.39038E+01-1.16397E+01 1.50909E+01-2.42039E+00-1.63791E+00
 -1      3061-6.26566E+00-6.31116E+01-9.27523E+00 3.30330E+00-1.64370E+00-1.32974E+00
 -1      3062-2.89647E+01-3.79809E+01-1.16754E+01-2.47805E+01-1.48679E+00 3.02156E+00
 -1      3063-2.00569E+01-9.82369E+00-9.72140E+00-7.40518E+00-2.32984E+00 3.65130E+00
 -1      3064-1.57091E+01-5.14710E+00-6.04438E+00-4.53196E+00 2.63169E+00-7.56507E-01
 -1      3065 9.94786E-01-1.75905E+01 1.56934E+00-1.10872E+01 6.67356E-01 1.22462E+00
 -1      3066-8.76038E+01-1.33737E+01-1.33346E+01-1.19323E+01 1.72384E+00-3.98710E-01
 -1      3067-1.34959E+01-3.59053E+01-7.63789E+00-1.71347E+01-3.21482E+00-5.70188E-01
 -1      3068-5.91123E+00-5.38373E+00 1.91818E+00-3.77623E-01 1.00502E+00 9.04064E-01
 -1      3069-2.37364E+01-1.28425E+01-9.14637E+00-1.18667E+01-9.35517E-02 1.22637E+00
 -1      3070-9.74098E+00-5.55326E+00-2.40186E+00 5.09217E+00-1.34981E+00-2.16134E+00
 -1      3071-4.68731E+01-2.57368E+01-1.02752E+01 1.99249E+01 1.29701E+00 2.68573E+00
 -1      3072-6.28446E+01-6.64585E+00-1.18453E+01 1.55770E+01-2.10059E+00 1.67244E-02
 -1      3073-8.43142E+00-4.11394E+01-1.14008E+01 8.25401E+00 1.06998E+00-5.41647E-01
 -1      3074-1.80450E+01-6.82461E+00-9.87417E+00 6.90026E+00-3.00690E+00-2.22282E+00
 -1      3075-4.57155E+01-2.03872E+01-1.22400E+01 2.24790E+01 8.97958E-01-2.31924E+00
 -1      3076-7.19653E+01-3.82689E+00-1.11150E+01 2.71037E+00 3.26440E+00-4.49375E-02
 -1      3077-2.89160E+01-3.35104E+01-7.06633E+00 2.19295E+01-9.95600E-01 1.67685E-01
 -1      3078-4.26127E+01-3.63993E+00-3.75905E+00 3.08986E+00-2.31657E+00-6.19932E-01
 -1      3079-1.37554E+01 1.44242E+00 2.21447E+00 5.22643E+00-1.17125E-01-1.22347E+00
 -1      3080-3.92552E+01-1.88034E+01-9.17059E+00 2.55882E+01 1.14666E+00-5.55989E-01
 -1      3081-1.25431E+01-2.00940E+01-8.37275E+00-1.20858E+01 1.25962E-01 1.98672E+00
 -1      3082-1.87276E+01-1.18654E+01-9.13364E+00-1.08328E+01 2.56055E+00 2.32951E-01
 -1      3083-8.97464E+00-8.54453E+00-7.12093E-01 8.51640E+00 7.64208E-01-1.53048E+00
 -1      3084-2.00312E+01-1.93851E+01-8.16540E+00-1.56670E+01-2.92033E+00-1.79565E+00
 -1      3085-1.14652E+01-1.70747E+01-9.30129E+00 6.08160E+00 1.98758E+00 2.64152E+00
 -1      3086-4.93273E+01-9.58378E+00-8.17497E+00-1.32061E+01-4.68772E-01-1.07747E+00
 -1      3087-2.13583E+01-5.47066E+00-4.57475E+00-8.38830E+00-1.54644E+00 4.96858E-01
 -1      3088 1.07784E+01 1.08034E+01 5.86807E-01-2.66328E-01 1.42537E+00-1.06805E+00
 -1      3089-3.28922E+01-2.80261E+00-1.21254E+01 4.88134E+00-2.11566E+00-3.09216E+00
 -1      3090-4.47997E+01-3.55781E+01-8.05828E+00-3.48225E+01 3.21291E+00 4.21968E-01
 -1      3091-8.09945E+00-2.99892E+00 7.19320E-01 7.59484E-01-1.75172E+00-1.22844E+00
 -1      3092-9.88347E+00-2.01670E+01-1.10445E+01-1.09083E+01-3.56537E+00-7.36320E-02
 -1      3093-3.47946E+01-1.42306E+01-1.08998E+01 1.70115E+01 7.73036E-01 3.19375E+00
 -1      3094-2.04054E+01-6.01894E+01-6.34804E+00-3.05569E+01-1.73173E+00 1.79026E+00
 -1      3095-2.59653E+01-3.63784E+01-1.15470E+01-2.50720E+01-1.17092E+00-1.24772E+00
 -1      3096-8.53000E+00-7.58233E+01-8.96111E+00 9.84173E+00-1.86455E+00-3.20044E+00
 -1      3097 6.21954E+00 5.41390E+00 1.80524E+00-1.66377E-01 2.60211E+00-1.17207E+00
 -1      3098-5.95203E+01-6.65365E+00-1.51318E+01-9.05365E+00-1.64235E+00 1.27577E+00
 -1      3099-5.20592E+01-2.65850E+01-1.43028E+01-2.42528E+01 7.96780E-01-1.97972E+00
 -1      3100-6.84696E+00-5.75759E+01-1.12290E+01-7.47972E+00-4.19757E+00 6.13804E-02
 -1      3101-1.03139E+01-2.42701E+01-9.05698E+00 1.00739E+01 3.39712E-01 3.44728E+00
 -1      3102-6.17690E+00-6.36389E+01-1.35294E+01-3.29971E+00-5.76012E-01 1.25827E+00
 -1      3103-4.32377E+01-7.04559E+00-1.14045E+01 8.61748E+00-2.40039E+00 2.70119E+00
 -1      3104-9.28347E+00-4.57771E+01-1.17564E+01-1.10930E+01 6.68065E-02 5.32415E-01
 -1      3105-6.28378E+00-3.50566E+01-8.37002E+00-6.37360E+00 3.73885E-01 7.87970E-01
 -1      3106-1.69940E+01-2.21011E+01-1.02183E+01-1.65422E+01-2.77566E-01-3.33512E+00
 -1      3107-2.07364E+01-2.53862E+01-9.36525E+00-1.85024E+01-7.24838E-01-9.37998E-01
 -1      3108-1.12213E+01-6.57829E+01-1.34536E+01-1.48190E+01 6.47434E-01-2.35358E+00
 -1      3109-4.40364E+01-2.11520E+01-9.13695E+00-2.03603E+01 3.30348E-01 5.66032E-02
 -1      3110-6.19718E+00-4.88530E+01-8.18716E+00 5.98695E+00-1.60716E+00-7.97039E-01
 -1      3111 1.52352E+00-1.33773E+01-5.79501E-01-2.41029E+00 3.75625E-01-1.53752E+00
 -1      3112-6.33029E+01-1.20814E+01-7.51538E+00 1.60481E+01-2.26423E+00-2.58483E+00
 -1      3113-6.94268E+00-2.43138E+00 3.73583E-01-3.73915E-02-5.54689E-01-1.32231E+00
 -1      3114-5.24628E+00-3.80760E+01-8.35854E+00-6.93616E+00 9.26190E-01 8.97904E-01
 -1      3115-2.95094E+00-9.13633E+00-6.45878E-01-7.13005E+00 2.29287E-01-1.15432E+00
 -1      3116-5.36152E+01-2.04521E+01-1.14333E+01 2.39100E+01-8.88838E-01-2.90081E+00
 -1      3117-1.03267E+01-5.81987E+01-9.17725E+00-1.34283E+01-7.27836E-01 4.15896E-02
 -1      3118-3.31485E+01-2.14823E+01-1.14874E+01 2.17325E+01 2.34634E+00-4.14428E-01
 -1      3119-5.12947E+00-3.33768E+01-5.18205E+00-9.14375E+00-7.62455E-01-8.43603E-01
 -1      3120-2.52044E+01-6.43054E+00-1.01618E+01 5.27431E+00 2.15648E+00 1.60857E-01
 -1      3121 3.14539E+00-1.63982E+01 5.26985E-01 1.47483E+00 1.00187E+00-2.38899E+00
 -1      3122-2.54142E+01-6.39551E+00-6.17035E+00-5.06525E+00 1.26330E+00-6.70415E-02
 -1      3123-2.32469E+01-5.74103E+00-8.39126E-01-1.22037E+01-1.25701E+00 8.12703E-02
 -1      3124-2.39496E+01-8.82642E+00-8.90100E+00 2.58475E+00 2.94197E+00 1.21979E+00
 -1      3125-3.02226E+00-3.25175E+01-9.25526E+00-1.73074E+00-2.52041E+00 1.68863E-01
 -1      3126-8.27364E+00-1.78800E+01 2.03172E+00 1.18443E+01-3.69095E+00-1.81971E+00
 -1      3127-1.55451E+01-5.35733E+00-4.61816E+00-5.79291E+00-2.14532E+00 1.10015E+00
 -1      3128-4.38297E+00-3.15023E+01-1.22242E+01-5.85806E+00 2.24350E+00 3.34211E+00
 -1      3129-1.50829E+01-1.35646E+01 1.12299E+00-4.66063E+00-2.49652E+00 4.10256E-01
 -1      3130-4.73388E+00-3.28538E+01-5.86470E+00-6.40226E+00 5.18878E+00 3.88283E+00
 -1      3131-1.32534E+01-3.42283E+00-2.03436E+00 1.15265E+00 8.75383E-01 8.20315E-03
 -1      3132-4.30218E+00-2.96572E+01-9.57326E+00-9.52477E+00-2.47256E+00-3.60079E+00
 -1      3133-5.36494E+00-4.33824E+01-7.10949E+00 1.18003E+01-6.80588E-01-1.43370E+00
 -1      3134-2.58455E+01-4.29656E+01-1.27918E+01 2.70733E+01-1.44660E+00 3.37778E+00
 -1      3135-4.13612E+01-1.99341E+01-1.12949E+01 1.87890E+01-2.15682E-01 3.96787E+00
 -1      3136-1.88651E+01 2.56689E+00-2.12638E+00-9.69862E-01 2.67176E+00-5.51189E-02
 -1      3137-1.23933E+01-3.26109E+01-8.30238E+00-1.67358E+01-2.22637E+00 1.07323E+00
 -1      3138-7.76079E+01-1.33556E+01-1.00161E+01-1.99352E+01-4.91566E+00 1.42374E+00
 -1      3139 4.10474E+00 5.80579E+00-2.68097E-01-1.01851E+00-2.69696E-01-1.81209E+00
 -1      3140-3.55462E+01-5.73165E+00-1.03859E+01 1.13542E+01 1.51141E+00-6.95052E-01
 -1      3141-5.44755E+00-4.26681E+01-1.10407E+01-4.13214E+00-3.36817E+00 1.73566E+00
 -1      3142-6.20697E+01-7.21911E+00-1.15961E+01 1.02971E+01-9.83560E-01-1.69755E+00
 -1      3143-9.48421E+00-7.13785E+01-1.37856E+01-1.04010E+01-3.38449E+00 9.86023E-01
 -1      3144 5.09995E+00 3.85617E+00-5.56077E-01 1.54901E+00-7.29841E-01 5.62598E-01
 -1      3145-8.94634E+00-5.80569E+01-5.31406E+00 1.60750E+01 2.67741E-01 2.99581E+00
 -1      3146-7.81319E+01-1.60689E+01-6.64421E+00 2.36472E+01-8.41286E-01-2.54117E+00
 -1      3147-1.92859E+01-6.31955E+00-8.97478E+00 2.42106E+00-1.95289E+00 8.58604E-01
 -1      3148-4.80295E+01-2.78533E+01-1.11509E+01-3.32011E+01-1.70974E-01-3.66820E-01
 -1      3149-8.92791E+00-4.86436E+01-8.59672E+00-1.10924E+01 1.21031E+00 1.07862E+00
 -1      3150-5.96571E+01-1.78623E+01-6.17336E+00-2.60125E+01 1.16619E+00 8.23353E-01
 -1      3151-6.38617E+01-2.23890E+01-6.01340E+00-3.00919E+01 2.34697E+00-4.87389E-01
 -1      3152-2.63828E+01-8.80986E+00-8.38789E+00 1.31087E+01 3.72331E-01-4.63340E+00
 -1      3153-1.24250E+01-2.32509E+01-1.32410E+01 3.96328E+00 3.45088E+00-3.80441E+00
 -1      3154-9.80315E+00-4.57634E+01-9.21645E+00-1.05137E+01 1.71984E+00 1.70468E+00
 -1      3155-3.26115E+01-4.15867E+00-8.34058E+00-2.61110E+00-6.70234E-01 7.52674E-01
 -1      3156-9.01674E+00-5.04460E+00 1.86389E+00-4.60700E-01 3.12690E-01-7.37009E-01
 -1      3157-3.44208E+00-1.85734E+01-8.06564E+00 1.82361E+00 2.40243E-01-3.20895E+00
 -1      3158-7.65760E+01-9.14567E-01-8.69636E+00 4.35451E+00-5.64353E-01-8.20490E-01
 -1      3159-1.31008E+01-1.45973E+01-4.97863E+00 1.40271E+00 2.71105E-02 1.10379E+00
 -1      3160-4.98266E+01-2.10906E+00-8.76619E+00 2.03131E+00-3.95943E-01-1.27956E+00
 -1      3161-4.92787E-01-2.07337E+01-5.17889E-01-1.83475E+00 1.58110E-01-2.31073E+00
 -1      3162-8.68114E+00-4.74842E+00-4.82802E-01 1.14068E+00-1.78772E+00 2.21937E+00
 -1      3163-9.52785E+00-1.75575E+01-7.95797E+00 6.31813E+00 3.08805E-01 1.26901E+00
 -1      3164-4.25324E+00-2.67734E+01-8.82590E+00 4.65559E+00-1.75729E+00-2.04941E+00
 -1      3165-1.28615E+01-6.56362E+01-1.43377E+01 1.82469E+01-1.79285E+00 5.09385E+00
 -1      3166-3.33891E+01-4.50997E+00-1.01338E+01 4.22725E+00 2.05422E+00 2.59998E+00
 -1      3167-1.69350E+01-4.42094E+01-1.08485E+01 2.02855E+01 9.58773E-01 1.27074E+00
 -1      3168-2.50535E+01 3.02139E+00 2.12921E+00-1.13054E+01 1.09583E+00-4.71621E-01
 -1      3169 5.35281E+00 4.83785E+00 1.13301E+00-1.30510E+00 1.07975E+00 1.31552E-01
 -1      3170-6.94385E+00-2.20426E+01-8.82631E+00 3.82960E+00-5.23024E-01 3.64915E+00
 -1      3171-1.72304E+01-6.66466E+01-5.65890E+00-2.70745E+01-1.14343E+00 7.54625E-01
 -1      3172-1.95428E+00-3.04052E+00 2.18561E+00 4.28153E-01-9.89694E-01 2.19965E+00
 -1      3173-6.32897E+00-3.39329E+00 8.72017E-01 2.50751E+00 4.30062E-01 9.85103E-01
 -1      3174-7.22117E+00-3.86330E+01-1.02580E+01-9.02311E+00-1.36518E+00-2.17349E+00
 -1      3175-1.12788E+01-2.37468E+01-1.01126E+01 1.00865E+01 1.54403E+00 1.40450E+00
 -1      3176-2.28132E+00-9.53871E+00-1.75013E+00 8.81924E+00-1.36801E-01 1.46038E+00
 -1      3177-3.64059E+01-1.29053E+01-7.96513E+00 1.84784E+01 9.28061E-01-1.14344E+00
 -1      3178-3.13695E+01-3.51541E+00-7.21966E+00-2.27086E+00-2.00375E+00 1.89344E+00
 -1      3179-2.88291E+01-1.55870E+01-8.57901E+00-1.52479E+01-4.14615E-01 2.43895E+00
 -1      3180-1.29067E+01-3.16335E+01-5.23268E+00-1.52048E+01 6.12135E-02 5.64991E-01
 -1      3181-1.23514E+01-9.18169E+00-3.96028E+00 1.10893E+01-2.83439E+00-1.54702E+00
 -1      3182-2.12823E+01-4.50581E+01-1.35292E+01-2.21164E+01-1.71615E+00 1.08627E-01
 -1      3183-1.62837E+01-1.31618E+01-4.56198E+00-1.12731E+01-7.64017E-01 3.57279E-01
 -1      3184-4.49796E+01-1.84673E+01-8.67161E+00 2.30038E+01-2.07764E+00-6.26961E-01
 -1      3185-8.18473E+00-1.18485E+01-1.37423E+00-7.60449E-01-2.34069E-01 2.56710E-01
 -1      3186-1.88613E+00-3.79606E+01-1.07328E+01 2.40452E+00 1.84180E+00 2.38692E+00
 -1      3187-4.78849E+01-1.66635E+01-4.97246E+00 2.07430E+01 1.51129E+00 3.04408E-01
 -1      3188-1.07762E+01-2.88403E+01-6.87903E+00-1.40269E+01-8.28596E-01-2.38920E+00
 -1      3189 8.53914E+00 6.97215E+00 2.08761E+00 1.79130E-01-2.83486E+00-1.07079E-01
 -1      3190-1.72727E+01-4.64934E+00 3.03784E+00 1.01883E+01 1.96186E+00-1.04280E-01
 -1      3191-5.29073E+01-1.01011E+01-1.07049E+01 1.65081E+01 2.24753E+00-2.65107E+00
 -1      3192-4.28032E+01-8.13205E+00-1.09892E+00 7.42076E+00 3.89375E+00 9.91778E-01
 -1      3193-1.86158E+01-2.75712E+01-1.30167E+01 1.58644E+01-1.38302E+00 4.40444E+00
 -1      3194-2.16919E+00-2.29570E+00 6.09091E-02-3.36207E-01 2.03541E-01 5.01183E-01
 -1      3195-3.29127E+01-3.26606E+00-9.04068E+00 3.98043E+00-1.62023E+00-5.51295E+00
 -1      3196-6.29969E+00-5.51477E+01-1.26201E+01 5.18088E+00 2.07399E+00 4.17302E-01
 -1      3197-1.90396E+01-5.32596E+01-9.54173E+00-2.47838E+01-2.16534E+00 8.90285E-01
 -1      3198-6.08530E+01-1.94907E+01-1.04716E+01-2.69125E+01-3.26599E+00-3.25984E-01
 -1      3199 6.76853E+00 4.17778E+00 3.48339E-01 1.49231E-01-1.00589E+00 2.47254E+00
 -1      3200-3.76847E+00-7.01280E+00 3.71689E+00-7.59997E-01 2.38326E+00-4.21429E-01
 -1      3201-7.85751E+00-3.50858E+00 1.53844E+00-3.16403E+00-1.35038E+00 2.92234E-01
 -1      3202-2.66468E+01-1.95572E+01-6.58158E+00-1.92467E+01-4.62055E-01 9.25339E-01
 -1      3203-3.80842E+01-1.65907E+01-1.03171E+01-1.99261E+01-3.55222E-01 2.21379E-01
 -1      3204-9.02662E-01-5.59185E+00 1.87445E-02-5.88658E+00-1.57075E+00 3.31189E+00
 -1      3205-3.33355E+01-3.10494E+01-3.05205E+00-2.15517E+01-3.50540E+00 3.22483E-01
 -1      3206-5.32606E+01-2.17253E+01-6.64140E+00-2.45734E+01 3.81664E-01-3.44077E+00
 -1      3207-5.06619E+01-7.41755E+00-9.03398E+00-4.14819E+00-1.94453E+00 8.22778E-01
 -1      3208-3.48190E+01-2.82794E+01-1.35194E+01-2.72228E+01 1.06520E+00 3.54427E+00
 -1      3209-6.43182E+00-7.63466E+00-2.88077E+00-3.18587E-01 9.41304E-01 4.43204E-01
 -1      3210-3.70947E+01-1.92744E+01-1.47416E+00-2.02272E+01-4.49300E+00 1.49023E+00
 -1      3211-3.02546E+00-6.45973E+00 1.82578E+00 4.07046E+00-1.08264E+00-2.88101E-01
 -1      3212-5.45673E+00-3.98938E+00 4.27805E+00-1.08602E+00 6.09232E-01 1.91903E+00
 -1      3213-1.36430E+00-4.39333E+01-4.45096E+00-1.54237E+00-1.92092E+00 2.19971E-01
 -1      3214-1.72445E+01-1.12229E+01-9.07784E+00-9.42199E+00-3.09906E+00-1.31941E-01
 -1      3215-5.57677E+01-6.74416E+00-4.79106E+00-1.06344E+01 4.16006E+00-2.91002E+00
 -1      3216-2.44864E+01-5.94050E+01-5.15668E+00 3.15942E+01 2.74048E+00 2.53107E+00
 -1      3217-1.00587E+01-1.26160E+00 2.22176E+00 3.98732E+00 2.73837E+00-9.73099E-01
 -1      3218-2.78999E+01-1.97924E+01-1.00919E+01-1.74238E+01-2.34386E+00-1.41365E+00
 -1      3219-3.32071E+00-4.38709E+01-1.92635E+00 2.73800E+00 1.68843E+00 2.82746E+00
 -1      3220-2.61344E+00-2.02903E+01-2.67575E+00 1.35294E+00-2.66456E-01 1.20675E+00
 -1      3221-1.62252E+01-2.21502E+00-3.05893E+00 8.67752E+00 1.22132E-01 1.65757E+00
 -1      3222-6.12453E+00-2.70608E+01-1.41189E+01-1.52074E+00-3.01755E+00 4.50523E+00
 -1      3223 9.28919E+00 7.92496E+00 2.57952E+00-9.07377E-01 5.76201E-01-8.89114E-01
 -1      3224-1.67444E+01-5.38288E+01-5.27853E+00-1.76182E+01 1.47284E+00-6.77890E-02
 -1      3225-2.58134E+00-1.35077E+01-1.26265E+00 1.28758E+00 4.67050E-01-1.91929E+00
 -1      3226-6.62836E+01-5.06239E+00-8.96101E+00-8.84676E+00 2.85056E+00-1.02619E+00
 -1      3227-1.10421E+01-9.20215E+00 1.98188E+00 9.34963E-01 5.01797E-01-2.78166E+00
 -1      3228-1.81713E+01-1.35245E+01-7.78171E+00 1.13050E+01 1.17190E+00 6.84649E-01
 -1      3229-3.70615E+01-7.72060E+00-9.32161E+00-1.00394E+01 1.04655E+00 1.64353E+00
 -1      3230-3.09094E+01-4.07253E+01-8.91997E+00 3.43946E+01 1.24039E+00 1.43163E+00
 -1      3231-1.12125E+01-3.36223E+01-7.20017E+00 1.53825E+01-2.16549E+00-1.24731E+00
 -1      3232-1.04304E+01-3.28129E+01-7.12659E+00-1.55370E+01-2.65238E+00 1.30345E+00
 -1      3233-1.49140E+01-1.35984E+00 1.85668E+00 6.07839E-01-1.04900E+00 7.41597E-01
 -1      3234-5.53699E+00-7.56267E+00-1.70592E+00 5.61507E-01-1.06083E+00 1.21284E+00
 -1      3235-1.11123E+01-2.30476E+01-6.07967E+00 1.20167E+01 6.12760E-01 2.96726E-01
 -1      3236-2.29348E+01-1.41990E+01-9.39406E+00 1.30100E+01 4.72697E+00-8.86934E-02
 -1      3237-2.49712E+01-3.11013E+00-8.12231E+00-5.93760E+00-7.53839E-01-9.24959E-01
 -1      3238-7.09948E+01-1.72310E+01-8.84398E+00 2.83074E+01-4.71736E-01-5.14067E-01
 -1      3239-3.63064E+01-1.71955E+01-1.17767E+01 1.81951E+01 3.34624E-02-3.90025E+00
 -1      3240-6.88253E+00-3.51074E+01-1.05294E+01 9.80017E+00 4.17428E+00-2.82421E+00
 -1      3241-1.61099E+01-1.82960E+01-2.40336E+00 1.47900E+00-1.50230E-01 4.49370E-01
 -1      3242-1.91160E+01-2.45686E+00-3.45000E+00 8.81376E-01-1.37463E+00-2.91907E-01
 -1      3243-5.47387E+01-3.97727E+01-4.43430E+00-3.58164E+01-2.00772E+00 1.39591E+00
 -1      3244-1.56194E+01-4.17086E+01-1.10744E+01 1.75739E+01-1.62050E+00-3.57933E-01
 -1      3245-1.61204E+01-9.51219E+00-2.05535E+00 1.33025E+00 9.36382E-01-1.30046E+00
 -1      3246-3.92013E+01-7.05850E+00-5.43426E+00-1.02441E+01 2.21508E+00 2.50005E+00
 -1      3247-2.49476E+01-3.27468E+01-7.66462E+00 2.49558E+01 3.73497E+00-1.65760E+00
 -1      3248-2.69756E+01-3.92701E+01-8.72243E+00 3.20456E+01-2.41320E+00-5.95896E-01
 -1      3249-1.38517E+01-4.56842E+01-3.45868E+00 1.79607E+01-6.04983E-01-4.87210E-02
 -1      3250-1.26741E+01-4.87905E+01-6.94806E+00 2.59616E+01-2.15723E+00 7.71887E-01
 -1      3251-5.50085E+00-1.44092E+01-4.23703E+00-5.04697E+00-1.01414E+00-4.74429E-02
 -1      3252 1.39759E+01 7.64925E+00-4.41015E-01 1.24888E+00 1.39548E+00 1.36727E+00
 -1      3253-5.29208E+01-8.01249E+00-3.08087E+00-1.14510E+01 6.13080E+00-3.81580E-01
 -1      3254-9.76127E+00-1.35912E+01-2.83017E+00 9.63872E+00-8.64591E-01 1.62244E+00
 -1      3255-5.88909E+01-1.15223E+01-7.48978E+00-1.67308E+01 4.32053E+00-1.31871E+00
 -1      3256-1.69742E+01-3.55148E+01-8.67953E+00-1.71875E+01 1.50056E+00-4.84125E-01
 -1      3257-2.29332E+01-1.78114E+01-3.83854E+00 1.71314E+01 2.32203E-01-2.53284E+00
 -1      3258-6.44237E+00-6.79868E+01-4.71658E+00 2.05913E+01 3.08989E-01-4.13796E+00
 -1      3259-3.17592E+01-2.38304E+01-8.77369E+00 2.14164E+01-1.75873E+00-1.94303E-01
 -1      3260-1.77835E+01-9.96980E+00-1.10035E+01 2.84232E+00-4.85795E+00 1.22163E+00
 -1      3261-9.73653E+00 2.33089E-01 3.66857E+00-5.80880E+00-3.30231E+00 8.78009E-01
 -1      3262-4.35838E+01-3.45498E+01-1.12085E+01 2.87793E+01-1.89879E+00 6.86100E-01
 -1      3263-1.19284E+01-3.73791E+01-1.13303E+01 9.42426E+00-4.76974E+00 2.24206E+00
 -1      3264-1.00083E+01-4.76919E+01-1.32806E+01 8.57501E+00-3.01136E+00 9.80173E-01
 -1      3265-1.98162E+01-5.40146E+01-6.23545E-01-2.91524E+01 5.02553E-01 4.52431E-01
 -1      3266-1.40708E+01-1.44828E+01-6.98153E-01 3.68532E+00-1.36910E+00 1.51035E+00
 -1      3267-1.10408E+01-6.98863E+01-9.62812E+00 1.94926E+01 1.16360E+00-2.89712E+00
 -1      3268 1.05372E+00-2.56861E+01 8.47709E-01-3.53726E+00-1.31162E+00-1.56074E+00
 -1      3269-2.45821E+01-5.26077E+00-5.38625E+00 8.61650E+00-1.96436E+00 1.60395E-01
 -1      3270-4.77683E+01-2.22882E+01-8.76687E+00-2.54978E+01-2.69770E+00 1.65705E+00
 -1      3271-3.21847E+00-9.32960E+00 1.68586E+00 5.09101E+00 6.24056E-01-1.92609E+00
 -1      3272-2.39975E+00-2.28649E+01 3.04676E+00-7.63182E+00 1.12162E-02 3.00346E+00
 -1      3273-6.97101E+01-7.95119E+00-1.76914E+01 7.29731E+00 1.33001E+00 1.58583E+00
 -1      3274-4.36313E+01-9.37309E+00-1.11518E+01-1.54927E+01-1.54206E+00-1.68770E+00
 -1      3275 6.57183E-01-1.93937E+01 2.91226E-01 5.14116E+00 2.83005E+00 3.01192E+00
 -1      3276-7.57543E+00-6.79515E+00-4.65448E-01-6.10232E+00-1.87221E+00 1.28526E+00
 -1      3277-1.56106E+01-4.43099E+00 3.50298E+00 1.23456E+01-3.67849E+00 5.10978E-01
 -1      3278-4.77799E+01-2.59059E+01-1.10332E+01-2.42244E+01 2.72818E-01-5.52082E+00
 -1      3279-9.93052E+00-1.76599E+01-7.14412E+00-1.02462E+01 2.22552E+00-4.35947E-01
 -1      3280-6.04824E+01-1.06588E+01-1.24140E+01 1.40479E+01 1.91068E+00-3.08431E+00
 -1      3281-1.67148E+01-1.62240E+01-6.64123E+00-5.75291E+00 2.44584E+00-1.67517E+00
 -1      3282-2.72529E+01-2.71238E+00-7.24062E+00 4.42391E+00 5.50995E-01 1.52574E+00
 -1      3283-2.22277E+01-1.11667E+01-1.05598E+01-9.77654E+00-1.75679E+00 5.32297E+00
 -1      3284-5.08534E+00-2.04352E+01-5.71294E+00 2.69284E+00 3.82765E-01 2.92947E+00
 -1      3285-1.47500E+01-1.34443E+01-8.04136E+00-1.16104E+01-3.22639E+00 6.19377E-01
 -1      3286-1.94469E+01-5.87816E+01-1.33923E+01 2.59440E+01 9.97590E-01-2.33665E+00
 -1      3287-3.05693E+01-7.61012E+00-4.46625E+00 1.56369E+01 6.52150E-01 1.60015E+00
 -1      3288-2.26694E+01-3.42952E+01-1.16965E+01 2.34214E+01-1.88346E+00 1.52546E+00
 -1      3289-3.98311E+01-7.50781E+00-1.15375E+01 1.27601E+01 1.54443E+00-1.87865E-01
 -1      3290-3.65068E+00-2.13141E+01-3.68741E+00-9.60969E+00-2.70687E+00 2.04580E+00
 -1      3291-6.34756E+00-2.71887E+01-8.09349E+00 6.92926E+00-2.96862E+00 3.68096E+00
 -1      3292-2.96696E+00-4.00851E+01-1.05155E+01 1.20658E+00 2.37967E+00 1.63385E+00
 -1      3293-2.23250E+00-1.70245E+01-4.64017E-03 2.77390E+00-1.46127E+00-3.36865E-01
 -1      3294-9.09275E+00-1.06996E+01 1.43188E+00 1.35347E+00 1.99869E+00 1.00111E+00
 -1      3295-4.28331E+01-1.94448E+01-4.66607E+00 2.05333E+01 1.50165E+00-1.68806E+00
 -1      3296-2.78297E+00-1.21503E+01-4.17860E+00 6.29861E+00-6.61846E-01-2.38939E+00
 -1      3297-3.86818E+01-2.28206E+01-6.84363E+00 2.25984E+01-2.57572E+00-2.57283E-01
 -1      3298-6.19559E+00-2.02082E+01-7.10627E+00 7.58375E+00 1.95025E+00 3.69354E+00
 -1      3299-1.04414E+01-1.99962E+01-1.09560E+01 1.13930E+01 5.12809E+00 1.87464E+00
 -1      3300-9.22558E+00-5.28397E+00 1.70948E+00 9.37494E+00-5.22520E-02 2.21932E+00
 -1      3301-3.41052E+01-2.96216E+01-1.07819E+01 2.78754E+01 3.38763E+00-3.61571E+00
 -1      3302-8.14327E+00-1.06834E+01-2.67143E+00 2.77465E+00-3.18659E-01 7.40050E-01
 -1      3303-8.42769E+00-8.64665E+00-2.50093E+00-1.78973E+00 1.23763E-01 4.16873E-01
 -1      3304-8.46516E+00-5.97466E+01-4.27606E+00-1.13457E+01-2.05127E+00 4.29562E+00
 -1      3305-2.70945E+01-1.78597E+01-1.12431E+01 1.52157E+01 4.93124E+00-2.44120E+00
 -1      3306-4.66079E+01-2.04303E+01-7.34090E+00 1.94291E+01 2.17226E+00 3.05594E-01
 -1      3307-2.81347E+01-4.87137E+01-8.74632E+00 3.46929E+01-2.16879E+00-6.04732E-01
 -1      3308-2.43697E+01-1.19584E+01-6.78030E+00 1.20080E+01-2.14411E+00-7.98136E-01
 -1      3309-1.42283E+01-1.34677E+01-1.24185E+01-6.41501E+00-3.30170E+00 2.57432E+00
 -1      3310-3.17956E+01-5.05853E+00-4.47269E+00-1.31564E+01 2.29592E-01-7.02242E-01
 -1      3311-6.19239E+00-3.30129E+01-1.41663E+01 6.64621E+00 4.13800E+00-4.63319E+00
 -1      3312-5.78358E+00-2.34018E+01-7.97346E+00 9.47520E-02 2.49054E+00-2.04932E+00
 -1      3313-1.55327E+01-5.65678E+01-1.00409E+01 2.53318E+01-3.09707E+00-4.48540E-01
 -1      3314-3.68848E+01-5.12916E+01-5.46649E+00 3.92731E+01 8.77692E-01-3.15150E-01
 -1      3315-2.52532E+01-1.34096E+01-1.37613E+01 1.19590E+01 5.18122E+00-1.19329E+00
 -1      3316-1.52485E+01-4.21138E+01-9.71075E+00-1.73483E+01 3.43378E+00-1.32863E-01
 -1      3317-2.69618E+00-8.71886E+01-5.89608E+00-7.96659E+00-4.30435E-01 1.35412E+00
 -1      3318-7.02507E+00-5.93899E+00 1.21349E-01 2.11888E+00 8.53748E-01-1.99119E-01
 -1      3319-7.88895E+00-6.96264E+01-3.15607E+00 1.22731E+01 8.46609E-01-1.43759E+00
 -1      3320-1.02777E+01-4.70354E+01-8.74910E+00 9.89599E+00-1.41971E+00-1.03110E+00
 -1      3321-7.73684E+00-2.39742E+01-1.13159E+01 2.51060E+00 4.13568E+00 4.37795E+00
 -1      3322-4.06301E+01-2.16917E+01-8.13240E+00-2.11675E+01 3.71586E-01-4.94842E-01
 -1      3323-1.14044E+01-9.10469E+00-2.72022E+00 5.57987E-01 1.54982E+00-3.80070E-01
 -1      3324-1.19381E+01-2.11350E+01-5.59705E+00-1.44044E+01-2.18539E+00 7.12002E-01
 -1      3325-5.39395E+01-1.06584E+01-1.08194E+01 1.83548E+01-1.61016E+00-4.54432E+00
 -1      3326-7.00232E+00-2.98137E+00 1.73284E+00 3.38374E+00 1.10940E+00-7.19306E-02
 -1      3327-2.17059E+01-2.87382E+01-1.08769E+01 1.85112E+01-1.02672E-01 3.25083E+00
 -1      3328-3.33286E+01-2.59390E+01-1.19232E+01-2.58564E+01 2.35841E+00 3.02988E+00
 -1      3329-1.39253E+01-3.43979E+01-8.84431E+00-1.69701E+01-9.80635E-01 2.40993E+00
 -1      3330-2.05142E+01-1.11303E+01-8.19253E+00 1.03681E+01 1.10828E+00 2.86624E+00
 -1      3331-3.38251E+00-2.70086E+01-7.63545E+00-1.64595E+00 2.30804E+00 3.63246E+00
 -1      3332-5.14823E+01-3.16597E+00-6.61042E+00-3.91151E+00-1.96941E+00-2.48010E-01
 -1      3333-2.69694E+01-3.25114E+01-7.60229E+00 2.58228E+01-1.24651E+00-3.23223E+00
 -1      3334-7.06665E+00-1.71836E+01 1.86481E+00-1.14757E+01 4.66942E-01-4.19640E+00
 -1      3335-1.14668E+01-3.42394E+00-1.57769E+00 9.12529E+00 1.66729E+00 5.26005E-01
 -1      3336-2.68237E+01-1.37007E+01-9.19142E+00 1.57110E+01-1.15737E+00 1.30797E+00
 -1      3337 1.02762E+01 6.96991E+00 1.78569E+00-1.33839E+00 1.39204E+00 4.36472E-02
 -1      3338-4.71544E+01-5.59427E+00-9.69693E+00-4.91652E+00 1.81470E+00-3.33604E+00
 -1      3339-4.21082E+00-3.35407E+01-1.12927E+01 4.79688E+00 3.78745E+00 3.17090E+00
 -1      3340-5.66779E+01-3.46157E+00-5.12698E+00-4.88017E+00 5.71467E-01-1.05479E+00
 -1      3341-1.85374E+01-3.57650E+01-7.58796E+00 2.41067E+01 1.56401E+00-2.05358E+00
 -1      3342-8.28153E+01-7.02858E+00-1.27850E+01 8.05027E-01-2.14665E+00 1.85121E+00
 -1      3343-2.22078E+01-8.58089E+00-1.45289E+01 1.16598E+00-5.73630E+00 4.35594E+00
 -1      3344-4.22020E+01-3.30763E+00-1.12464E+01-4.47782E+00-1.17358E+00 7.12489E-01
 -1      3345-2.27155E+01-2.53209E+01-1.14439E+01 1.68057E+01 2.40880E+00-1.26376E+00
 -1      3346-3.89076E+01-1.43233E+01-1.02446E+01-1.82979E+01 8.55271E-01-1.26670E+00
 -1      3347-6.51817E+00-8.74772E+01-3.86622E+00-3.61953E+00 3.57249E+00 2.55293E+00
 -1      3348-1.80224E+01-1.29237E+01-3.50998E+00-2.57682E+00 1.10725E+00 2.83518E+00
 -1      3349-3.19977E+01-4.14905E+01-1.33320E+01 3.17908E+01 1.72943E+00 1.55771E+00
 -1      3350-1.90142E+01-5.46675E+01-5.54610E+00-2.19101E+01 1.48402E+00 3.94719E+00
 -1      3351-5.27901E+01-2.76117E+01-5.95090E+00 3.37906E+01 2.89552E+00 5.00700E-01
 -1      3352-7.48160E+00-8.95560E+00 1.50673E+00-2.66021E+00 1.73385E+00 1.62174E+00
 -1      3353-9.35330E+00-2.69667E+00 7.44393E-01 7.30346E-01 1.92824E-01-5.25406E-01
 -1      3354-1.82099E+01-1.23909E+01-3.26046E+00-1.34672E+01 1.07713E+00-1.81525E+00
 -1      3355-2.00659E+01-2.26449E+01-1.13935E+01 1.71750E+01 2.57797E+00-3.66526E+00
 -1      3356-1.64540E+01-3.79540E+01-9.95160E+00 1.91738E+01-1.43115E+00-5.17522E-01
 -1      3357-4.82095E+01-3.37648E+00-1.06608E+01 3.23655E+00 7.71641E-01 5.40064E+00
 -1      3358-3.00284E+00-3.29397E+01-6.54969E+00-2.06111E+00-8.55671E-01-3.05536E+00
 -1      3359-2.12472E+01-1.81925E+01-6.10887E+00-2.15737E+00 1.76853E+00 2.74874E+00
 -1      3360-1.57727E+01-2.20845E+01-5.95304E+00-1.78040E+01-8.37797E-01 8.29169E-01
 -1      3361-4.08358E+01-1.31880E+01-8.29377E+00 1.84614E+01 7.55602E-01 4.40705E-01
 -1      3362-1.00646E+01-2.39224E+01-8.99137E+00 1.32903E+01-2.02160E+00-5.47077E-01
 -1      3363-3.31792E+01-9.83823E+00-8.38409E+00 1.37283E+01 1.45334E+00-4.05848E+00
 -1      3364-1.35305E+01-3.19899E+01-1.16247E+01 1.40667E+01 1.59439E+00 1.13368E-01
 -1      3365-2.08528E+01-4.99885E+01-8.45576E+00-2.30007E+01 4.49329E+00 7.80523E-01
 -1      3366-1.91977E+01-6.07564E+01-1.05738E+01 2.72555E+01-3.20634E+00 3.62791E+00
 -1      3367-1.51583E+01 2.64396E+00 2.02452E+00-1.02287E+01-3.14930E+00-7.46112E-01
 -1      3368-2.58376E+00-7.89146E+01-4.66282E+00 8.18204E+00 2.02095E+00-3.09526E+00
 -1      3369-3.20944E+01-6.61473E+00-1.22540E+01 5.70482E+00-1.77854E+00 1.16674E+00
 -1      3370-5.55409E+00-3.29025E+01-8.46699E+00-1.06877E+01-7.33352E-01-1.00931E+00
 -1      3371-1.53812E+01-1.02421E+01 1.57787E+00 4.30462E+00-2.74590E+00-1.26992E+00
 -1      3372-2.71828E+01-5.50708E+00-6.07244E+00 1.45232E+01 1.75108E+00-3.96936E-01
 -1      3373-1.11883E+01-7.25825E+00 3.01988E+00-8.39674E+00 2.05103E+00-1.68071E+00
 -1      3374-1.21010E+01-6.51983E+01-8.87011E+00-2.29713E+01-4.00013E+00 1.66269E+00
 -1      3375-4.69971E+01-2.60919E+01-7.62176E+00-3.25747E+01-3.62335E+00-1.15022E+00
 -1      3376-2.08453E+01-2.41933E+01 1.57270E+00-2.44007E+01 1.67056E+00 3.67240E+00
 -1      3377-7.27422E+01-8.29097E+00-1.18875E+01 1.44375E+01-9.23225E-01-2.03984E+00
 -1      3378-4.03060E+01-2.38820E+01-2.75354E+00-2.36539E+01-2.90960E+00 2.15071E+00
 -1      3379-2.81210E+01-2.25729E+01-9.76773E+00-2.30981E+01 1.83180E+00 1.16920E+00
 -1      3380-1.30364E+01-3.96347E+01-1.01146E+01-1.53844E+01-4.74386E+00-2.91307E+00
 -1      3381-5.75323E+01-9.54824E+00-1.28475E+00 8.36096E+00-2.16933E+00-1.87174E+00
 -1      3382-3.95816E+01-3.14825E+01-6.84935E+00-3.11714E+01-1.61104E+00-1.02762E+00
 -1      3383-1.77136E+01-2.83412E-01 3.52916E+00-5.61641E+00-2.64212E+00 1.95013E+00
 -1      3384-5.11335E+00-3.74404E+01-7.57263E+00-3.44624E+00 5.93728E+00-1.71536E+00
 -1      3385-4.32010E+01-2.48146E+01-1.16993E+01 2.73004E+01 2.23412E+00-1.56796E+00
 -1      3386-8.03252E+01-1.15155E+01-5.71221E+00 1.58662E+01 1.28625E+00 5.65980E-01
 -1      3387-8.91877E+01-2.66614E+00-7.92598E+00 2.94752E+00 7.67496E-01 2.73146E+00
 -1      3388-5.73221E+01-2.67482E+00-8.36039E+00 4.18327E+00 1.95294E+00-8.52915E-01
 -1      3389-5.42884E+01-1.27689E+01-1.41067E+01-1.45589E+01 1.80497E+00 3.52281E+00
 -1      3390-8.59064E+00-5.96136E+00 2.42895E+00 5.71300E+00-3.80284E-01-1.48611E+00
 -1      3391-8.67529E+01-1.02398E+01-1.31978E+01 1.75476E+01 3.05565E+00 3.33601E+00
 -1      3392-4.50100E+01-8.67946E+00-3.33277E+00 1.43326E+01-2.70090E+00 3.92999E-01
 -1      3393-2.59717E+01-1.74698E+01-1.03078E+01 1.51270E+01-2.83797E+00-4.09317E-02
 -1      3394-1.33310E+01-3.81131E+01-8.89415E+00 1.95223E+01-2.28940E-01 1.73664E+00
 -1      3395-2.07088E+01-3.62449E+01-3.20183E+00 2.21597E+01-2.73154E+00-1.40713E+00
 -1      3396-9.39115E+01-9.63926E+00-1.30969E+01-1.10531E+01-4.36379E+00 1.15019E+00
 -1      3397-1.89907E+01-1.78302E+01-2.85899E+00-1.43684E+00-9.91468E-01-1.67313E+00
 -1      3398-8.62084E+00-6.98931E+01-9.47483E+00-8.65676E+00 2.36509E+00-2.33779E+00
 -1      3399-3.21847E+01-2.82119E+01-9.93403E+00 2.62321E+01 3.24654E+00-1.69792E-01
 -1      3400 1.58940E+01 1.31908E+01 1.54516E+00 4.96272E-01 3.24800E+00-8.52993E-01
 -1      3401-5.30714E+01-1.20077E+01-1.18155E+01 1.42908E+01-8.00809E-01-9.79190E-02
 -1      3402-2.26217E+00-3.08756E+00 2.43731E-01 2.45883E-01-8.89167E-01 5.23467E-01
 -1      3403-6.75760E+00-3.83220E+01-1.32267E+01 2.22690E+00-2.06400E+00-5.50923E-01
 -1      3404-2.30099E+01-1.12186E+01-8.69384E+00-1.27193E+01 8.72157E-01-9.31931E-01
 -1      3405-8.35338E+00-5.77288E+01-3.80559E+00-1.25193E+01-4.87677E-01-2.91128E+00
 -1      3406-1.30788E+01-1.58501E+01-7.47439E+00-1.14503E+01-1.49381E+00 1.31472E+00
 -1      3407-2.99388E+01-1.16738E+01-1.13804E+01 1.32871E+01 1.12633E+00 1.90717E+00
 -1      3408-1.72285E+01-9.36951E+00-1.13318E+01 4.43055E+00 2.71863E+00 4.07330E+00
 -1      3409-7.14617E+01-1.20246E+01-1.70174E+01-1.51546E+01 5.10938E+00 4.50935E+00
 -1      3410-6.58658E+01-6.91255E+00-1.19325E+01 6.94688E+00-4.73863E-01-4.26686E-01
 -1      3411-3.64605E+01-6.88649E+00-1.05915E+01 9.21702E+00 2.54354E+00-1.68132E+00
 -1      3412-1.18009E+01-1.95862E+01-1.11927E+01 8.32692E+00-2.62397E-01 3.93135E+00
 -1      3413-4.12775E+01-2.77943E+01-1.07087E+01-2.73305E+01 8.89516E-01 2.98965E-01
 -1      3414-2.59985E+01-5.40481E+00-9.02081E+00-2.30080E+00 2.17487E+00-2.08525E+00
 -1      3415-3.67904E+01-5.96382E+00-9.69104E+00 1.02468E+01 1.33106E+00-1.12431E+00
 -1      3416-2.96216E+01-1.13867E+01-1.24479E+01 1.92275E+00-3.85996E+00-1.99174E+00
 -1      3417-1.11384E+01-6.27526E+01-5.23847E+00 2.11262E+01-3.02862E+00 3.33632E-01
 -1      3418-2.63269E+01-1.43226E+01-9.88568E+00-1.53743E+01 9.64933E-01-7.87739E-01
 -1      3419-1.90168E+01 3.73351E+00 2.18204E-01-1.27244E+00-1.59833E+00 3.97172E-01
 -1      3420-1.13763E+01-6.31727E+01-1.17851E+01-1.57864E+01-5.44894E-01-1.62273E-02
 -1      3421-2.20734E+01-1.30981E+01-8.30211E+00 1.22911E+01 3.62213E+00-2.31484E+00
 -1      3422-1.94626E+01-9.61863E+00-8.26005E+00 6.69370E+00 2.83416E+00 1.76216E+00
 -1      3423-2.36362E+01-4.03340E+01-8.11698E+00-2.73328E+01-2.08891E+00 6.06100E-01
 -1      3424-1.37491E+01-9.07143E+00 1.60158E+00-2.05662E+00 2.24594E+00-1.89463E+00
 -1      3425 5.69660E+00-1.46313E+01 9.18600E-01-8.73949E+00-1.24943E-02-1.33521E+00
 -1      3426-1.51678E+01-8.49629E+01-1.42794E+01-2.09818E+01 2.88350E+00 6.75098E+00
 -1      3427-4.75653E+01-1.28340E+01-9.28666E+00-1.58108E+01-5.79945E-01 1.88110E+00
 -1      3428-2.24563E+01-7.36903E+00-1.18669E+01-3.02943E+00-3.34378E+00-5.98061E-01
 -1      3429-3.94060E+01-2.09647E+01-3.09232E+00 2.30050E+01 2.77418E+00 2.13784E+00
 -1      3430-1.53668E+01-1.58309E+01-9.08743E+00-7.88525E+00 9.51183E-01-2.45226E+00
 -1      3431-4.95753E+01-3.25430E+01-1.26795E+01 3.52296E+01 4.74297E+00-2.80538E+00
 -1      3432-1.31911E+01-1.60126E+01-4.05727E+00 1.55807E-02-7.11602E-01-7.55695E-01
 -1      3433-4.65134E+00-4.44560E+01-5.38371E+00-3.03916E+00-2.37332E-01 4.50941E+00
 -1      3434-1.30329E+01-1.46589E+01 1.60556E+00-4.31542E+00 1.88594E+00-2.15017E+00
 -1      3435-2.79887E+01-3.55794E+01-9.32423E+00 2.60001E+01 1.23395E+00-1.64256E+00
 -1      3436-2.12007E+01-3.02815E+01-1.00364E+01 1.94418E+01 2.06185E+00-2.98146E+00
 -1      3437-1.90193E+01-9.73893E+00-1.07376E+01-7.13895E+00 3.14735E+00-1.27575E+00
 -1      3438-7.75929E+00-6.99898E+01-6.80182E+00 1.06839E+01-1.40374E+00-3.64645E+00
 -1      3439-3.35146E+01-1.44622E+01-1.01290E+01 1.55852E+01 5.17271E-01-4.26491E+00
 -1      3440-7.28891E+00-1.89662E+01-8.75158E+00-5.50450E+00 3.32143E+00-1.38508E+00
 -1      3441-6.26914E+00-3.15416E+01-8.00658E+00 3.41552E+00-1.36822E+00 2.11178E+00
 -1      3442-1.71570E+01-1.21005E+01-2.24353E+00 9.98169E-01 1.66959E+00 2.17847E-01
 -1      3443-3.73579E+01-2.98068E+01-1.25460E+00-3.08901E+01-2.71878E+00 1.73022E+00
 -1      3444-2.49077E+00-3.00670E+01-1.00161E+01-2.08730E+00-2.85266E+00 2.00931E+00
 -1      3445-3.19768E+01-6.86250E+00-8.97247E+00-1.03055E+01 3.42933E+00 2.87614E+00
 -1      3446-1.68332E+01-6.92644E+00-1.04083E+01 6.66080E+00 1.43733E+00 3.50691E+00
 -1      3447-8.93674E+00-2.02769E+01-1.62040E+00-7.65352E+00-1.67803E+00 7.77222E-01
 -1      3448-9.85122E+00-6.89953E+01-1.22529E+01-6.72426E+00 4.01592E+00-2.86944E+00
 -1      3449-1.60961E+01-6.65695E+00 4.76351E-01 1.27495E+01-3.21818E+00-1.43500E+00
 -1      3450-1.95493E+01-1.68944E+01-5.67254E+00 1.76066E+01 1.28789E+00 5.67510E-01
 -1      3451-2.53921E+01-3.33368E+01-1.03865E+01-2.36584E+01-1.43570E+00-4.52830E+00
 -1      3452-6.61516E+00-2.10503E+01-1.12199E+01 1.06447E+01-3.56428E+00-8.26455E-01
 -1      3453-2.61914E+00-2.85844E+01-6.13293E+00-1.92911E+00-9.35681E-01 1.54231E+00
 -1      3454-4.29755E+01-8.04561E+00-8.26248E+00-1.49678E+01-1.11810E+00-4.20885E+00
 -1      3455-2.06593E+01-1.51066E+01-5.75379E+00 1.65391E+01 4.56172E-01 2.21381E+00
 -1      3456-1.97777E+01-3.12280E+01-8.61354E+00 2.04885E+01 1.07817E+00 1.17094E+00
 -1      3457-4.29163E+01-1.21046E+01-6.35810E+00-2.11777E+01 1.66359E+00-2.11693E+00
 -1      3458-7.36590E+01-6.97952E+00-1.58681E+01 8.29130E+00-2.20996E+00-3.37088E+00
 -1      3459-6.43632E+00-4.23559E+01-5.51522E+00-1.09228E+01 3.20480E-01-1.74955E+00
 -1      3460-9.39113E+00-7.76411E+00-3.50022E-01-7.22924E+00 4.15383E-01-3.75625E-01
 -1      3461-2.41717E+01-1.73184E+01-3.29760E+00-1.85961E+01 1.76340E+00 9.95292E-01
 -1      3462-1.81780E+01-1.85658E+00 2.35870E+00-1.04194E+00 1.67518E+00 1.44627E+00
 -1      3463-3.08899E+00-1.85476E+00 5.69851E-03-1.00578E-01-1.15974E+00-1.05657E+00
 -1      3464-2.33197E+01-4.93459E+00-4.90253E+00-4.80796E+00-1.31864E+00-1.45351E+00
 -1      3465-3.36224E+01-2.68044E+00-5.85793E+00 1.68628E+00-1.63247E+00-6.45855E-01
 -1      3466-1.59265E+01-3.44049E+00-4.40405E+00-1.27375E-01-8.70445E-01-5.58804E-01
 -1      3467-4.11394E+01-2.75925E+01-1.29096E+01 2.84635E+01 1.67988E+00 1.01743E-01
 -1      3468-2.71474E+00-4.04888E+01-5.93481E+00-2.60650E+00 2.33878E+00 1.84078E+00
 -1      3469-1.12413E+01-1.49701E+01-7.10597E+00 7.68788E+00 3.88324E-01 2.99788E+00
 -1      3470-1.79424E+01-1.36756E+01-7.62278E+00-1.30005E+01 2.21918E+00 1.03172E+00
 -1      3471-4.23571E+01-4.65984E+00-1.30437E+01 2.31191E+00-2.94271E+00 2.40865E+00
 -1      3472-1.92372E+01-1.41345E+01-4.86506E+00-3.23247E-01-2.39126E-02-2.57645E+00
 -1      3473-1.27399E+01-7.08089E+01-7.27833E+00 2.34959E+01-9.48849E-01-2.12144E+00
 -1      3474-2.95005E+01-5.20184E+01-1.15699E+01-3.22038E+01-7.22982E-01 2.11766E+00
 -1      3475-1.53723E+01-5.36697E+01-9.11094E+00 2.45985E+01-2.84896E+00 4.59966E-01
 -1      3476-3.19364E+01-4.82519E+00-1.25166E+01 4.34974E+00-3.03952E+00 4.32083E+00
 -1      3477-2.77088E+01-7.65301E+00-1.14262E+01 9.22821E-01 4.71875E+00 1.61625E+00
 -1      3478-8.96130E+00-5.71908E+01-1.31912E+01-3.26647E+00 5.86820E+00-5.37164E-01
 -1      3479-1.87594E+01-2.40749E+01-1.22794E+00-1.22790E+00-2.41722E+00 2.11046E-01
 -1      3480-1.97381E+01-2.50106E+01-7.79579E+00 8.50086E-02 2.37556E+00 6.87749E-01
 -1      3481-4.23861E+01-4.37923E+00-1.15182E+01 5.78882E+00-2.31038E-02 3.20707E+00
 -1      3482-2.46282E+01-5.33361E+01-9.24029E+00 2.97994E+01-2.72219E+00 1.66433E+00
 -1      3483-4.80014E+01-8.39794E+00-8.83381E-01 7.28198E+00 3.68809E+00 6.30679E-01
 -1      3484-1.19399E+01-1.25214E+01-2.38263E+00-5.98880E-01 5.28032E-03 3.24750E-01
 -1      3485-3.61031E+01-2.32668E+00-4.30805E+00 5.58176E-01 9.41533E-01 1.25763E+00
 -1      3486-3.83171E+00-3.13745E+01-7.34771E-01 9.18265E-02 1.16963E+00-2.80700E+00
 -1      3487-4.63601E+01-9.83772E+00-1.03110E+01-1.45449E+01 1.10880E+00-1.69639E+00
 -1      3488-4.86719E+01-8.27612E+00-1.19374E+01 1.37215E+01 6.32207E-01 4.92690E-02
 -1      3489-2.55362E+01-1.67611E+00-4.36645E+00-1.23664E+00 5.29011E-01 8.36829E-01
 -1      3490-3.33926E+01-5.63483E+00-1.16495E+01 7.32343E+00 5.18960E+00-2.95531E+00
 -1      3491-6.64777E+00-6.68475E+01-6.42620E+00-5.20732E+00 2.42239E+00 8.86274E-01
 -1      3492-9.59897E+00-6.36537E+01-7.74472E+00-1.52158E+01 1.40584E+00-6.85052E-01
 -1      3493-4.41979E+00-5.51010E+01-1.06464E+01-1.60308E+00-3.33613E+00 1.80442E+00
 -1      3494-1.31649E+01-8.99016E+00-3.91654E+00-1.43579E+00 2.15324E-01-2.32689E-01
 -1      3495-7.49505E+01-3.70501E+00-1.19056E+01 3.55451E+00-3.60827E+00-5.43602E-01
 -1      3496-2.76445E+01-4.88605E+00-7.52090E+00 3.63464E+00 2.50727E+00-2.16273E-01
 -1      3497-6.66409E+00-6.33585E+01-2.45886E+00 1.20995E+01 6.13554E-01-2.20439E+00
 -1      3498-1.99927E+01-6.45706E+00-5.56758E+00 3.99384E+00 1.94018E+00 1.05618E-02
 -1      3499-1.14449E+01-6.03004E+01-1.30950E+01 1.97148E+01 2.33631E+00-1.15878E+00
 -1      3500-8.23425E+01-3.42485E+00-1.03071E+01 3.44805E+00-7.87594E-02 1.39450E+00
 -1      3501-6.92725E+01-2.02993E+00-4.66087E+00 4.43061E+00 4.28507E+00-9.05337E-01
 -1      3502-2.23919E+00-4.03568E+01-6.00148E+00-5.12125E+00 2.07125E+00-2.11542E+00
 -1      3503-4.03382E+01-1.68553E+01-2.60964E+00 2.13002E+01-2.25281E+00-3.27840E+00
 -1      3504-3.82036E+00-7.52682E+01-5.11734E+00-1.68401E+01 3.06210E-01 2.91163E+00
 -1      3505 1.37660E+01 8.53360E+00 1.54184E+00-9.51573E-01-2.34317E+00 1.42955E-02
 -1      3506 1.31666E+01 1.66493E+01 6.54493E-01 2.89738E-01-1.75591E+00-9.40945E-02
 -1      3507-1.83576E+01-1.74421E+01-4.21165E+00 2.50097E+00-5.38987E-01 9.20312E-01
 -1      3508-1.02593E+01-3.48892E+01-1.84445E+00 1.55094E+01-2.58924E+00-1.24769E+00
 -1      3509-1.32362E+01-2.16613E+01-8.30537E+00 1.19583E+01 6.32299E-01 8.53963E-01
 -1      3510-6.27226E+01-2.95532E+01-4.03203E+00-3.45893E+01 7.46674E-02 3.59770E+00
 -1      3511-3.18952E+01-1.42600E+01-6.51417E+00 1.79739E+01-1.65692E-01-1.30701E+00
 -1      3512-2.06742E+01-2.90881E+01-6.06514E+00-2.14446E+01-2.46980E+00 1.36200E-01
 -1      3513-1.38938E+01-2.21543E+01 3.12718E-01 7.69612E+00 5.33738E-01-2.14417E+00
 -1      3514-5.92909E+01-1.30412E+01-8.48073E+00 2.15476E+01-2.63722E+00 2.94736E+00
 -1      3515-5.94655E+01-3.32699E+01-1.25082E+01 3.92478E+01-2.07360E+00-2.40741E+00
 -1      3516-7.53871E+01-6.01240E+00-1.34748E+01 7.02234E+00 3.18358E+00 1.48675E+00
 -1      3517-1.46040E+01 1.82992E+00 1.03826E-01-4.72770E+00 2.28594E+00 1.26322E-01
 -1      3518-3.92458E+01-3.26466E+01-1.12439E+01 2.95090E+01-1.77116E+00-1.84984E+00
 -1      3519-3.21935E+01-1.60600E+01-7.84344E+00-1.78144E+01 9.11803E-01-2.46716E+00
 -1      3520-2.22973E+00-3.50601E+01-6.16275E+00-2.47317E+00 3.06847E+00-1.65418E+00
 -1      3521-2.12820E+00-8.37517E+00-7.57364E-02 6.86216E+00-8.56105E-01-1.74453E+00
 -1      3522-1.23191E+01-3.23196E+00 1.42993E+00 1.03537E+01-2.69261E+00-9.45838E-01
 -1      3523-9.98775E+00-1.51423E+01-1.05397E+01 6.39415E+00 2.10375E+00 4.19232E+00
 -1      3524-5.28967E+01-1.14580E+01-9.09585E+00-1.23596E+01-1.30503E+00-1.38548E+00
 -1      3525-1.96331E+01-1.00768E+01-1.09647E+01 9.42163E+00-5.04022E+00-2.44959E-02
 -1      3526-1.99624E+01 5.90864E+00 3.16137E+00-2.04577E+01-2.77273E+00 3.85603E-02
 -1      3527 3.48004E+00 4.59463E+00 1.01054E+00 7.67166E-01-1.51513E+00-1.77114E+00
 -1      3528-5.71246E+01-9.74785E+00-3.49529E+00 1.11740E+01-3.27009E+00-1.62979E+00
 -1      3529-6.96616E+00-2.71219E+01-7.74205E+00-6.55777E+00 2.38226E+00-2.16961E+00
 -1      3530-2.70634E+01-2.06101E+01-9.83970E+00 1.66512E+01-3.55127E+00 2.78861E-01
 -1      3531-3.23692E+01-4.52398E+01-6.89659E+00-3.12104E+01 3.32542E+00-6.38153E-01
 -1      3532-1.14996E+01-7.28388E+01-8.47031E+00 1.69352E+01 2.28246E-01-2.77445E+00
 -1      3533-2.95028E+00-3.32775E+00-9.00333E-01 3.93153E-01-5.23276E-01 1.33860E+00
 -1      3534-9.24585E+00-2.50115E+01-5.93779E+00-1.37234E+01 8.57532E-01 9.49352E-01
 -1      3535-1.56482E+01-1.33417E+01-3.47780E+00-1.42502E+01 2.10213E+00-1.21386E+00
 -1      3536 1.15588E+01 8.17986E+00 2.20292E+00-2.00169E+00-1.21528E+00 2.12067E-01
 -1      3537-1.89222E+01-3.44909E+01-8.10892E+00-2.10464E+01 2.02181E+00-1.12894E+00
 -1      3538-3.17380E+01-3.18321E+01-6.61968E+00-2.71392E+01-5.19765E+00-3.14743E+00
 -1      3539-4.91541E+01-1.23048E+01-1.39691E+01 1.26842E+01 1.40766E+00 9.78660E-02
 -1      3540-4.91125E+01-4.70875E+00-8.64987E+00-1.14376E+01-1.18209E+00 3.76373E-01
 -1      3541-6.46908E+01-5.00254E+00-1.44571E+01-6.67471E+00-2.26084E+00-1.00231E+00
 -1      3542-5.21541E+01-3.27642E+00-1.24900E+01-7.01193E+00-1.73257E+00 4.77593E+00
 -1      3543-4.13007E+01-6.56150E+00-9.58749E+00-1.03506E+01-1.71761E+00 2.61640E+00
 -1      3544-2.01443E+01-2.17421E+01-2.05560E+00-2.52744E+00-2.86284E+00-2.91593E+00
 -1      3545-1.63566E+01-2.12663E+01-6.01014E+00 1.95608E+00-3.59185E+00 9.81175E-01
 -1      3546-4.27566E+01-8.41546E+00-1.35762E+01 1.04594E+01-2.76025E+00 1.68111E+00
 -1      3547-1.80192E+01-1.58146E+01-4.77723E+00 1.14110E+00-3.00094E-01-1.21439E+00
 -1      3548-2.14761E+01-2.77833E+01-1.11906E+01-1.80076E+01-6.82043E-01-1.98116E+00
 -1      3549-3.29278E+01-1.82694E+01 3.31830E-01 1.55459E+01 4.08869E+00 2.31258E+00
 -1      3550-9.46906E+00-5.83043E+01-3.40663E+00-1.18185E+01 2.32530E+00-2.74406E+00
 -1      3551-9.94173E+00-7.27447E+01-6.01640E+00 2.24956E+01-7.28340E-01-1.14249E+00
 -1      3552-1.30668E+01-1.56862E+01-9.92465E+00-1.00413E+01 1.62786E+00-3.07695E+00
 -1      3553-2.61003E+01-9.81542E+00-3.79105E-01 1.23756E+01 2.20726E+00 1.92048E+00
 -1      3554-1.16926E+01-6.58727E+01-1.05746E+01-1.59530E+01-7.49633E-01-1.75495E+00
 -1      3555-2.82005E+01-1.95585E+01-7.50639E+00 1.88516E+01 4.30046E-01-3.35824E-01
 -1      3556-8.63034E+01-8.26707E+00-1.15797E+01-2.92860E-01-1.03288E+00 8.56444E-01
 -1      3557-1.29364E+01-1.79537E+01-1.19958E+01 1.38688E+01-8.12829E-01 6.52443E+00
 -1      3558-1.82283E+01-1.84410E+01-4.43986E+00-1.40413E+00-1.89783E-01 1.53621E+00
 -1      3559-4.84665E+01-2.88111E+01-1.43148E+01 2.92294E+01-6.51878E-01-1.11721E+00
 -1      3560-1.86850E+01-3.91016E+01-2.57783E+00-1.70102E+01 7.16620E-01-1.39715E-01
 -1      3561-3.69153E+01-4.52403E+01-1.07232E+01 3.54298E+01 1.88820E+00-1.25059E+00
 -1      3562-2.38004E+01-3.66559E+01-5.63217E+00-2.15998E+01 2.95629E+00-2.83838E+00
 -1      3563-2.66504E+01-4.45368E+01-1.32555E+01 2.72219E+01 9.76063E-01 1.55548E+00
 -1      3564-1.35917E+01-1.67673E+01-4.89572E+00-1.39273E+00 5.33985E-01 4.36334E-01
 -1      3565-2.44626E+01-5.94411E+01-1.14340E+01-2.58574E+01-1.53812E+00 1.04724E+00
 -1      3566-3.42110E+01-4.43211E+01-1.17033E+01 3.33637E+01-3.08087E-01-2.09214E+00
 -1      3567-2.60043E+01-4.72165E+00-7.76056E+00-2.02781E+00-1.48273E+00-8.59857E-01
 -1      3568-2.08364E+01-4.79406E+00-4.93389E+00-4.44174E+00-2.35520E+00-4.70607E-01
 -1      3569-1.72913E+01-1.86540E+01-6.34302E+00 3.38549E+00 8.07777E-02 3.93261E-01
 -1      3570-8.34784E+00-2.51053E+01-1.01411E+01 1.20058E+01-2.44639E+00-1.18587E+00
 -1      3571-1.92899E+01-6.14521E+01-7.23226E+00-2.23407E+01 3.43620E+00 8.25278E-01
 -1      3572-1.80473E+01-3.85479E+01-1.36310E+01 2.00084E+01 1.95472E+00 6.48604E-01
 -1      3573-2.66349E+01-1.88163E+01-3.03469E+00-2.01524E+01 5.81386E-01-3.91869E+00
 -1      3574-2.98064E+01-4.69354E+01-2.72288E+00 3.44400E+01-3.31371E+00-4.46657E-01
 -1      3575-1.34305E+01-1.87556E+01-9.35521E+00 1.41365E+01 1.64619E+00-3.47495E+00
 -1      3576-1.02190E+01-1.68970E+01 7.95030E-01 1.31548E+00 4.48527E-02 2.43532E+00
 -1      3577-1.31560E+01-3.53551E+00 1.26911E+00-8.48612E+00 2.45206E+00-2.06497E+00
 -1      3578-2.50066E+01-1.85180E+01-8.38078E+00 1.80503E+01-1.14218E+00-1.66347E+00
 -1      3579-1.90066E+01-2.56145E+01-8.05408E+00-3.48084E+00 3.79535E+00 2.71917E+00
 -1      3580-5.22493E+00-5.37846E+01-5.57740E+00 1.85489E+01-6.02936E-01-4.08776E+00
 -1      3581-3.51693E+01-5.96023E+01-5.52305E+00-2.93294E+01-1.54775E+00-1.37630E+00
 -1      3582-1.47885E+01-2.17817E+01-1.26210E+00-5.76917E-02 4.06528E-01-4.44274E-01
 -1      3583-1.71472E+01-8.92705E+00-8.68029E+00-7.83680E+00 2.79678E+00-3.22975E+00
 -1      3584-1.76803E+01-5.36789E+01-1.26730E+01 2.41703E+01 9.80719E-01-8.34792E-01
 -1      3585-1.90181E+01-1.88908E+01-1.42185E+00 3.34886E+00-7.98731E-01 1.72847E+00
 -1      3586-1.92550E+01-1.80623E+01-3.73630E+00 2.02992E+00-2.56465E-01 1.94671E+00
 -1      3587-2.42562E+01-5.45000E+01-1.39927E+01 2.85009E+01-4.05576E-01-1.36536E-01
 -1      3588-3.05710E+01-3.63036E+00-1.07015E+01-5.59850E+00-3.54537E+00-2.09991E+00
 -1      3589-2.62418E+01-3.41890E+01-4.45484E+00-2.28021E+01-3.98031E+00 9.20315E-01
 -1      3590-1.96804E+01-7.16419E+01-9.15766E+00-2.64085E+01-2.68301E+00 5.36930E-01
 -1      3591-1.69127E+01-3.69149E+01-6.53047E+00-2.01333E+01-1.33433E+00 1.24371E+00
 -1      3592-4.62308E+01-1.29415E-01-5.90994E+00 3.88235E+00-2.05182E+00-2.20171E+00
 -1      3593-4.81694E+01-3.73520E+00-7.21196E+00-5.39665E+00-9.90483E-01 6.26907E-01
 -1      3594-5.11663E+00-2.16110E+01-8.46387E+00-2.34498E+00 2.04998E+00-3.79931E+00
 -1      3595-2.17093E+01-2.00445E+01-2.48148E+00-3.24793E+00 2.18281E+00 3.56941E+00
 -1      3596-1.39659E+01-2.07449E+01-1.28480E+01-1.44429E+01-1.85757E+00-4.91262E+00
 -1      3597-2.05541E+01-4.08264E+01-2.12980E+00 1.91448E+01 1.34965E+00 3.50363E+00
 -1      3598-2.03510E+01-1.75983E+01-6.86601E+00-6.35217E-01 1.08684E+00 3.43910E+00
 -1      3599-7.60604E+01-5.53892E+00-1.06342E+01 1.59932E+00 2.91345E+00-2.02992E+00
 -1      3600-2.98289E+00-2.76119E+01-1.36706E+00 9.21990E+00 1.13984E+00-2.64955E+00
 -1      3601-5.77909E+00-9.10657E+00 1.34402E+00 2.08501E+00 2.31638E+00-1.00414E+00
 -1      3602-2.05704E+01-3.95472E+01-2.60702E+00 2.05640E+01 2.69416E+00 3.23121E+00
 -1      3603-8.00630E+00-1.99207E+01-1.03331E+01 3.11604E+00 2.98612E-01 4.73130E+00
 -1      3604-8.22400E+00-5.16625E+01-1.21116E+01 4.21384E+00-9.94909E-01 1.46271E+00
 -1      3605-3.36424E+00-5.03019E+01-4.93767E+00 3.55517E+00-2.78761E-01-2.35981E+00
 -1      3606-3.61791E+01-6.31225E+00-9.86480E+00-1.01266E+01-2.14523E+00-2.86146E+00
 -1      3607-1.64120E+01-5.71269E+01-1.35856E+01 2.26495E+01-4.59665E+00 5.59489E-01
 -1      3608-3.62479E+01-5.32667E+01-1.60133E+01-2.95317E+01 2.45765E-01-2.11399E+00
 -1      3609 1.78047E+00-3.11112E+01 3.36799E+00 2.28130E+00 2.23871E+00 4.42570E+00
 -1      3610-4.36939E+00-7.99104E+01-7.52733E+00 6.62496E+00 1.54082E+00-1.37266E+00
 -1      3611-6.39669E+01-5.53496E+00-8.92625E+00-7.40354E+00-2.65070E+00-2.02290E-01
 -1      3612-1.44527E+01-6.50740E+01-1.03275E+01 2.26253E+01 1.46817E+00 4.32472E+00
 -1      3613-4.28520E+01-4.99458E+01-6.18426E+00 4.19809E+01 1.42272E+00-1.48047E-01
 -1      3614-2.02733E+01-1.43157E+01-1.52072E+01 3.23982E+00 5.53176E+00 5.10332E+00
 -1      3615-6.61636E+00-1.75616E+01-9.23715E+00-7.46671E+00 4.00391E+00 2.73597E-01
 -1      3616-5.74207E+01-3.52169E+01-1.13556E+01-3.42660E+01 1.09773E+00-2.17006E+00
 -1      3617-5.15500E+01-1.91831E+01-1.04595E+01 2.95629E+01 2.53932E+00 9.97526E-01
 -1      3618-1.82912E+01-9.67083E+00-7.88155E+00-1.01530E+01-2.91681E+00 3.89591E+00
 -1      3619-1.83840E+01-3.58646E+01-2.04140E+00-2.06650E+01-1.75901E+00 2.78289E+00
 -1      3620-1.68274E+01-3.34162E+01-1.15633E+00-1.81848E+01-3.35900E+00 1.44260E+00
 -1      3621-2.01365E+00-1.72927E+00 3.27630E-01 6.70585E-01 5.21824E-01 1.01712E+00
 -1      3622-7.12302E+01-5.04271E+00-1.18587E+01-3.77758E+00-1.76984E+00 2.26779E+00
 -1      3623-1.27853E+01-5.87733E+00 2.62698E+00 1.36854E+00-1.17741E+00-1.68298E+00
 -1      3624-1.63774E+01-1.76007E+01-2.40287E+00 3.19056E+00-1.42549E+00 1.01476E+00
 -1      3625-3.06842E+01-5.15351E+01-7.16122E+00-2.91451E+01-4.89699E-02-1.96327E+00
 -1      3626-5.93927E+01-4.16352E+00-6.62867E+00-1.81621E+01-4.83876E+00 1.24638E+00
 -1      3627-1.84569E+01-2.33072E+01 2.84710E-01 9.92020E-01 1.92860E+00-6.29714E-01
 -1      3628-2.23765E+01-6.12193E+01-8.56503E+00 2.91393E+01 8.76599E-02-1.64784E+00
 -1      3629 4.66943E+00 2.72520E+00 1.65951E+00 4.12657E-03-7.72860E-01 7.08419E-01
 -1      3630-6.02002E+01-8.99245E+00-1.61033E+01 8.55558E+00 6.13936E-01 9.75607E-01
 -1      3631-3.52653E+01-5.63298E+01-2.86346E+00-3.56594E+01-2.39184E+00 1.31709E+00
 -1      3632-4.15373E+01-4.82946E+01-7.53951E+00 4.01502E+01-2.49052E+00 3.54819E+00
 -1      3633-2.34173E+01-9.59346E+00-8.16957E+00 9.90679E+00-2.32779E+00-1.03731E+00
 -1      3634-1.65587E+01-2.13061E+01-3.54983E+00 1.70095E+01-3.63465E+00-1.22683E+00
 -1      3635-2.47247E+01-1.88508E+01-2.80300E+00 2.72757E+00 2.75683E-01 1.11346E+00
 -1      3636-1.82984E+01-2.34410E+01-2.71648E+00 3.40475E+00-1.28590E+00 1.32523E+00
 -1      3637-2.17541E+01-1.91597E+01-6.70340E+00 1.26190E+00 4.75585E-01-3.18454E+00
 -1      3638-2.38021E+01-3.22744E+01-7.27006E+00 2.51389E+01-2.57880E+00 2.28449E+00
 -1      3639-7.09640E+01-5.57528E+00-3.68726E+00 1.99927E+01 5.03798E+00 8.68653E-01
 -1      3640-7.49861E+01-1.34030E+01-8.44033E+00-2.55074E+01 1.82073E+00-4.90699E+00
 -1      3641-1.86640E+00-2.17422E+00 3.49319E-01 5.58945E-01-4.22797E-01 4.80743E-01
 -1      3642-1.92733E+01-1.44516E+01-5.67981E+00 1.36818E+00 7.24000E-01-2.77742E+00
 -1      3643-1.08607E+01-4.13428E+00-1.38312E+00 1.10116E+00-7.53723E-01-3.19789E-01
 -1      3644-9.13259E+00-2.08094E+01-9.86814E+00-2.41002E+00 1.00947E-01 3.80422E+00
 -1      3645-4.95336E+01-5.11212E+00-1.11472E+01-6.55720E+00 1.73761E+00 6.68146E-01
 -1      3646-9.86167E+00-3.32814E+01-9.86817E+00-1.66311E+01 4.57291E-01 2.99387E+00
 -1      3647-4.86994E+00-7.74502E+01-5.88949E+00-6.42100E+00-3.76657E-01-2.42702E+00
 -1      3648-6.20548E+01-8.07290E+00-9.85382E+00-6.50638E+00 1.52453E+00 1.09280E+00
 -1      3649-1.49292E+01-7.79538E+01-7.54075E+00-2.53223E+01-4.75164E+00 2.87397E+00
 -1      3650-8.91067E+00-1.30135E+01 2.09723E+00 1.13036E+01 3.69846E+00 2.09532E-01
 -1      3651-4.95465E+01-9.57150E+00-8.04875E+00-1.25307E+01 2.16604E+00-7.35643E-01
 -1      3652-8.98865E+01-1.16677E+01-1.01323E+01-1.23048E+01 5.23481E+00-2.01019E+00
 -1      3653-1.74099E+01-2.37596E+01-1.94640E+00 2.59835E+00 1.44345E-01-7.22702E-01
 -1      3654-2.84575E+01-4.62050E+01-1.05015E+01-2.83192E+01 2.86723E+00-1.07889E+00
 -1      3655-4.93993E+01-1.76390E+01-7.85387E+00 2.75131E+01-2.34820E+00-2.68750E+00
 -1      3656-1.66356E+01-3.93924E+01-9.97765E+00-1.78650E+01-3.28894E+00-1.27774E+00
 -1      3657-5.86106E+01-3.11038E+01-6.90523E+00 3.78836E+01-3.30730E+00-3.63851E+00
 -1      3658-3.11736E+00-1.90007E+00-4.34895E-01-4.20733E-01 1.32348E+00 1.69024E+00
 -1      3659-4.32411E+01-2.49000E+01-6.41233E+00 2.59405E+01 1.73661E+00 6.05148E-01
 -1      3660-1.72307E+01-3.37308E-01 1.77182E+00 1.29433E+01 3.39676E+00-9.82039E-02
 -1      3661-1.10320E+01-1.83754E+01-1.57831E+01-5.79896E+00-5.42950E+00 3.49002E+00
 -1      3662-4.40068E+01-2.38700E+01-3.42404E+00 2.59396E+01-3.40006E+00-2.43286E+00
 -1      3663-1.10137E+01-1.96810E+00 2.42030E+00 9.88169E+00-2.41300E+00-9.85531E-01
 -1      3664-5.32827E+01-1.51616E+01-3.98768E+00 2.07827E+01-1.95220E+00-2.41004E+00
 -1      3665-3.66297E+01-4.62204E+01-5.40075E+00 3.69616E+01-3.81587E+00 8.30380E-01
 -1      3666-3.81550E+01-4.77297E+01-9.68071E+00-3.37850E+01-4.05192E+00 4.56735E-01
 -1      3667-1.90445E+01-2.83947E+01-3.06171E+00 2.01048E+01 1.87722E+00 1.69379E+00
 -1      3668-1.27620E+01-1.87964E+01-4.23753E+00-1.16858E+00 5.87088E-01-3.08732E-01
 -1      3669-5.01710E+01-1.03555E+01-9.77196E+00 1.54503E+01-2.49863E+00-2.06984E+00
 -1      3670-2.08110E+01-2.36051E+01-9.05866E+00 2.17342E+00-4.46487E+00 2.23639E+00
 -1      3671-6.13878E+01-1.71915E+01-4.33224E+00 3.03605E+01 2.51180E+00 1.62711E+00
 -1      3672-7.44888E+01-2.04105E+01-8.44809E+00 3.18205E+01-1.82193E+00-2.02307E+00
 -1      3673-4.05855E+00-6.40928E+01-1.08549E+01-7.86451E+00 9.99603E-01-5.89003E-02
 -1      3674-4.02001E+01-1.84844E+01-1.66838E+00-2.03364E+01 2.35395E+00-9.94567E-01
 -1      3675-6.06350E+00-5.85441E+01-7.43786E+00-1.71376E+01 3.41821E+00-1.15610E+00
 -1      3676-1.64579E+01-2.36483E+01-5.93198E+00 6.15565E-01 9.27899E-01 8.93401E-01
 -1      3677-2.77140E+01-2.48466E+01-3.27864E+00 2.34693E+01-7.32060E-01-3.96293E+00
 -1      3678-7.68328E+00-1.20382E+01-2.66984E+00-2.73585E+00 1.23801E+00 4.33182E-01
 -1      3679-1.89563E+01-4.69304E+01-1.62419E+00-2.56861E+01 9.30924E-01-2.84756E+00
 -1      3680-6.48300E+01-1.57321E+01-4.97406E+00 2.72075E+01 2.84648E+00 1.29812E+00
 -1      3681-2.50040E+01-6.67966E+01-7.54732E+00 3.14235E+01-2.18200E+00-1.62385E+00
 -1      3682 7.57682E+00 4.91278E+00 1.60882E+00 6.20709E-01-1.24985E+00-4.58038E-01
 -1      3683-1.89678E+01-1.65010E+01-1.38174E+01 5.52548E+00 4.70324E+00 2.42830E+00
 -1      3684-2.29721E+01-2.34876E+01-3.24933E+00-2.99045E+00-1.15079E+00 1.23910E+00
 -1      3685-3.09051E+01-1.11102E+01-7.30360E+00-1.48426E+01 7.24375E-02 1.84810E-01
 -1      3686-2.80754E+00-2.18554E+00 8.08512E-02-4.33501E-01-1.19245E+00-4.61848E-01
 -1      3687-9.68869E+00-4.60059E+01-9.83766E+00-9.94242E+00 2.76428E+00-7.05418E-01
 -1      3688-1.46457E+01-1.60006E+01-3.31466E+00-1.09209E+00-1.08887E+00-8.95491E-01
 -1      3689-6.35715E+00-1.24770E+01-1.50230E+00 1.39379E+00-1.34448E-01 4.00527E-01
 -1      3690 1.28932E+01 9.77281E+00 3.05276E-02-4.04807E+00-1.08389E+00-9.38433E-01
 -1      3691-6.52080E+00-5.63330E+01-8.07962E+00 9.37475E+00 1.91402E+00 2.41680E+00
 -1      3692-3.87980E+01-6.97337E+01-1.52267E+01-3.67084E+01-2.77715E+00 4.24512E+00
 -1      3693-5.46028E+00-5.44073E+01-5.08827E+00 8.60019E+00-1.92724E-01 1.62295E+00
 -1      3694-6.60728E+01-2.28100E+01-8.51842E+00 2.61349E+01 8.70955E-01-1.86582E-01
 -1      3695-1.00437E+01-7.58927E+00-2.14928E+00 4.01662E+00-3.22617E-01-2.61344E-01
 -1      3696-1.96787E+01-1.91025E+01-6.88059E+00-3.14050E+00-1.76200E+00-1.44052E+00
 -1      3697 1.62848E+01 7.95589E+00-6.52882E-01 1.31032E+00-1.29000E+00 5.82503E-02
 -1      3698-9.23894E+00-8.03262E+00-1.81647E+00-3.20994E+00-7.23451E-02-7.20789E-01
 -1      3699-5.35024E+01-1.54198E+01-2.25364E+00-2.47714E+01-3.52067E+00 1.03668E+00
 -1      3700-1.08688E+01-5.09769E+01-7.53319E+00-1.76620E+01-8.26097E-01-8.80396E-01
 -1      3701-3.82310E+01-3.71699E+00-1.48486E+01 3.39743E+00-4.16451E+00-2.40653E-01
 -1      3702 9.59068E+00 6.62264E+00 2.04020E+00 1.72552E+00 1.43082E+00-7.96350E-01
 -1      3703-1.39605E+01-1.46240E+01-1.53449E+01-7.26979E+00-1.35240E+00 6.93798E+00
 -1      3704-8.53534E+00-1.04653E+01-2.15302E+00 3.09397E+00 2.10082E-02-2.45189E-01
 -1      3705-1.54998E+01-2.27510E+01-5.59942E+00 2.16406E+00 2.32638E-01 1.47617E-01
 -1      3706-1.75530E+01-4.97007E+01-6.64225E+00-2.62882E+01-1.71484E+00 1.97647E+00
 -1      3707-6.97836E+00-6.22039E+01-1.10209E+01 9.39036E+00-6.85864E-01 1.55840E+00
 -1      3708-7.60824E+00-5.16499E+01-3.77797E+00 1.35446E+01 9.10542E-01 2.61273E+00
 -1      3709 5.33558E+00 4.01781E+00 1.00881E+00-8.72141E-02-7.73766E-02 2.74087E+00
 -1      3710-2.63916E+00-3.03975E+00-1.91746E-01-3.29561E-01-1.83528E+00-5.52269E-01
 -1      3711-7.67908E+00-5.38865E+01-4.24905E+00 9.44497E+00 1.43105E+00 5.45728E+00
 -1      3712-2.02989E+01-2.33833E+01-7.48324E+00-2.56261E+00-1.68007E+00-1.79352E+00
 -1      3713-1.74302E+01-2.17928E+01-8.09354E+00 1.74710E-01 3.77246E-01-8.83903E-02
 -1      3714-2.66566E+01-4.81608E+00-8.41623E+00 7.09902E+00-3.32300E+00-2.10381E+00
 -1      3715-2.13838E+01-9.70172E+00-1.43635E+01 4.46442E+00-4.01874E+00-4.88226E+00
 -1      3716-1.96115E+01-1.15199E+01-1.02066E+01 3.05348E+00 3.63536E+00 9.42380E-01
 -1      3717-4.98456E+00-2.41861E+01-3.56189E+00 8.12802E+00 1.05569E+00-2.07908E+00
 -1      3718-9.45972E-01-2.44797E+00 3.56155E-01-2.18757E-01-7.53821E-01-7.48813E-01
 -1      3719-2.90278E+01-5.01250E+00-7.29655E+00 8.91947E+00 9.40397E-01 9.38600E-01
 -1      3720-7.96281E+00-7.98809E+01-5.62636E+00 9.94750E+00-1.04923E+00 2.87932E+00
 -1      3721-1.40566E+01-7.23810E+01-6.65632E+00 2.29099E+01-8.85790E-01 6.72090E-01
 -1      3722-2.61396E+00-2.30276E+00-1.89301E-02-3.07022E-01-6.35630E-01-1.37678E+00
 -1      3723-1.14071E+01-7.31593E+01-2.95015E+00-2.29807E+01 5.83918E+00-2.32189E+00
 -1      3724-3.71852E+01-5.75509E+01-3.05117E+00-3.98182E+01 1.17029E-01-2.14856E+00
 -1      3725-4.39310E+01-8.50597E+00-1.17689E+01 8.72941E+00-6.56266E-01 3.57208E-01
 -1      3726-7.19867E+00-7.27405E+01-3.76909E+00 1.23601E+01 4.07891E+00 3.40436E+00
 -1      3727-1.73010E+01-2.05257E+01-2.19767E+00-1.89511E+01 1.94314E+00 6.51246E-01
 -1      3728-1.27915E+01-7.42836E+01-7.67166E+00 2.60992E+01 3.70019E-01 2.74859E+00
 -1      3729-1.91610E+01-2.38037E+01-9.07655E+00 6.02083E-01 3.12430E+00-2.85162E-01
 -1      3730-2.59985E+00-4.80156E+00-7.62352E-01-1.72270E+00 3.54148E-03 7.44991E-01
 -1      3731-1.99282E+01-2.49611E+01-5.98869E+00-2.06454E+00 3.18319E+00 8.77693E-01
 -1      3732-2.98757E+00-2.39395E+00-8.29055E-01-1.23460E-01 9.99430E-01-1.27604E+00
 -1      3733-1.81604E+01-4.89972E+01-8.52047E+00-2.21155E+01 2.25996E-01-1.96378E+00
 -1      3734-1.31871E+01-1.09336E+01-3.38113E+00-5.59728E-01 6.31048E-01 8.31481E-02
 -1      3735-8.99441E+01-3.44796E+00-6.74755E+00 1.04404E+01 3.02116E+00-3.20795E-01
 -1      3736-1.74519E+01-1.52495E+01-3.23300E+00 3.37055E+00-1.48589E+00 2.00942E+00
 -1      3737-2.15079E+01-1.89287E+01-5.65885E+00 2.07927E+00-9.63480E-01 3.61363E+00
 -1      3738-9.75762E+00-8.21051E+00-2.85603E+00-3.90696E+00-7.56627E-01-5.01312E-01
 -1      3739-8.62178E-01-9.84794E+01-7.05207E+00-6.33887E+00 2.94974E+00 3.02334E+00
 -1      3740-3.83846E+00-2.69036E+00-6.82096E-01-5.14603E-02 2.93513E-01 2.00917E+00
 -1      3741-1.31407E+01-6.35649E+00-2.50201E+00 1.75619E+00 1.25552E-01 3.25624E-01
 -1      3742-6.05778E+01-5.42627E+00-8.67621E+00-5.27613E+00 2.25408E+00-3.38265E+00
 -1      3743-2.18548E+01-2.04830E+01-3.39237E+00 1.95840E+00 2.10522E-01-6.21376E-01
 -1      3744-8.78957E+00-1.30017E+01-9.40279E+00 8.01737E+00-1.44387E+00-1.53019E+00
 -1      3745-2.79489E+01-4.99452E+01-5.84303E+00 3.08263E+01-5.32295E-01-4.11549E+00
 -1      3746 3.73863E+00 6.91695E+00 5.73234E-01 6.68255E-01-5.39347E-01-1.58181E+00
 -1      3747-2.80696E+00-2.56917E+00 1.21370E-01 5.11377E-02 4.38379E-01-8.02792E-01
 -1      3748-2.19321E+01-2.05775E+01-6.76563E+00-3.41271E+00 3.84158E+00 4.20798E+00
 -1      3749-1.95360E+00-2.89332E+00-2.42216E-01 1.08973E-01 1.49343E+00-1.06073E+00
 -1      3750-1.54831E+01-1.63391E+01-1.05718E+01 3.22884E+00 2.84130E-01 4.78647E+00
 -1      3751-1.45009E+01-1.36902E+01-3.77590E+00 1.97404E+00 2.32028E-01 4.59275E-01
 -1      3752-2.11647E+01-1.93681E+01-5.07508E+00 2.41232E+00 6.88222E-01-9.96824E-01
 -1      3753-2.15185E+01-7.89658E+01-5.43139E+00 3.55544E+01 8.38661E-01-6.27737E+00
 -1      3754-1.59308E+00-2.56757E+00 2.93317E-01 1.40249E-01-6.45093E-01 3.13309E-01
 -1      3755-2.42063E+00-3.84784E+00 2.52700E-01 4.00053E-02 1.84854E+00-3.01635E-01
 -1      3756-2.39327E+00-3.90829E+00-5.87401E-01-1.03232E-01 1.99482E+00 2.38561E-01
 -1      3757 5.50987E+00 6.94419E+00 1.83159E+00-9.49337E-01-9.89203E-01 9.21997E-01
 -1      3758 4.14105E+00 5.95855E+00 1.55132E+00 9.57583E-01-1.28709E+00-9.18102E-01
 -1      3759-2.51164E+00-2.40887E+00 2.12032E-01-2.75243E-01 8.54728E-01 5.97113E-01
 -1      3760-4.48792E+00-2.43104E+00-8.31507E-01 4.13540E-01 1.69598E-01-2.32856E+00
 -1      3761-2.00241E+00-2.67816E+00 2.31768E-01-2.64568E-01-7.28778E-01-2.78839E-01
 -1      3762-2.21563E+01-2.08719E+01-6.04163E+00 1.27950E+00 1.05875E+00-1.59252E+00
 -1      3763-3.66580E+00-2.57717E+00-4.71807E-01-9.76296E-02-4.78510E-01 1.28022E+00
 -1      3764 4.21237E+00 5.69401E+00 2.08470E+00-5.28213E-01-8.44693E-01 1.36865E+00
 -1      3765 2.61722E+00 5.69722E+00 3.13769E+00-6.61121E-01 1.68691E+00 1.50755E+00
 -1      3766 6.17576E+00 5.80025E+00 2.56627E+00-3.92504E-01 1.43836E+00 2.76764E-01
 -1      3767 5.05794E+00 3.28767E+00 2.33555E+00-7.96118E-01 1.18229E+00-1.19763E+00
 -1      3768-3.29374E+00-3.04496E+00-9.72695E-02 7.21665E-01-1.61263E+00 5.86361E-01
 -1      3769 2.60855E+00 3.92459E+00 2.29288E+00 1.29502E-01 9.64115E-01 1.53674E+00
 -1      3770 7.18707E+00 4.01932E+00 3.81473E+00-1.69759E-01 1.16987E+00 1.57720E+00
 -1      3771 5.03165E+00 4.58365E+00 2.95767E+00-2.67134E-01 1.64599E+00 4.59655E-01
 -1      3772 6.99480E+00 1.40305E+01 4.94280E+00-1.04616E+00 1.84428E+00 1.40149E+00
 -1      3773 7.69220E+00 8.47336E+00 3.97222E+00-9.49124E-01 1.01602E+00 1.40932E-01
 -1      3774 8.75549E+00 5.08595E+00 4.95426E+00-1.33774E+00 5.96799E-01-6.14008E-01
 -1      3775 7.57381E+00 3.40375E+00 3.93390E+00-1.63009E-01 1.20490E+00 7.62073E-01
 -1      3776 4.46078E+00 3.78197E+00 2.19533E+00-4.96419E-01 6.95148E-01-4.71810E-01
 -1      3777-1.39407E+00-3.04624E+00-1.84274E+00 7.35794E-01 1.13382E+00 1.26567E+00
 -1      3778 4.22679E-01-5.76941E-01-2.81090E-01-4.08606E-01-1.31849E+00-1.65130E+00
 -1      3779 7.72712E-01 1.04906E+00-2.91063E+00-1.35847E+00 1.49009E+00-8.74826E-01
 -1      3780 2.72326E+00 2.43259E+00-1.90673E+00 6.73230E-01-1.56218E+00-8.72947E-01
 -1      3781-2.59805E-01-1.29329E+00-1.15058E+00 7.91722E-01 4.29588E-01 6.88276E-01
 -1      3782-8.44000E+00-7.05742E+00-1.62220E+00 9.84911E-01-1.07401E+00-8.02191E-01
 -1      3783-5.85963E-01-1.02431E+00-1.98668E+00 3.68008E-01-6.93923E-02-1.87784E+00
 -1      3784-1.44986E+00-5.58191E+00-3.03079E+00 5.48153E-01 1.41202E-02-7.11831E-01
 -1      3785 1.01805E+00 2.74263E+00-2.18323E+00-1.08644E+00 1.66783E+00-6.36831E-01
 -1      3786-4.35163E-01-1.10138E+00-2.50449E+00 1.99470E-01-4.24600E-01 2.41157E+00
 -1      3787-2.70020E-02 2.83357E+00-2.27868E+00-9.22163E-01 1.42604E+00-8.30763E-01
 -1      3788 9.04077E-01 1.22465E+00-1.75319E+00 1.89686E-01 2.05248E+00-9.87403E-02
 -1      3789-5.24596E+00-6.46392E+00-2.34601E+00 1.08627E-01 2.11334E+00 2.19192E-01
 -1      3790 3.69681E+00 4.97333E+00-1.67363E+00-1.30383E-02-2.54619E+00 8.70847E-01
 -1      3791 1.88785E+00 1.29174E+00-1.32646E+00-4.08238E-01 3.39009E+00 4.40812E-01
 -1      3792-2.37237E+00-2.05714E+00-2.71221E+00 8.49686E-01 5.72689E-01 3.73096E-01
 -1      3793-1.11243E+00-1.32083E+00-7.62244E-01 7.55467E-01-2.16706E-01-7.52006E-02
 -1      3794-1.06796E+01-1.34361E+01-2.80772E+00-5.88134E-01-4.95415E-01-4.47103E-02
 -1      3795-4.48311E+00-6.51168E+00-8.21993E-01-5.69067E-02-2.73312E-01 1.27511E+00
 -1      3796 3.00651E-01-1.44967E-01-7.37752E-01 3.31957E-01-4.21221E-01-1.51625E+00
 -1      3797-3.12999E-01-3.07638E+00-8.50177E-02 5.24750E-01 1.42001E-01-9.83888E-01
 -1      3798-6.53432E+00-7.60454E+00-6.58615E-01-2.22012E+00-6.38371E-02 1.97647E-01
 -1      3799-2.34088E+00-5.68910E-01-2.31737E+00-9.72436E-01 1.80782E+00-1.35594E+00
 -1      3800-1.06106E+01-7.72371E+00-3.51273E+00-9.62220E-01 3.92363E-03 1.87800E-01
 -1      3801-4.63841E+00-8.38204E+00-9.43099E-01-2.03396E-02-4.19058E-01 1.01280E+00
 -1      3802-7.60890E+00-8.68194E+00-2.67242E+00-1.45408E-01 8.49338E-02 2.43933E-02
 -1      3803-3.96851E+00-6.28729E+00-4.17307E+00-1.65624E-01-2.50536E+00 7.28241E-01
 -1      3804-1.16688E+01-5.61046E+00-2.00987E+00 1.24623E-01 4.34081E-01-2.70213E-01
 -1      3805-1.74078E+01-5.62965E+00 6.68380E-01-2.27145E+00-9.17052E-01 8.75680E-01
 -1      3806-4.03027E-01-1.49599E+00-3.05547E-01-8.75760E-01-2.11475E+00 1.28345E+00
 -1      3807-8.45470E-01-3.47605E-01-2.14348E+00-1.48805E-01 6.22560E-01 1.24327E+00
 -1      3808-1.06397E+01-9.35635E+00-4.01821E+00-7.34329E-01-4.82102E-01-6.06289E-01
 -1      3809-2.47208E+00-3.53845E+00-1.10372E+00 3.08261E-01 1.13531E+00 7.14461E-01
 -1      3810-5.04835E+00-5.34550E+00-4.29603E+00-1.17239E+00 1.87905E+00-8.75936E-02
 -1      3811-4.58000E+00-1.97464E+01-5.24394E+00 3.01777E+00-8.08221E-02-6.84316E-01
 -1      3812-3.75987E+00-2.85737E+01-2.20524E+00 4.39376E+00 8.46430E-02 1.42460E+00
 -1      3813-1.26825E+01-1.21289E+01-5.04790E+00 1.76592E-01-8.58771E-01 6.15159E-01
 -1      3814-5.98719E+00-1.10866E+01-1.59662E+00-1.95697E+00 3.23956E-02-3.54142E-01
 -1      3815-1.05514E+01-6.74281E+00-2.33153E+00 1.72635E+00-4.48328E-01 4.36891E-01
 -1      3816-1.15052E+01-1.02776E+01-4.19934E+00-3.24285E-02-1.00181E+00-1.17898E+00
 -1      3817 2.17675E-01-1.69580E-01 2.04534E-02 3.75843E-01 2.67234E-01 4.77939E-01
 -1      3818-8.13833E+00-1.07388E+01-3.13643E+00 8.13928E-01 5.71058E-01-1.86437E-01
 -1      3819-1.30778E+01-1.35344E+01-5.98512E+00 1.15148E+00-1.65925E-01-9.97484E-01
 -1      3820-1.72729E+00 2.26660E-02-1.06543E+00 1.86300E-01-9.98654E-01-5.98717E-02
 -1      3821-2.44398E+00-4.21105E+00-2.07547E+00-4.34229E-01 2.14985E+00-1.97551E+00
 -1      3822-5.15717E+00-3.27825E+00-6.08830E-01-5.11581E-01 1.25855E+00-8.16548E-01
 -1      3823-6.10310E+00-1.16540E+01-2.58445E+00-2.40581E-01 7.51620E-01-3.52626E-01
 -1      3824-1.56972E+00-1.83457E+00-2.49339E+00-6.62914E-01 2.93676E-01 1.35158E+00
 -1      3825-3.56714E+01-4.44196E+00-5.72136E+00 6.91769E+00 5.46957E-01-1.59583E+00
 -1      3826-1.13945E+01-7.43107E+00-7.85611E-01 5.13748E+00-5.88568E-01-3.36830E-01
 -1      3827-6.06185E+00-8.89038E+00-2.15764E+00 2.15435E-01-1.14784E+00 1.39057E+00
 -1      3828-8.78395E+00-1.14118E+01-2.36678E+00 6.16979E-01 5.55170E-01-5.71515E-02
 -1      3829-5.75269E-01-2.78677E+00-1.16000E+00-3.47295E-01-4.37265E-01 8.08804E-01
 -1      3830-2.68291E+00-2.97065E+00-2.37046E+00 2.13946E-01-1.10884E-01-9.46826E-01
 -1      3831-5.79334E+00-1.30817E+01-2.98643E+00 3.26270E+00-2.96254E-01 9.46976E-01
 -1      3832-4.17211E+00-2.39596E+00-2.01768E+00 1.06709E+00 5.54398E-01 8.40889E-02
 -1      3833-5.44652E+00-4.01915E+00-1.82501E+00 8.78318E-02-1.56447E+00 1.37856E+00
 -1      3834-5.40002E+00-7.67842E+00-6.21699E-01 7.38130E-01-2.65729E-01-5.53944E-01
 -1      3835-1.50794E+00-2.34989E+00-2.19554E+00-5.34028E-01-1.37389E-01-9.18237E-01
 -1      3836-4.30524E+00-4.63206E+00-1.39409E+00-1.96903E-01-3.06774E-02-2.67275E-01
 -1      3837-1.27285E+01-1.46161E+01-3.05158E+00 1.32200E-01 4.59328E-02-1.49426E-01
 -1      3838-1.12894E+01-1.34423E+01-3.40586E+00 3.73903E-01-6.23587E-01 1.08088E+00
 -1      3839-6.45182E+00-4.65526E+01-5.45309E+00 8.89875E+00-8.19074E-01 2.10659E+00
 -1      3840-2.12430E-01 3.94722E-02-3.25968E-01-6.93435E-02 8.11157E-01-6.72438E-01
 -1      3841-1.52948E+01-1.33576E+01-4.83908E+00 5.15201E-01-5.24221E-01 1.80168E+00
 -1      3842-1.37623E+01-6.25056E+00 8.58280E-03 8.18591E-01-9.83965E-01-6.20939E-01
 -1      3843 1.71622E-01 1.27037E+00-1.11708E+00-2.99117E-01 3.96890E-01 3.73981E-01
 -1      3844-2.80859E+01-1.10052E+01-1.68784E+00-1.24129E+01 1.24966E+00-1.12133E+00
 -1      3845-8.89870E+00-8.96258E+00-1.57434E-01-2.17925E+00-1.42534E+00 6.87763E-01
 -1      3846-5.21593E+00-1.29786E+01-2.61442E-01-6.66204E-01 1.64935E+00-4.80634E-03
 -1      3847 2.33781E+00-6.52139E-01-1.30275E+00-1.89528E-01-2.64697E-01 3.34758E+00
 -1      3848-3.04048E+01-3.91018E+00-6.41629E+00-6.94744E+00-1.36303E+00-1.45118E+00
 -1      3849-1.04781E+01-1.01910E+01-4.33731E+00-3.90106E-01 1.13537E+00-2.89601E-01
 -1      3850-1.78403E+00-2.16857E+00-2.00401E+00 1.34005E+00-1.99757E-01-6.78792E-01
 -1      3851-1.33826E+01-8.49044E+00-4.98171E+00-5.00063E+00-1.10581E+00 1.09225E+00
 -1      3852-1.12141E+01-6.71863E+00-1.72034E+00 2.51134E-02-9.51518E-01 5.33682E-02
 -1      3853-1.30798E+01-1.22712E+01-5.81589E+00-8.01967E-02-2.17465E+00 8.68188E-01
 -1      3854-1.40754E+01-8.44624E+00-4.33585E+00 7.90845E+00 1.00720E+00 3.72308E-01
 -1      3855-1.19639E+01-1.20143E+01-4.12905E+00 2.05478E-01 7.21871E-01 9.68421E-01
 -1      3856-1.24490E+01-1.12801E+01-5.10637E+00-3.36762E+00-6.94081E-01 1.03856E+00
 -1      3857-6.84054E+00-9.79532E+00 1.43149E+00 7.01552E-01-4.50662E-01-5.71869E-01
 -1      3858 4.75169E+00 1.83056E+00-1.87713E+00-4.51203E-01 1.47193E+00-1.87239E+00
 -1      3859-5.02807E-01-2.52637E+00 2.69639E-01 6.81812E-01-7.37034E-01-1.83197E+00
 -1      3860-5.64091E+01-5.20797E+00-3.81453E+00 1.10380E+01 1.74482E+00 3.71199E-01
 -1      3861-4.67684E+00-2.68849E+01-6.69038E+00 4.16498E+00 1.26144E+00-7.96992E-01
 -1      3862-9.76539E+00-6.49958E+00-3.78117E+00-3.71948E-02-5.93304E-01 3.81463E-01
 -1      3863-3.45324E+00-1.22323E+00-2.61888E+00 3.74863E-01 2.09531E-01 7.05641E-01
 -1      3864-2.05648E+01-7.06344E+00 3.09032E-02-2.20250E+00 1.28243E+00-9.23460E-01
 -1      3865-2.82734E+00-3.22044E+00-2.50031E+00-1.39582E+00-6.10651E-01-1.89360E+00
 -1      3866-6.61360E-01 5.48630E-01-6.42340E-01-6.01182E-02 1.16038E+00 8.89249E-02
 -1      3867-2.55961E+01-1.28237E+01-6.26046E+00-1.57249E+01 3.94343E-01 1.32651E+00
 -1      3868-1.44747E+01-1.33422E+01-3.85828E+00-1.88984E+00-9.34853E-01-1.14467E+00
 -1      3869-1.96036E+01-9.67290E+00-2.88585E+00-9.87603E+00 4.11639E-01 9.67682E-03
 -1      3870-9.93380E+00-1.13473E+01-3.39439E+00 4.87889E-01 4.64001E-01 1.34736E+00
 -1      3871-3.37240E+01-5.01399E+00-7.63855E+00 7.11886E+00-4.89378E-02 1.09698E+00
 -1      3872-1.18637E+01-7.38930E+00-1.63712E+00 5.19361E+00-2.70379E-01-6.34815E-01
 -1      3873-2.20399E+01-4.52262E+00-4.93515E+00 5.51522E+00 1.13960E+00-3.27300E-01
 -1      3874-7.33617E+00-1.38137E+01 9.77275E-01-2.28059E+00 6.77978E-01 1.43991E+00
 -1      3875-5.59328E+00-3.92133E+01-7.25831E+00 8.08517E+00 3.88912E-01-8.29296E-01
 -1      3876-1.56979E+01-9.30905E+00-1.32669E-01 5.80696E+00-8.35190E-01-2.95868E-01
 -1      3877-6.24796E+00-4.36231E+00-8.70179E-01 7.43340E-01 2.76651E-01 3.85730E-01
 -1      3878-1.13865E+01-1.05405E+01-4.50376E+00-3.82725E+00 1.16234E+00-4.84424E-01
 -1      3879-4.88999E+00-4.55666E+01-5.58308E+00-7.26594E+00 1.33101E+00 1.35491E+00
 -1      3880-9.01927E+00-8.29889E+00-2.58130E+00 2.65254E+00-5.72553E-01 5.71847E-02
 -1      3881-7.89712E+00-1.00215E+01-2.17984E+00-7.29511E-01 5.78034E-01-1.09159E-01
 -1      3882-1.05916E+00-1.85777E+00-9.02414E-01-6.93564E-01 3.76086E-03-6.72152E-01
 -1      3883-4.32999E+00-3.67953E+01-3.93222E+00 6.72710E+00-2.53229E-01-7.45124E-01
 -1      3884-1.48483E+01-6.18293E+00-1.83303E-01 4.30686E+00-3.54204E-01-4.30110E-01
 -1      3885-3.24932E+01-4.19519E+00-5.04704E+00 3.98493E+00-8.96420E-01-8.19743E-02
 -1      3886-2.68824E+01-1.78486E+01-2.92646E+00-1.72321E+01-1.30499E+00 6.11150E-01
 -1      3887-1.40765E+01-1.92688E+01-7.65839E+00-6.70822E-01 3.90599E+00 2.67148E+00
 -1      3888-3.93062E+00-2.49004E+01-6.32434E+00-4.35659E+00-3.31223E-01-2.29134E+00
 -1      3889-3.55675E+00-4.45056E+00-1.20800E+00 2.47084E-01-8.25940E-01-6.04687E-01
 -1      3890-3.53426E+00-3.90152E+01-5.01648E+00-7.47910E+00-7.38258E-01 4.33056E-01
 -1      3891-1.05939E+01-1.94534E+01-4.26086E+00-1.09457E+01-1.69952E+00-3.40913E-01
 -1      3892-1.22902E+01-2.11222E+01-6.61268E+00 1.23547E+01-1.09641E+00 1.80062E+00
 -1      3893-1.91311E+01-3.77551E+00-4.65485E+00 2.39878E+00-1.12850E+00-9.52486E-01
 -1      3894-1.14870E+01-1.34516E+01-3.63782E+00 8.99099E-01-1.58994E+00 6.97567E-01
 -1      3895-3.72952E+00-2.61311E+01-6.79703E+00 4.55295E+00 8.76056E-01 8.59630E-01
 -1      3896-9.50329E+00-1.19687E+01-3.69369E+00-3.38669E-01 1.88649E+00 4.53532E-01
 -1      3897-7.94865E-01-1.75472E+00-2.69900E+00-9.27481E-01 1.04142E+00-1.00359E+00
 -1      3898-1.02371E+01-1.26217E+01-4.91080E+00 1.62332E-01-7.35106E-01-2.22082E-01
 -1      3899-3.76098E+00-4.28725E+00-1.59778E+00-9.49099E-01 6.97956E-01 1.49972E+00
 -1      3900-7.03307E+00-3.11946E+01-8.90099E-01-4.87145E+00 1.05117E+00-2.61349E+00
 -1      3901-1.00530E+00-1.89668E+00-2.38014E-01-5.17492E-01 7.56365E-01-2.60183E+00
 -1      3902-3.91689E+00-1.28561E+00-1.11944E+00 1.61518E-01-2.25277E+00-2.50878E-01
 -1      3903-1.17368E+01-1.23263E+01-6.51052E+00 3.46280E-01 1.19618E+00 6.93376E-01
 -1      3904-4.19724E+01-4.01629E+00-5.02288E+00 8.89230E+00-1.66750E+00 1.07521E+00
 -1      3905-1.64962E+01-8.39475E+00-6.27382E+00-4.56213E-01-1.68053E+00 1.19877E+00
 -1      3906-1.34813E+01-2.58398E+01-4.46296E+00 1.50188E+01-1.16604E-02-6.58133E-01
 -1      3907-9.96704E+00-1.50814E+01-4.95806E+00 8.76004E+00 1.09328E+00-1.25947E+00
 -1      3908-6.15695E+00-7.45422E+00-3.14637E+00 1.04367E+00-3.51971E-01 1.55766E-01
 -1      3909-1.47095E+01-1.23981E+01-4.73337E+00 8.25022E-01 3.48218E-01-1.59235E+00
 -1      3910-1.30495E+01-1.41810E+01-5.50433E+00-1.47075E+00 1.35280E+00 8.36415E-01
 -1      3911-1.63115E+01-9.99014E+00-4.83527E+00-1.02175E+01-1.43994E+00-1.11102E+00
 -1      3912-7.00022E+00-9.25812E+00-9.33684E-01-3.73955E+00 2.23478E-01 2.01963E-02
 -1      3913-1.21770E+01-1.84481E+01-4.78357E+00-1.20229E+01 1.57692E+00-4.37383E-01
 -1      3914-1.76383E+01-3.35726E+01-4.07879E+00 1.97644E+01-1.25093E+00 3.35890E-01
 -1      3915-5.12467E+00-1.99607E+01-6.96208E+00-2.74102E+00-1.49704E+00 2.01653E+00
 -1      3916-1.09942E+01-9.84639E+00-3.81670E+00 1.89456E-01-7.68874E-01 6.43957E-01
 -1      3917-6.34786E+00-3.91745E+00-1.33676E+00-5.83779E-01 1.56437E+00 4.99007E-01
 -1      3918-1.05036E+01-7.56081E+00-3.64780E+00-1.88007E+00 8.92627E-01 6.07726E-02
 -1      3919-2.33078E+01-9.43970E+00-1.30904E+00 8.96455E+00 9.00382E-01-1.32448E-01
 -1      3920-6.92006E+00-3.91542E+00-4.60505E+00 7.12017E-01-1.05648E+00-8.03061E-01
 -1      3921-3.35194E+00-2.64532E+00-1.44407E+00 7.85489E-02-1.43951E+00 1.09730E+00
 -1      3922-1.18499E+01-1.12021E+01-5.24847E+00-3.03167E-01-8.97430E-01 5.94631E-01
 -1      3923-2.00349E+00-4.44327E+00-1.76905E+00-6.78674E-01 1.97477E-01 1.60516E+00
 -1      3924-3.20909E+01-1.50926E+01-4.06933E+00-1.93375E+01 3.51821E-01-3.85027E-01
 -1      3925-9.95261E+00-7.68683E+00-4.24483E+00-5.31091E-01 2.13539E+00 6.31212E-02
 -1      3926-1.62549E+01-2.50412E+01-4.99226E+00 1.61922E+01 9.88405E-01 1.67792E+00
 -1      3927-1.10469E+01-1.26547E+01-4.72606E+00 2.44698E-01 1.13816E+00 5.89257E-01
 -1      3928-1.07527E+00-2.56465E+00-1.10405E+00-6.60003E-01 4.21857E-01 1.14665E+00
 -1      3929-9.81713E+00-1.06784E+01-2.98846E+00 2.03832E+00-7.39467E-02 1.02476E+00
 -1      3930-1.04866E+01-1.16156E+01-5.17055E+00-1.19893E+00-1.26054E-01-1.48837E+00
 -1      3931-2.43382E+00-8.86161E-01-3.07675E-01-8.25673E-01 2.35438E+00-2.49588E-01
 -1      3932-1.26105E+01-1.19380E+01-4.47398E+00 2.15016E-01 9.19766E-01 2.12882E+00
 -1      3933-1.07840E+01-1.83191E+01-6.94825E+00-1.06074E+01-1.64153E-01-1.69579E+00
 -1      3934-2.09269E+00-6.94075E-01-1.22363E+00 6.97502E-02 5.68011E-01 3.10084E-01
 -1      3935-2.33358E+01-1.36220E+01-5.67432E+00 1.55682E+01 5.26356E-01-3.92015E-01
 -1      3936-3.70379E+00-2.45838E+01-3.91562E+00-4.07295E+00 9.19371E-01-5.00011E-01
 -1      3937-1.43147E+01-2.41430E+01-4.46339E+00-1.51645E+01-7.88814E-01-6.57958E-01
 -1      3938-1.46799E+01-1.63770E+01-4.14349E+00-1.76000E+00-1.24638E+00-1.76491E+00
 -1      3939-3.38475E+00-2.34359E+00-1.90047E+00-1.32400E+00-3.98400E-01-6.18587E-01
 -1      3940-2.62249E+01-7.47448E+00-3.33694E+00-8.45109E+00-7.36675E-01-7.60599E-02
 -1      3941-1.89818E+01-9.08921E+00-5.76938E+00 9.61044E+00-2.78835E-01-1.80884E+00
 -1      3942-1.70433E+01-2.05145E+01-8.70784E+00 3.59085E-01 4.07231E+00-5.76640E-02
 -1      3943-1.61006E+01-8.09785E+00-4.58216E+00-8.58441E+00 7.41225E-01-4.67221E-01
 -1      3944-3.50007E+01-1.70205E+01-3.62035E+00-1.95760E+01-1.66561E+00 8.73479E-01
 -1      3945-1.32999E+01-1.26928E+01-4.49469E+00-1.86308E-01 1.76820E+00 1.18183E+00
 -1      3946-5.47443E+01-7.08638E+00-2.90383E+00 9.08847E+00-2.33948E+00 6.89392E-01
 -1      3947-1.10584E+01-6.58824E+00-5.00235E+00 1.14963E+00 6.11750E-01-4.69326E-01
 -1      3948-6.31129E+00-5.04940E+01-3.73700E+00 1.04257E+01 2.65062E-01-1.99395E+00
 -1      3949-2.43310E+01-1.28214E+01-5.77970E+00 1.52010E+01-4.95780E-02 9.53617E-01
 -1      3950-1.46240E+01-2.39424E+01-4.98613E+00-1.34228E+01 1.65982E+00 5.16991E-01
 -1      3951-1.84659E+01-4.15880E+01-3.58580E+00-2.25426E+01-2.32463E-01 1.55523E+00
 -1      3952-1.30968E+01-1.52666E+01-4.59796E+00-1.36040E-01 9.00396E-01 3.86221E-01
 -1      3953-1.04463E+01-2.00852E+01-5.12437E+00 1.06892E+01-4.37400E-01-3.48713E-01
 -1      3954-1.58594E+01-2.14065E+01-1.44999E+00-1.16167E+01 2.38178E+00-1.69699E+00
 -1      3955-3.61632E+01-1.35301E+01-3.87777E+00 1.56566E+01-1.45616E+00-6.21578E-01
 -1      3956-3.56324E+00-3.44073E+01-6.44087E+00-6.02453E+00-1.89322E+00 7.97067E-01
 -1      3957-1.38853E+01-1.09119E+01-6.88436E+00-1.27079E+00 1.99564E+00 2.65573E+00
 -1      3958-8.90185E+00-1.22283E+01-4.08638E+00 2.23333E+00 1.47706E-01 8.74820E-01
 -1      3959-1.17132E-01 4.18913E-02-5.89294E-01-3.12166E-01-3.21011E-01 5.88579E-02
 -1      3960-1.46887E+01-1.47326E+01-2.65534E+00 3.62989E-01-7.19637E-03-5.59265E-01
 -1      3961-8.36717E+00-8.91291E+00-2.67834E+00 1.53521E-01 2.88176E-01-2.51051E-01
 -1      3962-6.56416E-01 6.18568E-01-9.74790E-01-9.17293E-02 4.85061E-01 1.77180E-01
 -1      3963-1.83838E+01-1.47546E+01-5.67246E+00 1.45550E+00 1.14884E-01-4.44274E+00
 -1      3964-4.95322E+00-2.80591E+01-3.67467E+00-6.20227E+00-3.44071E-01-6.52197E-01
 -1      3965-4.42112E+01-3.77510E+00-3.93900E+00-6.62832E+00-1.27278E+00 4.76236E-01
 -1      3966-1.79330E+01-3.36558E+01-5.25753E+00 1.96431E+01-1.95896E-01-1.49400E+00
 -1      3967-5.63044E+00-4.10435E+01-3.51812E-01-7.14126E+00-1.33476E-02 1.40222E+00
 -1      3968-1.21091E+01-1.03685E+01-4.37478E+00-9.12633E-01 7.50897E-01-2.09421E+00
 -1      3969-8.81414E+00-1.15918E+01-3.17637E+00-8.17413E-02-7.40558E-03 1.29644E-01
 -1      3970-4.35154E+00-2.49833E+01-3.22028E+00-5.27895E+00-3.30947E-01 3.92878E-01
 -1      3971-1.19171E+01-1.32393E+01-2.40288E+00 3.16044E-02 2.15947E-01-5.88021E-01
 -1      3972-1.61509E+00-3.19670E+00-3.39718E-01-1.52990E+00-1.17756E+00 2.64332E+00
 -1      3973-1.61985E+01-1.67003E+01-3.71135E+00-1.46258E-01 1.57800E+00-8.81182E-01
 -1      3974-3.70712E+00-3.93733E+00-1.22551E+00 6.41725E-01-1.17089E+00 7.35478E-02
 -1      3975-8.69462E+00-8.66382E+00-1.88778E+00 7.81412E-01-4.47642E-01 8.44165E-01
 -1      3976-1.03918E+01-1.47868E+01-7.96948E+00-5.00874E+00-1.39131E+00 1.08109E+00
 -1      3977-1.63970E+01-1.77005E+01-5.09516E+00-1.68567E+00-1.73167E+00 2.30765E-01
 -1      3978-8.37887E+00-1.29627E+01-3.69117E+00-2.97004E+00 1.24945E+00-3.67636E-01
 -1      3979-5.12851E+00-1.83527E+01-3.90959E+00-3.34616E+00 5.36027E-01 1.13639E+00
 -1      3980-6.02560E+00-1.31285E+01-1.00250E+00 3.19503E+00-6.83145E-01 5.99820E-01
 -1      3981-1.38071E+01-8.21172E+00-3.92406E+00 5.41322E-01 1.28030E+00 7.96263E-02
 -1      3982-5.29271E+00-4.84285E+01-3.42649E+00 1.07367E+01-1.37451E+00-2.86655E+00
 -1      3983-1.30215E+01-1.51589E+01-4.12406E+00-3.80779E-01 4.12441E-01-4.74040E-01
 -1      3984-1.34561E+01-1.20311E+01-4.81940E+00-1.42115E+00 1.45826E+00 1.74066E+00
 -1      3985-1.24553E+01-1.20128E+01-6.34824E+00-8.59748E-01 1.02005E+00 3.70386E-01
 -1      3986-1.20223E+01-1.23154E+01-3.47530E+00 1.01255E+00 2.71869E-01 1.64937E+00
 -1      3987-4.00956E-01-2.02858E+00-9.24224E-01-6.38916E-01-4.22951E-02-2.32475E-01
 -1      3988-1.28178E+01-9.60918E+00-5.29906E+00 3.48712E+00 1.08599E+00 1.38550E+00
 -1      3989-2.58789E+00-1.01880E+00-2.33083E+00-3.45210E-01-4.54456E-01 6.15367E-01
 -1      3990-1.11094E+01-1.70085E+01-7.94122E+00 9.13070E+00-1.94043E+00-1.11730E+00
 -1      3991-9.50839E-01-3.90648E+00-1.83624E+00 4.24361E-01 5.55249E-01 4.50767E-01
 -1      3992-6.45653E+00-2.57711E+01-2.73616E-01-6.54333E+00 6.33867E-01-1.36745E+00
 -1      3993-1.32591E+01-1.28993E+01-4.36483E+00-2.28743E+00 1.64776E+00 1.82337E+00
 -1      3994-1.62766E+00-3.26444E-01-1.45192E+00-7.88657E-01 8.82408E-01 1.97087E-01
 -1      3995-5.67636E-01 3.97523E-01-2.09302E+00 2.23205E-01-2.03751E+00 6.34335E-01
 -1      3996-2.22032E+01-5.98622E+00-6.99432E+00-3.19179E+00 1.27963E+00 1.35584E+00
 -1      3997-2.10527E+01-3.94748E+01-3.41679E+00 2.30066E+01 1.14694E+00 2.41305E+00
 -1      3998-6.42864E+00-8.11415E+00-3.26045E+00-3.44397E-01 1.64327E+00-3.48971E-01
 -1      3999-5.54593E+00-6.93420E+00-2.68098E+00-4.19134E-01 5.79593E-01 7.06341E-01
 -1      4000-3.52123E+00-5.22530E-01-6.79991E-01 1.55838E-01-7.28774E-01-2.41532E-01
 -1      4001-7.49913E+00-7.90661E+00-2.07389E+00 1.32452E+00-3.29129E-01 1.43803E-01
 -1      4002-9.84807E-01 1.24166E-02-2.03550E+00-7.67956E-02 6.30473E-01-6.29357E-02
 -1      4003 5.28003E-01-8.84716E-01-5.54740E-01-5.56850E-01-2.39941E-01 2.17857E+00
 -1      4004-1.85567E+00-1.50981E+00-1.83221E+00 9.96256E-01-9.15800E-01-1.40266E-01
 -1      4005-2.65090E+00-5.25913E+00-2.07819E+00 7.40802E-01-1.51997E+00 7.27528E-01
 -1      4006-1.65795E+01-1.17166E+01-7.71659E+00 2.31028E+00-1.28432E+00-9.81111E-01
 -1      4007-2.22993E+01-5.10587E+00-3.07437E+00-5.11898E+00 3.58993E-01 5.92082E-01
 -1      4008-1.34985E+01-2.69762E+01-4.06126E+00 1.51303E+01 2.31132E-01-2.32609E-01
 -1      4009-1.01425E+01-1.20486E+01-5.12974E+00 3.27218E-01 1.69949E-01 2.48167E+00
 -1      4010-1.93416E+01-1.08869E+01-5.95078E+00-1.23237E+01 1.98659E+00 7.25240E-01
 -1      4011-1.51478E+00-1.19525E+00-6.57359E-01 7.22420E-01 9.54036E-02 7.73908E-01
 -1      4012-2.32296E+01-3.74117E+00-4.91088E+00 3.90468E+00-1.11864E-01 4.57065E-01
 -1      4013 5.71319E-01-5.02034E-01-2.54835E-01-5.31901E-02-2.22770E-01 8.18584E-01
 -1      4014-2.09603E+00-1.59737E+00-1.10227E+00 6.82172E-01-6.71594E-01-2.27128E-01
 -1      4015-4.77217E+01-3.43600E+00-6.27619E+00 8.21129E+00-1.58103E+00-1.96929E+00
 -1      4016-1.54306E+00-4.19714E-01-1.15831E+00-3.01786E-01-6.68934E-01 8.34397E-01
 -1      4017-1.51533E+01-2.99036E+01-6.39461E+00 1.67676E+01-2.33342E+00-7.65048E-02
 -1      4018-1.69669E+01-1.68033E+01-5.66166E+00 6.37750E-02 3.26463E-01-2.41144E+00
 -1      4019-1.02901E+01-1.33661E+01-1.82699E+00-7.60287E+00-2.41329E-01 3.29219E-01
 -1      4020-4.45206E+01-3.60212E+00-5.11545E+00 7.12550E+00 1.40764E+00-6.31720E-01
 -1      4021-6.78649E+00-8.33191E+00-6.95107E-01 8.17445E-03 1.21689E+00 1.80187E+00
 -1      4022-1.74479E+01-3.14176E+01-3.27519E+00-1.89561E+01 8.96029E-02 6.90243E-02
 -1      4023-4.32044E+00-5.32499E+00-1.34703E+00 1.44452E-01-1.70921E+00-1.53635E+00
 -1      4024-4.70377E-01-1.29353E+00 1.93309E-01-1.18044E+00 9.50230E-01-2.42322E-01
 -1      4025-1.10894E+01-1.32098E+01-7.23817E+00-4.48041E+00-9.74762E-01 2.51176E+00
 -1      4026-8.72360E+00-8.98561E+00-3.00613E+00 6.40812E-01 1.37616E-01 4.96678E-01
 -1      4027-3.75886E+00-2.31491E+00-1.32704E+00 1.07731E+00 4.32874E-01 2.21353E-01
 -1      4028-3.43293E+01-4.95367E+00-4.15954E+00-4.48318E+00 1.55384E+00-5.23732E-01
 -1      4029-1.22553E+00-5.42080E-01 1.27862E+00-1.70645E-01 9.71336E-01-5.50450E-02
 -1      4030-7.88838E-01-7.28763E-01 8.05473E-01-2.02491E-01 2.69122E-01 1.28921E+00
 -3
 9999
