    1C
    1U meshsolid_t.inp                                                  
    1UUSER                                                              
    1UDATE              11.july.2016                                    
    1UTIME              01:49:13                                        
    1UHOST                                                              
    1UPGM               CalculiX                                        
    1UVERSION           Version 2.10                             
    1UCOMPILETIME       Sa 5. MÃ¤r 12:23:33 CET 2016                    
    1UDIR                                                               
    1UDBN                                                               
    1UMAT    1PDMS                                                      
    2C                          2745                                     1
 -1         1 2.32070E+00-4.50000E-01 5.00000E-01
 -1         2 2.32070E+00 4.50000E-01 1.45000E+00
 -1         3 2.32070E+00-4.50000E-01 1.45000E+00
 -1         4 8.13414E+00 9.00000E-01 1.45000E+00
 -1         5 5.28227E+00 4.50000E-01 1.45000E+00
 -1         6 8.13414E+00-9.00000E-01 1.45000E+00
 -1         7 1.10957E+01 4.50000E-01 1.45000E+00
 -1         8 8.13414E+00 4.50000E-01 1.45000E+00
 -1         9 1.10957E+01-4.50000E-01 1.45000E+00
 -1        10 5.28227E+00 4.50000E-01 5.00000E-01
 -1        11 2.32070E+00 4.50000E-01 5.00000E-01
 -1        12 5.28227E+00-4.50000E-01 1.45000E+00
 -1        13 1.10957E+01-4.50000E-01 5.00000E-01
 -1        14 5.28227E+00-4.50000E-01 5.00000E-01
 -1        15 8.13414E+00-4.50000E-01 1.45000E+00
 -1        16 8.13414E+00 4.50000E-01 5.00000E-01
 -1        17 5.28227E+00-9.00000E-01 1.45000E+00
 -1        18 8.13414E+00-9.00000E-01 5.00000E-01
 -1        19 5.28227E+00 9.00000E-01 1.45000E+00
 -1        20 2.31626E+00 4.72349E-01 5.00000E-01
 -1        21 7.68717E+00 2.69706E+00 1.45000E+00
 -1        22 1.00789E+01 4.66189E+00 1.45000E+00
 -1        23 7.85938E+00 2.28131E+00 1.45000E+00
 -1        24 7.34276E+00 3.52855E+00 1.45000E+00
 -1        25 4.70797E+00 2.43718E+00 1.45000E+00
 -1        26 5.22459E+00 1.18994E+00 1.45000E+00
 -1        27 7.17055E+00 3.94429E+00 1.45000E+00
 -1        28 1.00789E+01 4.66189E+00 5.00000E-01
 -1        29 1.04233E+01 3.83040E+00 1.45000E+00
 -1        30 1.97184E+00 1.30384E+00 1.45000E+00
 -1        31 4.70797E+00 2.43718E+00 5.00000E-01
 -1        32 2.31626E+00 4.72349E-01 1.45000E+00
 -1        33 5.05239E+00 1.60569E+00 1.45000E+00
 -1        34 5.05239E+00 1.60569E+00 5.00000E-01
 -1        35 4.53576E+00 2.85293E+00 1.45000E+00
 -1        36 7.68717E+00 2.69706E+00 5.00000E-01
 -1        37 7.17055E+00 3.94429E+00 5.00000E-01
 -1        38 7.34276E+00 3.52855E+00 5.00000E-01
 -1        39 5.43351E+00 6.06990E+00 1.45000E+00
 -1        40 6.06990E+00 5.43351E+00 1.45000E+00
 -1        41 6.38810E+00 5.11531E+00 1.45000E+00
 -1        42 8.16405E+00 7.52765E+00 1.45000E+00
 -1        43 7.52765E+00 8.16405E+00 5.00000E-01
 -1        44 7.52765E+00 8.16405E+00 1.45000E+00
 -1        45 5.43351E+00 6.06990E+00 5.00000E-01
 -1        46 3.41693E+00 4.05332E+00 5.00000E-01
 -1        47 1.32279E+00 1.95918E+00 1.45000E+00
 -1        48 1.95918E+00 1.32279E+00 1.45000E+00
 -1        49 4.05332E+00 3.41693E+00 1.45000E+00
 -1        50 6.06990E+00 5.43351E+00 5.00000E-01
 -1        51 4.37152E+00 3.09873E+00 1.45000E+00
 -1        52 3.09873E+00 4.37152E+00 1.45000E+00
 -1        53 3.41693E+00 4.05332E+00 1.45000E+00
 -1        54 5.11531E+00 6.38810E+00 1.45000E+00
 -1        55 6.38810E+00 5.11531E+00 5.00000E-01
 -1        56 4.37152E+00 3.09873E+00 5.00000E-01
 -1        57 5.11531E+00 6.38810E+00 5.00000E-01
 -1        58 3.09873E+00 4.37152E+00 5.00000E-01
 -1        59 2.28131E+00 7.85938E+00 1.45000E+00
 -1        60 3.52855E+00 7.34276E+00 1.45000E+00
 -1        61 2.69706E+00 7.68717E+00 1.45000E+00
 -1        62 2.43718E+00 4.70797E+00 1.45000E+00
 -1        63 1.30384E+00 1.97184E+00 1.45000E+00
 -1        64 4.72349E-01 2.31626E+00 1.45000E+00
 -1        65 3.83040E+00 1.04233E+01 1.45000E+00
 -1        66 2.69706E+00 7.68717E+00 5.00000E-01
 -1        67 3.83040E+00 1.04233E+01 5.00000E-01
 -1        68 1.60569E+00 5.05239E+00 1.45000E+00
 -1        69 4.72349E-01 2.31626E+00 5.00000E-01
 -1        70 1.30384E+00 1.97184E+00 5.00000E-01
 -1        71 4.66189E+00 1.00789E+01 1.45000E+00
 -1        72 2.43718E+00 4.70797E+00 5.00000E-01
 -1        73 3.94429E+00 7.17055E+00 1.45000E+00
 -1        74 2.85293E+00 4.53576E+00 1.45000E+00
 -1        75 1.18994E+00 5.22459E+00 1.45000E+00
 -1        76-4.50000E-01 8.13414E+00 1.45000E+00
 -1        77 4.50000E-01 1.10957E+01 1.45000E+00
 -1        78-4.50000E-01 5.28227E+00 1.45000E+00
 -1        79 4.50000E-01 8.13414E+00 1.45000E+00
 -1        80-4.50000E-01 1.10957E+01 1.45000E+00
 -1        81-4.50000E-01 2.32070E+00 5.00000E-01
 -1        82-4.50000E-01 5.28227E+00 5.00000E-01
 -1        83-4.50000E-01 2.32070E+00 1.45000E+00
 -1        84 4.50000E-01 2.32070E+00 1.45000E+00
 -1        85 4.50000E-01 1.10957E+01 5.00000E-01
 -1        86 4.50000E-01 8.13414E+00 5.00000E-01
 -1        87 4.50000E-01 5.28227E+00 1.45000E+00
 -1        88 4.50000E-01 5.28227E+00 5.00000E-01
 -1        89 9.00000E-01 5.28227E+00 5.00000E-01
 -1        90-9.00000E-01 5.28227E+00 5.00000E-01
 -1        91 9.00000E-01 8.13414E+00 5.00000E-01
 -1        92-4.50000E-01 8.13414E+00 5.00000E-01
 -1        93 9.00000E-01 5.28227E+00 1.45000E+00
 -1        94 9.00000E-01 8.13414E+00 1.45000E+00
 -1        95-9.00000E-01 8.13414E+00 5.00000E-01
 -1        96-9.00000E-01 8.13414E+00 1.45000E+00
 -1        97-9.00000E-01 5.28227E+00 1.45000E+00
 -1        98-4.72349E-01 2.31626E+00 1.45000E+00
 -1        99-1.30384E+00 1.97184E+00 1.45000E+00
 -1       100-1.60569E+00 5.05239E+00 1.45000E+00
 -1       101-2.28131E+00 7.85938E+00 1.45000E+00
 -1       102-2.43718E+00 4.70797E+00 1.45000E+00
 -1       103-2.85293E+00 4.53576E+00 1.45000E+00
 -1       104-3.52855E+00 7.34276E+00 1.45000E+00
 -1       105-3.94429E+00 7.17055E+00 1.45000E+00
 -1       106-3.83040E+00 1.04233E+01 5.00000E-01
 -1       107-3.83040E+00 1.04233E+01 1.45000E+00
 -1       108-4.66189E+00 1.00789E+01 1.45000E+00
 -1       109-1.30384E+00 1.97184E+00 5.00000E-01
 -1       110-2.43718E+00 4.70797E+00 5.00000E-01
 -1       111-1.60569E+00 5.05239E+00 5.00000E-01
 -1       112-2.69706E+00 7.68717E+00 1.45000E+00
 -1       113-2.69706E+00 7.68717E+00 5.00000E-01
 -1       114-1.18994E+00 5.22459E+00 1.45000E+00
 -1       115-3.52855E+00 7.34276E+00 5.00000E-01
 -1       116-2.85293E+00 4.53576E+00 5.00000E-01
 -1       117-1.95918E+00 1.32279E+00 1.45000E+00
 -1       118-3.41693E+00 4.05332E+00 1.45000E+00
 -1       119-7.52765E+00 8.16405E+00 1.45000E+00
 -1       120-6.06990E+00 5.43351E+00 5.00000E-01
 -1       121-8.16405E+00 7.52765E+00 1.45000E+00
 -1       122-6.06990E+00 5.43351E+00 1.45000E+00
 -1       123-4.05332E+00 3.41693E+00 1.45000E+00
 -1       124-1.32279E+00 1.95918E+00 1.45000E+00
 -1       125-5.43351E+00 6.06990E+00 1.45000E+00
 -1       126-5.43351E+00 6.06990E+00 5.00000E-01
 -1       127-3.41693E+00 4.05332E+00 5.00000E-01
 -1       128-4.37152E+00 3.09873E+00 5.00000E-01
 -1       129-4.37152E+00 3.09873E+00 1.45000E+00
 -1       130-5.11531E+00 6.38810E+00 1.45000E+00
 -1       131-5.11531E+00 6.38810E+00 5.00000E-01
 -1       132-6.38810E+00 5.11531E+00 1.45000E+00
 -1       133-3.09873E+00 4.37152E+00 1.45000E+00
 -1       134-1.97184E+00 1.30384E+00 5.00000E-01
 -1       135-1.04233E+01 3.83040E+00 1.45000E+00
 -1       136-7.34276E+00 3.52855E+00 1.45000E+00
 -1       137-4.70797E+00 2.43718E+00 1.45000E+00
 -1       138-5.22459E+00 1.18994E+00 1.45000E+00
 -1       139-7.85938E+00 2.28131E+00 1.45000E+00
 -1       140-2.31626E+00 4.72349E-01 1.45000E+00
 -1       141-1.04233E+01 3.83040E+00 5.00000E-01
 -1       142-1.97184E+00 1.30384E+00 1.45000E+00
 -1       143-1.00789E+01 4.66189E+00 1.45000E+00
 -1       144-4.70797E+00 2.43718E+00 5.00000E-01
 -1       145-5.05239E+00 1.60569E+00 1.45000E+00
 -1       146-5.05239E+00 1.60569E+00 5.00000E-01
 -1       147-7.17055E+00 3.94429E+00 1.45000E+00
 -1       148-7.34276E+00 3.52855E+00 5.00000E-01
 -1       149-7.85938E+00 2.28131E+00 5.00000E-01
 -1       150-7.68717E+00 2.69706E+00 1.45000E+00
 -1       151-4.53576E+00 2.85293E+00 1.45000E+00
 -1       152-5.28227E+00 4.50000E-01 1.45000E+00
 -1       153-8.13414E+00 4.50000E-01 1.45000E+00
 -1       154-5.28227E+00 9.00000E-01 1.45000E+00
 -1       155-5.28227E+00-4.50000E-01 1.45000E+00
 -1       156-8.13414E+00-4.50000E-01 1.45000E+00
 -1       157-5.28227E+00-9.00000E-01 1.45000E+00
 -1       158-2.32070E+00-4.50000E-01 1.45000E+00
 -1       159-1.10957E+01 4.50000E-01 1.45000E+00
 -1       160-1.10957E+01-4.50000E-01 1.45000E+00
 -1       161-2.32070E+00 4.50000E-01 1.45000E+00
 -1       162-5.28227E+00 4.50000E-01 5.00000E-01
 -1       163-8.13414E+00 9.00000E-01 1.45000E+00
 -1       164-8.13414E+00-4.50000E-01 5.00000E-01
 -1       165-8.13414E+00-9.00000E-01 1.45000E+00
 -1       166-5.28227E+00-9.00000E-01 5.00000E-01
 -1       167-2.31626E+00-4.72349E-01 5.00000E-01
 -1       168-2.31626E+00-4.72349E-01 1.45000E+00
 -1       169-4.70797E+00-2.43718E+00 1.45000E+00
 -1       170-7.68717E+00-2.69706E+00 1.45000E+00
 -1       171-7.34276E+00-3.52855E+00 1.45000E+00
 -1       172-7.85938E+00-2.28131E+00 1.45000E+00
 -1       173-1.04233E+01-3.83040E+00 1.45000E+00
 -1       174-1.00789E+01-4.66189E+00 1.45000E+00
 -1       175-7.34276E+00-3.52855E+00 5.00000E-01
 -1       176-1.97184E+00-1.30384E+00 1.45000E+00
 -1       177-5.05239E+00-1.60569E+00 5.00000E-01
 -1       178-7.68717E+00-2.69706E+00 5.00000E-01
 -1       179-5.05239E+00-1.60569E+00 1.45000E+00
 -1       180-5.22459E+00-1.18994E+00 5.00000E-01
 -1       181-4.53576E+00-2.85293E+00 1.45000E+00
 -1       182-7.17055E+00-3.94429E+00 1.45000E+00
 -1       183-5.22459E+00-1.18994E+00 1.45000E+00
 -1       184-1.32279E+00-1.95918E+00 1.45000E+00
 -1       185-4.05332E+00-3.41693E+00 1.45000E+00
 -1       186-4.37152E+00-3.09873E+00 1.45000E+00
 -1       187-5.43351E+00-6.06990E+00 1.45000E+00
 -1       188-7.52765E+00-8.16405E+00 5.00000E-01
 -1       189-5.43351E+00-6.06990E+00 5.00000E-01
 -1       190-7.52765E+00-8.16405E+00 1.45000E+00
 -1       191-3.41693E+00-4.05332E+00 1.45000E+00
 -1       192-3.41693E+00-4.05332E+00 5.00000E-01
 -1       193-4.05332E+00-3.41693E+00 5.00000E-01
 -1       194-1.95918E+00-1.32279E+00 1.45000E+00
 -1       195-6.06990E+00-5.43351E+00 1.45000E+00
 -1       196-6.06990E+00-5.43351E+00 5.00000E-01
 -1       197-8.16405E+00-7.52765E+00 1.45000E+00
 -1       198-3.09873E+00-4.37152E+00 5.00000E-01
 -1       199-6.38810E+00-5.11531E+00 5.00000E-01
 -1       200-6.38810E+00-5.11531E+00 1.45000E+00
 -1       201-5.11531E+00-6.38810E+00 1.45000E+00
 -1       202-3.09873E+00-4.37152E+00 1.45000E+00
 -1       203-1.30384E+00-1.97184E+00 1.45000E+00
 -1       204-1.30384E+00-1.97184E+00 5.00000E-01
 -1       205-2.85293E+00-4.53576E+00 1.45000E+00
 -1       206-3.52855E+00-7.34276E+00 1.45000E+00
 -1       207-4.72349E-01-2.31626E+00 1.45000E+00
 -1       208-1.60569E+00-5.05239E+00 1.45000E+00
 -1       209-2.43718E+00-4.70797E+00 1.45000E+00
 -1       210-2.69706E+00-7.68717E+00 1.45000E+00
 -1       211-3.83040E+00-1.04233E+01 1.45000E+00
 -1       212-1.18994E+00-5.22459E+00 1.45000E+00
 -1       213-4.72349E-01-2.31626E+00 5.00000E-01
 -1       214-4.66189E+00-1.00789E+01 1.45000E+00
 -1       215-1.18994E+00-5.22459E+00 5.00000E-01
 -1       216-2.69706E+00-7.68717E+00 5.00000E-01
 -1       217-2.28131E+00-7.85938E+00 1.45000E+00
 -1       218-3.94429E+00-7.17055E+00 5.00000E-01
 -1       219-2.85293E+00-4.53576E+00 5.00000E-01
 -1       220-3.94429E+00-7.17055E+00 1.45000E+00
 -1       221-4.50000E-01-2.32070E+00 1.45000E+00
 -1       222 4.50000E-01-2.32070E+00 1.45000E+00
 -1       223 4.50000E-01-8.13414E+00 1.45000E+00
 -1       224 9.00000E-01-8.13414E+00 1.45000E+00
 -1       225 4.50000E-01-1.10957E+01 1.45000E+00
 -1       226 4.50000E-01-1.10957E+01 5.00000E-01
 -1       227 4.50000E-01-8.13414E+00 5.00000E-01
 -1       228 4.50000E-01-5.28227E+00 1.45000E+00
 -1       229-4.50000E-01-1.10957E+01 1.45000E+00
 -1       230-4.50000E-01-5.28227E+00 5.00000E-01
 -1       231-9.00000E-01-5.28227E+00 1.45000E+00
 -1       232-4.50000E-01-5.28227E+00 1.45000E+00
 -1       233 9.00000E-01-5.28227E+00 1.45000E+00
 -1       234-4.50000E-01-8.13414E+00 1.45000E+00
 -1       235-9.00000E-01-8.13414E+00 1.45000E+00
 -1       236-4.50000E-01-8.13414E+00 5.00000E-01
 -1       237 9.00000E-01-5.28227E+00 5.00000E-01
 -1       238 4.72349E-01-2.31626E+00 5.00000E-01
 -1       239 3.94429E+00-7.17055E+00 1.45000E+00
 -1       240 4.66189E+00-1.00789E+01 1.45000E+00
 -1       241 2.85293E+00-4.53576E+00 1.45000E+00
 -1       242 2.69706E+00-7.68717E+00 1.45000E+00
 -1       243 2.28131E+00-7.85938E+00 1.45000E+00
 -1       244 3.83040E+00-1.04233E+01 5.00000E-01
 -1       245 3.83040E+00-1.04233E+01 1.45000E+00
 -1       246 3.52855E+00-7.34276E+00 1.45000E+00
 -1       247 3.52855E+00-7.34276E+00 5.00000E-01
 -1       248 1.30384E+00-1.97184E+00 1.45000E+00
 -1       249 2.43718E+00-4.70797E+00 1.45000E+00
 -1       250 4.72349E-01-2.31626E+00 1.45000E+00
 -1       251 1.60569E+00-5.05239E+00 5.00000E-01
 -1       252 1.18994E+00-5.22459E+00 1.45000E+00
 -1       253 1.60569E+00-5.05239E+00 1.45000E+00
 -1       254 2.28131E+00-7.85938E+00 5.00000E-01
 -1       255 2.69706E+00-7.68717E+00 5.00000E-01
 -1       256 1.18994E+00-5.22459E+00 5.00000E-01
 -1       257 3.41693E+00-4.05332E+00 1.45000E+00
 -1       258 1.95918E+00-1.32279E+00 1.45000E+00
 -1       259 4.05332E+00-3.41693E+00 1.45000E+00
 -1       260 6.06990E+00-5.43351E+00 1.45000E+00
 -1       261 7.52765E+00-8.16405E+00 1.45000E+00
 -1       262 8.16405E+00-7.52765E+00 1.45000E+00
 -1       263 1.32279E+00-1.95918E+00 1.45000E+00
 -1       264 3.41693E+00-4.05332E+00 5.00000E-01
 -1       265 5.43351E+00-6.06990E+00 1.45000E+00
 -1       266 3.09873E+00-4.37152E+00 5.00000E-01
 -1       267 3.09873E+00-4.37152E+00 1.45000E+00
 -1       268 4.37152E+00-3.09873E+00 1.45000E+00
 -1       269 5.11531E+00-6.38810E+00 1.45000E+00
 -1       270 6.38810E+00-5.11531E+00 1.45000E+00
 -1       271 4.37152E+00-3.09873E+00 5.00000E-01
 -1       272 2.31626E+00-4.72349E-01 1.45000E+00
 -1       273 1.97184E+00-1.30384E+00 1.45000E+00
 -1       274 5.05239E+00-1.60569E+00 1.45000E+00
 -1       275 7.34276E+00-3.52855E+00 1.45000E+00
 -1       276 1.04233E+01-3.83040E+00 1.45000E+00
 -1       277 1.00789E+01-4.66189E+00 1.45000E+00
 -1       278 7.68717E+00-2.69706E+00 1.45000E+00
 -1       279 4.70797E+00-2.43718E+00 1.45000E+00
 -1       280 4.70797E+00-2.43718E+00 5.00000E-01
 -1       281 4.53576E+00-2.85293E+00 1.45000E+00
 -1       282 7.34276E+00-3.52855E+00 5.00000E-01
 -1       283 7.85938E+00-2.28131E+00 1.45000E+00
 -1       284 7.17055E+00-3.94429E+00 1.45000E+00
 -1       285 7.85938E+00-2.28131E+00 5.00000E-01
 -1       286 5.22459E+00-1.18994E+00 1.45000E+00
 -1       287 1.50000E+01 0.00000E+00-5.00000E-01
 -1       288-5.74025E+00-1.38582E+01 5.00000E-01
 -1       289-2.92635E+00-1.47118E+01 5.00000E-01
 -1       290-5.74025E+00-1.38582E+01-5.00000E-01
 -1       291 1.06066E+01 1.06066E+01-5.00000E-01
 -1       292 1.24720E+01 8.33355E+00-5.00000E-01
 -1       293-1.38582E+01 5.74025E+00-5.00000E-01
 -1       294 1.06066E+01-1.06066E+01 5.00000E-01
 -1       295 8.33355E+00 1.24720E+01-5.00000E-01
 -1       296 5.74025E+00 1.38582E+01-5.00000E-01
 -1       297 0.00000E+00 1.50000E+01 5.00000E-01
 -1       298-1.50000E+01 0.00000E+00-5.00000E-01
 -1       299-1.06066E+01 1.06066E+01-5.00000E-01
 -1       300-1.06066E+01 1.06066E+01 5.00000E-01
 -1       301-1.24720E+01 8.33355E+00-5.00000E-01
 -1       302-5.74025E+00 1.38582E+01-5.00000E-01
 -1       303 1.47118E+01 2.92635E+00-5.00000E-01
 -1       304 1.47118E+01-2.92635E+00-5.00000E-01
 -1       305 5.74025E+00-1.38582E+01 5.00000E-01
 -1       306 2.92635E+00-1.47118E+01-5.00000E-01
 -1       307 5.74025E+00-1.38582E+01-5.00000E-01
 -1       308 8.33355E+00-1.24720E+01 5.00000E-01
 -1       309 0.00000E+00-1.50000E+01 5.00000E-01
 -1       310-8.33355E+00-1.24720E+01 5.00000E-01
 -1       311-1.38582E+01-5.74025E+00 5.00000E-01
 -1       312 1.38582E+01 5.74025E+00-5.00000E-01
 -1       313 8.33355E+00-1.24720E+01-5.00000E-01
 -1       314 2.92635E+00 1.47118E+01-5.00000E-01
 -1       315 0.00000E+00-1.50000E+01-5.00000E-01
 -1       316 0.00000E+00 1.50000E+01-5.00000E-01
 -1       317-2.92635E+00-1.47118E+01-5.00000E-01
 -1       318-2.92635E+00 1.47118E+01-5.00000E-01
 -1       319-8.33355E+00-1.24720E+01-5.00000E-01
 -1       320-8.33355E+00 1.24720E+01-5.00000E-01
 -1       321-1.24720E+01-8.33355E+00-5.00000E-01
 -1       322-1.47118E+01-2.92635E+00-5.00000E-01
 -1       323-1.06066E+01-1.06066E+01-5.00000E-01
 -1       324-7.68717E+00 2.69706E+00 5.00000E-01
 -1       325-8.13414E+00 9.00000E-01 5.00000E-01
 -1       326-1.10957E+01 4.50000E-01 5.00000E-01
 -1       327-8.13414E+00 4.50000E-01 5.00000E-01
 -1       328-1.00789E+01 4.66189E+00 5.00000E-01
 -1       329-1.04233E+01-3.83040E+00 5.00000E-01
 -1       330-7.85938E+00-2.28131E+00 5.00000E-01
 -1       331-8.13414E+00-9.00000E-01 5.00000E-01
 -1       332-1.24720E+01-8.33355E+00 5.00000E-01
 -1       333-1.10957E+01-4.50000E-01 5.00000E-01
 -1       334-1.50000E+01 0.00000E+00 5.00000E-01
 -1       335-8.16405E+00 7.52765E+00 5.00000E-01
 -1       336-1.24720E+01 8.33355E+00 5.00000E-01
 -1       337-5.28227E+00 9.00000E-01 5.00000E-01
 -1       338-5.22459E+00 1.18994E+00 5.00000E-01
 -1       339-7.17055E+00-3.94429E+00 5.00000E-01
 -1       340-8.16405E+00-7.52765E+00 5.00000E-01
 -1       341-1.06066E+01-1.06066E+01 5.00000E-01
 -1       342-1.00789E+01-4.66189E+00 5.00000E-01
 -1       343-4.53576E+00 2.85293E+00 5.00000E-01
 -1       344-6.38810E+00 5.11531E+00 5.00000E-01
 -1       345-7.17055E+00 3.94429E+00 5.00000E-01
 -1       346-3.52855E+00-7.34276E+00 5.00000E-01
 -1       347-4.53576E+00-2.85293E+00 5.00000E-01
 -1       348-3.94429E+00 7.17055E+00 5.00000E-01
 -1       349-3.09873E+00 4.37152E+00 5.00000E-01
 -1       350-2.31626E+00 4.72349E-01 5.00000E-01
 -1       351-1.95918E+00 1.32279E+00 5.00000E-01
 -1       352-1.95918E+00-1.32279E+00 5.00000E-01
 -1       353-4.05332E+00 3.41693E+00 5.00000E-01
 -1       354-4.50000E-01-2.32070E+00 5.00000E-01
 -1       355-9.00000E-01-5.28227E+00 5.00000E-01
 -1       356-1.60569E+00-5.05239E+00 5.00000E-01
 -1       357-1.32279E+00 1.95918E+00 5.00000E-01
 -1       358-1.32279E+00-1.95918E+00 5.00000E-01
 -1       359-2.43718E+00-4.70797E+00 5.00000E-01
 -1       360-4.37152E+00-3.09873E+00 5.00000E-01
 -1       361-1.97184E+00-1.30384E+00 5.00000E-01
 -1       362-4.70797E+00-2.43718E+00 5.00000E-01
 -1       363-2.32070E+00 4.50000E-01 5.00000E-01
 -1       364-2.32070E+00-4.50000E-01 5.00000E-01
 -1       365-5.28227E+00-4.50000E-01 5.00000E-01
 -1       366-5.11531E+00-6.38810E+00 5.00000E-01
 -1       367-4.72349E-01 2.31626E+00 5.00000E-01
 -1       368 4.50000E-01 2.32070E+00 5.00000E-01
 -1       369 4.50000E-01-2.32070E+00 5.00000E-01
 -1       370 4.50000E-01-5.28227E+00 5.00000E-01
 -1       371 1.18994E+00 5.22459E+00 5.00000E-01
 -1       372 1.60569E+00 5.05239E+00 5.00000E-01
 -1       373 3.52855E+00 7.34276E+00 5.00000E-01
 -1       374 3.94429E+00 7.17055E+00 5.00000E-01
 -1       375 4.05332E+00-3.41693E+00 5.00000E-01
 -1       376 1.95918E+00 1.32279E+00 5.00000E-01
 -1       377 1.97184E+00-1.30384E+00 5.00000E-01
 -1       378 1.95918E+00-1.32279E+00 5.00000E-01
 -1       379 1.32279E+00 1.95918E+00 5.00000E-01
 -1       380 3.94429E+00-7.17055E+00 5.00000E-01
 -1       381 2.85293E+00 4.53576E+00 5.00000E-01
 -1       382 5.11531E+00-6.38810E+00 5.00000E-01
 -1       383 4.66189E+00-1.00789E+01 5.00000E-01
 -1       384 5.28227E+00-9.00000E-01 5.00000E-01
 -1       385 5.05239E+00-1.60569E+00 5.00000E-01
 -1       386 2.31626E+00-4.72349E-01 5.00000E-01
 -1       387 4.53576E+00-2.85293E+00 5.00000E-01
 -1       388 7.17055E+00-3.94429E+00 5.00000E-01
 -1       389 6.38810E+00-5.11531E+00 5.00000E-01
 -1       390 5.22459E+00-1.18994E+00 5.00000E-01
 -1       391 8.13414E+00 9.00000E-01 5.00000E-01
 -1       392 7.85938E+00 2.28131E+00 5.00000E-01
 -1       393 4.66189E+00 1.00789E+01 5.00000E-01
 -1       394 8.33355E+00 1.24720E+01 5.00000E-01
 -1       395 5.74025E+00 1.38582E+01 5.00000E-01
 -1       396 2.28131E+00 7.85938E+00 5.00000E-01
 -1       397 2.92635E+00 1.47118E+01 5.00000E-01
 -1       398-4.50000E-01 1.10957E+01 5.00000E-01
 -1       399-2.28131E+00 7.85938E+00 5.00000E-01
 -1       400-1.18994E+00 5.22459E+00 5.00000E-01
 -1       401-5.74025E+00 1.38582E+01 5.00000E-01
 -1       402-2.92635E+00 1.47118E+01 5.00000E-01
 -1       403-4.66189E+00 1.00789E+01 5.00000E-01
 -1       404-7.52765E+00 8.16405E+00 5.00000E-01
 -1       405-8.33355E+00 1.24720E+01 5.00000E-01
 -1       406 1.38582E+01 5.74025E+00 5.00000E-01
 -1       407 8.16405E+00 7.52765E+00 5.00000E-01
 -1       408 1.04233E+01 3.83040E+00 5.00000E-01
 -1       409 1.47118E+01 2.92635E+00 5.00000E-01
 -1       410 1.24720E+01 8.33355E+00 5.00000E-01
 -1       411 1.50000E+01 0.00000E+00 5.00000E-01
 -1       412 1.47118E+01-2.92635E+00 5.00000E-01
 -1       413 1.06066E+01 1.06066E+01 5.00000E-01
 -1       414 1.10957E+01 4.50000E-01 5.00000E-01
 -1       415 1.04233E+01-3.83040E+00 5.00000E-01
 -1       416 1.00789E+01-4.66189E+00 5.00000E-01
 -1       417 8.13414E+00-4.50000E-01 5.00000E-01
 -1       418 7.68717E+00-2.69706E+00 5.00000E-01
 -1       419 8.16405E+00-7.52765E+00 5.00000E-01
 -1       420 7.52765E+00-8.16405E+00 5.00000E-01
 -1       421 6.06990E+00-5.43351E+00 5.00000E-01
 -1       422 5.43351E+00-6.06990E+00 5.00000E-01
 -1       423 9.00000E-01-8.13414E+00 5.00000E-01
 -1       424 2.92635E+00-1.47118E+01 5.00000E-01
 -1       425-3.83040E+00-1.04233E+01 5.00000E-01
 -1       426-4.50000E-01-1.10957E+01 5.00000E-01
 -1       427-9.00000E-01-8.13414E+00 5.00000E-01
 -1       428-2.28131E+00-7.85938E+00 5.00000E-01
 -1       429-4.66189E+00-1.00789E+01 5.00000E-01
 -1       430 5.28227E+00 9.00000E-01 5.00000E-01
 -1       431 5.22459E+00 1.18994E+00 5.00000E-01
 -1       432 4.53576E+00 2.85293E+00 5.00000E-01
 -1       433 4.05332E+00 3.41693E+00 5.00000E-01
 -1       434 1.97184E+00 1.30384E+00 5.00000E-01
 -1       435 1.32279E+00-1.95918E+00 5.00000E-01
 -1       436 2.85293E+00-4.53576E+00 5.00000E-01
 -1       437 2.43718E+00-4.70797E+00 5.00000E-01
 -1       438 1.30384E+00-1.97184E+00 5.00000E-01
 -1       439-1.38582E+01 5.74025E+00 5.00000E-01
 -1       440-1.47118E+01 2.92635E+00-5.00000E-01
 -1       441-1.47118E+01 2.92635E+00 5.00000E-01
 -1       442 1.24720E+01-8.33355E+00-5.00000E-01
 -1       443 1.24720E+01-8.33355E+00 5.00000E-01
 -1       444 1.06066E+01-1.06066E+01-5.00000E-01
 -1       445 1.38582E+01-5.74025E+00 5.00000E-01
 -1       446 1.38582E+01-5.74025E+00-5.00000E-01
 -1       447-1.47118E+01-2.92635E+00 5.00000E-01
 -1       448-1.38582E+01-5.74025E+00-5.00000E-01
 -1       449 3.80149E+00 4.50000E-01 1.45000E+00
 -1       450 3.80149E+00-4.50000E-01 1.45000E+00
 -1       451 6.70821E+00 9.00000E-01 1.45000E+00
 -1       452 6.70821E+00-9.00000E-01 1.45000E+00
 -1       453 9.61492E+00 4.50000E-01 1.45000E+00
 -1       454 9.61492E+00-4.50000E-01 1.45000E+00
 -1       455 9.61492E+00 4.50000E-01 5.00000E-01
 -1       456 3.80149E+00 4.50000E-01 5.00000E-01
 -1       457 3.80149E+00-4.50000E-01 5.00000E-01
 -1       458 9.61492E+00-4.50000E-01 5.00000E-01
 -1       459 6.70821E+00-9.00000E-01 5.00000E-01
 -1       460 6.70821E+00 9.00000E-01 5.00000E-01
 -1       461 9.05523E+00 3.26373E+00 1.45000E+00
 -1       462 8.71083E+00 4.09522E+00 1.45000E+00
 -1       463 6.54199E+00 1.73563E+00 1.45000E+00
 -1       464 5.85316E+00 3.39861E+00 1.45000E+00
 -1       465 3.68432E+00 1.03902E+00 1.45000E+00
 -1       466 3.33991E+00 1.87051E+00 1.45000E+00
 -1       467 8.71083E+00 4.09522E+00 5.00000E-01
 -1       468 3.33991E+00 1.87051E+00 5.00000E-01
 -1       469 3.68432E+00 1.03902E+00 5.00000E-01
 -1       470 9.05523E+00 3.26373E+00 5.00000E-01
 -1       471 6.54199E+00 1.73563E+00 5.00000E-01
 -1       472 5.85316E+00 3.39861E+00 5.00000E-01
 -1       473 7.11697E+00 6.48058E+00 1.45000E+00
 -1       474 6.48058E+00 7.11697E+00 1.45000E+00
 -1       475 5.37981E+00 4.10702E+00 1.45000E+00
 -1       476 4.10702E+00 5.37981E+00 1.45000E+00
 -1       477 3.00625E+00 2.36986E+00 1.45000E+00
 -1       478 2.36986E+00 3.00625E+00 1.45000E+00
 -1       479 6.48058E+00 7.11697E+00 5.00000E-01
 -1       480 2.36986E+00 3.00625E+00 5.00000E-01
 -1       481 3.00625E+00 2.36986E+00 5.00000E-01
 -1       482 7.11697E+00 6.48058E+00 5.00000E-01
 -1       483 5.37981E+00 4.10702E+00 5.00000E-01
 -1       484 4.10702E+00 5.37981E+00 5.00000E-01
 -1       485 1.73563E+00 6.54199E+00 1.45000E+00
 -1       486 4.09522E+00 8.71083E+00 1.45000E+00
 -1       487 3.26373E+00 9.05523E+00 1.45000E+00
 -1       488 1.87051E+00 3.33991E+00 1.45000E+00
 -1       489 1.03902E+00 3.68432E+00 1.45000E+00
 -1       490 3.39861E+00 5.85316E+00 1.45000E+00
 -1       491 3.26373E+00 9.05523E+00 5.00000E-01
 -1       492 1.03902E+00 3.68432E+00 5.00000E-01
 -1       493 1.87051E+00 3.33991E+00 5.00000E-01
 -1       494 4.09522E+00 8.71083E+00 5.00000E-01
 -1       495 3.39861E+00 5.85316E+00 5.00000E-01
 -1       496 1.73563E+00 6.54199E+00 5.00000E-01
 -1       497-9.00000E-01 6.70821E+00 1.45000E+00
 -1       498 4.50000E-01 9.61492E+00 1.45000E+00
 -1       499-4.50000E-01 9.61492E+00 1.45000E+00
 -1       500 4.50000E-01 3.80149E+00 1.45000E+00
 -1       501-4.50000E-01 3.80149E+00 1.45000E+00
 -1       502 9.00000E-01 6.70821E+00 1.45000E+00
 -1       503-4.50000E-01 9.61492E+00 5.00000E-01
 -1       504-4.50000E-01 3.80149E+00 5.00000E-01
 -1       505 4.50000E-01 3.80149E+00 5.00000E-01
 -1       506 4.50000E-01 9.61492E+00 5.00000E-01
 -1       507 9.00000E-01 6.70821E+00 5.00000E-01
 -1       508-9.00000E-01 6.70821E+00 5.00000E-01
 -1       509-1.73563E+00 6.54199E+00 1.45000E+00
 -1       510-1.03902E+00 3.68432E+00 1.45000E+00
 -1       511-1.87051E+00 3.33991E+00 1.45000E+00
 -1       512-3.26373E+00 9.05523E+00 1.45000E+00
 -1       513-4.09522E+00 8.71083E+00 1.45000E+00
 -1       514-3.39861E+00 5.85316E+00 1.45000E+00
 -1       515-4.09522E+00 8.71083E+00 5.00000E-01
 -1       516-1.87051E+00 3.33991E+00 5.00000E-01
 -1       517-1.03902E+00 3.68432E+00 5.00000E-01
 -1       518-3.26373E+00 9.05523E+00 5.00000E-01
 -1       519-1.73563E+00 6.54199E+00 5.00000E-01
 -1       520-3.39861E+00 5.85316E+00 5.00000E-01
 -1       521-6.48058E+00 7.11697E+00 1.45000E+00
 -1       522-7.11697E+00 6.48058E+00 1.45000E+00
 -1       523-4.10702E+00 5.37981E+00 1.45000E+00
 -1       524-5.37981E+00 4.10702E+00 1.45000E+00
 -1       525-2.36986E+00 3.00625E+00 1.45000E+00
 -1       526-3.00625E+00 2.36986E+00 1.45000E+00
 -1       527-7.11697E+00 6.48058E+00 5.00000E-01
 -1       528-3.00625E+00 2.36986E+00 5.00000E-01
 -1       529-2.36986E+00 3.00625E+00 5.00000E-01
 -1       530-6.48058E+00 7.11697E+00 5.00000E-01
 -1       531-4.10702E+00 5.37981E+00 5.00000E-01
 -1       532-5.37981E+00 4.10702E+00 5.00000E-01
 -1       533-8.71083E+00 4.09522E+00 1.45000E+00
 -1       534-9.05523E+00 3.26373E+00 1.45000E+00
 -1       535-5.85316E+00 3.39861E+00 1.45000E+00
 -1       536-6.54199E+00 1.73563E+00 1.45000E+00
 -1       537-3.33991E+00 1.87051E+00 1.45000E+00
 -1       538-3.68432E+00 1.03902E+00 1.45000E+00
 -1       539-9.05523E+00 3.26373E+00 5.00000E-01
 -1       540-3.68432E+00 1.03902E+00 5.00000E-01
 -1       541-3.33991E+00 1.87051E+00 5.00000E-01
 -1       542-8.71083E+00 4.09522E+00 5.00000E-01
 -1       543-5.85316E+00 3.39861E+00 5.00000E-01
 -1       544-6.54199E+00 1.73563E+00 5.00000E-01
 -1       545-9.61492E+00 4.50000E-01 1.45000E+00
 -1       546-9.61492E+00-4.50000E-01 1.45000E+00
 -1       547-6.70821E+00 9.00000E-01 1.45000E+00
 -1       548-6.70821E+00-9.00000E-01 1.45000E+00
 -1       549-3.80149E+00 4.50000E-01 1.45000E+00
 -1       550-3.80149E+00-4.50000E-01 1.45000E+00
 -1       551-9.61492E+00-4.50000E-01 5.00000E-01
 -1       552-3.80149E+00-4.50000E-01 5.00000E-01
 -1       553-3.80149E+00 4.50000E-01 5.00000E-01
 -1       554-9.61492E+00 4.50000E-01 5.00000E-01
 -1       555-6.70821E+00 9.00000E-01 5.00000E-01
 -1       556-6.70821E+00-9.00000E-01 5.00000E-01
 -1       557-3.33991E+00-1.87051E+00 1.45000E+00
 -1       558-3.68432E+00-1.03902E+00 1.45000E+00
 -1       559-5.85316E+00-3.39861E+00 1.45000E+00
 -1       560-6.54199E+00-1.73563E+00 1.45000E+00
 -1       561-8.71083E+00-4.09522E+00 1.45000E+00
 -1       562-9.05523E+00-3.26373E+00 1.45000E+00
 -1       563-8.71083E+00-4.09522E+00 5.00000E-01
 -1       564-3.33991E+00-1.87051E+00 5.00000E-01
 -1       565-3.68432E+00-1.03902E+00 5.00000E-01
 -1       566-9.05523E+00-3.26373E+00 5.00000E-01
 -1       567-6.54199E+00-1.73563E+00 5.00000E-01
 -1       568-5.85316E+00-3.39861E+00 5.00000E-01
 -1       569-2.36986E+00-3.00625E+00 1.45000E+00
 -1       570-3.00625E+00-2.36986E+00 1.45000E+00
 -1       571-4.10702E+00-5.37981E+00 1.45000E+00
 -1       572-5.37981E+00-4.10702E+00 1.45000E+00
 -1       573-6.48058E+00-7.11697E+00 1.45000E+00
 -1       574-7.11697E+00-6.48058E+00 1.45000E+00
 -1       575-6.48058E+00-7.11697E+00 5.00000E-01
 -1       576-2.36986E+00-3.00625E+00 5.00000E-01
 -1       577-3.00625E+00-2.36986E+00 5.00000E-01
 -1       578-7.11697E+00-6.48058E+00 5.00000E-01
 -1       579-5.37981E+00-4.10702E+00 5.00000E-01
 -1       580-4.10702E+00-5.37981E+00 5.00000E-01
 -1       581-3.39861E+00-5.85316E+00 1.45000E+00
 -1       582-1.03902E+00-3.68432E+00 1.45000E+00
 -1       583-1.87051E+00-3.33991E+00 1.45000E+00
 -1       584-3.26373E+00-9.05523E+00 1.45000E+00
 -1       585-4.09522E+00-8.71083E+00 1.45000E+00
 -1       586-1.73563E+00-6.54199E+00 1.45000E+00
 -1       587-3.26373E+00-9.05523E+00 5.00000E-01
 -1       588-1.03902E+00-3.68432E+00 5.00000E-01
 -1       589-1.87051E+00-3.33991E+00 5.00000E-01
 -1       590-4.09522E+00-8.71083E+00 5.00000E-01
 -1       591-3.39861E+00-5.85316E+00 5.00000E-01
 -1       592-1.73563E+00-6.54199E+00 5.00000E-01
 -1       593-9.00000E-01-6.70821E+00 1.45000E+00
 -1       594 4.50000E-01-3.80149E+00 1.45000E+00
 -1       595-4.50000E-01-3.80149E+00 1.45000E+00
 -1       596 4.50000E-01-9.61492E+00 1.45000E+00
 -1       597-4.50000E-01-9.61492E+00 1.45000E+00
 -1       598 9.00000E-01-6.70821E+00 1.45000E+00
 -1       599 4.50000E-01-9.61492E+00 5.00000E-01
 -1       600 4.50000E-01-3.80149E+00 5.00000E-01
 -1       601-4.50000E-01-3.80149E+00 5.00000E-01
 -1       602-4.50000E-01-9.61492E+00 5.00000E-01
 -1       603-9.00000E-01-6.70821E+00 5.00000E-01
 -1       604 9.00000E-01-6.70821E+00 5.00000E-01
 -1       605 3.39861E+00-5.85316E+00 1.45000E+00
 -1       606 4.09522E+00-8.71083E+00 1.45000E+00
 -1       607 3.26373E+00-9.05523E+00 1.45000E+00
 -1       608 1.87051E+00-3.33991E+00 1.45000E+00
 -1       609 1.03902E+00-3.68432E+00 1.45000E+00
 -1       610 1.73563E+00-6.54199E+00 1.45000E+00
 -1       611 4.09522E+00-8.71083E+00 5.00000E-01
 -1       612 1.87051E+00-3.33991E+00 5.00000E-01
 -1       613 1.03902E+00-3.68432E+00 5.00000E-01
 -1       614 3.26373E+00-9.05523E+00 5.00000E-01
 -1       615 1.73563E+00-6.54199E+00 5.00000E-01
 -1       616 3.39861E+00-5.85316E+00 5.00000E-01
 -1       617 3.00625E+00-2.36986E+00 1.45000E+00
 -1       618 2.36986E+00-3.00625E+00 1.45000E+00
 -1       619 5.37981E+00-4.10702E+00 1.45000E+00
 -1       620 4.10702E+00-5.37981E+00 1.45000E+00
 -1       621 7.11697E+00-6.48058E+00 1.45000E+00
 -1       622 6.48058E+00-7.11697E+00 1.45000E+00
 -1       623 7.11697E+00-6.48058E+00 5.00000E-01
 -1       624 3.00625E+00-2.36986E+00 5.00000E-01
 -1       625 2.36986E+00-3.00625E+00 5.00000E-01
 -1       626 6.48058E+00-7.11697E+00 5.00000E-01
 -1       627 4.10702E+00-5.37981E+00 5.00000E-01
 -1       628 5.37981E+00-4.10702E+00 5.00000E-01
 -1       629 3.68432E+00-1.03902E+00 1.45000E+00
 -1       630 3.33991E+00-1.87051E+00 1.45000E+00
 -1       631 6.54199E+00-1.73563E+00 1.45000E+00
 -1       632 5.85316E+00-3.39861E+00 1.45000E+00
 -1       633 9.05523E+00-3.26373E+00 1.45000E+00
 -1       634 8.71083E+00-4.09522E+00 1.45000E+00
 -1       635 9.05523E+00-3.26373E+00 5.00000E-01
 -1       636 3.68432E+00-1.03902E+00 5.00000E-01
 -1       637 3.33991E+00-1.87051E+00 5.00000E-01
 -1       638 8.71083E+00-4.09522E+00 5.00000E-01
 -1       639 5.85316E+00-3.39861E+00 5.00000E-01
 -1       640 6.54199E+00-1.73563E+00 5.00000E-01
 -1       641 9.47007E+00 1.15393E+01 5.00000E-01
 -1       642 9.47007E+00 1.15393E+01-5.00000E-01
 -1       643 1.48559E+01-1.46318E+00 5.00000E-01
 -1       644 1.48559E+01-1.46318E+00-5.00000E-01
 -1       645-4.33330E+00-1.42850E+01 5.00000E-01
 -1       646-4.33330E+00-1.42850E+01-5.00000E-01
 -1       647 1.15393E+01 9.47007E+00 5.00000E-01
 -1       648 1.15393E+01 9.47007E+00-5.00000E-01
 -1       649-4.33330E+00 1.42850E+01 5.00000E-01
 -1       650-4.33330E+00 1.42850E+01-5.00000E-01
 -1       651-1.31651E+01 7.03690E+00-5.00000E-01
 -1       652-1.31651E+01 7.03690E+00 5.00000E-01
 -1       653 9.47007E+00-1.15393E+01 5.00000E-01
 -1       654 9.47007E+00-1.15393E+01-5.00000E-01
 -1       655 1.31651E+01 7.03690E+00 5.00000E-01
 -1       656 1.31651E+01 7.03690E+00-5.00000E-01
 -1       657 7.03690E+00 1.31651E+01 5.00000E-01
 -1       658 7.03690E+00 1.31651E+01-5.00000E-01
 -1       659 1.46318E+00 1.48559E+01 5.00000E-01
 -1       660 1.46318E+00 1.48559E+01-5.00000E-01
 -1       661-1.48559E+01 1.46318E+00-5.00000E-01
 -1       662-1.48559E+01 1.46318E+00 5.00000E-01
 -1       663-1.15393E+01 9.47007E+00-5.00000E-01
 -1       664-1.15393E+01 9.47007E+00 5.00000E-01
 -1       665-7.03690E+00 1.31651E+01 5.00000E-01
 -1       666-7.03690E+00 1.31651E+01-5.00000E-01
 -1       667-1.46318E+00 1.48559E+01 5.00000E-01
 -1       668-1.46318E+00 1.48559E+01-5.00000E-01
 -1       669-9.47007E+00 1.15393E+01 5.00000E-01
 -1       670-9.47007E+00 1.15393E+01-5.00000E-01
 -1       671 1.48559E+01 1.46318E+00 5.00000E-01
 -1       672 1.48559E+01 1.46318E+00-5.00000E-01
 -1       673 1.46318E+00-1.48559E+01 5.00000E-01
 -1       674 1.46318E+00-1.48559E+01-5.00000E-01
 -1       675 1.42850E+01-4.33330E+00 5.00000E-01
 -1       676 1.42850E+01-4.33330E+00-5.00000E-01
 -1       677 4.33330E+00-1.42850E+01 5.00000E-01
 -1       678 4.33330E+00-1.42850E+01-5.00000E-01
 -1       679 7.03690E+00-1.31651E+01 5.00000E-01
 -1       680 7.03690E+00-1.31651E+01-5.00000E-01
 -1       681-1.46318E+00-1.48559E+01 5.00000E-01
 -1       682-1.46318E+00-1.48559E+01-5.00000E-01
 -1       683-9.47007E+00-1.15393E+01 5.00000E-01
 -1       684-9.47007E+00-1.15393E+01-5.00000E-01
 -1       685-1.31651E+01-7.03690E+00-5.00000E-01
 -1       686-1.31651E+01-7.03690E+00 5.00000E-01
 -1       687-1.48559E+01-1.46318E+00-5.00000E-01
 -1       688-1.48559E+01-1.46318E+00 5.00000E-01
 -1       689 1.42850E+01 4.33330E+00-5.00000E-01
 -1       690 1.31651E+01-7.03690E+00-5.00000E-01
 -1       691 1.15393E+01-9.47007E+00-5.00000E-01
 -1       692 4.33330E+00 1.42850E+01-5.00000E-01
 -1       693-7.03690E+00-1.31651E+01-5.00000E-01
 -1       694-1.15393E+01-9.47007E+00-5.00000E-01
 -1       695-1.42850E+01-4.33330E+00-5.00000E-01
 -1       696-1.42850E+01 4.33330E+00-5.00000E-01
 -1       697-1.15393E+01-9.47007E+00 5.00000E-01
 -1       698 1.42850E+01 4.33330E+00 5.00000E-01
 -1       699 4.33330E+00 1.42850E+01 5.00000E-01
 -1       700-1.42850E+01 4.33330E+00 5.00000E-01
 -1       701-1.42850E+01-4.33330E+00 5.00000E-01
 -1       702 1.31651E+01-7.03690E+00 5.00000E-01
 -1       703 1.15393E+01-9.47007E+00 5.00000E-01
 -1       704-7.03690E+00-1.31651E+01 5.00000E-01
 -1       705 4.54188E+00 4.50000E-01 1.45000E+00
 -1       706 3.06109E+00 4.50000E-01 1.45000E+00
 -1       707 4.54188E+00-4.50000E-01 1.45000E+00
 -1       708 5.99524E+00 9.00000E-01 1.45000E+00
 -1       709 8.87453E+00 4.50000E-01 1.45000E+00
 -1       710 1.03553E+01-4.50000E-01 1.45000E+00
 -1       711 4.54188E+00-4.50000E-01 5.00000E-01
 -1       712 5.99524E+00 9.00000E-01 5.00000E-01
 -1       713 3.00029E+00 7.55684E-01 1.45000E+00
 -1       714 4.36836E+00 1.32235E+00 1.45000E+00
 -1       715 2.65587E+00 1.58718E+00 1.45000E+00
 -1       716 4.36836E+00 1.32235E+00 5.00000E-01
 -1       717 6.51185E+00 3.67145E+00 5.00000E-01
 -1       718 5.19446E+00 3.12577E+00 5.00000E-01
 -1       719 2.48271E+00 1.84633E+00 1.45000E+00
 -1       720 3.52978E+00 2.89339E+00 1.45000E+00
 -1       721 1.84633E+00 2.48271E+00 1.45000E+00
 -1       722 7.64051E+00 7.00412E+00 5.00000E-01
 -1       723 4.61117E+00 5.88396E+00 5.00000E-01
 -1       724 3.60287E+00 4.87567E+00 5.00000E-01
 -1       725 7.55684E-01 3.00029E+00 1.45000E+00
 -1       726 3.12577E+00 5.19446E+00 1.45000E+00
 -1       727 3.67145E+00 6.51185E+00 1.45000E+00
 -1       728 1.46278E+00 5.88329E+00 5.00000E-01
 -1       729 4.50000E-01 3.06109E+00 1.45000E+00
 -1       730 4.50000E-01 4.54188E+00 1.45000E+00
 -1       731-4.50000E-01 3.06109E+00 1.45000E+00
 -1       732 9.00000E-01 7.42117E+00 1.45000E+00
 -1       733-3.81189E+00 8.02680E+00 1.45000E+00
 -1       734-3.67145E+00 6.51185E+00 1.45000E+00
 -1       735-3.12577E+00 5.19446E+00 1.45000E+00
 -1       736-3.54707E+00 9.73927E+00 5.00000E-01
 -1       737-3.67145E+00 6.51185E+00 5.00000E-01
 -1       738-3.12577E+00 5.19446E+00 5.00000E-01
 -1       739-1.84633E+00 2.48271E+00 1.45000E+00
 -1       740-2.89339E+00 3.52978E+00 1.45000E+00
 -1       741-2.48271E+00 1.84633E+00 1.45000E+00
 -1       742-2.89339E+00 3.52978E+00 5.00000E-01
 -1       743-5.88396E+00 4.61117E+00 5.00000E-01
 -1       744-4.87567E+00 3.60287E+00 5.00000E-01
 -1       745-2.65587E+00 1.58718E+00 1.45000E+00
 -1       746-4.02394E+00 2.15385E+00 1.45000E+00
 -1       747-3.00029E+00 7.55684E-01 1.45000E+00
 -1       748-4.02394E+00 2.15385E+00 5.00000E-01
 -1       749-7.20068E+00 2.00847E+00 5.00000E-01
 -1       750-5.88329E+00 1.46278E+00 5.00000E-01
 -1       751-3.06109E+00 4.50000E-01 1.45000E+00
 -1       752-4.54188E+00 4.50000E-01 1.45000E+00
 -1       753-3.06109E+00-4.50000E-01 1.45000E+00
 -1       754-4.54188E+00 4.50000E-01 5.00000E-01
 -1       755-7.42117E+00-9.00000E-01 5.00000E-01
 -1       756-5.99524E+00-9.00000E-01 5.00000E-01
 -1       757-2.65587E+00-1.58718E+00 1.45000E+00
 -1       758-4.36836E+00-1.32235E+00 1.45000E+00
 -1       759-5.88329E+00-1.46278E+00 1.45000E+00
 -1       760-7.20068E+00-2.00847E+00 1.45000E+00
 -1       761-9.73927E+00-3.54707E+00 1.45000E+00
 -1       762-4.36836E+00-1.32235E+00 5.00000E-01
 -1       763-1.84633E+00-2.48271E+00 1.45000E+00
 -1       764-3.52978E+00-2.89339E+00 1.45000E+00
 -1       765-4.87567E+00-3.60287E+00 1.45000E+00
 -1       766-5.88396E+00-4.61117E+00 1.45000E+00
 -1       767-7.64051E+00-7.00412E+00 1.45000E+00
 -1       768-7.55684E-01-3.00029E+00 1.45000E+00
 -1       769-2.15385E+00-4.02394E+00 1.45000E+00
 -1       770-1.46278E+00-5.88329E+00 1.45000E+00
 -1       771-2.15385E+00-4.02394E+00 5.00000E-01
 -1       772-1.46278E+00-5.88329E+00 5.00000E-01
 -1       773 4.50000E-01-3.06109E+00 1.45000E+00
 -1       774-4.50000E-01-4.54188E+00 1.45000E+00
 -1       775 4.50000E-01-8.87453E+00 1.45000E+00
 -1       776-4.50000E-01-1.03553E+01 1.45000E+00
 -1       777 9.00000E-01-5.99524E+00 5.00000E-01
 -1       778 1.58718E+00-2.65587E+00 1.45000E+00
 -1       779 1.32235E+00-4.36836E+00 1.45000E+00
 -1       780 1.46278E+00-5.88329E+00 1.45000E+00
 -1       781 2.00847E+00-7.20068E+00 1.45000E+00
 -1       782 1.32235E+00-4.36836E+00 5.00000E-01
 -1       783 2.48271E+00-1.84633E+00 1.45000E+00
 -1       784 2.89339E+00-3.52978E+00 1.45000E+00
 -1       785 4.87567E+00-3.60287E+00 1.45000E+00
 -1       786 6.59344E+00-5.95705E+00 1.45000E+00
 -1       787 7.00412E+00-7.64051E+00 1.45000E+00
 -1       788 2.89339E+00-3.52978E+00 5.00000E-01
 -1       789 3.00029E+00-7.55684E-01 1.45000E+00
 -1       790 4.02394E+00-2.15385E+00 1.45000E+00
 -1       791 5.88329E+00-1.46278E+00 1.45000E+00
 -1       792 8.37120E+00-2.98040E+00 1.45000E+00
 -1       793 9.39487E+00-4.37855E+00 1.45000E+00
 -1       794 4.02394E+00-2.15385E+00 5.00000E-01
 -1       795 7.20068E+00-2.00847E+00 5.00000E-01
 -1       796 5.88329E+00-1.46278E+00 5.00000E-01
 -1       797 1.00383E+01 1.10730E+01 5.00000E-01
 -1       798-5.03678E+00-1.40716E+01 5.00000E-01
 -1       799 1.20056E+01 8.90181E+00 5.00000E-01
 -1       800-3.62983E+00 1.44984E+01 5.00000E-01
 -1       801 8.90181E+00-1.20056E+01 5.00000E-01
 -1       802 1.35117E+01 6.38858E+00 5.00000E-01
 -1       803 6.38858E+00 1.35117E+01 5.00000E-01
 -1       804 7.68523E+00 1.28186E+01 5.00000E-01
 -1       805 6.38858E+00 1.35117E+01-5.00000E-01
 -1       806-1.20056E+01 8.90181E+00-5.00000E-01
 -1       807-1.10730E+01 1.00383E+01 5.00000E-01
 -1       808-7.68523E+00 1.28186E+01 5.00000E-01
 -1       809-6.38858E+00 1.35117E+01 5.00000E-01
 -1       810-7.68523E+00 1.28186E+01-5.00000E-01
 -1       811-2.19476E+00 1.47838E+01 5.00000E-01
 -1       812-7.31588E-01 1.49279E+01 5.00000E-01
 -1       813-2.19476E+00 1.47838E+01-5.00000E-01
 -1       814-1.00383E+01 1.10730E+01 5.00000E-01
 -1       815-8.90181E+00 1.20056E+01 5.00000E-01
 -1       816-1.00383E+01 1.10730E+01-5.00000E-01
 -1       817 1.49279E+01 7.31588E-01 5.00000E-01
 -1       818 1.47838E+01 2.19476E+00-5.00000E-01
 -1       819 7.31588E-01-1.49279E+01 5.00000E-01
 -1       820 1.40716E+01-5.03678E+00 5.00000E-01
 -1       821 5.03678E+00-1.40716E+01 5.00000E-01
 -1       822 3.62983E+00-1.44984E+01 5.00000E-01
 -1       823 5.03678E+00-1.40716E+01-5.00000E-01
 -1       824 6.38858E+00-1.35117E+01 5.00000E-01
 -1       825 7.68523E+00-1.28186E+01-5.00000E-01
 -1       826-7.31588E-01-1.49279E+01 5.00000E-01
 -1       827-2.19476E+00-1.47838E+01 5.00000E-01
 -1       828-7.31588E-01-1.49279E+01-5.00000E-01
 -1       829-1.00383E+01-1.10730E+01 5.00000E-01
 -1       830-1.47838E+01-2.19476E+00-5.00000E-01
 -1       831 1.40716E+01 5.03678E+00-5.00000E-01
 -1       832 1.44984E+01 3.62983E+00-5.00000E-01
 -1       833 1.28186E+01-7.68523E+00-5.00000E-01
 -1       834 1.20056E+01-8.90181E+00-5.00000E-01
 -1       835 1.10730E+01-1.00383E+01-5.00000E-01
 -1       836 3.62983E+00 1.44984E+01-5.00000E-01
 -1       837 5.03678E+00 1.40716E+01-5.00000E-01
 -1       838-6.38858E+00-1.35117E+01-5.00000E-01
 -1       839-7.68523E+00-1.28186E+01-5.00000E-01
 -1       840-1.10730E+01-1.00383E+01-5.00000E-01
 -1       841-1.20056E+01-8.90181E+00-5.00000E-01
 -1       842-1.44984E+01-3.62983E+00-5.00000E-01
 -1       843-1.40716E+01 5.03678E+00-5.00000E-01
 -1       844-1.20056E+01-8.90181E+00 5.00000E-01
 -1       845 1.44984E+01 3.62983E+00 5.00000E-01
 -1       846 5.03678E+00 1.40716E+01 5.00000E-01
 -1       847-1.44984E+01 3.62983E+00 5.00000E-01
 -1       848-1.40716E+01-5.03678E+00 5.00000E-01
 -1       849 1.35117E+01-6.38858E+00 5.00000E-01
 -1       850 1.20056E+01-8.90181E+00 5.00000E-01
 -1       851-6.38858E+00-1.35117E+01 5.00000E-01
 -1       852 3.06109E+00-4.50000E-01 1.45000E+00
 -1       853 7.42117E+00 9.00000E-01 1.45000E+00
 -1       854 7.42117E+00-9.00000E-01 1.45000E+00
 -1       855 5.99524E+00-9.00000E-01 1.45000E+00
 -1       856 1.03553E+01 4.50000E-01 1.45000E+00
 -1       857 8.87453E+00-4.50000E-01 1.45000E+00
 -1       858 8.87453E+00 4.50000E-01 5.00000E-01
 -1       859 1.03553E+01 4.50000E-01 5.00000E-01
 -1       860 3.06109E+00 4.50000E-01 5.00000E-01
 -1       861 4.54188E+00 4.50000E-01 5.00000E-01
 -1       862 3.06109E+00-4.50000E-01 5.00000E-01
 -1       863 1.03553E+01-4.50000E-01 5.00000E-01
 -1       864 8.87453E+00-4.50000E-01 5.00000E-01
 -1       865 7.42117E+00 9.00000E-01 5.00000E-01
 -1       866 7.42117E+00-9.00000E-01 5.00000E-01
 -1       867 5.99524E+00-9.00000E-01 5.00000E-01
 -1       868 8.02680E+00 3.81189E+00 1.45000E+00
 -1       869 9.73927E+00 3.54707E+00 1.45000E+00
 -1       870 8.37120E+00 2.98040E+00 1.45000E+00
 -1       871 9.39487E+00 4.37855E+00 1.45000E+00
 -1       872 7.20068E+00 2.00847E+00 1.45000E+00
 -1       873 5.88329E+00 1.46278E+00 1.45000E+00
 -1       874 5.19446E+00 3.12577E+00 1.45000E+00
 -1       875 6.51185E+00 3.67145E+00 1.45000E+00
 -1       876 4.02394E+00 2.15385E+00 1.45000E+00
 -1       877 8.02680E+00 3.81189E+00 5.00000E-01
 -1       878 9.39487E+00 4.37855E+00 5.00000E-01
 -1       879 2.65587E+00 1.58718E+00 5.00000E-01
 -1       880 4.02394E+00 2.15385E+00 5.00000E-01
 -1       881 3.00029E+00 7.55684E-01 5.00000E-01
 -1       882 9.73927E+00 3.54707E+00 5.00000E-01
 -1       883 8.37120E+00 2.98040E+00 5.00000E-01
 -1       884 7.20068E+00 2.00847E+00 5.00000E-01
 -1       885 5.88329E+00 1.46278E+00 5.00000E-01
 -1       886 5.88396E+00 4.61117E+00 1.45000E+00
 -1       887 7.64051E+00 7.00412E+00 1.45000E+00
 -1       888 6.59344E+00 5.95705E+00 1.45000E+00
 -1       889 5.95705E+00 6.59344E+00 1.45000E+00
 -1       890 7.00412E+00 7.64051E+00 1.45000E+00
 -1       891 4.87567E+00 3.60287E+00 1.45000E+00
 -1       892 3.60287E+00 4.87567E+00 1.45000E+00
 -1       893 4.61117E+00 5.88396E+00 1.45000E+00
 -1       894 2.89339E+00 3.52978E+00 1.45000E+00
 -1       895 5.95705E+00 6.59344E+00 5.00000E-01
 -1       896 7.00412E+00 7.64051E+00 5.00000E-01
 -1       897 1.84633E+00 2.48271E+00 5.00000E-01
 -1       898 2.89339E+00 3.52978E+00 5.00000E-01
 -1       899 3.52978E+00 2.89339E+00 5.00000E-01
 -1       900 2.48271E+00 1.84633E+00 5.00000E-01
 -1       901 6.59344E+00 5.95705E+00 5.00000E-01
 -1       902 5.88396E+00 4.61117E+00 5.00000E-01
 -1       903 4.87567E+00 3.60287E+00 5.00000E-01
 -1       904 2.15385E+00 4.02394E+00 1.45000E+00
 -1       905 1.58718E+00 2.65587E+00 1.45000E+00
 -1       906 1.46278E+00 5.88329E+00 1.45000E+00
 -1       907 2.00847E+00 7.20068E+00 1.45000E+00
 -1       908 4.37855E+00 9.39487E+00 1.45000E+00
 -1       909 3.81189E+00 8.02680E+00 1.45000E+00
 -1       910 2.98040E+00 8.37120E+00 1.45000E+00
 -1       911 3.54707E+00 9.73927E+00 1.45000E+00
 -1       912 1.32235E+00 4.36836E+00 1.45000E+00
 -1       913 2.98040E+00 8.37120E+00 5.00000E-01
 -1       914 3.54707E+00 9.73927E+00 5.00000E-01
 -1       915 7.55684E-01 3.00029E+00 5.00000E-01
 -1       916 1.32235E+00 4.36836E+00 5.00000E-01
 -1       917 2.15385E+00 4.02394E+00 5.00000E-01
 -1       918 1.58718E+00 2.65587E+00 5.00000E-01
 -1       919 4.37855E+00 9.39487E+00 5.00000E-01
 -1       920 3.81189E+00 8.02680E+00 5.00000E-01
 -1       921 2.00847E+00 7.20068E+00 5.00000E-01
 -1       922 3.67145E+00 6.51185E+00 5.00000E-01
 -1       923 3.12577E+00 5.19446E+00 5.00000E-01
 -1       924-9.00000E-01 5.99524E+00 1.45000E+00
 -1       925-9.00000E-01 7.42117E+00 1.45000E+00
 -1       926 4.50000E-01 1.03553E+01 1.45000E+00
 -1       927 4.50000E-01 8.87453E+00 1.45000E+00
 -1       928-4.50000E-01 8.87453E+00 1.45000E+00
 -1       929-4.50000E-01 1.03553E+01 1.45000E+00
 -1       930-4.50000E-01 4.54188E+00 1.45000E+00
 -1       931 9.00000E-01 5.99524E+00 1.45000E+00
 -1       932-4.50000E-01 8.87453E+00 5.00000E-01
 -1       933-4.50000E-01 1.03553E+01 5.00000E-01
 -1       934-4.50000E-01 3.06109E+00 5.00000E-01
 -1       935-4.50000E-01 4.54188E+00 5.00000E-01
 -1       936 4.50000E-01 4.54188E+00 5.00000E-01
 -1       937 4.50000E-01 3.06109E+00 5.00000E-01
 -1       938 4.50000E-01 1.03553E+01 5.00000E-01
 -1       939 4.50000E-01 8.87453E+00 5.00000E-01
 -1       940-1.32235E+00 4.36836E+00 1.45000E+00
 -1       941-9.00000E-01 5.99524E+00 5.00000E-01
 -1       942-9.00000E-01 7.42117E+00 5.00000E-01
 -1       943 9.00000E-01 7.42117E+00 5.00000E-01
 -1       944 9.00000E-01 5.99524E+00 5.00000E-01
 -1       945-7.55684E-01 3.00029E+00 1.45000E+00
 -1       946-2.00847E+00 7.20068E+00 1.45000E+00
 -1       947-1.46278E+00 5.88329E+00 1.45000E+00
 -1       948-1.58718E+00 2.65587E+00 1.45000E+00
 -1       949-2.15385E+00 4.02394E+00 1.45000E+00
 -1       950-3.54707E+00 9.73927E+00 1.45000E+00
 -1       951-2.98040E+00 8.37120E+00 1.45000E+00
 -1       952-4.37855E+00 9.39487E+00 1.45000E+00
 -1       953-3.81189E+00 8.02680E+00 5.00000E-01
 -1       954-4.37855E+00 9.39487E+00 5.00000E-01
 -1       955-1.58718E+00 2.65587E+00 5.00000E-01
 -1       956-2.15385E+00 4.02394E+00 5.00000E-01
 -1       957-1.32235E+00 4.36836E+00 5.00000E-01
 -1       958-7.55684E-01 3.00029E+00 5.00000E-01
 -1       959-2.98040E+00 8.37120E+00 5.00000E-01
 -1       960-2.00847E+00 7.20068E+00 5.00000E-01
 -1       961-1.46278E+00 5.88329E+00 5.00000E-01
 -1       962-4.61117E+00 5.88396E+00 1.45000E+00
 -1       963-7.00412E+00 7.64051E+00 1.45000E+00
 -1       964-5.95705E+00 6.59344E+00 1.45000E+00
 -1       965-6.59344E+00 5.95705E+00 1.45000E+00
 -1       966-7.64051E+00 7.00412E+00 1.45000E+00
 -1       967-3.60287E+00 4.87567E+00 1.45000E+00
 -1       968-4.87567E+00 3.60287E+00 1.45000E+00
 -1       969-5.88396E+00 4.61117E+00 1.45000E+00
 -1       970-3.52978E+00 2.89339E+00 1.45000E+00
 -1       971-6.59344E+00 5.95705E+00 5.00000E-01
 -1       972-7.64051E+00 7.00412E+00 5.00000E-01
 -1       973-2.48271E+00 1.84633E+00 5.00000E-01
 -1       974-3.52978E+00 2.89339E+00 5.00000E-01
 -1       975-1.84633E+00 2.48271E+00 5.00000E-01
 -1       976-7.00412E+00 7.64051E+00 5.00000E-01
 -1       977-5.95705E+00 6.59344E+00 5.00000E-01
 -1       978-4.61117E+00 5.88396E+00 5.00000E-01
 -1       979-3.60287E+00 4.87567E+00 5.00000E-01
 -1       980-6.51185E+00 3.67145E+00 1.45000E+00
 -1       981-9.39487E+00 4.37855E+00 1.45000E+00
 -1       982-8.02680E+00 3.81189E+00 1.45000E+00
 -1       983-8.37120E+00 2.98040E+00 1.45000E+00
 -1       984-9.73927E+00 3.54707E+00 1.45000E+00
 -1       985-5.19446E+00 3.12577E+00 1.45000E+00
 -1       986-5.88329E+00 1.46278E+00 1.45000E+00
 -1       987-7.20068E+00 2.00847E+00 1.45000E+00
 -1       988-4.36836E+00 1.32235E+00 1.45000E+00
 -1       989-8.37120E+00 2.98040E+00 5.00000E-01
 -1       990-9.73927E+00 3.54707E+00 5.00000E-01
 -1       991-3.00029E+00 7.55684E-01 5.00000E-01
 -1       992-4.36836E+00 1.32235E+00 5.00000E-01
 -1       993-2.65587E+00 1.58718E+00 5.00000E-01
 -1       994-9.39487E+00 4.37855E+00 5.00000E-01
 -1       995-8.02680E+00 3.81189E+00 5.00000E-01
 -1       996-6.51185E+00 3.67145E+00 5.00000E-01
 -1       997-5.19446E+00 3.12577E+00 5.00000E-01
 -1       998-7.42117E+00 9.00000E-01 1.45000E+00
 -1       999-1.03553E+01 4.50000E-01 1.45000E+00
 -1      1000-8.87453E+00 4.50000E-01 1.45000E+00
 -1      1001-8.87453E+00-4.50000E-01 1.45000E+00
 -1      1002-1.03553E+01-4.50000E-01 1.45000E+00
 -1      1003-5.99524E+00 9.00000E-01 1.45000E+00
 -1      1004-5.99524E+00-9.00000E-01 1.45000E+00
 -1      1005-7.42117E+00-9.00000E-01 1.45000E+00
 -1      1006-4.54188E+00-4.50000E-01 1.45000E+00
 -1      1007-8.87453E+00-4.50000E-01 5.00000E-01
 -1      1008-1.03553E+01-4.50000E-01 5.00000E-01
 -1      1009-3.06109E+00-4.50000E-01 5.00000E-01
 -1      1010-4.54188E+00-4.50000E-01 5.00000E-01
 -1      1011-3.06109E+00 4.50000E-01 5.00000E-01
 -1      1012-1.03553E+01 4.50000E-01 5.00000E-01
 -1      1013-8.87453E+00 4.50000E-01 5.00000E-01
 -1      1014-7.42117E+00 9.00000E-01 5.00000E-01
 -1      1015-5.99524E+00 9.00000E-01 5.00000E-01
 -1      1016-4.02394E+00-2.15385E+00 1.45000E+00
 -1      1017-3.00029E+00-7.55684E-01 1.45000E+00
 -1      1018-5.19446E+00-3.12577E+00 1.45000E+00
 -1      1019-6.51185E+00-3.67145E+00 1.45000E+00
 -1      1020-8.02680E+00-3.81189E+00 1.45000E+00
 -1      1021-9.39487E+00-4.37855E+00 1.45000E+00
 -1      1022-8.37120E+00-2.98040E+00 1.45000E+00
 -1      1023-8.02680E+00-3.81189E+00 5.00000E-01
 -1      1024-9.39487E+00-4.37855E+00 5.00000E-01
 -1      1025-2.65587E+00-1.58718E+00 5.00000E-01
 -1      1026-4.02394E+00-2.15385E+00 5.00000E-01
 -1      1027-3.00029E+00-7.55684E-01 5.00000E-01
 -1      1028-9.73927E+00-3.54707E+00 5.00000E-01
 -1      1029-8.37120E+00-2.98040E+00 5.00000E-01
 -1      1030-5.19446E+00-3.12577E+00 5.00000E-01
 -1      1031-6.51185E+00-3.67145E+00 5.00000E-01
 -1      1032-7.20068E+00-2.00847E+00 5.00000E-01
 -1      1033-5.88329E+00-1.46278E+00 5.00000E-01
 -1      1034-2.89339E+00-3.52978E+00 1.45000E+00
 -1      1035-2.48271E+00-1.84633E+00 1.45000E+00
 -1      1036-3.60287E+00-4.87567E+00 1.45000E+00
 -1      1037-4.61117E+00-5.88396E+00 1.45000E+00
 -1      1038-5.95705E+00-6.59344E+00 1.45000E+00
 -1      1039-7.00412E+00-7.64051E+00 1.45000E+00
 -1      1040-6.59344E+00-5.95705E+00 1.45000E+00
 -1      1041-3.52978E+00-2.89339E+00 5.00000E-01
 -1      1042-5.95705E+00-6.59344E+00 5.00000E-01
 -1      1043-7.00412E+00-7.64051E+00 5.00000E-01
 -1      1044-1.84633E+00-2.48271E+00 5.00000E-01
 -1      1045-2.89339E+00-3.52978E+00 5.00000E-01
 -1      1046-2.48271E+00-1.84633E+00 5.00000E-01
 -1      1047-7.64051E+00-7.00412E+00 5.00000E-01
 -1      1048-6.59344E+00-5.95705E+00 5.00000E-01
 -1      1049-3.60287E+00-4.87567E+00 5.00000E-01
 -1      1050-4.61117E+00-5.88396E+00 5.00000E-01
 -1      1051-5.88396E+00-4.61117E+00 5.00000E-01
 -1      1052-4.87567E+00-3.60287E+00 5.00000E-01
 -1      1053-1.32235E+00-4.36836E+00 1.45000E+00
 -1      1054-3.67145E+00-6.51185E+00 1.45000E+00
 -1      1055-3.12577E+00-5.19446E+00 1.45000E+00
 -1      1056-1.58718E+00-2.65587E+00 1.45000E+00
 -1      1057-4.37855E+00-9.39487E+00 1.45000E+00
 -1      1058-2.98040E+00-8.37120E+00 1.45000E+00
 -1      1059-3.54707E+00-9.73927E+00 1.45000E+00
 -1      1060-3.81189E+00-8.02680E+00 1.45000E+00
 -1      1061-2.00847E+00-7.20068E+00 1.45000E+00
 -1      1062-2.98040E+00-8.37120E+00 5.00000E-01
 -1      1063-3.54707E+00-9.73927E+00 5.00000E-01
 -1      1064-7.55684E-01-3.00029E+00 5.00000E-01
 -1      1065-1.32235E+00-4.36836E+00 5.00000E-01
 -1      1066-1.58718E+00-2.65587E+00 5.00000E-01
 -1      1067-4.37855E+00-9.39487E+00 5.00000E-01
 -1      1068-3.81189E+00-8.02680E+00 5.00000E-01
 -1      1069-2.00847E+00-7.20068E+00 5.00000E-01
 -1      1070-3.67145E+00-6.51185E+00 5.00000E-01
 -1      1071-3.12577E+00-5.19446E+00 5.00000E-01
 -1      1072 4.50000E-01-4.54188E+00 1.45000E+00
 -1      1073-9.00000E-01-7.42117E+00 1.45000E+00
 -1      1074-9.00000E-01-5.99524E+00 1.45000E+00
 -1      1075-4.50000E-01-3.06109E+00 1.45000E+00
 -1      1076 4.50000E-01-1.03553E+01 1.45000E+00
 -1      1077-4.50000E-01-8.87453E+00 1.45000E+00
 -1      1078 9.00000E-01-5.99524E+00 1.45000E+00
 -1      1079 9.00000E-01-7.42117E+00 1.45000E+00
 -1      1080-4.50000E-01-4.54188E+00 5.00000E-01
 -1      1081 4.50000E-01-8.87453E+00 5.00000E-01
 -1      1082 4.50000E-01-1.03553E+01 5.00000E-01
 -1      1083 4.50000E-01-3.06109E+00 5.00000E-01
 -1      1084 4.50000E-01-4.54188E+00 5.00000E-01
 -1      1085-4.50000E-01-3.06109E+00 5.00000E-01
 -1      1086-4.50000E-01-1.03553E+01 5.00000E-01
 -1      1087-4.50000E-01-8.87453E+00 5.00000E-01
 -1      1088 9.00000E-01-7.42117E+00 5.00000E-01
 -1      1089-9.00000E-01-7.42117E+00 5.00000E-01
 -1      1090-9.00000E-01-5.99524E+00 5.00000E-01
 -1      1091 2.15385E+00-4.02394E+00 1.45000E+00
 -1      1092 3.12577E+00-5.19446E+00 1.45000E+00
 -1      1093 3.67145E+00-6.51185E+00 1.45000E+00
 -1      1094 3.81189E+00-8.02680E+00 1.45000E+00
 -1      1095 4.37855E+00-9.39487E+00 1.45000E+00
 -1      1096 3.54707E+00-9.73927E+00 1.45000E+00
 -1      1097 2.98040E+00-8.37120E+00 1.45000E+00
 -1      1098 7.55684E-01-3.00029E+00 1.45000E+00
 -1      1099 3.81189E+00-8.02680E+00 5.00000E-01
 -1      1100 4.37855E+00-9.39487E+00 5.00000E-01
 -1      1101 1.58718E+00-2.65587E+00 5.00000E-01
 -1      1102 2.15385E+00-4.02394E+00 5.00000E-01
 -1      1103 7.55684E-01-3.00029E+00 5.00000E-01
 -1      1104 3.54707E+00-9.73927E+00 5.00000E-01
 -1      1105 2.98040E+00-8.37120E+00 5.00000E-01
 -1      1106 3.12577E+00-5.19446E+00 5.00000E-01
 -1      1107 3.67145E+00-6.51185E+00 5.00000E-01
 -1      1108 2.00847E+00-7.20068E+00 5.00000E-01
 -1      1109 1.46278E+00-5.88329E+00 5.00000E-01
 -1      1110 3.52978E+00-2.89339E+00 1.45000E+00
 -1      1111 1.84633E+00-2.48271E+00 1.45000E+00
 -1      1112 5.88396E+00-4.61117E+00 1.45000E+00
 -1      1113 4.61117E+00-5.88396E+00 1.45000E+00
 -1      1114 3.60287E+00-4.87567E+00 1.45000E+00
 -1      1115 7.64051E+00-7.00412E+00 1.45000E+00
 -1      1116 5.95705E+00-6.59344E+00 1.45000E+00
 -1      1117 6.59344E+00-5.95705E+00 5.00000E-01
 -1      1118 7.64051E+00-7.00412E+00 5.00000E-01
 -1      1119 2.48271E+00-1.84633E+00 5.00000E-01
 -1      1120 3.52978E+00-2.89339E+00 5.00000E-01
 -1      1121 1.84633E+00-2.48271E+00 5.00000E-01
 -1      1122 7.00412E+00-7.64051E+00 5.00000E-01
 -1      1123 5.95705E+00-6.59344E+00 5.00000E-01
 -1      1124 4.87567E+00-3.60287E+00 5.00000E-01
 -1      1125 5.88396E+00-4.61117E+00 5.00000E-01
 -1      1126 4.61117E+00-5.88396E+00 5.00000E-01
 -1      1127 3.60287E+00-4.87567E+00 5.00000E-01
 -1      1128 4.36836E+00-1.32235E+00 1.45000E+00
 -1      1129 2.65587E+00-1.58718E+00 1.45000E+00
 -1      1130 7.20068E+00-2.00847E+00 1.45000E+00
 -1      1131 6.51185E+00-3.67145E+00 1.45000E+00
 -1      1132 5.19446E+00-3.12577E+00 1.45000E+00
 -1      1133 9.73927E+00-3.54707E+00 1.45000E+00
 -1      1134 8.02680E+00-3.81189E+00 1.45000E+00
 -1      1135 8.37120E+00-2.98040E+00 5.00000E-01
 -1      1136 9.73927E+00-3.54707E+00 5.00000E-01
 -1      1137 3.00029E+00-7.55684E-01 5.00000E-01
 -1      1138 4.36836E+00-1.32235E+00 5.00000E-01
 -1      1139 2.65587E+00-1.58718E+00 5.00000E-01
 -1      1140 9.39487E+00-4.37855E+00 5.00000E-01
 -1      1141 8.02680E+00-3.81189E+00 5.00000E-01
 -1      1142 6.51185E+00-3.67145E+00 5.00000E-01
 -1      1143 5.19446E+00-3.12577E+00 5.00000E-01
 -1      1144 8.90181E+00 1.20056E+01 5.00000E-01
 -1      1145 8.90181E+00 1.20056E+01-5.00000E-01
 -1      1146 1.00383E+01 1.10730E+01-5.00000E-01
 -1      1147 1.47838E+01-2.19476E+00 5.00000E-01
 -1      1148 1.49279E+01-7.31588E-01 5.00000E-01
 -1      1149 1.49279E+01-7.31588E-01-5.00000E-01
 -1      1150 1.47838E+01-2.19476E+00-5.00000E-01
 -1      1151-3.62983E+00-1.44984E+01 5.00000E-01
 -1      1152-3.62983E+00-1.44984E+01-5.00000E-01
 -1      1153-5.03678E+00-1.40716E+01-5.00000E-01
 -1      1154 1.10730E+01 1.00383E+01 5.00000E-01
 -1      1155 1.10730E+01 1.00383E+01-5.00000E-01
 -1      1156 1.20056E+01 8.90181E+00-5.00000E-01
 -1      1157-5.03678E+00 1.40716E+01 5.00000E-01
 -1      1158-5.03678E+00 1.40716E+01-5.00000E-01
 -1      1159-3.62983E+00 1.44984E+01-5.00000E-01
 -1      1160-1.35117E+01 6.38858E+00-5.00000E-01
 -1      1161-1.28186E+01 7.68523E+00-5.00000E-01
 -1      1162-1.28186E+01 7.68523E+00 5.00000E-01
 -1      1163-1.35117E+01 6.38858E+00 5.00000E-01
 -1      1164 1.00383E+01-1.10730E+01 5.00000E-01
 -1      1165 1.00383E+01-1.10730E+01-5.00000E-01
 -1      1166 8.90181E+00-1.20056E+01-5.00000E-01
 -1      1167 1.28186E+01 7.68523E+00 5.00000E-01
 -1      1168 1.28186E+01 7.68523E+00-5.00000E-01
 -1      1169 1.35117E+01 6.38858E+00-5.00000E-01
 -1      1170 7.68523E+00 1.28186E+01-5.00000E-01
 -1      1171 2.19476E+00 1.47838E+01 5.00000E-01
 -1      1172 7.31588E-01 1.49279E+01 5.00000E-01
 -1      1173 7.31588E-01 1.49279E+01-5.00000E-01
 -1      1174 2.19476E+00 1.47838E+01-5.00000E-01
 -1      1175-1.49279E+01 7.31588E-01-5.00000E-01
 -1      1176-1.47838E+01 2.19476E+00-5.00000E-01
 -1      1177-1.47838E+01 2.19476E+00 5.00000E-01
 -1      1178-1.49279E+01 7.31588E-01 5.00000E-01
 -1      1179-1.10730E+01 1.00383E+01-5.00000E-01
 -1      1180-1.20056E+01 8.90181E+00 5.00000E-01
 -1      1181-6.38858E+00 1.35117E+01-5.00000E-01
 -1      1182-7.31588E-01 1.49279E+01-5.00000E-01
 -1      1183-8.90181E+00 1.20056E+01-5.00000E-01
 -1      1184 1.47838E+01 2.19476E+00 5.00000E-01
 -1      1185 1.49279E+01 7.31588E-01-5.00000E-01
 -1      1186 2.19476E+00-1.47838E+01 5.00000E-01
 -1      1187 2.19476E+00-1.47838E+01-5.00000E-01
 -1      1188 7.31588E-01-1.49279E+01-5.00000E-01
 -1      1189 1.44984E+01-3.62983E+00 5.00000E-01
 -1      1190 1.44984E+01-3.62983E+00-5.00000E-01
 -1      1191 1.40716E+01-5.03678E+00-5.00000E-01
 -1      1192 3.62983E+00-1.44984E+01-5.00000E-01
 -1      1193 7.68523E+00-1.28186E+01 5.00000E-01
 -1      1194 6.38858E+00-1.35117E+01-5.00000E-01
 -1      1195-2.19476E+00-1.47838E+01-5.00000E-01
 -1      1196-8.90181E+00-1.20056E+01 5.00000E-01
 -1      1197-8.90181E+00-1.20056E+01-5.00000E-01
 -1      1198-1.00383E+01-1.10730E+01-5.00000E-01
 -1      1199-1.28186E+01-7.68523E+00-5.00000E-01
 -1      1200-1.35117E+01-6.38858E+00-5.00000E-01
 -1      1201-1.35117E+01-6.38858E+00 5.00000E-01
 -1      1202-1.28186E+01-7.68523E+00 5.00000E-01
 -1      1203-1.49279E+01-7.31588E-01-5.00000E-01
 -1      1204-1.49279E+01-7.31588E-01 5.00000E-01
 -1      1205-1.47838E+01-2.19476E+00 5.00000E-01
 -1      1206 1.35117E+01-6.38858E+00-5.00000E-01
 -1      1207-1.40716E+01-5.03678E+00-5.00000E-01
 -1      1208-1.44984E+01 3.62983E+00-5.00000E-01
 -1      1209-1.10730E+01-1.00383E+01 5.00000E-01
 -1      1210 1.40716E+01 5.03678E+00 5.00000E-01
 -1      1211 3.62983E+00 1.44984E+01 5.00000E-01
 -1      1212-1.40716E+01 5.03678E+00 5.00000E-01
 -1      1213-1.44984E+01-3.62983E+00 5.00000E-01
 -1      1214 1.28186E+01-7.68523E+00 5.00000E-01
 -1      1215 1.10730E+01-1.00383E+01 5.00000E-01
 -1      1216-7.68523E+00-1.28186E+01 5.00000E-01
 -1      1217-2.22095E+00 1.58456E+00 5.00000E-01
 -1      1218-2.28372E+00 1.43302E+00 5.00000E-01
 -1      1219-2.65828E+00-6.14017E-01 5.00000E-01
 -1      1220-2.65828E+00-4.50000E-01 5.00000E-01
 -1      1221-2.32070E+00 4.50000E-01 9.75000E-01
 -1      1222-2.32070E+00 0.00000E+00 5.00000E-01
 -1      1223 2.22095E+00 1.58456E+00 5.00000E-01
 -1      1224 2.28372E+00 1.43302E+00 5.00000E-01
 -1      1225-1.58456E+00 2.22095E+00 5.00000E-01
 -1      1226-1.43302E+00 2.28372E+00 5.00000E-01
 -1      1227-6.14017E-01 2.65828E+00 5.00000E-01
 -1      1228-4.50000E-01 2.65828E+00 5.00000E-01
 -1      1229 0.00000E+00 2.32070E+00 5.00000E-01
 -1      1230-6.14017E-01-2.65828E+00 5.00000E-01
 -1      1231-4.50000E-01-2.65828E+00 5.00000E-01
 -1      1232 2.22095E+00-1.58456E+00 5.00000E-01
 -1      1233 2.28372E+00-1.43302E+00 5.00000E-01
 -1      1234 2.65828E+00-6.14017E-01 5.00000E-01
 -1      1235 2.65828E+00-4.50000E-01 5.00000E-01
 -1      1236 6.14017E-01-2.65828E+00 5.00000E-01
 -1      1237 4.50000E-01-2.65828E+00 5.00000E-01
 -1      1238 2.32070E+00 0.00000E+00 5.00000E-01
 -1      1239-1.97184E+00 1.30384E+00 9.75000E-01
 -1      1240-2.48727E+00-5.43183E-01 5.00000E-01
 -1      1241-2.48727E+00-4.50000E-01 5.00000E-01
 -1      1242 0.00000E+00-2.32070E+00 5.00000E-01
 -1      1243 1.58456E+00-2.22095E+00 5.00000E-01
 -1      1244 1.43302E+00-2.28372E+00 5.00000E-01
 -1      1245 1.58456E+00 2.22095E+00 5.00000E-01
 -1      1246 1.43302E+00 2.28372E+00 5.00000E-01
 -1      1247-2.14405E+00-8.88094E-01 5.00000E-01
 -1      1248 1.64099E+00-1.64099E+00 5.00000E-01
 -1      1249-1.58456E+00-2.22095E+00 5.00000E-01
 -1      1250-1.43302E+00-2.28372E+00 5.00000E-01
 -1      1251 2.31626E+00 4.72349E-01 9.75000E-01
 -1      1252-1.30384E+00 1.97184E+00 9.75000E-01
 -1      1253-8.88094E-01-2.14405E+00 5.00000E-01
 -1      1254 2.65828E+00 6.14017E-01 5.00000E-01
 -1      1255 2.65828E+00 4.50000E-01 5.00000E-01
 -1      1256 1.64099E+00 1.64099E+00 5.00000E-01
 -1      1257-2.25000E-01 2.32070E+00 5.00000E-01
 -1      1258-2.14405E+00 8.88094E-01 5.00000E-01
 -1      1259-1.64099E+00-1.64099E+00 5.00000E-01
 -1      1260-5.43183E-01-2.48727E+00 5.00000E-01
 -1      1261-4.50000E-01-2.48727E+00 5.00000E-01
 -1      1262-5.43183E-01 2.48727E+00 5.00000E-01
 -1      1263-4.50000E-01 2.48727E+00 5.00000E-01
 -1      1264 1.97184E+00-1.30384E+00 9.75000E-01
 -1      1265-2.32070E+00-4.50000E-01 9.75000E-01
 -1      1266-4.50000E-01 2.32070E+00 9.75000E-01
 -1      1267 4.72349E-01-2.31626E+00 9.75000E-01
 -1      1268-4.50000E-01-2.32070E+00 9.75000E-01
 -1      1269-2.22095E+00-1.58456E+00 5.00000E-01
 -1      1270-2.28372E+00-1.43302E+00 5.00000E-01
 -1      1271-2.65828E+00 6.14017E-01 5.00000E-01
 -1      1272-2.65828E+00 4.50000E-01 5.00000E-01
 -1      1273 2.48727E+00-5.43183E-01 5.00000E-01
 -1      1274 2.48727E+00-4.50000E-01 5.00000E-01
 -1      1275-8.88094E-01 2.14405E+00 5.00000E-01
 -1      1276 2.32070E+00-4.50000E-01 9.75000E-01
 -1      1277 4.50000E-01-2.32070E+00 9.75000E-01
 -1      1278 2.14405E+00-8.88094E-01 5.00000E-01
 -1      1279 1.80008E+00 1.48189E+00 5.00000E-01
 -1      1280-1.45367E+00 2.09006E+00 5.00000E-01
 -1      1281-1.36758E+00 2.12572E+00 5.00000E-01
 -1      1282-2.09006E+00 1.45367E+00 5.00000E-01
 -1      1283-2.12572E+00 1.36758E+00 5.00000E-01
 -1      1284-1.32279E+00 1.95918E+00 9.75000E-01
 -1      1285-1.64099E+00 1.64099E+00 5.00000E-01
 -1      1286-2.31626E+00 4.72349E-01 9.75000E-01
 -1      1287 0.00000E+00 2.32070E+00 1.45000E+00
 -1      1288 1.95918E+00 1.32279E+00 9.75000E-01
 -1      1289-2.40176E+00-5.07766E-01 5.00000E-01
 -1      1290-2.40176E+00-4.50000E-01 5.00000E-01
 -1      1291 2.09006E+00 1.45367E+00 5.00000E-01
 -1      1292 2.12572E+00 1.36758E+00 5.00000E-01
 -1      1293-1.45367E+00-2.09006E+00 5.00000E-01
 -1      1294-1.36758E+00-2.12572E+00 5.00000E-01
 -1      1295 6.14017E-01 2.65828E+00 5.00000E-01
 -1      1296 4.50000E-01 2.65828E+00 5.00000E-01
 -1      1297-1.09597E+00-2.05795E+00 5.00000E-01
 -1      1298 4.72349E-01 2.31626E+00 9.75000E-01
 -1      1299 2.14405E+00 8.88094E-01 5.00000E-01
 -1      1300-2.31626E+00-4.72349E-01 9.75000E-01
 -1      1301-2.32070E+00-2.25000E-01 5.00000E-01
 -1      1302-1.48189E+00-1.80008E+00 5.00000E-01
 -1      1303 1.45367E+00 2.09006E+00 5.00000E-01
 -1      1304 1.36758E+00 2.12572E+00 5.00000E-01
 -1      1305-2.25000E-01-2.32070E+00 5.00000E-01
 -1      1306 8.88094E-01-2.14405E+00 5.00000E-01
 -1      1307 1.45367E+00-2.09006E+00 5.00000E-01
 -1      1308 1.36758E+00-2.12572E+00 5.00000E-01
 -1      1309 1.32279E+00-1.95918E+00 9.75000E-01
 -1      1310 1.30384E+00-1.97184E+00 9.75000E-01
 -1      1311-2.14405E+00-8.88094E-01 1.45000E+00
 -1      1312 5.43183E-01-2.48727E+00 5.00000E-01
 -1      1313 4.50000E-01-2.48727E+00 5.00000E-01
 -1      1314-1.97184E+00-1.30384E+00 9.75000E-01
 -1      1315-2.31626E+00-4.72349E-01 7.37500E-01
 -1      1316-2.23015E+00-6.80222E-01 5.00000E-01
 -1      1317-2.48727E+00 5.43183E-01 5.00000E-01
 -1      1318-2.48727E+00 4.50000E-01 5.00000E-01
 -1      1319-2.23015E+00 6.80222E-01 5.00000E-01
 -1      1320-2.02462E+00 1.38823E+00 5.00000E-01
 -1      1321-2.04673E+00 1.33486E+00 5.00000E-01
 -1      1322 4.50000E-01 2.32070E+00 9.75000E-01
 -1      1323-1.97184E+00 1.30384E+00 7.37500E-01
 -1      1324-2.05795E+00 1.09597E+00 5.00000E-01
 -1      1325 1.64099E+00-1.64099E+00 1.45000E+00
 -1      1326 8.88094E-01-2.14405E+00 1.45000E+00
 -1      1327-4.72349E-01-2.31626E+00 9.75000E-01
 -1      1328 8.88094E-01 2.14405E+00 5.00000E-01
 -1      1329 2.48949E+00 4.50000E-01 5.00000E-01
 -1      1330 2.45622E+00 5.30321E-01 5.00000E-01
 -1      1331 1.38823E+00-2.02462E+00 5.00000E-01
 -1      1332 1.33486E+00-2.04673E+00 5.00000E-01
 -1      1333 1.09597E+00-2.05795E+00 5.00000E-01
 -1      1334 2.32070E+00 4.50000E-01 9.75000E-01
 -1      1335-6.80222E-01 2.23015E+00 5.00000E-01
 -1      1336 2.09006E+00-1.45367E+00 5.00000E-01
 -1      1337 2.12572E+00-1.36758E+00 5.00000E-01
 -1      1338-1.95918E+00 1.32279E+00 9.75000E-01
 -1      1339-4.72349E-01 2.31626E+00 9.75000E-01
 -1      1340 1.95918E+00-1.32279E+00 9.75000E-01
 -1      1341 2.02462E+00 1.38823E+00 5.00000E-01
 -1      1342 2.04673E+00 1.33486E+00 5.00000E-01
 -1      1343-1.48189E+00 1.80008E+00 5.00000E-01
 -1      1344 1.80008E+00-1.48189E+00 5.00000E-01
 -1      1345 2.05795E+00 1.09597E+00 5.00000E-01
 -1      1346-4.50000E-01 2.40398E+00 5.00000E-01
 -1      1347-5.00091E-01 2.38324E+00 5.00000E-01
 -1      1348-1.19990E+00-2.01489E+00 5.00000E-01
 -1      1349-2.32070E+00 2.25000E-01 5.00000E-01
 -1      1350-2.32070E+00-4.50000E-01 7.37500E-01
 -1      1351 1.38823E+00 2.02462E+00 5.00000E-01
 -1      1352 1.33486E+00 2.04673E+00 5.00000E-01
 -1      1353 2.31626E+00-4.72349E-01 9.75000E-01
 -1      1354 1.48189E+00 1.80008E+00 5.00000E-01
 -1      1355 2.31626E+00 4.72349E-01 7.37500E-01
 -1      1356-1.32279E+00-1.95918E+00 9.75000E-01
 -1      1357 1.64099E+00 1.64099E+00 1.45000E+00
 -1      1358-2.09006E+00-1.45367E+00 5.00000E-01
 -1      1359-2.12572E+00-1.36758E+00 5.00000E-01
 -1      1360-4.72349E-01 2.31626E+00 7.37500E-01
 -1      1361-4.50000E-01 2.32070E+00 7.37500E-01
 -1      1362 1.30384E+00 1.97184E+00 9.75000E-01
 -1      1363-1.95918E+00-1.32279E+00 9.75000E-01
 -1      1364-1.30384E+00-1.97184E+00 9.75000E-01
 -1      1365 2.40509E+00 4.50000E-01 5.00000E-01
 -1      1366 2.38418E+00 5.00484E-01 5.00000E-01
 -1      1367 1.09597E+00 2.05795E+00 5.00000E-01
 -1      1368-1.38823E+00-2.02462E+00 5.00000E-01
 -1      1369-1.33486E+00-2.04673E+00 5.00000E-01
 -1      1370 2.32070E+00 2.25000E-01 5.00000E-01
 -1      1371 1.95918E+00 1.32279E+00 7.37500E-01
 -1      1372 1.48189E+00-1.80008E+00 5.00000E-01
 -1      1373 2.40176E+00-5.07766E-01 5.00000E-01
 -1      1374 2.40176E+00-4.50000E-01 5.00000E-01
 -1      1375 2.23015E+00-6.80222E-01 5.00000E-01
 -1      1376-1.80008E+00 1.48189E+00 5.00000E-01
 -1      1377 5.43183E-01 2.48727E+00 5.00000E-01
 -1      1378 4.50000E-01 2.48727E+00 5.00000E-01
 -1      1379-1.87963E+00 1.40234E+00 5.00000E-01
 -1      1380 1.32279E+00 1.95918E+00 9.75000E-01
 -1      1381 1.32279E+00 1.95918E+00 7.37500E-01
 -1      1382-1.40234E+00-1.87963E+00 5.00000E-01
 -1      1383-2.40176E+00 5.07766E-01 5.00000E-01
 -1      1384-2.40176E+00 4.50000E-01 5.00000E-01
 -1      1385-2.31626E+00 4.72349E-01 7.37500E-01
 -1      1386-2.01489E+00 1.19990E+00 5.00000E-01
 -1      1387-2.32070E+00 4.50000E-01 7.37500E-01
 -1      1388-2.27321E+00 5.76285E-01 5.00000E-01
 -1      1389 1.40234E+00 1.87963E+00 5.00000E-01
 -1      1390-2.35901E+00-4.90057E-01 5.00000E-01
 -1      1391-2.35901E+00-4.50000E-01 5.00000E-01
 -1      1392 2.32070E+00-2.25000E-01 5.00000E-01
 -1      1393-2.32070E+00-3.37500E-01 5.00000E-01
 -1      1394-2.27321E+00-5.76285E-01 5.00000E-01
 -1      1395 2.32070E+00 3.37500E-01 5.00000E-01
 -1      1396 1.30384E+00-1.97184E+00 7.37500E-01
 -1      1397 2.32070E+00 4.50000E-01 7.37500E-01
 -1      1398-1.30384E+00-1.97184E+00 7.37500E-01
 -1      1399-1.38823E+00 2.02462E+00 5.00000E-01
 -1      1400-1.33486E+00 2.04673E+00 5.00000E-01
 -1      1401-1.32279E+00 1.95918E+00 7.37500E-01
 -1      1402-1.09597E+00 2.05795E+00 5.00000E-01
 -1      1403 1.97184E+00 1.30384E+00 9.75000E-01
 -1      1404-2.32070E+00-3.93750E-01 5.00000E-01
 -1      1405-4.72349E-01 2.31626E+00 6.18750E-01
 -1      1406 2.05795E+00-1.09597E+00 5.00000E-01
 -1      1407-6.80222E-01-2.23015E+00 5.00000E-01
 -1      1408-2.32070E+00 3.37500E-01 5.00000E-01
 -1      1409 2.23015E+00 6.80222E-01 5.00000E-01
 -1      1410-1.99190E+00 1.35551E+00 5.00000E-01
 -1      1411-2.00723E+00 1.31850E+00 5.00000E-01
 -1      1412-3.37500E-01-2.32070E+00 5.00000E-01
 -1      1413-5.07766E-01-2.40176E+00 5.00000E-01
 -1      1414-4.50000E-01-2.40176E+00 5.00000E-01
 -1      1415-5.76285E-01 2.27321E+00 5.00000E-01
 -1      1416-3.37500E-01 2.32070E+00 5.00000E-01
 -1      1417 1.35551E+00 1.99190E+00 5.00000E-01
 -1      1418 1.31850E+00 2.00723E+00 5.00000E-01
 -1      1419 1.19990E+00 2.01489E+00 5.00000E-01
 -1      1420-1.95918E+00 1.32279E+00 7.37500E-01
 -1      1421-2.31626E+00-4.72349E-01 6.18750E-01
 -1      1422-2.35901E+00 4.90057E-01 5.00000E-01
 -1      1423-2.35901E+00 4.50000E-01 5.00000E-01
 -1      1424-1.95918E+00 1.32279E+00 6.18750E-01
 -1      1425-2.02462E+00-1.38823E+00 5.00000E-01
 -1      1426-2.04673E+00-1.33486E+00 5.00000E-01
 -1      1427-2.31626E+00 4.72349E-01 6.18750E-01
 -1      1428 1.30384E+00 1.97184E+00 7.37500E-01
 -1      1429-2.32070E+00-4.50000E-01 6.18750E-01
 -1      1430-1.30384E+00 1.97184E+00 7.37500E-01
 -1      1431-2.32070E+00 3.93750E-01 5.00000E-01
 -1      1432-4.50000E-01-2.32070E+00 7.37500E-01
 -1      1433 2.31626E+00-4.72349E-01 7.37500E-01
 -1      1434 1.32279E+00-1.95918E+00 7.37500E-01
 -1      1435 2.35901E+00-4.90057E-01 5.00000E-01
 -1      1436 2.35901E+00-4.50000E-01 5.00000E-01
 -1      1437-1.80008E+00-1.48189E+00 5.00000E-01
 -1      1438 1.30384E+00 1.97184E+00 6.18750E-01
 -1      1439-2.05795E+00-1.09597E+00 5.00000E-01
 -1      1440 2.32070E+00-4.50000E-01 7.37500E-01
 -1      1441 2.27321E+00-5.76285E-01 5.00000E-01
 -1      1442 5.07766E-01 2.40176E+00 5.00000E-01
 -1      1443 4.50000E-01 2.40176E+00 5.00000E-01
 -1      1444 2.02462E+00-1.38823E+00 5.00000E-01
 -1      1445 2.04673E+00-1.33486E+00 5.00000E-01
 -1      1446 1.32279E+00 1.95918E+00 6.18750E-01
 -1      1447 1.99190E+00 1.35551E+00 5.00000E-01
 -1      1448 2.00723E+00 1.31850E+00 5.00000E-01
 -1      1449-1.32279E+00-1.95918E+00 7.37500E-01
 -1      1450 2.01489E+00 1.19990E+00 5.00000E-01
 -1      1451-5.76285E-01-2.27321E+00 5.00000E-01
 -1      1452 1.87963E+00 1.40234E+00 5.00000E-01
 -1      1453 2.25000E-01 2.32070E+00 5.00000E-01
 -1      1454 4.90057E-01 2.35901E+00 5.00000E-01
 -1      1455 4.50000E-01 2.35901E+00 5.00000E-01
 -1      1456 2.32070E+00-3.37500E-01 5.00000E-01
 -1      1457 6.80222E-01 2.23015E+00 5.00000E-01
 -1      1458 4.50000E-01 2.32070E+00 7.37500E-01
 -1      1459 3.37500E-01 2.32070E+00 5.00000E-01
 -1      1460 6.80222E-01-2.23015E+00 5.00000E-01
 -1      1461 1.35551E+00-1.99190E+00 5.00000E-01
 -1      1462 1.31850E+00-2.00723E+00 5.00000E-01
 -1      1463 1.40234E+00-1.87963E+00 5.00000E-01
 -1      1464 1.95918E+00-1.32279E+00 7.37500E-01
 -1      1465-2.32070E+00 4.50000E-01 6.18750E-01
 -1      1466 1.97184E+00-1.30384E+00 7.37500E-01
 -1      1467 5.07766E-01-2.40176E+00 5.00000E-01
 -1      1468 4.50000E-01-2.40176E+00 5.00000E-01
 -1      1469 1.19990E+00-2.01489E+00 5.00000E-01
 -1      1470 5.76285E-01 2.27321E+00 5.00000E-01
 -1      1471 2.31626E+00 4.72349E-01 6.18750E-01
 -1      1472-1.97184E+00 1.30384E+00 6.18750E-01
 -1      1473-4.90057E-01-2.35901E+00 5.00000E-01
 -1      1474-4.50000E-01-2.35901E+00 5.00000E-01
 -1      1475 4.50000E-01-2.32070E+00 7.37500E-01
 -1      1476-4.72349E-01-2.31626E+00 7.37500E-01
 -1      1477 2.01489E+00-1.19990E+00 5.00000E-01
 -1      1478-1.95918E+00-1.32279E+00 7.37500E-01
 -1      1479-1.97184E+00-1.30384E+00 7.37500E-01
 -1      1480-1.87963E+00-1.40234E+00 5.00000E-01
 -1      1481-4.50000E-01-2.32070E+00 6.18750E-01
 -1      1482-1.35551E+00-1.99190E+00 5.00000E-01
 -1      1483-1.31850E+00-2.00723E+00 5.00000E-01
 -1      1484 2.31626E+00-4.72349E-01 6.18750E-01
 -1      1485-4.72349E-01-2.31626E+00 6.18750E-01
 -1      1486 2.25000E-01-2.32070E+00 5.00000E-01
 -1      1487 1.97184E+00 1.30384E+00 7.37500E-01
 -1      1488 4.72349E-01 2.31626E+00 7.37500E-01
 -1      1489 1.95918E+00 1.32279E+00 6.18750E-01
 -1      1490-1.30384E+00-1.97184E+00 6.18750E-01
 -1      1491 2.32070E+00-4.50000E-01 6.18750E-01
 -1      1492 1.87963E+00-1.40234E+00 5.00000E-01
 -1      1493 4.50000E-01 2.32070E+00 6.18750E-01
 -1      1494-1.35551E+00 1.99190E+00 5.00000E-01
 -1      1495-1.31850E+00 2.00723E+00 5.00000E-01
 -1      1496-1.40234E+00 1.87963E+00 5.00000E-01
 -1      1497 1.32279E+00-1.95918E+00 6.18750E-01
 -1      1498-1.19990E+00 2.01489E+00 5.00000E-01
 -1      1499 1.30384E+00-1.97184E+00 6.18750E-01
 -1      1500 4.90057E-01-2.35901E+00 5.00000E-01
 -1      1501 4.50000E-01-2.35901E+00 5.00000E-01
 -1      1502 4.72349E-01-2.31626E+00 7.37500E-01
 -1      1503 5.76285E-01-2.27321E+00 5.00000E-01
 -1      1504 1.97184E+00 1.30384E+00 6.18750E-01
 -1      1505 1.99190E+00-1.35551E+00 5.00000E-01
 -1      1506 2.00723E+00-1.31850E+00 5.00000E-01
 -1      1507 3.37500E-01-2.32070E+00 5.00000E-01
 -1      1508 1.95918E+00-1.32279E+00 6.18750E-01
 -1      1509 2.27321E+00 5.76285E-01 5.00000E-01
 -1      1510-1.32279E+00-1.95918E+00 6.18750E-01
 -1      1511 4.72349E-01 2.31626E+00 6.18750E-01
 -1      1512-2.01489E+00-1.19990E+00 5.00000E-01
 -1      1513 4.50000E-01-2.32070E+00 6.18750E-01
 -1      1514-1.32279E+00 1.95918E+00 6.18750E-01
 -1      1515-1.30384E+00 1.97184E+00 6.18750E-01
 -1      1516 4.72349E-01-2.31626E+00 6.18750E-01
 -1      1517 1.97184E+00-1.30384E+00 6.18750E-01
 -1      1518-4.30523E+00-1.03939E+01-5.00000E-01
 -1      1519-7.95528E+00 7.95528E+00-5.00000E-01
 -1      1520-1.69425E+00 8.51758E+00-5.00000E-01
 -1      1521 6.24987E+00-9.35357E+00-5.00000E-01
 -1      1522 0.00000E+00-1.12497E+01-5.00000E-01
 -1      1523-6.59290E+00-2.80056E-01-5.00000E-01
 -1      1524 4.81323E+00 8.43470E-01-5.00000E-01
 -1      1525-1.20307E+01 4.98325E+00 5.00000E-01
 -1      1526-1.23742E+01-2.46139E+00 5.00000E-01
 -1      1527-1.23742E+01 2.46139E+00 5.00000E-01
 -1      1528 1.10341E+01 2.19481E+00-5.00000E-01
 -1      1529-1.30219E+01 0.00000E+00 5.00000E-01
 -1      1530-1.01187E+01 4.99173E+00-5.00000E-01
 -1      1531-9.20789E+00 9.20789E+00 5.00000E-01
 -1      1532 8.87666E+00 5.93121E+00-5.00000E-01
 -1      1533-1.04904E+01 7.00943E+00 5.00000E-01
 -1      1534-1.04904E+01-7.00943E+00 5.00000E-01
 -1      1535-1.20307E+01-4.98325E+00 5.00000E-01
 -1      1536 0.00000E+00 0.00000E+00 5.00000E-01
 -1      1537 9.20789E+00 9.20789E+00 5.00000E-01
 -1      1538 7.00943E+00 1.04904E+01 5.00000E-01
 -1      1539 4.98325E+00 1.20307E+01 5.00000E-01
 -1      1540 2.46139E+00 1.23742E+01 5.00000E-01
 -1      1541 0.00000E+00 1.30219E+01 5.00000E-01
 -1      1542-2.90761E-02 1.15450E+01-5.00000E-01
 -1      1543-2.46139E+00 1.23742E+01 5.00000E-01
 -1      1544-4.98325E+00 1.20307E+01 5.00000E-01
 -1      1545 3.08368E+00 1.14318E+01-5.00000E-01
 -1      1546-7.00943E+00 1.04904E+01 5.00000E-01
 -1      1547 1.20307E+01 4.98325E+00 5.00000E-01
 -1      1548 1.04904E+01 7.00943E+00 5.00000E-01
 -1      1549-1.29160E+01-3.81952E+00 5.00000E-01
 -1      1550 1.30219E+01 0.00000E+00 5.00000E-01
 -1      1551 5.72676E+00 1.09059E+01 5.00000E-01
 -1      1552 1.23742E+01-2.46139E+00 5.00000E-01
 -1      1553 1.23742E+01 2.46139E+00 5.00000E-01
 -1      1554 1.20307E+01-4.98325E+00 5.00000E-01
 -1      1555 9.98512E+00 1.98617E+00 5.00000E-01
 -1      1556 1.04904E+01-7.00943E+00 5.00000E-01
 -1      1557 9.20789E+00-9.20789E+00 5.00000E-01
 -1      1558 7.00943E+00-1.04904E+01 5.00000E-01
 -1      1559 4.98325E+00-1.20307E+01 5.00000E-01
 -1      1560 2.46139E+00-1.23742E+01 5.00000E-01
 -1      1561 0.00000E+00-1.30219E+01 5.00000E-01
 -1      1562-2.46139E+00-1.23742E+01 5.00000E-01
 -1      1563-4.98325E+00-1.20307E+01 5.00000E-01
 -1      1564-7.00943E+00-1.04904E+01 5.00000E-01
 -1      1565-9.20789E+00-9.20789E+00 5.00000E-01
 -1      1566-3.19864E+00 1.13167E+01-5.00000E-01
 -1      1567 1.28369E+01 2.74170E+00-5.00000E-01
 -1      1568-5.76765E+00 4.08683E+00-5.00000E-01
 -1      1569-1.10341E+01-2.19481E+00-5.00000E-01
 -1      1570 9.06712E+00 6.10104E+00 5.00000E-01
 -1      1571-3.66219E+00 1.17611E+01 5.00000E-01
 -1      1572-3.81952E+00-1.29160E+01 5.00000E-01
 -1      1573 5.93006E+00 1.03147E+01-5.00000E-01
 -1      1574-1.16492E+01 2.25539E+00-5.00000E-01
 -1      1575 1.10609E+01 6.32891E+00-5.00000E-01
 -1      1576 1.17611E+01-3.66219E+00 5.00000E-01
 -1      1577 6.73503E+00 1.18307E+01 5.00000E-01
 -1      1578-1.32058E+01 1.67001E+00-5.00000E-01
 -1      1579-8.47492E+00 2.27618E+00-5.00000E-01
 -1      1580-2.74963E-01 3.12495E+00-5.00000E-01
 -1      1581 5.96576E+00 1.19409E+01-5.00000E-01
 -1      1582-6.77108E+00 1.03287E+01-5.00000E-01
 -1      1583-2.12747E+00 1.06955E+01 5.00000E-01
 -1      1584 8.31047E+00-4.02517E+00-5.00000E-01
 -1      1585 5.72676E+00-1.09059E+01 5.00000E-01
 -1      1586-1.01203E+01 7.83009E+00-5.00000E-01
 -1      1587-9.35357E+00-6.24987E+00-5.00000E-01
 -1      1588-2.12747E+00-1.06955E+01 5.00000E-01
 -1      1589-7.88420E+00 9.46435E+00 5.00000E-01
 -1      1590 6.73503E+00-1.18307E+01 5.00000E-01
 -1      1591 1.12742E+01 1.74858E+00 5.00000E-01
 -1      1592 4.61823E+00 1.11570E+01-5.00000E-01
 -1      1593-2.71301E+00 5.36636E+00-5.00000E-01
 -1      1594-1.07117E+01 2.16677E+00 5.00000E-01
 -1      1595 8.80907E+00-8.65595E+00-5.00000E-01
 -1      1596-3.60322E+00 1.31279E+01 5.00000E-01
 -1      1597-1.20261E+01 5.17774E+00-5.00000E-01
 -1      1598-3.41109E+00 1.38007E+00-5.00000E-01
 -1      1599-1.28369E+01-2.74170E+00-5.00000E-01
 -1      1600-1.07547E+01 8.35066E+00 5.00000E-01
 -1      1601-9.06720E+00-6.05851E+00 5.00000E-01
 -1      1602-7.96363E+00 4.44098E+00-5.00000E-01
 -1      1603 9.21712E-01 1.31082E+01-5.00000E-01
 -1      1604-1.41395E+00 1.33945E+01 5.00000E-01
 -1      1605-1.33945E+01 1.41395E+00 5.00000E-01
 -1      1606 1.13164E+01-3.81688E+00-5.00000E-01
 -1      1607 7.13816E+00-1.10154E+01-5.00000E-01
 -1      1608 5.97554E+00-9.48653E+00 5.00000E-01
 -1      1609-5.24400E+00 1.17596E+01-5.00000E-01
 -1      1610-9.46435E+00-7.88420E+00 5.00000E-01
 -1      1611-9.12655E+00 9.42743E+00-5.00000E-01
 -1      1612-1.28048E+01 3.50018E+00-5.00000E-01
 -1      1613 3.66219E+00 1.17611E+01 5.00000E-01
 -1      1614 2.09736E+00 1.07255E+01 5.00000E-01
 -1      1615 9.46435E+00-7.88420E+00 5.00000E-01
 -1      1616 9.83714E-01 1.37378E+01 5.00000E-01
 -1      1617 1.11734E+00 1.22673E+01 5.00000E-01
 -1      1618-1.83889E+00 9.24473E+00 5.00000E-01
 -1      1619 7.70390E+00-9.64466E+00-5.00000E-01
 -1      1620-1.16684E+01-3.53010E+00 5.00000E-01
 -1      1621 9.06059E+00-1.00491E+01-5.00000E-01
 -1      1622-8.66207E+00 6.19980E+00-5.00000E-01
 -1      1623-7.80548E+00 5.21545E+00 5.00000E-01
 -1      1624-9.98512E+00-1.98617E+00 5.00000E-01
 -1      1625 6.85331E+00-6.52429E+00-5.00000E-01
 -1      1626-9.20720E+00 1.83143E+00 5.00000E-01
 -1      1627-1.09059E+01-5.72676E+00 5.00000E-01
 -1      1628 1.05278E+01-7.21348E+00-5.00000E-01
 -1      1629 1.28499E+01-2.74566E+00-5.00000E-01
 -1      1630 1.23319E+01-1.32123E-01-5.00000E-01
 -1      1631 7.29819E+00-8.07914E+00-5.00000E-01
 -1      1632-9.32164E+00 3.61894E+00-5.00000E-01
 -1      1633 7.93493E+00 1.02481E+01-5.00000E-01
 -1      1634 1.11734E+00-1.22673E+01 5.00000E-01
 -1      1635-4.64352E+00 9.58850E+00-5.00000E-01
 -1      1636 1.17611E+01 3.66219E+00 5.00000E-01
 -1      1637 9.06720E+00-6.05851E+00 5.00000E-01
 -1      1638 9.01849E+00-1.04096E+01 5.00000E-01
 -1      1639 9.90759E+00-5.27962E+00-5.00000E-01
 -1      1640-1.02879E+01-7.96759E+00-5.00000E-01
 -1      1641 5.57596E+00-7.73084E+00-5.00000E-01
 -1      1642 7.88420E+00 9.46435E+00 5.00000E-01
 -1      1643-1.33945E+01-1.41395E+00 5.00000E-01
 -1      1644 5.02571E+00-1.17417E+01-5.00000E-01
 -1      1645 2.81013E+00 1.30625E+01-5.00000E-01
 -1      1646 2.31557E+00-1.22603E+01-5.00000E-01
 -1      1647-3.96430E+00 1.27250E+01-5.00000E-01
 -1      1648 4.26859E+00 1.28055E+01-5.00000E-01
 -1      1649-9.46435E+00 7.88420E+00 5.00000E-01
 -1      1650 1.23113E+01 5.33017E+00-5.00000E-01
 -1      1651 7.65906E+00 2.73713E+00-5.00000E-01
 -1      1652-1.21311E+01 1.20391E+00 5.00000E-01
 -1      1653 3.18170E+00-9.44557E+00-5.00000E-01
 -1      1654 6.87375E+00-1.20802E+01-5.00000E-01
 -1      1655-2.42089E+00-1.21713E+01-5.00000E-01
 -1      1656 5.97554E+00 9.48653E+00 5.00000E-01
 -1      1657 1.31317E+01 3.59935E+00 5.00000E-01
 -1      1658-7.05596E+00 3.08382E+00-5.00000E-01
 -1      1659-9.06010E+00 8.27829E+00-5.00000E-01
 -1      1660 2.92560E+00-3.64552E+00-5.00000E-01
 -1      1661-1.17611E+01 3.66219E+00 5.00000E-01
 -1      1662 1.36745E+01-2.38800E-01-5.00000E-01
 -1      1663-3.53010E+00-1.16684E+01 5.00000E-01
 -1      1664 2.94099E+00 1.34939E+01 5.00000E-01
 -1      1665-8.23906E+00 3.36325E+00-5.00000E-01
 -1      1666 9.80291E+00-3.76897E+00-5.00000E-01
 -1      1667-6.68526E+00 1.17674E+01-5.00000E-01
 -1      1668 1.11769E+01 7.74621E+00-5.00000E-01
 -1      1669 9.56717E+00 3.83887E+00-5.00000E-01
 -1      1670-8.47152E+00-1.04711E+01 5.00000E-01
 -1      1671-7.63109E-02-9.22873E-01-5.00000E-01
 -1      1672 1.91923E+00 1.20384E+00-5.00000E-01
 -1      1673-6.43215E+00-1.18338E+01 5.00000E-01
 -1      1674-6.05851E+00-9.06720E+00 5.00000E-01
 -1      1675-3.50420E+00-2.32070E+00-5.00000E-01
 -1      1676-6.06790E-01-4.52400E+00-5.00000E-01
 -1      1677-4.37434E+00 1.08315E+01-5.00000E-01
 -1      1678-1.17508E+00 1.05199E+00-5.00000E-01
 -1      1679-1.41395E+00-1.33945E+01 5.00000E-01
 -1      1680-8.35275E+00 1.07498E+01 5.00000E-01
 -1      1681-2.95421E+00 9.64424E+00-5.00000E-01
 -1      1682-2.07883E+00 2.67632E+00-5.00000E-01
 -1      1683 3.81952E+00-1.29160E+01 5.00000E-01
 -1      1684-1.09708E+01 8.52807E+00-5.00000E-01
 -1      1685 8.71700E+00-6.72781E+00-5.00000E-01
 -1      1686 1.17639E+01-5.65770E+00-5.00000E-01
 -1      1687 7.88420E+00-9.46435E+00 5.00000E-01
 -1      1688 1.18338E+01-6.43215E+00 5.00000E-01
 -1      1689 3.16175E+00 7.44598E+00-5.00000E-01
 -1      1690 9.64379E-01 9.02689E+00-5.00000E-01
 -1      1691 1.33945E+01 1.41395E+00 5.00000E-01
 -1      1692-5.28027E+00 2.13193E+00-5.00000E-01
 -1      1693 1.33945E+01-1.41395E+00 5.00000E-01
 -1      1694 1.06955E+01-2.12747E+00 5.00000E-01
 -1      1695 1.31317E+01-3.59935E+00 5.00000E-01
 -1      1696-1.35352E+01 2.25081E-01-5.00000E-01
 -1      1697 1.06277E+01-1.64477E+00-5.00000E-01
 -1      1698-3.80001E+00 3.11256E+00-5.00000E-01
 -1      1699 1.18338E+01 6.43215E+00 5.00000E-01
 -1      1700 1.04711E+01 8.47152E+00 5.00000E-01
 -1      1701-1.11978E+01 3.79910E+00-5.00000E-01
 -1      1702-1.03552E+01 2.71488E+00-5.00000E-01
 -1      1703 1.00620E+01-9.14904E+00-5.00000E-01
 -1      1704-7.02245E+00 1.37463E+00-5.00000E-01
 -1      1705 9.42925E+00 7.72666E+00 5.00000E-01
 -1      1706-6.43215E+00 1.18338E+01 5.00000E-01
 -1      1707-6.05851E+00 9.06720E+00 5.00000E-01
 -1      1708-6.56745E-01-9.82730E-01 5.00000E-01
 -1      1709-8.51342E-01 8.51342E-01 5.00000E-01
 -1      1710-1.00516E+00 2.21011E+00-5.00000E-01
 -1      1711-1.07547E+01-8.35066E+00 5.00000E-01
 -1      1712-1.18338E+01 6.43215E+00 5.00000E-01
 -1      1713-9.68964E+00-9.37860E+00-5.00000E-01
 -1      1714-7.73892E+00 9.32944E+00-5.00000E-01
 -1      1715-7.97408E+00-1.02958E+01-5.00000E-01
 -1      1716 1.15246E+01 3.82283E+00-5.00000E-01
 -1      1717-8.27809E+00-7.94780E+00-5.00000E-01
 -1      1718 1.69491E+00-1.35075E+01 5.00000E-01
 -1      1719-1.33339E+01-1.29311E+00-5.00000E-01
 -1      1720-6.09995E+00-8.85945E+00-5.00000E-01
 -1      1721 2.13914E-01 6.10339E+00-5.00000E-01
 -1      1722-7.93089E+00-3.28454E+00-5.00000E-01
 -1      1723-4.95657E+00 3.25084E+00-5.00000E-01
 -1      1724 1.20536E+01 6.85953E+00-5.00000E-01
 -1      1725 5.83014E+00-1.06462E+01-5.00000E-01
 -1      1726-4.20235E+00 2.11234E+00-5.00000E-01
 -1      1727 8.54385E+00-5.37196E+00-5.00000E-01
 -1      1728-6.09985E+00 8.36725E+00-5.00000E-01
 -1      1729 9.37100E+00 9.68038E+00-5.00000E-01
 -1      1730 1.84113E+00 1.20616E+01-5.00000E-01
 -1      1731-3.95856E+00-5.92493E+00-5.00000E-01
 -1      1732 4.72094E+00-9.57161E+00-5.00000E-01
 -1      1733-1.31317E+01 3.59935E+00 5.00000E-01
 -1      1734-9.04621E+00 4.69666E+00-5.00000E-01
 -1      1735 2.92013E+00-6.55144E+00-5.00000E-01
 -1      1736 3.57808E-01 1.41860E+00-5.00000E-01
 -1      1737 8.35275E+00 1.07498E+01 5.00000E-01
 -1      1738-8.47343E+00-9.16676E+00-5.00000E-01
 -1      1739-1.71076E-01 7.76029E+00-5.00000E-01
 -1      1740-1.36091E+01 2.71737E+00-5.00000E-01
 -1      1741 3.84549E+00-1.08010E+01-5.00000E-01
 -1      1742 7.89431E+00 5.27481E+00 5.00000E-01
 -1      1743 9.78363E+00 7.14688E+00-5.00000E-01
 -1      1744 3.81955E+00-1.27792E+01-5.00000E-01
 -1      1745-1.84671E-01-1.31249E+01-5.00000E-01
 -1      1746 1.09558E+01-4.87935E+00-5.00000E-01
 -1      1747 1.35970E+01 1.70853E+00-5.00000E-01
 -1      1748-1.19215E+01 6.17197E-01-5.00000E-01
 -1      1749-9.15101E+00 6.47762E+00 5.00000E-01
 -1      1750 1.69320E+00-1.05281E+01-5.00000E-01
 -1      1751-9.23676E+00-2.55655E-01-5.00000E-01
 -1      1752 1.69853E+00-1.34954E+01-5.00000E-01
 -1      1753-6.87842E+00 4.18467E+00-5.00000E-01
 -1      1754 2.38404E-01 1.19715E+00 5.00000E-01
 -1      1755-3.72936E+00 7.50953E+00-5.00000E-01
 -1      1756-1.30151E+01 4.61729E+00-5.00000E-01
 -1      1757-1.21311E+01-1.20391E+00 5.00000E-01
 -1      1758 8.65060E-01-2.90118E+00-5.00000E-01
 -1      1759 1.41080E+00-5.09564E+00-5.00000E-01
 -1      1760-1.00665E+01 6.41094E+00-5.00000E-01
 -1      1761-5.47804E+00-3.90263E+00-5.00000E-01
 -1      1762-5.19336E+00-1.20554E+01-5.00000E-01
 -1      1763-7.90995E+00 2.61142E-01-5.00000E-01
 -1      1764-7.87385E+00-5.26113E+00 5.00000E-01
 -1      1765 5.43396E+00-8.13250E+00 5.00000E-01
 -1      1766-2.13539E+00-7.75405E-01-5.00000E-01
 -1      1767-1.62340E+00-1.33999E+01-5.00000E-01
 -1      1768 1.05550E+01 4.93936E+00-5.00000E-01
 -1      1769 1.28473E+01 4.09142E+00-5.00000E-01
 -1      1770 7.51287E+00 7.89485E+00-5.00000E-01
 -1      1771 1.05410E+01 3.23128E+00-5.00000E-01
 -1      1772-4.24945E+00 4.74835E+00-5.00000E-01
 -1      1773-5.23672E+00 7.83731E+00 5.00000E-01
 -1      1774-1.37210E+01 2.45943E+00 5.00000E-01
 -1      1775-3.79138E+00-1.17366E+01-5.00000E-01
 -1      1776 1.03813E+01 8.81349E+00-5.00000E-01
 -1      1777-2.39424E+00 5.26641E-01-5.00000E-01
 -1      1778-1.16090E+01 6.68852E+00-5.00000E-01
 -1      1779 9.77884E+00-6.38728E+00-5.00000E-01
 -1      1780 9.25387E-01-1.22875E+01-5.00000E-01
 -1      1781 5.93543E-01-4.13379E+00-5.00000E-01
 -1      1782-2.91387E+00 8.42150E+00-5.00000E-01
 -1      1783-1.56136E+00 1.07019E+01-5.00000E-01
 -1      1784-1.20391E+00 1.21311E+01 5.00000E-01
 -1      1785-1.12177E+01-2.03279E+00 5.00000E-01
 -1      1786-4.24790E+00-1.29714E+01-5.00000E-01
 -1      1787 6.89721E+00 9.21973E+00-5.00000E-01
 -1      1788-1.63170E+00 1.28169E+01-5.00000E-01
 -1      1789-3.07341E+00 2.36577E+00-5.00000E-01
 -1      1790 1.07498E+01-8.35275E+00 5.00000E-01
 -1      1791-4.35269E-01 9.13937E+00-5.00000E-01
 -1      1792 1.04073E+01 3.19849E-01-5.00000E-01
 -1      1793 4.34838E+00 1.30685E+01 5.00000E-01
 -1      1794 4.59458E+00 1.10923E+01 5.00000E-01
 -1      1795-1.62136E+00 6.75372E+00-5.00000E-01
 -1      1796 7.53999E+00-1.69140E-01-5.00000E-01
 -1      1797-7.32388E+00-8.72585E+00-5.00000E-01
 -1      1798 1.11837E+00-8.17317E+00-5.00000E-01
 -1      1799-9.97067E+00-4.12986E+00-5.00000E-01
 -1      1800-5.74683E+00 8.22671E-01-5.00000E-01
 -1      1801-2.67019E+00 3.95668E+00-5.00000E-01
 -1      1802 3.57729E-01 1.02426E+01-5.00000E-01
 -1      1803 3.52005E+00 9.44669E+00-5.00000E-01
 -1      1804 8.04170E+00-1.11405E+01 5.00000E-01
 -1      1805 3.71404E+00 1.05299E+01-5.00000E-01
 -1      1806 2.12747E+00-1.06955E+01 5.00000E-01
 -1      1807-1.05572E+01 1.23215E+00-5.00000E-01
 -1      1808-3.95958E+00-8.17276E+00-5.00000E-01
 -1      1809-2.65525E+00-1.05322E+01-5.00000E-01
 -1      1810 9.27028E+00 1.99122E+00-5.00000E-01
 -1      1811-5.46852E+00 6.40754E+00-5.00000E-01
 -1      1812 8.90632E+00 8.30435E+00-5.00000E-01
 -1      1813 5.58604E+00 5.25930E+00-5.00000E-01
 -1      1814-1.15323E+00 1.17741E+01-5.00000E-01
 -1      1815-5.99807E+00-1.05571E+01-5.00000E-01
 -1      1816 8.54869E+00 7.12206E+00-5.00000E-01
 -1      1817-7.06613E+00 5.81547E+00-5.00000E-01
 -1      1818 2.88885E+00-1.35218E+01-5.00000E-01
 -1      1819-4.81785E+00-9.17663E+00-5.00000E-01
 -1      1820-1.51967E+00-7.04996E+00-5.00000E-01
 -1      1821-1.08276E+01-5.83637E-01-5.00000E-01
 -1      1822-9.24158E+00-2.05368E+00-5.00000E-01
 -1      1823-1.15502E+01-3.73819E+00-5.00000E-01
 -1      1824 2.70893E+00-1.11411E+01-5.00000E-01
 -1      1825-3.47504E-01-3.28029E+00-5.00000E-01
 -1      1826-1.01734E+01 5.85515E+00 5.00000E-01
 -1      1827 2.84517E-01-5.22449E+00-5.00000E-01
 -1      1828-5.50073E+00-7.04814E+00-5.00000E-01
 -1      1829-1.25255E+01-4.13487E-01-5.00000E-01
 -1      1830-1.00746E+01-2.92726E+00-5.00000E-01
 -1      1831 1.33670E+00 2.75210E+00-5.00000E-01
 -1      1832-1.87014E-01 3.08632E-01-5.00000E-01
 -1      1833 4.88105E+00-5.71572E+00-5.00000E-01
 -1      1834 5.33544E+00 7.68851E+00-5.00000E-01
 -1      1835-1.30600E+01 4.67223E+00 5.00000E-01
 -1      1836 1.02297E+01 1.42146E+00-5.00000E-01
 -1      1837 9.14095E+00 6.80803E-01-5.00000E-01
 -1      1838-1.28631E+01-4.28608E+00-5.00000E-01
 -1      1839-8.47905E+00-4.84549E+00-5.00000E-01
 -1      1840-9.05931E+00-3.44531E+00-5.00000E-01
 -1      1841-7.63075E+00-6.34820E+00-5.00000E-01
 -1      1842 2.34269E+00 8.62510E+00-5.00000E-01
 -1      1843-3.67504E+00-4.12992E+00-5.00000E-01
 -1      1844-6.35034E+00-2.18824E+00-5.00000E-01
 -1      1845 1.34084E+01-3.68327E+00-5.00000E-01
 -1      1846-6.93559E+00-4.51078E+00-5.00000E-01
 -1      1847 4.28987E+00-7.04697E+00-5.00000E-01
 -1      1848 2.31280E+00 1.02219E+01-5.00000E-01
 -1      1849-4.20841E+00-4.51427E-01-5.00000E-01
 -1      1850 6.54428E+00 1.32723E+00-5.00000E-01
 -1      1851 2.19550E+00-1.05497E+00-5.00000E-01
 -1      1852 1.88083E+00 1.37009E+01-5.00000E-01
 -1      1853 4.97494E+00 1.20940E+01-5.00000E-01
 -1      1854-1.18751E+00-1.98935E+00-5.00000E-01
 -1      1855-9.19340E-01-5.83898E+00-5.00000E-01
 -1      1856-3.12211E+00-2.94812E-01-5.00000E-01
 -1      1857-4.54299E+00 9.50632E-01-5.00000E-01
 -1      1858-4.78963E+00 8.28378E+00-5.00000E-01
 -1      1859 1.05894E+01-2.85215E+00-5.00000E-01
 -1      1860-2.86320E+00 6.60771E+00-5.00000E-01
 -1      1861 8.75506E+00-2.13991E+00-5.00000E-01
 -1      1862-7.72666E+00-9.42925E+00 5.00000E-01
 -1      1863-1.00774E+00 4.77456E+00-5.00000E-01
 -1      1864-2.12775E+00 1.58552E+00-5.00000E-01
 -1      1865 8.83792E-01 4.46409E+00-5.00000E-01
 -1      1866 3.34685E+00 4.19979E+00-5.00000E-01
 -1      1867 8.30319E+00-7.71383E+00-5.00000E-01
 -1      1868-1.84747E+00-9.28785E+00 5.00000E-01
 -1      1869-1.18307E+01-6.73503E+00 5.00000E-01
 -1      1870 9.44953E+00-7.61507E+00-5.00000E-01
 -1      1871-5.85003E+00 9.54830E+00-5.00000E-01
 -1      1872 7.01377E+00-4.94348E+00-5.00000E-01
 -1      1873 1.15757E+01 9.71511E-01-5.00000E-01
 -1      1874-5.23672E+00-7.83731E+00 5.00000E-01
 -1      1875-5.84345E+00-1.02402E+01 5.00000E-01
 -1      1876-1.21678E+01-1.70257E+00-5.00000E-01
 -1      1877 1.01360E+00-6.61055E+00-5.00000E-01
 -1      1878-9.28849E+00-7.39822E+00-5.00000E-01
 -1      1879-9.12132E+00-1.03786E+01-5.00000E-01
 -1      1880-8.29000E+00 1.06807E+01-5.00000E-01
 -1      1881-1.16056E+01 7.56655E+00 5.00000E-01
 -1      1882 5.31153E-01-1.06577E+00 5.00000E-01
 -1      1883-7.56768E+00 1.16022E+01 5.00000E-01
 -1      1884 5.63831E+00 3.18924E+00-5.00000E-01
 -1      1885 1.20615E+01-1.54383E+00-5.00000E-01
 -1      1886 1.72769E+00-3.73741E+00-5.00000E-01
 -1      1887 1.09705E+01-8.52781E+00-5.00000E-01
 -1      1888-4.68669E+00-4.89003E+00-5.00000E-01
 -1      1889 1.14268E+01 7.75290E+00 5.00000E-01
 -1      1890-2.37651E+00-1.94071E+00-5.00000E-01
 -1      1891 1.22315E+01-9.64343E-01 5.00000E-01
 -1      1892-9.77281E-03-2.10434E+00-5.00000E-01
 -1      1893-1.02476E+01-6.87655E+00-5.00000E-01
 -1      1894 1.36000E+01-1.70883E+00-5.00000E-01
 -1      1895-2.55168E+00 1.36151E+01 5.00000E-01
 -1      1896-7.73568E+00 1.15904E+01-5.00000E-01
 -1      1897-2.42439E-01 1.37114E+01-5.00000E-01
 -1      1898-1.06543E+00-1.20915E+01-5.00000E-01
 -1      1899-2.99828E+00-7.04928E+00-5.00000E-01
 -1      1900 1.85227E+00 9.31198E+00 5.00000E-01
 -1      1901 9.40027E+00-7.91428E-01-5.00000E-01
 -1      1902 1.36178E+01-2.54930E+00 5.00000E-01
 -1      1903 1.36178E+01 2.54930E+00 5.00000E-01
 -1      1904 1.22368E+01 9.62962E-01 5.00000E-01
 -1      1905-5.35527E+00 5.21331E+00-5.00000E-01
 -1      1906 5.23672E+00 7.83730E+00 5.00000E-01
 -1      1907 4.77738E+00 9.96218E+00-5.00000E-01
 -1      1908 1.17784E+01-6.93821E+00-5.00000E-01
 -1      1909 2.97858E+00-1.36178E+01 5.00000E-01
 -1      1910 3.53010E+00-1.16684E+01 5.00000E-01
 -1      1911 6.53979E+00 2.47645E+00-5.00000E-01
 -1      1912-1.20391E+00-1.21311E+01 5.00000E-01
 -1      1913-4.13604E+00-7.04877E+00-5.00000E-01
 -1      1914 3.45987E+00-5.09949E+00-5.00000E-01
 -1      1915 3.26644E+00 2.22316E-01-5.00000E-01
 -1      1916 5.25136E+00-3.40730E+00-5.00000E-01
 -1      1917 2.13441E+00 8.38621E-02-5.00000E-01
 -1      1918-7.76232E+00-1.39822E+00-5.00000E-01
 -1      1919 8.32132E+00-1.09738E+01-5.00000E-01
 -1      1920 4.43732E+00-8.32091E+00-5.00000E-01
 -1      1921 1.07469E+01 5.75463E+00 5.00000E-01
 -1      1922 3.05473E-01-9.61923E+00-5.00000E-01
 -1      1923-6.73068E+00-3.32741E+00-5.00000E-01
 -1      1924-6.27427E+00-5.81120E+00-5.00000E-01
 -1      1925-8.87099E+00-1.76455E+00 5.00000E-01
 -1      1926-4.46639E+00-3.14251E+00-5.00000E-01
 -1      1927 2.39708E+00-4.60967E+00-5.00000E-01
 -1      1928 1.15312E+00-1.70628E+00-5.00000E-01
 -1      1929 5.66852E+00 9.10909E+00-5.00000E-01
 -1      1930 6.92468E+00 9.02843E+00 5.00000E-01
 -1      1931 7.39337E+00 1.14928E+01-5.00000E-01
 -1      1932 7.93602E+00 4.46067E+00-5.00000E-01
 -1      1933-8.98038E+00 1.04774E+00-5.00000E-01
 -1      1934 2.03995E+00-2.55224E+00-5.00000E-01
 -1      1935-2.44675E+00-5.60599E+00-5.00000E-01
 -1      1936-1.15030E+01-7.37645E+00-5.00000E-01
 -1      1937-2.92696E+00 1.34476E+01-5.00000E-01
 -1      1938 2.08161E+00 5.91008E+00-5.00000E-01
 -1      1939 3.93086E+00 5.86146E+00-5.00000E-01
 -1      1940 5.68429E+00-6.56610E+00-5.00000E-01
 -1      1941 7.87385E+00-5.26113E+00 5.00000E-01
 -1      1942 4.51929E+00 8.80058E+00-5.00000E-01
 -1      1943 1.07469E+01-5.75463E+00 5.00000E-01
 -1      1944 5.07637E+00 6.43425E+00-5.00000E-01
 -1      1945 1.71544E+00 7.31536E+00-5.00000E-01
 -1      1946-7.12494E+00-1.14765E+01-5.00000E-01
 -1      1947 9.20720E+00-1.83143E+00 5.00000E-01
 -1      1948 2.06475E+00 3.86061E+00-5.00000E-01
 -1      1949-1.65642E+00 5.65815E+00-5.00000E-01
 -1      1950 6.72273E+00 6.45039E+00-5.00000E-01
 -1      1951 2.96012E+00 2.47920E+00-5.00000E-01
 -1      1952 1.84469E+00 4.88723E+00-5.00000E-01
 -1      1953-3.80566E+00 5.86392E+00-5.00000E-01
 -1      1954-1.13887E+00-1.01925E+01-5.00000E-01
 -1      1955-5.75463E+00 1.07469E+01 5.00000E-01
 -1      1956 1.07469E+01-5.90492E+00-5.00000E-01
 -1      1957 3.85849E+00-1.98444E+00-5.00000E-01
 -1      1958 1.99009E+00-7.32990E+00-5.00000E-01
 -1      1959-2.93815E+00-1.33801E+01-5.00000E-01
 -1      1960-2.78989E+00-1.35239E+01 5.00000E-01
 -1      1961 6.94162E+00 1.05561E+01-5.00000E-01
 -1      1962-5.24136E+00-8.13872E+00-5.00000E-01
 -1      1963 7.93462E+00 1.37358E+00-5.00000E-01
 -1      1964-9.53229E+00 1.99304E+00-5.00000E-01
 -1      1965-6.59177E+00-7.69197E+00-5.00000E-01
 -1      1966-1.16301E+01 7.72632E+00-5.00000E-01
 -1      1967 4.05367E+00-3.18656E+00-5.00000E-01
 -1      1968 3.52105E+00-1.17860E+01-5.00000E-01
 -1      1969-1.01695E+01 2.46387E-01-5.00000E-01
 -1      1970 1.27284E+01 9.50431E-01-5.00000E-01
 -1      1971-2.23649E+00 7.61174E+00-5.00000E-01
 -1      1972 8.93308E+00-3.17694E+00-5.00000E-01
 -1      1973 1.12102E+01-5.84757E-01-5.00000E-01
 -1      1974-1.83982E+00 9.62263E+00-5.00000E-01
 -1      1975 1.02766E+01-9.31725E+00 5.00000E-01
 -1      1976 1.16022E+01-7.56768E+00 5.00000E-01
 -1      1977-3.53658E+00-1.26561E+00-5.00000E-01
 -1      1978-3.39103E+00-9.39868E+00-5.00000E-01
 -1      1979 1.88897E+00-9.23271E+00-5.00000E-01
 -1      1980-5.39746E+00-3.21322E-01-5.00000E-01
 -1      1981-3.88778E+00 8.84333E+00-5.00000E-01
 -1      1982 1.84747E+00-9.28785E+00 5.00000E-01
 -1      1983-6.63821E+00 7.11227E+00-5.00000E-01
 -1      1984 8.05212E+00 9.09205E+00-5.00000E-01
 -1      1985 8.76810E+00 3.01959E+00-5.00000E-01
 -1      1986 6.23726E+00-5.66321E+00-5.00000E-01
 -1      1987 2.70283E+00-8.32187E+00-5.00000E-01
 -1      1988-1.87429E+00-8.68728E+00-5.00000E-01
 -1      1989 8.91044E+00 2.04870E+00 5.00000E-01
 -1      1990 4.46065E+00 4.74180E+00-5.00000E-01
 -1      1991 3.35245E+00-9.37408E-01-5.00000E-01
 -1      1992 3.05130E+00 1.34234E+00-5.00000E-01
 -1      1993 4.44306E+00 2.29166E+00-5.00000E-01
 -1      1994-6.90570E+00-9.81865E+00-5.00000E-01
 -1      1995-2.25929E+00-7.74683E+00-5.00000E-01
 -1      1996 2.98975E+00 5.25876E+00-5.00000E-01
 -1      1997 6.01184E+00-1.06527E-01-5.00000E-01
 -1      1998 1.24119E+01-4.52538E+00-5.00000E-01
 -1      1999 1.34291E+00 1.09536E+01-5.00000E-01
 -1      2000-1.51755E+00 3.71230E+00-5.00000E-01
 -1      2001 7.62310E+00-2.86802E+00-5.00000E-01
 -1      2002 4.79577E+00-8.85647E-01-5.00000E-01
 -1      2003-5.50591E+00 1.06427E+01-5.00000E-01
 -1      2004-2.35322E-01-6.93237E+00-5.00000E-01
 -1      2005-6.36721E+00 5.06971E+00-5.00000E-01
 -1      2006-6.15967E-02 1.26355E+01-5.00000E-01
 -1      2007-2.66904E+00 1.23320E+01-5.00000E-01
 -1      2008-1.05767E+01-5.45607E+00-5.00000E-01
 -1      2009-2.04940E+00-3.61445E+00-5.00000E-01
 -1      2010-3.34255E+00-5.10233E+00-5.00000E-01
 -1      2011-5.11137E+00-5.96242E+00-5.00000E-01
 -1      2012 8.26980E+00-1.07913E+00-5.00000E-01
 -1      2013 4.57172E+00-4.48219E+00-5.00000E-01
 -1      2014 5.13710E+00-2.12596E+00-5.00000E-01
 -1      2015-7.48634E-01-9.06958E+00-5.00000E-01
 -1      2016-5.94803E+00-4.82693E+00-5.00000E-01
 -1      2017 6.75801E+00-1.54394E+00-5.00000E-01
 -1      2018 6.82270E+00 3.76072E+00-5.00000E-01
 -1      2019-1.57122E+00-4.98940E+00-5.00000E-01
 -1      2020-1.20977E+01-6.04954E+00-5.00000E-01
 -1      2021 8.73246E-01 7.96635E+00-5.00000E-01
 -1      2022 4.28378E+00 7.25185E+00-5.00000E-01
 -1      2023-6.31344E+00-1.22808E+01-5.00000E-01
 -1      2024-7.75290E+00-1.14268E+01 5.00000E-01
 -1      2025 6.86776E+00 5.17405E+00-5.00000E-01
 -1      2026 6.44810E+00 7.53895E+00-5.00000E-01
 -1      2027-4.93951E+00-1.73897E+00-5.00000E-01
 -1      2028-7.73627E+00 6.84708E+00-5.00000E-01
 -1      2029-6.02545E+00-1.17743E+00-5.00000E-01
 -1      2030 5.86480E+00-4.48260E+00-5.00000E-01
 -1      2031 3.35046E+00-7.50281E+00-5.00000E-01
 -1      2032 5.38297E+00 4.21848E+00-5.00000E-01
 -1      2033 4.36774E+00 3.51733E+00-5.00000E-01
 -1      2034 5.48293E+00 1.78606E+00-5.00000E-01
 -1      2035-2.98297E+00-8.46463E+00-5.00000E-01
 -1      2036 7.23505E+00-3.88127E+00-5.00000E-01
 -1      2037-7.91634E-01-7.92900E+00-5.00000E-01
 -1      2038-3.05121E+00-3.27615E+00-5.00000E-01
 -1      2039 6.35023E+00-2.75501E+00-5.00000E-01
 -1      2040 5.75177E+00-1.28968E+00-5.00000E-01
 -1      2041-1.16569E+01-4.93344E+00-5.00000E-01
 -1      2042-2.48926E+00-4.53805E+00-5.00000E-01
 -1      2043 7.87968E+00 5.53282E+00-5.00000E-01
 -1      2044-6.77491E-01 5.69693E+00-5.00000E-01
 -1      2045-1.24931E+00-7.50257E-02-5.00000E-01
 -1      2046-1.29891E+00-1.23505E-01 5.00000E-01
 -1      2047-1.68573E+00 2.11219E+00-5.00000E-01
 -1      2048-3.31440E+00 4.64260E+00-5.00000E-01
 -1      2049 5.11424E+00-1.46513E+00-5.00000E-01
 -1      2050-4.81946E-01 1.54181E+00-5.00000E-01
 -1      2051-6.55330E-01 1.58212E+00 5.00000E-01
 -1      2052-6.46217E-01 3.94759E+00-5.00000E-01
 -1      2053 6.80976E-01-2.22463E+00-5.00000E-01
 -1      2054-2.91734E-02 1.80587E+00 5.00000E-01
 -1      2055 2.87177E+00 3.40281E+00-5.00000E-01
 -1      2056 2.71907E+00-4.55832E-01-5.00000E-01
 -1      2057-1.90656E-01 2.30883E+00-5.00000E-01
 -1      2058 1.10976E+00 1.10976E+00 5.00000E-01
 -1      2059 1.19153E+00-7.66993E-02 5.00000E-01
 -1      2060 1.02013E+00 4.50438E-01-5.00000E-01
 -1      2061 5.32191E+00-9.73741E-01-5.00000E-01
 -1      2062-2.84819E+00-9.85641E-01-5.00000E-01
 -1      2063-1.58212E+00 6.55330E-01 5.00000E-01
 -1      2064 2.34688E+00-3.95522E+00-5.00000E-01
 -1      2065 2.41306E+00 1.86324E+00-5.00000E-01
 -1      2066-3.62475E+00-6.54093E-01-5.00000E-01
 -1      2067 2.41009E-01-2.70766E+00-5.00000E-01
 -1      2068-1.21273E+00-1.03200E+00-5.00000E-01
 -1      2069-1.81204E+00-2.69923E+00-5.00000E-01
 -1      2070-2.60690E+00-4.90247E-01-5.00000E-01
 -1      2071-6.48147E-01 2.67398E+00-5.00000E-01
 -1      2072-1.06170E+00 1.62688E+00-5.00000E-01
 -1      2073 4.74828E+00 9.44490E-01 5.00000E-01
 -1      2074-6.12631E+00 1.69566E+00-5.00000E-01
 -1      2075 4.74284E+00-2.80688E+00-5.00000E-01
 -1      2076-2.80807E+00 1.72418E+00-5.00000E-01
 -1      2077 4.45120E-01-1.53560E+00-5.00000E-01
 -1      2078-9.44490E-01-4.74828E+00 5.00000E-01
 -1      2079-6.48487E-01-2.55737E+00-5.00000E-01
 -1      2080-4.02539E+00 2.68968E+00 5.00000E-01
 -1      2081 1.20852E+00 1.82016E+00-5.00000E-01
 -1      2082 2.48237E+00 1.29672E+00-5.00000E-01
 -1      2083-1.58038E+00-5.66870E-01-5.00000E-01
 -1      2084 3.14208E+00-4.39112E+00-5.00000E-01
 -1      2085-2.68968E+00 4.02539E+00 5.00000E-01
 -1      2086-3.71165E+00 4.65837E-01-5.00000E-01
 -1      2087 1.01296E+00 5.47339E+00-5.00000E-01
 -1      2088-7.38606E+00-2.38254E+00-5.00000E-01
 -1      2089 5.36201E-01 2.14257E+00-5.00000E-01
 -1      2090 3.67269E-01-3.43774E+00-5.00000E-01
 -1      2091 9.18125E-01-5.77599E+00-5.00000E-01
 -1      2092 1.30734E+00-4.35542E+00-5.00000E-01
 -1      2093-8.33360E+00-6.12797E-01-5.00000E-01
 -1      2094-3.06511E+00 7.59802E-01-5.00000E-01
 -1      2095-2.60415E+00 4.66418E+00-5.00000E-01
 -1      2096-4.42592E+00 2.78330E+00-5.00000E-01
 -1      2097-1.01783E-01-1.58193E+00 5.00000E-01
 -1      2098-1.16118E+00-3.19495E+00-5.00000E-01
 -1      2099 1.58375E+00 5.46380E-01 5.00000E-01
 -1      2100 2.19145E+00 2.87171E+00-5.00000E-01
 -1      2101 1.79747E+00 2.21394E+00-5.00000E-01
 -1      2102 6.58094E-01 3.48848E+00-5.00000E-01
 -1      2103-3.13531E+00-4.48842E+00-5.00000E-01
 -1      2104-5.19565E+00 1.36402E+00-5.00000E-01
 -1      2105-4.86256E+00-9.31321E-01-5.00000E-01
 -1      2106 1.92616E+00-1.78370E+00-5.00000E-01
 -1      2107-1.78718E+00-2.09144E+00-5.00000E-01
 -1      2108-4.74828E+00 9.44490E-01 5.00000E-01
 -1      2109-9.44490E-01 4.74828E+00 5.00000E-01
 -1      2110 9.44490E-01 4.74828E+00 5.00000E-01
 -1      2111 2.64659E+00 5.93262E-01-5.00000E-01
 -1      2112-1.93075E+00-1.42535E+00-5.00000E-01
 -1      2113-3.05886E+00-1.77899E+00-5.00000E-01
 -1      2114 3.88375E+00 9.21575E-01-5.00000E-01
 -1      2115-5.49363E-01-1.54212E+00-5.00000E-01
 -1      2116-5.49208E+00-2.83066E+00-5.00000E-01
 -1      2117-4.33862E+00-2.31793E+00-5.00000E-01
 -1      2118 1.19964E+00-6.20952E-01-5.00000E-01
 -1      2119 1.23741E+00-1.23741E+00 5.00000E-01
 -1      2120 3.69202E+00 4.90588E+00-5.00000E-01
 -1      2121 1.55061E+00-3.05703E+00-5.00000E-01
 -1      2122 1.36424E+00-2.37278E+00-5.00000E-01
 -1      2123 2.70214E+00 4.04402E+00-5.00000E-01
 -1      2124 2.87657E+00-2.03568E+00-5.00000E-01
 -1      2125 4.02539E+00-2.68968E+00 5.00000E-01
 -1      2126-1.85565E+00 9.54068E-01-5.00000E-01
 -1      2127 5.73023E+00 9.01150E-01-5.00000E-01
 -1      2128 3.76223E+00 2.86497E+00-5.00000E-01
 -1      2129 2.89964E+00 4.63867E+00-5.00000E-01
 -1      2130 4.37579E+00 2.90268E+00-5.00000E-01
 -1      2131 4.74828E+00-9.44490E-01 5.00000E-01
 -1      2132-5.12994E+00 7.45848E-01-5.00000E-01
 -1      2133-5.23280E-01-2.05713E+00-5.00000E-01
 -1      2134-5.39453E+00-1.28812E+00-5.00000E-01
 -1      2135-2.69493E+00-3.87356E+00-5.00000E-01
 -1      2136-1.15387E+00 5.34719E+00-5.00000E-01
 -1      2137 2.48938E+00-1.57772E+00-5.00000E-01
 -1      2138-9.43705E-01 3.31824E+00-5.00000E-01
 -1      2139 2.68968E+00 4.02539E+00 5.00000E-01
 -1      2140 1.54868E+00-1.17957E+00-5.00000E-01
 -1      2141 1.62504E+00-6.40826E-01 5.00000E-01
 -1      2142 1.58158E+00 1.02564E+00 5.00000E-01
 -1      2143 2.68968E+00-4.02539E+00 5.00000E-01
 -1      2144-1.77987E+00 3.05542E-01-5.00000E-01
 -1      2145 5.24838E+00 1.24350E+00-5.00000E-01
 -1      2146-2.48216E+00-1.39888E+00-5.00000E-01
 -1      2147 2.98198E+00 1.90887E+00-5.00000E-01
 -1      2148 1.67923E+00 5.77070E-01-5.00000E-01
 -1      2149-1.38423E+00-8.56854E-01 5.00000E-01
 -1      2150 4.63024E+00-3.41781E+00-5.00000E-01
 -1      2151 4.15400E+00-2.55337E+00-5.00000E-01
 -1      2152 5.14599E-01-1.69162E+00 5.00000E-01
 -1      2153 9.80538E-01-1.63086E+00 5.00000E-01
 -1      2154 1.05275E+00 1.57548E+00 5.00000E-01
 -1      2155-2.03083E+00-2.10857E-01-5.00000E-01
 -1      2156 1.24095E+00 6.44137E+00-5.00000E-01
 -1      2157 8.06777E-01-4.80272E+00-5.00000E-01
 -1      2158 6.60459E-01 2.80979E+00-5.00000E-01
 -1      2159 5.26796E-01 1.76116E+00 5.00000E-01
 -1      2160 1.05077E+00-3.57266E+00-5.00000E-01
 -1      2161-8.99689E-01-5.14901E+00-5.00000E-01
 -1      2162-8.16618E-01-3.83137E+00-5.00000E-01
 -1      2163-4.74828E+00-9.44490E-01 5.00000E-01
 -1      2164-1.22979E+00 1.34453E+00 5.00000E-01
 -1      2165 1.25231E+00 4.92984E+00-5.00000E-01
 -1      2166-1.42484E+00 2.71300E+00-5.00000E-01
 -1      2167 2.24414E+00-3.23976E+00-5.00000E-01
 -1      2168-4.20696E-01 1.91351E+00 5.00000E-01
 -1      2169 1.84364E+00-5.02787E-01-5.00000E-01
 -1      2170-3.92302E+00-2.80452E+00-5.00000E-01
 -1      2171 3.30499E+00 8.10399E-01-5.00000E-01
 -1      2172-5.09323E+00-3.36151E+00-5.00000E-01
 -1      2173-9.85061E-01-1.47417E+00 5.00000E-01
 -1      2174 4.96804E+00 3.21781E+00-5.00000E-01
 -1      2175 4.02539E+00 2.68968E+00 5.00000E-01
 -1      2176-4.02539E+00-2.68968E+00 5.00000E-01
 -1      2177-2.68968E+00-4.02539E+00 5.00000E-01
 -1      2178 1.62332E+00-1.06393E+00 5.00000E-01
 -1      2179-5.76946E-01-1.80281E+00 5.00000E-01
 -1      2180-1.78776E+00-3.55739E-01 5.00000E-01
 -1      2181-1.58730E+00 1.09264E+00 5.00000E-01
 -1      2182-1.78325E+00 1.19155E+00 5.00000E-01
 -1      2183-2.08877E-01-1.97308E+00 5.00000E-01
 -1      2184 9.44490E-01-4.74828E+00 5.00000E-01
 -1      2185 2.67071E-01 2.01055E+00 5.00000E-01
 -1      2186 1.18311E+00 1.77061E+00 5.00000E-01
 -1      2187 1.31087E+00-1.62906E+00 5.00000E-01
 -1      2188 2.25000E-01-1.97974E+00 5.00000E-01
 -1      2189-1.14925E+00-1.71993E+00 5.00000E-01
 -1      2190-1.03449E+00 1.68561E+00 5.00000E-01
 -1      2191-1.86032E+00 2.25000E-01 5.00000E-01
 -1      2192 1.88498E+00-2.25000E-01 5.00000E-01
 -1      2193-2.05324E+00-4.08480E-01 5.00000E-01
 -1      2194-4.66841E-01-2.04776E+00 5.00000E-01
 -1      2195-3.37500E-01 2.12415E+00 5.00000E-01
 -1      2196 1.91743E+00 2.32182E-01 5.00000E-01
 -1      2197-4.50000E-01 2.83713E+00 9.84564E-01
 -1      2198-1.96746E+00 5.71407E-01 5.00000E-01
 -1      2199-2.32070E+00 0.00000E+00 9.50658E-01
 -1      2200-1.23140E+00-1.84290E+00 5.00000E-01
 -1      2201 2.83713E+00-4.50000E-01 9.84564E-01
 -1      2202-1.50147E+00 2.44896E+00 9.84562E-01
 -1      2203-1.55367E+00-1.23547E+00 5.00000E-01
 -1      2204 2.58218E+00-4.50000E-01 8.03376E-01
 -1      2205 0.00000E+00-2.32070E+00 9.50658E-01
 -1      2206-1.27260E+00-1.90457E+00 5.00000E-01
 -1      2207 1.40030E+00-2.20472E+00 7.96686E-01
 -1      2208 5.40354E-01-2.00711E+00 5.00000E-01
 -1      2209 1.68458E+00-2.32097E+00 9.92005E-01
 -1      2210-2.08701E+00 3.44657E-01 5.00000E-01
 -1      2211-2.85968E+00-4.50000E-01 9.75000E-01
 -1      2212-2.14405E+00-8.88094E-01 9.50659E-01
 -1      2213-2.57277E+00-5.78600E-01 7.63008E-01
 -1      2214-2.14405E+00 8.88094E-01 9.50659E-01
 -1      2215 2.32097E+00 1.68458E+00 9.92005E-01
 -1      2216-2.14072E+00 5.17868E-01 5.00000E-01
 -1      2217-2.85968E+00 4.50000E-01 9.75000E-01
 -1      2218-2.16286E+00-5.30576E-01 5.00000E-01
 -1      2219 3.70985E-01-2.12812E+00 5.00000E-01
 -1      2220-2.59019E+00 4.50000E-01 8.09069E-01
 -1      2221-1.68458E+00 2.32097E+00 9.92005E-01
 -1      2222 0.00000E+00 2.32070E+00 9.50658E-01
 -1      2223-2.20121E+00-3.37500E-01 5.00000E-01
 -1      2224-1.80807E+00-9.92465E-01 5.00000E-01
 -1      2225 2.32070E+00 0.00000E+00 9.50658E-01
 -1      2226-8.88094E-01 2.14405E+00 9.50659E-01
 -1      2227 4.50000E-01-2.85968E+00 9.75000E-01
 -1      2228 4.50000E-01-2.59019E+00 8.09069E-01
 -1      2229-1.87462E+00 1.25260E+00 5.00000E-01
 -1      2230-2.59019E+00-4.50000E-01 8.09069E-01
 -1      2231 1.71803E+00 1.24074E+00 5.00000E-01
 -1      2232-4.34207E-01-2.18274E+00 5.00000E-01
 -1      2233-2.07280E+00 1.06010E+00 7.62112E-01
 -1      2234-2.20070E+00 4.04338E-01 5.00000E-01
 -1      2235 2.32097E+00-1.68458E+00 9.92005E-01
 -1      2236-2.82928E+00 6.84850E-01 9.75000E-01
 -1      2237 2.85968E+00 4.50000E-01 9.75000E-01
 -1      2238 1.73876E+00-1.26147E+00 5.00000E-01
 -1      2239-1.40390E+00 2.21342E+00 8.03377E-01
 -1      2240-6.84850E-01 2.82928E+00 9.75000E-01
 -1      2241-1.86174E-01 2.32070E+00 7.62112E-01
 -1      2242-5.87757E-01 2.59488E+00 8.00305E-01
 -1      2243 2.59019E+00 4.50000E-01 8.09069E-01
 -1      2244 1.97385E+00-5.69712E-01 5.00000E-01
 -1      2245-1.86290E+00-6.72029E-01 5.00000E-01
 -1      2246-1.97957E+00-8.47995E-02 5.00000E-01
 -1      2247-4.50000E-01-2.85968E+00 9.75000E-01
 -1      2248-2.32070E+00-1.86174E-01 7.62112E-01
 -1      2249-4.50000E-01-2.59019E+00 8.09069E-01
 -1      2250 2.09382E+00-3.54971E-01 5.00000E-01
 -1      2251-2.32097E+00 1.68458E+00 9.92005E-01
 -1      2252 2.20472E+00-1.40030E+00 7.96686E-01
 -1      2253-2.46979E+00 1.51010E+00 9.75000E-01
 -1      2254-1.64099E+00 1.64099E+00 9.50654E-01
 -1      2255 1.64099E+00-1.64099E+00 9.50654E-01
 -1      2256-5.20675E-01 2.13896E+00 5.00000E-01
 -1      2257-4.23099E-01 2.20562E+00 5.00000E-01
 -1      2258-3.08430E-01 2.32070E+00 6.46290E-01
 -1      2259-1.92056E+00 1.28329E+00 5.00000E-01
 -1      2260-2.02602E+00 1.17305E+00 6.46290E-01
 -1      2261 2.14684E+00-5.23943E-01 5.00000E-01
 -1      2262 5.48296E-01 2.04349E+00 5.00000E-01
 -1      2263-2.57277E+00 5.78600E-01 8.09629E-01
 -1      2264 1.24837E+00 1.86829E+00 5.00000E-01
 -1      2265 1.64099E+00 1.64099E+00 9.50654E-01
 -1      2266-2.32097E+00-1.68458E+00 9.92005E-01
 -1      2267-2.18710E+00-7.84158E-01 7.25329E-01
 -1      2268 1.94074E+00 5.91232E-01 5.00000E-01
 -1      2269 6.68151E-01-2.78897E+00 9.92005E-01
 -1      2270 1.28115E+00 1.91736E+00 5.00000E-01
 -1      2271-2.48196E+00-4.50000E-01 6.73439E-01
 -1      2272 5.72540E-01-2.55814E+00 8.03458E-01
 -1      2273-1.68458E+00-2.32097E+00 9.92005E-01
 -1      2274-8.88094E-01-2.14405E+00 9.50659E-01
 -1      2275 1.14661E+00-1.79716E+00 5.00000E-01
 -1      2276-2.18710E+00 7.84158E-01 7.25329E-01
 -1      2277-2.46979E+00-1.51010E+00 9.75000E-01
 -1      2278-2.22082E+00-1.40697E+00 8.09069E-01
 -1      2279-2.25168E+00-6.28254E-01 6.68833E-01
 -1      2280 2.20258E+00-4.13644E-01 5.00000E-01
 -1      2281 4.50000E-01 2.85968E+00 9.75000E-01
 -1      2282-2.32070E+00 1.86174E-01 7.62112E-01
 -1      2283 8.88094E-01 2.14405E+00 9.50659E-01
 -1      2284 4.50000E-01 2.59019E+00 8.09069E-01
 -1      2285 2.15551E+00 1.51912E+00 7.63007E-01
 -1      2286-2.48196E+00 4.50000E-01 6.73439E-01
 -1      2287-1.25969E+00 1.73698E+00 5.00000E-01
 -1      2288 2.78897E+00 6.68151E-01 9.92005E-01
 -1      2289 1.85336E+00 1.23839E+00 5.00000E-01
 -1      2290-2.22744E+00 4.91076E-01 5.00000E-01
 -1      2291-4.47782E-01-2.25107E+00 5.00000E-01
 -1      2292-1.53058E+00 2.16697E+00 7.88285E-01
 -1      2293-7.84158E-01 2.18710E+00 7.25329E-01
 -1      2294-2.25804E+00 4.34146E-01 5.00000E-01
 -1      2295 6.84850E-01 2.82928E+00 9.75000E-01
 -1      2296-2.21657E+00-4.40898E-01 5.00000E-01
 -1      2297 1.88047E+00-1.14422E+00 5.00000E-01
 -1      2298-1.77155E+00-1.20890E+00 5.00000E-01
 -1      2299 1.51912E+00 2.15551E+00 7.63007E-01
 -1      2300 2.14405E+00 8.88094E-01 9.50659E-01
 -1      2301 1.72053E+00 1.56144E+00 7.25327E-01
 -1      2302 2.46979E+00 1.51010E+00 9.75000E-01
 -1      2303 2.22082E+00 1.40697E+00 8.09069E-01
 -1      2304 1.56144E+00 1.72053E+00 6.96914E-01
 -1      2305 1.44211E+00 1.83986E+00 6.62729E-01
 -1      2306-2.44452E+00-5.25474E-01 6.31504E-01
 -1      2307-3.25532E-01 2.22242E+00 5.00000E-01
 -1      2308-5.06778E-01 2.22336E+00 5.00000E-01
 -1      2309-4.55864E-01 2.25732E+00 5.00000E-01
 -1      2310-7.81707E-02 2.06689E+00 5.00000E-01
 -1      2311-1.56144E+00-1.72053E+00 8.44077E-01
 -1      2312-1.12500E-01-2.32070E+00 7.25329E-01
 -1      2313 9.92031E-01-2.10100E+00 8.31909E-01
 -1      2314-2.14431E+00-1.50792E+00 8.03458E-01
 -1      2315-1.72053E+00 1.56144E+00 7.25327E-01
 -1      2316-4.50000E-01-2.48196E+00 6.73439E-01
 -1      2317 2.78897E+00-6.68151E-01 9.92005E-01
 -1      2318 1.53058E+00-2.16697E+00 7.88285E-01
 -1      2319 2.15551E+00-1.51912E+00 7.92948E-01
 -1      2320-6.84850E-01-2.82928E+00 9.75000E-01
 -1      2321-5.78600E-01-2.57277E+00 8.09629E-01
 -1      2322 2.55652E+00-5.71868E-01 8.56250E-01
 -1      2323 1.36120E+00-2.11033E+00 6.65468E-01
 -1      2324-1.14415E+00 1.88028E+00 5.00000E-01
 -1      2325 1.84142E+00 1.44055E+00 6.69938E-01
 -1      2326-2.41767E+00-4.50000E-01 5.97905E-01
 -1      2327 5.78600E-01 2.57277E+00 8.09629E-01
 -1      2328-1.54132E+00 1.74065E+00 7.39533E-01
 -1      2329-2.25122E+00 6.29364E-01 6.68232E-01
 -1      2330 2.47679E+00-4.50000E-01 6.69813E-01
 -1      2331 2.08644E+00 4.01491E-01 5.00000E-01
 -1      2332-2.27885E+00-5.62665E-01 5.98698E-01
 -1      2333 1.36811E+00 2.12700E+00 6.78125E-01
 -1      2334 3.93893E-01 2.14477E+00 5.00000E-01
 -1      2335 4.42818E-01 2.22608E+00 5.00000E-01
 -1      2336 1.14794E+00 2.03642E+00 6.65954E-01
 -1      2337 2.20107E+00 4.37848E-01 5.00000E-01
 -1      2338 2.26277E+00 8.74555E-01-5.00000E-01
 -1      2339 2.32070E+00 1.12500E-01 7.25329E-01
 -1      2340 2.48198E+00 4.50000E-01 6.73389E-01
 -1      2341 4.52130E-01 2.27296E+00 5.00000E-01
 -1      2342-1.51010E+00-2.46979E+00 9.75000E-01
 -1      2343-1.06010E+00-2.07280E+00 7.62112E-01
 -1      2344-1.40030E+00-2.20472E+00 7.37123E-01
 -1      2345-1.43765E+00 2.07404E+00 6.73213E-01
 -1      2346 1.52360E+00 2.50238E+00 9.75000E-01
 -1      2347-2.32070E+00 2.81250E-01 6.42264E-01
 -1      2348 1.21438E+00 2.00890E+00 5.97821E-01
 -1      2349-5.37236E-01 2.47291E+00 6.78768E-01
 -1      2350 2.21530E+00 7.16093E-01 7.62112E-01
 -1      2351-1.36357E+00 2.11605E+00 6.69813E-01
 -1      2352 2.10100E+00-9.92031E-01 8.31909E-01
 -1      2353 2.11033E+00-1.36120E+00 6.65468E-01
 -1      2354 1.34245E+00 2.06505E+00 6.00579E-01
 -1      2355-2.44452E+00 5.25474E-01 6.31504E-01
 -1      2356-2.26813E+00-4.51172E-01 5.00000E-01
 -1      2357 1.90984E+00 1.27612E+00 5.00000E-01
 -1      2358 1.85765E+00-1.26091E+00 5.00000E-01
 -1      2359-1.26136E+00 1.85657E+00 5.00000E-01
 -1      2360-2.15551E+00 1.51912E+00 7.63007E-01
 -1      2361-1.83986E+00 1.44211E+00 6.65952E-01
 -1      2362-2.27877E+00 5.62854E-01 5.98891E-01
 -1      2363-2.05734E+00 1.42095E+00 6.31504E-01
 -1      2364-1.06010E+00 2.07280E+00 7.62112E-01
 -1      2365-2.00266E+00 1.22943E+00 5.82385E-01
 -1      2366-2.44452E+00 4.50000E-01 5.85493E-01
 -1      2367-2.81250E-01-2.32070E+00 6.65954E-01
 -1      2368 2.25612E+00 6.17540E-01 6.43982E-01
 -1      2369 2.48272E+00-5.41301E-01 6.87046E-01
 -1      2370-7.84158E-01-2.18710E+00 7.25329E-01
 -1      2371-5.35975E-01-2.46987E+00 6.74276E-01
 -1      2372 1.24644E+00-1.86541E+00 5.00000E-01
 -1      2373 2.23133E+00-4.97402E-01 5.00000E-01
 -1      2374-1.46252E+00-1.81945E+00 6.99383E-01
 -1      2375 7.84158E-01 2.18710E+00 7.25329E-01
 -1      2376 1.42095E+00 2.05734E+00 6.31504E-01
 -1      2377 1.72053E+00-1.56144E+00 7.25327E-01
 -1      2378-1.04718E+00-1.87705E+00 5.00000E-01
 -1      2379-3.53168E-01-2.32070E+00 5.97821E-01
 -1      2380 1.84142E+00-1.44055E+00 6.69938E-01
 -1      2381 2.32070E+00-2.81250E-01 6.65954E-01
 -1      2382 2.03642E+00 1.14794E+00 6.72040E-01
 -1      2383 9.66724E-01 2.40758E+00-5.00000E-01
 -1      2384 5.35292E-01 2.46822E+00 6.74809E-01
 -1      2385 4.50000E-01 2.48196E+00 6.73439E-01
 -1      2386 2.32070E+00-3.53168E-01 5.97821E-01
 -1      2387 4.50000E-01-2.48196E+00 6.73439E-01
 -1      2388-1.90179E+00-1.11958E+00 5.00000E-01
 -1      2389 5.11971E-01-2.14642E+00 5.00000E-01
 -1      2390 1.14794E+00-2.03642E+00 6.65954E-01
 -1      2391-1.89071E+00 1.39126E+00 5.97820E-01
 -1      2392-2.09011E+00-1.01832E+00 7.39536E-01
 -1      2393 1.93526E+00-1.22780E+00 5.00000E-01
 -1      2394-2.32070E+00 3.60149E-01 5.91208E-01
 -1      2395-2.12083E+00-1.36555E+00 6.73439E-01
 -1      2396-2.03117E+00-1.16060E+00 6.59057E-01
 -1      2397-6.28254E-01-2.25168E+00 6.65954E-01
 -1      2398-1.75893E+00-1.52304E+00 7.80468E-01
 -1      2399 2.25876E+00-4.41177E-01 5.00000E-01
 -1      2400 2.25168E+00-6.28254E-01 6.65954E-01
 -1      2401-1.83986E+00-1.44211E+00 6.57947E-01
 -1      2402-1.84924E+00-1.29240E+00 5.00000E-01
 -1      2403 1.39054E+00 1.89143E+00 5.96854E-01
 -1      2404 2.81250E-01-2.21172E+00 5.00000E-01
 -1      2405 2.05734E+00 1.42095E+00 6.31504E-01
 -1      2406-1.35842E+00-2.10361E+00 6.42610E-01
 -1      2407-1.16229E+00-2.03047E+00 6.51235E-01
 -1      2408-4.50000E-01-2.41767E+00 5.97905E-01
 -1      2409 2.05734E+00-1.42095E+00 6.31504E-01
 -1      2410 2.81250E-01 2.32070E+00 6.65954E-01
 -1      2411 3.53168E-01 2.32070E+00 5.97821E-01
 -1      2412 1.43944E+00-2.07583E+00 6.72255E-01
 -1      2413-1.16229E+00 2.03047E+00 6.51235E-01
 -1      2414 1.44211E+00-1.83986E+00 6.65952E-01
 -1      2415 2.41460E+00-4.50000E-01 5.95808E-01
 -1      2416 1.32668E+00-2.02698E+00 5.72449E-01
 -1      2417-1.22749E+00 1.93451E+00 5.00000E-01
 -1      2418 3.81256E-01-2.22911E+00 5.00000E-01
 -1      2419 2.26030E+00 4.49617E-01 5.00000E-01
 -1      2420 7.33004E-01-2.20829E+00 7.79454E-01
 -1      2421-1.28397E+00 1.91272E+00 5.00000E-01
 -1      2422 2.08623E+00 1.35122E+00 6.16224E-01
 -1      2423 2.00965E+00 1.21255E+00 5.99693E-01
 -1      2424 2.03642E+00-1.14794E+00 6.65954E-01
 -1      2425 2.00890E+00-1.21438E+00 5.97821E-01
 -1      2426 1.89031E+00-1.39166E+00 5.98359E-01
 -1      2427-1.22388E+00 2.00496E+00 5.88082E-01
 -1      2428 1.91330E+00-1.28384E+00 5.00000E-01
 -1      2429-5.10086E-01-2.40736E+00 6.00164E-01
 -1      2430 6.28254E-01-2.25168E+00 6.57067E-01
 -1      2431-1.42095E+00-2.05734E+00 6.31504E-01
 -1      2432 2.41554E+00-5.13473E-01 6.07063E-01
 -1      2433 1.28018E+00-1.91591E+00 5.00000E-01
 -1      2434 2.27920E+00-5.61810E-01 5.97821E-01
 -1      2435-1.86261E+00-1.20207E+00 5.00000E-01
 -1      2436 6.28254E-01 2.25168E+00 6.65954E-01
 -1      2437-1.91448E+00-1.25590E+00 5.00000E-01
 -1      2438-1.22388E+00-2.00496E+00 5.88082E-01
 -1      2439 1.89031E+00 1.39166E+00 5.98359E-01
 -1      2440 2.81250E-01-2.32070E+00 6.65954E-01
 -1      2441 3.53168E-01-2.32070E+00 5.97821E-01
 -1      2442 4.50000E-01-2.41767E+00 5.97905E-01
 -1      2443-1.44211E+00 1.83986E+00 6.54247E-01
 -1      2444 4.50000E-01 2.41767E+00 5.97905E-01
 -1      2445 1.39126E+00-1.89071E+00 5.97820E-01
 -1      2446 4.71067E-01-2.22642E+00 5.00000E-01
 -1      2447 5.25474E-01-2.44452E+00 6.31504E-01
 -1      2448 2.02820E+00 1.32719E+00 5.73352E-01
 -1      2449 2.05515E+00-1.33835E+00 5.93261E-01
 -1      2450-5.61810E-01-2.27920E+00 5.97821E-01
 -1      2451-1.40501E+00-1.87696E+00 6.16245E-01
 -1      2452 5.09939E-01 2.40701E+00 5.99866E-01
 -1      2453-1.39138E+00 2.02777E+00 5.98907E-01
 -1      2454 4.27311E-01-2.26614E+00 5.00000E-01
 -1      2455 5.59259E-01-2.28026E+00 5.95206E-01
 -1      2456-1.37476E+00-2.01115E+00 5.80596E-01
 -1      2457 5.61810E-01 2.27920E+00 5.97821E-01
 -1      2458-1.38871E+00 1.89326E+00 5.94407E-01
 -1      2459-4.78030E+00 3.19410E+00 7.09517E-02
 -1      2460-2.28124E+00 1.52425E+00 5.84978E-02
 -1      2461 2.16809E+00 1.44865E+00-3.11883E-02
 -1      2462-1.12162E+00-5.63874E+00 4.75894E-02
 -1      2463-1.29911E+00 1.94425E+00-7.81526E-02
 -1      2464 5.63874E+00-1.12162E+00 6.75867E-02
 -1      2465-2.84454E+00 4.25715E+00-2.14942E-02
 -1      2466-3.19410E+00 4.78030E+00 7.13806E-02
 -1      2467-3.86602E-01 1.94311E+00-1.17718E-02
 -1      2468 2.69090E+00-5.35161E-01 6.86055E-02
 -1      2469 1.97437E+00 3.92812E-01 1.07494E-03
 -1      2470 5.35161E-01-2.69090E+00 2.87455E-02
 -1      2471-5.35161E-01 2.69090E+00 6.56229E-02
 -1      2472-2.69090E+00-5.35161E-01 6.76123E-02
 -1      2473 1.90164E+00-1.27064E+00-6.34193E-02
 -1      2474-4.59269E-01 2.30889E+00 1.08464E-01
 -1      2475-5.63874E+00 1.12162E+00 3.75678E-02
 -1      2476-5.35161E-01-2.69090E+00 5.68133E-02
 -1      2477 3.19410E+00-4.78030E+00 1.10155E-02
 -1      2478-3.43129E+00 6.82520E-01 3.27780E-02
 -1      2479 4.03726E-01 2.02931E+00 2.83359E-02
 -1      2480 1.12162E+00-5.63874E+00 5.79714E-02
 -1      2481-2.69090E+00 5.35161E-01 2.81095E-02
 -1      2482 1.18311E+00 1.77061E+00 2.59845E-02
 -1      2483 1.52425E+00 2.28124E+00 3.25628E-02
 -1      2484 1.17981E+00-1.76568E+00 2.68224E-02
 -1      2485 1.49536E+00-2.23800E+00 3.60803E-02
 -1      2486-1.52425E+00-2.28124E+00 1.95755E-02
 -1      2487-3.19410E+00-4.78030E+00 4.37729E-02
 -1      2488 3.97395E-01-1.99744E+00-1.23850E-02
 -1      2489 2.69090E+00 5.35161E-01 6.94795E-02
 -1      2490-4.34287E-01-2.18314E+00-2.31373E-03
 -1      2491-1.14925E+00-1.71993E+00 6.65317E-03
 -1      2492-2.15939E+00 4.29570E-01-1.90688E-02
 -1      2493-1.61325E+00 1.07798E+00 5.27433E-02
 -1      2494 3.19410E+00 4.78030E+00 3.47155E-02
 -1      2495 5.63874E+00 1.12162E+00 5.96063E-02
 -1      2496-5.63874E+00-1.12162E+00 4.44148E-02
 -1      2497-4.95148E-01 2.48949E+00 2.99920E-01
 -1      2498-1.12162E+00 5.63874E+00 4.50729E-02
 -1      2499-2.84454E+00-4.25715E+00-3.01693E-02
 -1      2500-2.16444E+00-4.30572E-01-2.06660E-02
 -1      2501-2.48949E+00-4.95148E-01 2.70348E-01
 -1      2502-6.82520E-01 3.43129E+00 5.50570E-02
 -1      2503-2.40963E+00 4.79283E-01 1.86212E-01
 -1      2504 2.48949E+00-4.95148E-01 2.70813E-01
 -1      2505-2.28124E+00-1.52425E+00 4.41125E-02
 -1      2506-4.80828E-01-2.41741E+00 2.02314E-01
 -1      2507 1.76587E+00 1.17994E+00 6.85455E-02
 -1      2508-2.11049E+00 1.41017E+00 2.66066E-01
 -1      2509-1.41017E+00 2.11049E+00 2.02760E-01
 -1      2510-1.65740E+00-1.10747E+00-1.91659E-02
 -1      2511 4.78030E+00-3.19410E+00 5.18155E-02
 -1      2512-2.40398E+00-4.78161E-01 3.85456E-01
 -1      2513 1.12162E+00 5.63874E+00 6.85201E-02
 -1      2514 6.82520E-01-3.43129E+00 4.58432E-02
 -1      2515 5.35161E-01 2.69090E+00 5.72308E-02
 -1      2516 1.35284E+00 2.02467E+00 1.69995E-01
 -1      2517 2.11049E+00 1.41017E+00 2.58627E-01
 -1      2518 2.43841E+00 1.58587E+00 1.92414E-01
 -1      2519-6.82520E-01-3.43129E+00 2.80370E-02
 -1      2520 1.33623E+00-1.99980E+00 1.81572E-01
 -1      2521-1.33539E+00-1.99855E+00 1.41270E-01
 -1      2522 4.64930E-01-2.33738E+00 1.27078E-01
 -1      2523 2.32458E+00 4.62387E-01 1.22944E-01
 -1      2524-1.96241E+00-1.31125E+00 1.10967E-01
 -1      2525 1.94367E+00-2.90890E+00 2.73172E-02
 -1      2526-4.78030E+00-3.19410E+00 3.74974E-02
 -1      2527 4.78030E+00 3.19410E+00 7.01921E-02
 -1      2528-1.23140E+00-1.84290E+00 3.02286E-01
 -1      2529-1.33139E+00-1.99257E+00 3.22220E-01
 -1      2530 1.78945E+00-1.19569E+00 2.42036E-01
 -1      2531-4.56817E-01 2.29655E+00 3.04834E-01
 -1      2532 2.43841E+00-1.58587E+00 2.23136E-02
 -1      2533 2.09862E+00-1.44512E+00 1.87376E-01
 -1      2534 2.57277E+00-1.62523E-01 3.25146E-01
 -1      2535-1.13041E+00-2.33152E+00 2.38364E-01
 -1      2536-4.34207E-01-2.18274E+00 2.87399E-01
 -1      2537-1.58587E+00 2.43841E+00 1.98121E-01
 -1      2538-1.13471E+00 2.31473E+00 3.04883E-01
 -1      2539-1.23407E+00 1.84689E+00 2.16780E-01
 -1      2540-2.57277E+00-1.62523E-01 3.25036E-01
 -1      2541 2.06498E+00-4.10813E-01 1.22759E-01
 -1      2542 2.03800E+00 1.36174E+00 3.79582E-01
 -1      2543-1.87462E+00 1.25260E+00 2.36870E-01
 -1      2544 2.25311E+00-4.48189E-01 2.68675E-01
 -1      2545 2.30164E+00-8.37032E-01-5.40037E-02
 -1      2546 4.68561E-01 2.35566E+00 1.48468E-01
 -1      2547-1.27623E+00-1.91000E+00 3.96277E-01
 -1      2548-2.38742E+00-7.87044E-01 3.28168E-01
 -1      2549 1.24837E+00 1.86829E+00 3.02316E-01
 -1      2550-1.73205E+00 1.94257E+00 2.96618E-01
 -1      2551 1.36174E+00-2.03800E+00 3.49610E-01
 -1      2552-4.96591E-01-2.57277E+00 3.26121E-01
 -1      2553 0.00000E+00-2.78942E+00 2.00727E-01
 -1      2554-2.36123E+00-4.69668E-01 4.43295E-01
 -1      2555-2.30867E+00-2.55636E-01 1.91255E-01
 -1      2556-4.78161E-01 2.40398E+00 4.00284E-01
 -1      2557-2.18686E+00 4.35026E-01 2.89809E-01
 -1      2558-2.34244E+00 4.65934E-01 3.36785E-01
 -1      2559 2.48949E+00 4.95148E-01 3.14470E-01
 -1      2560 2.30353E+00 4.58205E-01 3.11341E-01
 -1      2561-2.14897E+00-5.42815E-01 2.51799E-01
 -1      2562-2.03800E+00 1.36174E+00 3.83311E-01
 -1      2563-2.31473E+00 1.13471E+00 3.23953E-01
 -1      2564-2.57277E+00 4.96591E-01 3.15327E-01
 -1      2565-1.29345E+00-1.93578E+00 4.50294E-01
 -1      2566 8.56815E-01-2.45753E+00 2.21349E-01
 -1      2567-1.90557E+00 1.64334E+00 3.26718E-01
 -1      2568-1.44335E+00-2.18689E+00 2.96323E-01
 -1      2569-4.58964E-01 2.30735E+00 4.02768E-01
 -1      2570 1.75099E+00-1.96141E+00 2.17612E-01
 -1      2571-1.91997E+00 1.28289E+00 3.68730E-01
 -1      2572 1.96350E+00-1.31198E+00 2.86355E-01
 -1      2573-1.32464E+00 1.98246E+00 3.12420E-01
 -1      2574-4.78161E-01-2.40398E+00 3.63825E-01
 -1      2575 2.40398E+00-4.78161E-01 3.85690E-01
 -1      2576 1.81264E+00 1.45965E+00 1.91831E-01
 -1      2577 1.34043E+00 2.00609E+00 3.38046E-01
 -1      2578-4.52794E-01-2.27630E+00 3.76954E-01
 -1      2579-2.44452E+00-3.07494E-01 4.05037E-01
 -1      2580-2.11049E+00-1.41017E+00 3.03963E-01
 -1      2581-4.66491E-01-2.34524E+00 4.21953E-01
 -1      2582 1.69828E+00 1.92849E+00 2.70390E-01
 -1      2583 1.33753E+00 2.00175E+00 4.25206E-01
 -1      2584 2.39512E+00 4.76399E-01 3.99088E-01
 -1      2585 1.95088E+00 1.52742E+00 3.97324E-01
 -1      2586-1.94780E+00-1.30149E+00 3.05836E-01
 -1      2587-2.29504E+00-3.54906E-01 3.32175E-01
 -1      2588-4.68785E-01 2.35679E+00 4.46832E-01
 -1      2589 1.44335E+00 2.18689E+00 3.14674E-01
 -1      2590-8.03745E-01-2.38808E+00 2.86543E-01
 -1      2591 2.48475E+00 1.95123E-01 3.39718E-01
 -1      2592-3.23560E-01 2.38437E+00 3.97399E-01
 -1      2593-1.24381E+00-2.13072E+00 3.79015E-01
 -1      2594-1.12500E-01 2.15645E+00 1.71612E-01
 -1      2595 2.31473E+00-1.13471E+00 2.58751E-01
 -1      2596-1.88616E+00-1.95757E+00 1.81302E-01
 -1      2597-6.17532E-01 2.33891E+00 4.10521E-01
 -1      2598-2.14076E+00 1.21957E+00 4.04635E-01
 -1      2599 1.21895E+00 2.14321E+00 3.84566E-01
 -1      2600 1.28115E+00 1.91736E+00 4.17024E-01
 -1      2601-2.00175E+00 1.33753E+00 4.42212E-01
 -1      2602 2.00175E+00 1.33753E+00 4.40330E-01
 -1      2603-2.25273E+00 4.48112E-01 4.06931E-01
 -1      2604-2.44452E+00 4.78883E-01 3.94112E-01
 -1      2605-2.27876E+00-5.95683E-01 3.55493E-01
 -1      2606-9.07327E-01 2.48445E+00 5.17173E-01
 -1      2607-7.06357E-01 1.99928E+00 1.93887E-01
 -1      2608-4.59137E-01 2.30822E+00 4.52610E-01
 -1      2609 4.96591E-01-2.56386E+00 2.54200E-01
 -1      2610 2.35747E+00 4.68920E-01 4.50717E-01
 -1      2611 4.29148E-01 2.15727E+00 3.04651E-01
 -1      2612-2.40071E+00 7.26966E-01 2.95062E-01
 -1      2613-2.85807E+00 1.65525E-01 2.17715E-01
 -1      2614-2.54275E+00 2.34773E-01 3.53379E-01
 -1      2615 1.92895E+00 1.14484E+00 2.74076E-01
 -1      2616 1.87233E+00 1.38595E+00 3.36400E-01
 -1      2617 1.19642E+00-2.33190E+00 2.17612E-01
 -1      2618 1.21957E+00-2.14076E+00 3.96081E-01
 -1      2619 1.33753E+00-2.00175E+00 4.25237E-01
 -1      2620 4.40075E-01-2.21227E+00 3.07618E-01
 -1      2621-3.07771E-01-2.36990E+00 3.55087E-01
 -1      2622 4.63462E-01 2.32999E+00 3.23640E-01
 -1      2623 1.27740E+00 2.56618E+00 2.25507E-01
 -1      2624 2.03800E+00-1.36174E+00 3.92484E-01
 -1      2625 2.28566E+00-4.54655E-01 3.84657E-01
 -1      2626-1.37791E+00 2.07517E+00 3.82832E-01
 -1      2627-1.52742E+00 1.95088E+00 3.85973E-01
 -1      2628 2.14076E+00 1.21957E+00 4.03917E-01
 -1      2629 1.90984E+00 1.27612E+00 4.06422E-01
 -1      2630-2.02985E+00-1.35630E+00 3.93598E-01
 -1      2631 2.29578E+00 5.97015E-01 3.84207E-01
 -1      2632-1.95503E+00 1.42510E+00 4.39525E-01
 -1      2633-2.31473E+00-1.13471E+00 3.31481E-01
 -1      2634-1.89753E+00-1.62407E+00 3.38219E-01
 -1      2635-2.33320E+00 4.64099E-01 4.19209E-01
 -1      2636 1.26196E+00 2.05379E+00 4.42188E-01
 -1      2637-4.54662E-01-2.28570E+00 4.45355E-01
 -1      2638 1.30825E+00 1.95793E+00 4.45455E-01
 -1      2639-1.21957E+00 2.14076E+00 4.10525E-01
 -1      2640 1.42510E+00 1.95503E+00 4.38203E-01
 -1      2641 2.36123E+00-4.69668E-01 4.43413E-01
 -1      2642 1.52742E+00-1.95088E+00 3.90802E-01
 -1      2643 2.31613E+00-6.10844E-01 3.85461E-01
 -1      2644 1.37460E+00-1.83032E+00 3.04567E-01
 -1      2645 1.94727E+00-1.30113E+00 3.93715E-01
 -1      2646 1.95092E+00 1.30356E+00 4.42510E-01
 -1      2647-1.12500E-01 2.63945E+00 4.71340E-01
 -1      2648 2.40378E+00-3.22172E-01 4.07902E-01
 -1      2649-1.33753E+00-2.00175E+00 4.32235E-01
 -1      2650 2.46755E+00-9.00326E-01 4.34323E-01
 -1      2651 1.22510E+00-1.93019E+00 3.04567E-01
 -1      2652 2.30180E+00-4.57862E-01 4.42970E-01
 -1      2653 4.96591E-01 2.57277E+00 2.71886E-01
 -1      2654-2.14076E+00-1.21957E+00 4.05153E-01
 -1      2655-2.05379E+00 1.26196E+00 4.44683E-01
 -1      2656-1.55590E+00-1.95365E+00 3.46817E-01
 -1      2657-1.94403E+00 1.29897E+00 4.36309E-01
 -1      2658 1.95003E+00 1.96663E+00 8.04048E-01
 -1      2659 4.69668E-01 2.36123E+00 4.14699E-01
 -1      2660 4.78161E-01-2.40398E+00 3.40136E-01
 -1      2661 3.07494E-01 2.44452E+00 3.92281E-01
 -1      2662-2.35158E+00-5.68465E-01 4.39454E-01
 -1      2663 2.39549E+00 1.11401E+00 6.50919E-01
 -1      2664 4.52130E-01 2.27296E+00 4.23257E-01
 -1      2665-1.09429E+00-2.62574E+00 7.01178E-01
 -1      2666-2.28709E+00 4.54939E-01 4.53068E-01
 -1      2667-2.35158E+00 5.68465E-01 4.28494E-01
 -1      2668 4.61430E-01 2.31977E+00 4.47645E-01
 -1      2669-1.33753E+00 2.00175E+00 4.20118E-01
 -1      2670-2.38039E+00 3.94269E-01 4.37697E-01
 -1      2671 1.20514E+00 2.22141E+00 5.88865E-01
 -1      2672-2.26813E+00-4.51172E-01 4.16583E-01
 -1      2673-1.94843E+00-1.30191E+00 4.04337E-01
 -1      2674 1.99306E+00-1.33172E+00 4.38366E-01
 -1      2675 2.02208E+00 1.23667E+00 3.60525E-01
 -1      2676 2.35975E+00-1.13031E+00 6.60226E-01
 -1      2677 6.64582E-01-2.38690E+00 3.88065E-01
 -1      2678-2.85919E-01 2.16773E+00 2.96765E-01
 -1      2679-2.46335E+00-8.08017E-01 6.01779E-01
 -1      2680 1.95503E+00 1.42510E+00 4.39580E-01
 -1      2681-2.00175E+00-1.33753E+00 4.50972E-01
 -1      2682 2.61015E+00-1.24395E-01 6.72943E-01
 -1      2683-2.30943E+00-4.59377E-01 4.48951E-01
 -1      2684 1.90836E+00-1.45738E+00 3.82856E-01
 -1      2685 2.05666E+00-7.30127E-01 2.29004E-01
 -1      2686 1.94749E+00-1.30127E+00 4.49679E-01
 -1      2687 1.12755E+00-2.36871E+00 6.54600E-01
 -1      2688 4.57125E-01-2.29809E+00 3.85372E-01
 -1      2689 2.24679E+00-1.12500E-01 1.79848E-01
 -1      2690-2.49576E+00-2.62227E-01 5.96566E-01
 -1      2691 4.69668E-01-2.36123E+00 4.33465E-01
 -1      2692-1.25920E+00-2.01106E+00 4.46263E-01
 -1      2693-2.61028E+00 1.67466E-01 6.49634E-01
 -1      2694 2.16356E+00 1.17146E+00 1.35228E-01
 -1      2695 6.38273E-01 2.43591E+00 3.26489E-01
 -1      2696-1.96678E+00 1.69088E+00 6.02239E-01
 -1      2697-1.96039E+00-1.30990E+00 4.51964E-01
 -1      2698 2.05379E+00 1.26196E+00 4.44575E-01
 -1      2699-3.79947E-01-2.38039E+00 4.39446E-01
 -1      2700 4.58364E-01-2.30433E+00 4.43983E-01
 -1      2701 3.12768E-01-2.42988E+00 3.93788E-01
 -1      2702 2.47802E+00 9.04661E-01 3.72803E-01
 -1      2703 2.26030E+00 4.49617E-01 4.12804E-01
 -1      2704 3.79947E-01 2.38039E+00 4.39457E-01
 -1      2705-1.25920E+00 2.01106E+00 4.43216E-01
 -1      2706 1.42510E+00-1.95503E+00 4.38208E-01
 -1      2707 2.49981E+00-2.66559E-01 5.78423E-01
 -1      2708 1.26196E+00-2.05379E+00 4.42195E-01
 -1      2709-2.47157E+00 8.22922E-01 6.06460E-01
 -1      2710 2.30286E+00 4.58072E-01 4.47803E-01
 -1      2711 5.68465E-01 2.35158E+00 4.35948E-01
 -1      2712-1.12006E+00 1.96911E+00 3.60223E-01
 -1      2713-1.28570E+00 1.92418E+00 4.21854E-01
 -1      2714-2.26321E-01-2.55416E+00 4.75571E-01
 -1      2715-5.68465E-01-2.35158E+00 4.33840E-01
 -1      2716 2.35211E+00 3.68366E-01 3.92163E-01
 -1      2717-1.11972E+00-1.96831E+00 3.55122E-01
 -1      2718-1.31189E+00 1.96338E+00 4.47579E-01
 -1      2719 1.70523E+00 1.96939E+00 6.06460E-01
 -1      2720 1.94811E+00-1.78902E+00 4.61394E-01
 -1      2721 2.05224E+00 5.26034E-01 2.70322E-01
 -1      2722 2.12386E+00 2.85719E-01 2.80497E-01
 -1      2723-1.42510E+00-1.95503E+00 4.39186E-01
 -1      2724 1.28018E+00-1.91591E+00 4.16000E-01
 -1      2725-1.85013E+00-1.95406E+00 6.66401E-01
 -1      2726-1.96030E+00-9.78338E-01 1.93795E-01
 -1      2727 3.79947E-01-2.38039E+00 4.43794E-01
 -1      2728 1.12500E-01-2.23632E+00 1.74818E-01
 -1      2729-1.39189E+00 1.90872E+00 3.93366E-01
 -1      2730-1.69879E+00-1.35449E+00 3.04226E-01
 -1      2731 1.12500E-01-2.62764E+00 6.68188E-01
 -1      2732-1.52551E+00 1.68461E+00 1.98903E-01
 -1      2733 5.68465E-01-2.35158E+00 4.39295E-01
 -1      2734-8.22321E-01-1.77495E+00 2.03744E-01
 -1      2735 2.05379E+00-1.26196E+00 4.43303E-01
 -1      2736 1.30765E+00-1.95703E+00 4.44834E-01
 -1      2737-1.16514E+00-2.31797E+00 6.09552E-01
 -1      2738 2.66559E-01-2.49981E+00 5.78423E-01
 -1      2739 2.67676E-01 2.49985E+00 5.79602E-01
 -1      2740 1.98689E+00-1.12833E+00 3.26793E-01
 -1      2741-7.11481E-01-2.41861E+00 5.88261E-01
 -1      2742-1.81120E+00-1.12710E+00 2.97831E-01
 -1      2743 2.41002E+00-7.09740E-01 5.78424E-01
 -1      2744 2.19782E+00-1.21409E+00 5.84366E-01
 -1      2745 7.11349E-01 2.41892E+00 5.88763E-01
 -3
    3C                          8950                                     1
 -1         1    3    0    1
 -2      1318      1272      2564      2614
 -1         2    3    0    1
 -2      1708      1536      1832      2045
 -1         3    3    0    1
 -2        80       933       398        77
 -1         4    3    0    1
 -2       170       760      1031      1032
 -1         5    3    0    1
 -2      1586      1622      1659      1749
 -1         6    3    0    1
 -2       571      1049       580       579
 -1         7    3    0    1
 -2      2581      2574      1413      2715
 -1         8    3    0    1
 -2       298      1204      1203      1696
 -1         9    3    0    1
 -2      1586      1749      1533      1760
 -1        10    3    0    1
 -2       216       346       206      1070
 -1        11    3    0    1
 -2       509       960       519       737
 -1        12    3    0    1
 -2       262      1118       261      1115
 -1        13    3    0    1
 -2       915      1295      2623      2745
 -1        14    3    0    1
 -2       643      1150      1147      1894
 -1        15    3    0    1
 -2        46       724      1990      2120
 -1        16    3    0    1
 -2       489       916       912       904
 -1        17    3    0    1
 -2       836      1211      1664      1793
 -1        18    3    0    1
 -2      1595      1619      1621      1687
 -1        19    3    0    1
 -2      2063      2144      2492      2493
 -1        20    3    0    1
 -2       230      1080      1676      2078
 -1        21    3    0    1
 -2       716       469       880      2114
 -1        22    3    0    1
 -2       150       749       980       987
 -1        23    3    0    1
 -2       638      1584      1727      1941
 -1        24    3    0    1
 -2      1086       602      1922      1954
 -1        25    3    0    1
 -2        15       866       417         6
 -1        26    3    0    1
 -2       463       885       718       471
 -1        27    3    0    1
 -2       214      1067      1057       211
 -1        28    3    0    1
 -2       490       922       495       485
 -1        29    3    0    1
 -2       391       858      1837      1989
 -1        30    3    0    1
 -2      1274      2504      2575      2648
 -1        31    3    0    1
 -2       441       440       847      1740
 -1        32    3    0    1
 -2      1102       437       782      1927
 -1        33    3    0    1
 -2       647      1156       799      1700
 -1        34    3    0    1
 -2      1165      1164      1621      1638
 -1        35    3    0    1
 -2       595      1080       601       594
 -1        36    3    0    1
 -2       466       880       465       468
 -1        37    3    0    1
 -2      1105       246      1099       247
 -1        38    3    0    1
 -2      1579       325      1626      1933
 -1        39    3    0    1
 -2       326       333      1529      1748
 -1        40    3    0    1
 -2      1560      1646      1744      1818
 -1        41    3    0    1
 -2      1551      1581      1592      1853
 -1        42    3    0    1
 -2       180       177      1033      2496
 -1        43    3    0    1
 -2       116       102       110       738
 -1        44    3    0    1
 -2        29       882       878       408
 -1        45    3    0    1
 -2       141       328      1530      1701
 -1        46    3    0    1
 -2       880        31       716      1993
 -1        47    3    0    1
 -2      2597      2569      2608      1415
 -1        48    3    0    1
 -2        77       398        85       933
 -1        49    3    0    1
 -2       593       603       604      1088
 -1        50    3    0    1
 -2       570      1041       577       569
 -1        51    3    0    1
 -2      1209       323       840      1713
 -1        52    3    0    1
 -2       749       996       544      1658
 -1        53    3    0    1
 -2       174      1024       342       173
 -1        54    3    0    1
 -2       610      1108      1107       781
 -1        55    3    0    1
 -2       788      1660      2064      2167
 -1        56    3    0    1
 -2      2669      2713      2718      2729
 -1        57    3    0    1
 -2       370       777      2091      2480
 -1        58    3    0    1
 -2      1851      2140      2473      2169
 -1        59    3    0    1
 -2       964       120       965       971
 -1        60    3    0    1
 -2       462       882       869       461
 -1        61    3    0    1
 -2      1104       244      1806      1824
 -1        62    3    0    1
 -2       942      1520      1795      1971
 -1        63    3    0    1
 -2      1596      1647      1937      2007
 -1        64    3    0    1
 -2       631       640       639      1143
 -1        65    3    0    1
 -2       682      1679       827       681
 -1        66    3    0    1
 -2       878        28      1669      1768
 -1        67    3    0    1
 -2       523       531       532       743
 -1        68    3    0    1
 -2      1565      1209      1711      1713
 -1        69    3    0    1
 -2       452       867       855       451
 -1        70    3    0    1
 -2      1284      2254      2292      2328
 -1        71    3    0    1
 -2      1109      1106      1735      1927
 -1        72    3    0    1
 -2       314       397      1171      1852
 -1        73    3    0    1
 -2       971       977      1811      1983
 -1        74    3    0    1
 -2       503       506      1791      1802
 -1        75    3    0    1
 -2        67      1545      1613      1805
 -1        76    3    0    1
 -2      1733       847      1740      1774
 -1        77    3    0    1
 -2      1049       571       765      1052
 -1        78    3    0    1
 -2       110       100       111       738
 -1        79    3    0    1
 -2       531       523       532       744
 -1        80    3    0    1
 -2      1572      1563      1663      1775
 -1        81    3    0    1
 -2       641      1145       642      1737
 -1        82    3    0    1
 -2       771      2009      2019      2042
 -1        83    3    0    1
 -2      1572      1151      1959      1960
 -1        84    3    0    1
 -2       917       898      1948      2139
 -1        85    3    0    1
 -2       677       823       678      1683
 -1        86    3    0    1
 -2       593      1078       598       777
 -1        87    3    0    1
 -2       840       694      1711      1713
 -1        88    3    0    1
 -2       325       327      1013      1933
 -1        89    3    0    1
 -2       422       421       260      1123
 -1        90    3    0    1
 -2        49       899       720        46
 -1        91    3    0    1
 -2      1586      1622      1749      1760
 -1        92    3    0    1
 -2      1204      1529      1643      1696
 -1        93    3    0    1
 -2      1226      1281      2626      2639
 -1        94    3    0    1
 -2       239      1107       380       247
 -1        95    3    0    1
 -2       149       324       749      1658
 -1        96    3    0    1
 -2       437      1106      1927      2477
 -1        97    3    0    1
 -2      1887       442      1908      1976
 -1        98    3    0    1
 -2       490       923       726       485
 -1        99    3    0    1
 -2       541      1598      1726      1789
 -1       100    3    0    1
 -2      1883       810       405       808
 -1       101    3    0    1
 -2       230       232       231      1074
 -1       102    3    0    1
 -2      1084       774       594      1080
 -1       103    3    0    1
 -2       288       851      1762      2023
 -1       104    3    0    1
 -2       880      1993      2128      2175
 -1       105    3    0    1
 -2       891        49        46       903
 -1       106    3    0    1
 -2      1924       196      2011      2016
 -1       107    3    0    1
 -2       160      1008       333       159
 -1       108    3    0    1
 -2        90       400      1863      2109
 -1       109    3    0    1
 -2       106       736       952       954
 -1       110    3    0    1
 -2       898        46      2123      2139
 -1       111    3    0    1
 -2      1140      1584      1666      1727
 -1       112    3    0    1
 -2       141       990      1594      1702
 -1       113    3    0    1
 -2       532       531       744      1772
 -1       114    3    0    1
 -2       125       120       122       964
 -1       115    3    0    1
 -2      1634      1646      1718      1752
 -1       116    3    0    1
 -2        61       913       910        60
 -1       117    3    0    1
 -2       192       185       193      1052
 -1       118    3    0    1
 -2      1567      1553      1873      1970
 -1       119    3    0    1
 -2        61       921       727       907
 -1       120    3    0    1
 -2      1553      1528      1591      1636
 -1       121    3    0    1
 -2       278       283       795      1130
 -1       122    3    0    1
 -2      1526      1569      1599      1876
 -1       123    3    0    1
 -2      2620      2522      2701      2728
 -1       124    3    0    1
 -2      1688      1556      1908      1976
 -1       125    3    0    1
 -2      2555      2223      2193      2246
 -1       126    3    0    1
 -2      1644      1559      1741      1910
 -1       127    3    0    1
 -2      1585       383      1608      1725
 -1       128    3    0    1
 -2       816       669       814      1680
 -1       129    3    0    1
 -2      1031      1761      1846      1923
 -1       130    3    0    1
 -2      1204       298       334      1696
 -1       131    3    0    1
 -2      1525      1163      1597      1835
 -1       132    3    0    1
 -2       421       389      1986      2030
 -1       133    3    0    1
 -2      1578      1176      1605      1774
 -1       134    3    0    1
 -2       474       896       473       479
 -1       135    3    0    1
 -2        14        10         5       867
 -1       136    3    0    1
 -2       830      1205      1599      1643
 -1       137    3    0    1
 -2       580       591      1050      1731
 -1       138    3    0    1
 -2       247       255      1107      1735
 -1       139    3    0    1
 -2      1346      2588      2592      1416
 -1       140    3    0    1
 -2       330       755      1032      1918
 -1       141    3    0    1
 -2       601      1064      1085      2519
 -1       142    3    0    1
 -2      2601       134      2655      2657
 -1       143    3    0    1
 -2      1546      1667      1706      1955
 -1       144    3    0    1
 -2      1720      1815      1819      1875
 -1       145    3    0    1
 -2       178       170      1031      1032
 -1       146    3    0    1
 -2       137       146       144       992
 -1       147    3    0    1
 -2        66        60       373       913
 -1       148    3    0    1
 -2       514       738       509       735
 -1       149    3    0    1
 -2       796      2017      2039      2040
 -1       150    3    0    1
 -2      1520       959      1618      1782
 -1       151    3    0    1
 -2      1632       539      1702      1964
 -1       152    3    0    1
 -2      1344      2380      2720      2409
 -1       153    3    0    1
 -2      1779      1639      1943      1956
 -1       154    3    0    1
 -2      1067       429      1674      1819
 -1       155    3    0    1
 -2      1105      1099       614      1987
 -1       156    3    0    1
 -2       690       702      1688      1908
 -1       157    3    0    1
 -2       626      1625      1631      1641
 -1       158    3    0    1
 -2      1886       612      2167      2525
 -1       159    3    0    1
 -2       513       512       736       950
 -1       160    3    0    1
 -2       423       227      1088      1798
 -1       161    3    0    1
 -2      2121      1886      2167      2525
 -1       162    3    0    1
 -2      2568      1294      2593      2649
 -1       163    3    0    1
 -2      1123       382      1641      1765
 -1       164    3    0    1
 -2       330       178      1029      1722
 -1       165    3    0    1
 -2      1100       244      1095      1104
 -1       166    3    0    1
 -2       324       150       749       996
 -1       167    3    0    1
 -2      1721       508      1739      1795
 -1       168    3    0    1
 -2       290       288      1762      2023
 -1       169    3    0    1
 -2       398       933      1542      1802
 -1       170    3    0    1
 -2      1455      1443      2411      2444
 -1       171    3    0    1
 -2      1548      1570      1705      1743
 -1       172    3    0    1
 -2      1640       841      1711      1936
 -1       173    3    0    1
 -2      1613      1545      1645      1648
 -1       174    3    0    1
 -2      1224      1292      2628      2663
 -1       175    3    0    1
 -2      1695      1629      1845      1998
 -1       176    3    0    1
 -2       359       771      2042      2499
 -1       177    3    0    1
 -2      2051      2072      2190      2539
 -1       178    3    0    1
 -2       385       390       274       796
 -1       179    3    0    1
 -2       501       935       930       500
 -1       180    3    0    1
 -2       561      1023       563       566
 -1       181    3    0    1
 -2      1535      1627      2020      2041
 -1       182    3    0    1
 -2      1340      2319      2377      2380
 -1       183    3    0    1
 -2       195      1048       196       187
 -1       184    3    0    1
 -2       190       188       197       767
 -1       185    3    0    1
 -2      1109      1106       615      1735
 -1       186    3    0    1
 -2      1540      1545      1613      1614
 -1       187    3    0    1
 -2      1508      1444      2409      2426
 -1       188    3    0    1
 -2       605      1107       615       616
 -1       189    3    0    1
 -2       785       257      1124      1127
 -1       190    3    0    1
 -2       120       122       964       965
 -1       191    3    0    1
 -2      1572      1563      1775      1786
 -1       192    3    0    1
 -2       504       936       935       500
 -1       193    3    0    1
 -2       861        10       711      1524
 -1       194    3    0    1
 -2       612      1102      1886      2064
 -1       195    3    0    1
 -2        71       919       908        65
 -1       196    3    0    1
 -2      1013      1751      1763      2093
 -1       197    3    0    1
 -2      1799      1024      1839      1840
 -1       198    3    0    1
 -2       122       120       962       969
 -1       199    3    0    1
 -2      1750      1806      1979      1982
 -1       200    3    0    1
 -2       616       627      1126      1833
 -1       201    3    0    1
 -2      1621      1619      1638      1687
 -1       202    3    0    1
 -2       942      1520      1739      1795
 -1       203    3    0    1
 -2       266       264       257      1127
 -1       204    3    0    1
 -2       591      1070      1731      1899
 -1       205    3    0    1
 -2      1839      1764      1841      1846
 -1       206    3    0    1
 -2      1136       415      1666      1859
 -1       207    3    0    1
 -2      1849      1010      1980      2105
 -1       208    3    0    1
 -2      2501      1220      1241      2579
 -1       209    3    0    1
 -2       422       382      1126      1833
 -1       210    3    0    1
 -2       742       528       974      1789
 -1       211    3    0    1
 -2       734       960       112       946
 -1       212    3    0    1
 -2      1008      1751      1821      1969
 -1       213    3    0    1
 -2      1180       663       664      1684
 -1       214    3    0    1
 -2      2500      1766      2510      2726
 -1       215    3    0    1
 -2      1967      2075      2151      2511
 -1       216    3    0    1
 -2      1546      1582      1880      1896
 -1       217    3    0    1
 -2       228       230       232       774
 -1       218    3    0    1
 -2      2205      2228      2731      2440
 -1       219    3    0    1
 -2      1631      1122      1641      1765
 -1       220    3    0    1
 -2       198       219      2487      2499
 -1       221    3    0    1
 -2       152       365       162      1010
 -1       222    3    0    1
 -2       127       349      2465      2466
 -1       223    3    0    1
 -2       551      1013       554       545
 -1       224    3    0    1
 -2      1528      1553      1567      1716
 -1       225    3    0    1
 -2      2564      1272      2613      2614
 -1       226    3    0    1
 -2       621      1118      1115       787
 -1       227    3    0    1
 -2       541       537      2236      2253
 -1       228    3    0    1
 -2       337       162       152      1015
 -1       229    3    0    1
 -2      2485      1244      2551      2617
 -1       230    3    0    1
 -2      1566      1571      1647      1677
 -1       231    3    0    1
 -2      1576      1554      1606      1998
 -1       232    3    0    1
 -2       121       972       335       119
 -1       233    3    0    1
 -2      1124       627      1127      2013
 -1       234    3    0    1
 -2       120       126       978      1905
 -1       235    3    0    1
 -2       192       198      2487      2499
 -1       236    3    0    1
 -2       555       547       556       756
 -1       237    3    0    1
 -2       125       977       126       120
 -1       238    3    0    1
 -2      1169      1650      1699      1724
 -1       239    3    0    1
 -2       557      1026       565       564
 -1       240    3    0    1
 -2      1915       860      2489      2534
 -1       241    3    0    1
 -2       551      1012      1008       545
 -1       242    3    0    1
 -2       353       128       123       744
 -1       243    3    0    1
 -2      1556      1615      1779      1870
 -1       244    3    0    1
 -2      1533      1586      1600      1649
 -1       245    3    0    1
 -2      1560      1634      1646      1718
 -1       246    3    0    1
 -2      1183       815      1680      1896
 -1       247    3    0    1
 -2       455       859      1792      1836
 -1       248    3    0    1
 -2      1646      1750      1806      1824
 -1       249    3    0    1
 -2      2441      1507      2442      2738
 -1       250    3    0    1
 -2       607      1105      1099       614
 -1       251    3    0    1
 -2       862      1915      1991      2468
 -1       252    3    0    1
 -2      1670      1715      1738      1862
 -1       253    3    0    1
 -2       622      1123      1116       621
 -1       254    3    0    1
 -2       562      1028       566       561
 -1       255    3    0    1
 -2      1693      1552      1885      1894
 -1       256    3    0    1
 -2       393      1573      1656      1907
 -1       257    3    0    1
 -2        78        90       924       941
 -1       258    3    0    1
 -2       827      1767       682      1195
 -1       259    3    0    1
 -2       632      1142       639       631
 -1       260    3    0    1
 -2       916       917       492      1948
 -1       261    3    0    1
 -2       106       736       954      1635
 -1       262    3    0    1
 -2      1572      1152      1786      1959
 -1       263    3    0    1
 -2       847       441      1740      1774
 -1       264    3    0    1
 -2       192       191       185      1049
 -1       265    3    0    1
 -2      1550      1630      1904      1970
 -1       266    3    0    1
 -2       296       837      1648      1793
 -1       267    3    0    1
 -2      1553      1528      1567      1873
 -1       268    3    0    1
 -2      1214      1688      1908      1976
 -1       269    3    0    1
 -2        88        89      1865      2087
 -1       270    3    0    1
 -2       475       892       476       724
 -1       271    3    0    1
 -2      2491      2173      2510      2203
 -1       272    3    0    1
 -2       475       903       724       483
 -1       273    3    0    1
 -2       104       115       113       737
 -1       274    3    0    1
 -2      1138       385      2014      2049
 -1       275    3    0    1
 -2       338       138       146       750
 -1       276    3    0    1
 -2       859         7       710       863
 -1       277    3    0    1
 -2        52        53        46       892
 -1       278    3    0    1
 -2      1604       813      1788      1895
 -1       279    3    0    1
 -2      2523      2489      2591      2689
 -1       280    3    0    1
 -2        30       715      2300      2302
 -1       281    3    0    1
 -2        89       371      2165      2513
 -1       282    3    0    1
 -2       520       519       738      1593
 -1       283    3    0    1
 -2      1915       457      1991      2002
 -1       284    3    0    1
 -2       529       742      1682      1789
 -1       285    3    0    1
 -2        49       894        46       720
 -1       286    3    0    1
 -2      1574      1527      1594      1661
 -1       287    3    0    1
 -2       976       335       404      1519
 -1       288    3    0    1
 -2       265      1123       422       260
 -1       289    3    0    1
 -2       392        36       883      1651
 -1       290    3    0    1
 -2      1100      1104      1653      1732
 -1       291    3    0    1
 -2       210      1062      1058       206
 -1       292    3    0    1
 -2      1347      2556      1346      2588
 -1       293    3    0    1
 -2      1615      1557      1703      1975
 -1       294    3    0    1
 -2       514       738       520       509
 -1       295    3    0    1
 -2       106       403      1544      1677
 -1       296    3    0    1
 -2        67       393      1592      1794
 -1       297    3    0    1
 -2       515       512       518       736
 -1       298    3    0    1
 -2       281      1143       387       279
 -1       299    3    0    1
 -2      1547      1650      1768      1921
 -1       300    3    0    1
 -2      1154      1537      1729      1776
 -1       301    3    0    1
 -2      1609      1181      1667      1706
 -1       302    3    0    1
 -2       617      1120       788       624
 -1       303    3    0    1
 -2       141       328       994      1632
 -1       304    3    0    1
 -2       596      1082       776      1086
 -1       305    3    0    1
 -2      1979       254      1982      1987
 -1       306    3    0    1
 -2      1042      1828      1924      2011
 -1       307    3    0    1
 -2       187       766      1050      1051
 -1       308    3    0    1
 -2      1008      1624      1785      1821
 -1       309    3    0    1
 -2       175       339      1023      1722
 -1       310    3    0    1
 -2       527       976       972       521
 -1       311    3    0    1
 -2      1210      1547      1650      1769
 -1       312    3    0    1
 -2      1107       615       616      1735
 -1       313    3    0    1
 -2       317      1960      1151       289
 -1       314    3    0    1
 -2      1556      1628      1908      1976
 -1       315    3    0    1
 -2      1528      1555      1810      1836
 -1       316    3    0    1
 -2      1187       673      1186      1718
 -1       317    3    0    1
 -2       491       914      1803      1848
 -1       318    3    0    1
 -2      1066       589      2069      2098
 -1       319    3    0    1
 -2       191       198      1036      1049
 -1       320    3    0    1
 -2       462       882       878       869
 -1       321    3    0    1
 -2        95       932      1520      1618
 -1       322    3    0    1
 -2      2510      2500      2245      2083
 -1       323    3    0    1
 -2      1532      1570      1768      1921
 -1       324    3    0    1
 -2      2672      1394      2356      2683
 -1       325    3    0    1
 -2      1122      1521      1608      1765
 -1       326    3    0    1
 -2      1278      2643      2650      2685
 -1       327    3    0    1
 -2      2297      2530      2645      2358
 -1       328    3    0    1
 -2      1615      1556      1628      1870
 -1       329    3    0    1
 -2       640       639      1143      2039
 -1       330    3    0    1
 -2      1602      1623      1753      1817
 -1       331    3    0    1
 -2       420      1122      1521      1608
 -1       332    3    0    1
 -2      2571      2182      1376      1379
 -1       333    3    0    1
 -2       560      1031       567       559
 -1       334    3    0    1
 -2      1178       298      1175      1696
 -1       335    3    0    1
 -2      2551      1308      2619      2708
 -1       336    3    0    1
 -2      1735      1107      1847      1914
 -1       337    3    0    1
 -2       555      1015      1523      1800
 -1       338    3    0    1
 -2       408       882      1669      1771
 -1       339    3    0    1
 -2       233       228       777      1078
 -1       340    3    0    1
 -2       201      1050       187      1037
 -1       341    3    0    1
 -2       362       177       169       762
 -1       342    3    0    1
 -2       728       496       923      1938
 -1       343    3    0    1
 -2      1145       641      1144      1737
 -1       344    3    0    1
 -2      1229      2185      2594      1453
 -1       345    3    0    1
 -2      1014       325      1704      1763
 -1       346    3    0    1
 -2        74       923        62       726
 -1       347    3    0    1
 -2       883       868       461       877
 -1       348    3    0    1
 -2       244      1653      1732      1741
 -1       349    3    0    1
 -2       749       536       980       987
 -1       350    3    0    1
 -2       635      1136      1859      1947
 -1       351    3    0    1
 -2       698       689      1657      1769
 -1       352    3    0    1
 -2      1026      2117      2170      2176
 -1       353    3    0    1
 -2       774      1084       228      1080
 -1       354    3    0    1
 -2      1170       657       658      1577
 -1       355    3    0    1
 -2      1868      1809      1978      1988
 -1       356    3    0    1
 -2      2126      2492      2493      2543
 -1       357    3    0    1
 -2        15       866         8       417
 -1       358    3    0    1
 -2       758      1026      1016       169
 -1       359    3    0    1
 -2      1816       722      1950      2043
 -1       360    3    0    1
 -2      1564      1815      1946      1994
 -1       361    3    0    1
 -2        43      1537      1812      1984
 -1       362    3    0    1
 -2       451       712       459       867
 -1       363    3    0    1
 -2       127       744       979      1772
 -1       364    3    0    1
 -2      1165       653      1164      1638
 -1       365    3    0    1
 -2       646       645      1572      1786
 -1       366    3    0    1
 -2       159      1012      1008       326
 -1       367    3    0    1
 -2       827      1679      1767      1960
 -1       368    3    0    1
 -2      1614      1617      1730      1999
 -1       369    3    0    1
 -2       251       249       437       782
 -1       370    3    0    1
 -2       475       476       484       724
 -1       371    3    0    1
 -2       850       691       703      1887
 -1       372    3    0    1
 -2       417        18      1796      2012
 -1       373    3    0    1
 -2       279      1138       274       280
 -1       374    3    0    1
 -2       269      1126      1113       265
 -1       375    3    0    1
 -2        41       902        40        55
 -1       376    3    0    1
 -2      1033      1844      2027      2116
 -1       377    3    0    1
 -2       118       127       744       979
 -1       378    3    0    1
 -2      1575      1548      1699      1889
 -1       379    3    0    1
 -2      1414      1412      2379      2408
 -1       380    3    0    1
 -2      1777      2155      2492      2555
 -1       381    3    0    1
 -2       996       743      1568      1753
 -1       382    3    0    1
 -2       242      1105       255       247
 -1       383    3    0    1
 -2      1561      1188       309      1745
 -1       384    3    0    1
 -2      1569      1624      1785      1830
 -1       385    3    0    1
 -2       282       418      1135      2001
 -1       386    3    0    1
 -2      1584       638      1666      1972
 -1       387    3    0    1
 -2       920       487       913       909
 -1       388    3    0    1
 -2      1554       415      1576      1746
 -1       389    3    0    1
 -2       547       548       556       756
 -1       390    3    0    1
 -2        16       417       866      1796
 -1       391    3    0    1
 -2       696       847      1208      1733
 -1       392    3    0    1
 -2        16       417         8       866
 -1       393    3    0    1
 -2       847       440      1208      1740
 -1       394    3    0    1
 -2       353       123       118       744
 -1       395    3    0    1
 -2      1557      1595      1615      1703
 -1       396    3    0    1
 -2       626       621       623      1123
 -1       397    3    0    1
 -2      2337      2631      2703      2721
 -1       398    3    0    1
 -2       918      2483      1245      2589
 -1       399    3    0    1
 -2      1617      1540      1730      1852
 -1       400    3    0    1
 -2       244       245       240      1095
 -1       401    3    0    1
 -2       157       155       756      1004
 -1       402    3    0    1
 -2      1625       623      1685      1727
 -1       403    3    0    1
 -2       459       865       866      1796
 -1       404    3    0    1
 -2       977      1773      1811      1983
 -1       405    3    0    1
 -2       353       127       974      1698
 -1       406    3    0    1
 -2       917       489       916       492
 -1       407    3    0    1
 -2       462       878       871       869
 -1       408    3    0    1
 -2      1013       554      1626      1933
 -1       409    3    0    1
 -2        42        43       722       896
 -1       410    3    0    1
 -2        25        34        31       718
 -1       411    3    0    1
 -2       782       251      1759      2092
 -1       412    3    0    1
 -2       400       111      1863      2109
 -1       413    3    0    1
 -2       919      1656      1906      1929
 -1       414    3    0    1
 -2       582      1065       771       588
 -1       415    3    0    1
 -2       365       155       152       756
 -1       416    3    0    1
 -2       607      1104       614       606
 -1       417    3    0    1
 -2       323       829      1198      1879
 -1       418    3    0    1
 -2       939        86      1739      2021
 -1       419    3    0    1
 -2       651      1163      1160      1712
 -1       420    3    0    1
 -2       520       737      1860      1953
 -1       421    3    0    1
 -2      1138      1957      1991      2002
 -1       422    3    0    1
 -2      1143       639      1916      2039
 -1       423    3    0    1
 -2        56      2128      2130      2175
 -1       424    3    0    1
 -2       586      1071       592       581
 -1       425    3    0    1
 -2       503       938       933       498
 -1       426    3    0    1
 -2      1020      1029       562      1022
 -1       427    3    0    1
 -2      1803       914      1805      1848
 -1       428    3    0    1
 -2       693       851       838      2023
 -1       429    3    0    1
 -2       724       381       923      2494
 -1       430    3    0    1
 -2      2629      2646      1450      2675
 -1       431    3    0    1
 -2       463       464       472       718
 -1       432    3    0    1
 -2      1718      1646      1818      1752
 -1       433    3    0    1
 -2      1834      1906      1929      1942
 -1       434    3    0    1
 -2      1192       822      1683      1909
 -1       435    3    0    1
 -2      1106      1914      1927      2477
 -1       436    3    0    1
 -2       675      1191       820      1845
 -1       437    3    0    1
 -2       589       588      2009      2098
 -1       438    3    0    1
 -2       670      1183      1680      1880
 -1       439    3    0    1
 -2       265      1123       260      1116
 -1       440    3    0    1
 -2        49       894        53        46
 -1       441    3    0    1
 -2      1632       141      1701      1702
 -1       442    3    0    1
 -2       884       471       717      1911
 -1       443    3    0    1
 -2         7       859       710       856
 -1       444    3    0    1
 -2        23       884        21       392
 -1       445    3    0    1
 -2       610      1107       615       605
 -1       446    3    0    1
 -2      2467      2054      2479      2594
 -1       447    3    0    1
 -2      1563       425      1663      1775
 -1       448    3    0    1
 -2      1668       799       292      1156
 -1       449    3    0    1
 -2      1161      1162      1712      1778
 -1       450    3    0    1
 -2       521       976       972       963
 -1       451    3    0    1
 -2      1012      1008       326      1821
 -1       452    3    0    1
 -2       571      1050       579       580
 -1       453    3    0    1
 -2      1526      1569      1620      1823
 -1       454    3    0    1
 -2      1125       260      1112      1126
 -1       455    3    0    1
 -2       306       822      1192      1909
 -1       456    3    0    1
 -2       632      1143      1132       631
 -1       457    3    0    1
 -2       736      1583      1618      1681
 -1       458    3    0    1
 -2        89      1865      2087      2165
 -1       459    3    0    1
 -2       191      1045       192       185
 -1       460    3    0    1
 -2      1592        67      1613      1805
 -1       461    3    0    1
 -2       895       479      1834      1906
 -1       462    3    0    1
 -2       997       544       543      1692
 -1       463    3    0    1
 -2      1707       954      1773      1858
 -1       464    3    0    1
 -2       210      1054      1069      1070
 -1       465    3    0    1
 -2      1166       313      1804      1919
 -1       466    3    0    1
 -2       845       303       409      1903
 -1       467    3    0    1
 -2       610      1109      1106       615
 -1       468    3    0    1
 -2       508       942      1739      1795
 -1       469    3    0    1
 -2       894        46       720       898
 -1       470    3    0    1
 -2      1029      1023       566      1840
 -1       471    3    0    1
 -2       429      1518      1563      1815
 -1       472    3    0    1
 -2        13       863      1792      1973
 -1       473    3    0    1
 -2       836       314      1645      1664
 -1       474    3    0    1
 -2      1137       862      1991      2468
 -1       475    3    0    1
 -2      1832      1709      2045      2046
 -1       476    3    0    1
 -2      1637      1615      1685      1870
 -1       477    3    0    1
 -2       471       463       472       718
 -1       478    3    0    1
 -2      1714      1707      1728      1871
 -1       479    3    0    1
 -2       326       159       333      1008
 -1       480    3    0    1
 -2       227      1081      1087      2015
 -1       481    3    0    1
 -2       370       228       230       777
 -1       482    3    0    1
 -2       508       507      1721      1739
 -1       483    3    0    1
 -2      1547      1650      1716      1768
 -1       484    3    0    1
 -2      1275      2606      1402      2364
 -1       485    3    0    1
 -2       130       978       125       131
 -1       486    3    0    1
 -2       799      1156      1668      1700
 -1       487    3    0    1
 -2       863       458      1697      1947
 -1       488    3    0    1
 -2      1080       230      1676      1827
 -1       489    3    0    1
 -2       146       144       992      1726
 -1       490    3    0    1
 -2       590      1819      1874      1962
 -1       491    3    0    1
 -2       718        33       873       874
 -1       492    3    0    1
 -2      2718      2713      2417      2421
 -1       493    3    0    1
 -2       487       914       486       491
 -1       494    3    0    1
 -2       249       251       253       779
 -1       495    3    0    1
 -2       102       957       110       100
 -1       496    3    0    1
 -2       339       175      1031      1923
 -1       497    3    0    1
 -2       428       427      1988      1995
 -1       498    3    0    1
 -2       463       885       873       718
 -1       499    3    0    1
 -2       559      1031       567       568
 -1       500    3    0    1
 -2       672       671       818      1747
 -1       501    3    0    1
 -2      1099       380      1765      1920
 -1       502    3    0    1
 -2       877       883        38      1651
 -1       503    3    0    1
 -2      1833       382      1847      1940
 -1       504    3    0    1
 -2      2062      1025      2113      2146
 -1       505    3    0    1
 -2        15       864         8       857
 -1       506    3    0    1
 -2      1067       590      1819      1874
 -1       507    3    0    1
 -2        74       923       381        62
 -1       508    3    0    1
 -2       163      1014       998       153
 -1       509    3    0    1
 -2      1790      1703      1887      1975
 -1       510    3    0    1
 -2       485       726       728       923
 -1       511    3    0    1
 -2      1122       626      1625      1631
 -1       512    3    0    1
 -2      1635       954      1707      1858
 -1       513    3    0    1
 -2       328      1525      1530      1701
 -1       514    3    0    1
 -2       547      1015      1003       756
 -1       515    3    0    1
 -2       563      1722      1839      1840
 -1       516    3    0    1
 -2       726        68       728       923
 -1       517    3    0    1
 -2      2652      1435         1       386
 -1       518    3    0    1
 -2       246      1107       242      1093
 -1       519    3    0    1
 -2       738       979      1953      2466
 -1       520    3    0    1
 -2      2684      2674      1492      1505
 -1       521    3    0    1
 -2        49       892        46        53
 -1       522    3    0    1
 -2       309      1188       315      1745
 -1       523    3    0    1
 -2      1578      1527      1605      1652
 -1       524    3    0    1
 -2       607      1099      1094       606
 -1       525    3    0    1
 -2        29       878       869       871
 -1       526    3    0    1
 -2      1705      1700      1776      1812
 -1       527    3    0    1
 -2      1757       333      1785      1821
 -1       528    3    0    1
 -2      1186      1187      1718      1818
 -1       529    3    0    1
 -2      1556      1628      1779      1956
 -1       530    3    0    1
 -2       504       936       500       505
 -1       531    3    0    1
 -2      1597      1160      1712      1778
 -1       532    3    0    1
 -2       474       895       479       473
 -1       533    3    0    1
 -2      1559      1585      1590      1644
 -1       534    3    0    1
 -2       842      1213      1549      1599
 -1       535    3    0    1
 -2       223      1073      1088      1089
 -1       536    3    0    1
 -2       833      1214      1908      1976
 -1       537    3    0    1
 -2      1231      2476      1230      2552
 -1       538    3    0    1
 -2       134      1386      1411      2655
 -1       539    3    0    1
 -2       340      1587      1841      1878
 -1       540    3    0    1
 -2       797      1146      1729      1737
 -1       541    3    0    1
 -2      1564      1670      1715      2024
 -1       542    3    0    1
 -2       226      1522      1750      1780
 -1       543    3    0    1
 -2       382      1126      1833      1847
 -1       544    3    0    1
 -2       784      1120       257       788
 -1       545    3    0    1
 -2      1923       178      1722       175
 -1       546    3    0    1
 -2        42       890        43       896
 -1       547    3    0    1
 -2       147       996       136       345
 -1       548    3    0    1
 -2       475       483       484       723
 -1       549    3    0    1
 -2        75        68       728       906
 -1       550    3    0    1
 -2      1881      1161       336      1966
 -1       551    3    0    1
 -2      1606      1552      1629      1859
 -1       552    3    0    1
 -2      1640      1610      1711      1713
 -1       553    3    0    1
 -2      1188      1561       309       819
 -1       554    3    0    1
 -2       996      1568      1658      1753
 -1       555    3    0    1
 -2      1182       812      1604      1897
 -1       556    3    0    1
 -2       474       895       473       889
 -1       557    3    0    1
 -2      1569      1620      1823      1830
 -1       558    3    0    1
 -2      1049      1071      2010      2487
 -1       559    3    0    1
 -2       622      1122       621       787
 -1       560    3    0    1
 -2       452       867       451       459
 -1       561    3    0    1
 -2      1318      1349      1408      2366
 -1       562    3    0    1
 -2        41       902       886        40
 -1       563    3    0    1
 -2      1109      1877      1735       615
 -1       564    3    0    1
 -2        86        76       942       943
 -1       565    3    0    1
 -2      1260      1261      2552      2574
 -1       566    3    0    1
 -2       882       470       467      1669
 -1       567    3    0    1
 -2       525       742       528       974
 -1       568    3    0    1
 -2      1559       244      1644      1741
 -1       569    3    0    1
 -2      2517      2461      2576      2585
 -1       570    3    0    1
 -2      1587      1534      1627      1893
 -1       571    3    0    1
 -2       622      1122       626       621
 -1       572    3    0    1
 -2        95        76        96       925
 -1       573    3    0    1
 -2       593      1078       777      1074
 -1       574    3    0    1
 -2      1567      1636      1657      1769
 -1       575    3    0    1
 -2       483       475       484       724
 -1       576    3    0    1
 -2       476       475       484       723
 -1       577    3    0    1
 -2      1549      1599      1620      1823
 -1       578    3    0    1
 -2       497       942       732       943
 -1       579    3    0    1
 -2       551      1008      1751      1821
 -1       580    3    0    1
 -2       638      1141      1584      1941
 -1       581    3    0    1
 -2       375       264      1660      1967
 -1       582    3    0    1
 -2       939       503       506      1791
 -1       583    3    0    1
 -2       586      1070      1069      1054
 -1       584    3    0    1
 -2      1382      1302      2723      2451
 -1       585    3    0    1
 -2        21        24        38       717
 -1       586    3    0    1
 -2        78        87        88       944
 -1       587    3    0    1
 -2      1708      1671      2097      2115
 -1       588    3    0    1
 -2       592      1855      1935      2462
 -1       589    3    0    1
 -2       515       953      1858      1981
 -1       590    3    0    1
 -2       735       961       738       509
 -1       591    3    0    1
 -2      1700      1537      1776      1812
 -1       592    3    0    1
 -2       485       921       727       922
 -1       593    3    0    1
 -2       534       995       539       533
 -1       594    3    0    1
 -2       456       449       457       711
 -1       595    3    0    1
 -2      1531      1589      1611      1680
 -1       596    3    0    1
 -2        33       716       714        25
 -1       597    3    0    1
 -2       865        16       866      1796
 -1       598    3    0    1
 -2      1869      1627      1936      2020
 -1       599    3    0    1
 -2       497       941       507       944
 -1       600    3    0    1
 -2      1150       643       644      1894
 -1       601    3    0    1
 -2        35        25       718       874
 -1       602    3    0    1
 -2       546      1008      1002       545
 -1       603    3    0    1
 -2      1566       106      1677      1681
 -1       604    3    0    1
 -2       777      1877      2091      2480
 -1       605    3    0    1
 -2       156       165       755      1005
 -1       606    3    0    1
 -2      1522      1086      1922      1954
 -1       607    3    0    1
 -2       470       461       467       877
 -1       608    3    0    1
 -2      1992       468      2114      2147
 -1       609    3    0    1
 -2      2506      2476      2552      2590
 -1       610    3    0    1
 -2       597      1086       602       596
 -1       611    3    0    1
 -2      1011      2481      1271      2564
 -1       612    3    0    1
 -2       897       918      2100      2483
 -1       613    3    0    1
 -2      1023      1764      1839      1846
 -1       614    3    0    1
 -2       865       451       459       866
 -1       615    3    0    1
 -2        25       880        31       716
 -1       616    3    0    1
 -2        25       432        35       718
 -1       617    3    0    1
 -2       216       346      1070      1899
 -1       618    3    0    1
 -2      1750      1653      1806      1824
 -1       619    3    0    1
 -2        25        33       718       874
 -1       620    3    0    1
 -2       638       633       635      1141
 -1       621    3    0    1
 -2        39       895       889       888
 -1       622    3    0    1
 -2      1118      1122      1625      1631
 -1       623    3    0    1
 -2       189       366      1828      2011
 -1       624    3    0    1
 -2      2068      2112      2491      2510
 -1       625    3    0    1
 -2      1843       193      1926      2526
 -1       626    3    0    1
 -2      1834      1906      1942      2022
 -1       627    3    0    1
 -2      1553      1528      1636      1716
 -1       628    3    0    1
 -2      1247      2548      2633      2679
 -1       629    3    0    1
 -2      1633      1642      1787      1984
 -1       630    3    0    1
 -2       657      1170       804      1577
 -1       631    3    0    1
 -2       327       325      1014      1763
 -1       632    3    0    1
 -2       674      1188      1718      1752
 -1       633    3    0    1
 -2      1007       551      1751      1925
 -1       634    3    0    1
 -2      1643      1203      1696      1719
 -1       635    3    0    1
 -2      1906       920      1942      2022
 -1       636    3    0    1
 -2       485       921       907       727
 -1       637    3    0    1
 -2       192       198      1049      2487
 -1       638    3    0    1
 -2       499       933       929       498
 -1       639    3    0    1
 -2      1527      1574      1578      1740
 -1       640    3    0    1
 -2      1551      1539      1577      1581
 -1       641    3    0    1
 -2         7       859       414        13
 -1       642    3    0    1
 -2      1551      1539      1581      1853
 -1       643    3    0    1
 -2       496       495       485       923
 -1       644    3    0    1
 -2       530       976      1728      1983
 -1       645    3    0    1
 -2       744       997      1723      2459
 -1       646    3    0    1
 -2      1042       189      1828      2011
 -1       647    3    0    1
 -2        24        27       717       875
 -1       648    3    0    1
 -2       413      1154      1537      1729
 -1       649    3    0    1
 -2      1554      1576      1606      1746
 -1       650    3    0    1
 -2      2552      2553      2621      2714
 -1       651    3    0    1
 -2       152       162       756      1015
 -1       652    3    0    1
 -2      1787      1656      1929      1930
 -1       653    3    0    1
 -2      1622      1530      1734      1826
 -1       654    3    0    1
 -2       543       996      1568      1658
 -1       655    3    0    1
 -2      2562      1320      1321      2601
 -1       656    3    0    1
 -2       552      1856      2478      2613
 -1       657    3    0    1
 -2       635      1135      1861      1972
 -1       658    3    0    1
 -2       696       700       847      1733
 -1       659    3    0    1
 -2      2530      2238      2645      2358
 -1       660    3    0    1
 -2       480       899       898       477
 -1       661    3    0    1
 -2      1154       291      1155      1729
 -1       662    3    0    1
 -2       328       141      1525      1701
 -1       663    3    0    1
 -2        15       864       417         8
 -1       664    3    0    1
 -2       345       996      1658      1753
 -1       665    3    0    1
 -2      1716       408      1768      1771
 -1       666    3    0    1
 -2      1567      1553      1636      1716
 -1       667    3    0    1
 -2       480       899       477       481
 -1       668    3    0    1
 -2       189      1042      1048      1924
 -1       669    3    0    1
 -2      1697      1694      1859      1885
 -1       670    3    0    1
 -2       898       480      1948      2055
 -1       671    3    0    1
 -2       259      1120       375       257
 -1       672    3    0    1
 -2       262      1118       419       261
 -1       673    3    0    1
 -2      1644       383      1725      1741
 -1       674    3    0    1
 -2       478       898       477       480
 -1       675    3    0    1
 -2      1204       334      1529      1696
 -1       676    3    0    1
 -2       632      1143       631       639
 -1       677    3    0    1
 -2       618       788       625       617
 -1       678    3    0    1
 -2       976       527       972      1983
 -1       679    3    0    1
 -2       277      1140       793       276
 -1       680    3    0    1
 -2       803       657      1577      1581
 -1       681    3    0    1
 -2      1064      1066       589      2665
 -1       682    3    0    1
 -2       453       859       710       863
 -1       683    3    0    1
 -2      1627      1587      1893      2008
 -1       684    3    0    1
 -2      1731      1050      1888      2011
 -1       685    3    0    1
 -2       274      1138       385       280
 -1       686    3    0    1
 -2       655       802      1699      1724
 -1       687    3    0    1
 -2       257       264      1124      1127
 -1       688    3    0    1
 -2       201      1050       366       187
 -1       689    3    0    1
 -2      1614      1545      1848      1999
 -1       690    3    0    1
 -2       494       491       486       914
 -1       691    3    0    1
 -2       169       177       179       758
 -1       692    3    0    1
 -2       208       356       772      1071
 -1       693    3    0    1
 -2       463       718       873       874
 -1       694    3    0    1
 -2       520       531       978      1953
 -1       695    3    0    1
 -2      2582      1303      2640      2719
 -1       696    3    0    1
 -2       523       524       532       744
 -1       697    3    0    1
 -2      1205       447      1599      1643
 -1       698    3    0    1
 -2       463       464       718       874
 -1       699    3    0    1
 -2       153      1005       755       998
 -1       700    3    0    1
 -2      1156       647       648      1700
 -1       701    3    0    1
 -2      1602       148      1665      1753
 -1       702    3    0    1
 -2        86        79        76       943
 -1       703    3    0    1
 -2       522       972       966       521
 -1       704    3    0    1
 -2      2122      1928      2484      2485
 -1       705    3    0    1
 -2      1613      1539      1648      1793
 -1       706    3    0    1
 -2      2185      1229      2594      2310
 -1       707    3    0    1
 -2       509       961       738       519
 -1       708    3    0    1
 -2      2474      2497      2531      2592
 -1       709    3    0    1
 -2       362       347      1030      2526
 -1       710    3    0    1
 -2      1574      1527      1612      1740
 -1       711    3    0    1
 -2       150       989       136       324
 -1       712    3    0    1
 -2       373       374       922      1689
 -1       713    3    0    1
 -2      2483      2516      2582      2589
 -1       714    3    0    1
 -2      2243      2225      2339      2682
 -1       715    3    0    1
 -2      1071       359      1935      2487
 -1       716    3    0    1
 -2       538       748       746       537
 -1       717    3    0    1
 -2       177       179       759      1018
 -1       718    3    0    1
 -2      1141      1135      1584      2001
 -1       719    3    0    1
 -2      1634      1752      1561      1780
 -1       720    3    0    1
 -2      1161      1162      1778      1881
 -1       721    3    0    1
 -2       961       735       100       947
 -1       722    3    0    1
 -2       148       324       136       989
 -1       723    3    0    1
 -2      1667      1609      1706      1955
 -1       724    3    0    1
 -2       743       120      1905      2005
 -1       725    3    0    1
 -2       122       132       120       969
 -1       726    3    0    1
 -2      1162      1712      1778      1881
 -1       727    3    0    1
 -2      1080      1084      1676      1781
 -1       728    3    0    1
 -2       541       748       974      1789
 -1       729    3    0    1
 -2      1622       335      1659      1749
 -1       730    3    0    1
 -2      1597       293      1756      1835
 -1       731    3    0    1
 -2      1749      1586      1533      1649
 -1       732    3    0    1
 -2       866        15         8       854
 -1       733    3    0    1
 -2      1689       922      1939      2022
 -1       734    3    0    1
 -2       270      1125       260      1112
 -1       735    3    0    1
 -2      1256      2582      1354      2719
 -1       736    3    0    1
 -2      1539      1613      1648      1853
 -1       737    3    0    1
 -2        58        52        46       724
 -1       738    3    0    1
 -2      1539       395      1581      1853
 -1       739    3    0    1
 -2       750       145       985       986
 -1       740    3    0    1
 -2      2333      1428      2336      2354
 -1       741    3    0    1
 -2       112       960       737       113
 -1       742    3    0    1
 -2       157       155       166       756
 -1       743    3    0    1
 -2      1554      1576      1695      1998
 -1       744    3    0    1
 -2      1547       802      1650      1699
 -1       745    3    0    1
 -2       453       859       856       710
 -1       746    3    0    1
 -2      2154      1736      2159      2482
 -1       747    3    0    1
 -2      1591       408      1636      1771
 -1       748    3    0    1
 -2      1521       420      1608      1687
 -1       749    3    0    1
 -2       964       120       971       977
 -1       750    3    0    1
 -2      1629      1695      1845      1902
 -1       751    3    0    1
 -2       514       737       734       509
 -1       752    3    0    1
 -2       696      1208      1612      1733
 -1       753    3    0    1
 -2       196       189       187      1048
 -1       754    3    0    1
 -2      2470      1083      1236      2609
 -1       755    3    0    1
 -2      1186      1818       306      1187
 -1       756    3    0    1
 -2       118       353       127       974
 -1       757    3    0    1
 -2      2212      2213      2267      2679
 -1       758    3    0    1
 -2      1520        95      1739      1791
 -1       759    3    0    1
 -2      2515      2471      2594      2647
 -1       760    3    0    1
 -2      1614      1848      1900      1999
 -1       761    3    0    1
 -2      1523       555      1704      1763
 -1       762    3    0    1
 -2       130       978       962       125
 -1       763    3    0    1
 -2       574      1047       578       573
 -1       764    3    0    1
 -2      1707       404      1714      1728
 -1       765    3    0    1
 -2       961       738       519      1593
 -1       766    3    0    1
 -2      1122       420      1521      1631
 -1       767    3    0    1
 -2      1773      1755       953       348
 -1       768    3    0    1
 -2        18       417       864      2012
 -1       769    3    0    1
 -2       112       960       101       946
 -1       770    3    0    1
 -2      1589      1531      1611      1714
 -1       771    3    0    1
 -2      1213       695       842      1549
 -1       772    3    0    1
 -2       932      1520      1618      1791
 -1       773    3    0    1
 -2       131       348       737      1953
 -1       774    3    0    1
 -2       215      2019      2078      2161
 -1       775    3    0    1
 -2         9       863       710         7
 -1       776    3    0    1
 -2       440      1176      1740      1774
 -1       777    3    0    1
 -2      2164      2072      2493      2732
 -1       778    3    0    1
 -2      1426      2630      2654      2681
 -1       779    3    0    1
 -2      1522      1082      1750      1922
 -1       780    3    0    1
 -2       120       743       962       969
 -1       781    3    0    1
 -2       661      1578      1605      1696
 -1       782    3    0    1
 -2       525       742       529       528
 -1       783    3    0    1
 -2       526       974       970       525
 -1       784    3    0    1
 -2       602       599      1086      1922
 -1       785    3    0    1
 -2      1045      1041       576      2038
 -1       786    3    0    1
 -2       223       234      1073      1089
 -1       787    3    0    1
 -2      1529      1605      1652      1696
 -1       788    3    0    1
 -2      1773      1755      1811      1858
 -1       789    3    0    1
 -2      1286      2263      2276      2329
 -1       790    3    0    1
 -2       817       411      1550      1662
 -1       791    3    0    1
 -2        79       939        86        76
 -1       792    3    0    1
 -2      1633      1642      1729      1737
 -1       793    3    0    1
 -2       143       994       981       135
 -1       794    3    0    1
 -2       120       971       977      1811
 -1       795    3    0    1
 -2       489       917       916       904
 -1       796    3    0    1
 -2        82        90      1863      2109
 -1       797    3    0    1
 -2      1029       566      1822      1840
 -1       798    3    0    1
 -2      1237      1313      2701      2738
 -1       799    3    0    1
 -2       867      1997      2040      2464
 -1       800    3    0    1
 -2      1291      2517      2542      2585
 -1       801    3    0    1
 -2      1595       420      1619      1687
 -1       802    3    0    1
 -2       547      1005       755       548
 -1       803    3    0    1
 -2      1797      1043      1717       188
 -1       804    3    0    1
 -2       589       588       771      2009
 -1       805    3    0    1
 -2        34      1993      2034      2145
 -1       806    3    0    1
 -2      1813       723      1939      1990
 -1       807    3    0    1
 -2       935        78       730       936
 -1       808    3    0    1
 -2      1795       961      1949      2498
 -1       809    3    0    1
 -2       353       118       127       744
 -1       810    3    0    1
 -2      1694      1552      1859      1885
 -1       811    3    0    1
 -2       995       534       989       982
 -1       812    3    0    1
 -2       724        46       891       892
 -1       813    3    0    1
 -2      1125       619       627      1126
 -1       814    3    0    1
 -2       407        43      1537      1812
 -1       815    3    0    1
 -2      1049       580       579      1888
 -1       816    3    0    1
 -2       920      1689      1942      2022
 -1       817    3    0    1
 -2       166       155       365       756
 -1       818    3    0    1
 -2      2588      2569      2592      2608
 -1       819    3    0    1
 -2       919      1803      1907      1942
 -1       820    3    0    1
 -2      1550      1630      1662      1891
 -1       821    3    0    1
 -2      1538      1551      1573      1656
 -1       822    3    0    1
 -2       279      1138      1128       274
 -1       823    3    0    1
 -2      1755       348      1811      1953
 -1       824    3    0    1
 -2      1527      1578      1605      1774
 -1       825    3    0    1
 -2      2524      2505      2596      2634
 -1       826    3    0    1
 -2       454       863       458       453
 -1       827    3    0    1
 -2       750       544      1692      2074
 -1       828    3    0    1
 -2       214      1067       211       429
 -1       829    3    0    1
 -2       736       513       950       952
 -1       830    3    0    1
 -2       598      1088       593       604
 -1       831    3    0    1
 -2      1671      1536      1708      1882
 -1       832    3    0    1
 -2       190       188       767      1039
 -1       833    3    0    1
 -2        10        14         5       711
 -1       834    3    0    1
 -2      2101      2081      2483      2383
 -1       835    3    0    1
 -2       560      1032      1031       760
 -1       836    3    0    1
 -2      2045      1708      2046      2149
 -1       837    3    0    1
 -2      1283      1321      1472      2365
 -1       838    3    0    1
 -2      1837       458      1792       455
 -1       839    3    0    1
 -2       152      1004       756       155
 -1       840    3    0    1
 -2       171      1029       170       175
 -1       841    3    0    1
 -2       172      1032       170       330
 -1       842    3    0    1
 -2       108       954       403       106
 -1       843    3    0    1
 -2       144       146      1692      1726
 -1       844    3    0    1
 -2      1181       665       666      1706
 -1       845    3    0    1
 -2       113       960      1860      1971
 -1       846    3    0    1
 -2      1188      1561      1718      1752
 -1       847    3    0    1
 -2      2484      2520      2570      2644
 -1       848    3    0    1
 -2      1049       580      1888      2010
 -1       849    3    0    1
 -2       115       953       959      1755
 -1       850    3    0    1
 -2       399       113      1782      1971
 -1       851    3    0    1
 -2      1386      1321      1283      2365
 -1       852    3    0    1
 -2       634      1141      1134       633
 -1       853    3    0    1
 -2      2288      1251      2300      2350
 -1       854    3    0    1
 -2      1567      1553      1747      1903
 -1       855    3    0    1
 -2       665       808      1667      1706
 -1       856    3    0    1
 -2       307       823      1559      1644
 -1       857    3    0    1
 -2       451       865       459       460
 -1       858    3    0    1
 -2       955       958      2240      2606
 -1       859    3    0    1
 -2       961       519      1795      1949
 -1       860    3    0    1
 -2       878        28      1532      1570
 -1       861    3    0    1
 -2      1032       567      1031      1844
 -1       862    3    0    1
 -2      1383      1384      2604      2635
 -1       863    3    0    1
 -2       333       326      1008      1821
 -1       864    3    0    1
 -2       478       898       894       477
 -1       865    3    0    1
 -2         5        10       712       867
 -1       866    3    0    1
 -2      2713      2359      2417      2421
 -1       867    3    0    1
 -2       230       228       232      1074
 -1       868    3    0    1
 -2      1518       425      1563      1775
 -1       869    3    0    1
 -2      1608      1521      1725      1732
 -1       870    3    0    1
 -2       196      1888      2011      2016
 -1       871    3    0    1
 -2       959       953       518      1981
 -1       872    3    0    1
 -2      1308      2323      1469      2390
 -1       873    3    0    1
 -2       482       722      1742      2043
 -1       874    3    0    1
 -2       561      1024      1021       761
 -1       875    3    0    1
 -2       810       665       808      1667
 -1       876    3    0    1
 -2       585      1063       590       584
 -1       877    3    0    1
 -2      1535       342      1627      2041
 -1       878    3    0    1
 -2       571      1049       765      1036
 -1       879    3    0    1
 -2       823      1559      1644      1744
 -1       880    3    0    1
 -2      1827       777      2004      2091
 -1       881    3    0    1
 -2      2152      2077      2484      2488
 -1       882    3    0    1
 -2      1210       312       831      1650
 -1       883    3    0    1
 -2      2622      1457      2695      2711
 -1       884    3    0    1
 -2       421       260      1125      1126
 -1       885    3    0    1
 -2        76       932        86        92
 -1       886    3    0    1
 -2       677      1192       822      1683
 -1       887    3    0    1
 -2       516       529       742      1801
 -1       888    3    0    1
 -2       244      1806      1824      1910
 -1       889    3    0    1
 -2       393        67      1592      1805
 -1       890    3    0    1
 -2      1599      1526      1620      1823
 -1       891    3    0    1
 -2       340       188      1565      1717
 -1       892    3    0    1
 -2        66       396       913      1842
 -1       893    3    0    1
 -2       960       942      1795      1971
 -1       894    3    0    1
 -2       461       882       470       467
 -1       895    3    0    1
 -2         2       706      2225      2237
 -1       896    3    0    1
 -2       583       771       589       582
 -1       897    3    0    1
 -2       584      1063       590       587
 -1       898    3    0    1
 -2       499       932       503       498
 -1       899    3    0    1
 -2      1652      1529      1696      1748
 -1       900    3    0    1
 -2       145       992       146       137
 -1       901    3    0    1
 -2       408        28      1547      1768
 -1       902    3    0    1
 -2       384       390      2002      2061
 -1       903    3    0    1
 -2       177       169       179      1018
 -1       904    3    0    1
 -2       573      1043      1039       767
 -1       905    3    0    1
 -2      1101       612      2121      2525
 -1       906    3    0    1
 -2        34        25        31       716
 -1       907    3    0    1
 -2      1041      1675      2170      2176
 -1       908    3    0    1
 -2       562      1023      1020       561
 -1       909    3    0    1
 -2       197      1047       767       188
 -1       910    3    0    1
 -2      1571      1544      1609      1677
 -1       911    3    0    1
 -2       534       995       989       539
 -1       912    3    0    1
 -2       802      1169      1650      1699
 -1       913    3    0    1
 -2       692       846       699      1793
 -1       914    3    0    1
 -2       209      1071       208      1055
 -1       915    3    0    1
 -2       571      1050       766      1051
 -1       916    3    0    1
 -2       832       845      1657      1903
 -1       917    3    0    1
 -2      1781      1084      1827      2157
 -1       918    3    0    1
 -2      2212      1314      2277      2278
 -1       919    3    0    1
 -2      1050       571       579      1051
 -1       920    3    0    1
 -2      1617      1542      1730      1999
 -1       921    3    0    1
 -2       313      1607      1804      1919
 -1       922    3    0    1
 -2       150       989       983       136
 -1       923    3    0    1
 -2       218       346      1808      1913
 -1       924    3    0    1
 -2       199       196      1924      2016
 -1       925    3    0    1
 -2      2067      2079      2476      2490
 -1       926    3    0    1
 -2       661      1178      1175      1605
 -1       927    3    0    1
 -2        24       883       870        21
 -1       928    3    0    1
 -2       162       365      1523      1980
 -1       929    3    0    1
 -2      1136       276       793      1140
 -1       930    3    0    1
 -2      2144      2063      2492      2191
 -1       931    3    0    1
 -2      1653       611      1920      1987
 -1       932    3    0    1
 -2      1550       817      1662      1691
 -1       933    3    0    1
 -2      1557       420      1595      1687
 -1       934    3    0    1
 -2       454       864       857       453
 -1       935    3    0    1
 -2       166       180      2105      2163
 -1       936    3    0    1
 -2       126       131       978      1811
 -1       937    3    0    1
 -2      1570      1532      1742      2043
 -1       938    3    0    1
 -2      1107       610       781      1093
 -1       939    3    0    1
 -2       863        13      1694      1697
 -1       940    3    0    1
 -2       617       788       625       624
 -1       941    3    0    1
 -2      1083      1103      2470      1236
 -1       942    3    0    1
 -2      1564      1673      1815      1875
 -1       943    3    0    1
 -2      1522       226      1561      1634
 -1       944    3    0    1
 -2       247       255      1735      2031
 -1       945    3    0    1
 -2        62       372        72       916
 -1       946    3    0    1
 -2      1636      1547      1657      1769
 -1       947    3    0    1
 -2       542       995      1602      1623
 -1       948    3    0    1
 -2      1952        72      2123      2129
 -1       949    3    0    1
 -2      1307      1243      2551      2642
 -1       950    3    0    1
 -2      1519       404      1589      1659
 -1       951    3    0    1
 -2       244       245      1095      1096
 -1       952    3    0    1
 -2      1023       563      1722      1839
 -1       953    3    0    1
 -2      1163       651       652      1712
 -1       954    3    0    1
 -2      1935       359      2042      2487
 -1       955    3    0    1
 -2      1272      1317      1318      2564
 -1       956    3    0    1
 -2       373        66       913      1689
 -1       957    3    0    1
 -2       462       877       467       461
 -1       958    3    0    1
 -2      1071       770       208      1055
 -1       959    3    0    1
 -2      1003       152       756      1015
 -1       960    3    0    1
 -2       293      1163       439      1597
 -1       961    3    0    1
 -2      2077      1882      2152      2153
 -1       962    3    0    1
 -2       950       106       736       952
 -1       963    3    0    1
 -2      1528      1555      1591      1771
 -1       964    3    0    1
 -2      1675      1026      2117      2170
 -1       965    3    0    1
 -2       513       954       952       736
 -1       966    3    0    1
 -2      1012       326      1807      1969
 -1       967    3    0    1
 -2      1571      1544      1596      1647
 -1       968    3    0    1
 -2       249       251       779       782
 -1       969    3    0    1
 -2       958       955       516      2502
 -1       970    3    0    1
 -2      1603      1541      1616      1897
 -1       971    3    0    1
 -2      2669      1400      1495      2705
 -1       972    3    0    1
 -2      1567       832      1657      1903
 -1       973    3    0    1
 -2       240      1100       383       244
 -1       974    3    0    1
 -2       824      1194      1559      1654
 -1       975    3    0    1
 -2      1556      1615      1637      1779
 -1       976    3    0    1
 -2       647       648      1700      1776
 -1       977    3    0    1
 -2       534       990       984       533
 -1       978    3    0    1
 -2       555       556       755      1523
 -1       979    3    0    1
 -2       509       519       520       737
 -1       980    3    0    1
 -2      1216       839      1946      2023
 -1       981    3    0    1
 -2       236       223       227      1089
 -1       982    3    0    1
 -2      2234      2216      2603      2290
 -1       983    3    0    1
 -2      1559       244      1741      1910
 -1       984    3    0    1
 -2       455       859       863      1792
 -1       985    3    0    1
 -2      1809      1588      1898      1954
 -1       986    3    0    1
 -2       500       936       935       730
 -1       987    3    0    1
 -2       170      1029       178       175
 -1       988    3    0    1
 -2       807      1179      1531      1684
 -1       989    3    0    1
 -2       162       754      1980      2132
 -1       990    3    0    1
 -2      1046      2505      1269      2596
 -1       991    3    0    1
 -2      1532      1575      1743      1921
 -1       992    3    0    1
 -2       223       236       227      1087
 -1       993    3    0    1
 -2       342       329      1024      1799
 -1       994    3    0    1
 -2      1532       878      1669      1768
 -1       995    3    0    1
 -2      2057      1710      2467      2474
 -1       996    3    0    1
 -2       293      1212       843      1835
 -1       997    3    0    1
 -2       630       794       637       629
 -1       998    3    0    1
 -2       920      1689      1803      1942
 -1       999    3    0    1
 -2      1715      1738      1862      1994
 -1      1000    3    0    1
 -2      2643      1375      2650      2743
 -1      1001    3    0    1
 -2       309       826      1561      1745
 -1      1002    3    0    1
 -2       458       453       455       864
 -1      1003    3    0    1
 -2       503       939       932      1791
 -1      1004    3    0    1
 -2      1352      1419      2348      2354
 -1      1005    3    0    1
 -2      1545      1614      1730      1999
 -1      1006    3    0    1
 -2       267       266       257      1114
 -1      1007    3    0    1
 -2       726       485       728       906
 -1      1008    3    0    1
 -2      2472      1009      2540      2613
 -1      1009    3    0    1
 -2       210      1062       206       216
 -1      1010    3    0    1
 -2       914       919      1803      1907
 -1      1011    3    0    1
 -2       994      1530      1826      1734
 -1      1012    3    0    1
 -2      1916      1143      2075      2511
 -1      1013    3    0    1
 -2       633      1136       638       635
 -1      1014    3    0    1
 -2      1197       684      1670      1879
 -1      1015    3    0    1
 -2       398      1783      1784      1814
 -1      1016    3    0    1
 -2       903       433      1990      2033
 -1      1017    3    0    1
 -2       519       960      1795      1860
 -1      1018    3    0    1
 -2       489       917       488       492
 -1      1019    3    0    1
 -2       546      1007       551       545
 -1      1020    3    0    1
 -2       266       257      1114      1127
 -1      1021    3    0    1
 -2      2425      2353      2449      2744
 -1      1022    3    0    1
 -2      1607      1558      1804      1919
 -1      1023    3    0    1
 -2       102       957       956       110
 -1      1024    3    0    1
 -2       169       177       758       762
 -1      1025    3    0    1
 -2       236       427       234      1089
 -1      1026    3    0    1
 -2       849      1554      1686      1688
 -1      1027    3    0    1
 -2       599      1750      1922      1979
 -1      1028    3    0    1
 -2       991      1011      2478      2481
 -1      1029    3    0    1
 -2       414        13      1792      1973
 -1      1030    3    0    1
 -2      1715      1197      1946      2024
 -1      1031    3    0    1
 -2      1678      2051      2072      2164
 -1      1032    3    0    1
 -2       828       681       826      1679
 -1      1033    3    0    1
 -2        33       716        25        34
 -1      1034    3    0    1
 -2       665      1181       809      1706
 -1      1035    3    0    1
 -2      1539      1648      1793      1853
 -1      1036    3    0    1
 -2       920       373       913      1689
 -1      1037    3    0    1
 -2       602       596       599      1087
 -1      1038    3    0    1
 -2      1650      1575      1699      1724
 -1      1039    3    0    1
 -2       229      1086       776       225
 -1      1040    3    0    1
 -2       623      1118      1625      1685
 -1      1041    3    0    1
 -2       841       694      1640      1711
 -1      1042    3    0    1
 -2      1673      1564      1946      2024
 -1      1043    3    0    1
 -2      1843      1049      2010      2487
 -1      1044    3    0    1
 -2      1792       455      1836      1837
 -1      1045    3    0    1
 -2       225      1082       776      1076
 -1      1046    3    0    1
 -2       593      1090      1074       777
 -1      1047    3    0    1
 -2       515       954      1635      1858
 -1      1048    3    0    1
 -2      1679      1745      1898      1912
 -1      1049    3    0    1
 -2       264       257       375      1120
 -1      1050    3    0    1
 -2      1653       614      1979      1982
 -1      1051    3    0    1
 -2      1558      1585      1608      1725
 -1      1052    3    0    1
 -2      1646      1718      1818      1560
 -1      1053    3    0    1
 -2       475       893       723       476
 -1      1054    3    0    1
 -2       148       995      1602      1665
 -1      1055    3    0    1
 -2        56       433       903      2527
 -1      1056    3    0    1
 -2       346       216       206      1062
 -1      1057    3    0    1
 -2       748       974      1789      2080
 -1      1058    3    0    1
 -2        73       922        60       374
 -1      1059    3    0    1
 -2      2273      1249      2725      2431
 -1      1060    3    0    1
 -2       458       864      1901      1947
 -1      1061    3    0    1
 -2       649      1158       650      1647
 -1      1062    3    0    1
 -2       626      1123      1641      1765
 -1      1063    3    0    1
 -2      1204       687      1203      1643
 -1      1064    3    0    1
 -2        62       917       916        72
 -1      1065    3    0    1
 -2       445       446      1554      1998
 -1      1066    3    0    1
 -2      2547      2565      2649      2692
 -1      1067    3    0    1
 -2      1653      1104      1806      1824
 -1      1068    3    0    1
 -2       755       153       998      1014
 -1      1069    3    0    1
 -2      1757      1719      1829      1876
 -1      1070    3    0    1
 -2       487       920       491       486
 -1      1071    3    0    1
 -2       487       920       913       491
 -1      1072    3    0    1
 -2       593      1090       777       603
 -1      1073    3    0    1
 -2      1166       308       801      1804
 -1      1074    3    0    1
 -2       960       737       113      1860
 -1      1075    3    0    1
 -2       473       890       722       896
 -1      1076    3    0    1
 -2       862       860      1915      2534
 -1      1077    3    0    1
 -2      1823      1549      1535      1620
 -1      1078    3    0    1
 -2      1094      1105       607      1097
 -1      1079    3    0    1
 -2       586      1071       581      1055
 -1      1080    3    0    1
 -2      1063       585      1057      1059
 -1      1081    3    0    1
 -2       899       880      2128      2175
 -1      1082    3    0    1
 -2      1683      1559      1744      1910
 -1      1083    3    0    1
 -2       513       953       515       512
 -1      1084    3    0    1
 -2       456       860       881      2171
 -1      1085    3    0    1
 -2      1177       440       441      1774
 -1      1086    3    0    1
 -2      1501      1513      2441      2442
 -1      1087    3    0    1
 -2       573      1043       767      1047
 -1      1088    3    0    1
 -2       206       210       216      1070
 -1      1089    3    0    1
 -2      1065       356      2019      2078
 -1      1090    3    0    1
 -2      1619      1687      1804      1919
 -1      1091    3    0    1
 -2      2072      2164      2190      2539
 -1      1092    3    0    1
 -2      2140      2473      2169      2530
 -1      1093    3    0    1
 -2       141      1530      1632      1701
 -1      1094    3    0    1
 -2      1709      1678      2063      2493
 -1      1095    3    0    1
 -2      1570      1705      1743      1816
 -1      1096    3    0    1
 -2       502       943       507       497
 -1      1097    3    0    1
 -2       395       803      1539      1581
 -1      1098    3    0    1
 -2        76       732       942       943
 -1      1099    3    0    1
 -2      2091      1759      2157      2480
 -1      1100    3    0    1
 -2      1673      1216      1946      2023
 -1      1101    3    0    1
 -2       480      1948      2055      2100
 -1      1102    3    0    1
 -2       182      1031       339       171
 -1      1103    3    0    1
 -2       723        39       886       902
 -1      1104    3    0    1
 -2      1171       397      1664      1852
 -1      1105    3    0    1
 -2       967       118       744       979
 -1      1106    3    0    1
 -2        42       890        44        43
 -1      1107    3    0    1
 -2        78       935        82       936
 -1      1108    3    0    1
 -2       153       156       164       755
 -1      1109    3    0    1
 -2        39       895       888       901
 -1      1110    3    0    1
 -2       236       227      1087      2015
 -1      1111    3    0    1
 -2       499       932       498       928
 -1      1112    3    0    1
 -2       712       708         5       867
 -1      1113    3    0    1
 -2       362       177      2027      2116
 -1      1114    3    0    1
 -2       468       465       469       880
 -1      1115    3    0    1
 -2      1180       664      1600      1684
 -1      1116    3    0    1
 -2       347       360      2170      2176
 -1      1117    3    0    1
 -2       340      1047      1717      1841
 -1      1118    3    0    1
 -2      1815      1564      1875      1994
 -1      1119    3    0    1
 -2      1024       342      1587      1601
 -1      1120    3    0    1
 -2       475       903       891       724
 -1      1121    3    0    1
 -2       607      1104       606      1096
 -1      1122    3    0    1
 -2       865         8       853       866
 -1      1123    3    0    1
 -2      1615      1637      1779      1870
 -1      1124    3    0    1
 -2      1735      1106      1914      1927
 -1      1125    3    0    1
 -2      2723      1382      2451      2456
 -1      1126    3    0    1
 -2      1120       788       624      1660
 -1      1127    3    0    1
 -2       359       356      1071      1935
 -1      1128    3    0    1
 -2      1192      1683      1818      1909
 -1      1129    3    0    1
 -2      2532      2473      2533      2595
 -1      1130    3    0    1
 -2      1263      1347      1262      2556
 -1      1131    3    0    1
 -2      2509      1225      2550      2627
 -1      1132    3    0    1
 -2      1589      1582      1880      1546
 -1      1133    3    0    1
 -2       442       850       443      1976
 -1      1134    3    0    1
 -2      1818      1186       306      1909
 -1      1135    3    0    1
 -2      1692      1723      2459      2096
 -1      1136    3    0    1
 -2       878        28       408      1669
 -1      1137    3    0    1
 -2       120       125       122       962
 -1      1138    3    0    1
 -2      1167       655      1699      1724
 -1      1139    3    0    1
 -2       479       473       722       896
 -1      1140    3    0    1
 -2       404      1531      1589      1659
 -1      1141    3    0    1
 -2       700      1756       843      1835
 -1      1142    3    0    1
 -2      1084      1080       600      1781
 -1      1143    3    0    1
 -2      1176      1578      1740      1774
 -1      1144    3    0    1
 -2      1120       784       257      1110
 -1      1145    3    0    1
 -2       653      1165       654      1638
 -1      1146    3    0    1
 -2      1573      1551      1581      1592
 -1      1147    3    0    1
 -2      1950       901      2025      2043
 -1      1148    3    0    1
 -2       278      1135       275       418
 -1      1149    3    0    1
 -2       777       237      1109      2480
 -1      1150    3    0    1
 -2      1026       564      1041      1675
 -1      1151    3    0    1
 -2      1550      1630      1891      1904
 -1      1152    3    0    1
 -2       188       767      1043      1047
 -1      1153    3    0    1
 -2       845       689       832      1657
 -1      1154    3    0    1
 -2      1545        67      1614      1805
 -1      1155    3    0    1
 -2      1559       823      1683      1744
 -1      1156    3    0    1
 -2        76       932       927       939
 -1      1157    3    0    1
 -2      1163      1525      1597      1712
 -1      1158    3    0    1
 -2      1213       447      1549      1599
 -1      1159    3    0    1
 -2        67      1614      1805      1848
 -1      1160    3    0    1
 -2       994       328      1530      1632
 -1      1161    3    0    1
 -2        25        33        34       718
 -1      1162    3    0    1
 -2       403      1544      1677      1955
 -1      1163    3    0    1
 -2      1741       244      1824      1910
 -1      1164    3    0    1
 -2      1543      1566      1571      2007
 -1      1165    3    0    1
 -2      1090       603      1855      2004
 -1      1166    3    0    1
 -2        22       878        28       408
 -1      1167    3    0    1
 -2       606      1099       611       614
 -1      1168    3    0    1
 -2      1162       651      1161      1712
 -1      1169    3    0    1
 -2       624      1120      1660      2124
 -1      1170    3    0    1
 -2      1694       863      1697      1947
 -1      1171    3    0    1
 -2      1318      2564      2604      2614
 -1      1172    3    0    1
 -2      1790      1703      1870      1887
 -1      1173    3    0    1
 -2      2056      1915      2489      2534
 -1      1174    3    0    1
 -2      1722      1023      1839      1846
 -1      1175    3    0    1
 -2       883        36        38      1651
 -1      1176    3    0    1
 -2       188       767      1039      1043
 -1      1177    3    0    1
 -2       417        16         8       864
 -1      1178    3    0    1
 -2       953       959      1755      1782
 -1      1179    3    0    1
 -2        79        91       732       943
 -1      1180    3    0    1
 -2      2490      2476      2506      2590
 -1      1181    3    0    1
 -2      1380      2299      2304      2305
 -1      1182    3    0    1
 -2       542       539       990      1632
 -1      1183    3    0    1
 -2      2202       955      2240      2606
 -1      1184    3    0    1
 -2        21       883        36        38
 -1      1185    3    0    1
 -2      1170       804      1577      1931
 -1      1186    3    0    1
 -2        15       866         6       854
 -1      1187    3    0    1
 -2       866       417        18      1796
 -1      1188    3    0    1
 -2       372        68        62       923
 -1      1189    3    0    1
 -2       464       463       717       875
 -1      1190    3    0    1
 -2      1195       289       827      1960
 -1      1191    3    0    1
 -2       113       112       104       737
 -1      1192    3    0    1
 -2       303      1567      1747      1903
 -1      1193    3    0    1
 -2       588       601      2162      2519
 -1      1194    3    0    1
 -2        95       942      1520      1739
 -1      1195    3    0    1
 -2      1521      1558      1607      1619
 -1      1196    3    0    1
 -2       404      1589      1707      1714
 -1      1197    3    0    1
 -2      2482      1256      2582      2549
 -1      1198    3    0    1
 -2       246      1105       242       247
 -1      1199    3    0    1
 -2      1045      2038      2135      2499
 -1      1200    3    0    1
 -2      2576      2517      2585      2616
 -1      1201    3    0    1
 -2      1538      1633      1787      1961
 -1      1202    3    0    1
 -2      1158       649      1157      1647
 -1      1203    3    0    1
 -2      1065       771       588      2009
 -1      1204    3    0    1
 -2       170       171       175      1031
 -1      1205    3    0    1
 -2      1378      1296      2661      2739
 -1      1206    3    0    1
 -2       593      1089      1088      1073
 -1      1207    3    0    1
 -2      2483      2081      2516      2383
 -1      1208    3    0    1
 -2        10       430      1524      2073
 -1      1209    3    0    1
 -2       532       744       997      1723
 -1      1210    3    0    1
 -2       118       968       744       123
 -1      1211    3    0    1
 -2       128       353      1698      2459
 -1      1212    3    0    1
 -2       475       893       886       723
 -1      1213    3    0    1
 -2       445      1206       849      1554
 -1      1214    3    0    1
 -2      1620       329      1823      1830
 -1      1215    3    0    1
 -2      1560      1646      1806      1824
 -1      1216    3    0    1
 -2       612      1886      2121      2525
 -1      1217    3    0    1
 -2       558      1026       565       557
 -1      1218    3    0    1
 -2      1656      1573      1787      1929
 -1      1219    3    0    1
 -2      1214       690       833      1908
 -1      1220    3    0    1
 -2      1099       380      1847      2031
 -1      1221    3    0    1
 -2       518       515       736      1981
 -1      1222    3    0    1
 -2      2118      2059      2141      2541
 -1      1223    3    0    1
 -2       345      1602      1623      1753
 -1      1224    3    0    1
 -2      2286      2347      2366      2394
 -1      1225    3    0    1
 -2       234      1087       236       223
 -1      1226    3    0    1
 -2       356       208       359      1071
 -1      1227    3    0    1
 -2      1108       615      1735      1958
 -1      1228    3    0    1
 -2      2509      1225      2537      2550
 -1      1229    3    0    1
 -2       446      1206      1554      1686
 -1      1230    3    0    1
 -2       206       218      1054      1070
 -1      1231    3    0    1
 -2       723        45       902      1813
 -1      1232    3    0    1
 -2      1592      1545      1613      1648
 -1      1233    3    0    1
 -2       516      1682      2000      2166
 -1      1234    3    0    1
 -2       425       429      1518      1563
 -1      1235    3    0    1
 -2      1136       638       635      1666
 -1      1236    3    0    1
 -2      1743      1705      1776      1812
 -1      1237    3    0    1
 -2       941       507       944      1721
 -1      1238    3    0    1
 -2      1089       603      1088      2004
 -1      1239    3    0    1
 -2       621      1118       787      1122
 -1      1240    3    0    1
 -2       392      1810      1985      1989
 -1      1241    3    0    1
 -2      1590      1607      1654      1725
 -1      1242    3    0    1
 -2       372        62        72       923
 -1      1243    3    0    1
 -2      1140       416      1637      1639
 -1      1244    3    0    1
 -2       144       748      1726      2080
 -1      1245    3    0    1
 -2      1959      1151       317      1960
 -1      1246    3    0    1
 -2       312       802      1169      1650
 -1      1247    3    0    1
 -2      1414      1412      1474      2379
 -1      1248    3    0    1
 -2       919       494       914      1803
 -1      1249    3    0    1
 -2      1751       551      1822      1925
 -1      1250    3    0    1
 -2       694       844       697      1711
 -1      1251    3    0    1
 -2        95        76       925       942
 -1      1252    3    0    1
 -2       902       723      1813      1990
 -1      1253    3    0    1
 -2      1347      1262      1415      2349
 -1      1254    3    0    1
 -2       994      1623      1734      1749
 -1      1255    3    0    1
 -2      1639      1140      1666      1727
 -1      1256    3    0    1
 -2      1709      1754      2050      2051
 -1      1257    3    0    1
 -2      1775      1572      1786      1959
 -1      1258    3    0    1
 -2      2512      2554      2662      2672
 -1      1259    3    0    1
 -2        77       938       933        85
 -1      1260    3    0    1
 -2       900      1951      2065      2100
 -1      1261    3    0    1
 -2        87       936       730        78
 -1      1262    3    0    1
 -2      2553      1242      2701      2728
 -1      1263    3    0    1
 -2      2159      2479      2185      2611
 -1      1264    3    0    1
 -2      1688      1686      1908      1956
 -1      1265    3    0    1
 -2       544       555       749      1704
 -1      1266    3    0    1
 -2      1337      2624      1444      1445
 -1      1267    3    0    1
 -2      2688      2691      2700      2727
 -1      1268    3    0    1
 -2      1609      1544      1706      1955
 -1      1269    3    0    1
 -2       572      1051       579       571
 -1      1270    3    0    1
 -2      2118      2141      2178      2530
 -1      1271    3    0    1
 -2      2524      2505      2580      2633
 -1      1272    3    0    1
 -2      1806      1653      1979      1982
 -1      1273    3    0    1
 -2       973       993      2460      1217
 -1      1274    3    0    1
 -2      1030       568       567      1844
 -1      1275    3    0    1
 -2       621       626       623      1122
 -1      1276    3    0    1
 -2      2244      2541      2261      2685
 -1      1277    3    0    1
 -2      2045      2046      2144      2180
 -1      1278    3    0    1
 -2       419      1122      1118      1631
 -1      1279    3    0    1
 -2       324       149       989      1579
 -1      1280    3    0    1
 -2       649      1159       800      1596
 -1      1281    3    0    1
 -2       149       989      1579      1626
 -1      1282    3    0    1
 -2      1086      1082      1522      1922
 -1      1283    3    0    1
 -2      1157       649      1596      1647
 -1      1284    3    0    1
 -2      1404      2672      2356      2683
 -1      1285    3    0    1
 -2        55        37       717      2018
 -1      1286    3    0    1
 -2      1583       398      1783      1784
 -1      1287    3    0    1
 -2       599       602      1087      1922
 -1      1288    3    0    1
 -2        38       877      1651      1932
 -1      1289    3    0    1
 -2       617      1111       783      2209
 -1      1290    3    0    1
 -2       959       399      1520      1618
 -1      1291    3    0    1
 -2      1664      1648      1613      1645
 -1      1292    3    0    1
 -2      1761      1031      1846      2016
 -1      1293    3    0    1
 -2      2542      1342      2602      2698
 -1      1294    3    0    1
 -2       746       992       748       538
 -1      1295    3    0    1
 -2       666       665      1667      1706
 -1      1296    3    0    1
 -2       429      1518      1815      1819
 -1      1297    3    0    1
 -2       524       523       532       743
 -1      1298    3    0    1
 -2      1674      1720      1874      1962
 -1      1299    3    0    1
 -2       501       935       500       504
 -1      1300    3    0    1
 -2      1129      2252      2352      2676
 -1      1301    3    0    1
 -2      1544      1157      1596      1647
 -1      1302    3    0    1
 -2       743       543       996      1568
 -1      1303    3    0    1
 -2      2191      2210      2557      2246
 -1      1304    3    0    1
 -2       103       738       102       116
 -1      1305    3    0    1
 -2       218      1808      1874      1913
 -1      1306    3    0    1
 -2      1553      1567      1657      1903
 -1      1307    3    0    1
 -2       859      1555      1591      1836
 -1      1308    3    0    1
 -2      1939       922      1944      2022
 -1      1309    3    0    1
 -2      2557      2603      1388      2667
 -1      1310    3    0    1
 -2       528       541       974      1789
 -1      1311    3    0    1
 -2      2192      2141      2541      2244
 -1      1312    3    0    1
 -2      2072      1678      2164      2493
 -1      1313    3    0    1
 -2       734       960       946       509
 -1      1314    3    0    1
 -2       975       528       529      1682
 -1      1315    3    0    1
 -2       572      1052       765       571
 -1      1316    3    0    1
 -2       556       567      1918      2029
 -1      1317    3    0    1
 -2      1045      2135      2177      2499
 -1      1318    3    0    1
 -2       458       864      1837      1901
 -1      1319    3    0    1
 -2       537       748       541       540
 -1      1320    3    0    1
 -2       551      1624      1821      1822
 -1      1321    3    0    1
 -2       542       539       533       990
 -1      1322    3    0    1
 -2       224      1088       223      1079
 -1      1323    3    0    1
 -2       549       754       553       552
 -1      1324    3    0    1
 -2      2269      1326      2313      2420
 -1      1325    3    0    1
 -2       941       508       507      1721
 -1      1326    3    0    1
 -2       553       991      1011      2478
 -1      1327    3    0    1
 -2      2207      1326      2313      2687
 -1      1328    3    0    1
 -2      1594      1574      1661      1701
 -1      1329    3    0    1
 -2      2278      2633      2679      2392
 -1      1330    3    0    1
 -2       691       850       834      1887
 -1      1331    3    0    1
 -2      1612      1597      1661      1701
 -1      1332    3    0    1
 -2       420      1595      1619      1631
 -1      1333    3    0    1
 -2      1095       244      1096      1104
 -1      1334    3    0    1
 -2      1194       307      1559      1644
 -1      1335    3    0    1
 -2       882       878       408      1669
 -1      1336    3    0    1
 -2      2098      2079      2486      2535
 -1      1337    3    0    1
 -2      1951       480      2055      2100
 -1      1338    3    0    1
 -2       196       195       187      1051
 -1      1339    3    0    1
 -2      1562      1655      1767      1959
 -1      1340    3    0    1
 -2       770      1071       208       772
 -1      1341    3    0    1
 -2       559      1030       568       567
 -1      1342    3    0    1
 -2       550      1010      1006       549
 -1      1343    3    0    1
 -2       393      1551      1592      1794
 -1      1344    3    0    1
 -2       976       404      1707      1728
 -1      1345    3    0    1
 -2      1546      1880      1883      1896
 -1      1346    3    0    1
 -2       598      1088      1079       593
 -1      1347    3    0    1
 -2      2551      2642      2644      2706
 -1      1348    3    0    1
 -2       582       589       588       771
 -1      1349    3    0    1
 -2      1697        13      1885      1973
 -1      1350    3    0    1
 -2       619      1124       628       627
 -1      1351    3    0    1
 -2        43       407      1770      1812
 -1      1352    3    0    1
 -2       742       529      1682      1801
 -1      1353    3    0    1
 -2      1800       162      1980      2132
 -1      1354    3    0    1
 -2      1108       615      1107      1735
 -1      1355    3    0    1
 -2      1135      1861      1972      2001
 -1      1356    3    0    1
 -2      1751      1013      1763      1933
 -1      1357    3    0    1
 -2       613      1103      2121      2514
 -1      1358    3    0    1
 -2      1625      1117      1872      1986
 -1      1359    3    0    1
 -2       335       976       972      1519
 -1      1360    3    0    1
 -2       330       331      1918      1925
 -1      1361    3    0    1
 -2       246      1107      1093       239
 -1      1362    3    0    1
 -2       227       223      1088      1089
 -1      1363    3    0    1
 -2       347       362      2117      2526
 -1      1364    3    0    1
 -2      1579       324      1658      1665
 -1      1365    3    0    1
 -2        45        50       902      1813
 -1      1366    3    0    1
 -2       863        13      1697      1973
 -1      1367    3    0    1
 -2       464       463       472       717
 -1      1368    3    0    1
 -2      1460      2620      1503      2389
 -1      1369    3    0    1
 -2       771      1065       359      2019
 -1      1370    3    0    1
 -2      1050       579       580      1888
 -1      1371    3    0    1
 -2       629       637       636       794
 -1      1372    3    0    1
 -2        36        21        38       717
 -1      1373    3    0    1
 -2       324       149      1579      1658
 -1      1374    3    0    1
 -2       325      1704      1763      1933
 -1      1375    3    0    1
 -2      1781      1084      2157      2184
 -1      1376    3    0    1
 -2       820      1695      1845      1998
 -1      1377    3    0    1
 -2      2517      1292      2542      2628
 -1      1378    3    0    1
 -2      1177       661      1176      1605
 -1      1379    3    0    1
 -2      1152       645      1151      1572
 -1      1380    3    0    1
 -2       659      1174      1171      1852
 -1      1381    3    0    1
 -2       867       459      2017      2040
 -1      1382    3    0    1
 -2         9       863         7        13
 -1      1383    3    0    1
 -2      1587      1534      1601      1627
 -1      1384    3    0    1
 -2      1341      2542      1342      2602
 -1      1385    3    0    1
 -2         7       859        13       863
 -1      1386    3    0    1
 -2      1678      1709      1832      2050
 -1      1387    3    0    1
 -2      1882      2077      2118      2484
 -1      1388    3    0    1
 -2      1678      2126      2144      2493
 -1      1389    3    0    1
 -2       328       141      1530      1632
 -1      1390    3    0    1
 -2      2189      2528      2200      1302
 -1      1391    3    0    1
 -2      1566      1543      1571      1583
 -1      1392    3    0    1
 -2       230       228      1074      1090
 -1      1393    3    0    1
 -2       882      1669      1771      1985
 -1      1394    3    0    1
 -2      1811       978      1905      1953
 -1      1395    3    0    1
 -2       235      1089       234       427
 -1      1396    3    0    1
 -2       586      1069      1061      1054
 -1      1397    3    0    1
 -2      1519       335      1622      2028
 -1      1398    3    0    1
 -2      1736      2089      2479      2482
 -1      1399    3    0    1
 -2       532       744      1723      1772
 -1      1400    3    0    1
 -2       497       942       507       508
 -1      1401    3    0    1
 -2      2555      1222      2557      2614
 -1      1402    3    0    1
 -2      1590      1193      1654      1804
 -1      1403    3    0    1
 -2       828      1679      1745      1767
 -1      1404    3    0    1
 -2       100       111       738       961
 -1      1405    3    0    1
 -2       489       917       904       488
 -1      1406    3    0    1
 -2       513       954       736       515
 -1      1407    3    0    1
 -2       522       972       521       527
 -1      1408    3    0    1
 -2      1084       370      1827      2157
 -1      1409    3    0    1
 -2      1604      1788      1897      2006
 -1      1410    3    0    1
 -2       148       324       989      1665
 -1      1411    3    0    1
 -2      1525      1597      1661      1756
 -1      1412    3    0    1
 -2         5        10       430       712
 -1      1413    3    0    1
 -2      1423      1431      1465      2394
 -1      1414    3    0    1
 -2       375       264      1120      1660
 -1      1415    3    0    1
 -2       976       530      1728      1773
 -1      1416    3    0    1
 -2       814      1531      1611      1680
 -1      1417    3    0    1
 -2       149       749      1014      1704
 -1      1418    3    0    1
 -2       419      1557      1595      1615
 -1      1419    3    0    1
 -2       811       318       813      1895
 -1      1420    3    0    1
 -2      1540      1545      1614      1730
 -1      1421    3    0    1
 -2      1031       560       760      1019
 -1      1422    3    0    1
 -2      1857       992      2104      2108
 -1      1423    3    0    1
 -2      1568       743      1905      2005
 -1      1424    3    0    1
 -2      1843      1049      1888      2010
 -1      1425    3    0    1
 -2      1607      1590      1654      1804
 -1      1426    3    0    1
 -2       296       395      1793      1853
 -1      1427    3    0    1
 -2       422      1123      1940      1986
 -1      1428    3    0    1
 -2      1176      1177      1605      1774
 -1      1429    3    0    1
 -2      1569      1526      1599      1823
 -1      1430    3    0    1
 -2       467       878      1532      1742
 -1      1431    3    0    1
 -2       291       797      1146      1729
 -1      1432    3    0    1
 -2      1621       654      1638      1919
 -1      1433    3    0    1
 -2       634      1140       638      1136
 -1      1434    3    0    1
 -2      1136       634       793      1133
 -1      1435    3    0    1
 -2       917       493       492      1948
 -1      1436    3    0    1
 -2       309       828       826      1745
 -1      1437    3    0    1
 -2       692       836      1648      1793
 -1      1438    3    0    1
 -2      1209       694       697      1711
 -1      1439    3    0    1
 -2      1194       305       824      1559
 -1      1440    3    0    1
 -2       989       324      1579      1665
 -1      1441    3    0    1
 -2       126       120      1811      1905
 -1      1442    3    0    1
 -2       282       418       275      1135
 -1      1443    3    0    1
 -2       634      1136       638       633
 -1      1444    3    0    1
 -2       494       920      1803      1942
 -1      1445    3    0    1
 -2      1718      1186      1818      1909
 -1      1446    3    0    1
 -2       278      1135       792       275
 -1      1447    3    0    1
 -2       671      1185       817      1691
 -1      1448    3    0    1
 -2       255       242       247      1107
 -1      1449    3    0    1
 -2       495       496       485       922
 -1      1450    3    0    1
 -2      1813       483      1990      2032
 -1      1451    3    0    1
 -2       580      1049      1071      2010
 -1      1452    3    0    1
 -2      1590      1585      1607      1725
 -1      1453    3    0    1
 -2       110       102       100       738
 -1      1454    3    0    1
 -2      2492      2063      2493      2198
 -1      1455    3    0    1
 -2       575      1042      1828      1924
 -1      1456    3    0    1
 -2       898        46      1866      2123
 -1      1457    3    0    1
 -2      1612      1661      1756      1835
 -1      1458    3    0    1
 -2       611      1732      1765      1100
 -1      1459    3    0    1
 -2       115       104       113       959
 -1      1460    3    0    1
 -2       114       961       400       100
 -1      1461    3    0    1
 -2       814       299       816      1611
 -1      1462    3    0    1
 -2      1698       353      1772      2459
 -1      1463    3    0    1
 -2       878       882       467      1669
 -1      1464    3    0    1
 -2       169      1026       362       762
 -1      1465    3    0    1
 -2       742       529       528      1789
 -1      1466    3    0    1
 -2      1532      1570      1743      1816
 -1      1467    3    0    1
 -2       235      1089      1073       234
 -1      1468    3    0    1
 -2       308       313       825      1654
 -1      1469    3    0    1
 -2      1566      1583      1681      1783
 -1      1470    3    0    1
 -2      1159       649       650      1596
 -1      1471    3    0    1
 -2       837       692      1648      1793
 -1      1472    3    0    1
 -2      1578      1574      1652      1748
 -1      1473    3    0    1
 -2      1029      1020       562      1023
 -1      1474    3    0    1
 -2       903       724       483      1990
 -1      1475    3    0    1
 -2      2319      2255      2377      2720
 -1      1476    3    0    1
 -2       458      1837      1792      1901
 -1      1477    3    0    1
 -2      1552      1576      1606      1629
 -1      1478    3    0    1
 -2       244      1104      1653      1824
 -1      1479    3    0    1
 -2        86        76        92       942
 -1      1480    3    0    1
 -2      1594      1574      1701      1702
 -1      1481    3    0    1
 -2        78        82        88       936
 -1      1482    3    0    1
 -2       865      1796      1850      1963
 -1      1483    3    0    1
 -2      1667      1609      1955      2003
 -1      1484    3    0    1
 -2       191       198       202      1036
 -1      1485    3    0    1
 -2       664       663       807      1684
 -1      1486    3    0    1
 -2       432        56      2130      2175
 -1      1487    3    0    1
 -2      1600      1180      1684      1881
 -1      1488    3    0    1
 -2      1047      1043      1717      1965
 -1      1489    3    0    1
 -2      1696      1529      1719      1829
 -1      1490    3    0    1
 -2       274       385       796      1143
 -1      1491    3    0    1
 -2      1689       913      1803      1842
 -1      1492    3    0    1
 -2       187       366       189      1050
 -1      1493    3    0    1
 -2      2463      2509      2539      2712
 -1      1494    3    0    1
 -2       393      1551      1573      1907
 -1      1495    3    0    1
 -2      1088       227      1089      2004
 -1      1496    3    0    1
 -2        60        66       373       922
 -1      1497    3    0    1
 -2      1157       302      1158      1544
 -1      1498    3    0    1
 -2      1291      2517      1292      2542
 -1      1499    3    0    1
 -2       534       990       533       539
 -1      1500    3    0    1
 -2      2099      2060      2148      2469
 -1      1501    3    0    1
 -2       392      1651      1810      1963
 -1      1502    3    0    1
 -2      1565      1610      1717      1738
 -1      1503    3    0    1
 -2       494       919      1906      1942
 -1      1504    3    0    1
 -2      1570        28      1768      1921
 -1      1505    3    0    1
 -2      1743      1705      1812      1816
 -1      1506    3    0    1
 -2      1041       185       192      1045
 -1      1507    3    0    1
 -2       540       754       992      1857
 -1      1508    3    0    1
 -2       565       762      1849      1977
 -1      1509    3    0    1
 -2       477       899       898       720
 -1      1510    3    0    1
 -2      1399      1280      2626      2627
 -1      1511    3    0    1
 -2      2231      2616      2289      2629
 -1      1512    3    0    1
 -2      1687      1638      1804      1919
 -1      1513    3    0    1
 -2       355       230      2462      2161
 -1      1514    3    0    1
 -2      1089      1069      1820      1995
 -1      1515    3    0    1
 -2        68       726       728       906
 -1      1516    3    0    1
 -2      1050       591      1070      1731
 -1      1517    3    0    1
 -2       818       671      1184      1747
 -1      1518    3    0    1
 -2       517       516       510       956
 -1      1519    3    0    1
 -2      1196      1197      1670      2024
 -1      1520    3    0    1
 -2       657       658      1577      1581
 -1      1521    3    0    1
 -2       543       997      1692      1723
 -1      1522    3    0    1
 -2      1523       755      1763      2093
 -1      1523    3    0    1
 -2       817      1185      1662      1691
 -1      1524    3    0    1
 -2       407      1537      1705      1812
 -1      1525    3    0    1
 -2        14      1524      1997      2002
 -1      1526    3    0    1
 -2       679       824      1590      1654
 -1      1527    3    0    1
 -2       144       146       997      1692
 -1      1528    3    0    1
 -2      2116      1030      2172      2526
 -1      1529    3    0    1
 -2       365       152       162       756
 -1      1530    3    0    1
 -2       102       957       100       940
 -1      1531    3    0    1
 -2      1568       532      1772      1905
 -1      1532    3    0    1
 -2       197      1047       188       340
 -1      1533    3    0    1
 -2       324       148      1658      1665
 -1      1534    3    0    1
 -2      1533      1586      1778      1966
 -1      1535    3    0    1
 -2       335      1519      1622      1659
 -1      1536    3    0    1
 -2      1197       310       319      2024
 -1      1537    3    0    1
 -2       181      1030       169       347
 -1      1538    3    0    1
 -2       338       146      2104      2475
 -1      1539    3    0    1
 -2       164       153       755      1014
 -1      1540    3    0    1
 -2       694      1640      1711      1713
 -1      1541    3    0    1
 -2      2223      1301      2587      1393
 -1      1542    3    0    1
 -2      1214       442       443      1976
 -1      1543    3    0    1
 -2       561      1024       761      1028
 -1      1544    3    0    1
 -2      1646      1634      1750      1780
 -1      1545    3    0    1
 -2       146       137       144       997
 -1      1546    3    0    1
 -2       685       686      1869      2020
 -1      1547    3    0    1
 -2       365       166      1980      2105
 -1      1548    3    0    1
 -2      2467      2051      2168      2607
 -1      1549    3    0    1
 -2       143       994       135       328
 -1      1550    3    0    1
 -2      1071       592       591      1935
 -1      1551    3    0    1
 -2       816       670      1680      1880
 -1      1552    3    0    1
 -2      1172      1173      1616      1897
 -1      1553    3    0    1
 -2       173      1028      1024       329
 -1      1554    3    0    1
 -2      1561       826      1679      1745
 -1      1555    3    0    1
 -2      1585      1558      1590      1607
 -1      1556    3    0    1
 -2       385       274       280      1143
 -1      1557    3    0    1
 -2       943        91      1945      2021
 -1      1558    3    0    1
 -2      1106       616       615      1735
 -1      1559    3    0    1
 -2       149      1579      1658      1704
 -1      1560    3    0    1
 -2        51       903        49       891
 -1      1561    3    0    1
 -2       823       821      1559      1683
 -1      1562    3    0    1
 -2      1151      1152      1572      1959
 -1      1563    3    0    1
 -2       242       781      1107      1108
 -1      1564    3    0    1
 -2        82        90       941      2498
 -1      1565    3    0    1
 -2       867        14      1997      2464
 -1      1566    3    0    1
 -2       353       128       744      2459
 -1      1567    3    0    1
 -2      1736      2057      2467      2479
 -1      1568    3    0    1
 -2       343       144       997      2459
 -1      1569    3    0    1
 -2       450       711       449       707
 -1      1570    3    0    1
 -2       375       259       257      1124
 -1      1571    3    0    1
 -2      1187       674      1718      1752
 -1      1572    3    0    1
 -2      2677      1236      2430      2447
 -1      1573    3    0    1
 -2      1138       790       629       794
 -1      1574    3    0    1
 -2       687      1204       688      1643
 -1      1575    3    0    1
 -2      1272      1011      2564      2613
 -1      1576    3    0    1
 -2      2045      2046      2063      2144
 -1      1577    3    0    1
 -2      1599       830      1643      1719
 -1      1578    3    0    1
 -2      2700       238      1503      2446
 -1      1579    3    0    1
 -2       689       832      1657      1769
 -1      1580    3    0    1
 -2      1530       994      1632      1734
 -1      1581    3    0    1
 -2       317      1195      1959      1960
 -1      1582    3    0    1
 -2      1611       816      1680      1880
 -1      1583    3    0    1
 -2      1640      1610      1713      1878
 -1      1584    3    0    1
 -2       470       882      1555      1810
 -1      1585    3    0    1
 -2      1518       425      1775      1809
 -1      1586    3    0    1
 -2       779      1102      1091       249
 -1      1587    3    0    1
 -2        88        82       944      1721
 -1      1588    3    0    1
 -2      1610      1565      1711      1713
 -1      1589    3    0    1
 -2       549       754       552      1010
 -1      1590    3    0    1
 -2       178       170       175      1031
 -1      1591    3    0    1
 -2       177       180      2134      2496
 -1      1592    3    0    1
 -2       690       849      1206      1688
 -1      1593    3    0    1
 -2      1596       800      1895      1937
 -1      1594    3    0    1
 -2       566      1028      1830      1840
 -1      1595    3    0    1
 -2       977       126       120      1811
 -1      1596    3    0    1
 -2      1668       799      1700      1889
 -1      1597    3    0    1
 -2       113       115       959      1755
 -1      1598    3    0    1
 -2      1544      1181      1609      1706
 -1      1599    3    0    1
 -2      1084       230      1080      1827
 -1      1600    3    0    1
 -2      1084       370      2157      2184
 -1      1601    3    0    1
 -2      1948       898      2123      2139
 -1      1602    3    0    1
 -2       595      1080       594       774
 -1      1603    3    0    1
 -2      1678      1709      2050      2051
 -1      1604    3    0    1
 -2       994       542       990      1632
 -1      1605    3    0    1
 -2       154      1015       152      1003
 -1      1606    3    0    1
 -2       564       577      1675      2113
 -1      1607    3    0    1
 -2      1031      1032      1844      1923
 -1      1608    3    0    1
 -2      2505      1025      1269      1270
 -1      1609    3    0    1
 -2       188      1565      1717      1738
 -1      1610    3    0    1
 -2      1594      1574      1702      1807
 -1      1611    3    0    1
 -2      1831       915      2102      2158
 -1      1612    3    0    1
 -2       507       942       943      1739
 -1      1613    3    0    1
 -2      1574      1527      1578      1652
 -1      1614    3    0    1
 -2        89        87        93       931
 -1      1615    3    0    1
 -2      1588      1655      1663      1809
 -1      1616    3    0    1
 -2      1100      1608      1732      1765
 -1      1617    3    0    1
 -2      1652       326      1748      1807
 -1      1618    3    0    1
 -2      1520       399      1782      1971
 -1      1619    3    0    1
 -2      1197      1670      1715      1879
 -1      1620    3    0    1
 -2       422       265       260      1126
 -1      1621    3    0    1
 -2       640       631       639      1142
 -1      1622    3    0    1
 -2      1670      1197      1715      2024
 -1      1623    3    0    1
 -2      2121      2122      2485      2525
 -1      1624    3    0    1
 -2       690      1206      1686      1688
 -1      1625    3    0    1
 -2      1184       671      1691      1747
 -1      1626    3    0    1
 -2      1700      1548      1705      1743
 -1      1627    3    0    1
 -2       450       711       457       449
 -1      1628    3    0    1
 -2       115       348       953      1755
 -1      1629    3    0    1
 -2      1306      1333      2618      2651
 -1      1630    3    0    1
 -2       397       314      1664      1852
 -1      1631    3    0    1
 -2        14       384      2002      2061
 -1      1632    3    0    1
 -2       932        95      1520      1791
 -1      1633    3    0    1
 -2        67      1592      1613      1794
 -1      1634    3    0    1
 -2       382      1641      1847      1940
 -1      1635    3    0    1
 -2       180       166      2105      2496
 -1      1636    3    0    1
 -2      1164       294      1621      1638
 -1      1637    3    0    1
 -2       648      1156      1700      1776
 -1      1638    3    0    1
 -2      1561      1188      1745      1752
 -1      1639    3    0    1
 -2       541       537       540      2236
 -1      1640    3    0    1
 -2       326      1529      1652      1748
 -1      1641    3    0    1
 -2       451       712       460       459
 -1      1642    3    0    1
 -2        12       711       707         5
 -1      1643    3    0    1
 -2      1884       903      2174      2527
 -1      1644    3    0    1
 -2      2468      1234      1235      2504
 -1      1645    3    0    1
 -2      2268      2507      2615      2721
 -1      1646    3    0    1
 -2       230      1084       370      1827
 -1      1647    3    0    1
 -2      1694      1552      1885      1891
 -1      1648    3    0    1
 -2      1611      1589      1714      1880
 -1      1649    3    0    1
 -2      2332      1240      1289      2662
 -1      1650    3    0    1
 -2        19       712         5       430
 -1      1651    3    0    1
 -2      1673      1563      1762      1815
 -1      1652    3    0    1
 -2        19       712       708         5
 -1      1653    3    0    1
 -2      1227      2497      1262      2597
 -1      1654    3    0    1
 -2         5        12        14       867
 -1      1655    3    0    1
 -2       937      2515      1295      2653
 -1      1656    3    0    1
 -2      1849       754      1857      2132
 -1      1657    3    0    1
 -2      1462      2619      2708      2736
 -1      1658    3    0    1
 -2        16       858       864      1837
 -1      1659    3    0    1
 -2       629      1138       794       636
 -1      1660    3    0    1
 -2       329      1569      1785      1830
 -1      1661    3    0    1
 -2        12       711         5        14
 -1      1662    3    0    1
 -2         5       707       705       711
 -1      1663    3    0    1
 -2         5       861        10       711
 -1      1664    3    0    1
 -2       707       449       705       711
 -1      1665    3    0    1
 -2       449       861       705       711
 -1      1666    3    0    1
 -2      2485      2520      2551      2642
 -1      1667    3    0    1
 -2      1928      2106      2484      2485
 -1      1668    3    0    1
 -2        85       398      1542      1802
 -1      1669    3    0    1
 -2       816       814      1611      1680
 -1      1670    3    0    1
 -2       718       903      1884      2527
 -1      1671    3    0    1
 -2      2642      1463      2644      2706
 -1      1672    3    0    1
 -2      2473      2106      2532      2533
 -1      1673    3    0    1
 -2       955       958       516      2240
 -1      1674    3    0    1
 -2      1590      1559      1644      1654
 -1      1675    3    0    1
 -2      1615       419      1685      1870
 -1      1676    3    0    1
 -2      1062       587      1808      2035
 -1      1677    3    0    1
 -2       695      1213       701      1549
 -1      1678    3    0    1
 -2       463       471       472       717
 -1      1679    3    0    1
 -2        33       885       718       873
 -1      1680    3    0    1
 -2        37        24        27       717
 -1      1681    3    0    1
 -2        38        24        37       717
 -1      1682    3    0    1
 -2       466       880       876       465
 -1      1683    3    0    1
 -2        25        31       432       718
 -1      1684    3    0    1
 -2       590      1068      1808      1874
 -1      1685    3    0    1
 -2      1182       667       668      1604
 -1      1686    3    0    1
 -2       479       473       482       722
 -1      1687    3    0    1
 -2        42       890       722       887
 -1      1688    3    0    1
 -2        42        43       407       722
 -1      1689    3    0    1
 -2       474       896       890       473
 -1      1690    3    0    1
 -2        40       901        50        39
 -1      1691    3    0    1
 -2        46        49       433       903
 -1      1692    3    0    1
 -2        57        45        39       723
 -1      1693    3    0    1
 -2        39        54        57       723
 -1      1694    3    0    1
 -2      1149      1148      1662      1693
 -1      1695    3    0    1
 -2       473       890       887       722
 -1      1696    3    0    1
 -2        39       723       886       893
 -1      1697    3    0    1
 -2        39        54       723       893
 -1      1698    3    0    1
 -2        52        46       724       892
 -1      1699    3    0    1
 -2        73       922       727        60
 -1      1700    3    0    1
 -2       112       960       113       101
 -1      1701    3    0    1
 -2        90        97        78       924
 -1      1702    3    0    1
 -2      1574      1652      1748      1807
 -1      1703    3    0    1
 -2       372       371        68       728
 -1      1704    3    0    1
 -2        68       371        75       728
 -1      1705    3    0    1
 -2       627      1833      1914      2013
 -1      1706    3    0    1
 -2        80       933        77       929
 -1      1707    3    0    1
 -2        94        79        91       732
 -1      1708    3    0    1
 -2       145       750       985       997
 -1      1709    3    0    1
 -2       514       737       509       520
 -1      1710    3    0    1
 -2       105       737       348       104
 -1      1711    3    0    1
 -2       519       509       520       738
 -1      1712    3    0    1
 -2       103       738       735       102
 -1      1713    3    0    1
 -2      2625      2641      2648      2652
 -1      1714    3    0    1
 -2       513       512       515       736
 -1      1715    3    0    1
 -2      1571      1609      1647      1677
 -1      1716    3    0    1
 -2       512       515       518       953
 -1      1717    3    0    1
 -2      1707       976      1728      1773
 -1      1718    3    0    1
 -2      1597      1612      1661      1756
 -1      1719    3    0    1
 -2       743       120       978      1905
 -1      1720    3    0    1
 -2       101       960       113       399
 -1      1721    3    0    1
 -2       735       961       100       738
 -1      1722    3    0    1
 -2       105       737       104       734
 -1      1723    3    0    1
 -2       104       348       115       737
 -1      1724    3    0    1
 -2       771      1045      2009      2135
 -1      1725    3    0    1
 -2       104       112       734       737
 -1      1726    3    0    1
 -2       100       102       735       738
 -1      1727    3    0    1
 -2      1470      1457      2745      2457
 -1      1728    3    0    1
 -2      2244      2541      2250      2261
 -1      1729    3    0    1
 -2       723       484      1939      1990
 -1      1730    3    0    1
 -2       345       148      1602      1753
 -1      1731    3    0    1
 -2       782       613      1886      2092
 -1      1732    3    0    1
 -2       860       456       862      1915
 -1      1733    3    0    1
 -2        89        88      1865      2110
 -1      1734    3    0    1
 -2      1404      2223      2296      2672
 -1      1735    3    0    1
 -2       314      1645      1664      1852
 -1      1736    3    0    1
 -2      1540      1645      1730      1852
 -1      1737    3    0    1
 -2       850       834      1887      1976
 -1      1738    3    0    1
 -2       523       979       967       744
 -1      1739    3    0    1
 -2      1691      1553      1747      1970
 -1      1740    3    0    1
 -2       344       120       132       743
 -1      1741    3    0    1
 -2      1043       188      1047      1717
 -1      1742    3    0    1
 -2       442       833      1908      1976
 -1      1743    3    0    1
 -2       436      1927      2084      2477
 -1      1744    3    0    1
 -2       589      2009      2069      2098
 -1      1745    3    0    1
 -2      1556      1615      1628      1790
 -1      1746    3    0    1
 -2       120       132       743       969
 -1      1747    3    0    1
 -2       128       968       129       123
 -1      1748    3    0    1
 -2       128       968       123       744
 -1      1749    3    0    1
 -2       419      1615      1867      1870
 -1      1750    3    0    1
 -2       292      1668      1724      1889
 -1      1751    3    0    1
 -2       335       976       119       972
 -1      1752    3    0    1
 -2      2205      1277      2227      2228
 -1      1753    3    0    1
 -2       538       748       537       540
 -1      1754    3    0    1
 -2       997       536       750       985
 -1      1755    3    0    1
 -2       324       139       149       749
 -1      1756    3    0    1
 -2       150       139       324       749
 -1      1757    3    0    1
 -2        56       433      2128      2175
 -1      1758    3    0    1
 -2       992       746       137       988
 -1      1759    3    0    1
 -2       145       146       138       750
 -1      1760    3    0    1
 -2       150       139       749       987
 -1      1761    3    0    1
 -2       138       145       750       986
 -1      1762    3    0    1
 -2       536       750       985       986
 -1      1763    3    0    1
 -2       551      1012       545       554
 -1      1764    3    0    1
 -2      2069      1066      2098      2486
 -1      1765    3    0    1
 -2      1951       900      2147       481
 -1      1766    3    0    1
 -2       538       992       748       540
 -1      1767    3    0    1
 -2      1329      1330      2584      1365
 -1      1768    3    0    1
 -2      1655      1562      1767      1912
 -1      1769    3    0    1
 -2      1352      1418      1419      2636
 -1      1770    3    0    1
 -2       548       547       556       755
 -1      1771    3    0    1
 -2       163      1014       153       325
 -1      1772    3    0    1
 -2       547       555       556       755
 -1      1773    3    0    1
 -2       954       736       515      1981
 -1      1774    3    0    1
 -2       345       344       996      1753
 -1      1775    3    0    1
 -2       331       156       165       755
 -1      1776    3    0    1
 -2       156       331       164       755
 -1      1777    3    0    1
 -2       545      1012      1008       999
 -1      1778    3    0    1
 -2       644       643      1693      1894
 -1      1779    3    0    1
 -2       160      1008       159      1002
 -1      1780    3    0    1
 -2       180       177       183       759
 -1      1781    3    0    1
 -2       177       179       183       759
 -1      1782    3    0    1
 -2       172      1032       760       170
 -1      1783    3    0    1
 -2       759       177      1030      1033
 -1      1784    3    0    1
 -2       653       801      1804      1919
 -1      1785    3    0    1
 -2      1790       850      1887      1976
 -1      1786    3    0    1
 -2      2460       991       993      2094
 -1      1787    3    0    1
 -2       749       555      1014      1704
 -1      1788    3    0    1
 -2       738       520      1593      1953
 -1      1789    3    0    1
 -2      1648       296      1793      1853
 -1      1790    3    0    1
 -2      1108       254      1798      1958
 -1      1791    3    0    1
 -2       563       561       566      1028
 -1      1792    3    0    1
 -2      2472      1009      1219      1220
 -1      1793    3    0    1
 -2      1534      1601      1610      1878
 -1      1794    3    0    1
 -2      1731       591      1899      1935
 -1      1795    3    0    1
 -2       186      1052       360       185
 -1      1796    3    0    1
 -2       769      1065      1053       209
 -1      1797    3    0    1
 -2       199       200       195       766
 -1      1798    3    0    1
 -2      2060      2099      2148      2507
 -1      1799    3    0    1
 -2       585      1068      1060       584
 -1      1800    3    0    1
 -2       249      1102       437       782
 -1      1801    3    0    1
 -2       609      1102       613       608
 -1      1802    3    0    1
 -2       797       413      1537      1729
 -1      1803    3    0    1
 -2       990       141      1632      1702
 -1      1804    3    0    1
 -2       212       772       208       215
 -1      1805    3    0    1
 -2        90        82      2044      2498
 -1      1806    3    0    1
 -2       212       772       770       208
 -1      1807    3    0    1
 -2       596      1082      1076       776
 -1      1808    3    0    1
 -2       199      1048      1846      1924
 -1      1809    3    0    1
 -2      1866        46      1990      2120
 -1      1810    3    0    1
 -2       583       771       582       769
 -1      1811    3    0    1
 -2       581      1070       591       592
 -1      1812    3    0    1
 -2      1518      1563      1762      1775
 -1      1813    3    0    1
 -2       209      1071       205       359
 -1      1814    3    0    1
 -2      2226      2606      2293      2364
 -1      1815    3    0    1
 -2       341       323      1713      1879
 -1      1816    3    0    1
 -2       215       208       356       772
 -1      1817    3    0    1
 -2      1258      2563      2612      2709
 -1      1818    3    0    1
 -2       597      1087      1077       596
 -1      1819    3    0    1
 -2       921      1689      1938      1945
 -1      1820    3    0    1
 -2       416      1639      1746      1943
 -1      1821    3    0    1
 -2       784      1120       788       617
 -1      1822    3    0    1
 -2       593       598       604       777
 -1      1823    3    0    1
 -2       603       593       604       777
 -1      1824    3    0    1
 -2       374       922      1689      2022
 -1      1825    3    0    1
 -2       323      1209       341      1713
 -1      1826    3    0    1
 -2       370       237       228       777
 -1      1827    3    0    1
 -2       228       237       233       777
 -1      1828    3    0    1
 -2      1352      2583      1418      2636
 -1      1829    3    0    1
 -2      2044      1949      2136      2498
 -1      1830    3    0    1
 -2       255       242      1107      1108
 -1      1831    3    0    1
 -2       252       251       253       780
 -1      1832    3    0    1
 -2       252      1109       256       251
 -1      1833    3    0    1
 -2       243      1108       781       242
 -1      1834    3    0    1
 -2       780       251      1106      1109
 -1      1835    3    0    1
 -2       594      1084      1080       600
 -1      1836    3    0    1
 -2      1537      1642      1729      1984
 -1      1837    3    0    1
 -2       144       343      2080      2096
 -1      1838    3    0    1
 -2       972       335      1519      2028
 -1      1839    3    0    1
 -2       941       961      1795      2498
 -1      1840    3    0    1
 -2      2472      1220      2501      2540
 -1      1841    3    0    1
 -2       654      1165      1621      1638
 -1      1842    3    0    1
 -2       605      1106       616       615
 -1      1843    3    0    1
 -2       619      1124       627      1127
 -1      1844    3    0    1
 -2       249      1106       251       437
 -1      1845    3    0    1
 -2       620      1127      1114       619
 -1      1846    3    0    1
 -2       268      1124       785       259
 -1      1847    3    0    1
 -2       680       679       825      1654
 -1      1848    3    0    1
 -2      1562      1572      1959      1960
 -1      1849    3    0    1
 -2      1610       340      1717      1878
 -1      1850    3    0    1
 -2      1526      1757      1785      1876
 -1      1851    3    0    1
 -2       407      1770      1812      1816
 -1      1852    3    0    1
 -2      1324      2182      2571      1386
 -1      1853    3    0    1
 -2       618       788       617       784
 -1      1854    3    0    1
 -2      1279      2231      2616      1452
 -1      1855    3    0    1
 -2       286       796       274       390
 -1      1856    3    0    1
 -2       286       796       791       274
 -1      1857    3    0    1
 -2      1566      1543      1583      2007
 -1      1858    3    0    1
 -2       277      1140       276       416
 -1      1859    3    0    1
 -2       631       795      1131      1142
 -1      1860    3    0    1
 -2       777      1090      1827      2004
 -1      1861    3    0    1
 -2      1521      1631      1641      1765
 -1      1862    3    0    1
 -2      2515      2546      2653      2661
 -1      1863    3    0    1
 -2       158       753      2199      2211
 -1      1864    3    0    1
 -2      1289      2512      1290      2554
 -1      1865    3    0    1
 -2       807       663      1179      1684
 -1      1866    3    0    1
 -2      1680      1546      1880      1883
 -1      1867    3    0    1
 -2       630       794       629       790
 -1      1868    3    0    1
 -2      1938       728      2156      2513
 -1      1869    3    0    1
 -2       301      1180       336      1966
 -1      1870    3    0    1
 -2       285       278       283       795
 -1      1871    3    0    1
 -2       418       278       285       795
 -1      1872    3    0    1
 -2       148       345      1658      1753
 -1      1873    3    0    1
 -2       401       302      1157      1544
 -1      1874    3    0    1
 -2       645      1152       646      1572
 -1      1875    3    0    1
 -2      1545      1540      1645      1730
 -1      1876    3    0    1
 -2       230       370       777      1827
 -1      1877    3    0    1
 -2      1135      1141      1584      1972
 -1      1878    3    0    1
 -2      1764      1841      1846      1924
 -1      1879    3    0    1
 -2      1569       329      1620      1830
 -1      1880    3    0    1
 -2      1575      1532      1768      1921
 -1      1881    3    0    1
 -2       920       373      1689      2022
 -1      1882    3    0    1
 -2       565       552      1027      2066
 -1      1883    3    0    1
 -2      1770        43      1787      1930
 -1      1884    3    0    1
 -2       408      1669      1768      1771
 -1      1885    3    0    1
 -2      2159      1736      2479      2482
 -1      1886    3    0    1
 -2        16       391      1837      1963
 -1      1887    3    0    1
 -2       228       777      1074      1090
 -1      1888    3    0    1
 -2       703      1790      1887      1975
 -1      1889    3    0    1
 -2       490       923       485       495
 -1      1890    3    0    1
 -2       497       941       508       507
 -1      1891    3    0    1
 -2      1118       419      1631      1867
 -1      1892    3    0    1
 -2      1032       567      1844      1918
 -1      1893    3    0    1
 -2      1029       178       175      1722
 -1      1894    3    0    1
 -2       502       944       497       507
 -1      1895    3    0    1
 -2       673      1188       819      1718
 -1      1896    3    0    1
 -2       642      1633      1729      1737
 -1      1897    3    0    1
 -2      1703      1615      1790      1870
 -1      1898    3    0    1
 -2      1819      1674      1874      1962
 -1      1899    3    0    1
 -2       526       974       525       528
 -1      1900    3    0    1
 -2      1861        18      1947      2012
 -1      1901    3    0    1
 -2      1656      1906      1929      1930
 -1      1902    3    0    1
 -2       522       971       521       965
 -1      1903    3    0    1
 -2      1551      1539      1592      1794
 -1      1904    3    0    1
 -2       285       418       795      2001
 -1      1905    3    0    1
 -2      1540      1616      1664      1852
 -1      1906    3    0    1
 -2       505      1580      2052      2102
 -1      1907    3    0    1
 -2       687      1205       830      1643
 -1      1908    3    0    1
 -2       668      1604      1788      1897
 -1      1909    3    0    1
 -2      1720      1815      1875      1994
 -1      1910    3    0    1
 -2       398      1542      1783      1814
 -1      1911    3    0    1
 -2       672      1185      1691      1747
 -1      1912    3    0    1
 -2      1823      1535      1838      2041
 -1      1913    3    0    1
 -2       511       956       510       516
 -1      1914    3    0    1
 -2      1808       346      1899      1913
 -1      1915    3    0    1
 -2       919       393      1656      1929
 -1      1916    3    0    1
 -2      1808       587      1978      2035
 -1      1917    3    0    1
 -2      1531      1586      1611      1659
 -1      1918    3    0    1
 -2       942       497       507       943
 -1      1919    3    0    1
 -2      1050       580      1731      1888
 -1      1920    3    0    1
 -2      1602       542      1623      1734
 -1      1921    3    0    1
 -2      2059      2060      2099      2469
 -1      1922    3    0    1
 -2      1541      1603      1616      1617
 -1      1923    3    0    1
 -2      1624      1569      1821      1822
 -1      1924    3    0    1
 -2      1024       342      1799      1839
 -1      1925    3    0    1
 -2      1533      1712      1778      1826
 -1      1926    3    0    1
 -2       111       110       738      1593
 -1      1927    3    0    1
 -2       523       979       744       531
 -1      1928    3    0    1
 -2      1105      1099      1987      2031
 -1      1929    3    0    1
 -2       414       859      1591      1836
 -1      1930    3    0    1
 -2      2504      2544      2575      2648
 -1      1931    3    0    1
 -2      1676       601      1781      2162
 -1      1932    3    0    1
 -2      1547      1636      1716      1769
 -1      1933    3    0    1
 -2       736       106      1583      1681
 -1      1934    3    0    1
 -2      1533      1586      1760      1778
 -1      1935    3    0    1
 -2      1566       106      1571      1677
 -1      1936    3    0    1
 -2      1562      1588      1655      1663
 -1      1937    3    0    1
 -2       418       282       275      1142
 -1      1938    3    0    1
 -2       420       419      1557      1595
 -1      1939    3    0    1
 -2       913       920      1689      1803
 -1      1940    3    0    1
 -2      1152       646      1572      1786
 -1      1941    3    0    1
 -2       268      1124       259       271
 -1      1942    3    0    1
 -2         5       861       711       705
 -1      1943    3    0    1
 -2       862      2468      1234      1235
 -1      1944    3    0    1
 -2      1585      1558      1607      1725
 -1      1945    3    0    1
 -2       241      1106       437       436
 -1      1946    3    0    1
 -2      1543      1596      1937      2007
 -1      1947    3    0    1
 -2      2318      2255      2377      2414
 -1      1948    3    0    1
 -2       230       777      1090      1827
 -1      1949    3    0    1
 -2       148       345       996      1658
 -1      1950    3    0    1
 -2      1587       340      1601      1878
 -1      1951    3    0    1
 -2      2148      2099      2469      2507
 -1      1952    3    0    1
 -2       305       823       821      1559
 -1      1953    3    0    1
 -2       669       816       670      1680
 -1      1954    3    0    1
 -2      1537      1729      1776      1812
 -1      1955    3    0    1
 -2      1203      1643      1696      1204
 -1      1956    3    0    1
 -2      1141       282      1135      2001
 -1      1957    3    0    1
 -2      1662      1149      1693      1894
 -1      1958    3    0    1
 -2       300       299       814      1611
 -1      1959    3    0    1
 -2      1105      1094       607      1099
 -1      1960    3    0    1
 -2      1820      1069      1899      1995
 -1      1961    3    0    1
 -2       608      1102       613       612
 -1      1962    3    0    1
 -2       551      1624      1822      1925
 -1      1963    3    0    1
 -2      1751       551      1821      1822
 -1      1964    3    0    1
 -2      1190       675      1189      1845
 -1      1965    3    0    1
 -2      1555      1528      1591      1836
 -1      1966    3    0    1
 -2       728       944      2156      2513
 -1      1967    3    0    1
 -2        85       938      1802      1999
 -1      1968    3    0    1
 -2       226      1634      1750      1806
 -1      1969    3    0    1
 -2       539      1579      1626      1964
 -1      1970    3    0    1
 -2       659      1171      1616      1852
 -1      1971    3    0    1
 -2       977       527       530      1983
 -1      1972    3    0    1
 -2       992       748       540      1598
 -1      1973    3    0    1
 -2       180       177       759      1033
 -1      1974    3    0    1
 -2       550      1010       549       552
 -1      1975    3    0    1
 -2      1529      1643      1719      1829
 -1      1976    3    0    1
 -2      1712      1597      1778      1826
 -1      1977    3    0    1
 -2      2133      2115      2491      2734
 -1      1978    3    0    1
 -2      2472      1766      2500      2548
 -1      1979    3    0    1
 -2       679      1194       824      1654
 -1      1980    3    0    1
 -2       743       532      1568      1905
 -1      1981    3    0    1
 -2       302      1544      1609      1647
 -1      1982    3    0    1
 -2      1253      2535      1297      2717
 -1      1983    3    0    1
 -2      1048      1764      1846      1924
 -1      1984    3    0    1
 -2       748       541       540      1598
 -1      1985    3    0    1
 -2       106      1566      1571      1583
 -1      1986    3    0    1
 -2       475       902       483       723
 -1      1987    3    0    1
 -2      1637      1556      1779      1943
 -1      1988    3    0    1
 -2       527       972      1622      1623
 -1      1989    3    0    1
 -2       995       539       542      1665
 -1      1990    3    0    1
 -2       131       737       978      1953
 -1      1991    3    0    1
 -2       366      1042      1828      1874
 -1      1992    3    0    1
 -2       140       747      2214      2236
 -1      1993    3    0    1
 -2       149       325      1579      1704
 -1      1994    3    0    1
 -2      1537      1729      1812      1984
 -1      1995    3    0    1
 -2       828       309       315      1745
 -1      1996    3    0    1
 -2       269      1126       265       382
 -1      1997    3    0    1
 -2       619      1125       627       628
 -1      1998    3    0    1
 -2      1521      1122      1631      1765
 -1      1999    3    0    1
 -2       790      1138      1128       279
 -1      2000    3    0    1
 -2      1808       590      1874      1962
 -1      2001    3    0    1
 -2       824      1559      1590      1654
 -1      2002    3    0    1
 -2      1531      1589      1659      1714
 -1      2003    3    0    1
 -2       196       189      1048      1924
 -1      2004    3    0    1
 -2       389      1117      1872      1941
 -1      2005    3    0    1
 -2      1765       380      1847      1920
 -1      2006    3    0    1
 -2       281      1143       279      1132
 -1      2007    3    0    1
 -2       274       279       280      1143
 -1      2008    3    0    1
 -2       447      1526      1549      1599
 -1      2009    3    0    1
 -2       407       722      1770      1816
 -1      2010    3    0    1
 -2      2361      2363      2696      2391
 -1      2011    3    0    1
 -2      1701      1594       141      1661
 -1      2012    3    0    1
 -2      1707      1635       403       954
 -1      2013    3    0    1
 -2      1467      2691      1500      2733
 -1      2014    3    0    1
 -2       323       341       829      1879
 -1      2015    3    0    1
 -2      1610      1565      1713      1738
 -1      2016    3    0    1
 -2        61       913        60        66
 -1      2017    3    0    1
 -2      1668      1548      1700      1743
 -1      2018    3    0    1
 -2       643      1149       644      1693
 -1      2019    3    0    1
 -2      1686      1688      1943      1956
 -1      2020    3    0    1
 -2       882       408      1555      1771
 -1      2021    3    0    1
 -2       340      1565      1610      1717
 -1      2022    3    0    1
 -2      1023      1029      1722      1840
 -1      2023    3    0    1
 -2       296       846       837      1793
 -1      2024    3    0    1
 -2      1558      1607      1619      1919
 -1      2025    3    0    1
 -2       228       230       777      1090
 -1      2026    3    0    1
 -2        43      1787      1930      1984
 -1      2027    3    0    1
 -2      1663      1655      1775      1809
 -1      2028    3    0    1
 -2      2486      1066      2535      2568
 -1      2029    3    0    1
 -2      1636       408      1716      1771
 -1      2030    3    0    1
 -2       852       706      2201      2225
 -1      2031    3    0    1
 -2      1715      1670      1738      1879
 -1      2032    3    0    1
 -2       291       413       797      1729
 -1      2033    3    0    1
 -2      2545      2595      2650      2685
 -1      2034    3    0    1
 -2      1634      1646      1752      1780
 -1      2035    3    0    1
 -2       195       199       766      1051
 -1      2036    3    0    1
 -2      1538      1633      1642      1787
 -1      2037    3    0    1
 -2       569      1045      1041       576
 -1      2038    3    0    1
 -2      2059      1882      2118      2119
 -1      2039    3    0    1
 -2       585      1068       584       590
 -1      2040    3    0    1
 -2       231      1090       230      1074
 -1      2041    3    0    1
 -2       689      1210       831      1769
 -1      2042    3    0    1
 -2      1636      1567      1716      1769
 -1      2043    3    0    1
 -2       690       702       849      1688
 -1      2044    3    0    1
 -2      1674      1067      1819      1874
 -1      2045    3    0    1
 -2        91       396      1842      1900
 -1      2046    3    0    1
 -2       571      1049       579      1052
 -1      2047    3    0    1
 -2      1533      1778      1881      1966
 -1      2048    3    0    1
 -2      1558      1619      1687      1804
 -1      2049    3    0    1
 -2       496       507      1945      2156
 -1      2050    3    0    1
 -2       566       563      1028      1840
 -1      2051    3    0    1
 -2       341      1209      1565      1713
 -1      2052    3    0    1
 -2       560      1033      1030       567
 -1      2053    3    0    1
 -2      1698       128      2459      2096
 -1      2054    3    0    1
 -2      1592      1539      1613      1794
 -1      2055    3    0    1
 -2       156      1007       153       164
 -1      2056    3    0    1
 -2       570      1041       569       764
 -1      2057    3    0    1
 -2      1784      1543      1788      1814
 -1      2058    3    0    1
 -2       547      1005       998       755
 -1      2059    3    0    1
 -2       153      1005       156       755
 -1      2060    3    0    1
 -2      1117       623      1872      1941
 -1      2061    3    0    1
 -2       288       851      1563      1762
 -1      2062    3    0    1
 -2      1140       638      1136      1666
 -1      2063    3    0    1
 -2      1572      1562      1655      1663
 -1      2064    3    0    1
 -2       660       659      1616      1852
 -1      2065    3    0    1
 -2       188      1565      1738      1862
 -1      2066    3    0    1
 -2       828       682      1679      1767
 -1      2067    3    0    1
 -2      1530       994      1826       328
 -1      2068    3    0    1
 -2      1967       375      2150      2511
 -1      2069    3    0    1
 -2      1323      1218      2233      2253
 -1      2070    3    0    1
 -2       452       866       459       451
 -1      2071    3    0    1
 -2         8       865        16       866
 -1      2072    3    0    1
 -2        17       867       384        12
 -1      2073    3    0    1
 -2       463       884       471       717
 -1      2074    3    0    1
 -2         8       865       853         4
 -1      2075    3    0    1
 -2         4       865       391        16
 -1      2076    3    0    1
 -2      2540      2555      2613      2614
 -1      2077    3    0    1
 -2      1595      1557      1621      1703
 -1      2078    3    0    1
 -2      1606      1554      1746      1998
 -1      2079    3    0    1
 -2       428       216      1995      2035
 -1      2080    3    0    1
 -2       484       495       723      1939
 -1      2081    3    0    1
 -2      1689       396      1842      1945
 -1      2082    3    0    1
 -2       460       471       884      1850
 -1      2083    3    0    1
 -2       642      1145      1633      1737
 -1      2084    3    0    1
 -2       461       883       877       470
 -1      2085    3    0    1
 -2       678      1192      1683      1744
 -1      2086    3    0    1
 -2      1194       679       680      1654
 -1      2087    3    0    1
 -2       614       611      1104      1653
 -1      2088    3    0    1
 -2         8       865         4        16
 -1      2089    3    0    1
 -2       322      1213       842      1599
 -1      2090    3    0    1
 -2      2001       795      2017      2039
 -1      2091    3    0    1
 -2       700      1733      1756      1835
 -1      2092    3    0    1
 -2      1561      1522      1898      1912
 -1      2093    3    0    1
 -2      1156      1668      1700      1776
 -1      2094    3    0    1
 -2       938        85      1614      1999
 -1      2095    3    0    1
 -2      2578      2637      1451      2715
 -1      2096    3    0    1
 -2      2111      1917      2489      2523
 -1      2097    3    0    1
 -2       428       216      1069      1995
 -1      2098    3    0    1
 -2       339      1023      1722      1846
 -1      2099    3    0    1
 -2       449       861       711       456
 -1      2100    3    0    1
 -2      1545      1592      1613      1805
 -1      2101    3    0    1
 -2      2359      1496      2713      2729
 -1      2102    3    0    1
 -2      2580      2586      2630      2634
 -1      2103    3    0    1
 -2      1226      2509      2537      2538
 -1      2104    3    0    1
 -2      1160      1163      1597      1712
 -1      2105    3    0    1
 -2       453       458       455       863
 -1      2106    3    0    1
 -2       689       845       698      1657
 -1      2107    3    0    1
 -2       454       863       453       710
 -1      2108    3    0    1
 -2       859       453       455       863
 -1      2109    3    0    1
 -2       916       492      1865      1948
 -1      2110    3    0    1
 -2       516      1682      1801      2000
 -1      2111    3    0    1
 -2       454       864       453       458
 -1      2112    3    0    1
 -2       453       857       709       864
 -1      2113    3    0    1
 -2       858       453       709       864
 -1      2114    3    0    1
 -2       453       858       455       864
 -1      2115    3    0    1
 -2       857         8       709       864
 -1      2116    3    0    1
 -2         8       858       709       864
 -1      2117    3    0    1
 -2       858         8        16       864
 -1      2118    3    0    1
 -2      1537      1700      1705      1812
 -1      2119    3    0    1
 -2       433        56      2128      2130
 -1      2120    3    0    1
 -2         6       866       417        18
 -1      2121    3    0    1
 -2       854       451       853       866
 -1      2122    3    0    1
 -2       451       865       853       866
 -1      2123    3    0    1
 -2         8       854       853       866
 -1      2124    3    0    1
 -2       452       866       451       854
 -1      2125    3    0    1
 -2        17       867        12       855
 -1      2126    3    0    1
 -2        14        12       384       867
 -1      2127    3    0    1
 -2         5       855        12       867
 -1      2128    3    0    1
 -2       451       855       708       867
 -1      2129    3    0    1
 -2       712       451       708       867
 -1      2130    3    0    1
 -2       855         5       708       867
 -1      2131    3    0    1
 -2       868       883       870        24
 -1      2132    3    0    1
 -2        29       878       871        22
 -1      2133    3    0    1
 -2       714       880       876        25
 -1      2134    3    0    1
 -2        23       884       872        21
 -1      2135    3    0    1
 -2      2549      1256      2582      1354
 -1      2136    3    0    1
 -2        33       885       873        26
 -1      2137    3    0    1
 -2        26       885       431        34
 -1      2138    3    0    1
 -2       717       463       872       875
 -1      2139    3    0    1
 -2        21       717       872       875
 -1      2140    3    0    1
 -2        21        24       717       875
 -1      2141    3    0    1
 -2       366      1050      1913      2011
 -1      2142    3    0    1
 -2       714       880       465       876
 -1      2143    3    0    1
 -2      1784      1542      1814      2006
 -1      2144    3    0    1
 -2      1547      1210      1657      1769
 -1      2145    3    0    1
 -2      1555       408      1591      1771
 -1      2146    3    0    1
 -2       754       552      1010      1849
 -1      2147    3    0    1
 -2       462       877       461       868
 -1      2148    3    0    1
 -2       868       883       461       870
 -1      2149    3    0    1
 -2        29       878        22       408
 -1      2150    3    0    1
 -2        29       882       869       878
 -1      2151    3    0    1
 -2      2591      1370      1395      2716
 -1      2152    3    0    1
 -2       354      1412      1474      2699
 -1      2153    3    0    1
 -2      1206       445       446      1554
 -1      2154    3    0    1
 -2       312       406       802      1650
 -1      2155    3    0    1
 -2       914      1803      1805      1907
 -1      2156    3    0    1
 -2       958      2138      2471      2166
 -1      2157    3    0    1
 -2        49       899        46       433
 -1      2158    3    0    1
 -2      2098       588      2162      2519
 -1      2159    3    0    1
 -2       714       880        25       716
 -1      2160    3    0    1
 -2       880       714       465       716
 -1      2161    3    0    1
 -2       465       716       469       880
 -1      2162    3    0    1
 -2      1823      1535       329      1620
 -1      2163    3    0    1
 -2       462       882       461       467
 -1      2164    3    0    1
 -2       882       462       878       467
 -1      2165    3    0    1
 -2      1726       748      1789      2080
 -1      2166    3    0    1
 -2      1635       515      1858      1981
 -1      2167    3    0    1
 -2        24       883        21        38
 -1      2168    3    0    1
 -2       883        24       877        38
 -1      2169    3    0    1
 -2       868       883        24       877
 -1      2170    3    0    1
 -2       552       565      1849      2066
 -1      2171    3    0    1
 -2      1531      1179       300      1611
 -1      2172    3    0    1
 -2      1797      1674      1862      1994
 -1      2173    3    0    1
 -2        36        21       717       884
 -1      2174    3    0    1
 -2       717        21       872       884
 -1      2175    3    0    1
 -2       463       884       717       872
 -1      2176    3    0    1
 -2        36       392        21       884
 -1      2177    3    0    1
 -2        33       885        26        34
 -1      2178    3    0    1
 -2       885        33       718        34
 -1      2179    3    0    1
 -2        46       724       891       903
 -1      2180    3    0    1
 -2      1545        67      1613      1614
 -1      2181    3    0    1
 -2       641      1146       797      1737
 -1      2182    3    0    1
 -2       890        42       722       896
 -1      2183    3    0    1
 -2       973       528      1682      1789
 -1      2184    3    0    1
 -2        57        45       723      1944
 -1      2185    3    0    1
 -2       488       917       493       492
 -1      2186    3    0    1
 -2      2587      2512      2605      2672
 -1      2187    3    0    1
 -2        49       892       891        46
 -1      2188    3    0    1
 -2       475       892       724       891
 -1      2189    3    0    1
 -2        51       903        56        49
 -1      2190    3    0    1
 -2        13       414      1630      1973
 -1      2191    3    0    1
 -2      1180      1684      1881      1966
 -1      2192    3    0    1
 -2       479       901       482       473
 -1      2193    3    0    1
 -2       486       920       491       494
 -1      2194    3    0    1
 -2       664       807      1600      1684
 -1      2195    3    0    1
 -2       336      1966      1161       301
 -1      2196    3    0    1
 -2       106      1544      1571      1677
 -1      2197    3    0    1
 -2        50        40        39       902
 -1      2198    3    0    1
 -2       972      1622      1623      1749
 -1      2199    3    0    1
 -2       889       473       888       895
 -1      2200    3    0    1
 -2       473       901       888       895
 -1      2201    3    0    1
 -2      1122       626      1631      1641
 -1      2202    3    0    1
 -2      1612      1527      1733      1740
 -1      2203    3    0    1
 -2      1623      1622      1734      1749
 -1      2204    3    0    1
 -2      1593       520      1860      1953
 -1      2205    3    0    1
 -2      1082       226      1750      1806
 -1      2206    3    0    1
 -2      1777      2070      2555      2613
 -1      2207    3    0    1
 -2      2676      2252      2424      2744
 -1      2208    3    0    1
 -2      2193      2223      2587      2672
 -1      2209    3    0    1
 -2       625       624      1934      2525
 -1      2210    3    0    1
 -2      2517      1223      2518      2585
 -1      2211    3    0    1
 -2      1525      1530      1597      1826
 -1      2212    3    0    1
 -2        55        37      2018      2025
 -1      2213    3    0    1
 -2      1628      1556      1779      1870
 -1      2214    3    0    1
 -2       238      2691      1500      1501
 -1      2215    3    0    1
 -2      1426      1359      2396      1512
 -1      2216    3    0    1
 -2       477       894       720       898
 -1      2217    3    0    1
 -2        46       720       898       899
 -1      2218    3    0    1
 -2      1223      1224      2517      2518
 -1      2219    3    0    1
 -2       415      1576      1606      1859
 -1      2220    3    0    1
 -2        45        39        50       901
 -1      2221    3    0    1
 -2       627      1125      1126      2013
 -1      2222    3    0    1
 -2       748       541      1726      1789
 -1      2223    3    0    1
 -2       479       901       473       895
 -1      2224    3    0    1
 -2       895        39        45       901
 -1      2225    3    0    1
 -2        40       901        39       888
 -1      2226    3    0    1
 -2        45        39       723       902
 -1      2227    3    0    1
 -2        39        45        50       902
 -1      2228    3    0    1
 -2       659      1173       660      1616
 -1      2229    3    0    1
 -2       335      1649      1659      1749
 -1      2230    3    0    1
 -2       475       902       723       886
 -1      2231    3    0    1
 -2        50        55        40       902
 -1      2232    3    0    1
 -2        39        40       886       902
 -1      2233    3    0    1
 -2        56       433        49       903
 -1      2234    3    0    1
 -2       484       483       724      1990
 -1      2235    3    0    1
 -2       300      1611      1179       299
 -1      2236    3    0    1
 -2        61       921       907        59
 -1      2237    3    0    1
 -2        59       921       396        66
 -1      2238    3    0    1
 -2        68       916       372        62
 -1      2239    3    0    1
 -2      1754      2050      2051      2467
 -1      2240    3    0    1
 -2        71       919        65       393
 -1      2241    3    0    1
 -2       487       914       911       486
 -1      2242    3    0    1
 -2      1510      2431      2451      2456
 -1      2243    3    0    1
 -2       106      1635      1677      1681
 -1      2244    3    0    1
 -2      1213       322       447      1599
 -1      2245    3    0    1
 -2      1028       329      1624      1830
 -1      2246    3    0    1
 -2       673      1187       674      1718
 -1      2247    3    0    1
 -2      2138       958      2471      2502
 -1      2248    3    0    1
 -2      1731       591      1935      2010
 -1      2249    3    0    1
 -2      1542       933      1783      1802
 -1      2250    3    0    1
 -2       353       744      1772      2459
 -1      2251    3    0    1
 -2      1978      1868      1988      2035
 -1      2252    3    0    1
 -2       305      1194       307      1559
 -1      2253    3    0    1
 -2       306       424       822      1909
 -1      2254    3    0    1
 -2       487       913       909       910
 -1      2255    3    0    1
 -2       909        60       910       913
 -1      2256    3    0    1
 -2        60       920       373       913
 -1      2257    3    0    1
 -2       932        76        86       939
 -1      2258    3    0    1
 -2        65       914       908       911
 -1      2259    3    0    1
 -2       393      1805       914        67
 -1      2260    3    0    1
 -2       908       486       911       914
 -1      2261    3    0    1
 -2       486       919       494       914
 -1      2262    3    0    1
 -2      1594       990      1626      1702
 -1      2263    3    0    1
 -2      1558      1521      1607      1725
 -1      2264    3    0    1
 -2      2392      2278      2395      2396
 -1      2265    3    0    1
 -2      1293      1294      2568      2649
 -1      2266    3    0    1
 -2       932        86        92      1739
 -1      2267    3    0    1
 -2      1856      1009      2066      2472
 -1      2268    3    0    1
 -2       568      1761      1923      2116
 -1      2269    3    0    1
 -2      2591      1329      1370      2340
 -1      2270    3    0    1
 -2       657       805       658      1581
 -1      2271    3    0    1
 -2      1011      1271      1272      2564
 -1      2272    3    0    1
 -2        87       936        78        88
 -1      2273    3    0    1
 -2      1318      1317      1383      2604
 -1      2274    3    0    1
 -2      1369      2649      1482      1483
 -1      2275    3    0    1
 -2      2575      1373      1374      2641
 -1      2276    3    0    1
 -2        68       916        62       912
 -1      2277    3    0    1
 -2        62       904       912       916
 -1      2278    3    0    1
 -2        62       917       904       916
 -1      2279    3    0    1
 -2      1350      2230      2248      2271
 -1      2280    3    0    1
 -2       456       469      2114      2171
 -1      2281    3    0    1
 -2       914        65       908       919
 -1      2282    3    0    1
 -2      1916      2075      2150      2511
 -1      2283    3    0    1
 -2       486       919       914       908
 -1      2284    3    0    1
 -2       393       914       919        65
 -1      2285    3    0    1
 -2      1254      2559      1329      1330
 -1      2286    3    0    1
 -2      1736      1754      1832      2060
 -1      2287    3    0    1
 -2      1573      1656      1907      1929
 -1      2288    3    0    1
 -2       487       920       486       909
 -1      2289    3    0    1
 -2        60       920       913       909
 -1      2290    3    0    1
 -2      1582      1589      1880      1714
 -1      2291    3    0    1
 -2       844       694       841      1711
 -1      2292    3    0    1
 -2      2058      2059      2060      2099
 -1      2293    3    0    1
 -2        68       372       728       923
 -1      2294    3    0    1
 -2       395       296      1581      1853
 -1      2295    3    0    1
 -2        61       921        59        66
 -1      2296    3    0    1
 -2        61       921        66       922
 -1      2297    3    0    1
 -2       921        61       727       922
 -1      2298    3    0    1
 -2        60        61        66       922
 -1      2299    3    0    1
 -2       490       922       485       727
 -1      2300    3    0    1
 -2        60       373       374       922
 -1      2301    3    0    1
 -2        61        60       727       922
 -1      2302    3    0    1
 -2       921       485       496       922
 -1      2303    3    0    1
 -2        62       381        72       923
 -1      2304    3    0    1
 -2        62        68       726       923
 -1      2305    3    0    1
 -2       496       485       728       923
 -1      2306    3    0    1
 -2      2063      2492      2191      2198
 -1      2307    3    0    1
 -2      1015       162      1523      1800
 -1      2308    3    0    1
 -2       502       944       931       497
 -1      2309    3    0    1
 -2       331       755      1918      2093
 -1      2310    3    0    1
 -2      1570      1532      1743      1921
 -1      2311    3    0    1
 -2       755       556      1032      1918
 -1      2312    3    0    1
 -2       957       102       956       940
 -1      2313    3    0    1
 -2       512       959       953       518
 -1      2314    3    0    1
 -2       503       939       506       498
 -1      2315    3    0    1
 -2       302       401       809      1544
 -1      2316    3    0    1
 -2      1575      1548      1668      1743
 -1      2317    3    0    1
 -2       523       978       531       743
 -1      2318    3    0    1
 -2       928       498       927       932
 -1      2319    3    0    1
 -2       498       939       927       932
 -1      2320    3    0    1
 -2       932        76       927       928
 -1      2321    3    0    1
 -2       499       933       498       503
 -1      2322    3    0    1
 -2       498       929       926       933
 -1      2323    3    0    1
 -2       929        77       926       933
 -1      2324    3    0    1
 -2        77       938       926       933
 -1      2325    3    0    1
 -2       329      1569      1620      1785
 -1      2326    3    0    1
 -2      2493      2063      1258      2198
 -1      2327    3    0    1
 -2      1258      2492      2198      2557
 -1      2328    3    0    1
 -2      1028      1799      1830      1840
 -1      2329    3    0    1
 -2      1075       221      2205      2247
 -1      2330    3    0    1
 -2       100       957       110       111
 -1      2331    3    0    1
 -2       885       718       471      1911
 -1      2332    3    0    1
 -2       346      1808      1899      2035
 -1      2333    3    0    1
 -2        78       935       730       930
 -1      2334    3    0    1
 -2       500       930       730       935
 -1      2335    3    0    1
 -2       324       148       996      1658
 -1      2336    3    0    1
 -2      1569      1526      1620      1785
 -1      2337    3    0    1
 -2      1536      1832      2045      2046
 -1      2338    3    0    1
 -2      1622      1734      1749      1826
 -1      2339    3    0    1
 -2      2115      1708      2491      2734
 -1      2340    3    0    1
 -2       503       938       498       506
 -1      2341    3    0    1
 -2       498       938       933       926
 -1      2342    3    0    1
 -2      1099      1920      1987      2031
 -1      2343    3    0    1
 -2       995       542      1602      1665
 -1      2344    3    0    1
 -2       503       939       498       932
 -1      2345    3    0    1
 -2      1176       661      1578      1605
 -1      2346    3    0    1
 -2        79       939        76       927
 -1      2347    3    0    1
 -2      1166       653       654      1919
 -1      2348    3    0    1
 -2       523       969       743       524
 -1      2349    3    0    1
 -2      1146       642      1729      1737
 -1      2350    3    0    1
 -2       511       956       949       510
 -1      2351    3    0    1
 -2      1306      2522      2566      2620
 -1      2352    3    0    1
 -2        82        90        78       941
 -1      2353    3    0    1
 -2      1611      1531      1659      1714
 -1      2354    3    0    1
 -2        89        87       931       944
 -1      2355    3    0    1
 -2       502       943       497       732
 -1      2356    3    0    1
 -2        95        92        76       942
 -1      2357    3    0    1
 -2        76       732       925       942
 -1      2358    3    0    1
 -2       942       497       732       925
 -1      2359    3    0    1
 -2        91        79        86       943
 -1      2360    3    0    1
 -2        76        79       732       943
 -1      2361    3    0    1
 -2      1603      1173      1616      1852
 -1      2362    3    0    1
 -2        78        82       941       944
 -1      2363    3    0    1
 -2        82        78        88       944
 -1      2364    3    0    1
 -2       924        78       941       944
 -1      2365    3    0    1
 -2        89        88        87       944
 -1      2366    3    0    1
 -2        78       931        87       944
 -1      2367    3    0    1
 -2       931        78       924       944
 -1      2368    3    0    1
 -2       497       931       924       944
 -1      2369    3    0    1
 -2       941       497       924       944
 -1      2370    3    0    1
 -2       523       969       962       743
 -1      2371    3    0    1
 -2       566      1624      1822      1830
 -1      2372    3    0    1
 -2       302       809      1181      1544
 -1      2373    3    0    1
 -2      2060      2081      2482      2507
 -1      2374    3    0    1
 -2       112       959       113       104
 -1      2375    3    0    1
 -2       733       959       104       953
 -1      2376    3    0    1
 -2       106       950       107       952
 -1      2377    3    0    1
 -2       107       108       106       952
 -1      2378    3    0    1
 -2       146       750       997      1692
 -1      2379    3    0    1
 -2       895        57      1834      1944
 -1      2380    3    0    1
 -2      1163       293      1160      1597
 -1      2381    3    0    1
 -2       519       520       737      1860
 -1      2382    3    0    1
 -2       675      1190       676      1845
 -1      2383    3    0    1
 -2      1627       342      2008      2041
 -1      2384    3    0    1
 -2       513       953       512       733
 -1      2385    3    0    1
 -2       733       959       953       512
 -1      2386    3    0    1
 -2       959       733       104       951
 -1      2387    3    0    1
 -2       734       960       509       737
 -1      2388    3    0    1
 -2       108       954       106       952
 -1      2389    3    0    1
 -2      1066      1064       589      2098
 -1      2390    3    0    1
 -2      2490      2097      2179      2183
 -1      2391    3    0    1
 -2      1322      2284      1458      2410
 -1      2392    3    0    1
 -2      2688      2660      2691      2727
 -1      2393    3    0    1
 -2      1788      1543      1895      1937
 -1      2394    3    0    1
 -2      1107      1735      1847      2031
 -1      2395    3    0    1
 -2       716      1524      1993      2145
 -1      2396    3    0    1
 -2        10       712      1997      2127
 -1      2397    3    0    1
 -2       102       956       940       949
 -1      2398    3    0    1
 -2       940       510       949       956
 -1      2399    3    0    1
 -2       510       957       517       956
 -1      2400    3    0    1
 -2       510       957       956       940
 -1      2401    3    0    1
 -2       349       116      2465      2466
 -1      2402    3    0    1
 -2      1447      1341      1452      2439
 -1      2403    3    0    1
 -2       733       959       512       951
 -1      2404    3    0    1
 -2       953       104       115       959
 -1      2405    3    0    1
 -2      1526      1643      1757      1876
 -1      2406    3    0    1
 -2       112       959       104       951
 -1      2407    3    0    1
 -2       960       734       112       737
 -1      2408    3    0    1
 -2       735       961       509       947
 -1      2409    3    0    1
 -2       111       100       400       961
 -1      2410    3    0    1
 -2       114       961       100       947
 -1      2411    3    0    1
 -2       522       971       527       521
 -1      2412    3    0    1
 -2      2209      1325      2235      2255
 -1      2413    3    0    1
 -2       164       327      1014      1763
 -1      2414    3    0    1
 -2       523       968       524       744
 -1      2415    3    0    1
 -2      1014       555      1523      1763
 -1      2416    3    0    1
 -2       145       146       750       997
 -1      2417    3    0    1
 -2       118       968       967       744
 -1      2418    3    0    1
 -2       523       968       744       967
 -1      2419    3    0    1
 -2       133       979       349       118
 -1      2420    3    0    1
 -2       535       996       543       544
 -1      2421    3    0    1
 -2       123       974       353       118
 -1      2422    3    0    1
 -2       298      1178       334      1696
 -1      2423    3    0    1
 -2       527       977       530       521
 -1      2424    3    0    1
 -2      1192       677       678      1683
 -1      2425    3    0    1
 -2       864      1796      1837      2012
 -1      2426    3    0    1
 -2       392       391       865      1963
 -1      2427    3    0    1
 -2       381        72       923      2494
 -1      2428    3    0    1
 -2       533       995       539       542
 -1      2429    3    0    1
 -2       303       832      1567      1903
 -1      2430    3    0    1
 -2       521       977       964       971
 -1      2431    3    0    1
 -2       965       521       964       971
 -1      2432    3    0    1
 -2      1149       643      1148      1693
 -1      2433    3    0    1
 -2        46       724       903      1990
 -1      2434    3    0    1
 -2       722       479       896      1950
 -1      2435    3    0    1
 -2       121       972       119       966
 -1      2436    3    0    1
 -2       966       119       963       972
 -1      2437    3    0    1
 -2       521       966       963       972
 -1      2438    3    0    1
 -2       441       440      1740      1774
 -1      2439    3    0    1
 -2       978       126      1811      1905
 -1      2440    3    0    1
 -2       119       976       963       972
 -1      2441    3    0    1
 -2       335       976       404       119
 -1      2442    3    0    1
 -2      2485      1243      2570      2642
 -1      2443    3    0    1
 -2      1545      1540      1613      1645
 -1      2444    3    0    1
 -2       819      1188      1561      1718
 -1      2445    3    0    1
 -2      1521      1732      1765      1920
 -1      2446    3    0    1
 -2       123       974       118       970
 -1      2447    3    0    1
 -2       742       118       127       974
 -1      2448    3    0    1
 -2       118       742       740       974
 -1      2449    3    0    1
 -2       970       118       740       974
 -1      2450    3    0    1
 -2       742       525       740       974
 -1      2451    3    0    1
 -2       525       970       740       974
 -1      2452    3    0    1
 -2       527       976       521       530
 -1      2453    3    0    1
 -2      2503      2481      2564      2612
 -1      2454    3    0    1
 -2      1538      1551      1577      1961
 -1      2455    3    0    1
 -2      1148      1550      1662      1693
 -1      2456    3    0    1
 -2       829       341      1565      1879
 -1      2457    3    0    1
 -2       527       977       521       971
 -1      2458    3    0    1
 -2      1685       419      1867      1870
 -1      2459    3    0    1
 -2       125       977       120       964
 -1      2460    3    0    1
 -2       743       120       962       978
 -1      2461    3    0    1
 -2       126       125       120       978
 -1      2462    3    0    1
 -2       120       125       962       978
 -1      2463    3    0    1
 -2      1189      1190      1845      1902
 -1      2464    3    0    1
 -2       523       978       743       962
 -1      2465    3    0    1
 -2       131       125       126       978
 -1      2466    3    0    1
 -2       133       979       118       967
 -1      2467    3    0    1
 -2       349       127       118       979
 -1      2468    3    0    1
 -2       536       996       980       535
 -1      2469    3    0    1
 -2       147       996       980       136
 -1      2470    3    0    1
 -2       146       145       137       997
 -1      2471    3    0    1
 -2       536       996       749       980
 -1      2472    3    0    1
 -2       706      2201      2225      2237
 -1      2473    3    0    1
 -2       416      1639      1666      1746
 -1      2474    3    0    1
 -2       535       997       544       543
 -1      2475    3    0    1
 -2       547      1014       555       755
 -1      2476    3    0    1
 -2       536       997       544       535
 -1      2477    3    0    1
 -2       151       997       343       137
 -1      2478    3    0    1
 -2       536       997       750       544
 -1      2479    3    0    1
 -2       746       992       137       748
 -1      2480    3    0    1
 -2      1528      1636      1716      1771
 -1      2481    3    0    1
 -2       324       148       136       996
 -1      2482    3    0    1
 -2       954       515      1635      1981
 -1      2483    3    0    1
 -2       153      1013      1007      1000
 -1      2484    3    0    1
 -2       534       989       982       983
 -1      2485    3    0    1
 -2       373       374      1689      2022
 -1      2486    3    0    1
 -2       982       136       983       989
 -1      2487    3    0    1
 -2       136       995       148       989
 -1      2488    3    0    1
 -2      1151      1959       317      1152
 -1      2489    3    0    1
 -2       425      1063      1809      1978
 -1      2490    3    0    1
 -2       135       990       981       984
 -1      2491    3    0    1
 -2       981       533       984       990
 -1      2492    3    0    1
 -2       533       994       542       990
 -1      2493    3    0    1
 -2       990       135       981       994
 -1      2494    3    0    1
 -2       457       456       862      2237
 -1      2495    3    0    1
 -2       395       296       803      1581
 -1      2496    3    0    1
 -2      2033      2130      2174      2527
 -1      2497    3    0    1
 -2       746       992       538       988
 -1      2498    3    0    1
 -2       748       137       144       992
 -1      2499    3    0    1
 -2       145       992       137       988
 -1      2500    3    0    1
 -2       431      1524      2073      2145
 -1      2501    3    0    1
 -2       431       430      1524      2145
 -1      2502    3    0    1
 -2      1856      2094      2478      2613
 -1      2503    3    0    1
 -2       959       113      1755      1782
 -1      2504    3    0    1
 -2       795       640      2017      2039
 -1      2505    3    0    1
 -2      1653       244      1732      1104
 -1      2506    3    0    1
 -2       953       959      1782      1981
 -1      2507    3    0    1
 -2      1301      2540      2555      2579
 -1      2508    3    0    1
 -2       533       994       990       981
 -1      2509    3    0    1
 -2       135       990       141       994
 -1      2510    3    0    1
 -2       135       141       328       994
 -1      2511    3    0    1
 -2       534       995       533       982
 -1      2512    3    0    1
 -2       136       995       989       982
 -1      2513    3    0    1
 -2       749       150       980       996
 -1      2514    3    0    1
 -2       136       150       324       996
 -1      2515    3    0    1
 -2       536       996       535       544
 -1      2516    3    0    1
 -2       996       536       749       544
 -1      2517    3    0    1
 -2       345       136       148       996
 -1      2518    3    0    1
 -2       150       136       980       996
 -1      2519    3    0    1
 -2       536       997       535       985
 -1      2520    3    0    1
 -2       137       343       144       997
 -1      2521    3    0    1
 -2       137       145       985       997
 -1      2522    3    0    1
 -2       151       997       137       985
 -1      2523    3    0    1
 -2       156      1007      1001       153
 -1      2524    3    0    1
 -2       547      1004       548       756
 -1      2525    3    0    1
 -2       547      1015       756       555
 -1      2526    3    0    1
 -2       152      1004      1003       756
 -1      2527    3    0    1
 -2       547      1004       756      1003
 -1      2528    3    0    1
 -2       154      1015       337       152
 -1      2529    3    0    1
 -2      1766      2505      2524      2633
 -1      2530    3    0    1
 -2       155      1010       365       152
 -1      2531    3    0    1
 -2       356       772      1935      2462
 -1      2532    3    0    1
 -2      2053      2067      2470      2522
 -1      2533    3    0    1
 -2      1612      1527      1661      1733
 -1      2534    3    0    1
 -2      1556      1779      1943      1956
 -1      2535    3    0    1
 -2       164      1013      1007       153
 -1      2536    3    0    1
 -2      1216       693       839      2023
 -1      2537    3    0    1
 -2       562      1029      1023       566
 -1      2538    3    0    1
 -2       882       470      1669      1985
 -1      2539    3    0    1
 -2      1699      1167      1724      1889
 -1      2540    3    0    1
 -2       546      1007       545      1001
 -1      2541    3    0    1
 -2      1001       545      1000      1007
 -1      2542    3    0    1
 -2       153      1001      1000      1007
 -1      2543    3    0    1
 -2       545      1013      1000      1007
 -1      2544    3    0    1
 -2       546      1008       545       551
 -1      2545    3    0    1
 -2       545      1002       999      1008
 -1      2546    3    0    1
 -2      1615      1628      1790      1870
 -1      2547    3    0    1
 -2      1002       159       999      1008
 -1      2548    3    0    1
 -2       159      1012       999      1008
 -1      2549    3    0    1
 -2      2486      2521      2596      2656
 -1      2550    3    0    1
 -2      1381      1446      2376      2403
 -1      2551    3    0    1
 -2      2628      2542      2675      2698
 -1      2552    3    0    1
 -2       650      1596      1647      1937
 -1      2553    3    0    1
 -2      1825      2514      2553      2519
 -1      2554    3    0    1
 -2       562      1028       561       761
 -1      2555    3    0    1
 -2      1679       682       827      1767
 -1      2556    3    0    1
 -2       529       516      1682      1801
 -1      2557    3    0    1
 -2      1597      1530      1778      1826
 -1      2558    3    0    1
 -2       155      1010       152      1006
 -1      2559    3    0    1
 -2       754       152       162      1010
 -1      2560    3    0    1
 -2       152       754       752      1010
 -1      2561    3    0    1
 -2      1006       152       752      1010
 -1      2562    3    0    1
 -2       754       549       752      1010
 -1      2563    3    0    1
 -2       549      1006       752      1010
 -1      2564    3    0    1
 -2      1548      1570      1743      1921
 -1      2565    3    0    1
 -2       314      1211       397      1664
 -1      2566    3    0    1
 -2       303      1184       409      1903
 -1      2567    3    0    1
 -2      1564      1715      1946      2024
 -1      2568    3    0    1
 -2       551      1013       545      1007
 -1      2569    3    0    1
 -2       164      1013       153       327
 -1      2570    3    0    1
 -2       153       164       327      1014
 -1      2571    3    0    1
 -2       547      1014       755       998
 -1      2572    3    0    1
 -2       325       153       327      1014
 -1      2573    3    0    1
 -2       758      1026       558      1016
 -1      2574    3    0    1
 -2       558      1026       762       565
 -1      2575    3    0    1
 -2        28       408      1669      1768
 -1      2576    3    0    1
 -2       560      1030      1018       559
 -1      2577    3    0    1
 -2       185       192      1049      1052
 -1      2578    3    0    1
 -2        31        34      1993      2034
 -1      2579    3    0    1
 -2       181      1030      1018       169
 -1      2580    3    0    1
 -2       765       185      1049      1052
 -1      2581    3    0    1
 -2       560      1030       759      1018
 -1      2582    3    0    1
 -2      1175       661      1605      1696
 -1      2583    3    0    1
 -2       560      1032       567      1031
 -1      2584    3    0    1
 -2       171      1029      1022       170
 -1      2585    3    0    1
 -2      1020      1029      1022       171
 -1      2586    3    0    1
 -2        95        92       942      1739
 -1      2587    3    0    1
 -2       177       362       169      1030
 -1      2588    3    0    1
 -2      1065       769       582       771
 -1      2589    3    0    1
 -2      1047      1717      1841      1965
 -1      2590    3    0    1
 -2      1025      1977      2062      2113
 -1      2591    3    0    1
 -2       195      1048       187      1040
 -1      2592    3    0    1
 -2       562      1023       561       566
 -1      2593    3    0    1
 -2       177       169      1018      1030
 -1      2594    3    0    1
 -2        72       372       923      1938
 -1      2595    3    0    1
 -2      1906       919      1929      1942
 -1      2596    3    0    1
 -2      1787      1642      1930      1984
 -1      2597    3    0    1
 -2      1637      1685      1727      1779
 -1      2598    3    0    1
 -2       174      1024       173      1021
 -1      2599    3    0    1
 -2       342       329       173      1024
 -1      2600    3    0    1
 -2       173       761      1021      1024
 -1      2601    3    0    1
 -2       173      1028       761      1024
 -1      2602    3    0    1
 -2      1642      1537      1729      1737
 -1      2603    3    0    1
 -2      1624      1569      1785      1821
 -1      2604    3    0    1
 -2      2542      1291      2585      2680
 -1      2605    3    0    1
 -2       447      1526      1599      1643
 -1      2606    3    0    1
 -2      1181       666      1667      1706
 -1      2607    3    0    1
 -2       758      1026       169       762
 -1      2608    3    0    1
 -2       558      1026       557      1016
 -1      2609    3    0    1
 -2      1026       758       558       762
 -1      2610    3    0    1
 -2      1679      1562      1767      1960
 -1      2611    3    0    1
 -2      1530      1525      1597      1701
 -1      2612    3    0    1
 -2      2141      2541      2244      2685
 -1      2613    3    0    1
 -2      1024       561       563      1028
 -1      2614    3    0    1
 -2      1029       171      1023       175
 -1      2615    3    0    1
 -2      1020      1029       171      1023
 -1      2616    3    0    1
 -2       586      1070      1054       581
 -1      2617    3    0    1
 -2       208      1065       356       359
 -1      2618    3    0    1
 -2      2558      2557      2612      2667
 -1      2619    3    0    1
 -2       759       177      1018      1030
 -1      2620    3    0    1
 -2      1551       393      1592      1907
 -1      2621    3    0    1
 -2       560      1030       559       567
 -1      2622    3    0    1
 -2       560      1033       759      1030
 -1      2623    3    0    1
 -2       347       169       362      1030
 -1      2624    3    0    1
 -2      1683      1560      1744      1818
 -1      2625    3    0    1
 -2       560      1031       559      1019
 -1      2626    3    0    1
 -2       339       175       171      1031
 -1      2627    3    0    1
 -2       171       170      1019      1031
 -1      2628    3    0    1
 -2       170       760      1019      1031
 -1      2629    3    0    1
 -2       182      1031       171      1019
 -1      2630    3    0    1
 -2       178       330       170      1032
 -1      2631    3    0    1
 -2       572      1051       571       766
 -1      2632    3    0    1
 -2       858       455       864      1837
 -1      2633    3    0    1
 -2       365       756      1980      2496
 -1      2634    3    0    1
 -2       574      1048      1040       573
 -1      2635    3    0    1
 -2      1764      1048      1841      1924
 -1      2636    3    0    1
 -2       723      1813      1939      1944
 -1      2637    3    0    1
 -2       803       296       805      1581
 -1      2638    3    0    1
 -2       417       864      1796      1837
 -1      2639    3    0    1
 -2       483       484       723      1990
 -1      2640    3    0    1
 -2       577       576       569      1041
 -1      2641    3    0    1
 -2      1796       459      1997      2017
 -1      2642    3    0    1
 -2       185      1041       192       193
 -1      2643    3    0    1
 -2      1247      1316      2561      2605
 -1      2644    3    0    1
 -2       764      1045      1041       569
 -1      2645    3    0    1
 -2      1045       764       185      1034
 -1      2646    3    0    1
 -2       764      1045       185      1041
 -1      2647    3    0    1
 -2        72       917      2123      2139
 -1      2648    3    0    1
 -2       651      1161      1712      1778
 -1      2649    3    0    1
 -2      1785      1757      1821      1876
 -1      2650    3    0    1
 -2       578       573       575      1048
 -1      2651    3    0    1
 -2      1202       685       686      1869
 -1      2652    3    0    1
 -2      1690      1802      1900      1999
 -1      2653    3    0    1
 -2      1462       438      1469      2416
 -1      2654    3    0    1
 -2      1612       696      1733      1756
 -1      2655    3    0    1
 -2      1563      1518      1762      1815
 -1      2656    3    0    1
 -2        43      1770      1787      1984
 -1      2657    3    0    1
 -2       764      1045       569      1034
 -1      2658    3    0    1
 -2       191      1045       185      1034
 -1      2659    3    0    1
 -2      1247      2548      1316      2605
 -1      2660    3    0    1
 -2      2548      1247      2561      2605
 -1      2661    3    0    1
 -2      1345      1299      2628      2663
 -1      2662    3    0    1
 -2      1831      2515      2383      2623
 -1      2663    3    0    1
 -2       376      2602      1447      1448
 -1      2664    3    0    1
 -2       995       345      1602      1623
 -1      2665    3    0    1
 -2       573       578       575      1047
 -1      2666    3    0    1
 -2       342      1024      1587      1839
 -1      2667    3    0    1
 -2       574      1047       573       767
 -1      2668    3    0    1
 -2      1043       573       575      1047
 -1      2669    3    0    1
 -2      1692       750      2074      2475
 -1      2670    3    0    1
 -2       574      1048       573       578
 -1      2671    3    0    1
 -2       573      1042       575      1048
 -1      2672    3    0    1
 -2      1042       187       189      1048
 -1      2673    3    0    1
 -2       573      1040      1038      1048
 -1      2674    3    0    1
 -2      1042       573      1038      1048
 -1      2675    3    0    1
 -2      1040       187      1038      1048
 -1      2676    3    0    1
 -2       187      1042      1038      1048
 -1      2677    3    0    1
 -2       769      1065       582      1053
 -1      2678    3    0    1
 -2       572      1052       571       579
 -1      2679    3    0    1
 -2       209      1065      1053       208
 -1      2680    3    0    1
 -2       192       198       191      1049
 -1      2681    3    0    1
 -2      1036       185       191      1049
 -1      2682    3    0    1
 -2       185      1036       765      1049
 -1      2683    3    0    1
 -2       187       766      1037      1050
 -1      2684    3    0    1
 -2      1050       571       766      1037
 -1      2685    3    0    1
 -2      1717       340      1841      1878
 -1      2686    3    0    1
 -2       189       187      1050      1051
 -1      2687    3    0    1
 -2       189       196       187      1051
 -1      2688    3    0    1
 -2       195       196       199      1051
 -1      2689    3    0    1
 -2       187       195       766      1051
 -1      2690    3    0    1
 -2      1062       587      1068      1808
 -1      2691    3    0    1
 -2       193       185       360      1052
 -1      2692    3    0    1
 -2       186      1052       185       765
 -1      2693    3    0    1
 -2       218       220       206      1054
 -1      2694    3    0    1
 -2      1639      1746      1943      1956
 -1      2695    3    0    1
 -2       581      1071       592       591
 -1      2696    3    0    1
 -2       209      1071      1055       205
 -1      2697    3    0    1
 -2       205      1071       219       359
 -1      2698    3    0    1
 -2       770      1071       772       586
 -1      2699    3    0    1
 -2       586      1071       772       592
 -1      2700    3    0    1
 -2      1525       141      1661      1701
 -1      2701    3    0    1
 -2       216       346      1899      2035
 -1      2702    3    0    1
 -2       585      1067       590      1063
 -1      2703    3    0    1
 -2      1210       689       698      1769
 -1      2704    3    0    1
 -2       217      1069       428       210
 -1      2705    3    0    1
 -2       234      1087       223      1077
 -1      2706    3    0    1
 -2      1042       575      1048      1924
 -1      2707    3    0    1
 -2      1070       586      1069       592
 -1      2708    3    0    1
 -2      1142       388      1872      2036
 -1      2709    3    0    1
 -2      1058      1068       584      1060
 -1      2710    3    0    1
 -2      1058      1068      1060       206
 -1      2711    3    0    1
 -2       206      1068       346      1062
 -1      2712    3    0    1
 -2        86        91       943      2021
 -1      2713    3    0    1
 -2       585      1063       584      1059
 -1      2714    3    0    1
 -2       590       584       587      1068
 -1      2715    3    0    1
 -2       211      1063      1057      1059
 -1      2716    3    0    1
 -2      1082       225       776      1086
 -1      2717    3    0    1
 -2      1670      1565      1738      1879
 -1      2718    3    0    1
 -2      2623      1328      2671      2745
 -1      2719    3    0    1
 -2      1308      1307      2551      1331
 -1      2720    3    0    1
 -2       788       625       624      1660
 -1      2721    3    0    1
 -2       209      1065       208       359
 -1      2722    3    0    1
 -2      1065       209       771       359
 -1      2723    3    0    1
 -2       769      1065       209       771
 -1      2724    3    0    1
 -2      1603      1616      1617      1852
 -1      2725    3    0    1
 -2      1063       211      1057      1067
 -1      2726    3    0    1
 -2       585      1067      1063      1057
 -1      2727    3    0    1
 -2       211      1063       425      1067
 -1      2728    3    0    1
 -2       429       211       425      1067
 -1      2729    3    0    1
 -2      1569      1526      1785      1876
 -1      2730    3    0    1
 -2        82       941      1721      2044
 -1      2731    3    0    1
 -2      1068       218      1808      1874
 -1      2732    3    0    1
 -2       805       657       803      1581
 -1      2733    3    0    1
 -2      1058      1068       206      1062
 -1      2734    3    0    1
 -2      1068      1058       584      1062
 -1      2735    3    0    1
 -2       584      1062       587      1068
 -1      2736    3    0    1
 -2       344       120       743      2005
 -1      2737    3    0    1
 -2      1632       542      1665      1734
 -1      2738    3    0    1
 -2       217      1069       210      1061
 -1      2739    3    0    1
 -2       216       210       428      1069
 -1      2740    3    0    1
 -2      1573      1551      1592      1907
 -1      2741    3    0    1
 -2       210      1054      1061      1069
 -1      2742    3    0    1
 -2       216       210      1069      1070
 -1      2743    3    0    1
 -2       346       218       206      1070
 -1      2744    3    0    1
 -2       586      1070       581       592
 -1      2745    3    0    1
 -2       210       206      1054      1070
 -1      2746    3    0    1
 -2       770      1071       586      1055
 -1      2747    3    0    1
 -2      1071       209       208       359
 -1      2748    3    0    1
 -2       231      1090       355       230
 -1      2749    3    0    1
 -2       920       494      1906      1942
 -1      2750    3    0    1
 -2       777       228      1074      1078
 -1      2751    3    0    1
 -2       224      1088       423       223
 -1      2752    3    0    1
 -2       236       234       223      1089
 -1      2753    3    0    1
 -2       416      1637      1639      1943
 -1      2754    3    0    1
 -2       188      1043      1674      1797
 -1      2755    3    0    1
 -2       601       600       594      1080
 -1      2756    3    0    1
 -2      2077      1882      2153      2484
 -1      2757    3    0    1
 -2      2463      1710      2537      2538
 -1      2758    3    0    1
 -2      1755       348      1773      1811
 -1      2759    3    0    1
 -2      1686       690      1688      1908
 -1      2760    3    0    1
 -2      1361      1228      2241      2258
 -1      2761    3    0    1
 -2      1725       383      1732      1741
 -1      2762    3    0    1
 -2       694      1209       840      1711
 -1      2763    3    0    1
 -2       228       230       774      1080
 -1      2764    3    0    1
 -2       230      1084      1080       228
 -1      2765    3    0    1
 -2       774      1084       594      1072
 -1      2766    3    0    1
 -2       230      1084       228       370
 -1      2767    3    0    1
 -2       774      1084      1072       228
 -1      2768    3    0    1
 -2       754       992      1857      2108
 -1      2769    3    0    1
 -2       396      1842      1945      2021
 -1      2770    3    0    1
 -2       229      1086       225       426
 -1      2771    3    0    1
 -2      1193       679      1590      1654
 -1      2772    3    0    1
 -2       669      1183       815      1680
 -1      2773    3    0    1
 -2       400       111       961      2498
 -1      2774    3    0    1
 -2        90       400       961      2498
 -1      2775    3    0    1
 -2      2569      2608      1415      2308
 -1      2776    3    0    1
 -2       649       650      1596      1647
 -1      2777    3    0    1
 -2       611       606       614      1104
 -1      2778    3    0    1
 -2      1317      2604      2612      2667
 -1      2779    3    0    1
 -2      1318      1383      1384      2604
 -1      2780    3    0    1
 -2        83      1266      2197      1287
 -1      2781    3    0    1
 -2       596       602       599      1086
 -1      2782    3    0    1
 -2       597      1086       596       776
 -1      2783    3    0    1
 -2      1082       596       599      1086
 -1      2784    3    0    1
 -2       426       225       226      1086
 -1      2785    3    0    1
 -2       225      1082       226      1086
 -1      2786    3    0    1
 -2       685      1202      1199      1869
 -1      2787    3    0    1
 -2      1591       414      1836      1873
 -1      2788    3    0    1
 -2      1594      1701       141      1702
 -1      2789    3    0    1
 -2      1159       800      1596      1937
 -1      2790    3    0    1
 -2       668      1182      1604      1897
 -1      2791    3    0    1
 -2       597      1087       596       602
 -1      2792    3    0    1
 -2       596      1081       599      1087
 -1      2793    3    0    1
 -2      1081       223       227      1087
 -1      2794    3    0    1
 -2       596      1077       775      1087
 -1      2795    3    0    1
 -2      1081       596       775      1087
 -1      2796    3    0    1
 -2      1077       223       775      1087
 -1      2797    3    0    1
 -2       223      1081       775      1087
 -1      2798    3    0    1
 -2       223       423       227      1088
 -1      2799    3    0    1
 -2       223      1073      1079      1088
 -1      2800    3    0    1
 -2      1536      1671      1708      1832
 -1      2801    3    0    1
 -2       593      1079      1073      1088
 -1      2802    3    0    1
 -2       593      1089       603      1088
 -1      2803    3    0    1
 -2       779      1102       609      1091
 -1      2804    3    0    1
 -2       609      1102       782       613
 -1      2805    3    0    1
 -2      1720      1674      1797      1994
 -1      2806    3    0    1
 -2       610      1106      1092       605
 -1      2807    3    0    1
 -2       251       253       780      1092
 -1      2808    3    0    1
 -2       251       249       253      1092
 -1      2809    3    0    1
 -2       249      1106       437       241
 -1      2810    3    0    1
 -2      1106       249       251      1092
 -1      2811    3    0    1
 -2       610      1106       780      1092
 -1      2812    3    0    1
 -2       610      1108       615      1107
 -1      2813    3    0    1
 -2       246      1105      1097       242
 -1      2814    3    0    1
 -2      1094      1105      1097       246
 -1      2815    3    0    1
 -2      1623       527      1817      2028
 -1      2816    3    0    1
 -2       825       679      1193      1654
 -1      2817    3    0    1
 -2      1206       849      1554      1686
 -1      2818    3    0    1
 -2       663      1180       806      1684
 -1      2819    3    0    1
 -2       972       335      1622      1749
 -1      2820    3    0    1
 -2      1619      1638      1687      1919
 -1      2821    3    0    1
 -2       607      1099       606       614
 -1      2822    3    0    1
 -2       922       495      1938      1939
 -1      2823    3    0    1
 -2      1571      1566      1647      2007
 -1      2824    3    0    1
 -2       993       991      1598      2094
 -1      2825    3    0    1
 -2      1709      1678      2045      2063
 -1      2826    3    0    1
 -2       555      1014      1704      1763
 -1      2827    3    0    1
 -2      1173       659      1172      1616
 -1      2828    3    0    1
 -2      2453      2443      1401      2345
 -1      2829    3    0    1
 -2       240      1100       244      1095
 -1      2830    3    0    1
 -2       162       337      2132      2475
 -1      2831    3    0    1
 -2       255      1108      1735      1958
 -1      2832    3    0    1
 -2      1728      1707      1773      1858
 -1      2833    3    0    1
 -2      1806      1560      1824      1910
 -1      2834    3    0    1
 -2      1155      1154      1729      1776
 -1      2835    3    0    1
 -2       359       771      2019      2042
 -1      2836    3    0    1
 -2      1031       178      1032      1923
 -1      2837    3    0    1
 -2       779      1102       249       782
 -1      2838    3    0    1
 -2       609      1102       608      1091
 -1      2839    3    0    1
 -2      1102       779       609       782
 -1      2840    3    0    1
 -2      1065       771      2009      2019
 -1      2841    3    0    1
 -2      2646      1450      2675      2698
 -1      2842    3    0    1
 -2      1460      2677      2687      2430
 -1      2843    3    0    1
 -2      2531      2474      2592      2678
 -1      2844    3    0    1
 -2       606      1095      1096      1104
 -1      2845    3    0    1
 -2       606      1100      1095      1104
 -1      2846    3    0    1
 -2      1100       606       611      1104
 -1      2847    3    0    1
 -2      1094      1105       246      1099
 -1      2848    3    0    1
 -2      1705       407      1812      1816
 -1      2849    3    0    1
 -2      1811       971      1817      2005
 -1      2850    3    0    1
 -2       780       251      1092      1106
 -1      2851    3    0    1
 -2      1736      1754      2159      2479
 -1      2852    3    0    1
 -2       610      1106       605       615
 -1      2853    3    0    1
 -2       249      1106       241      1092
 -1      2854    3    0    1
 -2       610      1109       780      1106
 -1      2855    3    0    1
 -2       243      1108       242       254
 -1      2856    3    0    1
 -2       801      1166      1804      1919
 -1      2857    3    0    1
 -2       246      1107       239       247
 -1      2858    3    0    1
 -2       610      1107       605      1093
 -1      2859    3    0    1
 -2       242       781      1093      1107
 -1      2860    3    0    1
 -2      1592       393      1805      1907
 -1      2861    3    0    1
 -2      1107       246       242       247
 -1      2862    3    0    1
 -2       254       242       255      1108
 -1      2863    3    0    1
 -2       252      1109       251       780
 -1      2864    3    0    1
 -2       620      1126       627       619
 -1      2865    3    0    1
 -2       421       422       260      1126
 -1      2866    3    0    1
 -2      1576       415      1606      1746
 -1      2867    3    0    1
 -2      1180       301       806      1966
 -1      2868    3    0    1
 -2      1531      1179      1611      1684
 -1      2869    3    0    1
 -2       270      1125       389       260
 -1      2870    3    0    1
 -2      1142       282      2036      2039
 -1      2871    3    0    1
 -2      1708      1536      2045      2046
 -1      2872    3    0    1
 -2       864      1837      1901      2012
 -1      2873    3    0    1
 -2       830       687      1643      1719
 -1      2874    3    0    1
 -2       257       264       375      1124
 -1      2875    3    0    1
 -2      1773      1728      1811      1983
 -1      2876    3    0    1
 -2       634      1141       633       638
 -1      2877    3    0    1
 -2       823       305       307      1559
 -1      2878    3    0    1
 -2       995       989       539      1665
 -1      2879    3    0    1
 -2       684       683      1670      1879
 -1      2880    3    0    1
 -2       344       743       996      1753
 -1      2881    3    0    1
 -2      1115       261       787      1118
 -1      2882    3    0    1
 -2       736       954      1635      1981
 -1      2883    3    0    1
 -2       261      1122       787      1118
 -1      2884    3    0    1
 -2       419      1122       420       261
 -1      2885    3    0    1
 -2        10       430       712      2495
 -1      2886    3    0    1
 -2      1548      1668      1700      1889
 -1      2887    3    0    1
 -2      1844       568      1923      2116
 -1      2888    3    0    1
 -2      1063       590       587      1978
 -1      2889    3    0    1
 -2      1605      1578      1652      1696
 -1      2890    3    0    1
 -2       990       539      1626      1702
 -1      2891    3    0    1
 -2       403      1635      1871      2003
 -1      2892    3    0    1
 -2       784      1120       617      1110
 -1      2893    3    0    1
 -2       788       257       264      1120
 -1      2894    3    0    1
 -2       259      1120       257      1110
 -1      2895    3    0    1
 -2      1349      2234      2603      1408
 -1      2896    3    0    1
 -2      2604      1383      2635      2667
 -1      2897    3    0    1
 -2      1461       435      1497      2445
 -1      2898    3    0    1
 -2      1081       599      1979      1982
 -1      2899    3    0    1
 -2       836      1645      1648      1664
 -1      2900    3    0    1
 -2       419      1122       261      1118
 -1      2901    3    0    1
 -2      1118       621       623      1122
 -1      2902    3    0    1
 -2       356      1935      2019      2462
 -1      2903    3    0    1
 -2      2543      1864      2567      2732
 -1      2904    3    0    1
 -2       622      1123       621       626
 -1      2905    3    0    1
 -2      1536      1709      1754      1832
 -1      2906    3    0    1
 -2       621      1116       786      1123
 -1      2907    3    0    1
 -2      1117       621       786      1123
 -1      2908    3    0    1
 -2       621      1117       623      1123
 -1      2909    3    0    1
 -2      1116       260       786      1123
 -1      2910    3    0    1
 -2       260      1117       786      1123
 -1      2911    3    0    1
 -2      1117       260       421      1123
 -1      2912    3    0    1
 -2       723        45      1813      1944
 -1      2913    3    0    1
 -2       259       375       271      1124
 -1      2914    3    0    1
 -2      1063      1588      1809      1868
 -1      2915    3    0    1
 -2       620      1127       619       627
 -1      2916    3    0    1
 -2       257       259       785      1124
 -1      2917    3    0    1
 -2       790      1138       629      1128
 -1      2918    3    0    1
 -2       421       260       389      1125
 -1      2919    3    0    1
 -2      1553      1691      1747      1903
 -1      2920    3    0    1
 -2      1628      1887      1908      1976
 -1      2921    3    0    1
 -2       620      1126       619      1113
 -1      2922    3    0    1
 -2       265       422       382      1126
 -1      2923    3    0    1
 -2      1113       260       265      1126
 -1      2924    3    0    1
 -2      1113       619      1112      1126
 -1      2925    3    0    1
 -2       619      1125      1112      1126
 -1      2926    3    0    1
 -2       260      1113      1112      1126
 -1      2927    3    0    1
 -2       257       785      1114      1127
 -1      2928    3    0    1
 -2       619      1114       785      1127
 -1      2929    3    0    1
 -2      1124       619       785      1127
 -1      2930    3    0    1
 -2       796       791       274      1143
 -1      2931    3    0    1
 -2       795       278      1130      1131
 -1      2932    3    0    1
 -2       941        90       961      2498
 -1      2933    3    0    1
 -2      1828       366      1874      1913
 -1      2934    3    0    1
 -2       216      1899      1995      2035
 -1      2935    3    0    1
 -2       284      1142       275       388
 -1      2936    3    0    1
 -2       284      1142      1131       275
 -1      2937    3    0    1
 -2       631       795      1130      1131
 -1      2938    3    0    1
 -2       251       256      1759      2480
 -1      2939    3    0    1
 -2       846       296       395      1793
 -1      2940    3    0    1
 -2      1090       230      1855      2462
 -1      2941    3    0    1
 -2      1529      1696      1748      1829
 -1      2942    3    0    1
 -2       539       990      1632      1702
 -1      2943    3    0    1
 -2       496       495       923      1938
 -1      2944    3    0    1
 -2       418       278       795      1142
 -1      2945    3    0    1
 -2       542       539      1632      1665
 -1      2946    3    0    1
 -2       415      1606      1666      1859
 -1      2947    3    0    1
 -2       792      1141       633      1134
 -1      2948    3    0    1
 -2       792      1141      1134       275
 -1      2949    3    0    1
 -2       275      1141       282      1135
 -1      2950    3    0    1
 -2       795       278      1131      1142
 -1      2951    3    0    1
 -2      1033      1030       567      1844
 -1      2952    3    0    1
 -2       634      1136       633      1133
 -1      2953    3    0    1
 -2      1065      1080      1676      2162
 -1      2954    3    0    1
 -2       276      1136       793      1133
 -1      2955    3    0    1
 -2      2594      1229      1453      2661
 -1      2956    3    0    1
 -2       862      1915      2468      2534
 -1      2957    3    0    1
 -2       957       517      2000      2052
 -1      2958    3    0    1
 -2      2274      2321      2665      2370
 -1      2959    3    0    1
 -2      1263      1257      2258      1416
 -1      2960    3    0    1
 -2      1138       279       794       280
 -1      2961    3    0    1
 -2       790      1138       279       794
 -1      2962    3    0    1
 -2       280       387      2075      2511
 -1      2963    3    0    1
 -2      1580      2071      2471      2502
 -1      2964    3    0    1
 -2      1241      1240      2512      1289
 -1      2965    3    0    1
 -2       494       491       914      1803
 -1      2966    3    0    1
 -2       634      1140      1136       793
 -1      2967    3    0    1
 -2       276      1136       415      1140
 -1      2968    3    0    1
 -2       415       416       276      1140
 -1      2969    3    0    1
 -2      1140       638      1584      1727
 -1      2970    3    0    1
 -2      1106       616      1735      1914
 -1      2971    3    0    1
 -2       178       330      1032      2088
 -1      2972    3    0    1
 -2       792      1141       275      1135
 -1      2973    3    0    1
 -2      1141       792       633      1135
 -1      2974    3    0    1
 -2       633      1135       635      1141
 -1      2975    3    0    1
 -2       275       278       418      1142
 -1      2976    3    0    1
 -2       632      1142       631      1131
 -1      2977    3    0    1
 -2       282       388       275      1142
 -1      2978    3    0    1
 -2       278       275      1131      1142
 -1      2979    3    0    1
 -2       631       640       795      1142
 -1      2980    3    0    1
 -2       387       280       279      1143
 -1      2981    3    0    1
 -2       279       274      1132      1143
 -1      2982    3    0    1
 -2       791       631      1132      1143
 -1      2983    3    0    1
 -2       631       796       640      1143
 -1      2984    3    0    1
 -2       274       791      1132      1143
 -1      2985    3    0    1
 -2       796       631       791      1143
 -1      2986    3    0    1
 -2       919      1907      1929      1942
 -1      2987    3    0    1
 -2       917       916        72      1952
 -1      2988    3    0    1
 -2       282      2001      2036      2039
 -1      2989    3    0    1
 -2      1938        72      1952      1996
 -1      2990    3    0    1
 -2      1023      1029       175      1722
 -1      2991    3    0    1
 -2       839      1216      1946      2024
 -1      2992    3    0    1
 -2       193       192      1052      1843
 -1      2993    3    0    1
 -2       381        72      2123      2139
 -1      2994    3    0    1
 -2       794      1120      1957      2125
 -1      2995    3    0    1
 -2      2013       264      2084      2477
 -1      2996    3    0    1
 -2       437       251       782      1927
 -1      2997    3    0    1
 -2      1844      1032      1918      2088
 -1      2998    3    0    1
 -2        66       913      1689      1842
 -1      2999    3    0    1
 -2      1014       555       755      1523
 -1      3000    3    0    1
 -2      1041      1675      2038      2170
 -1      3001    3    0    1
 -2       408      1547      1636      1716
 -1      3002    3    0    1
 -2      1136      1694      1859      1947
 -1      3003    3    0    1
 -2       882      1771      1810      1985
 -1      3004    3    0    1
 -2      1546      1707      1871      1955
 -1      3005    3    0    1
 -2       551      1013      1007      1751
 -1      3006    3    0    1
 -2      1800       162      2132      2475
 -1      3007    3    0    1
 -2      1668      1575      1724      1889
 -1      3008    3    0    1
 -2       810      1667      1883      1896
 -1      3009    3    0    1
 -2      1205       322       830      1599
 -1      3010    3    0    1
 -2       371       372      2110      2165
 -1      3011    3    0    1
 -2      1683      1560      1818      1909
 -1      3012    3    0    1
 -2      1542      1603      1617      1730
 -1      3013    3    0    1
 -2      1606       415      1666      1746
 -1      3014    3    0    1
 -2       425      1588      1663      1809
 -1      3015    3    0    1
 -2       244       383      1644      1741
 -1      3016    3    0    1
 -2       603      1090      1855      2462
 -1      3017    3    0    1
 -2       266       264      1127      2477
 -1      3018    3    0    1
 -2       416       415      1554      1746
 -1      3019    3    0    1
 -2      1573      1538      1656      1961
 -1      3020    3    0    1
 -2        86       932       939      1739
 -1      3021    3    0    1
 -2      1051       579      1888      2016
 -1      3022    3    0    1
 -2       506      1690      1791      1802
 -1      3023    3    0    1
 -2       439       293      1597      1835
 -1      3024    3    0    1
 -2      1047       188       340      1717
 -1      3025    3    0    1
 -2      1532       878      1570      1742
 -1      3026    3    0    1
 -2       413       291      1154      1729
 -1      3027    3    0    1
 -2      1173      1603      1616      1897
 -1      3028    3    0    1
 -2       410       292      1167      1889
 -1      3029    3    0    1
 -2       762      1010      1849      2163
 -1      3030    3    0    1
 -2      1532       467      1742      1932
 -1      3031    3    0    1
 -2      1210       698      1657      1769
 -1      3032    3    0    1
 -2      1562      1572      1655      1959
 -1      3033    3    0    1
 -2      1639      1637      1727      1779
 -1      3034    3    0    1
 -2      1099      1105       247      2031
 -1      3035    3    0    1
 -2      1642        43      1930      1984
 -1      3036    3    0    1
 -2       992       748      1598      1726
 -1      3037    3    0    1
 -2      1574      1612      1661      1701
 -1      3038    3    0    1
 -2       807      1531      1600      1684
 -1      3039    3    0    1
 -2      1735      1759      2091      2480
 -1      3040    3    0    1
 -2       722      1570      1742      2043
 -1      3041    3    0    1
 -2       683       829      1670      1879
 -1      3042    3    0    1
 -2       440      1177      1176      1774
 -1      3043    3    0    1
 -2       527       971      1623      1817
 -1      3044    3    0    1
 -2       503       938       506      1802
 -1      3045    3    0    1
 -2       756       556      1523      2029
 -1      3046    3    0    1
 -2      1939       495      1996      2120
 -1      3047    3    0    1
 -2      1670      1564      1715      1862
 -1      3048    3    0    1
 -2      1655      1572      1663      1775
 -1      3049    3    0    1
 -2       383      1608      1725      1732
 -1      3050    3    0    1
 -2      1565      1713      1738      1879
 -1      3051    3    0    1
 -2       528       975       973      1682
 -1      3052    3    0    1
 -2      1081      1798      1922      2015
 -1      3053    3    0    1
 -2       996       543       544      1658
 -1      3054    3    0    1
 -2      1028      1024       329      1799
 -1      3055    3    0    1
 -2      1625       623      1727      1941
 -1      3056    3    0    1
 -2      1195       827      1767      1960
 -1      3057    3    0    1
 -2       800       402      1895      1937
 -1      3058    3    0    1
 -2       106      1566      1583      1681
 -1      3059    3    0    1
 -2       387       280      1143      2511
 -1      3060    3    0    1
 -2      1884       717      1911      2018
 -1      3061    3    0    1
 -2      1178       661       662      1605
 -1      3062    3    0    1
 -2       287       411       817      1662
 -1      3063    3    0    1
 -2       846       692       837      1793
 -1      3064    3    0    1
 -2        10        14       711      1524
 -1      3065    3    0    1
 -2       111       957      1863      2109
 -1      3066    3    0    1
 -2       687      1203      1643      1719
 -1      3067    3    0    1
 -2       782      1102      1927      2092
 -1      3068    3    0    1
 -2       335       404      1519      1659
 -1      3069    3    0    1
 -2      1185       671       672      1691
 -1      3070    3    0    1
 -2       748       541      1598      1726
 -1      3071    3    0    1
 -2       237       256      2157      2184
 -1      3072    3    0    1
 -2       426      1522      1561      1912
 -1      3073    3    0    1
 -2      1529      1178      1605      1696
 -1      3074    3    0    1
 -2      1916      1143      2014      2075
 -1      3075    3    0    1
 -2       427      1089      1820      1995
 -1      3076    3    0    1
 -2      1586      1531      1600      1649
 -1      3077    3    0    1
 -2      1726       144      2080      2096
 -1      3078    3    0    1
 -2      1146       641       642      1737
 -1      3079    3    0    1
 -2       540       541       991      1598
 -1      3080    3    0    1
 -2      1067      1518      1819      1978
 -1      3081    3    0    1
 -2        18       285      1861      1947
 -1      3082    3    0    1
 -2       411       287      1148      1662
 -1      3083    3    0    1
 -2       308       825      1193      1654
 -1      3084    3    0    1
 -2      1637      1140      1639      1727
 -1      3085    3    0    1
 -2       448       311      1535      1838
 -1      3086    3    0    1
 -2       683      1198       829      1879
 -1      3087    3    0    1
 -2       333      1748      1821      1829
 -1      3088    3    0    1
 -2      2027       362      2116      2117
 -1      3089    3    0    1
 -2       264       788      1120      1660
 -1      3090    3    0    1
 -2      1557      1621      1638      1687
 -1      3091    3    0    1
 -2      1609      1677      1955      2003
 -1      3092    3    0    1
 -2      1211       692       699      1793
 -1      3093    3    0    1
 -2       285      1135      1861      1947
 -1      3094    3    0    1
 -2       419      1118      1637      1685
 -1      3095    3    0    1
 -2      1122       419       420      1631
 -1      3096    3    0    1
 -2      1570       407      1705      1816
 -1      3097    3    0    1
 -2       971       344      1623      1817
 -1      3098    3    0    1
 -2       539      1579      1632      1665
 -1      3099    3    0    1
 -2       920       491       494      1803
 -1      3100    3    0    1
 -2      1736      1754      2154      2159
 -1      3101    3    0    1
 -2      1529      1643      1696      1719
 -1      3102    3    0    1
 -2      1561      1522      1745      1898
 -1      3103    3    0    1
 -2       993       991       541      1598
 -1      3104    3    0    1
 -2       696       700      1733      1756
 -1      3105    3    0    1
 -2      1610      1717      1738      1878
 -1      3106    3    0    1
 -2      1539      1551      1592      1853
 -1      3107    3    0    1
 -2      1559       383      1585      1644
 -1      3108    3    0    1
 -2       427      1868      1988      2015
 -1      3109    3    0    1
 -2       851      1563      1762      2023
 -1      3110    3    0    1
 -2      1719      1643      1757      1829
 -1      3111    3    0    1
 -2      1013       551       554      1751
 -1      3112    3    0    1
 -2       938       506      1802      1900
 -1      3113    3    0    1
 -2       954       403       106      1635
 -1      3114    3    0    1
 -2      1136       415      1140      1666
 -1      3115    3    0    1
 -2      1675      1026      1977      2117
 -1      3116    3    0    1
 -2      1767      1562      1959      1960
 -1      3117    3    0    1
 -2       516       742       956      1801
 -1      3118    3    0    1
 -2      1202      1199      1869      1936
 -1      3119    3    0    1
 -2       384       390      2061      2464
 -1      3120    3    0    1
 -2       333      1008      1785      1821
 -1      3121    3    0    1
 -2      1622      1602      1623      1734
 -1      3122    3    0    1
 -2       396        91      1842      2021
 -1      3123    3    0    1
 -2      1050       189      1888      2011
 -1      3124    3    0    1
 -2      1552      1576      1629      1695
 -1      3125    3    0    1
 -2      1667      1546      1706      1883
 -1      3126    3    0    1
 -2      1591       414      1873      1904
 -1      3127    3    0    1
 -2      1578      1652      1696      1748
 -1      3128    3    0    1
 -2       532       543      1568      1723
 -1      3129    3    0    1
 -2        28       878      1532      1768
 -1      3130    3    0    1
 -2      1206       849      1686      1688
 -1      3131    3    0    1
 -2       542       994      1623      1734
 -1      3132    3    0    1
 -2       251       782      1927      2092
 -1      3133    3    0    1
 -2       471       884      1850      1911
 -1      3134    3    0    1
 -2      1169       655       656      1724
 -1      3135    3    0    1
 -2      1555      1810      1836      1837
 -1      3136    3    0    1
 -2       959       518      1782      1981
 -1      3137    3    0    1
 -2       430      1524      2145      2495
 -1      3138    3    0    1
 -2      1648       836      1664      1793
 -1      3139    3    0    1
 -2       421       422      1126      1833
 -1      3140    3    0    1
 -2      1102       613       612      1886
 -1      3141    3    0    1
 -2      1578      1527      1740      1774
 -1      3142    3    0    1
 -2       320       815      1183      1896
 -1      3143    3    0    1
 -2      1561      1522      1634      1780
 -1      3144    3    0    1
 -2      1358      2580      2630      2634
 -1      3145    3    0    1
 -2      1892      2097      2115      2490
 -1      3146    3    0    1
 -2       953      1755      1858      1981
 -1      3147    3    0    1
 -2       419       420      1631      1867
 -1      3148    3    0    1
 -2      2532      2468      2545      2595
 -1      3149    3    0    1
 -2      1090       355       230      2462
 -1      3150    3    0    1
 -2      1197       683      1196      1670
 -1      3151    3    0    1
 -2       823       678      1683      1744
 -1      3152    3    0    1
 -2       314      1171      1174      1852
 -1      3153    3    0    1
 -2      1615      1595      1867      1870
 -1      3154    3    0    1
 -2      1143       280      2014      2075
 -1      3155    3    0    1
 -2       414      1630      1873      1904
 -1      3156    3    0    1
 -2       192      1049      1052      1843
 -1      3157    3    0    1
 -2       408      1547      1716      1768
 -1      3158    3    0    1
 -2      1553      1567      1636      1657
 -1      3159    3    0    1
 -2       695       842      1549      1838
 -1      3160    3    0    1
 -2      1553      1591      1873      1904
 -1      3161    3    0    1
 -2      1147      1693      1894      1902
 -1      3162    3    0    1
 -2      1551      1538      1573      1961
 -1      3163    3    0    1
 -2        37      1932      2018      2025
 -1      3164    3    0    1
 -2       470       882      1810      1985
 -1      3165    3    0    1
 -2       580      1731      1888      2010
 -1      3166    3    0    1
 -2       692      1211       836      1793
 -1      3167    3    0    1
 -2       671       672      1691      1747
 -1      3168    3    0    1
 -2      1140       416      1639      1666
 -1      3169    3    0    1
 -2      1522      1561      1745      1780
 -1      3170    3    0    1
 -2      1559      1194      1644      1654
 -1      3171    3    0    1
 -2       468      1951      2128      2147
 -1      3172    3    0    1
 -2      1080      1065      1676      2078
 -1      3173    3    0    1
 -2       106       736      1635      1681
 -1      3174    3    0    1
 -2      1081       599      1922      1979
 -1      3175    3    0    1
 -2      1667      1546      1883      1896
 -1      3176    3    0    1
 -2      1531      1586      1600      1684
 -1      3177    3    0    1
 -2       226       426      1522      1561
 -1      3178    3    0    1
 -2      1070       591       592      1899
 -1      3179    3    0    1
 -2       555      1800      2074      2475
 -1      3180    3    0    1
 -2      1554      1686      1688      1943
 -1      3181    3    0    1
 -2       847      1208      1733      1740
 -1      3182    3    0    1
 -2       742      1682      1789      1801
 -1      3183    3    0    1
 -2      1541      1603      1617      2006
 -1      3184    3    0    1
 -2      1586      1531      1611      1684
 -1      3185    3    0    1
 -2       429      1674      1819      1875
 -1      3186    3    0    1
 -2       310      1197      1196      2024
 -1      3187    3    0    1
 -2       771      2009      2042      2135
 -1      3188    3    0    1
 -2        38        37      1932      2018
 -1      3189    3    0    1
 -2      1183       669       670      1680
 -1      3190    3    0    1
 -2       402       318       811      1895
 -1      3191    3    0    1
 -2       539       989      1579      1665
 -1      3192    3    0    1
 -2       404       335      1531      1659
 -1      3193    3    0    1
 -2      1745      1561      1752      1780
 -1      3194    3    0    1
 -2        28      1547      1768      1921
 -1      3195    3    0    1
 -2      1158      1157      1544      1647
 -1      3196    3    0    1
 -2       337       162      1015      2475
 -1      3197    3    0    1
 -2       110       116       738      2466
 -1      3198    3    0    1
 -2       813       667       811      1604
 -1      3199    3    0    1
 -2      1542      1541      1617      2006
 -1      3200    3    0    1
 -2      1189       675      1695      1845
 -1      3201    3    0    1
 -2       539      1626      1702      1964
 -1      3202    3    0    1
 -2      1104      1653      1806      1982
 -1      3203    3    0    1
 -2       395      1539      1793      1853
 -1      3204    3    0    1
 -2       995       148       989      1665
 -1      3205    3    0    1
 -2      1135       635      1141      1972
 -1      3206    3    0    1
 -2       939        91      1690      1900
 -1      3207    3    0    1
 -2       383       244      1732      1741
 -1      3208    3    0    1
 -2      1539      1592      1613      1853
 -1      3209    3    0    1
 -2       482       479       722      1950
 -1      3210    3    0    1
 -2      1544      1609      1677      1955
 -1      3211    3    0    1
 -2      1118      1625      1685      1867
 -1      3212    3    0    1
 -2       339      1031      1846      1923
 -1      3213    3    0    1
 -2       425      1063      1588      1809
 -1      3214    3    0    1
 -2       456       457       862      1915
 -1      3215    3    0    1
 -2       226       426      1086      1522
 -1      3216    3    0    1
 -2       655      1168       656      1724
 -1      3217    3    0    1
 -2       903       433      2033      2527
 -1      3218    3    0    1
 -2       302      1158      1544      1647
 -1      3219    3    0    1
 -2       343       128      2080      2096
 -1      3220    3    0    1
 -2       146       338      2104      2108
 -1      3221    3    0    1
 -2      1541      1604      1897      2006
 -1      3222    3    0    1
 -2      1525      1597      1712      1826
 -1      3223    3    0    1
 -2      1802       938      1900      1999
 -1      3224    3    0    1
 -2      1728      1707      1858      1871
 -1      3225    3    0    1
 -2      2072      1864      2493      2732
 -1      3226    3    0    1
 -2       404       976      1519      1728
 -1      3227    3    0    1
 -2       404      1519      1714      1728
 -1      3228    3    0    1
 -2       583      2320       582      2665
 -1      3229    3    0    1
 -2      1191       675       676      1845
 -1      3230    3    0    1
 -2       865       459       460      1796
 -1      3231    3    0    1
 -2      1630      1873      1904      1970
 -1      3232    3    0    1
 -2      1674      1043      1720      1797
 -1      3233    3    0    1
 -2      1521      1558      1619      1687
 -1      3234    3    0    1
 -2      1589      1519      1659      1714
 -1      3235    3    0    1
 -2       427       428      1089      1995
 -1      3236    3    0    1
 -2      1537       797      1729      1737
 -1      3237    3    0    1
 -2        85       398      1541      1542
 -1      3238    3    0    1
 -2        28      1532      1570      1768
 -1      3239    3    0    1
 -2      1705      1700      1743      1776
 -1      3240    3    0    1
 -2       601       600      1781      2090
 -1      3241    3    0    1
 -2      1135       285      1861      2001
 -1      3242    3    0    1
 -2       370       237      2157      2184
 -1      3243    3    0    1
 -2       148      1658      1665      1753
 -1      3244    3    0    1
 -2       553       552      2086      2478
 -1      3245    3    0    1
 -2      1553      1567      1747      1970
 -1      3246    3    0    1
 -2       271      1967      2125      2151
 -1      3247    3    0    1
 -2       704      1216      1673      2023
 -1      3248    3    0    1
 -2       429      1067      1518      1819
 -1      3249    3    0    1
 -2      1658       543      1692      1723
 -1      3250    3    0    1
 -2       884       865      1850      1963
 -1      3251    3    0    1
 -2      1624      1569      1822      1830
 -1      3252    3    0    1
 -2      1595       419      1615      1867
 -1      3253    3    0    1
 -2       532       543       743      1568
 -1      3254    3    0    1
 -2       330       178      1722      2088
 -1      3255    3    0    1
 -2      1967      1120      2125      2151
 -1      3256    3    0    1
 -2       455      1555      1837      1989
 -1      3257    3    0    1
 -2       287       817      1185      1662
 -1      3258    3    0    1
 -2       665       810       666      1667
 -1      3259    3    0    1
 -2        90        82      1863      2136
 -1      3260    3    0    1
 -2      2478      2094      2481      2613
 -1      3261    3    0    1
 -2       942       507       508      1739
 -1      3262    3    0    1
 -2      1597      1525      1661      1701
 -1      3263    3    0    1
 -2      1540      1613      1645      1664
 -1      3264    3    0    1
 -2       955      1226      2538      2606
 -1      3265    3    0    1
 -2       196       199      1051      2016
 -1      3266    3    0    1
 -2      1678      2045      2063      2144
 -1      3267    3    0    1
 -2       802      1169      1699      1724
 -1      3268    3    0    1
 -2      1193       308      1654      1804
 -1      3269    3    0    1
 -2      1543      1604      1788      1895
 -1      3270    3    0    1
 -2        46       433      1866      2033
 -1      3271    3    0    1
 -2      1603      1617      1730      1852
 -1      3272    3    0    1
 -2        50      1813      1950      2025
 -1      3273    3    0    1
 -2       921        66       922      1689
 -1      3274    3    0    1
 -2      1707      1635      1858      1871
 -1      3275    3    0    1
 -2       717        38      1911      2018
 -1      3276    3    0    1
 -2       528       529      1682      1789
 -1      3277    3    0    1
 -2      1568       532      1723      1772
 -1      3278    3    0    1
 -2      1184       818      1747      1903
 -1      3279    3    0    1
 -2      1618       518      1681      1782
 -1      3280    3    0    1
 -2      1531       335      1649      1659
 -1      3281    3    0    1
 -2      1185      1662      1691      1747
 -1      3282    3    0    1
 -2       325       149      1014      1704
 -1      3283    3    0    1
 -2       424       306      1186      1909
 -1      3284    3    0    1
 -2       370       237      1827      2157
 -1      3285    3    0    1
 -2      1521      1558      1608      1725
 -1      3286    3    0    1
 -2      1102       782       613      1886
 -1      3287    3    0    1
 -2      1722       339      1846      1923
 -1      3288    3    0    1
 -2      2051      2054      2467      2168
 -1      3289    3    0    1
 -2      1521       420      1619      1631
 -1      3290    3    0    1
 -2      1541        85      1542      1617
 -1      3291    3    0    1
 -2      1529       333      1757      1829
 -1      3292    3    0    1
 -2      1526      1549      1599      1620
 -1      3293    3    0    1
 -2       348       115       737      1755
 -1      3294    3    0    1
 -2      1135       635      1861      1947
 -1      3295    3    0    1
 -2      1585      1590      1644      1725
 -1      3296    3    0    1
 -2      1100       244      1104      1732
 -1      3297    3    0    1
 -2      1583      1543      1784      1814
 -1      3298    3    0    1
 -2      1650      1547      1716      1769
 -1      3299    3    0    1
 -2      1783       933      1791      1802
 -1      3300    3    0    1
 -2      1028      1024      1799      1840
 -1      3301    3    0    1
 -2      1568       543      1658      1723
 -1      3302    3    0    1
 -2       749       324       996      1658
 -1      3303    3    0    1
 -2       831      1210      1650      1769
 -1      3304    3    0    1
 -2        57      1834      1944      2022
 -1      3305    3    0    1
 -2      1707       403      1871      1955
 -1      3306    3    0    1
 -2       626       623      1122      1625
 -1      3307    3    0    1
 -2       623      1118      1122      1625
 -1      3308    3    0    1
 -2      1064      2098      2476      2519
 -1      3309    3    0    1
 -2      1024       563      1839      1840
 -1      3310    3    0    1
 -2      1549      1599      1823      1838
 -1      3311    3    0    1
 -2      1544      1571      1609      1647
 -1      3312    3    0    1
 -2      1577      1551      1581      1961
 -1      3313    3    0    1
 -2       667       813       668      1604
 -1      3314    3    0    1
 -2       414      1792      1836      1873
 -1      3315    3    0    1
 -2      1174       659       660      1852
 -1      3316    3    0    1
 -2       933       503      1783      1791
 -1      3317    3    0    1
 -2       681       828       682      1679
 -1      3318    3    0    1
 -2      1550      1662      1693      1891
 -1      3319    3    0    1
 -2      1148       287      1149      1662
 -1      3320    3    0    1
 -2       976       972      1519      2028
 -1      3321    3    0    1
 -2      1603      1541      1897      2006
 -1      3322    3    0    1
 -2       922       723      1939      1944
 -1      3323    3    0    1
 -2      1117       623      1123      1625
 -1      3324    3    0    1
 -2       623       626      1123      1625
 -1      3325    3    0    1
 -2      1809      1868      1954      1988
 -1      3326    3    0    1
 -2       978       531      1772      1953
 -1      3327    3    0    1
 -2       312      1210       406      1650
 -1      3328    3    0    1
 -2       406      1210      1547      1650
 -1      3329    3    0    1
 -2      1702      1594      1807      1964
 -1      3330    3    0    1
 -2      1168       655      1167      1724
 -1      3331    3    0    1
 -2      1736      1754      2054      2467
 -1      3332    3    0    1
 -2      1013       164      1007      2093
 -1      3333    3    0    1
 -2       471       460       712      1850
 -1      3334    3    0    1
 -2      1805       393       914      1907
 -1      3335    3    0    1
 -2      1872       388      1941      2036
 -1      3336    3    0    1
 -2      1698       742      1789      1801
 -1      3337    3    0    1
 -2      1637      1140      1727      1941
 -1      3338    3    0    1
 -2       399        95      1520      1618
 -1      3339    3    0    1
 -2       577      1046      1890      2113
 -1      3340    3    0    1
 -2      1661      1525      1756      1835
 -1      3341    3    0    1
 -2       329       342      1535      2041
 -1      3342    3    0    1
 -2       722      1770      1816      1950
 -1      3343    3    0    1
 -2      2083      2068      2149      2510
 -1      3344    3    0    1
 -2       859       414      1792      1836
 -1      3345    3    0    1
 -2       422       382      1833      1940
 -1      3346    3    0    1
 -2       683      1197       684      1670
 -1      3347    3    0    1
 -2      1770        43      1812      1984
 -1      3348    3    0    1
 -2       355       215      2078      2161
 -1      3349    3    0    1
 -2      2397      2429      1476      2371
 -1      3350    3    0    1
 -2       675       820      1695      1845
 -1      3351    3    0    1
 -2      1563      1673      1762      2023
 -1      3352    3    0    1
 -2       322      1205       447      1599
 -1      3353    3    0    1
 -2      1551       393      1573      1656
 -1      3354    3    0    1
 -2      1849      1010      2105      2163
 -1      3355    3    0    1
 -2       542      1602      1665      1734
 -1      3356    3    0    1
 -2       392       865       884      1963
 -1      3357    3    0    1
 -2       599      1750      1979      1982
 -1      3358    3    0    1
 -2      1717       188      1738      1797
 -1      3359    3    0    1
 -2      1693      1630      1885      1891
 -1      3360    3    0    1
 -2       742       974      1698      1789
 -1      3361    3    0    1
 -2      1834        57      1906      2022
 -1      3362    3    0    1
 -2      1594      1626      1807      1964
 -1      3363    3    0    1
 -2      1071       772       592      1935
 -1      3364    3    0    1
 -2       556       567      1032      1918
 -1      3365    3    0    1
 -2       626      1625      1641      1940
 -1      3366    3    0    1
 -2       360       193      1052      2526
 -1      3367    3    0    1
 -2      1563      1762      1775      1786
 -1      3368    3    0    1
 -2       318       800      1159      1937
 -1      3369    3    0    1
 -2      2512      1241      1289      1290
 -1      3370    3    0    1
 -2      2647      2515      2653      2661
 -1      3371    3    0    1
 -2       638      1140      1584      1666
 -1      3372    3    0    1
 -2      1783      1583      1784      1814
 -1      3373    3    0    1
 -2        36       392       884      1651
 -1      3374    3    0    1
 -2       591       580      1071      2010
 -1      3375    3    0    1
 -2       520       519      1593      1860
 -1      3376    3    0    1
 -2      1069       216      1899      1995
 -1      3377    3    0    1
 -2      1178      1175      1605      1696
 -1      3378    3    0    1
 -2      1821      1757      1829      1876
 -1      3379    3    0    1
 -2      1653       611      1732      1920
 -1      3380    3    0    1
 -2       300       814      1531      1611
 -1      3381    3    0    1
 -2       318       813      1895      1937
 -1      3382    3    0    1
 -2      2534      1238      2591      2689
 -1      3383    3    0    1
 -2      1542        85      1802      1999
 -1      3384    3    0    1
 -2       370       777      1827      2091
 -1      3385    3    0    1
 -2      2033        56      2130      2527
 -1      3386    3    0    1
 -2       345       148       995      1602
 -1      3387    3    0    1
 -2       460       712      1850      2127
 -1      3388    3    0    1
 -2      1551      1573      1581      1961
 -1      3389    3    0    1
 -2      1619      1621      1638      1919
 -1      3390    3    0    1
 -2      1610      1534      1640      1711
 -1      3391    3    0    1
 -2       933       503      1791      1802
 -1      3392    3    0    1
 -2        10       712      2127      2495
 -1      3393    3    0    1
 -2      1602      1622      1623      1817
 -1      3394    3    0    1
 -2       353       128      1698      2080
 -1      3395    3    0    1
 -2       576      2009      2038      2069
 -1      3396    3    0    1
 -2       611      1099      1765      1920
 -1      3397    3    0    1
 -2      1637      1685      1779      1870
 -1      3398    3    0    1
 -2       308       313      1654      1804
 -1      3399    3    0    1
 -2       543       532       997      1723
 -1      3400    3    0    1
 -2       655      1169       802      1724
 -1      3401    3    0    1
 -2       425      1663      1775      1809
 -1      3402    3    0    1
 -2      1582      1546      1589      1707
 -1      3403    3    0    1
 -2      1873      1553      1904      1970
 -1      3404    3    0    1
 -2      1618      1520      1782      1974
 -1      3405    3    0    1
 -2      1575      1650      1699      1921
 -1      3406    3    0    1
 -2      1614      1545      1805      1848
 -1      3407    3    0    1
 -2      1025      1046      2505      1269
 -1      3408    3    0    1
 -2      1615       419      1637      1685
 -1      3409    3    0    1
 -2      1540      1614      1617      1730
 -1      3410    3    0    1
 -2       997      1692      1723      2459
 -1      3411    3    0    1
 -2      1616      1540      1617      1852
 -1      3412    3    0    1
 -2      1868      1062      1988      2035
 -1      3413    3    0    1
 -2       749       149      1658      1704
 -1      3414    3    0    1
 -2      1584      1135      1972      2001
 -1      3415    3    0    1
 -2      1015       756       555      1523
 -1      3416    3    0    1
 -2       162       756      1015      1523
 -1      3417    3    0    1
 -2       755      1014      1523      1763
 -1      3418    3    0    1
 -2       938       933        85      1802
 -1      3419    3    0    1
 -2       826       828      1679      1745
 -1      3420    3    0    1
 -2        85      1542      1617      1999
 -1      3421    3    0    1
 -2        82       941       944      1721
 -1      3422    3    0    1
 -2       425       429      1067      1518
 -1      3423    3    0    1
 -2      1532       722      1570      1816
 -1      3424    3    0    1
 -2      1107       255      1108      1735
 -1      3425    3    0    1
 -2      1211       314       836      1664
 -1      3426    3    0    1
 -2      1809      1063      1868      1978
 -1      3427    3    0    1
 -2       722       407      1570      1816
 -1      3428    3    0    1
 -2      1595      1615      1703      1870
 -1      3429    3    0    1
 -2      1603      1542      1617      2006
 -1      3430    3    0    1
 -2       602      1922      1954      2015
 -1      3431    3    0    1
 -2      1645      1540      1664      1852
 -1      3432    3    0    1
 -2       403       106      1635      1677
 -1      3433    3    0    1
 -2      1042       575      1828      1874
 -1      3434    3    0    1
 -2       325       149      1579      1626
 -1      3435    3    0    1
 -2      1628      1556      1790      1976
 -1      3436    3    0    1
 -2      1679      1745      1767      1898
 -1      3437    3    0    1
 -2      1082       226      1086      1522
 -1      3438    3    0    1
 -2      1543      1788      1814      2007
 -1      3439    3    0    1
 -2      1582      1546      1707      1871
 -1      3440    3    0    1
 -2        57       895      1834      1906
 -1      3441    3    0    1
 -2      1063       425      1067      1518
 -1      3442    3    0    1
 -2       180       177      2105      2163
 -1      3443    3    0    1
 -2      1644      1590      1654      1725
 -1      3444    3    0    1
 -2      2042       771      2135      2499
 -1      3445    3    0    1
 -2      1549       842      1599      1838
 -1      3446    3    0    1
 -2       329      1028      1799      1830
 -1      3447    3    0    1
 -2      1527      1574      1612      1661
 -1      3448    3    0    1
 -2       942        86       943      1739
 -1      3449    3    0    1
 -2       192      1041      1045      2038
 -1      3450    3    0    1
 -2      2578      2581      2637      2715
 -1      3451    3    0    1
 -2       244      1653      1741      1824
 -1      3452    3    0    1
 -2      1798      1081      1922      1979
 -1      3453    3    0    1
 -2      1648      1664      1613      1793
 -1      3454    3    0    1
 -2      1633      1538      1642      1737
 -1      3455    3    0    1
 -2      1197       319      1946      2024
 -1      3456    3    0    1
 -2       661      1177       662      1605
 -1      3457    3    0    1
 -2      1700      1668      1743      1776
 -1      3458    3    0    1
 -2      1608      1521      1732      1765
 -1      3459    3    0    1
 -2      1824      1741      1910      1968
 -1      3460    3    0    1
 -2      1065       588      1080      2162
 -1      3461    3    0    1
 -2       492       493      1831      1948
 -1      3462    3    0    1
 -2       881       468       469      1992
 -1      3463    3    0    1
 -2      1165       294       444      1621
 -1      3464    3    0    1
 -2       495      1938      1939      1996
 -1      3465    3    0    1
 -2      1712      1533      1778      1881
 -1      3466    3    0    1
 -2       484       495      1939      2120
 -1      3467    3    0    1
 -2       162       754      1010      1980
 -1      3468    3    0    1
 -2       383      1100      1608      1732
 -1      3469    3    0    1
 -2       175       178      1031      1923
 -1      3470    3    0    1
 -2       859       455      1555      1836
 -1      3471    3    0    1
 -2       491      1803      1842      1848
 -1      3472    3    0    1
 -2      1558      1590      1607      1804
 -1      3473    3    0    1
 -2       823       677       821      1683
 -1      3474    3    0    1
 -2      2097      2077      2152      2488
 -1      3475    3    0    1
 -2      1633      1538      1931      1961
 -1      3476    3    0    1
 -2       383      1585      1644      1725
 -1      3477    3    0    1
 -2      1650      1547      1699      1921
 -1      3478    3    0    1
 -2       427      1087      1868      2015
 -1      3479    3    0    1
 -2      1649      1586      1659      1749
 -1      3480    3    0    1
 -2       832      1567      1657      1769
 -1      3481    3    0    1
 -2       932       939      1739      1791
 -1      3482    3    0    1
 -2       802       406      1547      1650
 -1      3483    3    0    1
 -2       994       542      1632      1734
 -1      3484    3    0    1
 -2      1122       626      1641      1765
 -1      3485    3    0    1
 -2       555      1523      1704      1800
 -1      3486    3    0    1
 -2        92        86       942      1739
 -1      3487    3    0    1
 -2      1614        85      1617      1999
 -1      3488    3    0    1
 -2        66       373       922      1689
 -1      3489    3    0    1
 -2       127       742       974      1698
 -1      3490    3    0    1
 -2       326      1012      1821      1969
 -1      3491    3    0    1
 -2       896       722      1950      2026
 -1      3492    3    0    1
 -2      1850       885      2034      2495
 -1      3493    3    0    1
 -2       495       923      1996      2120
 -1      3494    3    0    1
 -2       111       400      1863      2136
 -1      3495    3    0    1
 -2      1010       754      1849      1980
 -1      3496    3    0    1
 -2      2580      1270      1359      2654
 -1      3497    3    0    1
 -2       396       913      1842      1900
 -1      3498    3    0    1
 -2       344       345      1623      1753
 -1      3499    3    0    1
 -2      1558      1521      1608      1687
 -1      3500    3    0    1
 -2      1051       199      1846      2016
 -1      3501    3    0    1
 -2       989       539      1579      1626
 -1      3502    3    0    1
 -2       415       416      1140      1666
 -1      3503    3    0    1
 -2       110      2095      2465      2466
 -1      3504    3    0    1
 -2       244       383      1559      1644
 -1      3505    3    0    1
 -2      1527      1733      1740      1774
 -1      3506    3    0    1
 -2      1613      1592      1648      1853
 -1      3507    3    0    1
 -2      1205       687       688      1643
 -1      3508    3    0    1
 -2       647      1155       648      1776
 -1      3509    3    0    1
 -2       415       416      1666      1746
 -1      3510    3    0    1
 -2      1179      1531       300       807
 -1      3511    3    0    1
 -2       614       611      1653      1987
 -1      3512    3    0    1
 -2       398      1541      1542      1784
 -1      3513    3    0    1
 -2       144       748       992      1726
 -1      3514    3    0    1
 -2       651      1162       652      1712
 -1      3515    3    0    1
 -2      2050      1678      2051      2072
 -1      3516    3    0    1
 -2      1029       330      1722      1822
 -1      3517    3    0    1
 -2       957       517       956      2000
 -1      3518    3    0    1
 -2      1031      1051      1846      2016
 -1      3519    3    0    1
 -2      1027      1025      1977      2062
 -1      3520    3    0    1
 -2      1555      1810      1837      1989
 -1      3521    3    0    1
 -2       178      1923      1722      2088
 -1      3522    3    0    1
 -2       614      1653      1979      1987
 -1      3523    3    0    1
 -2      1528      1591      1636      1771
 -1      3524    3    0    1
 -2      1957      1138      2014      2049
 -1      3525    3    0    1
 -2       392       391      1963      1989
 -1      3526    3    0    1
 -2      1630      1693      1885      1894
 -1      3527    3    0    1
 -2      1584      1872      1941      2036
 -1      3528    3    0    1
 -2       653      1166       801      1919
 -1      3529    3    0    1
 -2       639       640      1142      2039
 -1      3530    3    0    1
 -2      1728      1773      1811      1858
 -1      3531    3    0    1
 -2       901       482      1742      2043
 -1      3532    3    0    1
 -2      1138       794       636      1957
 -1      3533    3    0    1
 -2       404      1519      1589      1714
 -1      3534    3    0    1
 -2      2014       796      2039      2040
 -1      3535    3    0    1
 -2        13      1694      1697      1885
 -1      3536    3    0    1
 -2       997       750       544      1692
 -1      3537    3    0    1
 -2      1586      1531      1649      1659
 -1      3538    3    0    1
 -2      1557      1595      1621      1687
 -1      3539    3    0    1
 -2      1576      1629      1695      1998
 -1      3540    3    0    1
 -2      1542       398      1784      1814
 -1      3541    3    0    1
 -2       398        85       933      1802
 -1      3542    3    0    1
 -2      1634       226      1750      1780
 -1      3543    3    0    1
 -2      1100       383       244      1732
 -1      3544    3    0    1
 -2      1525       328      1530      1826
 -1      3545    3    0    1
 -2       325      1013      1626      1933
 -1      3546    3    0    1
 -2       611      1100      1104      1653
 -1      3547    3    0    1
 -2       564       577      1041      1675
 -1      3548    3    0    1
 -2      1589      1611      1680      1880
 -1      3549    3    0    1
 -2       667      1182       812      1604
 -1      3550    3    0    1
 -2       334      1178      1529      1696
 -1      3551    3    0    1
 -2       111       738       961      1593
 -1      3552    3    0    1
 -2      1689       922      1938      1939
 -1      3553    3    0    1
 -2      1755      1773       953      1858
 -1      3554    3    0    1
 -2       755       164      1014      1763
 -1      3555    3    0    1
 -2      1638       653      1804      1919
 -1      3556    3    0    1
 -2       563      1024      1028      1840
 -1      3557    3    0    1
 -2      1693      1552      1894      1902
 -1      3558    3    0    1
 -2      1527      1574      1594      1652
 -1      3559    3    0    1
 -2      1757       333      1821      1829
 -1      3560    3    0    1
 -2       356       215       772      2462
 -1      3561    3    0    1
 -2       162       365       756      1523
 -1      3562    3    0    1
 -2       556       555       756      1523
 -1      3563    3    0    1
 -2      1755       953      1782      1981
 -1      3564    3    0    1
 -2       518       736      1618      1681
 -1      3565    3    0    1
 -2       724        46      1866      2120
 -1      3566    3    0    1
 -2      1043      1720      1797      1965
 -1      3567    3    0    1
 -2       479      1834      1906      2026
 -1      3568    3    0    1
 -2      1208      1612      1733      1740
 -1      3569    3    0    1
 -2       809      1181      1544      1706
 -1      3570    3    0    1
 -2       960       519       737      1860
 -1      3571    3    0    1
 -2       420      1595      1631      1867
 -1      3572    3    0    1
 -2       294      1165      1164      1621
 -1      3573    3    0    1
 -2       954       515      1773      1858
 -1      3574    3    0    1
 -2       329      1799      1823      1830
 -1      3575    3    0    1
 -2      1198       683       684      1879
 -1      3576    3    0    1
 -2      1127       627      1914      2013
 -1      3577    3    0    1
 -2       979       744       531      1772
 -1      3578    3    0    1
 -2       917      1948      2123      2139
 -1      3579    3    0    1
 -2       422       421      1123      1986
 -1      3580    3    0    1
 -2      1082       226      1522      1750
 -1      3581    3    0    1
 -2      1188       673       674      1718
 -1      3582    3    0    1
 -2       933       398      1542      1783
 -1      3583    3    0    1
 -2       864       417      1796      2012
 -1      3584    3    0    1
 -2       637       636      1957      1991
 -1      3585    3    0    1
 -2      1622      1623      1817      2028
 -1      3586    3    0    1
 -2       939       506      1690      1791
 -1      3587    3    0    1
 -2      1031       567       568      1844
 -1      3588    3    0    1
 -2      2155      2144      2492      2500
 -1      3589    3    0    1
 -2       420      1521      1619      1687
 -1      3590    3    0    1
 -2      1539       803      1577      1581
 -1      3591    3    0    1
 -2       650      1159      1596      1937
 -1      3592    3    0    1
 -2      1534      1610      1640      1893
 -1      3593    3    0    1
 -2       411      1148      1550      1662
 -1      3594    3    0    1
 -2      1181       302      1544      1609
 -1      3595    3    0    1
 -2       829      1565      1670      1879
 -1      3596    3    0    1
 -2      1884       717      2032       472
 -1      3597    3    0    1
 -2      1209       840      1711      1713
 -1      3598    3    0    1
 -2      1650      1575      1768      1921
 -1      3599    3    0    1
 -2      1589      1582      1707      1714
 -1      3600    3    0    1
 -2       611      1100      1653      1732
 -1      3601    3    0    1
 -2       990       141       994      1632
 -1      3602    3    0    1
 -2      1720      1674      1819      1962
 -1      3603    3    0    1
 -2      1640      1610      1878      1893
 -1      3604    3    0    1
 -2      1084      1676      1781      1827
 -1      3605    3    0    1
 -2      1084      1080      1676      1827
 -1      3606    3    0    1
 -2      1686      1554      1746      1943
 -1      3607    3    0    1
 -2      1173       660      1616      1852
 -1      3608    3    0    1
 -2      1616      1171      1664      1852
 -1      3609    3    0    1
 -2      1778      1161      1881      1966
 -1      3610    3    0    1
 -2       237       370      1827      2480
 -1      3611    3    0    1
 -2       937      1580      2102      2515
 -1      3612    3    0    1
 -2      1671      1708      2045      2068
 -1      3613    3    0    1
 -2      1752      1634      1561      1718
 -1      3614    3    0    1
 -2      1522       226      1634      1780
 -1      3615    3    0    1
 -2       393       919      1907      1929
 -1      3616    3    0    1
 -2      1639      1637      1779      1943
 -1      3617    3    0    1
 -2      1628      1790      1870      1887
 -1      3618    3    0    1
 -2      1530      1622      1760      1826
 -1      3619    3    0    1
 -2      1662      1630      1693      1891
 -1      3620    3    0    1
 -2      1336      1337      2624      1444
 -1      3621    3    0    1
 -2      2094       991      2478      2481
 -1      3622    3    0    1
 -2       613       782      1781      2092
 -1      3623    3    0    1
 -2      1684      1881      1533      1600
 -1      3624    3    0    1
 -2       399       959      1520      1782
 -1      3625    3    0    1
 -2      1565       341      1713      1879
 -1      3626    3    0    1
 -2      1140       638      1727      1941
 -1      3627    3    0    1
 -2      1848      1690      1900      1999
 -1      3628    3    0    1
 -2       579      1030      1052      1761
 -1      3629    3    0    1
 -2       568       579      1051      1761
 -1      3630    3    0    1
 -2       579       568      1030      1761
 -1      3631    3    0    1
 -2       553       754      1857      2086
 -1      3632    3    0    1
 -2      1031       568      1051      1761
 -1      3633    3    0    1
 -2      1106       251       437      1927
 -1      3634    3    0    1
 -2      1090       230      1827      1855
 -1      3635    3    0    1
 -2       772       592      1935      2462
 -1      3636    3    0    1
 -2      1160       651      1712      1778
 -1      3637    3    0    1
 -2      1626       554      1807      1964
 -1      3638    3    0    1
 -2      1760      1533      1778      1826
 -1      3639    3    0    1
 -2      1713      1610      1738      1878
 -1      3640    3    0    1
 -2       540       992      1598      1857
 -1      3641    3    0    1
 -2      1698      1726      2080      2096
 -1      3642    3    0    1
 -2       347      1926      2117      2170
 -1      3643    3    0    1
 -2       974      1698      1789      2080
 -1      3644    3    0    1
 -2      1536      1709      1832      2046
 -1      3645    3    0    1
 -2       820       445      1554      1998
 -1      3646    3    0    1
 -2       344      1623      1817      2005
 -1      3647    3    0    1
 -2      1915      2111      2489      2171
 -1      3648    3    0    1
 -2      1749      1533      1760      1826
 -1      3649    3    0    1
 -2       883       392      1651      1985
 -1      3650    3    0    1
 -2        43       722       896      1770
 -1      3651    3    0    1
 -2      1564      1674      1875      1994
 -1      3652    3    0    1
 -2       506       939      1690      1900
 -1      3653    3    0    1
 -2      1212       293       439      1835
 -1      3654    3    0    1
 -2        43       407       722      1770
 -1      3655    3    0    1
 -2      1537        43      1642      1984
 -1      3656    3    0    1
 -2       372       728       923      1938
 -1      3657    3    0    1
 -2      1107       616      1126      1833
 -1      3658    3    0    1
 -2       624       637      1957      2124
 -1      3659    3    0    1
 -2      1525      1597      1756      1835
 -1      3660    3    0    1
 -2        18       866      1796      2012
 -1      3661    3    0    1
 -2      1642      1633      1729      1984
 -1      3662    3    0    1
 -2       813       668      1604      1788
 -1      3663    3    0    1
 -2      1588      1655      1809      1898
 -1      3664    3    0    1
 -2       293       843      1756      1835
 -1      3665    3    0    1
 -2       601      1825      2090      2162
 -1      3666    3    0    1
 -2        50        55       902      1813
 -1      3667    3    0    1
 -2       353       127      1698      1772
 -1      3668    3    0    1
 -2       879       468      1992      2147
 -1      3669    3    0    1
 -2       938       503       933      1802
 -1      3670    3    0    1
 -2      1138      1957      2002      2049
 -1      3671    3    0    1
 -2      2503      2557      2558      2614
 -1      3672    3    0    1
 -2       127       353       744      1772
 -1      3673    3    0    1
 -2      1810       470      1985      1989
 -1      3674    3    0    1
 -2      1588      1809      1868      1954
 -1      3675    3    0    1
 -2      1155       647      1154      1776
 -1      3676    3    0    1
 -2      1537      1154      1700      1776
 -1      3677    3    0    1
 -2      1154       647      1700      1776
 -1      3678    3    0    1
 -2       972       527      1622      2028
 -1      3679    3    0    1
 -2      1671      1708      1832      2045
 -1      3680    3    0    1
 -2      1262      1335      2597      1415
 -1      3681    3    0    1
 -2      1102       437      1927      2143
 -1      3682    3    0    1
 -2      1807       554      1933      1964
 -1      3683    3    0    1
 -2      1598       992      1726      1857
 -1      3684    3    0    1
 -2       390      2049      2061      2464
 -1      3685    3    0    1
 -2       460       865      1796      1850
 -1      3686    3    0    1
 -2       554      1626      1933      1964
 -1      3687    3    0    1
 -2       553       540       991      2478
 -1      3688    3    0    1
 -2      2506      2552      2553      2621
 -1      3689    3    0    1
 -2      2047      1864      2463      2732
 -1      3690    3    0    1
 -2       382       422      1123      1940
 -1      3691    3    0    1
 -2      2144      2046      2191      2246
 -1      3692    3    0    1
 -2       318       402       800      1937
 -1      3693    3    0    1
 -2      1530      1760      1778      1826
 -1      3694    3    0    1
 -2      1622      1749      1760      1826
 -1      3695    3    0    1
 -2       601       600      1080      1781
 -1      3696    3    0    1
 -2       601      1080      1676      1781
 -1      3697    3    0    1
 -2        14       384      2061      2464
 -1      3698    3    0    1
 -2      1560      1718      1818      1909
 -1      3699    3    0    1
 -2       331       164       755      2093
 -1      3700    3    0    1
 -2      1734       994      1749      1826
 -1      3701    3    0    1
 -2      1628      1790      1887      1976
 -1      3702    3    0    1
 -2       600       613      1084      1781
 -1      3703    3    0    1
 -2       613       782      1084      1781
 -1      3704    3    0    1
 -2       399       113       959      1782
 -1      3705    3    0    1
 -2       959       518      1618      1782
 -1      3706    3    0    1
 -2        91      1690      1842      2021
 -1      3707    3    0    1
 -2       398       933      1583      1783
 -1      3708    3    0    1
 -2      1583       933      1618      1783
 -1      3709    3    0    1
 -2      1615      1703      1790      1975
 -1      3710    3    0    1
 -2       288       290      1762      1786
 -1      3711    3    0    1
 -2      1563       288      1762      1786
 -1      3712    3    0    1
 -2      1153       645       646      1786
 -1      3713    3    0    1
 -2       645      1153       798      1786
 -1      3714    3    0    1
 -2       288      1153       290      1786
 -1      3715    3    0    1
 -2       798      1563      1572      1786
 -1      3716    3    0    1
 -2       645       798      1572      1786
 -1      3717    3    0    1
 -2      1153       288       798      1786
 -1      3718    3    0    1
 -2       798       288      1563      1786
 -1      3719    3    0    1
 -2       658      1577      1581      1931
 -1      3720    3    0    1
 -2      1633      1538      1737      1931
 -1      3721    3    0    1
 -2      1163       439      1597      1835
 -1      3722    3    0    1
 -2      1661      1612      1733      1835
 -1      3723    3    0    1
 -2       658      1170      1577      1931
 -1      3724    3    0    1
 -2      1756       700       843       696
 -1      3725    3    0    1
 -2      1070      1731      1899      1913
 -1      3726    3    0    1
 -2      1183      1680      1880      1896
 -1      3727    3    0    1
 -2      1069       216      1070      1899
 -1      3728    3    0    1
 -2      1582      1546      1667      1896
 -1      3729    3    0    1
 -2      1543      1604      1784      1788
 -1      3730    3    0    1
 -2      1788      1543      1937      2007
 -1      3731    3    0    1
 -2      1880      1680      1883      1896
 -1      3732    3    0    1
 -2       251      1106      1109      1927
 -1      3733    3    0    1
 -2       566      1029      1822      1925
 -1      3734    3    0    1
 -2      1052       579      1761      1888
 -1      3735    3    0    1
 -2       189      1042      1924      2011
 -1      3736    3    0    1
 -2      1835       843       700      1212
 -1      3737    3    0    1
 -2      1733      1612      1756      1835
 -1      3738    3    0    1
 -2        92       932      1739      1791
 -1      3739    3    0    1
 -2        95        92      1739      1791
 -1      3740    3    0    1
 -2       503       932      1618      1791
 -1      3741    3    0    1
 -2        92        95       932      1791
 -1      3742    3    0    1
 -2       227       423      1081      1798
 -1      3743    3    0    1
 -2      1655      1572      1775      1959
 -1      3744    3    0    1
 -2       365       756      1523      1980
 -1      3745    3    0    1
 -2       458       455       863      1792
 -1      3746    3    0    1
 -2      1695      1189      1845      1902
 -1      3747    3    0    1
 -2      1031       568      1761      1923
 -1      3748    3    0    1
 -2      1681      1618      1782      1974
 -1      3749    3    0    1
 -2      1520      1618      1791      1974
 -1      3750    3    0    1
 -2       859        13       863      1792
 -1      3751    3    0    1
 -2       859       414        13      1792
 -1      3752    3    0    1
 -2      1583      1618      1681      1974
 -1      3753    3    0    1
 -2      1579       539      1632      1964
 -1      3754    3    0    1
 -2       389       421      1125      2030
 -1      3755    3    0    1
 -2      1558      1619      1804      1919
 -1      3756    3    0    1
 -2      1842       491      1848      1900
 -1      3757    3    0    1
 -2      1624       329      1785      1830
 -1      3758    3    0    1
 -2      1560      1824      1910      1968
 -1      3759    3    0    1
 -2      1303      1304      2577      2583
 -1      3760    3    0    1
 -2       923      1996      2120      2494
 -1      3761    3    0    1
 -2       635       638      1141      1972
 -1      3762    3    0    1
 -2       343       144      2459      2096
 -1      3763    3    0    1
 -2       496       921      1938      1945
 -1      3764    3    0    1
 -2      1528      1553      1591      1873
 -1      3765    3    0    1
 -2       508       519       960      1795
 -1      3766    3    0    1
 -2       942       508       960      1795
 -1      3767    3    0    1
 -2       519       941       961      1795
 -1      3768    3    0    1
 -2       519       508       941      1795
 -1      3769    3    0    1
 -2      2481      1271      2564      2612
 -1      3770    3    0    1
 -2       144      1692      2459      2096
 -1      3771    3    0    1
 -2       808       810      1667      1883
 -1      3772    3    0    1
 -2      1554      1686      1746      1998
 -1      3773    3    0    1
 -2      2688      2700      2446      2454
 -1      3774    3    0    1
 -2      1626      1579      1933      1964
 -1      3775    3    0    1
 -2       701       695      1549      1838
 -1      3776    3    0    1
 -2      1149       644      1693      1894
 -1      3777    3    0    1
 -2      1082       599      1750      1922
 -1      3778    3    0    1
 -2      1732       611      1765      1920
 -1      3779    3    0    1
 -2      1641      1765      1847      1920
 -1      3780    3    0    1
 -2      1674       188      1797      1862
 -1      3781    3    0    1
 -2      1528      1591      1836      1873
 -1      3782    3    0    1
 -2       483       902      1813      1990
 -1      3783    3    0    1
 -2      1627      2008      2020      2041
 -1      3784    3    0    1
 -2      1656      1538      1787      1961
 -1      3785    3    0    1
 -2       196      1051      1888      2016
 -1      3786    3    0    1
 -2       615      1108      1877      1958
 -1      3787    3    0    1
 -2      1559      1644      1744      1968
 -1      3788    3    0    1
 -2      1610      1534      1878      1893
 -1      3789    3    0    1
 -2      1107       247      1735      2031
 -1      3790    3    0    1
 -2      1629      1552      1695      1902
 -1      3791    3    0    1
 -2       236       427      1089      2037
 -1      3792    3    0    1
 -2      1191       820      1845      1998
 -1      3793    3    0    1
 -2       445      1191       446      1998
 -1      3794    3    0    1
 -2      1088      1108      1798      1958
 -1      3795    3    0    1
 -2      1033       177      2134      2496
 -1      3796    3    0    1
 -2       326       333      1748      1821
 -1      3797    3    0    1
 -2       162      1523      1800      1980
 -1      3798    3    0    1
 -2       254       423      1088      1798
 -1      3799    3    0    1
 -2       254      1088      1108      1798
 -1      3800    3    0    1
 -2      1601       340      1610      1878
 -1      3801    3    0    1
 -2       920       913       491      1803
 -1      3802    3    0    1
 -2       540       553       754      1857
 -1      3803    3    0    1
 -2       308      1166       313      1804
 -1      3804    3    0    1
 -2      1641      1521      1765      1920
 -1      3805    3    0    1
 -2       313      1607      1654      1804
 -1      3806    3    0    1
 -2      1523       556      1918      2029
 -1      3807    3    0    1
 -2       685      1869      1936      2020
 -1      3808    3    0    1
 -2      1634      1560      1646      1806
 -1      3809    3    0    1
 -2      1634      1646      1750      1806
 -1      3810    3    0    1
 -2      1552      1629      1885      1894
 -1      3811    3    0    1
 -2       723       495       922      1939
 -1      3812    3    0    1
 -2      1868       602      1954      2015
 -1      3813    3    0    1
 -2      1574      1594      1652      1807
 -1      3814    3    0    1
 -2       554      1012      1626      1807
 -1      3815    3    0    1
 -2      1030      1052      2172      2526
 -1      3816    3    0    1
 -2      1012      1594      1626      1807
 -1      3817    3    0    1
 -2      1012       326      1594      1807
 -1      3818    3    0    1
 -2      1594       326      1652      1807
 -1      3819    3    0    1
 -2      2485      2484      2520      2570
 -1      3820    3    0    1
 -2       458       863      1697      1901
 -1      3821    3    0    1
 -2       587       590      1068      1808
 -1      3822    3    0    1
 -2       902       483       723      1990
 -1      3823    3    0    1
 -2      1833       422      1940      1986
 -1      3824    3    0    1
 -2      1635       403      1677      2003
 -1      3825    3    0    1
 -2       566      1028      1624      1830
 -1      3826    3    0    1
 -2      1881      1684      1533      1966
 -1      3827    3    0    1
 -2      1630      1662      1693      1894
 -1      3828    3    0    1
 -2       976      1519      1728      1983
 -1      3829    3    0    1
 -2      1555       882      1771      1810
 -1      3830    3    0    1
 -2       762      1026      2027      2117
 -1      3831    3    0    1
 -2      1690        91      1842      1900
 -1      3832    3    0    1
 -2      1008       551      1624      1821
 -1      3833    3    0    1
 -2       808      1667      1706      1883
 -1      3834    3    0    1
 -2      1626      1594      1702      1964
 -1      3835    3    0    1
 -2       218       346      1068      1808
 -1      3836    3    0    1
 -2      1102       782      1886      2092
 -1      3837    3    0    1
 -2       695       848      1207      1838
 -1      3838    3    0    1
 -2       333      1529      1748      1829
 -1      3839    3    0    1
 -2      1643      1529      1757      1829
 -1      3840    3    0    1
 -2      1528      1555      1771      1810
 -1      3841    3    0    1
 -2      1735       255      1958      2031
 -1      3842    3    0    1
 -2      1192      1683      1744      1818
 -1      3843    3    0    1
 -2      1718      1187      1752      1818
 -1      3844    3    0    1
 -2       426      1086      1522      1954
 -1      3845    3    0    1
 -2       131       126       977      1811
 -1      3846    3    0    1
 -2       131       977      1773      1811
 -1      3847    3    0    1
 -2       527       976       530      1983
 -1      3848    3    0    1
 -2       348       131      1773      1811
 -1      3849    3    0    1
 -2       902       483      1813      2032
 -1      3850    3    0    1
 -2      2148      1917      2469      2169
 -1      3851    3    0    1
 -2       993      1598      2076      2094
 -1      3852    3    0    1
 -2      1746      1686      1943      1956
 -1      3853    3    0    1
 -2       939      1739      1791      2021
 -1      3854    3    0    1
 -2       175       339      1722      1923
 -1      3855    3    0    1
 -2       960      1795      1860      1971
 -1      3856    3    0    1
 -2       330       331       755      1918
 -1      3857    3    0    1
 -2       455      1555      1836      1837
 -1      3858    3    0    1
 -2       863       458      1792      1901
 -1      3859    3    0    1
 -2       568      1031      1844      1923
 -1      3860    3    0    1
 -2      1117       623      1625      1872
 -1      3861    3    0    1
 -2      1288      2265      2285      2301
 -1      3862    3    0    1
 -2      1317      1383      2604      2667
 -1      3863    3    0    1
 -2      1735      1109      1759      2480
 -1      3864    3    0    1
 -2      1618      1583      1783      1974
 -1      3865    3    0    1
 -2       554      1013      1751      1933
 -1      3866    3    0    1
 -2       359       356      1935      2019
 -1      3867    3    0    1
 -2       325      1579      1704      1933
 -1      3868    3    0    1
 -2      1552      1629      1859      1885
 -1      3869    3    0    1
 -2        31      1884      2034      2174
 -1      3870    3    0    1
 -2       420       419      1595      1867
 -1      3871    3    0    1
 -2      1635      1707       403      1871
 -1      3872    3    0    1
 -2      1125       421      1126      1833
 -1      3873    3    0    1
 -2       913       491      1842      1900
 -1      3874    3    0    1
 -2      1828       366      1913      2011
 -1      3875    3    0    1
 -2       901       479       482      1950
 -1      3876    3    0    1
 -2        66       396      1689      1945
 -1      3877    3    0    1
 -2      1107      1833      1847      1914
 -1      3878    3    0    1
 -2       482       901      1950      2043
 -1      3879    3    0    1
 -2       921       396        66      1945
 -1      3880    3    0    1
 -2      1901      1861      1947      2012
 -1      3881    3    0    1
 -2       491       914      1848      1900
 -1      3882    3    0    1
 -2      1541      1542      1784      2006
 -1      3883    3    0    1
 -2        88      1865      2044      2087
 -1      3884    3    0    1
 -2       914      1614      1848      1900
 -1      3885    3    0    1
 -2       506      1690      1802      1900
 -1      3886    3    0    1
 -2       600       613      1781      2514
 -1      3887    3    0    1
 -2       391      1837      1963      1989
 -1      3888    3    0    1
 -2      1232      1233      2532      2533
 -1      3889    3    0    1
 -2       495       923      1938      1996
 -1      3890    3    0    1
 -2      1069       603      1089      1820
 -1      3891    3    0    1
 -2      1101       612      1103      2121
 -1      3892    3    0    1
 -2       592       603      1069      1820
 -1      3893    3    0    1
 -2      2123        46        58      2139
 -1      3894    3    0    1
 -2      1808       590      1819      1978
 -1      3895    3    0    1
 -2       592       603      1820      1855
 -1      3896    3    0    1
 -2      1534      1587      1601      1878
 -1      3897    3    0    1
 -2       783       617      2209      2235
 -1      3898    3    0    1
 -2       777      1877      2004      2091
 -1      3899    3    0    1
 -2      2510      1766      2524      2726
 -1      3900    3    0    1
 -2       469       456       881      2171
 -1      3901    3    0    1
 -2      1935       359      2019      2042
 -1      3902    3    0    1
 -2      1543      1596      1895      1937
 -1      3903    3    0    1
 -2      1202       321      1199      1936
 -1      3904    3    0    1
 -2      1386      1321      1411      2655
 -1      3905    3    0    1
 -2      1917      2111      2469      2523
 -1      3906    3    0    1
 -2       918      1831      2100      2483
 -1      3907    3    0    1
 -2      1822       566      1830      1840
 -1      3908    3    0    1
 -2       396        66      1689      1842
 -1      3909    3    0    1
 -2      1575      1699      1724      1889
 -1      3910    3    0    1
 -2      1023       563       566      1840
 -1      3911    3    0    1
 -2      1601      1587      1839      1841
 -1      3912    3    0    1
 -2       563      1023      1722      1840
 -1      3913    3    0    1
 -2      1722      1029      1822      1840
 -1      3914    3    0    1
 -2      1643      1719      1757      1876
 -1      3915    3    0    1
 -2      1563       429      1815      1875
 -1      3916    3    0    1
 -2      1764      1601      1839      1841
 -1      3917    3    0    1
 -2      1674      1720      1819      1875
 -1      3918    3    0    1
 -2       189       366      1042      1828
 -1      3919    3    0    1
 -2      1526      1599      1643      1876
 -1      3920    3    0    1
 -2      1673      1563      1815      1875
 -1      3921    3    0    1
 -2       913       491      1803      1842
 -1      3922    3    0    1
 -2      1643      1599      1719      1876
 -1      3923    3    0    1
 -2      1569      1785      1821      1876
 -1      3924    3    0    1
 -2      1815       429      1819      1875
 -1      3925    3    0    1
 -2       402       318      1895      1937
 -1      3926    3    0    1
 -2      1044      1066      2069      2486
 -1      3927    3    0    1
 -2      2130      1993      2174      2527
 -1      3928    3    0    1
 -2      1628      1556      1908      1956
 -1      3929    3    0    1
 -2      1977      1027      2062      2066
 -1      3930    3    0    1
 -2      1997        14      2002      2061
 -1      3931    3    0    1
 -2       264       266      2084      2477
 -1      3932    3    0    1
 -2      1582      1707      1714      1871
 -1      3933    3    0    1
 -2        82        90      2044      2136
 -1      3934    3    0    1
 -2      1102      1927      2064      2143
 -1      3935    3    0    1
 -2      1865       916      1948      1952
 -1      3936    3    0    1
 -2      1137       636       637      1991
 -1      3937    3    0    1
 -2      1546      1582      1667      1955
 -1      3938    3    0    1
 -2      1625      1118      1631      1867
 -1      3939    3    0    1
 -2       623      1625      1872      1941
 -1      3940    3    0    1
 -2       419      1118      1685      1867
 -1      3941    3    0    1
 -2      1480      2673      2697      2402
 -1      3942    3    0    1
 -2       919       494      1803      1942
 -1      3943    3    0    1
 -2      1865       505      2052      2102
 -1      3944    3    0    1
 -2       712       885      1850      2495
 -1      3945    3    0    1
 -2      1443      1455      1459      2704
 -1      3946    3    0    1
 -2       505       937      1580      2102
 -1      3947    3    0    1
 -2      1052       193      1843      2526
 -1      3948    3    0    1
 -2      1254      2489      1255      2559
 -1      3949    3    0    1
 -2        16       417      1796      1837
 -1      3950    3    0    1
 -2       417        16       864      1837
 -1      3951    3    0    1
 -2       455       458       864      1837
 -1      3952    3    0    1
 -2        16       391       858      1837
 -1      3953    3    0    1
 -2      1207       311       448      1838
 -1      3954    3    0    1
 -2       311      1207       848      1838
 -1      3955    3    0    1
 -2       695       701       848      1838
 -1      3956    3    0    1
 -2       848       701      1549      1838
 -1      3957    3    0    1
 -2      1535       848      1549      1838
 -1      3958    3    0    1
 -2      1549      1823      1535      1838
 -1      3959    3    0    1
 -2       311       848      1535      1838
 -1      3960    3    0    1
 -2      1587      1024      1601      1839
 -1      3961    3    0    1
 -2      1673      1564      1815      1946
 -1      3962    3    0    1
 -2      1582      1546      1871      1955
 -1      3963    3    0    1
 -2       515       518       953      1981
 -1      3964    3    0    1
 -2      1024       563      1764      1839
 -1      3965    3    0    1
 -2       563      1023      1764      1839
 -1      3966    3    0    1
 -2       515       953      1773      1858
 -1      3967    3    0    1
 -2      1081       599      1087      1922
 -1      3968    3    0    1
 -2      1601      1024      1764      1839
 -1      3969    3    0    1
 -2      1684      1533      1966      1586
 -1      3970    3    0    1
 -2      1180       806      1684      1966
 -1      3971    3    0    1
 -2      1575      1548      1743      1921
 -1      3972    3    0    1
 -2       718       885        34      2034
 -1      3973    3    0    1
 -2       340      1587      1601      1841
 -1      3974    3    0    1
 -2      1048       578      1764      1841
 -1      3975    3    0    1
 -2       578      1047      1764      1841
 -1      3976    3    0    1
 -2       382      1641      1765      1847
 -1      3977    3    0    1
 -2      1126      1107      1833      1847
 -1      3978    3    0    1
 -2      1047      1601      1764      1841
 -1      3979    3    0    1
 -2      1047       340      1601      1841
 -1      3980    3    0    1
 -2       131       978      1811      1953
 -1      3981    3    0    1
 -2       755      1523      1918      2093
 -1      3982    3    0    1
 -2      1109      1735      1759      1927
 -1      3983    3    0    1
 -2      1167      1168      1724      1889
 -1      3984    3    0    1
 -2       799      1668       292      1889
 -1      3985    3    0    1
 -2      1548      1575      1668      1889
 -1      3986    3    0    1
 -2       292       410       799      1889
 -1      3987    3    0    1
 -2       251      1109      1759      1927
 -1      3988    3    0    1
 -2       331      1918      1925      2093
 -1      3989    3    0    1
 -2       915       492      1831      2102
 -1      3990    3    0    1
 -2       591      1071      1935      2010
 -1      3991    3    0    1
 -2       196       189      1924      2011
 -1      3992    3    0    1
 -2       901      1742      2025      2043
 -1      3993    3    0    1
 -2      1143      1916      2014      2039
 -1      3994    3    0    1
 -2      2154      2482      1256      2576
 -1      3995    3    0    1
 -2       285        18      1861      2012
 -1      3996    3    0    1
 -2      1161      1881       336      1162
 -1      3997    3    0    1
 -2       427      1988      1995      2037
 -1      3998    3    0    1
 -2       389      1125      1872      2030
 -1      3999    3    0    1
 -2       654       653      1638      1919
 -1      4000    3    0    1
 -2       339       199      1764      1846
 -1      4001    3    0    1
 -2       199       339      1031      1846
 -1      4002    3    0    1
 -2       199      1048      1764      1846
 -1      4003    3    0    1
 -2       199      1031      1051      1846
 -1      4004    3    0    1
 -2      1023       339      1764      1846
 -1      4005    3    0    1
 -2       382       380      1107      1847
 -1      4006    3    0    1
 -2       380       382      1765      1847
 -1      4007    3    0    1
 -2       483       903      1990      2032
 -1      4008    3    0    1
 -2      1548      1575      1699      1921
 -1      4009    3    0    1
 -2       382      1107      1126      1847
 -1      4010    3    0    1
 -2       914        67      1805      1848
 -1      4011    3    0    1
 -2      1583      1681      1783      1974
 -1      4012    3    0    1
 -2      1125       627       628      2013
 -1      4013    3    0    1
 -2        67       914      1614      1848
 -1      4014    3    0    1
 -2       754       553       552      1849
 -1      4015    3    0    1
 -2      1997        14      2061      2464
 -1      4016    3    0    1
 -2       762      1977      2027      2105
 -1      4017    3    0    1
 -2      1067      1063      1518      1978
 -1      4018    3    0    1
 -2       736      1635      1681      1981
 -1      4019    3    0    1
 -2       935      1863      2052      2109
 -1      4020    3    0    1
 -2       601       600      2090      2514
 -1      4021    3    0    1
 -2       518       736      1681      1981
 -1      4022    3    0    1
 -2       384        14       867      2464
 -1      4023    3    0    1
 -2       754      1849      1857      2086
 -1      4024    3    0    1
 -2      1063       425      1518      1978
 -1      4025    3    0    1
 -2      1721        88      2044      2087
 -1      4026    3    0    1
 -2      1010       365      1980      2105
 -1      4027    3    0    1
 -2       552       565      1010      1849
 -1      4028    3    0    1
 -2       518      1681      1782      1981
 -1      4029    3    0    1
 -2       565       762      1010      1849
 -1      4030    3    0    1
 -2      1754      1736      2050      2467
 -1      4031    3    0    1
 -2      1598      2086      2094      2478
 -1      4032    3    0    1
 -2       335       972      1622      2028
 -1      4033    3    0    1
 -2      2014       796      2040      2464
 -1      4034    3    0    1
 -2       471       712       885      1850
 -1      4035    3    0    1
 -2       865       460       884      1850
 -1      4036    3    0    1
 -2      1534      1587      1878      1893
 -1      4037    3    0    1
 -2      1863       111      1949      2095
 -1      4038    3    0    1
 -2       884      1850      1911      1963
 -1      4039    3    0    1
 -2      1651       884      1911      1963
 -1      4040    3    0    1
 -2      1559      1744      1910      1968
 -1      4041    3    0    1
 -2      1808      1874      1913      1962
 -1      4042    3    0    1
 -2       392       884      1651      1963
 -1      4043    3    0    1
 -2       577       564      1046      2113
 -1      4044    3    0    1
 -2      1535       448      1838      2020
 -1      4045    3    0    1
 -2       624       625      1934      2167
 -1      4046    3    0    1
 -2       860      1915      2489      2171
 -1      4047    3    0    1
 -2       636      1138      1991      2002
 -1      4048    3    0    1
 -2      2522      2470      2566      2609
 -1      4049    3    0    1
 -2      1552      1693      1885      1891
 -1      4050    3    0    1
 -2        13      1694      1885      1891
 -1      4051    3    0    1
 -2       841       844      1711      1936
 -1      4052    3    0    1
 -2      1869      1627      1893      1936
 -1      4053    3    0    1
 -2      2493      1376      2181      2732
 -1      4054    3    0    1
 -2       935        82      1863      2109
 -1      4055    3    0    1
 -2      1576      1552      1606      1859
 -1      4056    3    0    1
 -2      1565      1670      1738      1862
 -1      4057    3    0    1
 -2       188      1738      1797      1862
 -1      4058    3    0    1
 -2       415      1136      1694      1859
 -1      4059    3    0    1
 -2      1576       415      1694      1859
 -1      4060    3    0    1
 -2       737      1755      1860      1953
 -1      4061    3    0    1
 -2      1552      1576      1694      1859
 -1      4062    3    0    1
 -2       858       455      1837      1989
 -1      4063    3    0    1
 -2       638       635      1666      1972
 -1      4064    3    0    1
 -2       115       737      1755      1860
 -1      4065    3    0    1
 -2       113       115      1755      1860
 -1      4066    3    0    1
 -2       115       113       737      1860
 -1      4067    3    0    1
 -2       602      1086      1868      1954
 -1      4068    3    0    1
 -2      1653      1750      1806      1979
 -1      4069    3    0    1
 -2       426      1522      1898      1954
 -1      4070    3    0    1
 -2       602      1087      1922      2015
 -1      4071    3    0    1
 -2      1150      1147      1894      1902
 -1      4072    3    0    1
 -2       916       917      1948      1952
 -1      4073    3    0    1
 -2      1552      1629      1894      1902
 -1      4074    3    0    1
 -2       628      1124      1916      2013
 -1      4075    3    0    1
 -2      1593       738      1953      2466
 -1      4076    3    0    1
 -2       737       520       978      1953
 -1      4077    3    0    1
 -2       427       236      1087      2015
 -1      4078    3    0    1
 -2      2065       897      2100      2101
 -1      4079    3    0    1
 -2       372        72       916      1952
 -1      4080    3    0    1
 -2       737       348      1755      1953
 -1      4081    3    0    1
 -2       348       131      1811      1953
 -1      4082    3    0    1
 -2      1137       862      2468      1234
 -1      4083    3    0    1
 -2      1958       255      1987      2031
 -1      4084    3    0    1
 -2      1124       628       627      2013
 -1      4085    3    0    1
 -2        88       936      1865      2110
 -1      4086    3    0    1
 -2       936       916      1865      2110
 -1      4087    3    0    1
 -2      1676      1065      2019      2078
 -1      4088    3    0    1
 -2      2523      2560      2721      2722
 -1      4089    3    0    1
 -2       356       215      2019      2078
 -1      4090    3    0    1
 -2       128       343      2459      2096
 -1      4091    3    0    1
 -2       755       164      1763      2093
 -1      4092    3    0    1
 -2       264       266      1660      2084
 -1      4093    3    0    1
 -2        82       935      1863      1865
 -1      4094    3    0    1
 -2       935        82       936      1865
 -1      4095    3    0    1
 -2      1709      1678      1832      2045
 -1      4096    3    0    1
 -2        82        88       936      1865
 -1      4097    3    0    1
 -2       971      1811      1817      1983
 -1      4098    3    0    1
 -2      2267      2212      2679      2392
 -1      4099    3    0    1
 -2       916       492       936      1865
 -1      4100    3    0    1
 -2       492       505       936      1865
 -1      4101    3    0    1
 -2      2054      2467      2168      2678
 -1      4102    3    0    1
 -2       519      1593      1860      1949
 -1      4103    3    0    1
 -2       531       979      1772      1953
 -1      4104    3    0    1
 -2      2516      2482      2549      2599
 -1      4105    3    0    1
 -2      1090       777       603      2004
 -1      4106    3    0    1
 -2       961       111      1593      1949
 -1      4107    3    0    1
 -2      1798      1088      1877      2004
 -1      4108    3    0    1
 -2       626      1123      1625      1940
 -1      4109    3    0    1
 -2      2590      1253      2737      2741
 -1      4110    3    0    1
 -2       956      1801      2085      2465
 -1      4111    3    0    1
 -2      1795       519      1860      1949
 -1      4112    3    0    1
 -2       811       813      1604      1895
 -1      4113    3    0    1
 -2      1013      1007      1751      2093
 -1      4114    3    0    1
 -2      1032       330      1918      2088
 -1      4115    3    0    1
 -2      1846       199      1924      2016
 -1      4116    3    0    1
 -2      1684      1533      1586      1600
 -1      4117    3    0    1
 -2       599      1082      1086      1922
 -1      4118    3    0    1
 -2       380      1099      1847      1920
 -1      4119    3    0    1
 -2      1583      1543      1814      2007
 -1      4120    3    0    1
 -2       389      1125      1142      1872
 -1      4121    3    0    1
 -2       388       389      1142      1872
 -1      4122    3    0    1
 -2      1085      1064      2476      2519
 -1      4123    3    0    1
 -2      1233      1337      2595      2624
 -1      4124    3    0    1
 -2       120       344       971      2005
 -1      4125    3    0    1
 -2       120      1811      1905      2005
 -1      4126    3    0    1
 -2      1623       344      1753      2005
 -1      4127    3    0    1
 -2      1623      1753      1817      2005
 -1      4128    3    0    1
 -2      1596      1571      1647      2007
 -1      4129    3    0    1
 -2      1604      1541      1784      2006
 -1      4130    3    0    1
 -2       344       743      1753      2005
 -1      4131    3    0    1
 -2       971       344      1817      2005
 -1      4132    3    0    1
 -2      1604      1784      1788      2006
 -1      4133    3    0    1
 -2       743      1568      1753      2005
 -1      4134    3    0    1
 -2       615       604       777      1877
 -1      4135    3    0    1
 -2       604       615      1108      1877
 -1      4136    3    0    1
 -2      1088       604      1108      1877
 -1      4137    3    0    1
 -2       615       777      1109      1877
 -1      4138    3    0    1
 -2      1546      1589      1680      1880
 -1      4139    3    0    1
 -2        37        38       717      2018
 -1      4140    3    0    1
 -2      1120       375      1660      1967
 -1      4141    3    0    1
 -2      1120      1957      2125      2151
 -1      4142    3    0    1
 -2      1299      2628      2663      2702
 -1      4143    3    0    1
 -2      1125      1142      1872      2030
 -1      4144    3    0    1
 -2       480       493      1948      2100
 -1      4145    3    0    1
 -2      2430      2677      2447      2455
 -1      4146    3    0    1
 -2       556       755      1523      1918
 -1      4147    3    0    1
 -2      1820       427      1995      2037
 -1      4148    3    0    1
 -2      1882      2119      2153      2484
 -1      4149    3    0    1
 -2      1745      1561      1898      1912
 -1      4150    3    0    1
 -2       426      1588      1898      1912
 -1      4151    3    0    1
 -2       885        34      2034      2495
 -1      4152    3    0    1
 -2      1065       356       359      2019
 -1      4153    3    0    1
 -2      1013       327      1763      1933
 -1      4154    3    0    1
 -2       327       325      1763      1933
 -1      4155    3    0    1
 -2       456       861      1915      2114
 -1      4156    3    0    1
 -2        14       711      2002      2131
 -1      4157    3    0    1
 -2      1522       426      1898      1912
 -1      4158    3    0    1
 -2       433        46      1990      2033
 -1      4159    3    0    1
 -2      1191       445       820      1998
 -1      4160    3    0    1
 -2      1562      1679      1767      1912
 -1      4161    3    0    1
 -2      1679      1561      1745      1912
 -1      4162    3    0    1
 -2      1767      1679      1898      1912
 -1      4163    3    0    1
 -2       483       718       903      1884
 -1      4164    3    0    1
 -2       483       472       718      1884
 -1      4165    3    0    1
 -2      1380      2265      2299      2658
 -1      4166    3    0    1
 -2      1330      1366      1471      2368
 -1      4167    3    0    1
 -2       850       703      1790      1887
 -1      4168    3    0    1
 -2      1049      1052      1843      1888
 -1      4169    3    0    1
 -2      1049       579      1052      1888
 -1      4170    3    0    1
 -2       579      1050      1051      1888
 -1      4171    3    0    1
 -2       459       867      1997      2040
 -1      4172    3    0    1
 -2      1050       189      1051      1888
 -1      4173    3    0    1
 -2      1029       330      1822      1925
 -1      4174    3    0    1
 -2      1624       566      1822      1925
 -1      4175    3    0    1
 -2       189       196      1051      1888
 -1      4176    3    0    1
 -2      1822       330      1918      1925
 -1      4177    3    0    1
 -2      1167       292      1168      1889
 -1      4178    3    0    1
 -2      1168       292      1724      1889
 -1      4179    3    0    1
 -2       592       603      1855      2462
 -1      4180    3    0    1
 -2      1709      2045      2046      2063
 -1      4181    3    0    1
 -2      1025       564      1977      2113
 -1      4182    3    0    1
 -2      2474      2471      2538      2597
 -1      4183    3    0    1
 -2      2592      1257      2307      2678
 -1      4184    3    0    1
 -2        18       285       866      2012
 -1      4185    3    0    1
 -2       285      1861      2001      2012
 -1      4186    3    0    1
 -2       587       590      1808      1978
 -1      4187    3    0    1
 -2      1518       425      1809      1978
 -1      4188    3    0    1
 -2       722       482      1950      2043
 -1      4189    3    0    1
 -2       580       591      1731      2010
 -1      4190    3    0    1
 -2      1715      1564      1946      1994
 -1      4191    3    0    1
 -2      1027      2472      1219      2548
 -1      4192    3    0    1
 -2      1050      1731      1913      2011
 -1      4193    3    0    1
 -2      1627      1893      1936      2020
 -1      4194    3    0    1
 -2      1656       393      1907      1929
 -1      4195    3    0    1
 -2       813      1788      1895      1937
 -1      4196    3    0    1
 -2      1627      1534      1869      1893
 -1      4197    3    0    1
 -2      1691      1184      1747      1903
 -1      4198    3    0    1
 -2       643      1147      1693      1894
 -1      4199    3    0    1
 -2      1123       626      1641      1940
 -1      4200    3    0    1
 -2       519       961      1593      1949
 -1      4201    3    0    1
 -2      1896       405       810       320
 -1      4202    3    0    1
 -2       815       405      1883      1896
 -1      4203    3    0    1
 -2       320       405       815      1896
 -1      4204    3    0    1
 -2      1680       815      1883      1896
 -1      4205    3    0    1
 -2       810      1883       405      1896
 -1      4206    3    0    1
 -2       297      1182       316      1897
 -1      4207    3    0    1
 -2       812      1541      1604      1897
 -1      4208    3    0    1
 -2      1182       297       812      1897
 -1      4209    3    0    1
 -2      1173       297       316      1897
 -1      4210    3    0    1
 -2       812       297      1541      1897
 -1      4211    3    0    1
 -2      1541       297      1616      1897
 -1      4212    3    0    1
 -2       297      1173      1172      1897
 -1      4213    3    0    1
 -2       297      1172      1616      1897
 -1      4214    3    0    1
 -2       898      1866      2055      2123
 -1      4215    3    0    1
 -2      2616      2542      2629      2675
 -1      4216    3    0    1
 -2       282       388      1142      2036
 -1      4217    3    0    1
 -2      1534      1640      1711      1936
 -1      4218    3    0    1
 -2      1534      1869      1893      1936
 -1      4219    3    0    1
 -2      1069       592      1820      1899
 -1      4220    3    0    1
 -2      1069      1070       592      1899
 -1      4221    3    0    1
 -2       625       624      1660      2167
 -1      4222    3    0    1
 -2       530      1728      1773      1983
 -1      4223    3    0    1
 -2      1640      1534      1893      1936
 -1      4224    3    0    1
 -2      1199       685      1869      1936
 -1      4225    3    0    1
 -2      1810       392      1963      1989
 -1      4226    3    0    1
 -2      1690      1842      1848      1900
 -1      4227    3    0    1
 -2       304      1629      1845      1902
 -1      4228    3    0    1
 -2      1629       304      1894      1902
 -1      4229    3    0    1
 -2       412       304      1189      1902
 -1      4230    3    0    1
 -2       304       412      1147      1902
 -1      4231    3    0    1
 -2      1189       304      1190      1902
 -1      4232    3    0    1
 -2       304      1147      1150      1902
 -1      4233    3    0    1
 -2      1190       304      1845      1902
 -1      4234    3    0    1
 -2       304      1150      1894      1902
 -1      4235    3    0    1
 -2      1184       303       818      1903
 -1      4236    3    0    1
 -2       303       845       832      1903
 -1      4237    3    0    1
 -2       818       303      1747      1903
 -1      4238    3    0    1
 -2       414        13      1630      1904
 -1      4239    3    0    1
 -2      1630        13      1891      1904
 -1      4240    3    0    1
 -2       113      1755      1782      1971
 -1      4241    3    0    1
 -2      1755       113      1860      1971
 -1      4242    3    0    1
 -2      1588       426      1898      1954
 -1      4243    3    0    1
 -2      1788      1784      1814      2006
 -1      4244    3    0    1
 -2       531       978      1772      1905
 -1      4245    3    0    1
 -2       978       531       743      1905
 -1      4246    3    0    1
 -2       532       531      1772      1905
 -1      4247    3    0    1
 -2       531       532       743      1905
 -1      4248    3    0    1
 -2       896        43      1770      1930
 -1      4249    3    0    1
 -2      1538      1656      1787      1930
 -1      4250    3    0    1
 -2      1554       416      1746      1943
 -1      4251    3    0    1
 -2      1642      1538      1787      1930
 -1      4252    3    0    1
 -2      2631      1299      2694      2721
 -1      4253    3    0    1
 -2       914      1907       393       919
 -1      4254    3    0    1
 -2       702      1214      1688      1908
 -1      4255    3    0    1
 -2       690      1214       702      1908
 -1      4256    3    0    1
 -2      1622       527      1623      2028
 -1      4257    3    0    1
 -2       567      1844      1918      2029
 -1      4258    3    0    1
 -2       944        88      1721      2513
 -1      4259    3    0    1
 -2       306      1192      1818      1909
 -1      4260    3    0    1
 -2       554      1012      1807      1969
 -1      4261    3    0    1
 -2      1012      1008      1821      1969
 -1      4262    3    0    1
 -2      1674      1564      1862      1994
 -1      4263    3    0    1
 -2       472       718      1884      1911
 -1      4264    3    0    1
 -2       472       471       718      1911
 -1      4265    3    0    1
 -2       471       472       717      1911
 -1      4266    3    0    1
 -2       717       472      1884      1911
 -1      4267    3    0    1
 -2       717        36       884      1911
 -1      4268    3    0    1
 -2       884        36      1651      1911
 -1      4269    3    0    1
 -2       722      1532      1570      2043
 -1      4270    3    0    1
 -2        36        38      1651      1911
 -1      4271    3    0    1
 -2        38        36       717      1911
 -1      4272    3    0    1
 -2      1588      1562      1655      1912
 -1      4273    3    0    1
 -2      1588      1655      1898      1912
 -1      4274    3    0    1
 -2      1655      1767      1898      1912
 -1      4275    3    0    1
 -2      1070      1050      1731      1913
 -1      4276    3    0    1
 -2       346       218      1070      1913
 -1      4277    3    0    1
 -2       346      1070      1899      1913
 -1      4278    3    0    1
 -2       366       218      1874      1913
 -1      4279    3    0    1
 -2       218       366      1070      1913
 -1      4280    3    0    1
 -2       366      1050      1070      1913
 -1      4281    3    0    1
 -2       993       973      2460      2076
 -1      4282    3    0    1
 -2      1560      1646      1824      1968
 -1      4283    3    0    1
 -2      2488      2152      2188      2208
 -1      4284    3    0    1
 -2       356       772      1071      1935
 -1      4285    3    0    1
 -2      1927       436      2084      2143
 -1      4286    3    0    1
 -2       591       592      1899      1935
 -1      4287    3    0    1
 -2       616       627      1833      1914
 -1      4288    3    0    1
 -2      1107       616      1833      1914
 -1      4289    3    0    1
 -2       616      1107      1735      1914
 -1      4290    3    0    1
 -2       627      1106      1127      1914
 -1      4291    3    0    1
 -2       627       616      1106      1914
 -1      4292    3    0    1
 -2       865       391        16      1963
 -1      4293    3    0    1
 -2       881       879       468      1992
 -1      4294    3    0    1
 -2       457       456       711      1915
 -1      4295    3    0    1
 -2        31        34       716      1993
 -1      4296    3    0    1
 -2      1062       428      1988      2035
 -1      4297    3    0    1
 -2       624       625      1121      2525
 -1      4298    3    0    1
 -2      1195      1767      1959      1960
 -1      4299    3    0    1
 -2      1671      2077      2097      2115
 -1      4300    3    0    1
 -2       861       711       456      1915
 -1      4301    3    0    1
 -2      1064      1085      2476      1230
 -1      4302    3    0    1
 -2       993      2460      1217      1218
 -1      4303    3    0    1
 -2       360       193      2170      2176
 -1      4304    3    0    1
 -2       568      1030      1761      2172
 -1      4305    3    0    1
 -2      1849       565      1977      2066
 -1      4306    3    0    1
 -2      1573      1656      1787      1961
 -1      4307    3    0    1
 -2       590      1808      1819      1962
 -1      4308    3    0    1
 -2       459      1997      2017      2040
 -1      4309    3    0    1
 -2       255       254      1958      1987
 -1      4310    3    0    1
 -2      1796        16      1837      1963
 -1      4311    3    0    1
 -2        14       711      1524      2002
 -1      4312    3    0    1
 -2      1087      1081      1922      2015
 -1      4313    3    0    1
 -2       711       457      1915      2002
 -1      4314    3    0    1
 -2      1735       615      1877      1958
 -1      4315    3    0    1
 -2      1874      1828      1913      1962
 -1      4316    3    0    1
 -2       865        16      1796      1963
 -1      4317    3    0    1
 -2      1538      1577      1931      1961
 -1      4318    3    0    1
 -2      1099      1847      1920      2031
 -1      4319    3    0    1
 -2      1868      1954      1988      2015
 -1      4320    3    0    1
 -2       457       636      1991      2002
 -1      4321    3    0    1
 -2        38      1651      1911      2018
 -1      4322    3    0    1
 -2      1801       956      2000      2095
 -1      4323    3    0    1
 -2       628      1124      1143      1916
 -1      4324    3    0    1
 -2       289      1195       317      1960
 -1      4325    3    0    1
 -2       639       628      1143      1916
 -1      4326    3    0    1
 -2       923        72      1938      1996
 -1      4327    3    0    1
 -2       864      1901      1947      2012
 -1      4328    3    0    1
 -2       744      1723      1772      2459
 -1      4329    3    0    1
 -2      1030       568      1844      2116
 -1      4330    3    0    1
 -2       578       575      1841      1924
 -1      4331    3    0    1
 -2       575       578      1048      1924
 -1      4332    3    0    1
 -2      1048       578      1841      1924
 -1      4333    3    0    1
 -2       199       196      1048      1924
 -1      4334    3    0    1
 -2       972       976      1983      2028
 -1      4335    3    0    1
 -2      1026       762      1977      2117
 -1      4336    3    0    1
 -2       527       972      1983      2028
 -1      4337    3    0    1
 -2       567      1033      1844      2029
 -1      4338    3    0    1
 -2      1817       527      1983      2028
 -1      4339    3    0    1
 -2      1992       881      2489      2171
 -1      4340    3    0    1
 -2      2584      1365      1366      2610
 -1      4341    3    0    1
 -2       189       196      1888      2011
 -1      4342    3    0    1
 -2      2193      2218      2296      2672
 -1      4343    3    0    1
 -2       588      2009      2098      2162
 -1      4344    3    0    1
 -2      2097      1892      2488      2490
 -1      4345    3    0    1
 -2       193      1041      2170      2176
 -1      4346    3    0    1
 -2       366       189      1050      2011
 -1      4347    3    0    1
 -2      1675      1026      2170      2176
 -1      4348    3    0    1
 -2      2119      2118      2141      2178
 -1      4349    3    0    1
 -2      1145      1633      1737      1931
 -1      4350    3    0    1
 -2      1144      1145      1737      1931
 -1      4351    3    0    1
 -2       295       804      1170      1931
 -1      4352    3    0    1
 -2      1538      1577      1737      1931
 -1      4353    3    0    1
 -2       295       394       804      1931
 -1      4354    3    0    1
 -2      1144       295      1145      1931
 -1      4355    3    0    1
 -2       804       394      1577      1931
 -1      4356    3    0    1
 -2      1577       394      1737      1931
 -1      4357    3    0    1
 -2       394       295      1144      1931
 -1      4358    3    0    1
 -2       394      1144      1737      1931
 -1      4359    3    0    1
 -2       421       422      1833      1986
 -1      4360    3    0    1
 -2       878      1532      1669      1932
 -1      4361    3    0    1
 -2       467       878      1669      1932
 -1      4362    3    0    1
 -2       878       467      1532      1932
 -1      4363    3    0    1
 -2       895       479      1950      2026
 -1      4364    3    0    1
 -2       877        37      1742      1932
 -1      4365    3    0    1
 -2        58       381       724      2494
 -1      4366    3    0    1
 -2       711      1138      2002      2131
 -1      4367    3    0    1
 -2        38        37       877      1932
 -1      4368    3    0    1
 -2       467       877      1742      1932
 -1      4369    3    0    1
 -2      1524       716      1993      2114
 -1      4370    3    0    1
 -2       255       254      1108      1958
 -1      4371    3    0    1
 -2       120       971      1811      2005
 -1      4372    3    0    1
 -2       365       162      1010      1980
 -1      4373    3    0    1
 -2      1577      1581      1931      1961
 -1      4374    3    0    1
 -2      1948       898      2055      2123
 -1      4375    3    0    1
 -2       192      1049      1843      2487
 -1      4376    3    0    1
 -2       362      1030      2116      2526
 -1      4377    3    0    1
 -2      1088      1798      1877      1958
 -1      4378    3    0    1
 -2      1926       347      2117      2526
 -1      4379    3    0    1
 -2       432        31      1993      2130
 -1      4380    3    0    1
 -2      1108      1088      1877      1958
 -1      4381    3    0    1
 -2      1996        72      2129      2494
 -1      4382    3    0    1
 -2       592      1820      1899      1935
 -1      4383    3    0    1
 -2      1820       592      1855      1935
 -1      4384    3    0    1
 -2      1534      1711      1869      1936
 -1      4385    3    0    1
 -2       332      1202      1869      1936
 -1      4386    3    0    1
 -2       321      1202       332      1936
 -1      4387    3    0    1
 -2      1711       332      1869      1936
 -1      4388    3    0    1
 -2       321       844       841      1936
 -1      4389    3    0    1
 -2       844       332      1711      1936
 -1      4390    3    0    1
 -2       844       321       332      1936
 -1      4391    3    0    1
 -2        55       902      1813      2025
 -1      4392    3    0    1
 -2        50        55      1813      2025
 -1      4393    3    0    1
 -2      1216      1673      1946      2024
 -1      4394    3    0    1
 -2       495       496       922      1938
 -1      4395    3    0    1
 -2       382      1123      1641      1940
 -1      4396    3    0    1
 -2      1032      1844      1923      2088
 -1      4397    3    0    1
 -2       330      1722      1822      2088
 -1      4398    3    0    1
 -2       496       921       922      1938
 -1      4399    3    0    1
 -2       922       921      1689      1938
 -1      4400    3    0    1
 -2       330      1822      1918      2088
 -1      4401    3    0    1
 -2      1141       282      2001      2036
 -1      4402    3    0    1
 -2       839       310      1216      2024
 -1      4403    3    0    1
 -2      1118      1637      1685      1941
 -1      4404    3    0    1
 -2      1685      1637      1727      1941
 -1      4405    3    0    1
 -2       623      1118      1685      1941
 -1      4406    3    0    1
 -2       623      1685      1727      1941
 -1      4407    3    0    1
 -2       388       389      1872      1941
 -1      4408    3    0    1
 -2      1727      1584      1872      1941
 -1      4409    3    0    1
 -2      1625      1727      1872      1941
 -1      4410    3    0    1
 -2      1808      1062       346      1068
 -1      4411    3    0    1
 -2       433       899      2055      2128
 -1      4412    3    0    1
 -2       565      1027      1977      2066
 -1      4413    3    0    1
 -2       428      1069      1089      1995
 -1      4414    3    0    1
 -2       903      2174      2033      2032
 -1      4415    3    0    1
 -2       718      1884      1911      2034
 -1      4416    3    0    1
 -2      1762      1673      1815      2023
 -1      4417    3    0    1
 -2        45        57       895      1944
 -1      4418    3    0    1
 -2      1815      1673      1946      2023
 -1      4419    3    0    1
 -2       921        66      1689      1945
 -1      4420    3    0    1
 -2       921       507       943      1945
 -1      4421    3    0    1
 -2       396       921       943      1945
 -1      4422    3    0    1
 -2       496       507       921      1945
 -1      4423    3    0    1
 -2        91       396       943      1945
 -1      4424    3    0    1
 -2       902        55      2018      2025
 -1      4425    3    0    1
 -2       771      1045      2135      2177
 -1      4426    3    0    1
 -2       901        50      1950      2025
 -1      4427    3    0    1
 -2        37      1742      1932      2025
 -1      4428    3    0    1
 -2        46      1866      1990      2033
 -1      4429    3    0    1
 -2      1697       458      1901      1947
 -1      4430    3    0    1
 -2      1694      1697      1859      1947
 -1      4431    3    0    1
 -2      1861      1697      1901      1947
 -1      4432    3    0    1
 -2      1859      1697      1861      1947
 -1      4433    3    0    1
 -2       978      1772      1905      1953
 -1      4434    3    0    1
 -2       146      1692      2104      2475
 -1      4435    3    0    1
 -2       917        72      1948      1952
 -1      4436    3    0    1
 -2      1710      2057      2071      2474
 -1      4437    3    0    1
 -2        72       372      1938      1952
 -1      4438    3    0    1
 -2      1120       624      1957      2124
 -1      4439    3    0    1
 -2       898       493       917      1948
 -1      4440    3    0    1
 -2      1119       624      1934      2124
 -1      4441    3    0    1
 -2       480       493       898      1948
 -1      4442    3    0    1
 -2      1109       256       251      2480
 -1      4443    3    0    1
 -2       479       896      1950      2026
 -1      4444    3    0    1
 -2        45      1813      1944      1950
 -1      4445    3    0    1
 -2       895        45      1944      1950
 -1      4446    3    0    1
 -2       479       901       895      1950
 -1      4447    3    0    1
 -2        45       895       901      1950
 -1      4448    3    0    1
 -2      1944       895      1950      2026
 -1      4449    3    0    1
 -2       362       177       762      2027
 -1      4450    3    0    1
 -2       146       750      1692      2475
 -1      4451    3    0    1
 -2        45        50      1813      1950
 -1      4452    3    0    1
 -2        50        45       901      1950
 -1      4453    3    0    1
 -2       722       896      1770      2026
 -1      4454    3    0    1
 -2      1834       895      1944      2026
 -1      4455    3    0    1
 -2       479       895      1834      2026
 -1      4456    3    0    1
 -2      2497      1228      1262      1263
 -1      4457    3    0    1
 -2      1766      2146      2505      2633
 -1      4458    3    0    1
 -2      1674      1720      1875      1994
 -1      4459    3    0    1
 -2       531       520       738      1953
 -1      4460    3    0    1
 -2       531       738       979      1953
 -1      4461    3    0    1
 -2      1086       426      1588      1954
 -1      4462    3    0    1
 -2      1086      1588      1868      1954
 -1      4463    3    0    1
 -2       603      1089      1820      2004
 -1      4464    3    0    1
 -2       603      1820      1855      2004
 -1      4465    3    0    1
 -2      1556      1688      1908      1956
 -1      4466    3    0    1
 -2      1688      1556      1943      1956
 -1      4467    3    0    1
 -2      1253      2590      1407      2741
 -1      4468    3    0    1
 -2       637       636       794      1957
 -1      4469    3    0    1
 -2      1272      1271      1317      2564
 -1      4470    3    0    1
 -2       820      1554      1695      1998
 -1      4471    3    0    1
 -2      1240      2501      1241      2512
 -1      4472    3    0    1
 -2      2564      2503      2604      2614
 -1      4473    3    0    1
 -2      2063      1709      2493      2181
 -1      4474    3    0    1
 -2       601       588      1064      2519
 -1      4475    3    0    1
 -2      1009       552      1856      2066
 -1      4476    3    0    1
 -2      1015       555      2074      2475
 -1      4477    3    0    1
 -2      1744      1910      1560      1683
 -1      4478    3    0    1
 -2      1644      1559      1910      1968
 -1      4479    3    0    1
 -2      1910      1744      1560      1968
 -1      4480    3    0    1
 -2       750      1015      2074      2475
 -1      4481    3    0    1
 -2      2556      2531      2569      2597
 -1      4482    3    0    1
 -2       956       516      1801      2000
 -1      4483    3    0    1
 -2       938      1614      1900      1999
 -1      4484    3    0    1
 -2       517       516       956      2000
 -1      4485    3    0    1
 -2      1224      1223      2517      1291
 -1      4486    3    0    1
 -2      1741      1644      1910      1968
 -1      4487    3    0    1
 -2       637       794      1120      1957
 -1      4488    3    0    1
 -2      1742      1932      2025      2043
 -1      4489    3    0    1
 -2       624       637      1120      1957
 -1      4490    3    0    1
 -2      1646      1560      1744      1968
 -1      4491    3    0    1
 -2      1554       446      1686      1998
 -1      4492    3    0    1
 -2      1120       375      1967      2125
 -1      4493    3    0    1
 -2      1043      1797      1717      1965
 -1      4494    3    0    1
 -2       575      1043      1047      1965
 -1      4495    3    0    1
 -2       575      1841      1924      1965
 -1      4496    3    0    1
 -2      1828       575      1924      1965
 -1      4497    3    0    1
 -2      1841       575      1047      1965
 -1      4498    3    0    1
 -2       575      1841      1047       578
 -1      4499    3    0    1
 -2      1043      1674      1720      1965
 -1      4500    3    0    1
 -2      1720      1674      1874      1965
 -1      4501    3    0    1
 -2      1720      1874      1962      1965
 -1      4502    3    0    1
 -2       575      1828      1874      1965
 -1      4503    3    0    1
 -2      1874      1828      1962      1965
 -1      4504    3    0    1
 -2      1043       575      1874      1965
 -1      4505    3    0    1
 -2      1674      1043      1874      1965
 -1      4506    3    0    1
 -2       336      1180      1881      1966
 -1      4507    3    0    1
 -2       881       860      2489      2171
 -1      4508    3    0    1
 -2        55       717       902      2018
 -1      4509    3    0    1
 -2      1651        38      1932      2018
 -1      4510    3    0    1
 -2      1884       903      2032      2174
 -1      4511    3    0    1
 -2      1012       551      1008      1969
 -1      4512    3    0    1
 -2      1008       551      1751      1969
 -1      4513    3    0    1
 -2       551       554      1751      1969
 -1      4514    3    0    1
 -2       551      1012       554      1969
 -1      4515    3    0    1
 -2       554      1807      1933      1969
 -1      4516    3    0    1
 -2      1751       554      1933      1969
 -1      4517    3    0    1
 -2      1748       326      1821      1969
 -1      4518    3    0    1
 -2       326      1748      1807      1969
 -1      4519    3    0    1
 -2      1630      1550      1662      1970
 -1      4520    3    0    1
 -2      1662      1691      1747      1970
 -1      4521    3    0    1
 -2      1662      1550      1691      1970
 -1      4522    3    0    1
 -2      1691      1550      1904      1970
 -1      4523    3    0    1
 -2      1553      1691      1904      1970
 -1      4524    3    0    1
 -2       960       113       399      1971
 -1      4525    3    0    1
 -2        95       399      1520      1971
 -1      4526    3    0    1
 -2       942        95      1520      1971
 -1      4527    3    0    1
 -2       399       942       960      1971
 -1      4528    3    0    1
 -2       399        95       942      1971
 -1      4529    3    0    1
 -2      1141       638      1584      1972
 -1      4530    3    0    1
 -2      1136       635      1859      1972
 -1      4531    3    0    1
 -2       635      1136      1666      1972
 -1      4532    3    0    1
 -2      1666      1136      1859      1972
 -1      4533    3    0    1
 -2      1861      1859      1947      1972
 -1      4534    3    0    1
 -2       635      1861      1947      1972
 -1      4535    3    0    1
 -2      1859       635      1947      1972
 -1      4536    3    0    1
 -2      1792       863      1901      1973
 -1      4537    3    0    1
 -2       863      1697      1901      1973
 -1      4538    3    0    1
 -2       414      1792      1873      1973
 -1      4539    3    0    1
 -2      1630       414      1873      1973
 -1      4540    3    0    1
 -2      1885        13      1891      1973
 -1      4541    3    0    1
 -2      1630      1885      1891      1973
 -1      4542    3    0    1
 -2        13      1630      1891      1973
 -1      4543    3    0    1
 -2       503      1783      1791      1974
 -1      4544    3    0    1
 -2      1618       503      1791      1974
 -1      4545    3    0    1
 -2      1783       503      1618      1974
 -1      4546    3    0    1
 -2       503      1783      1618       933
 -1      4547    3    0    1
 -2       294      1621      1638      1975
 -1      4548    3    0    1
 -2      1557      1621      1703      1975
 -1      4549    3    0    1
 -2      1621      1557      1638      1975
 -1      4550    3    0    1
 -2       691       703      1887      1975
 -1      4551    3    0    1
 -2       294       444      1621      1975
 -1      4552    3    0    1
 -2       835       294      1215      1975
 -1      4553    3    0    1
 -2       691      1215       703      1975
 -1      4554    3    0    1
 -2       835       691      1703      1975
 -1      4555    3    0    1
 -2      1215       691       835      1975
 -1      4556    3    0    1
 -2       444       835      1703      1975
 -1      4557    3    0    1
 -2       444       294       835      1975
 -1      4558    3    0    1
 -2      1703       691      1887      1975
 -1      4559    3    0    1
 -2      1621       444      1703      1975
 -1      4560    3    0    1
 -2       442      1214       833      1976
 -1      4561    3    0    1
 -2       850       442       834      1976
 -1      4562    3    0    1
 -2       834       442      1887      1976
 -1      4563    3    0    1
 -2       976      1519      1983      2028
 -1      4564    3    0    1
 -2      1026       762       565      1977
 -1      4565    3    0    1
 -2       916      1865      2110      2165
 -1      4566    3    0    1
 -2       484      1939      1990      2120
 -1      4567    3    0    1
 -2      2188      2620      2404      2728
 -1      4568    3    0    1
 -2       564       565      1027      1977
 -1      4569    3    0    1
 -2      1026       564      1675      1977
 -1      4570    3    0    1
 -2      1026       565       564      1977
 -1      4571    3    0    1
 -2       460      1850      1997      2127
 -1      4572    3    0    1
 -2      1030       568      2116      2172
 -1      4573    3    0    1
 -2      1025       564      1027      1977
 -1      4574    3    0    1
 -2       590      1067      1819      1978
 -1      4575    3    0    1
 -2      1067       590      1063      1978
 -1      4576    3    0    1
 -2       883       392      1985      1989
 -1      4577    3    0    1
 -2      1837      1810      1963      1989
 -1      4578    3    0    1
 -2      1555       470      1810      1989
 -1      4579    3    0    1
 -2      1063       587      1868      1978
 -1      4580    3    0    1
 -2       470       883      1985      1989
 -1      4581    3    0    1
 -2       389      1872      1986      2030
 -1      4582    3    0    1
 -2      1104       614      1653      1982
 -1      4583    3    0    1
 -2       599      1082      1750      1982
 -1      4584    3    0    1
 -2      1750      1082      1806      1982
 -1      4585    3    0    1
 -2       423      1081      1798      1982
 -1      4586    3    0    1
 -2      1798      1081      1979      1982
 -1      4587    3    0    1
 -2       254       423      1798      1982
 -1      4588    3    0    1
 -2       254      1798      1979      1982
 -1      4589    3    0    1
 -2      1227      2471      1228      2497
 -1      4590    3    0    1
 -2       527       971      1817      1983
 -1      4591    3    0    1
 -2       527       977       971      1983
 -1      4592    3    0    1
 -2       977       530      1773      1983
 -1      4593    3    0    1
 -2      1651       392      1810      1985
 -1      4594    3    0    1
 -2       883       877       470      1985
 -1      4595    3    0    1
 -2       877      1651      1932      1985
 -1      4596    3    0    1
 -2       877       883      1651      1985
 -1      4597    3    0    1
 -2       470       467      1669      1985
 -1      4598    3    0    1
 -2       467       470       877      1985
 -1      4599    3    0    1
 -2       467       877      1932      1985
 -1      4600    3    0    1
 -2      1669       467      1932      1985
 -1      4601    3    0    1
 -2      1123      1625      1940      1986
 -1      4602    3    0    1
 -2      1123      1117      1625      1986
 -1      4603    3    0    1
 -2       421      1117      1123      1986
 -1      4604    3    0    1
 -2      1117       389      1872      1986
 -1      4605    3    0    1
 -2       421       389      1117      1986
 -1      4606    3    0    1
 -2      1798       254      1979      1987
 -1      4607    3    0    1
 -2       254      1798      1958      1987
 -1      4608    3    0    1
 -2       614      1979      1982      1987
 -1      4609    3    0    1
 -2       903       483      1884      2032
 -1      4610    3    0    1
 -2       611      1099      1920      1987
 -1      4611    3    0    1
 -2      1099       611       614      1987
 -1      4612    3    0    1
 -2       381        58      2123      2494
 -1      4613    3    0    1
 -2      1911       885      1850       471
 -1      4614    3    0    1
 -2       254       255      1105      1987
 -1      4615    3    0    1
 -2       254      1105      1982      1987
 -1      4616    3    0    1
 -2      1105       614      1982      1987
 -1      4617    3    0    1
 -2      1062       428      1868      1988
 -1      4618    3    0    1
 -2       428       427      1868      1988
 -1      4619    3    0    1
 -2      1051      1031      1761      2016
 -1      4620    3    0    1
 -2      1142      1872      2030      2036
 -1      4621    3    0    1
 -2       579      1761      1888      2016
 -1      4622    3    0    1
 -2      2256      2531      2257      2678
 -1      4623    3    0    1
 -2       433        46       903      1990
 -1      4624    3    0    1
 -2      1576      1606      1629      1998
 -1      4625    3    0    1
 -2      1677       403      1955      2003
 -1      4626    3    0    1
 -2       636      1138      1957      1991
 -1      4627    3    0    1
 -2       457       862      1915      1991
 -1      4628    3    0    1
 -2      1139      1137       637      1991
 -1      4629    3    0    1
 -2       457       636      1137      1991
 -1      4630    3    0    1
 -2       862       457      1137      1991
 -1      4631    3    0    1
 -2      1564      1715      1862      1994
 -1      4632    3    0    1
 -2      1584      1141      2001      2036
 -1      4633    3    0    1
 -2      1738      1797      1862      1994
 -1      4634    3    0    1
 -2      1671      1708      2068      2115
 -1      4635    3    0    1
 -2      1678      1709      2051      2164
 -1      4636    3    0    1
 -2      2047      2509      2537      2550
 -1      4637    3    0    1
 -2       885       718      1911      2034
 -1      4638    3    0    1
 -2        46        58       724      2494
 -1      4639    3    0    1
 -2       899      1951      2055      2128
 -1      4640    3    0    1
 -2      1988       428      1995      2035
 -1      4641    3    0    1
 -2       587      1868      1978      2035
 -1      4642    3    0    1
 -2       346       216      1062      2035
 -1      4643    3    0    1
 -2        72      1952      1996      2129
 -1      4644    3    0    1
 -2       431       430      2145      2495
 -1      4645    3    0    1
 -2       724       923      2120      2494
 -1      4646    3    0    1
 -2      1877      1109      1735      2480
 -1      4647    3    0    1
 -2      2092      1781      2157      2184
 -1      4648    3    0    1
 -2       579      1051      1761      2016
 -1      4649    3    0    1
 -2        10       712       867      1997
 -1      4650    3    0    1
 -2       712       459       867      1997
 -1      4651    3    0    1
 -2      1796       460      1850      1997
 -1      4652    3    0    1
 -2        10        14      1524      1997
 -1      4653    3    0    1
 -2        14        10       867      1997
 -1      4654    3    0    1
 -2      1582      1667      1955      2003
 -1      4655    3    0    1
 -2       227       236      1089      2004
 -1      4656    3    0    1
 -2      1871      1582      1955      2003
 -1      4657    3    0    1
 -2      2562      1282      1320      2632
 -1      4658    3    0    1
 -2       385       390      2049      2131
 -1      4659    3    0    1
 -2       712       460       459      1997
 -1      4660    3    0    1
 -2       459       460      1796      1997
 -1      4661    3    0    1
 -2      1915       456      2114      2171
 -1      4662    3    0    1
 -2       903      1990      2032      2033
 -1      4663    3    0    1
 -2       227      1088      1798      2004
 -1      4664    3    0    1
 -2        58       381      2123      2139
 -1      4665    3    0    1
 -2      1660       624      2124      2167
 -1      4666    3    0    1
 -2      1708      2068      2115      2491
 -1      4667    3    0    1
 -2      1692       144      1726      2096
 -1      4668    3    0    1
 -2      1723      1698      2459      2096
 -1      4669    3    0    1
 -2       128      1698      2080      2096
 -1      4670    3    0    1
 -2       403      1871      1955      2003
 -1      4671    3    0    1
 -2       390      2002      2049      2131
 -1      4672    3    0    1
 -2      1089       427      1820      2037
 -1      4673    3    0    1
 -2       427       236      2015      2037
 -1      4674    3    0    1
 -2      1089      1820      2004      2037
 -1      4675    3    0    1
 -2      1988       427      2015      2037
 -1      4676    3    0    1
 -2      1081       227      1798      2015
 -1      4677    3    0    1
 -2       418       285      1135      2001
 -1      4678    3    0    1
 -2      1838      1535      2020      2041
 -1      4679    3    0    1
 -2       754      1849      1980      2132
 -1      4680    3    0    1
 -2       636       711      1138      2002
 -1      4681    3    0    1
 -2       636       457       711      2002
 -1      4682    3    0    1
 -2      1827      1090      1855      2004
 -1      4683    3    0    1
 -2       603       604      1088      2004
 -1      4684    3    0    1
 -2      1088       604      1877      2004
 -1      4685    3    0    1
 -2       604       777      1877      2004
 -1      4686    3    0    1
 -2       604       603       777      2004
 -1      4687    3    0    1
 -2      1566      1583      1783      2007
 -1      4688    3    0    1
 -2      1783      1583      1814      2007
 -1      4689    3    0    1
 -2      1543      1571      1596      2007
 -1      4690    3    0    1
 -2       342      1799      1839      2008
 -1      4691    3    0    1
 -2      1587       342      1839      2008
 -1      4692    3    0    1
 -2      1598       540      1857      2478
 -1      4693    3    0    1
 -2        86       943      1739      2021
 -1      4694    3    0    1
 -2       342      1587      1601      2008
 -1      4695    3    0    1
 -2      1601      1587      1627      2008
 -1      4696    3    0    1
 -2        31       432       718      2527
 -1      4697    3    0    1
 -2        91       396      1945      2021
 -1      4698    3    0    1
 -2        91       939      1690      2021
 -1      4699    3    0    1
 -2       540       553      1857      2478
 -1      4700    3    0    1
 -2      2540      1222      2555      2614
 -1      4701    3    0    1
 -2       342      1601      1627      2008
 -1      4702    3    0    1
 -2      1690       939      1791      2021
 -1      4703    3    0    1
 -2      2017       796      2039       640
 -1      4704    3    0    1
 -2       860      2489      2534      2591
 -1      4705    3    0    1
 -2      1742      1532      1932      2043
 -1      4706    3    0    1
 -2      1893      1627      2008      2020
 -1      4707    3    0    1
 -2       146      1692      1726      2104
 -1      4708    3    0    1
 -2       576       589      1045      2009
 -1      4709    3    0    1
 -2       589       771      1045      2009
 -1      4710    3    0    1
 -2      1219      2472      2501      2548
 -1      4711    3    0    1
 -2      1532       722      1816      2043
 -1      4712    3    0    1
 -2        18       864      1947      2012
 -1      4713    3    0    1
 -2       285       795       866      2012
 -1      4714    3    0    1
 -2       722      1770      1950      2026
 -1      4715    3    0    1
 -2      1126      1125      1833      2013
 -1      4716    3    0    1
 -2       627      1126      1833      2013
 -1      4717    3    0    1
 -2       742       956      1801      2085
 -1      4718    3    0    1
 -2       264      1124      1127      2013
 -1      4719    3    0    1
 -2       375       264      1967      2013
 -1      4720    3    0    1
 -2       264       375      1124      2013
 -1      4721    3    0    1
 -2       342      1799      2008      2041
 -1      4722    3    0    1
 -2       385       796      1143      2014
 -1      4723    3    0    1
 -2      1682       973      1789      2076
 -1      4724    3    0    1
 -2      1138       385       280      2014
 -1      4725    3    0    1
 -2       280       385      1143      2014
 -1      4726    3    0    1
 -2      1682      1864      2460      2076
 -1      4727    3    0    1
 -2       973      1682      2460      2076
 -1      4728    3    0    1
 -2       794       280      1957      2014
 -1      4729    3    0    1
 -2      1138       794      1957      2014
 -1      4730    3    0    1
 -2       794      1138       280      2014
 -1      4731    3    0    1
 -2      1087       602      1868      2015
 -1      4732    3    0    1
 -2      1799       329      1823      2041
 -1      4733    3    0    1
 -2       342       329      1799      2041
 -1      4734    3    0    1
 -2       266       264      1660      2143
 -1      4735    3    0    1
 -2       285       795      2012      2017
 -1      4736    3    0    1
 -2       795       285      2001      2017
 -1      4737    3    0    1
 -2      2001       285      2012      2017
 -1      4738    3    0    1
 -2       866      1796      2012      2017
 -1      4739    3    0    1
 -2       866       459      1796      2017
 -1      4740    3    0    1
 -2       795       866      2012      2017
 -1      4741    3    0    1
 -2       640       796       867      2017
 -1      4742    3    0    1
 -2       459       640       867      2017
 -1      4743    3    0    1
 -2       640       459       795      2017
 -1      4744    3    0    1
 -2       795       459       866      2017
 -1      4745    3    0    1
 -2      1247      2224      1439      2726
 -1      4746    3    0    1
 -2       992       146      2104      2108
 -1      4747    3    0    1
 -2       311       448      1535      2020
 -1      4748    3    0    1
 -2      1201      1535      1869      2020
 -1      4749    3    0    1
 -2      1535      1627      1869      2020
 -1      4750    3    0    1
 -2      1201       685      1200      2020
 -1      4751    3    0    1
 -2      1201       311      1535      2020
 -1      4752    3    0    1
 -2      1200       311      1201      2020
 -1      4753    3    0    1
 -2       686      1201      1869      2020
 -1      4754    3    0    1
 -2       685      1201       686      2020
 -1      4755    3    0    1
 -2       448       311      1200      2020
 -1      4756    3    0    1
 -2      2077      1928      2118      2484
 -1      4757    3    0    1
 -2        91        86       939      2021
 -1      4758    3    0    1
 -2      1944       922        57      2022
 -1      4759    3    0    1
 -2       374       920      1906      2022
 -1      4760    3    0    1
 -2        57       374      1906      2022
 -1      4761    3    0    1
 -2       374       373       920      2022
 -1      4762    3    0    1
 -2       374        57       922      2022
 -1      4763    3    0    1
 -2       922      1944        57       723
 -1      4764    3    0    1
 -2       693      1216       704      2023
 -1      4765    3    0    1
 -2      1563       851      1673      2023
 -1      4766    3    0    1
 -2       288       838       851      2023
 -1      4767    3    0    1
 -2       851       704      1673      2023
 -1      4768    3    0    1
 -2       851       693       704      2023
 -1      4769    3    0    1
 -2       288       290       838      2023
 -1      4770    3    0    1
 -2       319       839      1946      2024
 -1      4771    3    0    1
 -2       319       310       839      2024
 -1      4772    3    0    1
 -2       941       508      1721      2044
 -1      4773    3    0    1
 -2      2072      1864      2126      2493
 -1      4774    3    0    1
 -2        55        50       901      2025
 -1      4775    3    0    1
 -2        55       901      1742      2025
 -1      4776    3    0    1
 -2        37        55      1742      2025
 -1      4777    3    0    1
 -2      1906      1834      1929      2026
 -1      4778    3    0    1
 -2      1787      1770      1930      2026
 -1      4779    3    0    1
 -2      1770       896      1930      2026
 -1      4780    3    0    1
 -2      1906      1929      1930      2026
 -1      4781    3    0    1
 -2      1929      1787      1930      2026
 -1      4782    3    0    1
 -2       896       479      1906      2026
 -1      4783    3    0    1
 -2       896      1906      1930      2026
 -1      4784    3    0    1
 -2        72      1948      1952      2123
 -1      4785    3    0    1
 -2      1041      1026      1675      2176
 -1      4786    3    0    1
 -2        72       917      1948      2123
 -1      4787    3    0    1
 -2       236      1089      2004      2037
 -1      4788    3    0    1
 -2      2017       867      2040      2464
 -1      4789    3    0    1
 -2      1026       362      2027      2117
 -1      4790    3    0    1
 -2      1026       362       762      2027
 -1      4791    3    0    1
 -2       567       556       756      2029
 -1      4792    3    0    1
 -2       796       867      2017      2464
 -1      4793    3    0    1
 -2       567       756      1033      2029
 -1      4794    3    0    1
 -2       796      2017      2040      2464
 -1      4795    3    0    1
 -2      1125      1833      2013      2030
 -1      4796    3    0    1
 -2       628      1125      2013      2030
 -1      4797    3    0    1
 -2      1916       628      2013      2030
 -1      4798    3    0    1
 -2      1125       421      1833      2030
 -1      4799    3    0    1
 -2      1833       421      1986      2030
 -1      4800    3    0    1
 -2       639       628      1916      2030
 -1      4801    3    0    1
 -2      1125       639      1142      2030
 -1      4802    3    0    1
 -2       628       639      1125      2030
 -1      4803    3    0    1
 -2       255      1105      1987      2031
 -1      4804    3    0    1
 -2      1105       255       247      2031
 -1      4805    3    0    1
 -2       380      1107      1847      2031
 -1      4806    3    0    1
 -2      1107       380       247      2031
 -1      4807    3    0    1
 -2       247       380      1099      2031
 -1      4808    3    0    1
 -2       433       899      2128      2175
 -1      4809    3    0    1
 -2      2018       902      2025      2032
 -1      4810    3    0    1
 -2       902      1813      2025      2032
 -1      4811    3    0    1
 -2       483       472      1884      2032
 -1      4812    3    0    1
 -2       885      1911      1850      2034
 -1      4813    3    0    1
 -2       717       902      2018      2032
 -1      4814    3    0    1
 -2       717      1884      2032      2018
 -1      4815    3    0    1
 -2       472       483       902      2032
 -1      4816    3    0    1
 -2       717       472       902      2032
 -1      4817    3    0    1
 -2        72       381      2123      2129
 -1      4818    3    0    1
 -2      2002      1138      2049      2131
 -1      4819    3    0    1
 -2        46       724      1866      2494
 -1      4820    3    0    1
 -2       390       384      2002      2131
 -1      4821    3    0    1
 -2        34        31       718      2034
 -1      4822    3    0    1
 -2       718        31      1884      2034
 -1      4823    3    0    1
 -2       384        14      2002      2131
 -1      4824    3    0    1
 -2      1062      1808       346      2035
 -1      4825    3    0    1
 -2       216       428      1062      2035
 -1      4826    3    0    1
 -2       587      1062      1868      2035
 -1      4827    3    0    1
 -2      1141      1584      1941      2036
 -1      4828    3    0    1
 -2       388       282      1141      2036
 -1      4829    3    0    1
 -2       388      1141      1941      2036
 -1      4830    3    0    1
 -2       227      1798      2015      2037
 -1      4831    3    0    1
 -2       236       227      2015      2037
 -1      4832    3    0    1
 -2       227       236      2004      2037
 -1      4833    3    0    1
 -2      1798       227      2004      2037
 -1      4834    3    0    1
 -2       577      1675      1890      2038
 -1      4835    3    0    1
 -2       576       577      1890      2038
 -1      4836    3    0    1
 -2       577      1041      1675      2038
 -1      4837    3    0    1
 -2       577       576      1041      2038
 -1      4838    3    0    1
 -2      1041       192       193      2038
 -1      4839    3    0    1
 -2       193       192      1843      2038
 -1      4840    3    0    1
 -2       469       881      1992      2171
 -1      4841    3    0    1
 -2      2111      1992      2489      2171
 -1      4842    3    0    1
 -2      1916       639      2030      2039
 -1      4843    3    0    1
 -2       639      1142      2030      2039
 -1      4844    3    0    1
 -2      2030      1142      2036      2039
 -1      4845    3    0    1
 -2       640       795      1142      2039
 -1      4846    3    0    1
 -2       796      1143      2014      2039
 -1      4847    3    0    1
 -2       796       640      1143      2039
 -1      4848    3    0    1
 -2       282       418      2001      2039
 -1      4849    3    0    1
 -2       418       282      1142      2039
 -1      4850    3    0    1
 -2       418       795      2001      2039
 -1      4851    3    0    1
 -2       795       418      1142      2039
 -1      4852    3    0    1
 -2      1535      1823       329      2041
 -1      4853    3    0    1
 -2      1863       957      2052      2109
 -1      4854    3    0    1
 -2      2077      1882      2097      2152
 -1      4855    3    0    1
 -2      1863        82      2044      2136
 -1      4856    3    0    1
 -2      2135       771      2177      2499
 -1      4857    3    0    1
 -2      1721       508      1795      2044
 -1      4858    3    0    1
 -2        88        82      1721      2044
 -1      4859    3    0    1
 -2       178      1032      1923      2088
 -1      4860    3    0    1
 -2       477       478       480      2658
 -1      4861    3    0    1
 -2      1863        82      1865      2044
 -1      4862    3    0    1
 -2        82        88      1865      2044
 -1      4863    3    0    1
 -2      2071      2057      2471      2474
 -1      4864    3    0    1
 -2      1801       956      2095      2465
 -1      4865    3    0    1
 -2       430       431      1524      2073
 -1      4866    3    0    1
 -2      1890       576      2038      2069
 -1      4867    3    0    1
 -2       576       589      2009      2069
 -1      4868    3    0    1
 -2       360       347      1926      2526
 -1      4869    3    0    1
 -2       624      1934      2124      2167
 -1      4870    3    0    1
 -2      1102       788      2064      2167
 -1      4871    3    0    1
 -2      2710        20      1509      2419
 -1      4872    3    0    1
 -2      1772       127      2048      2466
 -1      4873    3    0    1
 -2      1044       576      1890      2069
 -1      4874    3    0    1
 -2      2087        89      2165      2513
 -1      4875    3    0    1
 -2      1766      2070      2472      2500
 -1      4876    3    0    1
 -2       349       127       979      2466
 -1      4877    3    0    1
 -2       127      1698      1772      2048
 -1      4878    3    0    1
 -2      2236       993      2253      2709
 -1      4879    3    0    1
 -2      1263      1346      2592      1416
 -1      4880    3    0    1
 -2      2508      2543      2567      2632
 -1      4881    3    0    1
 -2      1045       576      2009      2135
 -1      4882    3    0    1
 -2       637      1139      1991      2532
 -1      4883    3    0    1
 -2      1536      2058      2059      2060
 -1      4884    3    0    1
 -2      1754      1736      1832      2050
 -1      4885    3    0    1
 -2      1709      1754      1832      2050
 -1      4886    3    0    1
 -2        46      2123        58      1866
 -1      4887    3    0    1
 -2      1863       957      2000      2052
 -1      4888    3    0    1
 -2       935      1863      1865      2052
 -1      4889    3    0    1
 -2       861        10      1524      2073
 -1      4890    3    0    1
 -2      2492      2191      2198      2557
 -1      4891    3    0    1
 -2       111      1863      1949      2136
 -1      4892    3    0    1
 -2       936       935      1865      2052
 -1      4893    3    0    1
 -2       936       504       935      2052
 -1      4894    3    0    1
 -2       504       936       505      2052
 -1      4895    3    0    1
 -2       505       936      1865      2052
 -1      4896    3    0    1
 -2       504       517       935      2052
 -1      4897    3    0    1
 -2       935       517       957      2052
 -1      4898    3    0    1
 -2        56       433      2033      2130
 -1      4899    3    0    1
 -2      1710      2071      2471      2474
 -1      4900    3    0    1
 -2      2152      2077      2153      2484
 -1      4901    3    0    1
 -2      2065      1672      2461      2101
 -1      4902    3    0    1
 -2       899       480       898      2055
 -1      4903    3    0    1
 -2        46       898      1866      2055
 -1      4904    3    0    1
 -2       898        46       899      2055
 -1      4905    3    0    1
 -2       712      1850      2127      2495
 -1      4906    3    0    1
 -2        34       431      2145      2495
 -1      4907    3    0    1
 -2       480       899       481      2055
 -1      4908    3    0    1
 -2       481       899      1951      2055
 -1      4909    3    0    1
 -2       480       481      1951      2055
 -1      4910    3    0    1
 -2       899        46       433      2055
 -1      4911    3    0    1
 -2       433        46      1866      2055
 -1      4912    3    0    1
 -2      2595      1278      2650      2685
 -1      4913    3    0    1
 -2      2058      1736      2154      2482
 -1      4914    3    0    1
 -2      1127       264      2013      2477
 -1      4915    3    0    1
 -2      2255      2318      2377      2720
 -1      4916    3    0    1
 -2      1777      2460      2094      2481
 -1      4917    3    0    1
 -2      1340      2235      2255      2319
 -1      4918    3    0    1
 -2       900      1951      2147      2065
 -1      4919    3    0    1
 -2      2149      2083      2510      2180
 -1      4920    3    0    1
 -2      2320      2274      2321      2665
 -1      4921    3    0    1
 -2      1754      1536      1832      2060
 -1      4922    3    0    1
 -2       480       900       897      2100
 -1      4923    3    0    1
 -2       493      1831      1948      2100
 -1      4924    3    0    1
 -2      1754      1736      2058      2060
 -1      4925    3    0    1
 -2       576      1045      2038      2135
 -1      4926    3    0    1
 -2      1536      1754      2058      2060
 -1      4927    3    0    1
 -2      1934      1121      2485      2525
 -1      4928    3    0    1
 -2       860       456      1915      2171
 -1      4929    3    0    1
 -2       128       343       744      2459
 -1      4930    3    0    1
 -2       997       144      1692      2459
 -1      4931    3    0    1
 -2      2009       576      2038      2135
 -1      4932    3    0    1
 -2      2002       390      2049      2061
 -1      4933    3    0    1
 -2       744       343       997      2459
 -1      4934    3    0    1
 -2      2585      1452      2616      2680
 -1      4935    3    0    1
 -2      1723      1698      1772      2459
 -1      4936    3    0    1
 -2      1882      1671      2077      2097
 -1      4937    3    0    1
 -2       564      1675      1977      2113
 -1      4938    3    0    1
 -2       958       934      2471      2502
 -1      4939    3    0    1
 -2      1009      1027      2066      2472
 -1      4940    3    0    1
 -2      1524        10      1997      2127
 -1      4941    3    0    1
 -2       436       437      1927      2477
 -1      4942    3    0    1
 -2      2059      2469      2192      2541
 -1      4943    3    0    1
 -2      1009      1027      2472      1219
 -1      4944    3    0    1
 -2      1312      1236      2677      2447
 -1      4945    3    0    1
 -2      2111      1917      2469      2338
 -1      4946    3    0    1
 -2      2140      2119      2484      2530
 -1      4947    3    0    1
 -2       993      2460      1218      2563
 -1      4948    3    0    1
 -2      2546      2594      2611      2661
 -1      4949    3    0    1
 -2      2470      2522      2553      2609
 -1      4950    3    0    1
 -2       432        56       903      2527
 -1      4951    3    0    1
 -2      1682      1864      2047      2460
 -1      4952    3    0    1
 -2       564      1025      1046      2113
 -1      4953    3    0    1
 -2      2058      2060      2482      2507
 -1      4954    3    0    1
 -2       552      1009      1027      2066
 -1      4955    3    0    1
 -2       271      1967      2151      2511
 -1      4956    3    0    1
 -2      1708      2045      2068      2149
 -1      4957    3    0    1
 -2      2316      1432      2367      2379
 -1      4958    3    0    1
 -2      2222      2281      2284      2739
 -1      4959    3    0    1
 -2      2501      2472      2540      2555
 -1      4960    3    0    1
 -2      2068      2045      2083      2149
 -1      4961    3    0    1
 -2      2068      1708      2173      2491
 -1      4962    3    0    1
 -2       215       356      2019      2462
 -1      4963    3    0    1
 -2      2068      1708      2149      2173
 -1      4964    3    0    1
 -2       782      1781      2092      2184
 -1      4965    3    0    1
 -2      1709      2164      2493      2181
 -1      4966    3    0    1
 -2       974       353      1698      2080
 -1      4967    3    0    1
 -2      1336      1444      1492      2426
 -1      4968    3    0    1
 -2      1660       788      2064      2143
 -1      4969    3    0    1
 -2       492       505      1865      2102
 -1      4970    3    0    1
 -2       589      1044      1066      2069
 -1      4971    3    0    1
 -2       589       576      1044      2069
 -1      4972    3    0    1
 -2      2490      2536      2621      2728
 -1      4973    3    0    1
 -2      1299      1409      2663      2350
 -1      4974    3    0    1
 -2      1262      2497      2556      2597
 -1      4975    3    0    1
 -2      1396      2207      2313      2390
 -1      4976    3    0    1
 -2       504       937       934      2502
 -1      4977    3    0    1
 -2      2624      2645      2674      2735
 -1      4978    3    0    1
 -2      2199      1265      2230      2248
 -1      4979    3    0    1
 -2       577       576      1046      2266
 -1      4980    3    0    1
 -2       375      1124      2013      2150
 -1      4981    3    0    1
 -2       468       481      1951      2147
 -1      4982    3    0    1
 -2       377      2674      2686      2735
 -1      4983    3    0    1
 -2      1704       555      1800      2074
 -1      4984    3    0    1
 -2       544       555      1704      2074
 -1      4985    3    0    1
 -2       749       544      1704      2074
 -1      4986    3    0    1
 -2       544       749      1658      2074
 -1      4987    3    0    1
 -2      1658       749      1704      2074
 -1      4988    3    0    1
 -2       543      1658      1692      2074
 -1      4989    3    0    1
 -2       544       543      1692      2074
 -1      4990    3    0    1
 -2       543       544      1658      2074
 -1      4991    3    0    1
 -2       544       750      1015      2074
 -1      4992    3    0    1
 -2       555       544      1015      2074
 -1      4993    3    0    1
 -2       338      2104      2132      2475
 -1      4994    3    0    1
 -2      1957       794      2125      2151
 -1      4995    3    0    1
 -2      1777      1864      2460      2126
 -1      4996    3    0    1
 -2       541      1598      1789      2076
 -1      4997    3    0    1
 -2       541       993      1598      2076
 -1      4998    3    0    1
 -2       528       541      1789      2076
 -1      4999    3    0    1
 -2       973       528      1789      2076
 -1      5000    3    0    1
 -2       541       973       993      2076
 -1      5001    3    0    1
 -2       541       528       973      2076
 -1      5002    3    0    1
 -2      1064       588       589      2098
 -1      5003    3    0    1
 -2       361       352      2697      2437
 -1      5004    3    0    1
 -2       588       601      1080      2162
 -1      5005    3    0    1
 -2      2606      2242      2293      2349
 -1      5006    3    0    1
 -2      1676       230      2078      2161
 -1      5007    3    0    1
 -2       256      1759      2157      2184
 -1      5008    3    0    1
 -2       264       788      1660      2143
 -1      5009    3    0    1
 -2      1736      1754      2058      2154
 -1      5010    3    0    1
 -2       230       355      2078      2161
 -1      5011    3    0    1
 -2      2479      2054      2185      2594
 -1      5012    3    0    1
 -2        31       718      1884      2527
 -1      5013    3    0    1
 -2      1708      1671      1882      2097
 -1      5014    3    0    1
 -2      1698      1726      1789      2080
 -1      5015    3    0    1
 -2       492      1865      1948      2102
 -1      5016    3    0    1
 -2       436       266      2084      2143
 -1      5017    3    0    1
 -2      1412       354      1474      2379
 -1      5018    3    0    1
 -2       991      1011      2481      1271
 -1      5019    3    0    1
 -2       367      2588      2608      1415
 -1      5020    3    0    1
 -2       788      1102      2064      2143
 -1      5021    3    0    1
 -2       600      1781      2090      2514
 -1      5022    3    0    1
 -2      1865       916      1952      2165
 -1      5023    3    0    1
 -2      1318      1349      2614      2670
 -1      5024    3    0    1
 -2       437       436      1927      2143
 -1      5025    3    0    1
 -2      1106      1127      1914      2477
 -1      5026    3    0    1
 -2      1827      2091      2157      2480
 -1      5027    3    0    1
 -2       507       944      1721      2156
 -1      5028    3    0    1
 -2       264      1660      1967      2084
 -1      5029    3    0    1
 -2       264      1967      2013      2084
 -1      5030    3    0    1
 -2      1938       496      1945      2156
 -1      5031    3    0    1
 -2       507       943      1945      2156
 -1      5032    3    0    1
 -2      2090      1758      2470      2514
 -1      5033    3    0    1
 -2       754       553      1849      2086
 -1      5034    3    0    1
 -2       111      1593      1949      2095
 -1      5035    3    0    1
 -2       110      1593      2095      2466
 -1      5036    3    0    1
 -2       111       110      1593      2095
 -1      5037    3    0    1
 -2       552      1856      2066      2086
 -1      5038    3    0    1
 -2       553       552      1849      2086
 -1      5039    3    0    1
 -2      1849       552      2066      2086
 -1      5040    3    0    1
 -2       552      1856      2086      2478
 -1      5041    3    0    1
 -2       991      1598      2094      2478
 -1      5042    3    0    1
 -2       613      2121      2160      2514
 -1      5043    3    0    1
 -2      1781       613      2160      2514
 -1      5044    3    0    1
 -2      1391       364      1404      1429
 -1      5045    3    0    1
 -2      1103      1758      2121      2514
 -1      5046    3    0    1
 -2      2209      1309      2255      2318
 -1      5047    3    0    1
 -2      1103      1083      2470      2514
 -1      5048    3    0    1
 -2      1857       553      2086      2478
 -1      5049    3    0    1
 -2       991       540      1598      2478
 -1      5050    3    0    1
 -2      1827       370      2091      2480
 -1      5051    3    0    1
 -2      2385      1458      2411      2444
 -1      5052    3    0    1
 -2      1444      2684      1492      1505
 -1      5053    3    0    1
 -2      2267      2213      2279      2679
 -1      5054    3    0    1
 -2      1274      2575      1374      2648
 -1      5055    3    0    1
 -2      2651      1469      2708      2724
 -1      5056    3    0    1
 -2       613      1886      2092      2160
 -1      5057    3    0    1
 -2      2057      1580      2471      2515
 -1      5058    3    0    1
 -2      1781       613      2092      2160
 -1      5059    3    0    1
 -2      1296      2647      2653      2661
 -1      5060    3    0    1
 -2      1759       251      1927      2092
 -1      5061    3    0    1
 -2      1759       782      2092      2184
 -1      5062    3    0    1
 -2       777      1109      1877      2480
 -1      5063    3    0    1
 -2      1927      1102      2064      2092
 -1      5064    3    0    1
 -2      1102      1886      2064      2092
 -1      5065    3    0    1
 -2       251       782      1759      2184
 -1      5066    3    0    1
 -2      1918      1822      1925      2093
 -1      5067    3    0    1
 -2      1822      1751      1925      2093
 -1      5068    3    0    1
 -2      1751      1007      1925      2093
 -1      5069    3    0    1
 -2       164      1013       327      2093
 -1      5070    3    0    1
 -2       327      1013      1763      2093
 -1      5071    3    0    1
 -2       164       327      1763      2093
 -1      5072    3    0    1
 -2       164       331      1007      2093
 -1      5073    3    0    1
 -2      1007       331      1925      2093
 -1      5074    3    0    1
 -2      1864      1777      2460      2094
 -1      5075    3    0    1
 -2      1864      2460      2076      2094
 -1      5076    3    0    1
 -2      2476      2506      2552      2553
 -1      5077    3    0    1
 -2      2460       993      2076      2094
 -1      5078    3    0    1
 -2       116       110      2465      2466
 -1      5079    3    0    1
 -2      2095      2048      2465      2466
 -1      5080    3    0    1
 -2       957      1863      2000      2095
 -1      5081    3    0    1
 -2       957       111      1863      2095
 -1      5082    3    0    1
 -2       957       110       111      2095
 -1      5083    3    0    1
 -2       956       957      2000      2095
 -1      5084    3    0    1
 -2       957       956       110      2095
 -1      5085    3    0    1
 -2      2048       127      2465      2466
 -1      5086    3    0    1
 -2       979       127      1772      2466
 -1      5087    3    0    1
 -2       979      1772      1953      2466
 -1      5088    3    0    1
 -2      1282      1283      2562      1320
 -1      5089    3    0    1
 -2       177       362      1030      2116
 -1      5090    3    0    1
 -2      2554      2587      1404      2683
 -1      5091    3    0    1
 -2      2557      2198      1319      2216
 -1      5092    3    0    1
 -2       237       256      1109      2480
 -1      5093    3    0    1
 -2       955       516      2138      2166
 -1      5094    3    0    1
 -2      2065      1672      2082      2461
 -1      5095    3    0    1
 -2       266      1660      2084      2143
 -1      5096    3    0    1
 -2       897       900      2065      2100
 -1      5097    3    0    1
 -2       900       480       481      2100
 -1      5098    3    0    1
 -2       481       480      1951      2100
 -1      5099    3    0    1
 -2       900       481      1951      2100
 -1      5100    3    0    1
 -2       788       625      1660      2167
 -1      5101    3    0    1
 -2       493       918      1831      2100
 -1      5102    3    0    1
 -2       493       480       897      2100
 -1      5103    3    0    1
 -2       493       897       918      2100
 -1      5104    3    0    1
 -2      2336      1428      2348      2354
 -1      5105    3    0    1
 -2      2226      2202      2240      2606
 -1      5106    3    0    1
 -2       215       355      2462      2161
 -1      5107    3    0    1
 -2      2019       215      2462      2161
 -1      5108    3    0    1
 -2      1854      2069      2079      2486
 -1      5109    3    0    1
 -2      1831       492      1948      2102
 -1      5110    3    0    1
 -2      1759       256      2157      2480
 -1      5111    3    0    1
 -2      1304      1246      2599      2671
 -1      5112    3    0    1
 -2       505       915       937      2102
 -1      5113    3    0    1
 -2       505       492       915      2102
 -1      5114    3    0    1
 -2       400        90      1863      2136
 -1      5115    3    0    1
 -2      2320      1056       583       768
 -1      5116    3    0    1
 -2      1494       357      1496      2729
 -1      5117    3    0    1
 -2       193      1041      2038      2170
 -1      5118    3    0    1
 -2       992      1726      1857      2104
 -1      5119    3    0    1
 -2       957       935      2052      2109
 -1      5120    3    0    1
 -2       992       146      1726      2104
 -1      5121    3    0    1
 -2       762      1849      1977      2105
 -1      5122    3    0    1
 -2       177       762      2027      2105
 -1      5123    3    0    1
 -2       180       177      2027      2105
 -1      5124    3    0    1
 -2      1071       219       359      2487
 -1      5125    3    0    1
 -2      2569      2588      2597      2608
 -1      5126    3    0    1
 -2       934       937      1580      2502
 -1      5127    3    0    1
 -2      1071      1935      2010      2487
 -1      5128    3    0    1
 -2       375       271      1967      2125
 -1      5129    3    0    1
 -2       337       338      2132      2475
 -1      5130    3    0    1
 -2       555      1015      1800      2475
 -1      5131    3    0    1
 -2      2260      1324      2598      1386
 -1      5132    3    0    1
 -2      1027      2062      2066      2472
 -1      5133    3    0    1
 -2      1914      1127      2013      2477
 -1      5134    3    0    1
 -2      1675       577      1890      2113
 -1      5135    3    0    1
 -2       177       762      2105      2163
 -1      5136    3    0    1
 -2      1010       365      2105      2163
 -1      5137    3    0    1
 -2      1934      2121      2167      2525
 -1      5138    3    0    1
 -2       897      2100      2101      2483
 -1      5139    3    0    1
 -2       215       355       772      2462
 -1      5140    3    0    1
 -2       772       355      1090      2462
 -1      5141    3    0    1
 -2       592       772      1090      2462
 -1      5142    3    0    1
 -2      1935      1855      2019      2462
 -1      5143    3    0    1
 -2      1380      1381      2299      2305
 -1      5144    3    0    1
 -2       603       592      1090      2462
 -1      5145    3    0    1
 -2       601      1825      2162      2519
 -1      5146    3    0    1
 -2      1030      1052      1761      2172
 -1      5147    3    0    1
 -2       879       900      2147      2518
 -1      5148    3    0    1
 -2      2173      2068      2491      2510
 -1      5149    3    0    1
 -2      2070      2472      2540      2613
 -1      5150    3    0    1
 -2      1710      2047      2463      2166
 -1      5151    3    0    1
 -2       955       516      2166      2537
 -1      5152    3    0    1
 -2      2118      2059      2119      2141
 -1      5153    3    0    1
 -2      1225      1226      2509      2537
 -1      5154    3    0    1
 -2      2560      2584      2631      2710
 -1      5155    3    0    1
 -2       731        83      2197      1287
 -1      5156    3    0    1
 -2      1710      2047      2072      2463
 -1      5157    3    0    1
 -2      2047      1864      2072      2463
 -1      5158    3    0    1
 -2       625       612      1121      2525
 -1      5159    3    0    1
 -2      1865        89      2110      2165
 -1      5160    3    0    1
 -2      1220      1219      2501      1240
 -1      5161    3    0    1
 -2       111       400      2136      2498
 -1      5162    3    0    1
 -2       712       460      1997      2127
 -1      5163    3    0    1
 -2        89       371      2110      2165
 -1      5164    3    0    1
 -2       916       372      1952      2165
 -1      5165    3    0    1
 -2       711      1524      2002      2114
 -1      5166    3    0    1
 -2      1915       711      2002      2114
 -1      5167    3    0    1
 -2       468       469      1992      2114
 -1      5168    3    0    1
 -2       469       468       880      2114
 -1      5169    3    0    1
 -2       716       880      1993      2114
 -1      5170    3    0    1
 -2      1524       861      2073      2114
 -1      5171    3    0    1
 -2       716      1524      2073      2114
 -1      5172    3    0    1
 -2       861       711      1915      2114
 -1      5173    3    0    1
 -2       711       861      1524      2114
 -1      5174    3    0    1
 -2      2019      1676      2078      2161
 -1      5175    3    0    1
 -2       400        90      2136      2498
 -1      5176    3    0    1
 -2       469       716       861      2114
 -1      5177    3    0    1
 -2       456       469       861      2114
 -1      5178    3    0    1
 -2       861       716      2073      2114
 -1      5179    3    0    1
 -2       347       360      1926      2170
 -1      5180    3    0    1
 -2      2027       180      2105      2134
 -1      5181    3    0    1
 -2      1477      2686      2645      2735
 -1      5182    3    0    1
 -2       177      1033      2027      2116
 -1      5183    3    0    1
 -2       177      1030      1033      2116
 -1      5184    3    0    1
 -2      1033      1030      1844      2116
 -1      5185    3    0    1
 -2      1977       762      2027      2117
 -1      5186    3    0    1
 -2       469      1992      2114      2171
 -1      5187    3    0    1
 -2       756      1033      2029      2496
 -1      5188    3    0    1
 -2       724       484      1990      2120
 -1      5189    3    0    1
 -2      1671      1882      2077      2118
 -1      5190    3    0    1
 -2      2059      1536      2060      2118
 -1      5191    3    0    1
 -2      1671      1536      1882      2118
 -1      5192    3    0    1
 -2      1536      1671      1832      2118
 -1      5193    3    0    1
 -2      1536      1832      2060      2118
 -1      5194    3    0    1
 -2       381      2123      2129      2494
 -1      5195    3    0    1
 -2        58      1866      2123      2494
 -1      5196    3    0    1
 -2      1882      1536      2059      2118
 -1      5197    3    0    1
 -2      1781       601      2090      2162
 -1      5198    3    0    1
 -2      2469      2059      2169      2541
 -1      5199    3    0    1
 -2       484       724       923      2120
 -1      5200    3    0    1
 -2       495       484       923      2120
 -1      5201    3    0    1
 -2      2174       903      2033      2527
 -1      5202    3    0    1
 -2       612       613      1103      2121
 -1      5203    3    0    1
 -2      2674       377      1506      2735
 -1      5204    3    0    1
 -2      2009      1065      2019      2162
 -1      5205    3    0    1
 -2      2045      2046      2083      2149
 -1      5206    3    0    1
 -2      1225      2509      2626      2627
 -1      5207    3    0    1
 -2      1281      2639      2413      2427
 -1      5208    3    0    1
 -2      2600      2583      2636      2638
 -1      5209    3    0    1
 -2      1219      2472      1220      2501
 -1      5210    3    0    1
 -2       434       376      2602      2646
 -1      5211    3    0    1
 -2      2067      2053      2488      2522
 -1      5212    3    0    1
 -2       934      1580      2471      2502
 -1      5213    3    0    1
 -2       146       338       750      2475
 -1      5214    3    0    1
 -2      1660      1120      1967      2124
 -1      5215    3    0    1
 -2       612      1102      2064      2167
 -1      5216    3    0    1
 -2      1306      1460      2687      2420
 -1      5217    3    0    1
 -2      1957       637      1991      2124
 -1      5218    3    0    1
 -2       109       357      2718      2421
 -1      5219    3    0    1
 -2      2644      1463      2372      2724
 -1      5220    3    0    1
 -2      1736      2058      2060      2482
 -1      5221    3    0    1
 -2      1121      1101      2485      2525
 -1      5222    3    0    1
 -2      1297      2535      2593      2717
 -1      5223    3    0    1
 -2      1309       263      2209      1325
 -1      5224    3    0    1
 -2       612      1101      1121      2525
 -1      5225    3    0    1
 -2      1993       432      2130      2175
 -1      5226    3    0    1
 -2      1866       433      2055      2128
 -1      5227    3    0    1
 -2       433      1866      2033      2128
 -1      5228    3    0    1
 -2      1138       385      2049      2131
 -1      5229    3    0    1
 -2       481       468      1951      2128
 -1      5230    3    0    1
 -2       899       481      1951      2128
 -1      5231    3    0    1
 -2      2117       347      2170      2176
 -1      5232    3    0    1
 -2       880       468       899      2128
 -1      5233    3    0    1
 -2       468       481       899      2128
 -1      5234    3    0    1
 -2       885       431        34      2495
 -1      5235    3    0    1
 -2      2034        34      2145      2495
 -1      5236    3    0    1
 -2      2033       433      2128      2130
 -1      5237    3    0    1
 -2        58        46      1866      2494
 -1      5238    3    0    1
 -2      1866       724      2120      2494
 -1      5239    3    0    1
 -2       923        72      1996      2494
 -1      5240    3    0    1
 -2        72       381      2129      2494
 -1      5241    3    0    1
 -2      1857       754      2108      2132
 -1      5242    3    0    1
 -2      1851      2473      2532      2545
 -1      5243    3    0    1
 -2      2104      1857      2108      2132
 -1      5244    3    0    1
 -2       338      2104      2108      2132
 -1      5245    3    0    1
 -2       754       162      2108      2132
 -1      5246    3    0    1
 -2       162       337      2108      2132
 -1      5247    3    0    1
 -2       337       338      2108      2132
 -1      5248    3    0    1
 -2      1761      1052      1888      2172
 -1      5249    3    0    1
 -2      1844      1033      2027      2134
 -1      5250    3    0    1
 -2       177       180      2027      2134
 -1      5251    3    0    1
 -2      1390      1289      1394      2332
 -1      5252    3    0    1
 -2      1033       177      2027      2134
 -1      5253    3    0    1
 -2       387       271      2151      2511
 -1      5254    3    0    1
 -2      2492      2493      1258      2198
 -1      5255    3    0    1
 -2       271       387      1124      2511
 -1      5256    3    0    1
 -2      2568      2529      2656      2723
 -1      5257    3    0    1
 -2       390       385      2049      2464
 -1      5258    3    0    1
 -2       385       390       796      2464
 -1      5259    3    0    1
 -2       385      2014      2049      2464
 -1      5260    3    0    1
 -2       385       796      2014      2464
 -1      5261    3    0    1
 -2       796       384       867      2464
 -1      5262    3    0    1
 -2       390       384       796      2464
 -1      5263    3    0    1
 -2      2040      1997      2061      2464
 -1      5264    3    0    1
 -2      2049      2040      2061      2464
 -1      5265    3    0    1
 -2      2014      2040      2049      2464
 -1      5266    3    0    1
 -2      2042      2103      2487      2499
 -1      5267    3    0    1
 -2      2485      1101      1243      1244
 -1      5268    3    0    1
 -2      1277       222      2205      2227
 -1      5269    3    0    1
 -2      1045       192      2038      2499
 -1      5270    3    0    1
 -2       359      2042      2487      2499
 -1      5271    3    0    1
 -2       219       359      2487      2499
 -1      5272    3    0    1
 -2      1303      1245      2582      2589
 -1      5273    3    0    1
 -2       956       110      2095      2465
 -1      5274    3    0    1
 -2       127      1698      2048      2465
 -1      5275    3    0    1
 -2      1801       742      2085      2465
 -1      5276    3    0    1
 -2       127       742      1698      2465
 -1      5277    3    0    1
 -2      1698       742      1801      2465
 -1      5278    3    0    1
 -2      2048      1801      2095      2465
 -1      5279    3    0    1
 -2       349       116      2085      2465
 -1      5280    3    0    1
 -2       116       110      2085      2465
 -1      5281    3    0    1
 -2       127       349      2085      2465
 -1      5282    3    0    1
 -2       110       956      2085      2465
 -1      5283    3    0    1
 -2      1698      1801      2048      2465
 -1      5284    3    0    1
 -2       742       127      2085      2465
 -1      5285    3    0    1
 -2       110       738      1593      2466
 -1      5286    3    0    1
 -2       738       116       979      2466
 -1      5287    3    0    1
 -2       116       349       979      2466
 -1      5288    3    0    1
 -2      1953      1772      2048      2466
 -1      5289    3    0    1
 -2      1593      1953      2048      2466
 -1      5290    3    0    1
 -2      1593      2048      2095      2466
 -1      5291    3    0    1
 -2      1052      1843      2172      2526
 -1      5292    3    0    1
 -2       612       625       788      2167
 -1      5293    3    0    1
 -2      1218      2460      2508      2563
 -1      5294    3    0    1
 -2       517       516      2000      2138
 -1      5295    3    0    1
 -2      2539      2287      2713      2729
 -1      5296    3    0    1
 -2      2595      1278      2685      2740
 -1      5297    3    0    1
 -2       612       788      1102      2167
 -1      5298    3    0    1
 -2      1886       612      2064      2167
 -1      5299    3    0    1
 -2       718       432       903      2527
 -1      5300    3    0    1
 -2      2484      2152      2488      2208
 -1      5301    3    0    1
 -2      2467      2054      2594      2678
 -1      5302    3    0    1
 -2      1272      1011      2613      2693
 -1      5303    3    0    1
 -2      2198      2191      2210      2557
 -1      5304    3    0    1
 -2      2539      2287      2359      2713
 -1      5305    3    0    1
 -2      1967       375      2013      2150
 -1      5306    3    0    1
 -2      1279      2585      2301      2325
 -1      5307    3    0    1
 -2      2050      1736      2057      2467
 -1      5308    3    0    1
 -2       256       237      2157      2480
 -1      5309    3    0    1
 -2      1710      2050      2057      2467
 -1      5310    3    0    1
 -2      1754      2051      2054      2467
 -1      5311    3    0    1
 -2      1124      1916      2013      2150
 -1      5312    3    0    1
 -2      2050      1710      2072      2467
 -1      5313    3    0    1
 -2      2138      2071      2471      2166
 -1      5314    3    0    1
 -2        69      2664      2341      2668
 -1      5315    3    0    1
 -2      2072      2050      2467      2607
 -1      5316    3    0    1
 -2      2182      2571      2229      1379
 -1      5317    3    0    1
 -2      1222      2210      2557      1349
 -1      5318    3    0    1
 -2      1991      1915      2056      2468
 -1      5319    3    0    1
 -2      1269      2580      1358      2634
 -1      5320    3    0    1
 -2       516      2000      2138      2166
 -1      5321    3    0    1
 -2       375      1124      2150      2511
 -1      5322    3    0    1
 -2       958       516       517      2502
 -1      5323    3    0    1
 -2      1660      2064      2084      2143
 -1      5324    3    0    1
 -2      2064      1927      2084      2143
 -1      5325    3    0    1
 -2      1106       437       436      2477
 -1      5326    3    0    1
 -2      1945       943      2021      2156
 -1      5327    3    0    1
 -2       516       955      2138      2502
 -1      5328    3    0    1
 -2      2436      2452      2745      2457
 -1      5329    3    0    1
 -2      2488      2097      2490      2728
 -1      5330    3    0    1
 -2      2686      1477      2645      2393
 -1      5331    3    0    1
 -2      1368      1369      2649      1482
 -1      5332    3    0    1
 -2      1424      1320      2363      2391
 -1      5333    3    0    1
 -2        34       716      1993      2145
 -1      5334    3    0    1
 -2      1524       716      2073      2145
 -1      5335    3    0    1
 -2        34       431      2073      2145
 -1      5336    3    0    1
 -2       716        34      2073      2145
 -1      5337    3    0    1
 -2      1221      2199      2217      2220
 -1      5338    3    0    1
 -2       184       763      2266      2273
 -1      5339    3    0    1
 -2      2353      1517      2425      2449
 -1      5340    3    0    1
 -2      1017      1300      2212      2213
 -1      5341    3    0    1
 -2       504       517      2052      2502
 -1      5342    3    0    1
 -2      1303      2640      2719      2403
 -1      5343    3    0    1
 -2      2046      2083      2149      2180
 -1      5344    3    0    1
 -2       601      1825      2514      2090
 -1      5345    3    0    1
 -2      1825      2098      2162      2519
 -1      5346    3    0    1
 -2       880      1993      2114      2147
 -1      5347    3    0    1
 -2       468       880      2114      2147
 -1      5348    3    0    1
 -2       880       468      2128      2147
 -1      5349    3    0    1
 -2      1993       880      2128      2147
 -1      5350    3    0    1
 -2       468       879       900      2147
 -1      5351    3    0    1
 -2       481       468       900      2147
 -1      5352    3    0    1
 -2      1258      2493      2543      1324
 -1      5353    3    0    1
 -2       753       549       751      2217
 -1      5354    3    0    1
 -2      2054      1736      2467      2479
 -1      5355    3    0    1
 -2      1758      2053      2067      2470
 -1      5356    3    0    1
 -2      1119      2532      2570      2720
 -1      5357    3    0    1
 -2       432        31      2130      2527
 -1      5358    3    0    1
 -2       637      1991      2124      2532
 -1      5359    3    0    1
 -2      2634      2630      1425      1480
 -1      5360    3    0    1
 -2      1025      1270      2633      2679
 -1      5361    3    0    1
 -2      2481      2492      2503      2614
 -1      5362    3    0    1
 -2      2380      2319      2720      2409
 -1      5363    3    0    1
 -2       357      1494      2718      2729
 -1      5364    3    0    1
 -2      2506      2490      2621      2728
 -1      5365    3    0    1
 -2      1242      1305      2621      2714
 -1      5366    3    0    1
 -2      2474      2471      2592      2647
 -1      5367    3    0    1
 -2      2467      2474      2607      2678
 -1      5368    3    0    1
 -2      1344      2380      2409      2426
 -1      5369    3    0    1
 -2      1758      2067      2090      2470
 -1      5370    3    0    1
 -2      1458      1493      2411      2444
 -1      5371    3    0    1
 -2      1283      2562      1320      1321
 -1      5372    3    0    1
 -2      2584      2610      2631      2710
 -1      5373    3    0    1
 -2      1101      1121      2485      1243
 -1      5374    3    0    1
 -2      1993        31      2034      2174
 -1      5375    3    0    1
 -2      2057      1580      2071      2471
 -1      5376    3    0    1
 -2      2471       934      1227      1228
 -1      5377    3    0    1
 -2      2062      1766      2070      2472
 -1      5378    3    0    1
 -2      1856      2062      2070      2472
 -1      5379    3    0    1
 -2        81       367      1347      2588
 -1      5380    3    0    1
 -2      2062      1856      2066      2472
 -1      5381    3    0    1
 -2      2119      2118      2140      2484
 -1      5382    3    0    1
 -2        88        89      2087      2513
 -1      5383    3    0    1
 -2      1065      1676      2019      2162
 -1      5384    3    0    1
 -2      1301      2579      2587      1393
 -1      5385    3    0    1
 -2       517       516      2138      2502
 -1      5386    3    0    1
 -2        82       941      2044      2498
 -1      5387    3    0    1
 -2      1360      1339      2242      2293
 -1      5388    3    0    1
 -2      1143       280      2075      2511
 -1      5389    3    0    1
 -2      2508      1218      2563      2598
 -1      5390    3    0    1
 -2      2279      2306      2332      2679
 -1      5391    3    0    1
 -2      2106      1851      2140      2473
 -1      5392    3    0    1
 -2      1851      2106      2137      2473
 -1      5393    3    0    1
 -2      2152      2097      2488      2188
 -1      5394    3    0    1
 -2      1080       601      1676      2162
 -1      5395    3    0    1
 -2       271       375      1967      2511
 -1      5396    3    0    1
 -2      2071      2138      2471      2502
 -1      5397    3    0    1
 -2      2209      1309      1325      2255
 -1      5398    3    0    1
 -2       516      1682      2166      2537
 -1      5399    3    0    1
 -2      1219      2501      1240      2548
 -1      5400    3    0    1
 -2       387       280      2075      2151
 -1      5401    3    0    1
 -2       280       794      1957      2151
 -1      5402    3    0    1
 -2      1120      1967      2124      2151
 -1      5403    3    0    1
 -2      1957      1120      2124      2151
 -1      5404    3    0    1
 -2       280      2014      2075      2151
 -1      5405    3    0    1
 -2       280      1957      2014      2151
 -1      5406    3    0    1
 -2       387       271      2125      2151
 -1      5407    3    0    1
 -2       280       387      2125      2151
 -1      5408    3    0    1
 -2       794       280      2125      2151
 -1      5409    3    0    1
 -2      1015       162      1800      2475
 -1      5410    3    0    1
 -2      2074      1800      2104      2475
 -1      5411    3    0    1
 -2       338       337       750      2475
 -1      5412    3    0    1
 -2      2104      1800      2132      2475
 -1      5413    3    0    1
 -2      1692      2074      2104      2475
 -1      5414    3    0    1
 -2       750       337      1015      2475
 -1      5415    3    0    1
 -2      2169      2118      2530      2685
 -1      5416    3    0    1
 -2       588      1065      2009      2162
 -1      5417    3    0    1
 -2       860       862      2237      2682
 -1      5418    3    0    1
 -2        56       432      2130      2527
 -1      5419    3    0    1
 -2       180      2105      2134      2496
 -1      5420    3    0    1
 -2      1949       111      2136      2498
 -1      5421    3    0    1
 -2        90      2044      2136      2498
 -1      5422    3    0    1
 -2      2528      2521      2529      2656
 -1      5423    3    0    1
 -2      1033      1844      2029      2496
 -1      5424    3    0    1
 -2       365       166      2105      2163
 -1      5425    3    0    1
 -2       762      1849      2105      2163
 -1      5426    3    0    1
 -2      1843       193      2038      2170
 -1      5427    3    0    1
 -2      1825      2067      2079      2476
 -1      5428    3    0    1
 -2      1293      1302      2725      2431
 -1      5429    3    0    1
 -2       166      1980      2105      2496
 -1      5430    3    0    1
 -2       624      1119      1934      2525
 -1      5431    3    0    1
 -2      1825      2079      2098      2476
 -1      5432    3    0    1
 -2       193      1843      1926      2170
 -1      5433    3    0    1
 -2      1754      1736      2054      2479
 -1      5434    3    0    1
 -2      1914      2013      2084      2477
 -1      5435    3    0    1
 -2       266       436      2084      2477
 -1      5436    3    0    1
 -2      1221      2199      2220      2282
 -1      5437    3    0    1
 -2      1766      2083      2500      2510
 -1      5438    3    0    1
 -2      1106       436      1127      2477
 -1      5439    3    0    1
 -2      1927      1914      2084      2477
 -1      5440    3    0    1
 -2       436       266      1127      2477
 -1      5441    3    0    1
 -2       507      1721      1739      2156
 -1      5442    3    0    1
 -2      1758      1103      2470      2514
 -1      5443    3    0    1
 -2       728       496      1938      2156
 -1      5444    3    0    1
 -2      1225      2292      2328      2345
 -1      5445    3    0    1
 -2       943       507      1739      2156
 -1      5446    3    0    1
 -2       943      1739      2021      2156
 -1      5447    3    0    1
 -2       507       496       944      2156
 -1      5448    3    0    1
 -2       496       728       944      2156
 -1      5449    3    0    1
 -2      2086      1856      2094      2478
 -1      5450    3    0    1
 -2      1598      1857      2086      2478
 -1      5451    3    0    1
 -2       358      2649      1482      2723
 -1      5452    3    0    1
 -2      2054      2159      2479      2185
 -1      5453    3    0    1
 -2      2590      1260      2715      2741
 -1      5454    3    0    1
 -2      2552      2574      2590      2715
 -1      5455    3    0    1
 -2      1251        32      2288      2300
 -1      5456    3    0    1
 -2      1427      1383      2355      2362
 -1      5457    3    0    1
 -2      2063      1678      2144      2493
 -1      5458    3    0    1
 -2      1759      2092      2157      2184
 -1      5459    3    0    1
 -2      1109       251      1759      2480
 -1      5460    3    0    1
 -2       370       237       777      2480
 -1      5461    3    0    1
 -2       237      1827      2157      2480
 -1      5462    3    0    1
 -2      1678      1709      2164      2493
 -1      5463    3    0    1
 -2      1244      2551      2617      2618
 -1      5464    3    0    1
 -2       782      1084      1781      2184
 -1      5465    3    0    1
 -2       230      1676      1827      2161
 -1      5466    3    0    1
 -2      1235      2468      2504      2534
 -1      5467    3    0    1
 -2       862      2468      1235      2534
 -1      5468    3    0    1
 -2      2554      1290      1390      1391
 -1      5469    3    0    1
 -2      2538      1275      2597      2606
 -1      5470    3    0    1
 -2      1754      2054      2159      2479
 -1      5471    3    0    1
 -2       230      1855      2462      2161
 -1      5472    3    0    1
 -2      2057      1736      2089      2479
 -1      5473    3    0    1
 -2      1855      2019      2462      2161
 -1      5474    3    0    1
 -2       256       251      1759      2184
 -1      5475    3    0    1
 -2       230      1827      1855      2161
 -1      5476    3    0    1
 -2      1877      1735      2091      2480
 -1      5477    3    0    1
 -2       612       613      2121      2160
 -1      5478    3    0    1
 -2       613       612      1886      2160
 -1      5479    3    0    1
 -2      1886       612      2121      2160
 -1      5480    3    0    1
 -2      1411       134      1472      2365
 -1      5481    3    0    1
 -2      2616      2231      2289      1452
 -1      5482    3    0    1
 -2      2503      2492      2557      2614
 -1      5483    3    0    1
 -2      2625      2643      2652      1441
 -1      5484    3    0    1
 -2      1269      2505      1270      2580
 -1      5485    3    0    1
 -2       625      1934      2167      2525
 -1      5486    3    0    1
 -2       897       918      2483      1245
 -1      5487    3    0    1
 -2       729       731      2197      1287
 -1      5488    3    0    1
 -2      1304      1246      2589      2599
 -1      5489    3    0    1
 -2      1856      1777      2094      2481
 -1      5490    3    0    1
 -2      2558      2557      1349      2614
 -1      5491    3    0    1
 -2       941      1795      2044      2498
 -1      5492    3    0    1
 -2      1882      2118      2119      2484
 -1      5493    3    0    1
 -2      1389      1354      2719      2403
 -1      5494    3    0    1
 -2      2553      1242      2714      2731
 -1      5495    3    0    1
 -2      2559      1255      1329      2591
 -1      5496    3    0    1
 -2      1339      2226      2240      2242
 -1      5497    3    0    1
 -2      2598      1386      2571      2655
 -1      5498    3    0    1
 -2      2460      1217      1218      2508
 -1      5499    3    0    1
 -2      1283      1323      2260      1472
 -1      5500    3    0    1
 -2      2343      2274      2344      2737
 -1      5501    3    0    1
 -2        31      1884      2174      2527
 -1      5502    3    0    1
 -2      1736      2060      2081      2482
 -1      5503    3    0    1
 -2      1736      2081      2089      2482
 -1      5504    3    0    1
 -2      2069      1854      2107      2486
 -1      5505    3    0    1
 -2      2140      2106      2473      2484
 -1      5506    3    0    1
 -2      2277      2212      2278      2679
 -1      5507    3    0    1
 -2      1331      1461      1497      2445
 -1      5508    3    0    1
 -2      2100      1831      2101      2483
 -1      5509    3    0    1
 -2      2486      1044      1249      2596
 -1      5510    3    0    1
 -2      1418        70      2636      2638
 -1      5511    3    0    1
 -2      2698      2422      2628      1292
 -1      5512    3    0    1
 -2      2118      1928      2140      2484
 -1      5513    3    0    1
 -2      1928      2053      2122      2484
 -1      5514    3    0    1
 -2      1928      2106      2140      2484
 -1      5515    3    0    1
 -2      2643      2545      2650      2685
 -1      5516    3    0    1
 -2      2543      1324      2571      2598
 -1      5517    3    0    1
 -2       991       993      2236      2709
 -1      5518    3    0    1
 -2      1328      2546      2611      2695
 -1      5519    3    0    1
 -2      1710      2467      2474      2607
 -1      5520    3    0    1
 -2      2471      2497      2592      2647
 -1      5521    3    0    1
 -2      1263      1347      2556      1346
 -1      5522    3    0    1
 -2      2515      2057      2546      2594
 -1      5523    3    0    1
 -2      2182      2493      1258      1324
 -1      5524    3    0    1
 -2      2493      2182      2543      1324
 -1      5525    3    0    1
 -2      2620      2522      2660      2701
 -1      5526    3    0    1
 -2      2500      2472      2501      2555
 -1      5527    3    0    1
 -2      2106      1928      2122      2485
 -1      5528    3    0    1
 -2      1934      2106      2122      2485
 -1      5529    3    0    1
 -2      2603      2216      1388      2290
 -1      5530    3    0    1
 -2       193       360      1926      2526
 -1      5531    3    0    1
 -2      2079      2069      2098      2486
 -1      5532    3    0    1
 -2      2571      2229      1379      2657
 -1      5533    3    0    1
 -2      1049       219      1071      2487
 -1      5534    3    0    1
 -2       198       219      1049      2487
 -1      5535    3    0    1
 -2      2010      2042      2103      2487
 -1      5536    3    0    1
 -2      1843      2010      2103      2487
 -1      5537    3    0    1
 -2      2010      1935      2042      2487
 -1      5538    3    0    1
 -2      1928      2053      2484      2488
 -1      5539    3    0    1
 -2      2077      1928      2484      2488
 -1      5540    3    0    1
 -2      2097      1892      2115      2488
 -1      5541    3    0    1
 -2      2077      2097      2115      2488
 -1      5542    3    0    1
 -2      1844      1033      2134      2496
 -1      5543    3    0    1
 -2       360       193      1926      2170
 -1      5544    3    0    1
 -2      1892      2053      2077      2488
 -1      5545    3    0    1
 -2      2083      2045      2500      2180
 -1      5546    3    0    1
 -2      1044      1066      2486      2568
 -1      5547    3    0    1
 -2      2053      1892      2067      2488
 -1      5548    3    0    1
 -2      2472      2500      2501      2548
 -1      5549    3    0    1
 -2      1892      2077      2115      2488
 -1      5550    3    0    1
 -2      2053      1928      2077      2488
 -1      5551    3    0    1
 -2      1402      2639      1498      2427
 -1      5552    3    0    1
 -2      1381      2299      2305      2376
 -1      5553    3    0    1
 -2      2534      1235      2682      2707
 -1      5554    3    0    1
 -2      1235      2504      1274      2648
 -1      5555    3    0    1
 -2       161      1221      2199      2217
 -1      5556    3    0    1
 -2       553       549      2211      2217
 -1      5557    3    0    1
 -2      1386      2598      2571      1324
 -1      5558    3    0    1
 -2      2484      2119      2187      2530
 -1      5559    3    0    1
 -2       961       111      1949      2498
 -1      5560    3    0    1
 -2       372       916      2110      2165
 -1      5561    3    0    1
 -2      1364      2274      2342      2344
 -1      5562    3    0    1
 -2      2323      1308      2687      2390
 -1      5563    3    0    1
 -2      1766      2112      2510      2524
 -1      5564    3    0    1
 -2      1064       588      2098      2519
 -1      5565    3    0    1
 -2      2098      1825      2476      2519
 -1      5566    3    0    1
 -2      2059      2118      2169      2541
 -1      5567    3    0    1
 -2      2193      2180      2561      2246
 -1      5568    3    0    1
 -2      1025      1046      2113      2505
 -1      5569    3    0    1
 -2      2280      2544      1456      2625
 -1      5570    3    0    1
 -2      2046      2144      2180      2246
 -1      5571    3    0    1
 -2      1710      2072      2467      2607
 -1      5572    3    0    1
 -2      1268      2205      2247      2249
 -1      5573    3    0    1
 -2       369      2700      1507      2454
 -1      5574    3    0    1
 -2       568      1761      2116      2172
 -1      5575    3    0    1
 -2      1992      2082      2111      2489
 -1      5576    3    0    1
 -2      2056      1915      2111      2489
 -1      5577    3    0    1
 -2      1917      2056      2111      2489
 -1      5578    3    0    1
 -2      2149      2068      2173      2510
 -1      5579    3    0    1
 -2        31      1993      2130      2527
 -1      5580    3    0    1
 -2      2153      2484      2187      2275
 -1      5581    3    0    1
 -2      1228      1227      2497      1262
 -1      5582    3    0    1
 -2       204       358      2649      1483
 -1      5583    3    0    1
 -2      1310      2207      1326      2313
 -1      5584    3    0    1
 -2      2060      2148      2469      2169
 -1      5585    3    0    1
 -2      2059      2060      2469      2169
 -1      5586    3    0    1
 -2      2060      2059      2118      2169
 -1      5587    3    0    1
 -2      2500      2492      2555      2246
 -1      5588    3    0    1
 -2      1892      2115      2133      2490
 -1      5589    3    0    1
 -2      2079      1892      2133      2490
 -1      5590    3    0    1
 -2      1452      1341      2680      2439
 -1      5591    3    0    1
 -2      1854      2079      2133      2490
 -1      5592    3    0    1
 -2      2067      1892      2079      2490
 -1      5593    3    0    1
 -2       372       371       728      2513
 -1      5594    3    0    1
 -2      2609      2522      2660      2677
 -1      5595    3    0    1
 -2      1052      1843      1888      2172
 -1      5596    3    0    1
 -2      1795       941      2044       508
 -1      5597    3    0    1
 -2      2094      1856      2481      2613
 -1      5598    3    0    1
 -2       773      2205      2227      2247
 -1      5599    3    0    1
 -2      2578      2574      2581      2715
 -1      5600    3    0    1
 -2      2489      1255      2559      2591
 -1      5601    3    0    1
 -2       934       958      2471      1227
 -1      5602    3    0    1
 -2      2501      1220      1240      1241
 -1      5603    3    0    1
 -2      2226      2240      2242      2606
 -1      5604    3    0    1
 -2      1854      2068      2112      2491
 -1      5605    3    0    1
 -2      1285      2550      2567      2696
 -1      5606    3    0    1
 -2      2068      1854      2115      2491
 -1      5607    3    0    1
 -2      2107      1854      2112      2491
 -1      5608    3    0    1
 -2        89        88       944      2513
 -1      5609    3    0    1
 -2      1349      2558      2614      2670
 -1      5610    3    0    1
 -2      2115      1854      2133      2491
 -1      5611    3    0    1
 -2      2173      2149      2510      2203
 -1      5612    3    0    1
 -2      2483       897      1245      2582
 -1      5613    3    0    1
 -2       751       161      2199      2217
 -1      5614    3    0    1
 -2      1242      1486      2701      2728
 -1      5615    3    0    1
 -2      1678      2072      2126      2493
 -1      5616    3    0    1
 -2      1347      1262      2556      2597
 -1      5617    3    0    1
 -2      2144      2126      2492      2493
 -1      5618    3    0    1
 -2      1294      1368      1369      2649
 -1      5619    3    0    1
 -2      2264      2600      2270      1389
 -1      5620    3    0    1
 -2      1348      1294      2593      2737
 -1      5621    3    0    1
 -2      2046      2045      2083      2180
 -1      5622    3    0    1
 -2      2126      1777      2144      2492
 -1      5623    3    0    1
 -2      2144      1777      2155      2492
 -1      5624    3    0    1
 -2       860       881      2489      1254
 -1      5625    3    0    1
 -2      2505      1269      2596      2634
 -1      5626    3    0    1
 -2      1124      1143      1916      2511
 -1      5627    3    0    1
 -2      2122      1934      2485      2525
 -1      5628    3    0    1
 -2       612       625      2167      2525
 -1      5629    3    0    1
 -2      1337      2624      1445      2735
 -1      5630    3    0    1
 -2      2555      1301      2223      2246
 -1      5631    3    0    1
 -2      1766      2500      2548      2726
 -1      5632    3    0    1
 -2      1044      2486      1249      2568
 -1      5633    3    0    1
 -2      2506      2536      2590      2715
 -1      5634    3    0    1
 -2      2560      2584      2710      2716
 -1      5635    3    0    1
 -2      2120      1996      2129      2494
 -1      5636    3    0    1
 -2      1866      2120      2129      2494
 -1      5637    3    0    1
 -2      2123      1866      2129      2494
 -1      5638    3    0    1
 -2       430        10      1524      2495
 -1      5639    3    0    1
 -2      1524        10      2127      2495
 -1      5640    3    0    1
 -2       430       431       885      2495
 -1      5641    3    0    1
 -2       712       430       885      2495
 -1      5642    3    0    1
 -2      2127      2034      2145      2495
 -1      5643    3    0    1
 -2      1524      2127      2145      2495
 -1      5644    3    0    1
 -2      1850      2034      2127      2495
 -1      5645    3    0    1
 -2       880        31      1993      2175
 -1      5646    3    0    1
 -2        31       432      1993      2175
 -1      5647    3    0    1
 -2      2128      1993      2130      2175
 -1      5648    3    0    1
 -2       362       347      2117      2176
 -1      5649    3    0    1
 -2      1026       362      2117      2176
 -1      5650    3    0    1
 -2       166       365      1980      2496
 -1      5651    3    0    1
 -2       365       166       756      2496
 -1      5652    3    0    1
 -2      1523       756      2029      2496
 -1      5653    3    0    1
 -2       756      1523      1980      2496
 -1      5654    3    0    1
 -2       756       166      1033      2496
 -1      5655    3    0    1
 -2       166       180      1033      2496
 -1      5656    3    0    1
 -2      2029      1844      2134      2496
 -1      5657    3    0    1
 -2      1980      2029      2134      2496
 -1      5658    3    0    1
 -2      2105      1980      2134      2496
 -1      5659    3    0    1
 -2      1980      1523      2029      2496
 -1      5660    3    0    1
 -2       915       937      2515      1295
 -1      5661    3    0    1
 -2       745       142      2214      2253
 -1      5662    3    0    1
 -2      2210      1222      2557      2246
 -1      5663    3    0    1
 -2      2190      2051      2539      2607
 -1      5664    3    0    1
 -2      1992       879      2147      2518
 -1      5665    3    0    1
 -2      2533      2473      2572      2595
 -1      5666    3    0    1
 -2      2121      1934      2122      2525
 -1      5667    3    0    1
 -2      2060      2058      2099      2507
 -1      5668    3    0    1
 -2       600       601       594      2227
 -1      5669    3    0    1
 -2      2214      1286      2236      2263
 -1      5670    3    0    1
 -2      1085       601      2227      2247
 -1      5671    3    0    1
 -2      1237      1313      2609      2701
 -1      5672    3    0    1
 -2      2082      2065      2461      2518
 -1      5673    3    0    1
 -2      1235      2504      1273      1274
 -1      5674    3    0    1
 -2      2119      2118      2178      2530
 -1      5675    3    0    1
 -2      2595      1278      1406      2744
 -1      5676    3    0    1
 -2      1448       434      1450      2423
 -1      5677    3    0    1
 -2      1119      1121      1934      2525
 -1      5678    3    0    1
 -2       433        56      2033      2527
 -1      5679    3    0    1
 -2      1395      1365      1397      2340
 -1      5680    3    0    1
 -2      1795      1949      2044      2498
 -1      5681    3    0    1
 -2      2283      1362      2333      2346
 -1      5682    3    0    1
 -2       192      1843      2038      2499
 -1      5683    3    0    1
 -2      2103      1843      2487      2499
 -1      5684    3    0    1
 -2      1843       192      2487      2499
 -1      5685    3    0    1
 -2      2103      2042      2135      2499
 -1      5686    3    0    1
 -2       771       359      2177      2499
 -1      5687    3    0    1
 -2       198       192      2177      2499
 -1      5688    3    0    1
 -2       219       198      2177      2499
 -1      5689    3    0    1
 -2       359       219      2177      2499
 -1      5690    3    0    1
 -2      1843      2103      2135      2499
 -1      5691    3    0    1
 -2       192      1045      2177      2499
 -1      5692    3    0    1
 -2      2038      1843      2135      2499
 -1      5693    3    0    1
 -2       576      1044      1046      2266
 -1      5694    3    0    1
 -2      1348      1294      1369      2593
 -1      5695    3    0    1
 -2      2581       354      1474      2699
 -1      5696    3    0    1
 -2      2142      1345      2615      2289
 -1      5697    3    0    1
 -2      2058      2142      2507      2231
 -1      5698    3    0    1
 -2      2517      1224      1292      2628
 -1      5699    3    0    1
 -2      1319      2557      2216      1388
 -1      5700    3    0    1
 -2      1236      2566      2677      2687
 -1      5701    3    0    1
 -2      1302      2374      2725      2431
 -1      5702    3    0    1
 -2      1414      2581      1473      1474
 -1      5703    3    0    1
 -2      1766      2083      2155      2500
 -1      5704    3    0    1
 -2      1124       387      1143      2511
 -1      5705    3    0    1
 -2      2075      1967      2150      2511
 -1      5706    3    0    1
 -2      2083      2045      2155      2500
 -1      5707    3    0    1
 -2      2070      1766      2155      2500
 -1      5708    3    0    1
 -2      1721        88      2087      2513
 -1      5709    3    0    1
 -2       375       271      1124      2511
 -1      5710    3    0    1
 -2      1124      1916      2150      2511
 -1      5711    3    0    1
 -2      2000       517      2138      2502
 -1      5712    3    0    1
 -2       517      2000      2052      2502
 -1      5713    3    0    1
 -2       937       504       505      2502
 -1      5714    3    0    1
 -2       937       505      1580      2502
 -1      5715    3    0    1
 -2       505       504      2052      2502
 -1      5716    3    0    1
 -2      1580       505      2052      2502
 -1      5717    3    0    1
 -2      2138       958       955      2166
 -1      5718    3    0    1
 -2       958      2138       955      2502
 -1      5719    3    0    1
 -2       504       934       958      2502
 -1      5720    3    0    1
 -2       517       504       958      2502
 -1      5721    3    0    1
 -2      1580      2052      2138      2502
 -1      5722    3    0    1
 -2      2071      1580      2138      2502
 -1      5723    3    0    1
 -2      2052      2000      2138      2502
 -1      5724    3    0    1
 -2       577       570       569      2266
 -1      5725    3    0    1
 -2      1121      1119      2570      2720
 -1      5726    3    0    1
 -2      1451       213      1473      2715
 -1      5727    3    0    1
 -2      2558      2503      2604      2612
 -1      5728    3    0    1
 -2      2057      2467      2479      2594
 -1      5729    3    0    1
 -2      2057      2479      2546      2594
 -1      5730    3    0    1
 -2      2512      1241      1290      2579
 -1      5731    3    0    1
 -2      2232      2578      1412      2637
 -1      5732    3    0    1
 -2      2178      2119      2530      2238
 -1      5733    3    0    1
 -2      1374      2641      1436      2648
 -1      5734    3    0    1
 -2      1025      2113      2146      2505
 -1      5735    3    0    1
 -2      2182      2543      2571      1376
 -1      5736    3    0    1
 -2       944      1721      2156      2513
 -1      5737    3    0    1
 -2      2476      1230      2552      2590
 -1      5738    3    0    1
 -2      1046      1890      2113      2505
 -1      5739    3    0    1
 -2      1231      1085      2553      2714
 -1      5740    3    0    1
 -2      2581       213      1473      1474
 -1      5741    3    0    1
 -2      2062      1025      2146      2505
 -1      5742    3    0    1
 -2      1275      2538      2597      2607
 -1      5743    3    0    1
 -2      2453      1496      1494      2458
 -1      5744    3    0    1
 -2      1056       203      2274      2342
 -1      5745    3    0    1
 -2      2557      1349      2234      2603
 -1      5746    3    0    1
 -2      2542      1292      1341      1342
 -1      5747    3    0    1
 -2      1333      1306      2618      2687
 -1      5748    3    0    1
 -2      2219      2620      2389      2446
 -1      5749    3    0    1
 -2      2045      2155      2500      2180
 -1      5750    3    0    1
 -2      2155      2070      2500      2555
 -1      5751    3    0    1
 -2      2360      2315      2361      2696
 -1      5752    3    0    1
 -2      1406      1477      2735      2744
 -1      5753    3    0    1
 -2      1044       576      1046      2596
 -1      5754    3    0    1
 -2      2649       358      1482      1483
 -1      5755    3    0    1
 -2      2199      1265      2211      2230
 -1      5756    3    0    1
 -2      2531      2569      2256      2257
 -1      5757    3    0    1
 -2      2599      1328      2623      2695
 -1      5758    3    0    1
 -2      2236       745      2214      2253
 -1      5759    3    0    1
 -2        48       719      2215      1357
 -1      5760    3    0    1
 -2      2179      2490      2183      2536
 -1      5761    3    0    1
 -2      2546      2479      1328      2611
 -1      5762    3    0    1
 -2      2179      2183      2194      2536
 -1      5763    3    0    1
 -2      1890      2112      2146      2505
 -1      5764    3    0    1
 -2      2327      2283      2375      2745
 -1      5765    3    0    1
 -2      1890      2107      2112      2505
 -1      5766    3    0    1
 -2      2113      1890      2146      2505
 -1      5767    3    0    1
 -2      2561      2587      2605      2672
 -1      5768    3    0    1
 -2      2555      1301      2579      2587
 -1      5769    3    0    1
 -2      2060      1672      2081      2507
 -1      5770    3    0    1
 -2      1672      2060      2148      2507
 -1      5771    3    0    1
 -2        20      1366      2610      1509
 -1      5772    3    0    1
 -2       477       480       481      2658
 -1      5773    3    0    1
 -2      2099      2058      2142      2507
 -1      5774    3    0    1
 -2      1934      1119      2124      2532
 -1      5775    3    0    1
 -2       900       480       897      2658
 -1      5776    3    0    1
 -2      2470      1236      2566      2609
 -1      5777    3    0    1
 -2      2488      2522      1306      2620
 -1      5778    3    0    1
 -2      1269      2505      2580      2634
 -1      5779    3    0    1
 -2      2106      2137      2473      2532
 -1      5780    3    0    1
 -2      1307      1244      1308      2551
 -1      5781    3    0    1
 -2      1330      2559      2584      2631
 -1      5782    3    0    1
 -2      2549      2482      1328      2599
 -1      5783    3    0    1
 -2      2471      1710      2474      2538
 -1      5784    3    0    1
 -2      2541      2544      2250      2261
 -1      5785    3    0    1
 -2      2137      1851      2473      2532
 -1      5786    3    0    1
 -2      2566      1460      2687      1306
 -1      5787    3    0    1
 -2      2376      1303      2719      2403
 -1      5788    3    0    1
 -2      2322      2317      2352      2676
 -1      5789    3    0    1
 -2      2505      2524      2580      2634
 -1      5790    3    0    1
 -2      2509      2463      2537      2538
 -1      5791    3    0    1
 -2      2107      2486      2521      2596
 -1      5792    3    0    1
 -2      2535      1064      2590      2665
 -1      5793    3    0    1
 -2      2083      1766      2112      2510
 -1      5794    3    0    1
 -2      2068      2083      2112      2510
 -1      5795    3    0    1
 -2      1347      2556      2588      2597
 -1      5796    3    0    1
 -2      2075       387      2151      2511
 -1      5797    3    0    1
 -2      2558      2604      2635      2667
 -1      5798    3    0    1
 -2      2669      2573      2705      2713
 -1      5799    3    0    1
 -2      1335      2256      2597      1415
 -1      5800    3    0    1
 -2      2118      2119      2140      2530
 -1      5801    3    0    1
 -2      2681       361      2697      1512
 -1      5802    3    0    1
 -2      2493      2492      1258      2543
 -1      5803    3    0    1
 -2      2574      2581      1413      1414
 -1      5804    3    0    1
 -2      2212      1017      2213      2277
 -1      5805    3    0    1
 -2      2045      2144      2155      2180
 -1      5806    3    0    1
 -2       753       751      2199      2217
 -1      5807    3    0    1
 -2       372       728      1938      2513
 -1      5808    3    0    1
 -2       352      1480      2697      2402
 -1      5809    3    0    1
 -2      2505      1025      1270      2633
 -1      5810    3    0    1
 -2      1993        31      2174      2527
 -1      5811    3    0    1
 -2      1331      2551      2619      2706
 -1      5812    3    0    1
 -2      2472      2070      2540      2555
 -1      5813    3    0    1
 -2       900      2065      2147      2518
 -1      5814    3    0    1
 -2      2548      1027      2633      2679
 -1      5815    3    0    1
 -2      2047      2463      2509      2550
 -1      5816    3    0    1
 -2       937      2281      2647      2739
 -1      5817    3    0    1
 -2      1339      2226      2242      2293
 -1      5818    3    0    1
 -2      1414      2581      1474      2699
 -1      5819    3    0    1
 -2       263      1111      2209      1325
 -1      5820    3    0    1
 -2      1420      2360      2361      2363
 -1      5821    3    0    1
 -2      2474      2471      2497      2592
 -1      5822    3    0    1
 -2      2564      1317      2604      2612
 -1      5823    3    0    1
 -2      2492      2555      2557      2614
 -1      5824    3    0    1
 -2      2106      2484      2485      2570
 -1      5825    3    0    1
 -2      2272      2269      2687      2420
 -1      5826    3    0    1
 -2       371       372      2165      2513
 -1      5827    3    0    1
 -2       372      1938      1952      2513
 -1      5828    3    0    1
 -2       372      1952      2165      2513
 -1      5829    3    0    1
 -2       728        89       944      2513
 -1      5830    3    0    1
 -2       371        89       728      2513
 -1      5831    3    0    1
 -2      2087      1938      2156      2513
 -1      5832    3    0    1
 -2      1721      2087      2156      2513
 -1      5833    3    0    1
 -2      1952      1938      2087      2513
 -1      5834    3    0    1
 -2      1952      2087      2165      2513
 -1      5835    3    0    1
 -2      2119      2153      2484      2187
 -1      5836    3    0    1
 -2      1758      2090      2160      2514
 -1      5837    3    0    1
 -2       613       600      1103      2514
 -1      5838    3    0    1
 -2      2090      1781      2160      2514
 -1      5839    3    0    1
 -2      2121      1758      2160      2514
 -1      5840    3    0    1
 -2       600      1083      1103      2514
 -1      5841    3    0    1
 -2      2681       352      1480      2697
 -1      5842    3    0    1
 -2       915       937      2102      2515
 -1      5843    3    0    1
 -2       915      2102      2158      2515
 -1      5844    3    0    1
 -2      2196      2268      2331      2721
 -1      5845    3    0    1
 -2      1831       915      2158      2515
 -1      5846    3    0    1
 -2      1766      2548      2633      2726
 -1      5847    3    0    1
 -2      2497      2474      2531      2597
 -1      5848    3    0    1
 -2      2489       860      1254      1255
 -1      5849    3    0    1
 -2      2359      2324      2713      2417
 -1      5850    3    0    1
 -2       204       358      2565      2649
 -1      5851    3    0    1
 -2      1119       624      1121      2525
 -1      5852    3    0    1
 -2      2575      2625      2641      2648
 -1      5853    3    0    1
 -2      1580      2057      2158      2515
 -1      5854    3    0    1
 -2      2102      1580      2158      2515
 -1      5855    3    0    1
 -2      2057      2089      2158      2515
 -1      5856    3    0    1
 -2      2628      1345      2663      2382
 -1      5857    3    0    1
 -2      1275      1335      2597      2606
 -1      5858    3    0    1
 -2      2582      1303      2589      2640
 -1      5859    3    0    1
 -2      1302      2547      1382      2723
 -1      5860    3    0    1
 -2      2629      2542      2646      2675
 -1      5861    3    0    1
 -2      2422      2698      2423      2448
 -1      5862    3    0    1
 -2       204      1348      1483      2692
 -1      5863    3    0    1
 -2      2544      2250      2261      2280
 -1      5864    3    0    1
 -2      1240      2512      1289      2662
 -1      5865    3    0    1
 -2      1322      2222      2281      2284
 -1      5866    3    0    1
 -2       745      2236      2214       747
 -1      5867    3    0    1
 -2      2099      2059      2469      2196
 -1      5868    3    0    1
 -2       222       773      2205      2227
 -1      5869    3    0    1
 -2      2268      1299      1409      2721
 -1      5870    3    0    1
 -2      2363      2632      2696      2391
 -1      5871    3    0    1
 -2      2528      2189      1259      1302
 -1      5872    3    0    1
 -2      1280      1225      2626      2627
 -1      5873    3    0    1
 -2      2252      2353      2424      2744
 -1      5874    3    0    1
 -2      1337      2595      2624      2735
 -1      5875    3    0    1
 -2      2540      1222      1301      2555
 -1      5876    3    0    1
 -2      2193      2555      2561      2587
 -1      5877    3    0    1
 -2      2469      2059      2192      2196
 -1      5878    3    0    1
 -2      1294      1369      2593      2649
 -1      5879    3    0    1
 -2       773      1075      2205      2247
 -1      5880    3    0    1
 -2      2565      2547      1348      2692
 -1      5881    3    0    1
 -2      2335      2664      2341      1470
 -1      5882    3    0    1
 -2      2046      2063      2144      2191
 -1      5883    3    0    1
 -2      1226      2538      2606      2639
 -1      5884    3    0    1
 -2      2081      2101      2483      2516
 -1      5885    3    0    1
 -2      2069      1044      2486      2596
 -1      5886    3    0    1
 -2       900       897      2582      2658
 -1      5887    3    0    1
 -2      2562      1320      2601      2632
 -1      5888    3    0    1
 -2      2452      2436      1488      2457
 -1      5889    3    0    1
 -2      2543      2562      2571      2632
 -1      5890    3    0    1
 -2      2611      2546      2622      2695
 -1      5891    3    0    1
 -2       741      2221      2254      2251
 -1      5892    3    0    1
 -2      2473      2530      2572      2740
 -1      5893    3    0    1
 -2      2622      2653      2659      2695
 -1      5894    3    0    1
 -2      2186      2549      1328      1367
 -1      5895    3    0    1
 -2      2198      1258      2557      1319
 -1      5896    3    0    1
 -2      1359      1358      2630      1425
 -1      5897    3    0    1
 -2       900       879      1223      2518
 -1      5898    3    0    1
 -2      2065      2082      2147      2518
 -1      5899    3    0    1
 -2      1223       879      1224      2518
 -1      5900    3    0    1
 -2      2082      1992      2147      2518
 -1      5901    3    0    1
 -2      2164      2493      2181      2732
 -1      5902    3    0    1
 -2       134      1386      2655      2657
 -1      5903    3    0    1
 -2      1231      1260      1261      2552
 -1      5904    3    0    1
 -2       625       624      1121      2209
 -1      5905    3    0    1
 -2      2051      2072      2164      2190
 -1      5906    3    0    1
 -2      1454      1442      1470      2711
 -1      5907    3    0    1
 -2      1365        11      2610      1395
 -1      5908    3    0    1
 -2      1101      2121      2566      2617
 -1      5909    3    0    1
 -2      1227      2242      2606      2349
 -1      5910    3    0    1
 -2      2305      1381      2376      2403
 -1      5911    3    0    1
 -2      1915      2056      2468      2534
 -1      5912    3    0    1
 -2      1917      2148      2469      2338
 -1      5913    3    0    1
 -2      2500      2501      2548      2561
 -1      5914    3    0    1
 -2       168      1017      1300      1311
 -1      5915    3    0    1
 -2      2476      1231      1230      1085
 -1      5916    3    0    1
 -2       363       350      2294      2666
 -1      5917    3    0    1
 -2      2107      1854      2491      2521
 -1      5918    3    0    1
 -2      1854      2107      2486      2521
 -1      5919    3    0    1
 -2      1275      1335      2606      2293
 -1      5920    3    0    1
 -2      2057      2089      2515      2546
 -1      5921    3    0    1
 -2      1290      1289      2554      1390
 -1      5922    3    0    1
 -2      2199      2217      2220      2693
 -1      5923    3    0    1
 -2      2560      2631      2703      2710
 -1      5924    3    0    1
 -2      2154      2186      2549      1328
 -1      5925    3    0    1
 -2      1386      2571      2655      2657
 -1      5926    3    0    1
 -2      1262      2497      1263      2556
 -1      5927    3    0    1
 -2      1111       617       618      2209
 -1      5928    3    0    1
 -2      1417      1351      1446      2403
 -1      5929    3    0    1
 -2       625       617       624      2209
 -1      5930    3    0    1
 -2       537       538       540      2236
 -1      5931    3    0    1
 -2      1892      2067      2488      2522
 -1      5932    3    0    1
 -2      2531      2497      2556      2592
 -1      5933    3    0    1
 -2      2410      2385      2411      2739
 -1      5934    3    0    1
 -2      1309      2255      2318      2414
 -1      5935    3    0    1
 -2       625       618       617      2209
 -1      5936    3    0    1
 -2       624      1119      1121      2209
 -1      5937    3    0    1
 -2      2509      2539      2573      2732
 -1      5938    3    0    1
 -2      2713      1496      2718      2729
 -1      5939    3    0    1
 -2      1374      2575      2641      2648
 -1      5940    3    0    1
 -2      2089      2057      2479      2546
 -1      5941    3    0    1
 -2       434      2646      1450      2357
 -1      5942    3    0    1
 -2      2313      1306      2687      2420
 -1      5943    3    0    1
 -2      2159      2154      2482      1328
 -1      5944    3    0    1
 -2      2603      2558      2635      2667
 -1      5945    3    0    1
 -2      1410      1320      1424      2391
 -1      5946    3    0    1
 -2      2470      2053      2522      2566
 -1      5947    3    0    1
 -2      1399      2669      1494      2729
 -1      5948    3    0    1
 -2      2291      2232      2637      1451
 -1      5949    3    0    1
 -2      2201      2225      2237      2682
 -1      5950    3    0    1
 -2      2566      1306      2620      1460
 -1      5951    3    0    1
 -2      1306      2208      2620      1460
 -1      5952    3    0    1
 -2      2623      1295      2695      2745
 -1      5953    3    0    1
 -2      1393      1404      1429      2326
 -1      5954    3    0    1
 -2      2474      2467      2594      2678
 -1      5955    3    0    1
 -2      2263      2329      2355      2709
 -1      5956    3    0    1
 -2      2531      2569      2257      2678
 -1      5957    3    0    1
 -2      2146      1766      2505      2524
 -1      5958    3    0    1
 -2      2112      2146      2505      2524
 -1      5959    3    0    1
 -2       134       351      2259      2657
 -1      5960    3    0    1
 -2      2571      1379      2632      2657
 -1      5961    3    0    1
 -2      2112      1766      2146      2524
 -1      5962    3    0    1
 -2      1384      2635      1422      1423
 -1      5963    3    0    1
 -2       600      1083      1085      2227
 -1      5964    3    0    1
 -2       601       600      1085      2227
 -1      5965    3    0    1
 -2      2207      2323      2687      2390
 -1      5966    3    0    1
 -2      2164      2190      2539      2287
 -1      5967    3    0    1
 -2      2119      2187      2530      2238
 -1      5968    3    0    1
 -2      2469      2523      2338      2694
 -1      5969    3    0    1
 -2       167       364      2356      2683
 -1      5970    3    0    1
 -2       362      2116      2117      2526
 -1      5971    3    0    1
 -2      1030       347      1052      2526
 -1      5972    3    0    1
 -2       347       360      1052      2526
 -1      5973    3    0    1
 -2      1843      1926      2172      2526
 -1      5974    3    0    1
 -2      1926      2116      2172      2526
 -1      5975    3    0    1
 -2      2116      1926      2117      2526
 -1      5976    3    0    1
 -2      2534      1238      1392      2707
 -1      5977    3    0    1
 -2      1234      1235      2504      1273
 -1      5978    3    0    1
 -2      2398      2314      2401      2725
 -1      5979    3    0    1
 -2       204       358      2206      2565
 -1      5980    3    0    1
 -2      1292      1291      2542      1341
 -1      5981    3    0    1
 -2      1457      1328      2695      2745
 -1      5982    3    0    1
 -2      2274      1327      2321      2370
 -1      5983    3    0    1
 -2      1398      2343      2344      2407
 -1      5984    3    0    1
 -2      2571      2562      2598      2655
 -1      5985    3    0    1
 -2      2579      2587      1393      1404
 -1      5986    3    0    1
 -2      2493      2181      2182      1258
 -1      5987    3    0    1
 -2      2493      2063      2181      1258
 -1      5988    3    0    1
 -2       973      2460      2550      2567
 -1      5989    3    0    1
 -2      1503      2677      2620      1460
 -1      5990    3    0    1
 -2      1710      2166      2537      2538
 -1      5991    3    0    1
 -2      1232      1233      2533      1336
 -1      5992    3    0    1
 -2      2204      1276      2225      2381
 -1      5993    3    0    1
 -2      2482      2154      1256      2549
 -1      5994    3    0    1
 -2      2473      2140      2484      2530
 -1      5995    3    0    1
 -2       719      2215      1357      2658
 -1      5996    3    0    1
 -2       351      2601      2632      2657
 -1      5997    3    0    1
 -2      2471      2474      2497      2597
 -1      5998    3    0    1
 -2      2300      2303      2663      2382
 -1      5999    3    0    1
 -2      1346      1263      2258      1416
 -1      6000    3    0    1
 -2      1371      1288      2285      2325
 -1      6001    3    0    1
 -2      2333      2283      2346      2671
 -1      6002    3    0    1
 -2      2337      2631      2721      1509
 -1      6003    3    0    1
 -2      2472      1009      1220      2540
 -1      6004    3    0    1
 -2      2169      2473      2545      2685
 -1      6005    3    0    1
 -2        70      1419      2636      2638
 -1      6006    3    0    1
 -2      1318      1272      2614      2693
 -1      6007    3    0    1
 -2      1281      1400      2626      2639
 -1      6008    3    0    1
 -2      1408      1349      2347      2366
 -1      6009    3    0    1
 -2      2336      2333      2354      2671
 -1      6010    3    0    1
 -2      2260      1283      1472      2365
 -1      6011    3    0    1
 -2      2645      2297      2358      2393
 -1      6012    3    0    1
 -2      1231      1230      1260      2552
 -1      6013    3    0    1
 -2      2474      2531      2597      2607
 -1      6014    3    0    1
 -2      2072      1710      2463      2607
 -1      6015    3    0    1
 -2      1399      1494      1496      2729
 -1      6016    3    0    1
 -2      1917      2469      2169      2541
 -1      6017    3    0    1
 -2      2615      2231      2289      2629
 -1      6018    3    0    1
 -2      2118      2140      2169      2530
 -1      6019    3    0    1
 -2      2279      2213      2306      2679
 -1      6020    3    0    1
 -2      2306      1240      2332      2679
 -1      6021    3    0    1
 -2      1274      2575      1373      1374
 -1      6022    3    0    1
 -2      1218      2508      1282      1283
 -1      6023    3    0    1
 -2      2238      2530      2297      2358
 -1      6024    3    0    1
 -2      2242      2226      2606      2293
 -1      6025    3    0    1
 -2      1283      2508      2562      2598
 -1      6026    3    0    1
 -2      1454        69      1470      2457
 -1      6027    3    0    1
 -2      1268      2205      2249      2312
 -1      6028    3    0    1
 -2      2520      2485      2551      2617
 -1      6029    3    0    1
 -2      1439      2224      2388      2726
 -1      6030    3    0    1
 -2      1233      2533      1336      2624
 -1      6031    3    0    1
 -2      1856      1009      2472      2613
 -1      6032    3    0    1
 -2      2319      1340      1464      2380
 -1      6033    3    0    1
 -2      1279      1256      2576      2231
 -1      6034    3    0    1
 -2      2295       915      2671      2745
 -1      6035    3    0    1
 -2      2225      1334      2237      2243
 -1      6036    3    0    1
 -2      2542      2602      2675      2698
 -1      6037    3    0    1
 -2      2603      1408      1431      2670
 -1      6038    3    0    1
 -2      2634      1358      1437      1480
 -1      6039    3    0    1
 -2      2212      1314      2278      2392
 -1      6040    3    0    1
 -2      1864      2460      2543      2567
 -1      6041    3    0    1
 -2      2124      1119       637      2532
 -1      6042    3    0    1
 -2       358      2206      2565      1382
 -1      6043    3    0    1
 -2      1139      1137      1991      2532
 -1      6044    3    0    1
 -2      1991      1137      2468      2532
 -1      6045    3    0    1
 -2      2053      2484      2566      2617
 -1      6046    3    0    1
 -2      2197      1266      1361      2241
 -1      6047    3    0    1
 -2      2193      2561      2218      2672
 -1      6048    3    0    1
 -2      2569      2608      2308      2309
 -1      6049    3    0    1
 -2      1335      1275      2597      2607
 -1      6050    3    0    1
 -2      1139      1119      1232      2532
 -1      6051    3    0    1
 -2      1139      1232      1233      2532
 -1      6052    3    0    1
 -2      2106      2124      2137      2532
 -1      6053    3    0    1
 -2       637      1119      1139      2532
 -1      6054    3    0    1
 -2      2124      1991      2137      2532
 -1      6055    3    0    1
 -2      2106      1934      2124      2532
 -1      6056    3    0    1
 -2      1119      2124       637       624
 -1      6057    3    0    1
 -2      2250      1456      2544      1392
 -1      6058    3    0    1
 -2      2288      2300      2302      2663
 -1      6059    3    0    1
 -2      2543      2508      2562      2632
 -1      6060    3    0    1
 -2      1017      1300      1311      2212
 -1      6061    3    0    1
 -2      2512      2501      2587      2605
 -1      6062    3    0    1
 -2      2576      2507      2615      2616
 -1      6063    3    0    1
 -2      2312      2249      2714      2731
 -1      6064    3    0    1
 -2       741       526      2221      2251
 -1      6065    3    0    1
 -2       367      1347      2588      1415
 -1      6066    3    0    1
 -2      2616      2629      2646      1452
 -1      6067    3    0    1
 -2      2559      2523      2560      2631
 -1      6068    3    0    1
 -2      2099      2507      2268      2721
 -1      6069    3    0    1
 -2      2492      2481      2503      2612
 -1      6070    3    0    1
 -2      2508      1282      1283      2562
 -1      6071    3    0    1
 -2      2469      2099      2196      2721
 -1      6072    3    0    1
 -2      2691       238      2733      2700
 -1      6073    3    0    1
 -2      2628      2615      2675      2694
 -1      6074    3    0    1
 -2      2576      2461      2582      2585
 -1      6075    3    0    1
 -2      2149      2224      2245      2726
 -1      6076    3    0    1
 -2      2517      1224      1291      1292
 -1      6077    3    0    1
 -2       386      2652      1441      2373
 -1      6078    3    0    1
 -2       945        98      2226      2240
 -1      6079    3    0    1
 -2      2058      2507      2576      2231
 -1      6080    3    0    1
 -2      2646      2629      1450      2357
 -1      6081    3    0    1
 -2      2479      2159      2262      2611
 -1      6082    3    0    1
 -2      2218      2561      2605      2672
 -1      6083    3    0    1
 -2       706      2201       450       852
 -1      6084    3    0    1
 -2      2187      2275      2644      2372
 -1      6085    3    0    1
 -2      2562      2543      2571      2598
 -1      6086    3    0    1
 -2      1259      2634      1437      2730
 -1      6087    3    0    1
 -2      1460      2677      2430      2455
 -1      6088    3    0    1
 -2      1307      1331      2412      2445
 -1      6089    3    0    1
 -2      2210      2198      2557      2216
 -1      6090    3    0    1
 -2      1217      1218      2508      1282
 -1      6091    3    0    1
 -2      2320      1056      2342      2665
 -1      6092    3    0    1
 -2       958       955      2166      2537
 -1      6093    3    0    1
 -2      2141      2118      2169      2685
 -1      6094    3    0    1
 -2      1369      2649      1483      2692
 -1      6095    3    0    1
 -2      1266      2197      1287      2222
 -1      6096    3    0    1
 -2      2504      1273      2575      2643
 -1      6097    3    0    1
 -2       161       158       751      2199
 -1      6098    3    0    1
 -2       751       158       753      2199
 -1      6099    3    0    1
 -2      1294      1293      1368      2649
 -1      6100    3    0    1
 -2      2460      1864      2550      2567
 -1      6101    3    0    1
 -2      2079      2098      2476      2535
 -1      6102    3    0    1
 -2      2079      1854      2486      2535
 -1      6103    3    0    1
 -2      2486      1854      2521      2535
 -1      6104    3    0    1
 -2      2530      1248      1344      2238
 -1      6105    3    0    1
 -2      2187      1248      2530      2238
 -1      6106    3    0    1
 -2      2630      2586      2654      2673
 -1      6107    3    0    1
 -2      1313      1468      2691      2727
 -1      6108    3    0    1
 -2      1854      2079      2490      2535
 -1      6109    3    0    1
 -2      2098      1064      2476      2535
 -1      6110    3    0    1
 -2      1066      1064      2098      2535
 -1      6111    3    0    1
 -2      1066      2098      2486      2535
 -1      6112    3    0    1
 -2       358      1382      1482      2456
 -1      6113    3    0    1
 -2      1854      2491      2521      2535
 -1      6114    3    0    1
 -2      2698      2448      1448      1450
 -1      6115    3    0    1
 -2      1468      1501      1507      2441
 -1      6116    3    0    1
 -2      2544      2545      2643      2685
 -1      6117    3    0    1
 -2      2183      2536      1305      2232
 -1      6118    3    0    1
 -2      2183      2194      2536      2232
 -1      6119    3    0    1
 -2      1243      2485      1244      2551
 -1      6120    3    0    1
 -2      2463      2047      2509      2537
 -1      6121    3    0    1
 -2      2047      2463      2166      2537
 -1      6122    3    0    1
 -2      1460      2687      2420      2430
 -1      6123    3    0    1
 -2      2463      1710      2166      2537
 -1      6124    3    0    1
 -2      2567      2543      1376      2632
 -1      6125    3    0    1
 -2      1137      2468      2532      2595
 -1      6126    3    0    1
 -2       529       975      1682      2537
 -1      6127    3    0    1
 -2       516       529      1682      2537
 -1      6128    3    0    1
 -2       541       540       991      2236
 -1      6129    3    0    1
 -2       975       955      1225      2537
 -1      6130    3    0    1
 -2      1682      2047      2166      2537
 -1      6131    3    0    1
 -2      1225       955      1226      2537
 -1      6132    3    0    1
 -2       516       955       975      2537
 -1      6133    3    0    1
 -2       529       516       975      2537
 -1      6134    3    0    1
 -2      2673      2697      2402      2437
 -1      6135    3    0    1
 -2       955      1226      2537      2538
 -1      6136    3    0    1
 -2      2565       204      2649      2692
 -1      6137    3    0    1
 -2       958       955      2537      2538
 -1      6138    3    0    1
 -2      1266      2197      2222      2241
 -1      6139    3    0    1
 -2      2471       958      2166      2538
 -1      6140    3    0    1
 -2      2166       958      2537      2538
 -1      6141    3    0    1
 -2      2206      2547      2565      1382
 -1      6142    3    0    1
 -2      2566      2522      2609      2677
 -1      6143    3    0    1
 -2      2262      2611      2334      2335
 -1      6144    3    0    1
 -2      2071      2471      2166      2538
 -1      6145    3    0    1
 -2      2071      1710      2471      2538
 -1      6146    3    0    1
 -2      2554      2512      2579      2587
 -1      6147    3    0    1
 -2      1218      1323      2233      2260
 -1      6148    3    0    1
 -2      2182      2543      1324      2571
 -1      6149    3    0    1
 -2      1218      1283      1323      2260
 -1      6150    3    0    1
 -2      1710      2071      2166      2538
 -1      6151    3    0    1
 -2      2294      2603      1431      2666
 -1      6152    3    0    1
 -2      2528      2491      2656      2730
 -1      6153    3    0    1
 -2      1494       357      1514      2458
 -1      6154    3    0    1
 -2      2559      1329      1330      2584
 -1      6155    3    0    1
 -2      2118      2141      2169      2541
 -1      6156    3    0    1
 -2      2180      2193      2561      2245
 -1      6157    3    0    1
 -2      2591      1370      2339      2340
 -1      6158    3    0    1
 -2      1710      2474      2538      2607
 -1      6159    3    0    1
 -2      1228      2197      1361      2241
 -1      6160    3    0    1
 -2      2269      2313      2687      2420
 -1      6161    3    0    1
 -2      1276      2201      2204      2225
 -1      6162    3    0    1
 -2      2503      2558      2604      2614
 -1      6163    3    0    1
 -2      1419      2600      2636      2638
 -1      6164    3    0    1
 -2      2173      2491      2189      2203
 -1      6165    3    0    1
 -2      2580      1270      1358      1359
 -1      6166    3    0    1
 -2      2301      2304      2658      2719
 -1      6167    3    0    1
 -2       897      2582      2658      2719
 -1      6168    3    0    1
 -2      1243      1244      1307      2551
 -1      6169    3    0    1
 -2      1121      2485      1243      2570
 -1      6170    3    0    1
 -2      2294      2603      1408      1431
 -1      6171    3    0    1
 -2      2216      2557      2603      1388
 -1      6172    3    0    1
 -2      1303      1351      2640      2403
 -1      6173    3    0    1
 -2      2330      1440      2381      2386
 -1      6174    3    0    1
 -2      2062      1025      2505      2633
 -1      6175    3    0    1
 -2      1222      1301      2555      2246
 -1      6176    3    0    1
 -2      2552      2506      2574      2621
 -1      6177    3    0    1
 -2      1321      2601      1411      2655
 -1      6178    3    0    1
 -2      2536      2506      2578      2715
 -1      6179    3    0    1
 -2      1011      2478      2481      2613
 -1      6180    3    0    1
 -2      2149      2224      2726      2742
 -1      6181    3    0    1
 -2         1      1436      1456      2386
 -1      6182    3    0    1
 -2      1046      1890      2505      2596
 -1      6183    3    0    1
 -2      1325      1340      2235      2255
 -1      6184    3    0    1
 -2      1254      1330      1355      2368
 -1      6185    3    0    1
 -2      1443      1459      2411      2444
 -1      6186    3    0    1
 -2      2688      2620      2418      2446
 -1      6187    3    0    1
 -2      1397      2243      2339      2340
 -1      6188    3    0    1
 -2      2468      2504      2544      2545
 -1      6189    3    0    1
 -2      2141      2059      2192      2541
 -1      6190    3    0    1
 -2      2541      2468      2544      2545
 -1      6191    3    0    1
 -2      2137      1851      2532      2545
 -1      6192    3    0    1
 -2      2524      2633      2654      2726
 -1      6193    3    0    1
 -2      2056      1917      2169      2541
 -1      6194    3    0    1
 -2      1831      2101      2483      2383
 -1      6195    3    0    1
 -2      1477      1445      1506      2735
 -1      6196    3    0    1
 -2      1383      1384      2635      1422
 -1      6197    3    0    1
 -2      2249      2316      2367      2714
 -1      6198    3    0    1
 -2      2697       352      2402      2437
 -1      6199    3    0    1
 -2       549       550       552      2211
 -1      6200    3    0    1
 -2      2230      1265      1350      2248
 -1      6201    3    0    1
 -2       221       773      1075      2205
 -1      6202    3    0    1
 -2      2265      2285      2301      2658
 -1      6203    3    0    1
 -2       221       222       773      2205
 -1      6204    3    0    1
 -2      2649       204      1483      2692
 -1      6205    3    0    1
 -2      2532      1232      2533      2720
 -1      6206    3    0    1
 -2      1428      1438      2348      2354
 -1      6207    3    0    1
 -2      2660      1313      1467      2691
 -1      6208    3    0    1
 -2      2182      2493      1376      2181
 -1      6209    3    0    1
 -2      2575      2544      2625      2648
 -1      6210    3    0    1
 -2      2328      2627      2345      2443
 -1      6211    3    0    1
 -2      2190      2539      2287      2324
 -1      6212    3    0    1
 -2        11        20      1366      2610
 -1      6213    3    0    1
 -2      1864      2126      2493      2543
 -1      6214    3    0    1
 -2      1864      2460      2126      2543
 -1      6215    3    0    1
 -2      2215      1288      2265      2285
 -1      6216    3    0    1
 -2      2387      2440      2441      2738
 -1      6217    3    0    1
 -2      1450      1448      2423      2448
 -1      6218    3    0    1
 -2      1377      1442      2659      2711
 -1      6219    3    0    1
 -2        81       367      2588      2608
 -1      6220    3    0    1
 -2      2646       376      1452      2357
 -1      6221    3    0    1
 -2      1283      2598      1386      2365
 -1      6222    3    0    1
 -2      2196      2689      2469      2722
 -1      6223    3    0    1
 -2      2056      2468      2541      2545
 -1      6224    3    0    1
 -2      2107      2069      2486      2596
 -1      6225    3    0    1
 -2      2259      2229      1386      2657
 -1      6226    3    0    1
 -2      1369      1348      2593      2692
 -1      6227    3    0    1
 -2      2473      1851      2169      2545
 -1      6228    3    0    1
 -2      1306      2566      2617      2687
 -1      6229    3    0    1
 -2       778      1101      2269      2687
 -1      6230    3    0    1
 -2      1991      2137      2532      2545
 -1      6231    3    0    1
 -2      2468      1991      2532      2545
 -1      6232    3    0    1
 -2      2169      2056      2541      2545
 -1      6233    3    0    1
 -2      2056      1991      2468      2545
 -1      6234    3    0    1
 -2      1991      1851      2137      2545
 -1      6235    3    0    1
 -2      1851      2056      2169      2545
 -1      6236    3    0    1
 -2      1851      1991      2056      2545
 -1      6237    3    0    1
 -2      1365      1329      1395      2716
 -1      6238    3    0    1
 -2      1224      2628      2694      2702
 -1      6239    3    0    1
 -2      2299      2304      2305      2719
 -1      6240    3    0    1
 -2      2538      1275      1402      2712
 -1      6241    3    0    1
 -2      1225       975      2550      2696
 -1      6242    3    0    1
 -2      2581       213      2637      2715
 -1      6243    3    0    1
 -2      2541      2192      2244      2250
 -1      6244    3    0    1
 -2      1222      2555      2557      2246
 -1      6245    3    0    1
 -2      2503      2564      2604      2612
 -1      6246    3    0    1
 -2      1345      1299      2663      2382
 -1      6247    3    0    1
 -2      2601      1320      1410      2632
 -1      6248    3    0    1
 -2       377      2686      1477      2735
 -1      6249    3    0    1
 -2       386      2652      2373      2399
 -1      6250    3    0    1
 -2       435      1463      2706      2736
 -1      6251    3    0    1
 -2      2504      1273      1274      2575
 -1      6252    3    0    1
 -2      1497      1434      2412      2445
 -1      6253    3    0    1
 -2       167      1390      1394      2332
 -1      6254    3    0    1
 -2      2522      2609      2660      2701
 -1      6255    3    0    1
 -2      2517      2542      2585      2616
 -1      6256    3    0    1
 -2      2603      2234      2294      1408
 -1      6257    3    0    1
 -2      1256      1279      2585      2301
 -1      6258    3    0    1
 -2      2603      1349      2670      2557
 -1      6259    3    0    1
 -2      2231      2142      2615      2289
 -1      6260    3    0    1
 -2      1342      1341      2602      1447
 -1      6261    3    0    1
 -2        32        30       715      2300
 -1      6262    3    0    1
 -2      1890      2107      2505      2596
 -1      6263    3    0    1
 -2      2520      2551      2642      2644
 -1      6264    3    0    1
 -2      2492      2155      2500      2555
 -1      6265    3    0    1
 -2      1300      2212      2213      2267
 -1      6266    3    0    1
 -2       351      1410      1424      2391
 -1      6267    3    0    1
 -2      2142      2099      2507      2615
 -1      6268    3    0    1
 -2      1119      2209      2235      2720
 -1      6269    3    0    1
 -2      2555      2492      2613      2614
 -1      6270    3    0    1
 -2      1288        48      2215      1357
 -1      6271    3    0    1
 -2      2626      1400      2669      2705
 -1      6272    3    0    1
 -2      2154      2186      1256      2549
 -1      6273    3    0    1
 -2      2540      2501      2555      2579
 -1      6274    3    0    1
 -2      1255      1254      2559      1329
 -1      6275    3    0    1
 -2      2637       213      1451      2715
 -1      6276    3    0    1
 -2      2222      2284      2410      2739
 -1      6277    3    0    1
 -2      2585      1223      2285      2405
 -1      6278    3    0    1
 -2      1270      2278      2633      2679
 -1      6279    3    0    1
 -2      2580      2524      2586      2634
 -1      6280    3    0    1
 -2      1257      1263      2592      1416
 -1      6281    3    0    1
 -2      2261      1375      2643      1441
 -1      6282    3    0    1
 -2      2197       729       501       731
 -1      6283    3    0    1
 -2       500       504       505      2281
 -1      6284    3    0    1
 -2      1423      1465      2366      2394
 -1      6285    3    0    1
 -2      1321      1386      1411      2365
 -1      6286    3    0    1
 -2      1496      2713      2718      2421
 -1      6287    3    0    1
 -2      1231      2476      2552      2553
 -1      6288    3    0    1
 -2      1258      2543      2563      1324
 -1      6289    3    0    1
 -2       549      2211       753       550
 -1      6290    3    0    1
 -2      1359      2654      2396      1512
 -1      6291    3    0    1
 -2      2460       973      1217      2567
 -1      6292    3    0    1
 -2      1085      2476      1231      2553
 -1      6293    3    0    1
 -2      1220      2501      2540      2579
 -1      6294    3    0    1
 -2      2664       368      1459      2341
 -1      6295    3    0    1
 -2      2632      2363      2696      1282
 -1      6296    3    0    1
 -2      2481      2503      2564      2614
 -1      6297    3    0    1
 -2      2506      2490      2536      2621
 -1      6298    3    0    1
 -2      2070      2472      2500      2555
 -1      6299    3    0    1
 -2      2608       367      1415      2308
 -1      6300    3    0    1
 -2      1225       975      2537      2550
 -1      6301    3    0    1
 -2      1358      2580      1359      2630
 -1      6302    3    0    1
 -2      2337      1395      2703      2419
 -1      6303    3    0    1
 -2      1864      2047      2460      2550
 -1      6304    3    0    1
 -2      2559      2560      2584      2631
 -1      6305    3    0    1
 -2      2556      2569      2588      2597
 -1      6306    3    0    1
 -2      2549      1328      1367      2599
 -1      6307    3    0    1
 -2        81      1346      2258      1416
 -1      6308    3    0    1
 -2      1682      2047      2537      2550
 -1      6309    3    0    1
 -2      2047      1682      2460      2550
 -1      6310    3    0    1
 -2       975      1682      2537      2550
 -1      6311    3    0    1
 -2      1447       376      1452      2680
 -1      6312    3    0    1
 -2       975       973      1682      2550
 -1      6313    3    0    1
 -2      1682       973      2460      2550
 -1      6314    3    0    1
 -2      2214      1286      2263      2276
 -1      6315    3    0    1
 -2      1365        11      1395      1397
 -1      6316    3    0    1
 -2       213      2291      2637      1451
 -1      6317    3    0    1
 -2      1420      1424      2363      2391
 -1      6318    3    0    1
 -2      1348      2593      2692      2717
 -1      6319    3    0    1
 -2      2051      2072      2539      2607
 -1      6320    3    0    1
 -2      2106      2532      2533      2570
 -1      6321    3    0    1
 -2      2619      2551      2644      2706
 -1      6322    3    0    1
 -2      2463      1710      2538      2607
 -1      6323    3    0    1
 -2      1245      1303      2582      2719
 -1      6324    3    0    1
 -2      2474      2592      2594      2647
 -1      6325    3    0    1
 -2      2484      2488      1306      2208
 -1      6326    3    0    1
 -2      2431      2723      1302      2451
 -1      6327    3    0    1
 -2      2618      1308      1469      2390
 -1      6328    3    0    1
 -2      2611      2594      1453      2661
 -1      6329    3    0    1
 -2      2501      1241      2512      2579
 -1      6330    3    0    1
 -2      1331      1461      1463      2706
 -1      6331    3    0    1
 -2      2153      2152      2484      2208
 -1      6332    3    0    1
 -2      2153      2484      1306      2208
 -1      6333    3    0    1
 -2       778       248      2207      1326
 -1      6334    3    0    1
 -2      2677      2620      2688      2733
 -1      6335    3    0    1
 -2       379      1417      1446      2403
 -1      6336    3    0    1
 -2      1825      2067      2476      2553
 -1      6337    3    0    1
 -2      2476      1085      2519      2553
 -1      6338    3    0    1
 -2      1825      2476      2519      2553
 -1      6339    3    0    1
 -2      1287      1322      2222      2281
 -1      6340    3    0    1
 -2       500       501       504      2281
 -1      6341    3    0    1
 -2       504       937       505      2281
 -1      6342    3    0    1
 -2       937       504       934      2281
 -1      6343    3    0    1
 -2      2067      2090      2470      2553
 -1      6344    3    0    1
 -2       600      1083      2514      2553
 -1      6345    3    0    1
 -2      1083       600      1085      2553
 -1      6346    3    0    1
 -2      2470      2090      2514      2553
 -1      6347    3    0    1
 -2      1083      2470      2514      2553
 -1      6348    3    0    1
 -2      2476      2067      2490      2553
 -1      6349    3    0    1
 -2      2476      2490      2506      2553
 -1      6350    3    0    1
 -2      1825      2514      2090      2553
 -1      6351    3    0    1
 -2      1825       601      2514      2519
 -1      6352    3    0    1
 -2       601      2514      2519      2553
 -1      6353    3    0    1
 -2      1085       601      2519      2553
 -1      6354    3    0    1
 -2       601       600      2514      2553
 -1      6355    3    0    1
 -2       600       601      1085      2553
 -1      6356    3    0    1
 -2      2319      1232      2720      2409
 -1      6357    3    0    1
 -2      1464      2319      2380      2409
 -1      6358    3    0    1
 -2      2639      1402      2413      2427
 -1      6359    3    0    1
 -2      2067      1825      2090      2553
 -1      6360    3    0    1
 -2      2202       945      2226      2240
 -1      6361    3    0    1
 -2      1372      1248      2642      2644
 -1      6362    3    0    1
 -2      1777      2070      2155      2555
 -1      6363    3    0    1
 -2       221      1268      2205      2247
 -1      6364    3    0    1
 -2      1445      2674      1506      2735
 -1      6365    3    0    1
 -2      2530      2178      2297      2740
 -1      6366    3    0    1
 -2      2602      2616      2646      2680
 -1      6367    3    0    1
 -2      2471       958      2538      2606
 -1      6368    3    0    1
 -2      2687      2272      2430      2447
 -1      6369    3    0    1
 -2      1337      2595      2735      2744
 -1      6370    3    0    1
 -2       352      1425      1426      2681
 -1      6371    3    0    1
 -2      2196      2469      2721      2722
 -1      6372    3    0    1
 -2      2211       549       753      2217
 -1      6373    3    0    1
 -2      2562      2571      2601      2655
 -1      6374    3    0    1
 -2      1365        11      1366      2610
 -1      6375    3    0    1
 -2      1437      2634      1480      2730
 -1      6376    3    0    1
 -2      2460      2508      2543      2567
 -1      6377    3    0    1
 -2      1011       552      1009      2211
 -1      6378    3    0    1
 -2       552      1011       553      2211
 -1      6379    3    0    1
 -2       553       549       552      2211
 -1      6380    3    0    1
 -2      1345      2628      1450      2423
 -1      6381    3    0    1
 -2      1265       158      2199      2211
 -1      6382    3    0    1
 -2      2508      1217      1282      2567
 -1      6383    3    0    1
 -2      2460      1217      2508      2567
 -1      6384    3    0    1
 -2      1255      1329      2591      2340
 -1      6385    3    0    1
 -2      2185      2611      1453      2334
 -1      6386    3    0    1
 -2      1458      2284      2385      2410
 -1      6387    3    0    1
 -2      2056      1917      2541      2689
 -1      6388    3    0    1
 -2      1315      1300      2213      2279
 -1      6389    3    0    1
 -2      2501      2500      2555      2561
 -1      6390    3    0    1
 -2      2582      1256      2585      2719
 -1      6391    3    0    1
 -2      2517      2576      2615      2616
 -1      6392    3    0    1
 -2      2347      1408      2366      2394
 -1      6393    3    0    1
 -2       379      1389      1417      2403
 -1      6394    3    0    1
 -2      1446      1351      2376      2403
 -1      6395    3    0    1
 -2      1066      1250      2535      2568
 -1      6396    3    0    1
 -2      2521      2486      2535      2568
 -1      6397    3    0    1
 -2      1290      1391      1404      2326
 -1      6398    3    0    1
 -2      2486      1249      2568      2596
 -1      6399    3    0    1
 -2      1011      2481      2564      2613
 -1      6400    3    0    1
 -2      2554      2512      2587      2672
 -1      6401    3    0    1
 -2      1316      2218      2605      1394
 -1      6402    3    0    1
 -2       456       860       862      2237
 -1      6403    3    0    1
 -2      2201       706       450      2237
 -1      6404    3    0    1
 -2       449       456       457      2237
 -1      6405    3    0    1
 -2       457       450       449      2237
 -1      6406    3    0    1
 -2       364      1404      2356      2683
 -1      6407    3    0    1
 -2      1346        81      1347      2588
 -1      6408    3    0    1
 -2      2689      2196      2469      2192
 -1      6409    3    0    1
 -2       879       881      2663      2702
 -1      6410    3    0    1
 -2       745       140       747      2214
 -1      6411    3    0    1
 -2      2285      1288      2301      2325
 -1      6412    3    0    1
 -2       142       140       745      2214
 -1      6413    3    0    1
 -2      1334         2      2225      2237
 -1      6414    3    0    1
 -2      1271      1317      2564      2612
 -1      6415    3    0    1
 -2      2460      2481       991      2094
 -1      6416    3    0    1
 -2      2460       991      2563       993
 -1      6417    3    0    1
 -2      2481      2460       991      2563
 -1      6418    3    0    1
 -2      1777      2460      2481      2563
 -1      6419    3    0    1
 -2      1011       553      2211      2217
 -1      6420    3    0    1
 -2      2508      2460      2543      2563
 -1      6421    3    0    1
 -2      1856      1777      2481      2613
 -1      6422    3    0    1
 -2      1455       368      1493      2411
 -1      6423    3    0    1
 -2      1494      1514      2453      2458
 -1      6424    3    0    1
 -2      2479      2159      1328      2262
 -1      6425    3    0    1
 -2      2460      1777      2126      2563
 -1      6426    3    0    1
 -2      2070      1856      2472      2613
 -1      6427    3    0    1
 -2      2126      2492      2543      2563
 -1      6428    3    0    1
 -2      2460      2126      2543      2563
 -1      6429    3    0    1
 -2       753      2199      2211      2217
 -1      6430    3    0    1
 -2      2501      2548      2605      2662
 -1      6431    3    0    1
 -2      2461      2517      2518      2585
 -1      6432    3    0    1
 -2      2461      2518      2582      2585
 -1      6433    3    0    1
 -2      2507      2099      2268      2615
 -1      6434    3    0    1
 -2      1223      2517      1291      2585
 -1      6435    3    0    1
 -2       715      2288      2300      2302
 -1      6436    3    0    1
 -2      2518      1223      2582      2585
 -1      6437    3    0    1
 -2      2629      2646      1452      2357
 -1      6438    3    0    1
 -2      1289      2512      2554      2662
 -1      6439    3    0    1
 -2      1103      2470      1236      2566
 -1      6440    3    0    1
 -2      1254      1355      2350      2368
 -1      6441    3    0    1
 -2      1348      1297      2593      2717
 -1      6442    3    0    1
 -2      2488      1306      2208      2620
 -1      6443    3    0    1
 -2      2469      2523      2721      2722
 -1      6444    3    0    1
 -2      2551      2520      2617      2618
 -1      6445    3    0    1
 -2      1369      2593      2649      2692
 -1      6446    3    0    1
 -2      1103      1758      2470      2566
 -1      6447    3    0    1
 -2      2521      2491      2528      2717
 -1      6448    3    0    1
 -2      2680      1341      2405      2439
 -1      6449    3    0    1
 -2      1366      1330      2631      1509
 -1      6450    3    0    1
 -2      1387      2282      2286      2347
 -1      6451    3    0    1
 -2      1758      2053      2470      2566
 -1      6452    3    0    1
 -2      2488      2484      1306      2566
 -1      6453    3    0    1
 -2      2522      2488      1306      2566
 -1      6454    3    0    1
 -2      1758      1103      2121      2566
 -1      6455    3    0    1
 -2      1103      1101      2121      2566
 -1      6456    3    0    1
 -2      2053      2484      2488      2566
 -1      6457    3    0    1
 -2      2053      2488      2522      2566
 -1      6458    3    0    1
 -2      2053      1758      2122      2566
 -1      6459    3    0    1
 -2      2581      1413      1414      1473
 -1      6460    3    0    1
 -2      2543      2563      1324      2598
 -1      6461    3    0    1
 -2      2677      1503      2620      2733
 -1      6462    3    0    1
 -2      1267      2272      1502      2420
 -1      6463    3    0    1
 -2      1267      2269      2272      2420
 -1      6464    3    0    1
 -2      1250      1249      1293      2568
 -1      6465    3    0    1
 -2      1066      1249      1250      2568
 -1      6466    3    0    1
 -2      1250      1293      1294      2568
 -1      6467    3    0    1
 -2      1066      1044      1249      2568
 -1      6468    3    0    1
 -2       248      1310      2207      1326
 -1      6469    3    0    1
 -2      1252      2202      2226      2239
 -1      6470    3    0    1
 -2      2515      1295      2653      2695
 -1      6471    3    0    1
 -2      2072      2463      2539      2607
 -1      6472    3    0    1
 -2      2538      2474      2597      2607
 -1      6473    3    0    1
 -2      2406      1490      2407      2438
 -1      6474    3    0    1
 -2      2482      2154      2549      1328
 -1      6475    3    0    1
 -2      2252      2352      2676      2424
 -1      6476    3    0    1
 -2       576       577       569      2266
 -1      6477    3    0    1
 -2      2512      1290      2554      2579
 -1      6478    3    0    1
 -2      2479      2159      2482      1328
 -1      6479    3    0    1
 -2      2479      2482      2546      1328
 -1      6480    3    0    1
 -2       378       377      2686      2428
 -1      6481    3    0    1
 -2      1317      1318      2564      2604
 -1      6482    3    0    1
 -2       576      1044      1890      2596
 -1      6483    3    0    1
 -2      2619      1461      2706      2736
 -1      6484    3    0    1
 -2       725       905      2283      2295
 -1      6485    3    0    1
 -2      2263      2214      2276      2709
 -1      6486    3    0    1
 -2      1831       915      2515      2623
 -1      6487    3    0    1
 -2      2197      1287      2222      2281
 -1      6488    3    0    1
 -2      2544      2280      1456      2250
 -1      6489    3    0    1
 -2      1247      2267      2679      2392
 -1      6490    3    0    1
 -2      2631      2560      2703      2721
 -1      6491    3    0    1
 -2      1442      1443      2659      1454
 -1      6492    3    0    1
 -2      1218       993      2563      2709
 -1      6493    3    0    1
 -2      2543      2567      1376      2732
 -1      6494    3    0    1
 -2      1329      2591      1370      1395
 -1      6495    3    0    1
 -2      2412      1434      2414      2445
 -1      6496    3    0    1
 -2      2551      1308      1331      2619
 -1      6497    3    0    1
 -2      2553      1237      2609      2701
 -1      6498    3    0    1
 -2      2528      2200      2547      2717
 -1      6499    3    0    1
 -2      2200      2528      2378      2717
 -1      6500    3    0    1
 -2      1395      1397      2339      2340
 -1      6501    3    0    1
 -2      2573      2539      2712      2713
 -1      6502    3    0    1
 -2      2324      2539      2359      2713
 -1      6503    3    0    1
 -2      2473      2106      2533      2570
 -1      6504    3    0    1
 -2      1121      1119      1934      2570
 -1      6505    3    0    1
 -2      1934      1119      2532      2570
 -1      6506    3    0    1
 -2      1121      1934      2485      2570
 -1      6507    3    0    1
 -2      2106      1934      2532      2570
 -1      6508    3    0    1
 -2      1934      2106      2485      2570
 -1      6509    3    0    1
 -2      2153      2484      2275      2651
 -1      6510    3    0    1
 -2      1273      1274      2575      1373
 -1      6511    3    0    1
 -2      1218      1283      2260      2598
 -1      6512    3    0    1
 -2      2106      2473      2484      2570
 -1      6513    3    0    1
 -2      2516      2577      2589      2599
 -1      6514    3    0    1
 -2      2516      2549      2577      2599
 -1      6515    3    0    1
 -2      2577      1304      2589      2599
 -1      6516    3    0    1
 -2      1467      1500      1503      2733
 -1      6517    3    0    1
 -2      2255      1340      2319      2377
 -1      6518    3    0    1
 -2      2224      1247      2245      2726
 -1      6519    3    0    1
 -2      2467      2057      2474      2594
 -1      6520    3    0    1
 -2      1229      1257      2592      2594
 -1      6521    3    0    1
 -2      2282      2220      2286      2693
 -1      6522    3    0    1
 -2      2541      2544      2261      2685
 -1      6523    3    0    1
 -2      2323      1396      1499      2390
 -1      6524    3    0    1
 -2      2118      2141      2530      2685
 -1      6525    3    0    1
 -2      2653      2622      2659      2661
 -1      6526    3    0    1
 -2       529       525       528      2221
 -1      6527    3    0    1
 -2       528       975       529      2221
 -1      6528    3    0    1
 -2       975       528       973      2221
 -1      6529    3    0    1
 -2       525       526       528      2221
 -1      6530    3    0    1
 -2      1348      1369      1483      2692
 -1      6531    3    0    1
 -2       905        63      2283      2346
 -1      6532    3    0    1
 -2      2324      2712      2713      2417
 -1      6533    3    0    1
 -2      2631      1409      2721      1509
 -1      6534    3    0    1
 -2       741       525       739      2221
 -1      6535    3    0    1
 -2      2507      2469      2694      2721
 -1      6536    3    0    1
 -2       525       741       526      2221
 -1      6537    3    0    1
 -2      1294      1250      2593      2737
 -1      6538    3    0    1
 -2      2381      2330      2386      2707
 -1      6539    3    0    1
 -2      2626      2573      2639      2705
 -1      6540    3    0    1
 -2      1378      1442      1443      2659
 -1      6541    3    0    1
 -2      1245      2483      2582      2589
 -1      6542    3    0    1
 -2      1221      2220      1387      2282
 -1      6543    3    0    1
 -2      2482      2546      1328      2695
 -1      6544    3    0    1
 -2       975       973      2550      2696
 -1      6545    3    0    1
 -2       601       595       594      2247
 -1      6546    3    0    1
 -2       594       773      2227      2247
 -1      6547    3    0    1
 -2      1075       594       595      2247
 -1      6548    3    0    1
 -2      2223      2555      2193      2587
 -1      6549    3    0    1
 -2      2148      1672      2507      2338
 -1      6550    3    0    1
 -2      2500      2510      2245      2726
 -1      6551    3    0    1
 -2      1233      2532      2533      2595
 -1      6552    3    0    1
 -2      1349      1318      1408      2670
 -1      6553    3    0    1
 -2      2533      1233      2595      2624
 -1      6554    3    0    1
 -2      1139      1137      2532      2595
 -1      6555    3    0    1
 -2      2551      2520      2618      2651
 -1      6556    3    0    1
 -2      1301      2555      2223      2587
 -1      6557    3    0    1
 -2      2185      2479      2594      2611
 -1      6558    3    0    1
 -2      2497      1228      1263      2592
 -1      6559    3    0    1
 -2      2320      1056      2274      2342
 -1      6560    3    0    1
 -2      1433      2369      2400      2432
 -1      6561    3    0    1
 -2      2561      1316      2218      2605
 -1      6562    3    0    1
 -2      1321      1411      1472      2365
 -1      6563    3    0    1
 -2      1276         3      2201      2225
 -1      6564    3    0    1
 -2      2501      2548      2561      2605
 -1      6565    3    0    1
 -2         2       852         3      2225
 -1      6566    3    0    1
 -2       852         2       706      2225
 -1      6567    3    0    1
 -2         3       852      2201      2225
 -1      6568    3    0    1
 -2       945       948      2202      2226
 -1      6569    3    0    1
 -2      2489       860      1255      2591
 -1      6570    3    0    1
 -2      1439      2586      2726      2742
 -1      6571    3    0    1
 -2      2571      2182      2229      1386
 -1      6572    3    0    1
 -2        99      1252      2202      2226
 -1      6573    3    0    1
 -2      2188      2488      2208      2620
 -1      6574    3    0    1
 -2       945        98       948      2226
 -1      6575    3    0    1
 -2        98        99       948      2226
 -1      6576    3    0    1
 -2       948        99      2202      2226
 -1      6577    3    0    1
 -2      2278      1314      1479      2392
 -1      6578    3    0    1
 -2      2662      1394      2672      2683
 -1      6579    3    0    1
 -2      1388      2603      2666      2667
 -1      6580    3    0    1
 -2      2660      2688      2701      2727
 -1      6581    3    0    1
 -2      1280      2345      2443      2453
 -1      6582    3    0    1
 -2      2573      2539      2713      2729
 -1      6583    3    0    1
 -2      2081      2482      2507      2576
 -1      6584    3    0    1
 -2      1243      2485      2551      2642
 -1      6585    3    0    1
 -2      2154      2058      2482      2576
 -1      6586    3    0    1
 -2      2482      2058      2507      2576
 -1      6587    3    0    1
 -2      1346        81      2588      1416
 -1      6588    3    0    1
 -2      1460      2566      2687      2677
 -1      6589    3    0    1
 -2      1426       361      2681      1512
 -1      6590    3    0    1
 -2      1672      2081      2507      2576
 -1      6591    3    0    1
 -2      2461      1672      2507      2576
 -1      6592    3    0    1
 -2      1917      2489      2523      2689
 -1      6593    3    0    1
 -2      1345      2615      2289      1450
 -1      6594    3    0    1
 -2      1372      2187      2644      1463
 -1      6595    3    0    1
 -2      1304      1351      1352      2583
 -1      6596    3    0    1
 -2      2674      2645      2684      2686
 -1      6597    3    0    1
 -2      1270      1359      2654      2395
 -1      6598    3    0    1
 -2      2620      2566      1460      2677
 -1      6599    3    0    1
 -2      1270      1269      2580      1358
 -1      6600    3    0    1
 -2       601       594      2227      2247
 -1      6601    3    0    1
 -2      1230      1260      2552      2590
 -1      6602    3    0    1
 -2       713       715      2288      2300
 -1      6603    3    0    1
 -2      1672      2461      2101      2576
 -1      6604    3    0    1
 -2      2574      2506      2590      2715
 -1      6605    3    0    1
 -2      2197       729      1287      2281
 -1      6606    3    0    1
 -2      2506      2552      2574      2590
 -1      6607    3    0    1
 -2      2081      1672      2101      2576
 -1      6608    3    0    1
 -2      1448       434      2423      2448
 -1      6609    3    0    1
 -2      2563      1258      1324      2233
 -1      6610    3    0    1
 -2      2265      1380      2299      2304
 -1      6611    3    0    1
 -2      1301      2540      2579      2690
 -1      6612    3    0    1
 -2       993       991      2563      2709
 -1      6613    3    0    1
 -2      2581      1413      1473      2715
 -1      6614    3    0    1
 -2      1248      2473      2530      2684
 -1      6615    3    0    1
 -2      2225      1334      2243      2339
 -1      6616    3    0    1
 -2       357      1494      1495      2718
 -1      6617    3    0    1
 -2      2529      2568      2593      2649
 -1      6618    3    0    1
 -2      2590      2536      1407      2715
 -1      6619    3    0    1
 -2      1281      1400      2639      1498
 -1      6620    3    0    1
 -2      2547      2206      2565      1348
 -1      6621    3    0    1
 -2      2221       741      2254       739
 -1      6622    3    0    1
 -2      2522      2620      2660      2677
 -1      6623    3    0    1
 -2      2547      2200      2206      1348
 -1      6624    3    0    1
 -2      2515      1831      2383      2158
 -1      6625    3    0    1
 -2      1408      1384      1431      2670
 -1      6626    3    0    1
 -2      1328      2611      1457      2695
 -1      6627    3    0    1
 -2      1319      2557      1388      2667
 -1      6628    3    0    1
 -2      2142      2507      2231      2615
 -1      6629    3    0    1
 -2      1320      2632      2363      2391
 -1      6630    3    0    1
 -2      2385      1458      2410      2411
 -1      6631    3    0    1
 -2      2482      1328      2599      2695
 -1      6632    3    0    1
 -2      2664       368      2341      2668
 -1      6633    3    0    1
 -2      1408      1384      2366      2394
 -1      6634    3    0    1
 -2      2474      2531      2607      2678
 -1      6635    3    0    1
 -2      2481      2564      2613      2614
 -1      6636    3    0    1
 -2      2492      2481      2613      2614
 -1      6637    3    0    1
 -2      1139      1137      2595      2650
 -1      6638    3    0    1
 -2      1444      1336      2409      2426
 -1      6639    3    0    1
 -2      2274      1327      2320      2321
 -1      6640    3    0    1
 -2      1501       369      1507      2441
 -1      6641    3    0    1
 -2      1336      1344      2684      2720
 -1      6642    3    0    1
 -2      1283      2260      2598      2365
 -1      6643    3    0    1
 -2      2154      2058      2576      2231
 -1      6644    3    0    1
 -2      1256      2154      2576      2231
 -1      6645    3    0    1
 -2      2501      2561      2587      2605
 -1      6646    3    0    1
 -2      2473      2169      2530      2685
 -1      6647    3    0    1
 -2      1261      2574      1413      1414
 -1      6648    3    0    1
 -2      1223       900      2518      2582
 -1      6649    3    0    1
 -2      2557      2210      2216      2234
 -1      6650    3    0    1
 -2      1256      2482      2582      2576
 -1      6651    3    0    1
 -2      2101      2483      2516      2582
 -1      6652    3    0    1
 -2      2461      2101      2576      2582
 -1      6653    3    0    1
 -2      1399      1280      1496      2453
 -1      6654    3    0    1
 -2      2497      2531      2556      2597
 -1      6655    3    0    1
 -2      2101       897      2483      2582
 -1      6656    3    0    1
 -2      2601      2571      2632      2657
 -1      6657    3    0    1
 -2      2482      2516      2549      2582
 -1      6658    3    0    1
 -2       900      2065      2518      2582
 -1      6659    3    0    1
 -2      2065      2461      2518      2582
 -1      6660    3    0    1
 -2      2461      2065      2101      2582
 -1      6661    3    0    1
 -2       900       897      2065      2582
 -1      6662    3    0    1
 -2      2065       897      2101      2582
 -1      6663    3    0    1
 -2      2210      2557      1349      2234
 -1      6664    3    0    1
 -2      2081      2482      2576      2582
 -1      6665    3    0    1
 -2      2101      2081      2576      2582
 -1      6666    3    0    1
 -2      2081      2101      2516      2582
 -1      6667    3    0    1
 -2      2482      2081      2516      2582
 -1      6668    3    0    1
 -2       354      2581      2637      2699
 -1      6669    3    0    1
 -2      2186      1256      2549      1354
 -1      6670    3    0    1
 -2      1418        70      1419      2636
 -1      6671    3    0    1
 -2      1304      1303      1351      2583
 -1      6672    3    0    1
 -2      2220      1387      2282      2286
 -1      6673    3    0    1
 -2      1256      1279      2576      2585
 -1      6674    3    0    1
 -2      2386      1456      2707      2415
 -1      6675    3    0    1
 -2      2235      2255      2319      2720
 -1      6676    3    0    1
 -2      2660      2688      2691      2733
 -1      6677    3    0    1
 -2      2535      2521      2593      2717
 -1      6678    3    0    1
 -2      1256      2576      2582      2585
 -1      6679    3    0    1
 -2      2209       783      1325      1111
 -1      6680    3    0    1
 -2      2560      2523      2716      2722
 -1      6681    3    0    1
 -2       624      1119      2209      2235
 -1      6682    3    0    1
 -2       617       624      2209      2235
 -1      6683    3    0    1
 -2       258      1325      1340      2235
 -1      6684    3    0    1
 -2       258       783      1325      2235
 -1      6685    3    0    1
 -2       207       768      2274      2320
 -1      6686    3    0    1
 -2        81      1346      1361      2258
 -1      6687    3    0    1
 -2       783      2209      1325      2235
 -1      6688    3    0    1
 -2       897      1245      2582      2719
 -1      6689    3    0    1
 -2      2520      2485      2570      2642
 -1      6690    3    0    1
 -2       364       167      2554      2683
 -1      6691    3    0    1
 -2       991       993       541      2236
 -1      6692    3    0    1
 -2       538       537       747      2236
 -1      6693    3    0    1
 -2      1286       140      2214      2236
 -1      6694    3    0    1
 -2       537       745       747      2236
 -1      6695    3    0    1
 -2      2664        69      2341      1470
 -1      6696    3    0    1
 -2      1230      1260      2590      2741
 -1      6697    3    0    1
 -2       450      2237       706       449
 -1      6698    3    0    1
 -2       450       457      2201      2237
 -1      6699    3    0    1
 -2       457       862      2201      2237
 -1      6700    3    0    1
 -2      1338      1420      2360      2361
 -1      6701    3    0    1
 -2      2216      2557      2234      2603
 -1      6702    3    0    1
 -2      2616      2289      2629      1452
 -1      6703    3    0    1
 -2       376       434      2602      1448
 -1      6704    3    0    1
 -2      2700      2688      2418      2454
 -1      6705    3    0    1
 -2      2523      2560      2631      2721
 -1      6706    3    0    1
 -2      1320      1379      1410      2632
 -1      6707    3    0    1
 -2      2213      1300      2267      2279
 -1      6708    3    0    1
 -2      2646      2616      1452      2680
 -1      6709    3    0    1
 -2      1320      1321      2601      1410
 -1      6710    3    0    1
 -2      2505      1270      2580      2633
 -1      6711    3    0    1
 -2      1282      2508      2567      2632
 -1      6712    3    0    1
 -2      2542      2585      2616      2680
 -1      6713    3    0    1
 -2      1387      2286      1465      2394
 -1      6714    3    0    1
 -2      2555      2501      2561      2587
 -1      6715    3    0    1
 -2      2630      1359      1425      1426
 -1      6716    3    0    1
 -2      1235      2534      2648      2707
 -1      6717    3    0    1
 -2      2501      2555      2579      2587
 -1      6718    3    0    1
 -2      2512      2501      2579      2587
 -1      6719    3    0    1
 -2      1347       367      1405      1415
 -1      6720    3    0    1
 -2       213       354      2581      2637
 -1      6721    3    0    1
 -2       879       881      2302      2663
 -1      6722    3    0    1
 -2      2489      2056      2534      2689
 -1      6723    3    0    1
 -2      1254      2288      2663      2350
 -1      6724    3    0    1
 -2      2516      2577      2582      2589
 -1      6725    3    0    1
 -2      1304      1303      2577      2589
 -1      6726    3    0    1
 -2      2278      1270      2392      2395
 -1      6727    3    0    1
 -2      2463      2072      2539      2732
 -1      6728    3    0    1
 -2       918      1245      1246      2589
 -1      6729    3    0    1
 -2      1246      1245      1303      2589
 -1      6730    3    0    1
 -2      1246      1303      1304      2589
 -1      6731    3    0    1
 -2      1672      2082      2461      2338
 -1      6732    3    0    1
 -2      2541      2169      2545      2685
 -1      6733    3    0    1
 -2      1854      2133      2491      2734
 -1      6734    3    0    1
 -2      2473      2533      2572      2684
 -1      6735    3    0    1
 -2      2688      2700      1507      2727
 -1      6736    3    0    1
 -2      2370      2665      2737      2741
 -1      6737    3    0    1
 -2      1412      1261      2714      2408
 -1      6738    3    0    1
 -2      2490      2506      2536      2590
 -1      6739    3    0    1
 -2      1064      2476      2535      2590
 -1      6740    3    0    1
 -2      2476      1064      1230      2590
 -1      6741    3    0    1
 -2      2079      2490      2535      2590
 -1      6742    3    0    1
 -2      2476      2079      2535      2590
 -1      6743    3    0    1
 -2      2079      2476      2490      2590
 -1      6744    3    0    1
 -2      2288      2300      2663      2350
 -1      6745    3    0    1
 -2      2533      1336      2624      2684
 -1      6746    3    0    1
 -2      2572      2624      2645      2684
 -1      6747    3    0    1
 -2      2050      2051      2467      2607
 -1      6748    3    0    1
 -2      2051      2050      2072      2607
 -1      6749    3    0    1
 -2       918      1831      2483      2623
 -1      6750    3    0    1
 -2      1890      1044      2069      2596
 -1      6751    3    0    1
 -2       589       582       588      2665
 -1      6752    3    0    1
 -2      2523      2489      2559      2591
 -1      6753    3    0    1
 -2      2673      2388      2435      2742
 -1      6754    3    0    1
 -2      1355      1330      1471      2368
 -1      6755    3    0    1
 -2      2202       945       511       948
 -1      6756    3    0    1
 -2       510       511       516      2240
 -1      6757    3    0    1
 -2       516       517       510      2240
 -1      6758    3    0    1
 -2       516       958       517      2240
 -1      6759    3    0    1
 -2      2275      2644      2372      2724
 -1      6760    3    0    1
 -2        98      1339      2226      2240
 -1      6761    3    0    1
 -2       511       510       945      2240
 -1      6762    3    0    1
 -2       955       516      2202      2240
 -1      6763    3    0    1
 -2       945      2202       511      2240
 -1      6764    3    0    1
 -2       516       511      2202      2240
 -1      6765    3    0    1
 -2      2592      1229      2594      2647
 -1      6766    3    0    1
 -2      1344      1248      2684      2720
 -1      6767    3    0    1
 -2       537       745      2236      2253
 -1      6768    3    0    1
 -2       993       541      2236      2253
 -1      6769    3    0    1
 -2      1009      1220      2540      2690
 -1      6770    3    0    1
 -2      2619      2651      2708      2724
 -1      6771    3    0    1
 -2      1056      2320      2274       768
 -1      6772    3    0    1
 -2      1330      2584      1365      1366
 -1      6773    3    0    1
 -2      2283      2295      2671      2745
 -1      6774    3    0    1
 -2      2508      1282      2562      2632
 -1      6775    3    0    1
 -2      2561      2193      2218      2245
 -1      6776    3    0    1
 -2       109      2718      2417      2421
 -1      6777    3    0    1
 -2      1354      2305      2719      2403
 -1      6778    3    0    1
 -2      2620      2688      1503      2389
 -1      6779    3    0    1
 -2       361      2697      1512      2437
 -1      6780    3    0    1
 -2      2510      2149      2180      2245
 -1      6781    3    0    1
 -2      2500      2180      2561      2245
 -1      6782    3    0    1
 -2      1316      2561      2218      2245
 -1      6783    3    0    1
 -2      1316      1247      2561      2245
 -1      6784    3    0    1
 -2      2083      2510      2180      2245
 -1      6785    3    0    1
 -2      2500      2083      2180      2245
 -1      6786    3    0    1
 -2      2205      1277      2228      2440
 -1      6787    3    0    1
 -2      2497      1263      2556      2592
 -1      6788    3    0    1
 -2      2531      2556      2569      2592
 -1      6789    3    0    1
 -2      1358      2634      1437      2401
 -1      6790    3    0    1
 -2      2556      1263      1346      2592
 -1      6791    3    0    1
 -2      2569      2556      2588      2592
 -1      6792    3    0    1
 -2      2556      1346      2588      2592
 -1      6793    3    0    1
 -2      2180      2500      2561      2246
 -1      6794    3    0    1
 -2      2555      2193      2561      2246
 -1      6795    3    0    1
 -2      2500      2555      2561      2246
 -1      6796    3    0    1
 -2      2492      2191      2557      2246
 -1      6797    3    0    1
 -2      2555      2492      2557      2246
 -1      6798    3    0    1
 -2      2492      2144      2191      2246
 -1      6799    3    0    1
 -2      2144      2492      2500      2246
 -1      6800    3    0    1
 -2      2144      2500      2180      2246
 -1      6801    3    0    1
 -2      2500      2144      2180      2155
 -1      6802    3    0    1
 -2       594      1075       773      2247
 -1      6803    3    0    1
 -2      2266       184      2273      2311
 -1      6804    3    0    1
 -2      1386       134      1411      2365
 -1      6805    3    0    1
 -2      1336      1344      2409      2426
 -1      6806    3    0    1
 -2      2695      1377      2711      2745
 -1      6807    3    0    1
 -2      1027      1025      2633      2679
 -1      6808    3    0    1
 -2      1223      2585      2285      2658
 -1      6809    3    0    1
 -2      2548      1316      2605      2662
 -1      6810    3    0    1
 -2      2507      2231      2615      2616
 -1      6811    3    0    1
 -2      1247      2548      2561      2726
 -1      6812    3    0    1
 -2      2561      2193      2587      2672
 -1      6813    3    0    1
 -2      1229      2594      2647      2661
 -1      6814    3    0    1
 -2      1494      2669      2718      2729
 -1      6815    3    0    1
 -2      1250      2535      2568      2593
 -1      6816    3    0    1
 -2      1294      1250      2568      2593
 -1      6817    3    0    1
 -2      2521      2529      2568      2593
 -1      6818    3    0    1
 -2      2535      2521      2568      2593
 -1      6819    3    0    1
 -2      2316      1432      2379      2408
 -1      6820    3    0    1
 -2      1474      1414      2379      2408
 -1      6821    3    0    1
 -2      1247      2561      2245      2726
 -1      6822    3    0    1
 -2       528       973      2221      2251
 -1      6823    3    0    1
 -2       526       528      2221      2251
 -1      6824    3    0    1
 -2      2484      2566      2617      2651
 -1      6825    3    0    1
 -2      2473      2532      2545      2595
 -1      6826    3    0    1
 -2      1469       438      1499      2416
 -1      6827    3    0    1
 -2      1233      1139      2532      2595
 -1      6828    3    0    1
 -2      2261      2544      2280      2625
 -1      6829    3    0    1
 -2      2557      1319      2612      2667
 -1      6830    3    0    1
 -2      1247      2633      1439      2392
 -1      6831    3    0    1
 -2      2504      2544      2545      2643
 -1      6832    3    0    1
 -2      2471      2057      2515      2594
 -1      6833    3    0    1
 -2      2057      2471      2474      2594
 -1      6834    3    0    1
 -2      1219      1027      2548      2679
 -1      6835    3    0    1
 -2      2520      2551      2644      2651
 -1      6836    3    0    1
 -2      2573      2509      2626      2639
 -1      6837    3    0    1
 -2      2189      2528      1259      2730
 -1      6838    3    0    1
 -2      1236      2272      2687      2447
 -1      6839    3    0    1
 -2      2705      2573      2712      2713
 -1      6840    3    0    1
 -2      2491      2189      2203      2730
 -1      6841    3    0    1
 -2      1329      1365      1395      2340
 -1      6842    3    0    1
 -2      1239      1323      2233      2253
 -1      6843    3    0    1
 -2      2214      1239      2233      2253
 -1      6844    3    0    1
 -2       142      1239      2214      2253
 -1      6845    3    0    1
 -2       117      1338      2251      2254
 -1      6846    3    0    1
 -2      2482      2516      2546      2695
 -1      6847    3    0    1
 -2      1333      2618      1469      2390
 -1      6848    3    0    1
 -2       167      2554      2662      1390
 -1      6849    3    0    1
 -2      2317      1129      2352      2676
 -1      6850    3    0    1
 -2      1284       124      2221      2254
 -1      6851    3    0    1
 -2       124       117       739      2254
 -1      6852    3    0    1
 -2       741       117      2251      2254
 -1      6853    3    0    1
 -2      1278      1375      2643      2685
 -1      6854    3    0    1
 -2       124       739      2221      2254
 -1      6855    3    0    1
 -2       739       117       741      2254
 -1      6856    3    0    1
 -2      2572      2533      2595      2624
 -1      6857    3    0    1
 -2      2471       934      1228      2647
 -1      6858    3    0    1
 -2      2471      1228      2497      2647
 -1      6859    3    0    1
 -2      2339      1238      2682      2381
 -1      6860    3    0    1
 -2      1373      2641      2643      1435
 -1      6861    3    0    1
 -2      1269      1046      2596      2725
 -1      6862    3    0    1
 -2      1330      1409      2631      1509
 -1      6863    3    0    1
 -2      1351      1352      2583      1417
 -1      6864    3    0    1
 -2      1346      1263      1361      2258
 -1      6865    3    0    1
 -2      1263      1228      1361      2258
 -1      6866    3    0    1
 -2      2547      2565      1382      2723
 -1      6867    3    0    1
 -2      1461       435      1463      2706
 -1      6868    3    0    1
 -2      2615      2507      2694      2721
 -1      6869    3    0    1
 -2      1242      2312      2731      2440
 -1      6870    3    0    1
 -2      1371      2325      2405      2439
 -1      6871    3    0    1
 -2      2544      2504      2575      2643
 -1      6872    3    0    1
 -2      2484      2520      2644      2651
 -1      6873    3    0    1
 -2      2275      2484      2644      2651
 -1      6874    3    0    1
 -2      2223      2193      2296      2672
 -1      6875    3    0    1
 -2      1218      2508      1283      2598
 -1      6876    3    0    1
 -2      1435       386      2652      1441
 -1      6877    3    0    1
 -2      2641      2625      2643      2652
 -1      6878    3    0    1
 -2      2652      1436      1435      2641
 -1      6879    3    0    1
 -2      2523      2469      2689      2722
 -1      6880    3    0    1
 -2       879      1224      2518      2702
 -1      6881    3    0    1
 -2      1436      2652      1435         1
 -1      6882    3    0    1
 -2      2484      1306      2566      2651
 -1      6883    3    0    1
 -2         1      1436      2652      1456
 -1      6884    3    0    1
 -2      2230      2199      2248      2690
 -1      6885    3    0    1
 -2      2627      1225      2328      2345
 -1      6886    3    0    1
 -2      2259       351      1379      2657
 -1      6887    3    0    1
 -2       134      2259      1386      2657
 -1      6888    3    0    1
 -2      2229      2259      1379      2657
 -1      6889    3    0    1
 -2      2199      2220      2282      2693
 -1      6890    3    0    1
 -2       577       576      1890      2596
 -1      6891    3    0    1
 -2       576       577      1046      2596
 -1      6892    3    0    1
 -2      1046       577      1890      2596
 -1      6893    3    0    1
 -2      2377      1248      2720      2414
 -1      6894    3    0    1
 -2      1303      1351      2583      2640
 -1      6895    3    0    1
 -2      1299      2631      2694      2702
 -1      6896    3    0    1
 -2      2107      2112      2505      2596
 -1      6897    3    0    1
 -2      2505      2112      2524      2596
 -1      6898    3    0    1
 -2      2112      2491      2524      2596
 -1      6899    3    0    1
 -2      2112      2107      2491      2596
 -1      6900    3    0    1
 -2      2491      2107      2521      2596
 -1      6901    3    0    1
 -2      1890      2069      2107      2596
 -1      6902    3    0    1
 -2      2207      1396      2323      2390
 -1      6903    3    0    1
 -2      2571      2562      2601      2632
 -1      6904    3    0    1
 -2      1395        11      2710      2419
 -1      6905    3    0    1
 -2      2592      1257      1416      2307
 -1      6906    3    0    1
 -2      2298      2203      2730      2742
 -1      6907    3    0    1
 -2      2543      2508      2563      2598
 -1      6908    3    0    1
 -2      2508      2543      2562      2598
 -1      6909    3    0    1
 -2      1324      2563      2233      2598
 -1      6910    3    0    1
 -2      2563      1218      2233      2598
 -1      6911    3    0    1
 -2      2233      1218      2260      2598
 -1      6912    3    0    1
 -2      1324      2233      2260      2598
 -1      6913    3    0    1
 -2      1377      1378      2653      2659
 -1      6914    3    0    1
 -2        69      2664      2668      1470
 -1      6915    3    0    1
 -2      2504      1235      2534      2648
 -1      6916    3    0    1
 -2       918       493      1831      2623
 -1      6917    3    0    1
 -2       918       915       493      2623
 -1      6918    3    0    1
 -2      2609      1313      2660      2701
 -1      6919    3    0    1
 -2      2070      2540      2555      2613
 -1      6920    3    0    1
 -2       273       272      2317      2352
 -1      6921    3    0    1
 -2      2550      1343      2627      2328
 -1      6922    3    0    1
 -2       357      1496      2718      2421
 -1      6923    3    0    1
 -2      1475      2387      2441      2442
 -1      6924    3    0    1
 -2      1452      2585      2616      1279
 -1      6925    3    0    1
 -2      2585      1279      1452      2439
 -1      6926    3    0    1
 -2      2533      1232      1336      2684
 -1      6927    3    0    1
 -2      1313      1312      2660      1467
 -1      6928    3    0    1
 -2      1495      1400      1498      2705
 -1      6929    3    0    1
 -2      1321      2601      1410      1411
 -1      6930    3    0    1
 -2      2543      2571      1376      2632
 -1      6931    3    0    1
 -2      1376      2571      1379      2632
 -1      6932    3    0    1
 -2      1270      2580      2633      2654
 -1      6933    3    0    1
 -2       905      2283      2295      2346
 -1      6934    3    0    1
 -2      2292      1225      2328      2696
 -1      6935    3    0    1
 -2      2566      1306      2617      2651
 -1      6936    3    0    1
 -2      1233      1336      1337      2624
 -1      6937    3    0    1
 -2      2569      2592      1416      2307
 -1      6938    3    0    1
 -2      2295       905       489       725
 -1      6939    3    0    1
 -2      1383      1317      1388      2667
 -1      6940    3    0    1
 -2      2523      2631      2694      2721
 -1      6941    3    0    1
 -2      1352      2583      1417      1418
 -1      6942    3    0    1
 -2      2277      2213      1027      1017
 -1      6943    3    0    1
 -2      1299      2615      2694      2721
 -1      6944    3    0    1
 -2      2604      2558      2612      2667
 -1      6945    3    0    1
 -2      2339      2591      1238      1370
 -1      6946    3    0    1
 -2      1404      1391      1429      2326
 -1      6947    3    0    1
 -2      1379       351      2632      2657
 -1      6948    3    0    1
 -2      2200      2547      2206      1382
 -1      6949    3    0    1
 -2      2571      2601      2655      2657
 -1      6950    3    0    1
 -2      2229      2571      1386      2657
 -1      6951    3    0    1
 -2      2547      1302      2200      2528
 -1      6952    3    0    1
 -2      1302      2547      2200      1382
 -1      6953    3    0    1
 -2      2523      2489      2338      2694
 -1      6954    3    0    1
 -2      1413      1451      1473      2715
 -1      6955    3    0    1
 -2      2602      1342      1447      1448
 -1      6956    3    0    1
 -2      2664      1459      2668      2704
 -1      6957    3    0    1
 -2      2576      1279      2231      2616
 -1      6958    3    0    1
 -2      1279      2576      2585      2616
 -1      6959    3    0    1
 -2      2215      1288      1357      2265
 -1      6960    3    0    1
 -2      2633      1247      1439      2726
 -1      6961    3    0    1
 -2      1336      1344      2720      2409
 -1      6962    3    0    1
 -2      2187      2644      1463      2372
 -1      6963    3    0    1
 -2      2330      2386      2707      2415
 -1      6964    3    0    1
 -2      1248      2570      2684      2720
 -1      6965    3    0    1
 -2      2201      2204      2225      2682
 -1      6966    3    0    1
 -2       378      2686      1492      2428
 -1      6967    3    0    1
 -2      2532      2533      2570      2720
 -1      6968    3    0    1
 -2      1517      1506      2425      2449
 -1      6969    3    0    1
 -2      2469      2192      2541      2689
 -1      6970    3    0    1
 -2      2626      1399      2627      2669
 -1      6971    3    0    1
 -2        64       725      2283      2295
 -1      6972    3    0    1
 -2      1285      2567      1376      2696
 -1      6973    3    0    1
 -2      2659      1442      1454      2711
 -1      6974    3    0    1
 -2      2227      2205      2228      2731
 -1      6975    3    0    1
 -2      2585      2285      2301      2325
 -1      6976    3    0    1
 -2      1035       184       763      2266
 -1      6977    3    0    1
 -2       184      1035       194      2266
 -1      6978    3    0    1
 -2      2299      2305      2376      2719
 -1      6979    3    0    1
 -2       569      1035       763      2266
 -1      6980    3    0    1
 -2       361      1426      2396      1512
 -1      6981    3    0    1
 -2      2202      2226      2239      2606
 -1      6982    3    0    1
 -2      1227      2471      2497      2606
 -1      6983    3    0    1
 -2      1035       569       570      2266
 -1      6984    3    0    1
 -2       958      2471      1227      2606
 -1      6985    3    0    1
 -2      1260      2552      2590      2715
 -1      6986    3    0    1
 -2       958       955      2538      2606
 -1      6987    3    0    1
 -2      2507      2576      2231      2616
 -1      6988    3    0    1
 -2      1388       350      1422      2667
 -1      6989    3    0    1
 -2      2588      2597      2608      1415
 -1      6990    3    0    1
 -2      2133      1854      2490      2734
 -1      6991    3    0    1
 -2      2111      2469      2523      2338
 -1      6992    3    0    1
 -2      1421      1315      2306      2332
 -1      6993    3    0    1
 -2       613       609       608      2269
 -1      6994    3    0    1
 -2       612      1101      1103      2269
 -1      6995    3    0    1
 -2       613       608       612      2269
 -1      6996    3    0    1
 -2       613       612      1103      2269
 -1      6997    3    0    1
 -2       778      1098      1326      2269
 -1      6998    3    0    1
 -2       250      1267      1326      2269
 -1      6999    3    0    1
 -2      1098       250      1326      2269
 -1      7000    3    0    1
 -2       778       608      1098      2269
 -1      7001    3    0    1
 -2      1864      2072      2463      2732
 -1      7002    3    0    1
 -2      1495       109      1498      2427
 -1      7003    3    0    1
 -2       608       609      1098      2269
 -1      7004    3    0    1
 -2      1101       608       778      2269
 -1      7005    3    0    1
 -2       608      1101       612      2269
 -1      7006    3    0    1
 -2      1223       900      2582      2658
 -1      7007    3    0    1
 -2      1333      1306      2687      2390
 -1      7008    3    0    1
 -2        11        20      2610      2710
 -1      7009    3    0    1
 -2      2650      1278      2676      2743
 -1      7010    3    0    1
 -2       763       569      2266      2273
 -1      7011    3    0    1
 -2      2488      2522      2620      2728
 -1      7012    3    0    1
 -2       576      1044      2266      2273
 -1      7013    3    0    1
 -2       569       576      2266      2273
 -1      7014    3    0    1
 -2      2303      2663      2382      2422
 -1      7015    3    0    1
 -2      1227      2497      2597      2606
 -1      7016    3    0    1
 -2      2471      2538      2597      2606
 -1      7017    3    0    1
 -2      2497      2471      2597      2606
 -1      7018    3    0    1
 -2      1335      1262      2597      2606
 -1      7019    3    0    1
 -2      1262      1227      2597      2606
 -1      7020    3    0    1
 -2      2240       958      2242      2606
 -1      7021    3    0    1
 -2       958      1227      2242      2606
 -1      7022    3    0    1
 -2      2300      1299      2663      2350
 -1      7023    3    0    1
 -2      1226       955      2202      2606
 -1      7024    3    0    1
 -2      1226      2202      2239      2606
 -1      7025    3    0    1
 -2      2274      2320      2342      2665
 -1      7026    3    0    1
 -2       589       583       582      2665
 -1      7027    3    0    1
 -2      2529      2528      2656      2723
 -1      7028    3    0    1
 -2       207       768      1056      2274
 -1      7029    3    0    1
 -2       203       207      1056      2274
 -1      7030    3    0    1
 -2      2256      1335      2597      2607
 -1      7031    3    0    1
 -2      2531      2256      2597      2607
 -1      7032    3    0    1
 -2      2548      1247      1316      2679
 -1      7033    3    0    1
 -2      2203      2510      2730      2742
 -1      7034    3    0    1
 -2      2051      2190      1275      2607
 -1      7035    3    0    1
 -2      1275      1335      2256      2607
 -1      7036    3    0    1
 -2      2168      2051      1275      2607
 -1      7037    3    0    1
 -2      2168      1275      2256      2607
 -1      7038    3    0    1
 -2      1469      1499      2390      2416
 -1      7039    3    0    1
 -2      1354      2549      1389      2640
 -1      7040    3    0    1
 -2      2213      1315      2279      2306
 -1      7041    3    0    1
 -2      2264      2549      2600      1389
 -1      7042    3    0    1
 -2      2186      2549      2264      1389
 -1      7043    3    0    1
 -2      2549      2186      1354      1389
 -1      7044    3    0    1
 -2      2630      1358      2634      1425
 -1      7045    3    0    1
 -2      1292      2542      2628      2698
 -1      7046    3    0    1
 -2      1083      2470      2553      2609
 -1      7047    3    0    1
 -2      1237      1083      2553      2609
 -1      7048    3    0    1
 -2      1312      1237      1313      2609
 -1      7049    3    0    1
 -2      1236      1237      1312      2609
 -1      7050    3    0    1
 -2      1400      1399      2626      2669
 -1      7051    3    0    1
 -2      1236      1083      1237      2609
 -1      7052    3    0    1
 -2      2423      2698      2628      1450
 -1      7053    3    0    1
 -2       167      2554      1390      1391
 -1      7054    3    0    1
 -2       167       364      2554      1391
 -1      7055    3    0    1
 -2      1405      1347      1415      2349
 -1      7056    3    0    1
 -2      1295      2515      2623      2695
 -1      7057    3    0    1
 -2      2479      2089      2546      2383
 -1      7058    3    0    1
 -2      2185      2262      2611      2334
 -1      7059    3    0    1
 -2      2159      2185      2262      2611
 -1      7060    3    0    1
 -2      2597      2569      1415      2308
 -1      7061    3    0    1
 -2       213      1473      1485      2450
 -1      7062    3    0    1
 -2      2547      2529      2649      2723
 -1      7063    3    0    1
 -2      2314      1358      1478      2401
 -1      7064    3    0    1
 -2      1504      2422      2423      2448
 -1      7065    3    0    1
 -2      2606      1275      2293      2364
 -1      7066    3    0    1
 -2      2302      2300      2303      2663
 -1      7067    3    0    1
 -2      2602      1342      1448      2698
 -1      7068    3    0    1
 -2       881      1254      2663      2702
 -1      7069    3    0    1
 -2      2570      2520      2642      2644
 -1      7070    3    0    1
 -2      1378      1296      2653      2661
 -1      7071    3    0    1
 -2      2384      2327      2436      2745
 -1      7072    3    0    1
 -2      1243      1121      2570      2720
 -1      7073    3    0    1
 -2      2221      1284      2254      2292
 -1      7074    3    0    1
 -2      2617      1306      2618      2651
 -1      7075    3    0    1
 -2      2544      1456      2625      2648
 -1      7076    3    0    1
 -2      1328      2479      2262      2611
 -1      7077    3    0    1
 -2      2479      2546      2594      2611
 -1      7078    3    0    1
 -2      2469      2148      2507      2338
 -1      7079    3    0    1
 -2       564      1025      1027      2277
 -1      7080    3    0    1
 -2      1311      1017      2212      2277
 -1      7081    3    0    1
 -2       565       564      1027      2277
 -1      7082    3    0    1
 -2       565       557       564      2277
 -1      7083    3    0    1
 -2       565       558       557      2277
 -1      7084    3    0    1
 -2       757       557      1017      2277
 -1      7085    3    0    1
 -2      1314      1311      2212      2277
 -1      7086    3    0    1
 -2       176      1311      1314      2277
 -1      7087    3    0    1
 -2       176       757      1311      2277
 -1      7088    3    0    1
 -2       757      1017      1311      2277
 -1      7089    3    0    1
 -2       557       558      1017      2277
 -1      7090    3    0    1
 -2      2602       376      1447      2680
 -1      7091    3    0    1
 -2       558      1027      1017      2277
 -1      7092    3    0    1
 -2      1027       558       565      2277
 -1      7093    3    0    1
 -2      1258      2557      1319      2612
 -1      7094    3    0    1
 -2      2660      1312      2677      2733
 -1      7095    3    0    1
 -2      2312      2249      2367      2714
 -1      7096    3    0    1
 -2       991      2481      2563      2612
 -1      7097    3    0    1
 -2      2481       991      1271      2612
 -1      7098    3    0    1
 -2      1467      2660      2691      2733
 -1      7099    3    0    1
 -2      2481      1777      2563      2612
 -1      7100    3    0    1
 -2      1777      2481      2492      2612
 -1      7101    3    0    1
 -2      1308      2618      1469      2708
 -1      7102    3    0    1
 -2      2557      2503      2558      2612
 -1      7103    3    0    1
 -2       109       357      1495      2718
 -1      7104    3    0    1
 -2      2492      1258      2543      2612
 -1      7105    3    0    1
 -2      2543      1258      2563      2612
 -1      7106    3    0    1
 -2      2492      2543      2563      2612
 -1      7107    3    0    1
 -2      1258      2492      2557      2612
 -1      7108    3    0    1
 -2      2492      2503      2557      2612
 -1      7109    3    0    1
 -2      2126      2492      2563      2612
 -1      7110    3    0    1
 -2      1777      2126      2563      2612
 -1      7111    3    0    1
 -2      2126      1777      2492      2612
 -1      7112    3    0    1
 -2      2275      1333      2651      1469
 -1      7113    3    0    1
 -2      1333      2618      2651      1469
 -1      7114    3    0    1
 -2       369      2691      2727      2700
 -1      7115    3    0    1
 -2      2700      2688      1503      2733
 -1      7116    3    0    1
 -2       552      1009      1856      2613
 -1      7117    3    0    1
 -2       552      1011      1009      2613
 -1      7118    3    0    1
 -2      2481      1777      2492      2613
 -1      7119    3    0    1
 -2      2492      1777      2555      2613
 -1      7120    3    0    1
 -2      1238      2534      2591      2682
 -1      7121    3    0    1
 -2      1384      1423      2366      2394
 -1      7122    3    0    1
 -2      2620      2660      2677      2688
 -1      7123    3    0    1
 -2      1011       552       553      2613
 -1      7124    3    0    1
 -2       553       552      2478      2613
 -1      7125    3    0    1
 -2      1011       553      2478      2613
 -1      7126    3    0    1
 -2      1777      1856      2070      2613
 -1      7127    3    0    1
 -2      2586      2524      2726      2742
 -1      7128    3    0    1
 -2      2557      1222      1349      2614
 -1      7129    3    0    1
 -2      2583      2577      2600      2636
 -1      7130    3    0    1
 -2       363      1423      1431      1465
 -1      7131    3    0    1
 -2      1342      2698      2422      2448
 -1      7132    3    0    1
 -2      1299      2142      1345      2615
 -1      7133    3    0    1
 -2      2231      2615      2616      2629
 -1      7134    3    0    1
 -2      2142      1299      2268      2615
 -1      7135    3    0    1
 -2      2099      2142      2268      2615
 -1      7136    3    0    1
 -2      1066      1064      2535      2665
 -1      7137    3    0    1
 -2      2485      1101      1244      2617
 -1      7138    3    0    1
 -2      2122      2053      2566      2617
 -1      7139    3    0    1
 -2      2484      2485      2520      2617
 -1      7140    3    0    1
 -2      2122      2121      2485      2617
 -1      7141    3    0    1
 -2      2485      2121      2525      2617
 -1      7142    3    0    1
 -2      1101      2485      2525      2617
 -1      7143    3    0    1
 -2      2121      1101      2525      2617
 -1      7144    3    0    1
 -2      2594      2515      2647      2661
 -1      7145    3    0    1
 -2      2551      1307      2642      2706
 -1      7146    3    0    1
 -2      2053      2122      2484      2617
 -1      7147    3    0    1
 -2      2484      2122      2485      2617
 -1      7148    3    0    1
 -2      1758      2122      2566      2617
 -1      7149    3    0    1
 -2      2121      1758      2566      2617
 -1      7150    3    0    1
 -2      1758      2121      2122      2617
 -1      7151    3    0    1
 -2      1436      1374      2648      1456
 -1      7152    3    0    1
 -2      1244      1308      2551      2618
 -1      7153    3    0    1
 -2      1370      1329      1395      2340
 -1      7154    3    0    1
 -2      2299       897      2658      2719
 -1      7155    3    0    1
 -2      1370      1395      2339      2340
 -1      7156    3    0    1
 -2      1428      1362      2333      2336
 -1      7157    3    0    1
 -2      1281      1400      1498      2427
 -1      7158    3    0    1
 -2      2628      1345      2382      2423
 -1      7159    3    0    1
 -2      1382       358      1482      2723
 -1      7160    3    0    1
 -2      1331      1307      2706      2445
 -1      7161    3    0    1
 -2      1672      2507      2338      2694
 -1      7162    3    0    1
 -2      1463      2642      2644      1372
 -1      7163    3    0    1
 -2      1257      1229      2592      2647
 -1      7164    3    0    1
 -2      1359      2654      2395      2396
 -1      7165    3    0    1
 -2      2619      1332      1461      1462
 -1      7166    3    0    1
 -2      1331      1308      1332      2619
 -1      7167    3    0    1
 -2      2517      2628      2675      2694
 -1      7168    3    0    1
 -2      2471      2474      2594      2647
 -1      7169    3    0    1
 -2       393       914        65        67
 -1      7170    3    0    1
 -2      2188      2208      2219      2620
 -1      7171    3    0    1
 -2      2266      2314      2398      2725
 -1      7172    3    0    1
 -2       109      1495      2705      2718
 -1      7173    3    0    1
 -2      2574      2506      2578      2621
 -1      7174    3    0    1
 -2      2506      2574      2578      2715
 -1      7175    3    0    1
 -2      2536      2578      1407      2715
 -1      7176    3    0    1
 -2      1232      1336      2720      2409
 -1      7177    3    0    1
 -2      2536      2183      1305      2621
 -1      7178    3    0    1
 -2      2506      2536      2578      2621
 -1      7179    3    0    1
 -2      2530      2178      2238      2297
 -1      7180    3    0    1
 -2      2463      2509      2550      2732
 -1      7181    3    0    1
 -2      2497      1228      2592      2647
 -1      7182    3    0    1
 -2      2168      2467      2607      2678
 -1      7183    3    0    1
 -2      2242      1360      2293      2349
 -1      7184    3    0    1
 -2      1289      1390      1394      2662
 -1      7185    3    0    1
 -2      1917      2056      2489      2689
 -1      7186    3    0    1
 -2      1287        84      1322      2281
 -1      7187    3    0    1
 -2       729        84      1287      2281
 -1      7188    3    0    1
 -2      2281       501       729       500
 -1      7189    3    0    1
 -2      2628      1299      2694      2702
 -1      7190    3    0    1
 -2       934       504      2197      2281
 -1      7191    3    0    1
 -2       729      2197       501      2281
 -1      7192    3    0    1
 -2       504       501      2197      2281
 -1      7193    3    0    1
 -2      2606      2239      2351      2364
 -1      7194    3    0    1
 -2      1357      2215      2265      2658
 -1      7195    3    0    1
 -2      2208      2620      1460      2389
 -1      7196    3    0    1
 -2        64       725       905      2283
 -1      7197    3    0    1
 -2        63        64       905      2283
 -1      7198    3    0    1
 -2      2535      1253      1297      2737
 -1      7199    3    0    1
 -2      1368      1382      1482      2723
 -1      7200    3    0    1
 -2      2698      1450      2423      2448
 -1      7201    3    0    1
 -2      2280      2652      2373      2625
 -1      7202    3    0    1
 -2      2283      1298      2295      2327
 -1      7203    3    0    1
 -2      1400      2626      2639      2705
 -1      7204    3    0    1
 -2      2669      1400      1494      1495
 -1      7205    3    0    1
 -2      2509      2573      2626      2627
 -1      7206    3    0    1
 -2      1384      1318      2604      2670
 -1      7207    3    0    1
 -2      2300      1403      2302      2303
 -1      7208    3    0    1
 -2      2515       915      1295      2623
 -1      7209    3    0    1
 -2      2550       973      2567      2696
 -1      7210    3    0    1
 -2      1246       918      2589      2623
 -1      7211    3    0    1
 -2       918      2483      2589      2623
 -1      7212    3    0    1
 -2      1246      2589      2599      2623
 -1      7213    3    0    1
 -2       492       915      1831      2623
 -1      7214    3    0    1
 -2       493       492      1831      2623
 -1      7215    3    0    1
 -2       492       493       915      2623
 -1      7216    3    0    1
 -2      1313      1312      2609      2660
 -1      7217    3    0    1
 -2      2483      2516      2589      2623
 -1      7218    3    0    1
 -2      2589      2516      2599      2623
 -1      7219    3    0    1
 -2      1295      1377      2695      2745
 -1      7220    3    0    1
 -2      2218      2605      1394      2672
 -1      7221    3    0    1
 -2      2697      2673      1512      2437
 -1      7222    3    0    1
 -2       881      2489      1254      2702
 -1      7223    3    0    1
 -2      2546      2611      2622      2661
 -1      7224    3    0    1
 -2      1373      1374      2641      1435
 -1      7225    3    0    1
 -2      2262      1328      2611      1457
 -1      7226    3    0    1
 -2      2334      2335      2664      1459
 -1      7227    3    0    1
 -2      1384      1318      1408      2366
 -1      7228    3    0    1
 -2      2569      2531      2592      2678
 -1      7229    3    0    1
 -2      2548      1247      2633      2726
 -1      7230    3    0    1
 -2      1409      1330      2631      2702
 -1      7231    3    0    1
 -2      1425      2630      1426      2681
 -1      7232    3    0    1
 -2      2243      2339      2340      2682
 -1      7233    3    0    1
 -2       363       350      2635      1423
 -1      7234    3    0    1
 -2       361       352      2681      2697
 -1      7235    3    0    1
 -2      2635       350      1422      1423
 -1      7236    3    0    1
 -2      2608       367      2308      2309
 -1      7237    3    0    1
 -2      1236      2687      2430      2447
 -1      7238    3    0    1
 -2      1226      1225      2509      2626
 -1      7239    3    0    1
 -2      1384      2604      2635      2670
 -1      7240    3    0    1
 -2      2558      2557      2603      2670
 -1      7241    3    0    1
 -2      2558      2603      2635      2670
 -1      7242    3    0    1
 -2      1280      1281      1399      2626
 -1      7243    3    0    1
 -2      1280      1226      1281      2626
 -1      7244    3    0    1
 -2      1399      1281      1400      2626
 -1      7245    3    0    1
 -2      1225      1226      1280      2626
 -1      7246    3    0    1
 -2      1318      1384      1408      2670
 -1      7247    3    0    1
 -2      2557      2558      1349      2670
 -1      7248    3    0    1
 -2      1343      2550      2732      1285
 -1      7249    3    0    1
 -2      2634      1259      2656      2730
 -1      7250    3    0    1
 -2      2337      2703      1509      2419
 -1      7251    3    0    1
 -2      2703      2710      1509      2419
 -1      7252    3    0    1
 -2      2703      1395      2710      2419
 -1      7253    3    0    1
 -2      1267      1326      2269      2420
 -1      7254    3    0    1
 -2      1388      2603      2290      2666
 -1      7255    3    0    1
 -2      2538      1275      2606      1402
 -1      7256    3    0    1
 -2       350       363      2635      2666
 -1      7257    3    0    1
 -2       350      1388      2290      2666
 -1      7258    3    0    1
 -2      2603      2234      2290      2294
 -1      7259    3    0    1
 -2      2272      1502      2430      2447
 -1      7260    3    0    1
 -2      1418      1352      1419      2348
 -1      7261    3    0    1
 -2      2292      1401      2328      2345
 -1      7262    3    0    1
 -2        81       367      2608      2309
 -1      7263    3    0    1
 -2      2569      2257      2608      2309
 -1      7264    3    0    1
 -2      2257      2569      2308      2309
 -1      7265    3    0    1
 -2      2673      2402      2435      2437
 -1      7266    3    0    1
 -2      2577      2582      2589      2640
 -1      7267    3    0    1
 -2      2588      1347      2597      1415
 -1      7268    3    0    1
 -2      2516      2482      2599      2695
 -1      7269    3    0    1
 -2      2546      2622      2653      2661
 -1      7270    3    0    1
 -2       238       369      2691      1501
 -1      7271    3    0    1
 -2      2469      2523      2694      2721
 -1      7272    3    0    1
 -2      1260      1261      2574      1413
 -1      7273    3    0    1
 -2      1296       937      2647      2739
 -1      7274    3    0    1
 -2      2579      2554      2587      1404
 -1      7275    3    0    1
 -2      2554      1290      1391      1404
 -1      7276    3    0    1
 -2      2569      2256      2257      2308
 -1      7277    3    0    1
 -2      1290      2579      1393      1404
 -1      7278    3    0    1
 -2      1290      2554      2579      1404
 -1      7279    3    0    1
 -2      2531      2569      2597      2308
 -1      7280    3    0    1
 -2      2569      2531      2256      2308
 -1      7281    3    0    1
 -2      2583      1418      2636      2638
 -1      7282    3    0    1
 -2      2600      2270      1389      2638
 -1      7283    3    0    1
 -2      2490      2183      2536      2728
 -1      7284    3    0    1
 -2      2469      1917      2523      2689
 -1      7285    3    0    1
 -2      2315      1338      2360      2361
 -1      7286    3    0    1
 -2      2586      2580      2630      2654
 -1      7287    3    0    1
 -2      2533      1232      2684      2720
 -1      7288    3    0    1
 -2      2630      1359      1426      2654
 -1      7289    3    0    1
 -2      2665      1250      2535      1066
 -1      7290    3    0    1
 -2      1389      1351      1417      2403
 -1      7291    3    0    1
 -2      2673      2681      1480      2697
 -1      7292    3    0    1
 -2      1438      1418      2348      2354
 -1      7293    3    0    1
 -2      1327      2321      2370      2397
 -1      7294    3    0    1
 -2      2635      1383      1422      2667
 -1      7295    3    0    1
 -2      1246       918      2623      2671
 -1      7296    3    0    1
 -2       194       184      2266      2311
 -1      7297    3    0    1
 -2      2603      2635      2666      2667
 -1      7298    3    0    1
 -2      1477       377      1506      2425
 -1      7299    3    0    1
 -2       378      1492      1505      2426
 -1      7300    3    0    1
 -2      2574      2578      2581      2699
 -1      7301    3    0    1
 -2       350      2635      1422      2667
 -1      7302    3    0    1
 -2      1465      2286      2366      2394
 -1      7303    3    0    1
 -2      1463      1331      2706      2445
 -1      7304    3    0    1
 -2      2333      2283      2336      1362
 -1      7305    3    0    1
 -2        70      1418      1419      2348
 -1      7306    3    0    1
 -2      1400      1399      2669      1494
 -1      7307    3    0    1
 -2      2290      2603      2294      2666
 -1      7308    3    0    1
 -2      2550      1285      2328      2696
 -1      7309    3    0    1
 -2       368      2664      1459      2668
 -1      7310    3    0    1
 -2      2251      2221      2254      2696
 -1      7311    3    0    1
 -2      1303      2577      2589      2640
 -1      7312    3    0    1
 -2      2226      2239      2606      2364
 -1      7313    3    0    1
 -2      1298        64      2283      2295
 -1      7314    3    0    1
 -2      2557      2558      2603      2667
 -1      7315    3    0    1
 -2       350      1388      2666      2667
 -1      7316    3    0    1
 -2      1383      1388      1422      2667
 -1      7317    3    0    1
 -2      1467      1312      2733      2447
 -1      7318    3    0    1
 -2       369       238      2691      2700
 -1      7319    3    0    1
 -2      1347      1262      2597      1415
 -1      7320    3    0    1
 -2      1400      2639      1498      2705
 -1      7321    3    0    1
 -2      1083      1085      2227      2731
 -1      7322    3    0    1
 -2      2254      2221      2292      2696
 -1      7323    3    0    1
 -2       134       351      2601      1411
 -1      7324    3    0    1
 -2      2601       351      1410      1411
 -1      7325    3    0    1
 -2      2425      1445      2744      2449
 -1      7326    3    0    1
 -2      2331      2196      2721      2722
 -1      7327    3    0    1
 -2      2536      2578      2621      1412
 -1      7328    3    0    1
 -2      2578      2536      2232      1412
 -1      7329    3    0    1
 -2      1305      2536      2621      1412
 -1      7330    3    0    1
 -2      2536      1305      2232      1412
 -1      7331    3    0    1
 -2      1329      2591      1395      2716
 -1      7332    3    0    1
 -2      2568      2486      2596      2656
 -1      7333    3    0    1
 -2      2493      2182      1376      2543
 -1      7334    3    0    1
 -2       354       213      2581      1474
 -1      7335    3    0    1
 -2      2573      2539      2729      2732
 -1      7336    3    0    1
 -2      2295      2283      2327      2745
 -1      7337    3    0    1
 -2      2539      2287      2324      2359
 -1      7338    3    0    1
 -2      2542      2616      2629      2646
 -1      7339    3    0    1
 -2      2501      1240      2548      2662
 -1      7340    3    0    1
 -2      1270      2633      2392      2395
 -1      7341    3    0    1
 -2      2659      1378      2661      2704
 -1      7342    3    0    1
 -2      1366      2584      2610      2631
 -1      7343    3    0    1
 -2      1330      2584      1366      2631
 -1      7344    3    0    1
 -2      2402      2298      2730      2742
 -1      7345    3    0    1
 -2      2089      2158      2515      2383
 -1      7346    3    0    1
 -2      2516      2546      2695      2383
 -1      7347    3    0    1
 -2      2539      2190      2607      2712
 -1      7348    3    0    1
 -2      1488      1511      2452      2457
 -1      7349    3    0    1
 -2      1454      1442      2452      2457
 -1      7350    3    0    1
 -2      1451      1413      1473      2450
 -1      7351    3    0    1
 -2      2286      1387      2347      2394
 -1      7352    3    0    1
 -2      2633      2654      2392      2395
 -1      7353    3    0    1
 -2      1315      2279      2306      2332
 -1      7354    3    0    1
 -2      2592      2588      2608      1416
 -1      7355    3    0    1
 -2      2588        81      2608      1416
 -1      7356    3    0    1
 -2      2569      2592      2608      1416
 -1      7357    3    0    1
 -2      2686       377      1477      2393
 -1      7358    3    0    1
 -2      2577      2549      2600      2636
 -1      7359    3    0    1
 -2      2600      2264      2270      1419
 -1      7360    3    0    1
 -2      2549      2264      2600      1419
 -1      7361    3    0    1
 -2      1240      1219      2548      2679
 -1      7362    3    0    1
 -2      2605      2512      2662      2672
 -1      7363    3    0    1
 -2      2213      2212      2277      2679
 -1      7364    3    0    1
 -2      1352      1304      2583      2636
 -1      7365    3    0    1
 -2      2549      2186      2264      1419
 -1      7366    3    0    1
 -2      2186      2549      1367      1419
 -1      7367    3    0    1
 -2      1304      2577      2583      2636
 -1      7368    3    0    1
 -2      2577      1304      2599      2636
 -1      7369    3    0    1
 -2      2054      2185      2594      2310
 -1      7370    3    0    1
 -2      2600      2549      1419      2636
 -1      7371    3    0    1
 -2      2289      2615      2629      1450
 -1      7372    3    0    1
 -2       351      2601      1410      2632
 -1      7373    3    0    1
 -2      1379       351      1410      2632
 -1      7374    3    0    1
 -2      2615      1345      2628      2675
 -1      7375    3    0    1
 -2       361       352      1426      2681
 -1      7376    3    0    1
 -2      2146      2062      2505      2633
 -1      7377    3    0    1
 -2      1027      1025      2062      2633
 -1      7378    3    0    1
 -2      1291      2542      1341      2680
 -1      7379    3    0    1
 -2      2633      2472      1766      2062
 -1      7380    3    0    1
 -2      2544      1456      2648      1392
 -1      7381    3    0    1
 -2      1331      2619      1461      2706
 -1      7382    3    0    1
 -2      2331      2268      2337      2721
 -1      7383    3    0    1
 -2      1027      2062      2472      2633
 -1      7384    3    0    1
 -2      2472      2633      1766      2548
 -1      7385    3    0    1
 -2      1027      2472      2548      2633
 -1      7386    3    0    1
 -2       376      2602      2646      2680
 -1      7387    3    0    1
 -2      2314      1269      2401      2725
 -1      7388    3    0    1
 -2      2358      2686      2393      2428
 -1      7389    3    0    1
 -2       376      2646      1452      2680
 -1      7390    3    0    1
 -2      1766      2062      2146      2633
 -1      7391    3    0    1
 -2      1235      2204      2682      2707
 -1      7392    3    0    1
 -2        32       713      2288      2300
 -1      7393    3    0    1
 -2       713        32       715      2300
 -1      7394    3    0    1
 -2      2561      2500      2245      2726
 -1      7395    3    0    1
 -2      2633      1439      2654      2726
 -1      7396    3    0    1
 -2      2601       134      1411      2655
 -1      7397    3    0    1
 -2      2344      2406      2407      2737
 -1      7398    3    0    1
 -2      1442      1454      1470      2457
 -1      7399    3    0    1
 -2      1366      1471      2368      1509
 -1      7400    3    0    1
 -2      1375      1278      2643      2650
 -1      7401    3    0    1
 -2      2582      2549      1354      2640
 -1      7402    3    0    1
 -2       363      2294      1431      2666
 -1      7403    3    0    1
 -2      2587      2554      2672      2683
 -1      7404    3    0    1
 -2      2674       378      1492      1505
 -1      7405    3    0    1
 -2      2288       715       465      2302
 -1      7406    3    0    1
 -2      2535      1253      2590      2717
 -1      7407    3    0    1
 -2       879       881       468      2302
 -1      7408    3    0    1
 -2       465       466       468      2302
 -1      7409    3    0    1
 -2       468       881       469      2302
 -1      7410    3    0    1
 -2       465       468       469      2302
 -1      7411    3    0    1
 -2       715      2288       465       713
 -1      7412    3    0    1
 -2      1403        30      2300      2302
 -1      7413    3    0    1
 -2       465      2302       715       466
 -1      7414    3    0    1
 -2       973      1217      2567      2696
 -1      7415    3    0    1
 -2       465       469      2288      2302
 -1      7416    3    0    1
 -2       469       881      2288      2302
 -1      7417    3    0    1
 -2      2542      2602      2616      2646
 -1      7418    3    0    1
 -2      1407      2590      2715      2741
 -1      7419    3    0    1
 -2      1409      1299      2631      2721
 -1      7420    3    0    1
 -2      2594      2185      2611      1453
 -1      7421    3    0    1
 -2      2674       378      2686      1492
 -1      7422    3    0    1
 -2      1341      2602      1447      2680
 -1      7423    3    0    1
 -2      2331      2337      2703      2721
 -1      7424    3    0    1
 -2      2218      2296      2672      2356
 -1      7425    3    0    1
 -2      2535      1297      2593      2737
 -1      7426    3    0    1
 -2      2629      2289      1450      2357
 -1      7427    3    0    1
 -2      2289      2629      1452      2357
 -1      7428    3    0    1
 -2      1353      2322      2352      2400
 -1      7429    3    0    1
 -2      2602      2542      2616      2680
 -1      7430    3    0    1
 -2      1341      2542      2602      2680
 -1      7431    3    0    1
 -2      2490      2535      2590      2734
 -1      7432    3    0    1
 -2      1119      1121      2209      2720
 -1      7433    3    0    1
 -2       480       900       481      2658
 -1      7434    3    0    1
 -2      2285      2585      2301      2658
 -1      7435    3    0    1
 -2      2549      2577      2599      2636
 -1      7436    3    0    1
 -2      1419      2599      2549      1367
 -1      7437    3    0    1
 -2      2599      1419      2549      2636
 -1      7438    3    0    1
 -2      1025      1027      2277      2679
 -1      7439    3    0    1
 -2      2257      2569      2608      2307
 -1      7440    3    0    1
 -2      2608      2569      1416      2307
 -1      7441    3    0    1
 -2      2257      2608      1416      2307
 -1      7442    3    0    1
 -2      2563       991      2612      2709
 -1      7443    3    0    1
 -2      2520      2617      2618      2651
 -1      7444    3    0    1
 -2      2520      2484      2617      2651
 -1      7445    3    0    1
 -2      2484      2153      1306      2651
 -1      7446    3    0    1
 -2      2256      2531      2597      2308
 -1      7447    3    0    1
 -2      2256      2597      1415      2308
 -1      7448    3    0    1
 -2       354       213      2291      2637
 -1      7449    3    0    1
 -2       354      2291      1412      2637
 -1      7450    3    0    1
 -2      2291      2232      1412      2637
 -1      7451    3    0    1
 -2      2635       350      2666      2667
 -1      7452    3    0    1
 -2      2321      1230      2665      2741
 -1      7453    3    0    1
 -2      2608      2257      1416      2309
 -1      7454    3    0    1
 -2        81      2608      1416      2309
 -1      7455    3    0    1
 -2      2141      2169      2541      2685
 -1      7456    3    0    1
 -2      2270      2600      1419      2638
 -1      7457    3    0    1
 -2      2583      1417      1418      2638
 -1      7458    3    0    1
 -2        70       379      2270      2638
 -1      7459    3    0    1
 -2       379        70      1418      2638
 -1      7460    3    0    1
 -2      2270       379      1389      2638
 -1      7461    3    0    1
 -2        70      2270      1419      2638
 -1      7462    3    0    1
 -2      1417       379      1418      2638
 -1      7463    3    0    1
 -2      2606      2538      1402      2639
 -1      7464    3    0    1
 -2      2627      1399      1496      2729
 -1      7465    3    0    1
 -2      2509      1226      2626      2639
 -1      7466    3    0    1
 -2      1226      2509      2538      2639
 -1      7467    3    0    1
 -2      2491      2524      2596      2730
 -1      7468    3    0    1
 -2      1349      2603      2670      1408
 -1      7469    3    0    1
 -2      2706      1463      2724      2736
 -1      7470    3    0    1
 -2      2551      2644      2651      2724
 -1      7471    3    0    1
 -2      2644      2619      2706      2724
 -1      7472    3    0    1
 -2       350      2290      2294      2666
 -1      7473    3    0    1
 -2      2635       363      1431      2666
 -1      7474    3    0    1
 -2      2577      1303      2583      2640
 -1      7475    3    0    1
 -2      2577      2582      2549      2516
 -1      7476    3    0    1
 -2      2582      2577      2549      2640
 -1      7477    3    0    1
 -2      2549      2577      2600      2640
 -1      7478    3    0    1
 -2      2549      2600      1389      2640
 -1      7479    3    0    1
 -2      1351      1389      1417      2640
 -1      7480    3    0    1
 -2      2583      1351      1417      2640
 -1      7481    3    0    1
 -2      2577      2583      2600      2640
 -1      7482    3    0    1
 -2      2583      1417      2638      2640
 -1      7483    3    0    1
 -2      1389      2600      2638      2640
 -1      7484    3    0    1
 -2      2600      2583      2638      2640
 -1      7485    3    0    1
 -2       379      1389      2638      2640
 -1      7486    3    0    1
 -2      1389       379      1417      2640
 -1      7487    3    0    1
 -2      1417       379      2638      2640
 -1      7488    3    0    1
 -2      2671      1328      2375      2745
 -1      7489    3    0    1
 -2      2461      1672      2338      2694
 -1      7490    3    0    1
 -2      2652      2280      2373      2399
 -1      7491    3    0    1
 -2      1249      2568      2596      2656
 -1      7492    3    0    1
 -2      1439      2633      2654      2392
 -1      7493    3    0    1
 -2       184      1356      2273      2311
 -1      7494    3    0    1
 -2      1363       194      2266      2311
 -1      7495    3    0    1
 -2      2521      2486      2568      2656
 -1      7496    3    0    1
 -2      2529      2521      2568      2656
 -1      7497    3    0    1
 -2      1249      1293      2568      2656
 -1      7498    3    0    1
 -2      2552      1260      2574      2715
 -1      7499    3    0    1
 -2      1393      1290      1404      2326
 -1      7500    3    0    1
 -2      1917      2469      2541      2689
 -1      7501    3    0    1
 -2      2489      2534      2591      2689
 -1      7502    3    0    1
 -2      2207      1310      1396      2313
 -1      7503    3    0    1
 -2      2369      2322      2400      2743
 -1      7504    3    0    1
 -2      1455      1443      1459      2411
 -1      7505    3    0    1
 -2      2322      2352      2400      2743
 -1      7506    3    0    1
 -2      2265      2215      2285      2658
 -1      7507    3    0    1
 -2       378       377      2674      2686
 -1      7508    3    0    1
 -2      2523      2591      2716      2722
 -1      7509    3    0    1
 -2      2554       167      2662      2683
 -1      7510    3    0    1
 -2      2580      1359      2630      2654
 -1      7511    3    0    1
 -2      2584      1329      1365      2716
 -1      7512    3    0    1
 -2       167      1394      2662      2683
 -1      7513    3    0    1
 -2      2554      2662      2672      2683
 -1      7514    3    0    1
 -2      1468      1467      2691      1500
 -1      7515    3    0    1
 -2       364      2554      1404      2683
 -1      7516    3    0    1
 -2      1137      1139       637      2317
 -1      7517    3    0    1
 -2       636      1137       637      2317
 -1      7518    3    0    1
 -2       637       629       636      2317
 -1      7519    3    0    1
 -2       637       630       629      2317
 -1      7520    3    0    1
 -2       272       789      1129      2317
 -1      7521    3    0    1
 -2       915      2623      2671      2745
 -1      7522    3    0    1
 -2      1248      2570      2642      2644
 -1      7523    3    0    1
 -2      2448      2698      1448      1342
 -1      7524    3    0    1
 -2       273       272      1129      2317
 -1      7525    3    0    1
 -2      1445      1477      1506      2425
 -1      7526    3    0    1
 -2       789       630      1129      2317
 -1      7527    3    0    1
 -2       629       630       789      2317
 -1      7528    3    0    1
 -2       630      1139      1129      2317
 -1      7529    3    0    1
 -2      1139       630       637      2317
 -1      7530    3    0    1
 -2      1274      2330      2707      2415
 -1      7531    3    0    1
 -2      2633      1247      2679      2392
 -1      7532    3    0    1
 -2      1280      1225      2627      2345
 -1      7533    3    0    1
 -2      2211      2199      2230      2693
 -1      7534    3    0    1
 -2      2618      2651      1469      2708
 -1      7535    3    0    1
 -2      1248      1372      2720      2414
 -1      7536    3    0    1
 -2      2544      2575      2625      2643
 -1      7537    3    0    1
 -2      2593      2529      2649      2692
 -1      7538    3    0    1
 -2      2575      1273      1373      2643
 -1      7539    3    0    1
 -2      2611      2334      2335      2664
 -1      7540    3    0    1
 -2      2261      2544      2625      2643
 -1      7541    3    0    1
 -2      2625      2575      2641      2643
 -1      7542    3    0    1
 -2      2575      1373      2641      2643
 -1      7543    3    0    1
 -2      2643      1373      1435      1441
 -1      7544    3    0    1
 -2      1254      2489      2559      2702
 -1      7545    3    0    1
 -2       351       134      2601      2657
 -1      7546    3    0    1
 -2      1374      2641      1435      1436
 -1      7547    3    0    1
 -2      2598      2260      1386      2365
 -1      7548    3    0    1
 -2      2254      2315      2360      2696
 -1      7549    3    0    1
 -2      2484      2187      2275      2644
 -1      7550    3    0    1
 -2      2473      2484      2570      2644
 -1      7551    3    0    1
 -2      2544      2541      2545      2685
 -1      7552    3    0    1
 -2      2187      2484      2530      2644
 -1      7553    3    0    1
 -2      1248      2187      2530      2644
 -1      7554    3    0    1
 -2      2659      1454      1455      2668
 -1      7555    3    0    1
 -2      2082      2461      2338      2694
 -1      7556    3    0    1
 -2      2473      1248      2530      2644
 -1      7557    3    0    1
 -2      2484      2473      2530      2644
 -1      7558    3    0    1
 -2      2546      2515      2594      2661
 -1      7559    3    0    1
 -2      2615      2517      2675      2694
 -1      7560    3    0    1
 -2      2187      1248      1372      2644
 -1      7561    3    0    1
 -2      2686      2358      1492      2428
 -1      7562    3    0    1
 -2      2542      1292      1342      2698
 -1      7563    3    0    1
 -2      1344      1336      2684      1492
 -1      7564    3    0    1
 -2      1491      1436      2386      2415
 -1      7565    3    0    1
 -2      1327       207      2274      2320
 -1      7566    3    0    1
 -2      1229      1453      2661      2739
 -1      7567    3    0    1
 -2      1044      2266      2273      2725
 -1      7568    3    0    1
 -2      2283      2671      2375      2745
 -1      7569    3    0    1
 -2      2330      1440      2386      2415
 -1      7570    3    0    1
 -2      1307      1243      2642      2412
 -1      7571    3    0    1
 -2      2311      2273      2725      2431
 -1      7572    3    0    1
 -2      2654      1439      2392      2396
 -1      7573    3    0    1
 -2      1273      2643      2650      2743
 -1      7574    3    0    1
 -2      1374      1274      2707      2415
 -1      7575    3    0    1
 -2      2640      1389      2719      2403
 -1      7576    3    0    1
 -2      2654      2630      2673      2681
 -1      7577    3    0    1
 -2      1321      2562      2601      2655
 -1      7578    3    0    1
 -2       352      1425      2681      1480
 -1      7579    3    0    1
 -2      2305      2376      2719      2403
 -1      7580    3    0    1
 -2      1425      2630      2681      1480
 -1      7581    3    0    1
 -2      2598      1283      1386      2655
 -1      7582    3    0    1
 -2      1407      2578      1451      2715
 -1      7583    3    0    1
 -2      1308      1332      2619      2708
 -1      7584    3    0    1
 -2      2522      2566      2620      2677
 -1      7585    3    0    1
 -2      2314      1478      2398      2401
 -1      7586    3    0    1
 -2      1263      1257      2592      2647
 -1      7587    3    0    1
 -2      1228      1263      2592      2647
 -1      7588    3    0    1
 -2      2605      1316      1394      2662
 -1      7589    3    0    1
 -2       934       937      2281      2647
 -1      7590    3    0    1
 -2      2197       934      2281      2647
 -1      7591    3    0    1
 -2      1412      1414      1474      2699
 -1      7592    3    0    1
 -2      1289      2554      1390      2662
 -1      7593    3    0    1
 -2      1580      2471      2515      2647
 -1      7594    3    0    1
 -2      1580       934      2471      2647
 -1      7595    3    0    1
 -2       937       934      1580      2647
 -1      7596    3    0    1
 -2       937      1580      2515      2647
 -1      7597    3    0    1
 -2      1228      2241      2258      2647
 -1      7598    3    0    1
 -2      1263      1228      2258      2647
 -1      7599    3    0    1
 -2      1257      1263      2258      2647
 -1      7600    3    0    1
 -2      1228      2197      2241      2647
 -1      7601    3    0    1
 -2       881      2288      2302      2663
 -1      7602    3    0    1
 -2      2634      2586      1480      2730
 -1      7603    3    0    1
 -2      1331      1497      2412      2445
 -1      7604    3    0    1
 -2      2222      2197      2281      2647
 -1      7605    3    0    1
 -2      2197      2222      2241      2647
 -1      7606    3    0    1
 -2      1229      1257      2241      2647
 -1      7607    3    0    1
 -2      1332      1331      2619      1461
 -1      7608    3    0    1
 -2      2642      1307      2414      2445
 -1      7609    3    0    1
 -2      1228       934      2197      2647
 -1      7610    3    0    1
 -2      2241      1257      2258      2647
 -1      7611    3    0    1
 -2      1372      2642      2414      2445
 -1      7612    3    0    1
 -2      2268      1409      2337      2721
 -1      7613    3    0    1
 -2      2573      2626      2669      2705
 -1      7614    3    0    1
 -2      1338      2251      2254      2360
 -1      7615    3    0    1
 -2      1242      2553      2701      2738
 -1      7616    3    0    1
 -2      2278      1479      2395      2396
 -1      7617    3    0    1
 -2      2558      2604      2614      2670
 -1      7618    3    0    1
 -2      2604      1318      2614      2670
 -1      7619    3    0    1
 -2      2604      2558      2635      2670
 -1      7620    3    0    1
 -2      2212      2278      2679      2392
 -1      7621    3    0    1
 -2      1373      1435      1441      2434
 -1      7622    3    0    1
 -2      1137      2468      2595      2650
 -1      7623    3    0    1
 -2      2468      1137      1234      2650
 -1      7624    3    0    1
 -2      1485      1473      2429      2450
 -1      7625    3    0    1
 -2      1291      1223      2585      2405
 -1      7626    3    0    1
 -2      1475      2387      2440      2441
 -1      7627    3    0    1
 -2      2504      1273      2643      2650
 -1      7628    3    0    1
 -2      2504      1234      1273      2650
 -1      7629    3    0    1
 -2      2468      1234      2504      2650
 -1      7630    3    0    1
 -2      2545      2504      2643      2650
 -1      7631    3    0    1
 -2      1321      1386      1283      2655
 -1      7632    3    0    1
 -2      2468      2504      2545      2650
 -1      7633    3    0    1
 -2      2468      2545      2595      2650
 -1      7634    3    0    1
 -2      2651      2275      1469      2724
 -1      7635    3    0    1
 -2      1234      1137      2317      2650
 -1      7636    3    0    1
 -2      2613      2540      2614      2693
 -1      7637    3    0    1
 -2      1272      2613      2614      2693
 -1      7638    3    0    1
 -2      2211      1011      2217      2693
 -1      7639    3    0    1
 -2      1333      1306      2275      2651
 -1      7640    3    0    1
 -2      1306      2153      2275      2651
 -1      7641    3    0    1
 -2      2199      2211      2217      2693
 -1      7642    3    0    1
 -2      2082      2518      2694      2702
 -1      7643    3    0    1
 -2       213      2581      1473      2715
 -1      7644    3    0    1
 -2      2641      1435      2652      1441
 -1      7645    3    0    1
 -2      2643      2641      2652      1441
 -1      7646    3    0    1
 -2      2641      2643      1435      1441
 -1      7647    3    0    1
 -2      2443      1280      2453      2458
 -1      7648    3    0    1
 -2      1222      2540      1301      2690
 -1      7649    3    0    1
 -2      1302      2374      2431      2451
 -1      7650    3    0    1
 -2       937      1296      2647      2653
 -1      7651    3    0    1
 -2      2515       937      2647      2653
 -1      7652    3    0    1
 -2      1343      2627      2328      2443
 -1      7653    3    0    1
 -2      1296      1377      1378      2653
 -1      7654    3    0    1
 -2      1296      1295      1377      2653
 -1      7655    3    0    1
 -2       937      1295      1296      2653
 -1      7656    3    0    1
 -2      1378      1377      1442      2659
 -1      7657    3    0    1
 -2      2280      2261      2625      2373
 -1      7658    3    0    1
 -2      2630      2673      2681      1480
 -1      7659    3    0    1
 -2      1312      1236      2609      2677
 -1      7660    3    0    1
 -2      2283      1298      2327      2375
 -1      7661    3    0    1
 -2      1443      2659      1454      1455
 -1      7662    3    0    1
 -2      2262      2611      2335      2664
 -1      7663    3    0    1
 -2      1289      1394      2332      2662
 -1      7664    3    0    1
 -2        69      1454      1511      2457
 -1      7665    3    0    1
 -2      1511      1454      2452      2457
 -1      7666    3    0    1
 -2      1445      2674      1505      1506
 -1      7667    3    0    1
 -2      2542      2517      2628      2675
 -1      7668    3    0    1
 -2      2615      2629      1450      2675
 -1      7669    3    0    1
 -2      2615      2616      2629      2675
 -1      7670    3    0    1
 -2      2653      1377      2659      2695
 -1      7671    3    0    1
 -2      1345      2615      1450      2675
 -1      7672    3    0    1
 -2      2654      1426      2681      1512
 -1      7673    3    0    1
 -2      1233      2252      2676      2744
 -1      7674    3    0    1
 -2      2208      2219      2620      2389
 -1      7675    3    0    1
 -2      2228      1475      2387      2440
 -1      7676    3    0    1
 -2      1351      1389      2640      2403
 -1      7677    3    0    1
 -2      2550      1285      1343      2328
 -1      7678    3    0    1
 -2      2570      1248      2642      2720
 -1      7679    3    0    1
 -2      1225      2550      2627      2328
 -1      7680    3    0    1
 -2      1401      1284      2292      2328
 -1      7681    3    0    1
 -2      2580      2524      2633      2654
 -1      7682    3    0    1
 -2      2524      2580      2586      2654
 -1      7683    3    0    1
 -2      2645      2358      2686      2393
 -1      7684    3    0    1
 -2      2562      1283      2598      2655
 -1      7685    3    0    1
 -2      1283      2562      1321      2655
 -1      7686    3    0    1
 -2      2553      1242      2731      2738
 -1      7687    3    0    1
 -2      2701      1486      1507      2404
 -1      7688    3    0    1
 -2      1394      2218      2672      2356
 -1      7689    3    0    1
 -2      2296      1404      2672      2356
 -1      7690    3    0    1
 -2      2591      2339      1238      2682
 -1      7691    3    0    1
 -2       109      1495      1498      2705
 -1      7692    3    0    1
 -2      2263      1286      1385      2329
 -1      7693    3    0    1
 -2      2682      2204      2381      2707
 -1      7694    3    0    1
 -2      2219      2188      2620      2404
 -1      7695    3    0    1
 -2      1257      2592      2594      2678
 -1      7696    3    0    1
 -2       434       376      2646      2357
 -1      7697    3    0    1
 -2      2512      2501      2605      2662
 -1      7698    3    0    1
 -2      2278      1270      2633      2392
 -1      7699    3    0    1
 -2      2647      1229      2661      2739
 -1      7700    3    0    1
 -2      2082      2111      2489      2338
 -1      7701    3    0    1
 -2       434      2602      2698      2646
 -1      7702    3    0    1
 -2      1469      2724      2433      2736
 -1      7703    3    0    1
 -2      1248      1372      2642      2720
 -1      7704    3    0    1
 -2      2528      2529      2547      2723
 -1      7705    3    0    1
 -2      1469      2708      2724      2736
 -1      7706    3    0    1
 -2      2724      1463      2433      2736
 -1      7707    3    0    1
 -2      1831      2483      2623      2383
 -1      7708    3    0    1
 -2      1672      2461      2507      2694
 -1      7709    3    0    1
 -2      2517      2461      2518      2694
 -1      7710    3    0    1
 -2      2507      2469      2338      2694
 -1      7711    3    0    1
 -2      1259      2528      1302      2656
 -1      7712    3    0    1
 -2      2652         1      1456      2399
 -1      7713    3    0    1
 -2       386         1      2652      2399
 -1      7714    3    0    1
 -2      2280      2652      1456      2399
 -1      7715    3    0    1
 -2      1294      1348      1369      2438
 -1      7716    3    0    1
 -2      1307      2412      2414      2445
 -1      7717    3    0    1
 -2      2491      2521      2528      2656
 -1      7718    3    0    1
 -2      2548      2500      2561      2726
 -1      7719    3    0    1
 -2      2649      1368      1482      2723
 -1      7720    3    0    1
 -2      1328      2623      2695      2745
 -1      7721    3    0    1
 -2      1289      1421      2306      2332
 -1      7722    3    0    1
 -2      1280      2627      1496      2458
 -1      7723    3    0    1
 -2      1289      1390      1421      2332
 -1      7724    3    0    1
 -2      1390       167      1421      2332
 -1      7725    3    0    1
 -2      2232      2578      2637      1451
 -1      7726    3    0    1
 -2      2628      2382      2422      2423
 -1      7727    3    0    1
 -2      1312      2609      2660      2677
 -1      7728    3    0    1
 -2      2536      2194      1407      1451
 -1      7729    3    0    1
 -2      2194      2536      2232      1451
 -1      7730    3    0    1
 -2      2578      2536      1407      1451
 -1      7731    3    0    1
 -2      2536      2578      2232      1451
 -1      7732    3    0    1
 -2      1278      2595      1406      2740
 -1      7733    3    0    1
 -2      2422      2698      2628      2423
 -1      7734    3    0    1
 -2      1308      2618      2687      2390
 -1      7735    3    0    1
 -2      2567      1285      1376      2732
 -1      7736    3    0    1
 -2      2691      1468      1500      1501
 -1      7737    3    0    1
 -2       368      1455      1459      2411
 -1      7738    3    0    1
 -2      1328      1367      2599      2671
 -1      7739    3    0    1
 -2      1443      2659      1455      2704
 -1      7740    3    0    1
 -2      1399      2627      2669      2729
 -1      7741    3    0    1
 -2      1119      1232      2532      2720
 -1      7742    3    0    1
 -2      2573      2626      2627      2729
 -1      7743    3    0    1
 -2      2570      2533      2684      2720
 -1      7744    3    0    1
 -2      1243      2570      2642      2720
 -1      7745    3    0    1
 -2       897       721      2299      2658
 -1      7746    3    0    1
 -2      2215       900      2285      2658
 -1      7747    3    0    1
 -2      1232      1336      2684      2720
 -1      7748    3    0    1
 -2       900      1223      2285      2658
 -1      7749    3    0    1
 -2       897       478       721      2658
 -1      7750    3    0    1
 -2      2265      2301      2304      2658
 -1      7751    3    0    1
 -2       721      1380      2299      2658
 -1      7752    3    0    1
 -2       478       897       480      2658
 -1      7753    3    0    1
 -2       477       721       478      2658
 -1      7754    3    0    1
 -2       481       900      2215      2658
 -1      7755    3    0    1
 -2       721       719      1357      2658
 -1      7756    3    0    1
 -2      1380      1357      2265      2658
 -1      7757    3    0    1
 -2       721        47      1380      2658
 -1      7758    3    0    1
 -2       719       477      2215      2658
 -1      7759    3    0    1
 -2       721       477       719      2658
 -1      7760    3    0    1
 -2       477       481      2215      2658
 -1      7761    3    0    1
 -2        47      1357      1380      2658
 -1      7762    3    0    1
 -2        47       721      1357      2658
 -1      7763    3    0    1
 -2      2625      2280      2652      1456
 -1      7764    3    0    1
 -2      2648      2625      2652      1456
 -1      7765    3    0    1
 -2      2641      2648      2652      1456
 -1      7766    3    0    1
 -2      1436      2641      2652      1456
 -1      7767    3    0    1
 -2      2641      1436      2648      1456
 -1      7768    3    0    1
 -2      1238      2682      2381      2707
 -1      7769    3    0    1
 -2      1299      2300      2663      2382
 -1      7770    3    0    1
 -2      1336      1444      2684      1492
 -1      7771    3    0    1
 -2      2684      2674      2686      1492
 -1      7772    3    0    1
 -2      2380      1464      2409      2426
 -1      7773    3    0    1
 -2      2204      2330      2381      2707
 -1      7774    3    0    1
 -2      1378      2653      2659      2661
 -1      7775    3    0    1
 -2      2489      2111      2523      2338
 -1      7776    3    0    1
 -2      2190      1275      2607      2712
 -1      7777    3    0    1
 -2      1225      2550      2328      2696
 -1      7778    3    0    1
 -2      1240      2501      2512      2662
 -1      7779    3    0    1
 -2      1390       167      1394      2662
 -1      7780    3    0    1
 -2      1341      1447      1452      2680
 -1      7781    3    0    1
 -2      1240      2332      1289      2306
 -1      7782    3    0    1
 -2      1262      1227      2606      2349
 -1      7783    3    0    1
 -2      1335      2606      2293      2349
 -1      7784    3    0    1
 -2      2518      1224      2694      2702
 -1      7785    3    0    1
 -2      2611      2622      1457      2695
 -1      7786    3    0    1
 -2      2546      2515      2695      2383
 -1      7787    3    0    1
 -2      2516      2482      2546      2383
 -1      7788    3    0    1
 -2      2622      2546      2653      2695
 -1      7789    3    0    1
 -2      2546      2515      2653      2695
 -1      7790    3    0    1
 -2      1295      1377      2653      2695
 -1      7791    3    0    1
 -2      1302      1293      2656      2723
 -1      7792    3    0    1
 -2      2523      2489      2694      2702
 -1      7793    3    0    1
 -2      1224      2302      2303      2663
 -1      7794    3    0    1
 -2      1224       879      2302      2663
 -1      7795    3    0    1
 -2       881      1254      2288      2663
 -1      7796    3    0    1
 -2      1278      2297      2685      2740
 -1      7797    3    0    1
 -2      1224       879      2663      2702
 -1      7798    3    0    1
 -2      2644      2275      2651      2724
 -1      7799    3    0    1
 -2      1400      1495      1498      2427
 -1      7800    3    0    1
 -2      2619      2551      2651      2724
 -1      7801    3    0    1
 -2      2205      2227      2247      2731
 -1      7802    3    0    1
 -2      2251      2254      2360      2696
 -1      7803    3    0    1
 -2      1335      1262      2606      2349
 -1      7804    3    0    1
 -2      1296      2647      2661      2739
 -1      7805    3    0    1
 -2       435      1461      1463      2445
 -1      7806    3    0    1
 -2      2659      2664      2668      2704
 -1      7807    3    0    1
 -2      1322      2222      2284      2410
 -1      7808    3    0    1
 -2      2281      2222      2647      2739
 -1      7809    3    0    1
 -2      2611      2334      2664      1459
 -1      7810    3    0    1
 -2      2611      1453      2334      1459
 -1      7811    3    0    1
 -2      2622      2659      2661      2704
 -1      7812    3    0    1
 -2      2659      2622      2664      2704
 -1      7813    3    0    1
 -2      2659      2622      2695      2711
 -1      7814    3    0    1
 -2      2443      2453      1401      2458
 -1      7815    3    0    1
 -2      2521      2528      2529      2717
 -1      7816    3    0    1
 -2      2569      2592      2307      2678
 -1      7817    3    0    1
 -2      2539      2164      2287      2732
 -1      7818    3    0    1
 -2      2592      2474      2594      2678
 -1      7819    3    0    1
 -2      1394       167      2356      2683
 -1      7820    3    0    1
 -2      2239      1252      1430      2364
 -1      7821    3    0    1
 -2      1248      2570      2644      2684
 -1      7822    3    0    1
 -2      2530      2473      2572      2684
 -1      7823    3    0    1
 -2      1402      2606      2639      2364
 -1      7824    3    0    1
 -2      1444      2674      2684      1505
 -1      7825    3    0    1
 -2      2319      2377      2380      2720
 -1      7826    3    0    1
 -2      1282      1320      2632      2363
 -1      7827    3    0    1
 -2      2239      1430      2351      2364
 -1      7828    3    0    1
 -2      2639      2606      2351      2364
 -1      7829    3    0    1
 -2      2570      2473      2644      2684
 -1      7830    3    0    1
 -2      2243      1334      1397      2339
 -1      7831    3    0    1
 -2      2335      2664      1459      2341
 -1      7832    3    0    1
 -2      2539      2324      2712      2713
 -1      7833    3    0    1
 -2       438      1462      1469      2708
 -1      7834    3    0    1
 -2      1457      2436      2745      2457
 -1      7835    3    0    1
 -2      1299      2268      2615      2721
 -1      7836    3    0    1
 -2      2618      2551      2651      2708
 -1      7837    3    0    1
 -2       493       488       492      2346
 -1      7838    3    0    1
 -2       488       489       492      2346
 -1      7839    3    0    1
 -2      1236      2566      2609      2677
 -1      7840    3    0    1
 -2       915       918       493      2346
 -1      7841    3    0    1
 -2       588      1064       589      2665
 -1      7842    3    0    1
 -2      1450      2628      2675      2698
 -1      7843    3    0    1
 -2      1064      1230      2590      2665
 -1      7844    3    0    1
 -2       203      1364      2274      2342
 -1      7845    3    0    1
 -2      2226      1252      2239      2364
 -1      7846    3    0    1
 -2      1461      1331      1463      2445
 -1      7847    3    0    1
 -2      1435       386      1441      2434
 -1      7848    3    0    1
 -2      2199      2248      2690      2693
 -1      7849    3    0    1
 -2      1364      1398      2343      2344
 -1      7850    3    0    1
 -2      2274      1364      2343      2344
 -1      7851    3    0    1
 -2      2602      2646      2675      2698
 -1      7852    3    0    1
 -2      1279      2585      2325      2439
 -1      7853    3    0    1
 -2      2312      2205      2731      2440
 -1      7854    3    0    1
 -2      1473      1413      2429      2450
 -1      7855    3    0    1
 -2      2673      2586      2388      2742
 -1      7856    3    0    1
 -2      2700       238      2446      2454
 -1      7857    3    0    1
 -2      1468      1501      2441      2442
 -1      7858    3    0    1
 -2      1507      1468      2441      2442
 -1      7859    3    0    1
 -2      2387      2441      2442      2738
 -1      7860    3    0    1
 -2       589      1066      2342      2665
 -1      7861    3    0    1
 -2      1230      2320      2321      2665
 -1      7862    3    0    1
 -2      1066      1250      2342      2665
 -1      7863    3    0    1
 -2      1230      1064      2320      2665
 -1      7864    3    0    1
 -2       583       589      2342      2665
 -1      7865    3    0    1
 -2       369      1501      1513      2441
 -1      7866    3    0    1
 -2      1064       588      2320      2665
 -1      7867    3    0    1
 -2      1056       583      2342      2665
 -1      7868    3    0    1
 -2       588       582      2320      2665
 -1      7869    3    0    1
 -2       583      2320       768       582
 -1      7870    3    0    1
 -2      1056      2320       583      2665
 -1      7871    3    0    1
 -2      2673      2402      2730      2742
 -1      7872    3    0    1
 -2      2266      1363      2311      2398
 -1      7873    3    0    1
 -2       493       492       915      2346
 -1      7874    3    0    1
 -2      1394      2605      2662      2672
 -1      7875    3    0    1
 -2      1393      2223      1404      2672
 -1      7876    3    0    1
 -2      2587      1393      1404      2672
 -1      7877    3    0    1
 -2      2346       489       905       488
 -1      7878    3    0    1
 -2       905      2295       489      2346
 -1      7879    3    0    1
 -2        63      1362      2283      2346
 -1      7880    3    0    1
 -2       492       489      2295      2346
 -1      7881    3    0    1
 -2       915       492      2295      2346
 -1      7882    3    0    1
 -2      2587      2223      1393      2672
 -1      7883    3    0    1
 -2      1385      2263      2329      2355
 -1      7884    3    0    1
 -2       991      1271      2612      2709
 -1      7885    3    0    1
 -2      2619      1332      1462      2708
 -1      7886    3    0    1
 -2      2236      2214      2263      2709
 -1      7887    3    0    1
 -2      2263      2276      2329      2709
 -1      7888    3    0    1
 -2      2214      2236      2253      2709
 -1      7889    3    0    1
 -2      2551      2619      2651      2708
 -1      7890    3    0    1
 -2      2400      1433      2432      2434
 -1      7891    3    0    1
 -2      1332      1308      1469      2708
 -1      7892    3    0    1
 -2      1462      1332      1469      2708
 -1      7893    3    0    1
 -2      2324      1498      2712      2417
 -1      7894    3    0    1
 -2       368        69      2341      2668
 -1      7895    3    0    1
 -2        69       368      1455      2668
 -1      7896    3    0    1
 -2      1454        69      1455      2668
 -1      7897    3    0    1
 -2      2538      1402      2639      2712
 -1      7898    3    0    1
 -2      2538      2463      2607      2712
 -1      7899    3    0    1
 -2      2335      2262      2664      1470
 -1      7900    3    0    1
 -2      2190      2539      2324      2712
 -1      7901    3    0    1
 -2      2509      2463      2538      2712
 -1      7902    3    0    1
 -2      2262      2611      2664      1470
 -1      7903    3    0    1
 -2      2611      2262      1457      1470
 -1      7904    3    0    1
 -2      2622      2659      2664      2711
 -1      7905    3    0    1
 -2      1275      2538      2607      2712
 -1      7906    3    0    1
 -2      2463      2539      2607      2712
 -1      7907    3    0    1
 -2      1328      2336      2671      2375
 -1      7908    3    0    1
 -2      2336      2283      2671      2375
 -1      7909    3    0    1
 -2      1384      2635      1423      2670
 -1      7910    3    0    1
 -2      1384      1423      1431      2670
 -1      7911    3    0    1
 -2      1431      2635      2666      2670
 -1      7912    3    0    1
 -2      2603      1431      2666      2670
 -1      7913    3    0    1
 -2      2635      2603      2666      2670
 -1      7914    3    0    1
 -2       363      2635      1431      2670
 -1      7915    3    0    1
 -2      2635       363      1423      2670
 -1      7916    3    0    1
 -2      1423       363      1431      2670
 -1      7917    3    0    1
 -2      1418        70      1438      2348
 -1      7918    3    0    1
 -2      2283      2295      2346      2671
 -1      7919    3    0    1
 -2      1262      1335      1415      2349
 -1      7920    3    0    1
 -2      1360      1405      2293      2349
 -1      7921    3    0    1
 -2      1405      1335      2293      2349
 -1      7922    3    0    1
 -2      1335      1405      1415      2349
 -1      7923    3    0    1
 -2      1355      1251      2288      2350
 -1      7924    3    0    1
 -2      1254      1355      2288      2350
 -1      7925    3    0    1
 -2      1469      2275      2372      2724
 -1      7926    3    0    1
 -2      2530      2572      2645      2684
 -1      7927    3    0    1
 -2      1226      1281      2639      2351
 -1      7928    3    0    1
 -2      2533      2473      2570      2684
 -1      7929    3    0    1
 -2      2572      2533      2624      2684
 -1      7930    3    0    1
 -2      1248      2530      1344      2684
 -1      7931    3    0    1
 -2      2099      2469      2507      2721
 -1      7932    3    0    1
 -2      2239      1226      2606      2351
 -1      7933    3    0    1
 -2      2606      1226      2639      2351
 -1      7934    3    0    1
 -2      2624      1336      1444      2684
 -1      7935    3    0    1
 -2      2645      2624      2674      2684
 -1      7936    3    0    1
 -2      1418      1352      2348      2354
 -1      7937    3    0    1
 -2      2586      2673      2730      2742
 -1      7938    3    0    1
 -2      1129       273      2317      2352
 -1      7939    3    0    1
 -2      1463      2644      2706      2724
 -1      7940    3    0    1
 -2      2317      1353      2322      2352
 -1      7941    3    0    1
 -2       272      1353      2317      2352
 -1      7942    3    0    1
 -2      1264      2252      1466      2352
 -1      7943    3    0    1
 -2      1264       273      2252      2352
 -1      7944    3    0    1
 -2       273      1129      2252      2352
 -1      7945    3    0    1
 -2      2599      1246      2623      2671
 -1      7946    3    0    1
 -2      1328      2599      2623      2671
 -1      7947    3    0    1
 -2       915       918      2346      2671
 -1      7948    3    0    1
 -2       918       915      2623      2671
 -1      7949    3    0    1
 -2      2599      1367      1419      2671
 -1      7950    3    0    1
 -2      2348      2336      2354      2671
 -1      7951    3    0    1
 -2      2295       915      2346      2671
 -1      7952    3    0    1
 -2      1352      1304      2636      2671
 -1      7953    3    0    1
 -2      2452      1442      2745      2457
 -1      7954    3    0    1
 -2      2599      1419      2636      2671
 -1      7955    3    0    1
 -2      1304      2599      2636      2671
 -1      7956    3    0    1
 -2      1419      2348      2354      2671
 -1      7957    3    0    1
 -2      1352      1419      2354      2671
 -1      7958    3    0    1
 -2      1419      1352      2636      2671
 -1      7959    3    0    1
 -2      1246      2333      2346      2671
 -1      7960    3    0    1
 -2      2254      2292      2328      2696
 -1      7961    3    0    1
 -2      2283      2333      2336      2671
 -1      7962    3    0    1
 -2      1367      1328      2336      2671
 -1      7963    3    0    1
 -2       918      1246      2346      2671
 -1      7964    3    0    1
 -2      1246      1304      2333      2671
 -1      7965    3    0    1
 -2      2333      1304      2354      2671
 -1      7966    3    0    1
 -2      1514      1401      2453      2458
 -1      7967    3    0    1
 -2      1367      2336      2348      2671
 -1      7968    3    0    1
 -2      1304      1352      2354      2671
 -1      7969    3    0    1
 -2      1419      1367      2348      2671
 -1      7970    3    0    1
 -2      2574      2581      1414      2699
 -1      7971    3    0    1
 -2      2624      1444      1445      2674
 -1      7972    3    0    1
 -2      2628      1345      1450      2675
 -1      7973    3    0    1
 -2      2542      2602      2646      2675
 -1      7974    3    0    1
 -2      2285      1371      2325      2405
 -1      7975    3    0    1
 -2      2517      2542      2616      2675
 -1      7976    3    0    1
 -2      2615      2517      2616      2675
 -1      7977    3    0    1
 -2       377      1477      1506      2735
 -1      7978    3    0    1
 -2      2528      2189      2200      2378
 -1      7979    3    0    1
 -2      1467      1313      1468      2691
 -1      7980    3    0    1
 -2      2493      1864      2543      2732
 -1      7981    3    0    1
 -2      2237      2225      2243      2682
 -1      7982    3    0    1
 -2       862      2201      2237      2682
 -1      7983    3    0    1
 -2       862       860      2534      2682
 -1      7984    3    0    1
 -2      2361      1420      2363      2391
 -1      7985    3    0    1
 -2      1139      1129      2317      2676
 -1      7986    3    0    1
 -2      1137      2317      2650      2676
 -1      7987    3    0    1
 -2      1139      1137      2650      2676
 -1      7988    3    0    1
 -2      1137      1139      2317      2676
 -1      7989    3    0    1
 -2      2551      2619      2644      2724
 -1      7990    3    0    1
 -2      1233      1139      2595      2676
 -1      7991    3    0    1
 -2      2595      1139      2650      2676
 -1      7992    3    0    1
 -2      2353      1466      2424      2425
 -1      7993    3    0    1
 -2      1278      2595      2650      2676
 -1      7994    3    0    1
 -2      1368      1382      2723      2456
 -1      7995    3    0    1
 -2      1129      1139      2252      2676
 -1      7996    3    0    1
 -2      1139      1233      2252      2676
 -1      7997    3    0    1
 -2      1382      1510      2451      2456
 -1      7998    3    0    1
 -2      2529      2547      2649      2692
 -1      7999    3    0    1
 -2      1249      1293      2725      2431
 -1      8000    3    0    1
 -2      2257      2569      2307      2678
 -1      8001    3    0    1
 -2      2594      2054      2310      2678
 -1      8002    3    0    1
 -2      2256      2168      2607      2678
 -1      8003    3    0    1
 -2      2531      2256      2607      2678
 -1      8004    3    0    1
 -2      1229      2594      2310      2678
 -1      8005    3    0    1
 -2      1229      1257      2594      2678
 -1      8006    3    0    1
 -2      2195      2307      2310      2678
 -1      8007    3    0    1
 -2      2195      2257      2307      2678
 -1      8008    3    0    1
 -2      2168      2195      2310      2678
 -1      8009    3    0    1
 -2      2195      2168      2256      2678
 -1      8010    3    0    1
 -2      2307      1257      2310      2678
 -1      8011    3    0    1
 -2      2195      2256      2257      2678
 -1      8012    3    0    1
 -2      2054      2168      2310      2678
 -1      8013    3    0    1
 -2      1257      1229      2310      2678
 -1      8014    3    0    1
 -2      2548      1316      2662      2679
 -1      8015    3    0    1
 -2      1240      2548      2662      2679
 -1      8016    3    0    1
 -2      1394      2332      2662      2679
 -1      8017    3    0    1
 -2      1316      1394      2662      2679
 -1      8018    3    0    1
 -2      2332      1240      2662      2679
 -1      8019    3    0    1
 -2      2252      1466      2352      2424
 -1      8020    3    0    1
 -2      1270      2277      2278      2679
 -1      8021    3    0    1
 -2      1027      1219      2213      2679
 -1      8022    3    0    1
 -2      1316      1247      2267      2679
 -1      8023    3    0    1
 -2      1270      1025      2277      2679
 -1      8024    3    0    1
 -2      2213      2277      1027      2679
 -1      8025    3    0    1
 -2      1316      2267      2279      2679
 -1      8026    3    0    1
 -2      2213      1219      2306      2679
 -1      8027    3    0    1
 -2      1219      1240      2306      2679
 -1      8028    3    0    1
 -2      1316      2279      2332      2679
 -1      8029    3    0    1
 -2      1394      1316      2332      2679
 -1      8030    3    0    1
 -2      1494      2669      1495      2718
 -1      8031    3    0    1
 -2      1388      1383      1422      2362
 -1      8032    3    0    1
 -2      1308      1332      1469      2416
 -1      8033    3    0    1
 -2      2329      1385      2355      2362
 -1      8034    3    0    1
 -2       350      1388      1422      2362
 -1      8035    3    0    1
 -2      1338      2254      2315      2360
 -1      8036    3    0    1
 -2      1385      1427      2355      2362
 -1      8037    3    0    1
 -2      1404      2587      2672      2683
 -1      8038    3    0    1
 -2      1317      1383      1388      2362
 -1      8039    3    0    1
 -2      2554       364      1404      1391
 -1      8040    3    0    1
 -2       350      1422      1427      2362
 -1      8041    3    0    1
 -2      1383      1317      2355      2362
 -1      8042    3    0    1
 -2      1422      1383      1427      2362
 -1      8043    3    0    1
 -2      1235       862      2534      2682
 -1      8044    3    0    1
 -2      2382      1487      2422      2423
 -1      8045    3    0    1
 -2      2534       860      2591      2682
 -1      8046    3    0    1
 -2       860      1255      2591      2682
 -1      8047    3    0    1
 -2      2591      1255      2340      2682
 -1      8048    3    0    1
 -2      2339      2591      2340      2682
 -1      8049    3    0    1
 -2      1308      2551      2618      2708
 -1      8050    3    0    1
 -2      1487      2303      2382      2422
 -1      8051    3    0    1
 -2      1255      2237      2243      2682
 -1      8052    3    0    1
 -2      2097      1708      2115      2734
 -1      8053    3    0    1
 -2      2201      1235      2204      2682
 -1      8054    3    0    1
 -2      1255       860      2237      2682
 -1      8055    3    0    1
 -2      1255      2243      2340      2682
 -1      8056    3    0    1
 -2       862      1235      2201      2682
 -1      8057    3    0    1
 -2      1379      1320      1410      2391
 -1      8058    3    0    1
 -2      2300      1403      2303      2382
 -1      8059    3    0    1
 -2      2178      2530      2685      2740
 -1      8060    3    0    1
 -2      1425      1358      1480      2401
 -1      8061    3    0    1
 -2      2473      1248      2644      2684
 -1      8062    3    0    1
 -2      1320      1379      2632      2391
 -1      8063    3    0    1
 -2      2624      1444      2674      2684
 -1      8064    3    0    1
 -2      1344      2530      2238      2684
 -1      8065    3    0    1
 -2      2238      2530      2645      2684
 -1      8066    3    0    1
 -2      2632      1379      2696      2391
 -1      8067    3    0    1
 -2      1326      2269      2313      2687
 -1      8068    3    0    1
 -2      2204      2225      2682      2381
 -1      8069    3    0    1
 -2      1376      2361      2696      2391
 -1      8070    3    0    1
 -2      2225      2339      2682      2381
 -1      8071    3    0    1
 -2      2261      2544      2643      2685
 -1      8072    3    0    1
 -2      1375      2261      2643      2685
 -1      8073    3    0    1
 -2      2141      2178      2530      2685
 -1      8074    3    0    1
 -2      2431      2723      2451      2456
 -1      8075    3    0    1
 -2      1278      2141      2244      2685
 -1      8076    3    0    1
 -2      1278      2244      1375      2685
 -1      8077    3    0    1
 -2      1293      1368      2723      2456
 -1      8078    3    0    1
 -2      2141      1278      2297      2685
 -1      8079    3    0    1
 -2      1375      2244      2261      2685
 -1      8080    3    0    1
 -2      2178      2141      2297      2685
 -1      8081    3    0    1
 -2      1101      1103      2269      2687
 -1      8082    3    0    1
 -2      1356      2273      2311      2431
 -1      8083    3    0    1
 -2      2207       778      1326      2687
 -1      8084    3    0    1
 -2      1326       778      2269      2687
 -1      8085    3    0    1
 -2      1244      1308      2618      2687
 -1      8086    3    0    1
 -2      2617      1244      2618      2687
 -1      8087    3    0    1
 -2      1306      2617      2618      2687
 -1      8088    3    0    1
 -2      1101      1244      2617      2687
 -1      8089    3    0    1
 -2      2566      1101      2617      2687
 -1      8090    3    0    1
 -2      1103      1101      2566      2687
 -1      8091    3    0    1
 -2      1236      1103      2566      2687
 -1      8092    3    0    1
 -2      2269      1236      2272      2687
 -1      8093    3    0    1
 -2      1244      2207      2323      2687
 -1      8094    3    0    1
 -2       351      1379      1410      2391
 -1      8095    3    0    1
 -2      1244      1101      2207      2687
 -1      8096    3    0    1
 -2      1278      2676      2424      2744
 -1      8097    3    0    1
 -2      1101       778      2207      2687
 -1      8098    3    0    1
 -2      1103      1236      2269      2687
 -1      8099    3    0    1
 -2      1308      1244      2323      2687
 -1      8100    3    0    1
 -2      1506      1445      2425      2449
 -1      8101    3    0    1
 -2      2352      1278      2676      2424
 -1      8102    3    0    1
 -2      1329      2559      2591      2716
 -1      8103    3    0    1
 -2      2560      2559      2584      2716
 -1      8104    3    0    1
 -2      1358      2634      1425      1480
 -1      8105    3    0    1
 -2      1469       438      2708      2736
 -1      8106    3    0    1
 -2      2565      2547      2649      2723
 -1      8107    3    0    1
 -2      2642      1372      1463      2445
 -1      8108    3    0    1
 -2      2630      2586      2673      1480
 -1      8109    3    0    1
 -2      2586      2630      2634      1480
 -1      8110    3    0    1
 -2      1044      1249      2596      2725
 -1      8111    3    0    1
 -2       438      1462      2708      2736
 -1      8112    3    0    1
 -2      2249      1268      2312      2367
 -1      8113    3    0    1
 -2      1261      2574      1414      2699
 -1      8114    3    0    1
 -2      2578      2574      2621      2699
 -1      8115    3    0    1
 -2      2621      1305      1412      2699
 -1      8116    3    0    1
 -2      1432      2249      2316      2367
 -1      8117    3    0    1
 -2      1268      2249      1432      2367
 -1      8118    3    0    1
 -2      2468      2056      2541      2689
 -1      8119    3    0    1
 -2      2056      2468      2534      2689
 -1      8120    3    0    1
 -2      2468      2541      2544      2689
 -1      8121    3    0    1
 -2      2521      2529      2593      2717
 -1      8122    3    0    1
 -2      2665      2590      2737      2741
 -1      8123    3    0    1
 -2      1409      1330      2368      1509
 -1      8124    3    0    1
 -2      2541      2192      2250      2689
 -1      8125    3    0    1
 -2      2504      2468      2544      2689
 -1      8126    3    0    1
 -2      2468      2504      2534      2689
 -1      8127    3    0    1
 -2      2544      2541      2250      2689
 -1      8128    3    0    1
 -2      2544      2250      1392      2689
 -1      8129    3    0    1
 -2      2544      1392      2648      2689
 -1      8130    3    0    1
 -2      2504      2544      2648      2689
 -1      8131    3    0    1
 -2      2534      2504      2648      2689
 -1      8132    3    0    1
 -2      1238      2534      1392      2689
 -1      8133    3    0    1
 -2      1392      2534      2648      2689
 -1      8134    3    0    1
 -2      2205      2247      2249      2731
 -1      8135    3    0    1
 -2      1238      2192      2196      2689
 -1      8136    3    0    1
 -2      2192      1238      2250      2689
 -1      8137    3    0    1
 -2      2250      1238      1392      2689
 -1      8138    3    0    1
 -2      2628      1224      2663      2702
 -1      8139    3    0    1
 -2      2230      2248      2271      2690
 -1      8140    3    0    1
 -2      2708      2619      2724      2736
 -1      8141    3    0    1
 -2      2540      1220      2579      2690
 -1      8142    3    0    1
 -2      1220      1241      2579      2690
 -1      8143    3    0    1
 -2      1343      2627      2443      2458
 -1      8144    3    0    1
 -2      2643      2261      1441      2373
 -1      8145    3    0    1
 -2      2089      2515      2546      2383
 -1      8146    3    0    1
 -2      2652      2625      1441      2373
 -1      8147    3    0    1
 -2      2625      2261      2643      2373
 -1      8148    3    0    1
 -2      1293      1368      2649      2723
 -1      8149    3    0    1
 -2      1409      1299      2663      2702
 -1      8150    3    0    1
 -2      1306      2313      2687      2390
 -1      8151    3    0    1
 -2      1301      2579      1393      2690
 -1      8152    3    0    1
 -2      2248      1350      2271      2690
 -1      8153    3    0    1
 -2      2631      2523      2694      2702
 -1      8154    3    0    1
 -2      1393      1290      2326      2690
 -1      8155    3    0    1
 -2      1429      1393      2326      2690
 -1      8156    3    0    1
 -2      1241      1290      2579      2690
 -1      8157    3    0    1
 -2      2579      1290      1393      2690
 -1      8158    3    0    1
 -2      1299      1409      2631      2702
 -1      8159    3    0    1
 -2      1220      2230      2271      2690
 -1      8160    3    0    1
 -2      1220      2211      2230      2690
 -1      8161    3    0    1
 -2      1220      1009      2211      2690
 -1      8162    3    0    1
 -2      2625      2643      1441      2373
 -1      8163    3    0    1
 -2      1222      1301      2248      2690
 -1      8164    3    0    1
 -2      1241      1220      2271      2690
 -1      8165    3    0    1
 -2      1241      2271      2326      2690
 -1      8166    3    0    1
 -2      1423      1384      1431      2394
 -1      8167    3    0    1
 -2      2248      1301      1393      2690
 -1      8168    3    0    1
 -2      1290      1241      2326      2690
 -1      8169    3    0    1
 -2      2271      1350      2326      2690
 -1      8170    3    0    1
 -2      2248      1393      1429      2690
 -1      8171    3    0    1
 -2      1350      1429      2326      2690
 -1      8172    3    0    1
 -2      1350      2248      1429      2690
 -1      8173    3    0    1
 -2      1439      2586      2654      2726
 -1      8174    3    0    1
 -2      1348      2565       204      2206
 -1      8175    3    0    1
 -2      2565      1348       204      2692
 -1      8176    3    0    1
 -2      1461       435      2706      2736
 -1      8177    3    0    1
 -2      2524      1766      2633      2726
 -1      8178    3    0    1
 -2      1358      1437      1480      2401
 -1      8179    3    0    1
 -2       352      1425      1480      2401
 -1      8180    3    0    1
 -2      2230      2199      2690      2693
 -1      8181    3    0    1
 -2      2211      2230      2690      2693
 -1      8182    3    0    1
 -2      1009      2211      2690      2693
 -1      8183    3    0    1
 -2      1009      1011      2211      2693
 -1      8184    3    0    1
 -2      1011      1009      2613      2693
 -1      8185    3    0    1
 -2      2282      2286      2347      2693
 -1      8186    3    0    1
 -2      2540      1009      2690      2693
 -1      8187    3    0    1
 -2      1009      2540      2613      2693
 -1      8188    3    0    1
 -2      1222      2540      2690      2693
 -1      8189    3    0    1
 -2      2540      1222      2614      2693
 -1      8190    3    0    1
 -2      1222      1349      2614      2693
 -1      8191    3    0    1
 -2      2248      1222      2690      2693
 -1      8192    3    0    1
 -2      2347      2286      2366      2693
 -1      8193    3    0    1
 -2      1318      1349      2366      2693
 -1      8194    3    0    1
 -2      1349      1318      2614      2693
 -1      8195    3    0    1
 -2      1349      2347      2366      2693
 -1      8196    3    0    1
 -2      2217      1272      2220      2693
 -1      8197    3    0    1
 -2      1011      1272      2217      2693
 -1      8198    3    0    1
 -2      2220      1272      2286      2693
 -1      8199    3    0    1
 -2      1272      1318      2286      2693
 -1      8200    3    0    1
 -2      2248      2199      2282      2693
 -1      8201    3    0    1
 -2      2286      1318      2366      2693
 -1      8202    3    0    1
 -2      1349      1222      2282      2693
 -1      8203    3    0    1
 -2      1222      2248      2282      2693
 -1      8204    3    0    1
 -2      1349      2282      2347      2693
 -1      8205    3    0    1
 -2      2461      2517      2576      2694
 -1      8206    3    0    1
 -2      2507      2461      2576      2694
 -1      8207    3    0    1
 -2      2576      2517      2615      2694
 -1      8208    3    0    1
 -2      2507      2576      2615      2694
 -1      8209    3    0    1
 -2      2517      1224      2628      2694
 -1      8210    3    0    1
 -2      1224      2517      2518      2694
 -1      8211    3    0    1
 -2      2483      2516      2623      2383
 -1      8212    3    0    1
 -2      2461      2082      2518      2694
 -1      8213    3    0    1
 -2      1409      2337      2721      1509
 -1      8214    3    0    1
 -2      1384      1408      1431      2394
 -1      8215    3    0    1
 -2      2515      2623      2695      2383
 -1      8216    3    0    1
 -2      2081      2482      2516      2383
 -1      8217    3    0    1
 -2      1345      2615      2628      2694
 -1      8218    3    0    1
 -2      1299      1345      2628      2694
 -1      8219    3    0    1
 -2      1345      1299      2615      2694
 -1      8220    3    0    1
 -2      2081      2089      2482      2383
 -1      8221    3    0    1
 -2      2482      2479      2546      2383
 -1      8222    3    0    1
 -2      1442      1470      2745      2457
 -1      8223    3    0    1
 -2      2599      2516      2695      2383
 -1      8224    3    0    1
 -2      2089      2479      2482      2383
 -1      8225    3    0    1
 -2      2623      2599      2695      2383
 -1      8226    3    0    1
 -2      1377      2659      2695      2711
 -1      8227    3    0    1
 -2      2516      2599      2623      2383
 -1      8228    3    0    1
 -2      2360      2361      2363      2696
 -1      8229    3    0    1
 -2       973       975      2221      2696
 -1      8230    3    0    1
 -2       973      2221      2251      2696
 -1      8231    3    0    1
 -2      1217      1282      2567      2696
 -1      8232    3    0    1
 -2      1376      2567      2632      2696
 -1      8233    3    0    1
 -2      2567      1282      2632      2696
 -1      8234    3    0    1
 -2      1444      1445      2674      1505
 -1      8235    3    0    1
 -2      1379      1376      2632      2696
 -1      8236    3    0    1
 -2      1354      2582      2640      2719
 -1      8237    3    0    1
 -2      1217       973      2360      2696
 -1      8238    3    0    1
 -2       973      2251      2360      2696
 -1      8239    3    0    1
 -2      2315      2254      2328      2696
 -1      8240    3    0    1
 -2      1285      2315      2328      2696
 -1      8241    3    0    1
 -2       975      1225      2292      2696
 -1      8242    3    0    1
 -2      1217      2360      2363      2696
 -1      8243    3    0    1
 -2      1285      1376      2315      2696
 -1      8244    3    0    1
 -2      2315      1376      2361      2696
 -1      8245    3    0    1
 -2      2221       975      2292      2696
 -1      8246    3    0    1
 -2      1282      1217      2363      2696
 -1      8247    3    0    1
 -2      2323      1308      1469      2416
 -1      8248    3    0    1
 -2      2602       434      2698      1448
 -1      8249    3    0    1
 -2       434      1448      1450      2698
 -1      8250    3    0    1
 -2      2646       434      1450      2698
 -1      8251    3    0    1
 -2      1261      2316      2714      2408
 -1      8252    3    0    1
 -2      1401      2328      2345      2443
 -1      8253    3    0    1
 -2      2585      2285      2325      2405
 -1      8254    3    0    1
 -2      1501      1468      1507      2727
 -1      8255    3    0    1
 -2      1474       354      1481      2379
 -1      8256    3    0    1
 -2      2490      2097      2183      2728
 -1      8257    3    0    1
 -2      1412       354      2637      2699
 -1      8258    3    0    1
 -2      2578      1412      2637      2699
 -1      8259    3    0    1
 -2      2578      2621      1412      2699
 -1      8260    3    0    1
 -2      2581      2578      2637      2699
 -1      8261    3    0    1
 -2      2574      1260      1413      2715
 -1      8262    3    0    1
 -2      1261      2552      2574      2699
 -1      8263    3    0    1
 -2      2574      2552      2621      2699
 -1      8264    3    0    1
 -2      1864      2550      2567      2732
 -1      8265    3    0    1
 -2      2691      1468      1501      2727
 -1      8266    3    0    1
 -2      2287      2359      2713      2729
 -1      8267    3    0    1
 -2      2705      2669      2713      2718
 -1      8268    3    0    1
 -2      2620      2660      2688      2701
 -1      8269    3    0    1
 -2      1495      2669      2705      2718
 -1      8270    3    0    1
 -2      1481      1474      2379      2408
 -1      8271    3    0    1
 -2      1312      2660      1467      2733
 -1      8272    3    0    1
 -2      2510      2491      2203      2730
 -1      8273    3    0    1
 -2        11        20      2710      2419
 -1      8274    3    0    1
 -2      2550      1285      2567      2732
 -1      8275    3    0    1
 -2      2669      2573      2713      2729
 -1      8276    3    0    1
 -2      1382      1368      1482      2456
 -1      8277    3    0    1
 -2      2595      2572      2624      2735
 -1      8278    3    0    1
 -2      1343      2627      1496      2729
 -1      8279    3    0    1
 -2      2626      2573      2669      2729
 -1      8280    3    0    1
 -2      2645      2684      2686      1492
 -1      8281    3    0    1
 -2      2358      2645      2686      1492
 -1      8282    3    0    1
 -2      2238      1344      2684      1492
 -1      8283    3    0    1
 -2      2645      2238      2684      1492
 -1      8284    3    0    1
 -2      2238      2645      2358      1492
 -1      8285    3    0    1
 -2      1274      1235      2648      2707
 -1      8286    3    0    1
 -2      1238      2534      2682      2707
 -1      8287    3    0    1
 -2      1276      2204      1440      2381
 -1      8288    3    0    1
 -2      1440      2204      2330      2381
 -1      8289    3    0    1
 -2      2534      1392      2648      2707
 -1      8290    3    0    1
 -2      2648      1392      1456      2707
 -1      8291    3    0    1
 -2      2303      1403      1487      2382
 -1      8292    3    0    1
 -2      2618      1333      2687      2390
 -1      8293    3    0    1
 -2      2313      2207      2687      2390
 -1      8294    3    0    1
 -2       881      1992      2489      2702
 -1      8295    3    0    1
 -2       881       879      1992      2702
 -1      8296    3    0    1
 -2      1992       879      2518      2702
 -1      8297    3    0    1
 -2      2489      2523      2559      2702
 -1      8298    3    0    1
 -2      2559      2523      2631      2702
 -1      8299    3    0    1
 -2      1254      2559      1330      2702
 -1      8300    3    0    1
 -2      1330      2559      2631      2702
 -1      8301    3    0    1
 -2      2663      1254      2350      2702
 -1      8302    3    0    1
 -2      2350      1254      2368      2702
 -1      8303    3    0    1
 -2      1409      2663      2350      2702
 -1      8304    3    0    1
 -2      1330      1409      2368      2702
 -1      8305    3    0    1
 -2      1254      1330      2368      2702
 -1      8306    3    0    1
 -2      2489      2694      2082      2338
 -1      8307    3    0    1
 -2      2694      2489      2082      2702
 -1      8308    3    0    1
 -2      2082      1992      2518      2702
 -1      8309    3    0    1
 -2      1992      2082      2489      2702
 -1      8310    3    0    1
 -2      1409      2350      2368      2702
 -1      8311    3    0    1
 -2      1479      2278      2392      2396
 -1      8312    3    0    1
 -2      1443      1378      2659      2704
 -1      8313    3    0    1
 -2      2284      2385      2410      2739
 -1      8314    3    0    1
 -2      1455      2659      2668      2704
 -1      8315    3    0    1
 -2      2611      2622      2661      2704
 -1      8316    3    0    1
 -2      2622      2611      2664      2704
 -1      8317    3    0    1
 -2      2664      2611      1459      2704
 -1      8318    3    0    1
 -2       368      1455      2668      2704
 -1      8319    3    0    1
 -2      1455       368      1459      2704
 -1      8320    3    0    1
 -2      1459       368      2668      2704
 -1      8321    3    0    1
 -2      1459      2661      2611      1453
 -1      8322    3    0    1
 -2      2661      1459      2611      2704
 -1      8323    3    0    1
 -2      2688      2620      1507      2404
 -1      8324    3    0    1
 -2      2686       377      2393      2428
 -1      8325    3    0    1
 -2      2424      2353      2425      2744
 -1      8326    3    0    1
 -2      1515      2351      2413      2427
 -1      8327    3    0    1
 -2      2639      1281      1498      2427
 -1      8328    3    0    1
 -2      2351      2639      2364      2413
 -1      8329    3    0    1
 -2      2627      1280      2443      2458
 -1      8330    3    0    1
 -2      1259      2528      2656      2730
 -1      8331    3    0    1
 -2      1399      1280      2627      1496
 -1      8332    3    0    1
 -2      1493      1455      2411      2444
 -1      8333    3    0    1
 -2      2642      1463      2706      2445
 -1      8334    3    0    1
 -2      1307      2642      2706      2445
 -1      8335    3    0    1
 -2      2642      1243      2720      2412
 -1      8336    3    0    1
 -2      1307      2551      1331      2706
 -1      8337    3    0    1
 -2      2688      2700      1503      2446
 -1      8338    3    0    1
 -2      2639      1402      2364      2413
 -1      8339    3    0    1
 -2      1430      2351      2364      2413
 -1      8340    3    0    1
 -2      1456      2415      1436      1374
 -1      8341    3    0    1
 -2      1224      1292      2663      2422
 -1      8342    3    0    1
 -2      1379      1376      2696      2391
 -1      8343    3    0    1
 -2      1332      1462      1469      2416
 -1      8344    3    0    1
 -2      2323      1469      2390      2416
 -1      8345    3    0    1
 -2      1436         1      1491      2386
 -1      8346    3    0    1
 -2      2303      1224      2663      2422
 -1      8347    3    0    1
 -2      1499      2323      2390      2416
 -1      8348    3    0    1
 -2      1374      2648      1456      2707
 -1      8349    3    0    1
 -2      1374      1274      2648      2707
 -1      8350    3    0    1
 -2      1392      1238      2381      2707
 -1      8351    3    0    1
 -2      1392      2381      2386      2707
 -1      8352    3    0    1
 -2      1235      1274      2330      2707
 -1      8353    3    0    1
 -2      2204      1235      2330      2707
 -1      8354    3    0    1
 -2      1456      1392      2386      2707
 -1      8355    3    0    1
 -2      2563      1258      2233      2709
 -1      8356    3    0    1
 -2      1218      2563      2233      2709
 -1      8357    3    0    1
 -2      1218      2233      2253      2709
 -1      8358    3    0    1
 -2      2233      2214      2253      2709
 -1      8359    3    0    1
 -2      1319      1258      2612      2709
 -1      8360    3    0    1
 -2      1271      1317      2612      2709
 -1      8361    3    0    1
 -2      1317      2355      2362      2709
 -1      8362    3    0    1
 -2      2355      2329      2362      2709
 -1      8363    3    0    1
 -2      2612      1317      2667      2709
 -1      8364    3    0    1
 -2      1319      2612      2667      2709
 -1      8365    3    0    1
 -2      1388      1317      2362      2709
 -1      8366    3    0    1
 -2      1388      1319      2667      2709
 -1      8367    3    0    1
 -2      1317      1388      2667      2709
 -1      8368    3    0    1
 -2      1271      2236      2263      2709
 -1      8369    3    0    1
 -2      1271       991      2236      2709
 -1      8370    3    0    1
 -2      1271      2263      2355      2709
 -1      8371    3    0    1
 -2       993      1218      2253      2709
 -1      8372    3    0    1
 -2      1317      1271      2355      2709
 -1      8373    3    0    1
 -2      2233      1258      2276      2709
 -1      8374    3    0    1
 -2      2214      2233      2276      2709
 -1      8375    3    0    1
 -2      2276      1319      2329      2709
 -1      8376    3    0    1
 -2      1258      1319      2276      2709
 -1      8377    3    0    1
 -2      2329      1319      2362      2709
 -1      8378    3    0    1
 -2      1319      1388      2362      2709
 -1      8379    3    0    1
 -2      1496      2359      2713      2421
 -1      8380    3    0    1
 -2      2493      1376      2732      2543
 -1      8381    3    0    1
 -2      2691      2688      2700      2733
 -1      8382    3    0    1
 -2      2660      2677      2688      2733
 -1      8383    3    0    1
 -2      2688      2620      1503      2733
 -1      8384    3    0    1
 -2      2374      2311      2725      2431
 -1      8385    3    0    1
 -2      2659      1454      2668      2711
 -1      8386    3    0    1
 -2      2622      2611      1457      2711
 -1      8387    3    0    1
 -2      1457      2611      1470      2711
 -1      8388    3    0    1
 -2      2664      2659      2668      2711
 -1      8389    3    0    1
 -2      2664      2668      1470      2711
 -1      8390    3    0    1
 -2      2611      2664      1470      2711
 -1      8391    3    0    1
 -2      2611      2622      2664      2711
 -1      8392    3    0    1
 -2        69      1454      1470      2711
 -1      8393    3    0    1
 -2      1454        69      2668      2711
 -1      8394    3    0    1
 -2      2668        69      1470      2711
 -1      8395    3    0    1
 -2      2639      1402      1498      2712
 -1      8396    3    0    1
 -2      2639      1498      2705      2712
 -1      8397    3    0    1
 -2      2573      2639      2705      2712
 -1      8398    3    0    1
 -2      2539      2509      2573      2712
 -1      8399    3    0    1
 -2      2509      2538      2639      2712
 -1      8400    3    0    1
 -2      2573      2509      2639      2712
 -1      8401    3    0    1
 -2      1242      2312      2714      2731
 -1      8402    3    0    1
 -2      1402      1275      2324      2712
 -1      8403    3    0    1
 -2      1275      2190      2324      2712
 -1      8404    3    0    1
 -2      1402      2324      1498      2712
 -1      8405    3    0    1
 -2      2524      2586      2634      2730
 -1      8406    3    0    1
 -2      2189      2491      2528      2730
 -1      8407    3    0    1
 -2      2205      2249      2312      2731
 -1      8408    3    0    1
 -2      2247      1085      2714      2731
 -1      8409    3    0    1
 -2      2227      1085      2247      2731
 -1      8410    3    0    1
 -2      2249      2247      2714      2731
 -1      8411    3    0    1
 -2      2552      1231      2553      2714
 -1      8412    3    0    1
 -2      2509      2463      2539      2732
 -1      8413    3    0    1
 -2      2627      2573      2729      2732
 -1      8414    3    0    1
 -2      2509      2573      2627      2732
 -1      8415    3    0    1
 -2      1864      2047      2550      2732
 -1      8416    3    0    1
 -2      1261      1231      2552      2714
 -1      8417    3    0    1
 -2      2621      1305      2699      2714
 -1      8418    3    0    1
 -2      2047      2463      2550      2732
 -1      8419    3    0    1
 -2      2072      2164      2539      2732
 -1      8420    3    0    1
 -2      2550      1343      2732      2627
 -1      8421    3    0    1
 -2      2550      2509      2627      2732
 -1      8422    3    0    1
 -2      2287      1343      2729      2732
 -1      8423    3    0    1
 -2      2488      1892      2522      2728
 -1      8424    3    0    1
 -2      2188      2488      2620      2728
 -1      8425    3    0    1
 -2      2552      2621      2699      2714
 -1      8426    3    0    1
 -2      1261      2552      2699      2714
 -1      8427    3    0    1
 -2      1412      1261      2699      2714
 -1      8428    3    0    1
 -2      1305      1412      2699      2714
 -1      8429    3    0    1
 -2      1892      2488      2490      2728
 -1      8430    3    0    1
 -2      1305      1242      2312      2714
 -1      8431    3    0    1
 -2      2247      1231      2249      2714
 -1      8432    3    0    1
 -2      2249      1231      2316      2714
 -1      8433    3    0    1
 -2      1305      2312      2367      2714
 -1      8434    3    0    1
 -2      1085      1231      2247      2714
 -1      8435    3    0    1
 -2      1343      2627      2729      2732
 -1      8436    3    0    1
 -2      1231      1261      2316      2714
 -1      8437    3    0    1
 -2      2539      2287      2729      2732
 -1      8438    3    0    1
 -2      1305      2367      2379      2714
 -1      8439    3    0    1
 -2      1412      1305      2379      2714
 -1      8440    3    0    1
 -2       377       378      2674      1506
 -1      8441    3    0    1
 -2      2674       378      1505      1506
 -1      8442    3    0    1
 -2      1382       358      1510      2456
 -1      8443    3    0    1
 -2      2624      2572      2645      2735
 -1      8444    3    0    1
 -2      2559      1329      2584      2716
 -1      8445    3    0    1
 -2      2703      2560      2710      2716
 -1      8446    3    0    1
 -2      1395      2703      2710      2716
 -1      8447    3    0    1
 -2      2584      2610      2710      2716
 -1      8448    3    0    1
 -2      2559      2523      2591      2716
 -1      8449    3    0    1
 -2      2523      2559      2560      2716
 -1      8450    3    0    1
 -2      1426      1359      2395      2396
 -1      8451    3    0    1
 -2      1330      1366      2368      1509
 -1      8452    3    0    1
 -2       361      1426      1479      2396
 -1      8453    3    0    1
 -2      1083      1237      2553      2731
 -1      8454    3    0    1
 -2      2654      2392      2395      2396
 -1      8455    3    0    1
 -2      2584      1365      2610      2716
 -1      8456    3    0    1
 -2      2610      1365      1395      2716
 -1      8457    3    0    1
 -2        11      1395      2710      2716
 -1      8458    3    0    1
 -2      2610        11      2710      2716
 -1      8459    3    0    1
 -2        11      2610      1395      2716
 -1      8460    3    0    1
 -2      1479      1426      2395      2396
 -1      8461    3    0    1
 -2      2620      2701      1507      2404
 -1      8462    3    0    1
 -2      2529      2528      2547      2717
 -1      8463    3    0    1
 -2      1445      2624      2674      2735
 -1      8464    3    0    1
 -2      1293      2723      2431      2456
 -1      8465    3    0    1
 -2      2674      2645      2686      2735
 -1      8466    3    0    1
 -2      2529      2547      2692      2717
 -1      8467    3    0    1
 -2      2593      2529      2692      2717
 -1      8468    3    0    1
 -2      2547      1348      2692      2717
 -1      8469    3    0    1
 -2      2547      2200      1348      2717
 -1      8470    3    0    1
 -2      1253      1297      2378      2717
 -1      8471    3    0    1
 -2      1492      1444      1505      2426
 -1      8472    3    0    1
 -2      1297      1348      2378      2717
 -1      8473    3    0    1
 -2      1348      2200      2378      2717
 -1      8474    3    0    1
 -2      2265      2299      2658      2719
 -1      8475    3    0    1
 -2      2299      2265      2304      2719
 -1      8476    3    0    1
 -2      2304      2265      2658      2719
 -1      8477    3    0    1
 -2      2585      2301      2658      2719
 -1      8478    3    0    1
 -2      2585      1256      2301      2719
 -1      8479    3    0    1
 -2      1223      2585      2658      2719
 -1      8480    3    0    1
 -2      2582      1223      2658      2719
 -1      8481    3    0    1
 -2      1223      2582      2585      2719
 -1      8482    3    0    1
 -2      2627      1343      1496      2458
 -1      8483    3    0    1
 -2      2654      1439      2396      1512
 -1      8484    3    0    1
 -2      1389      1354      2640      2719
 -1      8485    3    0    1
 -2      2304      1354      2305      2719
 -1      8486    3    0    1
 -2      1256      1354      2304      2719
 -1      8487    3    0    1
 -2      1245       897      2299      2719
 -1      8488    3    0    1
 -2      1245      2299      2376      2719
 -1      8489    3    0    1
 -2      2301      1256      2304      2719
 -1      8490    3    0    1
 -2      1303      1245      2376      2719
 -1      8491    3    0    1
 -2      2235      2209      2255      2720
 -1      8492    3    0    1
 -2      2255      2209      2318      2720
 -1      8493    3    0    1
 -2      1248      1344      2377      2720
 -1      8494    3    0    1
 -2      2377      1344      2380      2720
 -1      8495    3    0    1
 -2      1121      1243      2318      2720
 -1      8496    3    0    1
 -2      1232      1119      2235      2720
 -1      8497    3    0    1
 -2      1232      2235      2319      2720
 -1      8498    3    0    1
 -2      2627      2626      2669      2729
 -1      8499    3    0    1
 -2      2209      1121      2318      2720
 -1      8500    3    0    1
 -2      2196      2099      2268      2721
 -1      8501    3    0    1
 -2      2633      1270      2654      2395
 -1      8502    3    0    1
 -2      2610      1366      2631      1509
 -1      8503    3    0    1
 -2      2591      2523      2689      2722
 -1      8504    3    0    1
 -2      2196      1238      2689      2722
 -1      8505    3    0    1
 -2      2591      1370      2716      2722
 -1      8506    3    0    1
 -2      2703      2560      2716      2722
 -1      8507    3    0    1
 -2      2703      2331      2721      2722
 -1      8508    3    0    1
 -2      2560      2703      2721      2722
 -1      8509    3    0    1
 -2      1238      2591      2689      2722
 -1      8510    3    0    1
 -2      2591      1238      1370      2722
 -1      8511    3    0    1
 -2      1395      2703      2716      2722
 -1      8512    3    0    1
 -2      1370      1395      2716      2722
 -1      8513    3    0    1
 -2      2337      2331      2703      2722
 -1      8514    3    0    1
 -2      1395      2337      2703      2722
 -1      8515    3    0    1
 -2      1370      2196      2331      2722
 -1      8516    3    0    1
 -2      1238      2196      1370      2722
 -1      8517    3    0    1
 -2      1395      1370      2331      2722
 -1      8518    3    0    1
 -2      1395      2331      2337      2722
 -1      8519    3    0    1
 -2      2631      2337      2703      1509
 -1      8520    3    0    1
 -2      2317      2650      2676      2743
 -1      8521    3    0    1
 -2      2631      2703      2710      1509
 -1      8522    3    0    1
 -2      2610      2631      2710      1509
 -1      8523    3    0    1
 -2        20      2610      2710      1509
 -1      8524    3    0    1
 -2      1366        20      1471      1509
 -1      8525    3    0    1
 -2      2272      1502      2420      2430
 -1      8526    3    0    1
 -2      2149      2510      2203      2742
 -1      8527    3    0    1
 -2      2321      1476      2371      2397
 -1      8528    3    0    1
 -2      2687      2272      2420      2430
 -1      8529    3    0    1
 -2      2321      1327      1476      2397
 -1      8530    3    0    1
 -2      1243      2318      2720      2412
 -1      8531    3    0    1
 -2      2273      2266      2311      2725
 -1      8532    3    0    1
 -2      2586      2524      2654      2726
 -1      8533    3    0    1
 -2      2510      2149      2245      2726
 -1      8534    3    0    1
 -2      1449      1510      2431      2451
 -1      8535    3    0    1
 -2      1363      2314      1478      2398
 -1      8536    3    0    1
 -2      1044      1046      2266      2725
 -1      8537    3    0    1
 -2      1363      2266      2314      2398
 -1      8538    3    0    1
 -2      2311      2266      2398      2725
 -1      8539    3    0    1
 -2      1293      2568      2656      2723
 -1      8540    3    0    1
 -2      2568      1293      2649      2723
 -1      8541    3    0    1
 -2      2529      2568      2649      2723
 -1      8542    3    0    1
 -2       358      2565      2649      2723
 -1      8543    3    0    1
 -2      2565       358      1382      2723
 -1      8544    3    0    1
 -2      2528      1302      2656      2723
 -1      8545    3    0    1
 -2      2528      2547      1302      2723
 -1      8546    3    0    1
 -2      1503      1467      2733      2455
 -1      8547    3    0    1
 -2      2418      2688      2446      2454
 -1      8548    3    0    1
 -2      2372      1469      2724      2433
 -1      8549    3    0    1
 -2      2322      1433      2369      2400
 -1      8550    3    0    1
 -2      1463      2372      2724      2433
 -1      8551    3    0    1
 -2      1353      1433      2322      2400
 -1      8552    3    0    1
 -2      2619      2706      2724      2736
 -1      8553    3    0    1
 -2      1358      1425      1478      2401
 -1      8554    3    0    1
 -2      1425       352      1478      2401
 -1      8555    3    0    1
 -2      1269      1358      2314      2401
 -1      8556    3    0    1
 -2      1046      1044      2596      2725
 -1      8557    3    0    1
 -2      1269      2596      2634      2725
 -1      8558    3    0    1
 -2      2596      1249      2656      2725
 -1      8559    3    0    1
 -2      1302      1259      2656      2725
 -1      8560    3    0    1
 -2      2634      1437      2401      2725
 -1      8561    3    0    1
 -2      1358      2634      2401      2725
 -1      8562    3    0    1
 -2      1269      1358      2401      2725
 -1      8563    3    0    1
 -2      1358      1269      2634      2725
 -1      8564    3    0    1
 -2      2634      2596      2656      2725
 -1      8565    3    0    1
 -2      1259      2634      2656      2725
 -1      8566    3    0    1
 -2      1293      1302      2656      2725
 -1      8567    3    0    1
 -2      1249      1293      2656      2725
 -1      8568    3    0    1
 -2      2634      1259      1437      2725
 -1      8569    3    0    1
 -2      2266      1269      2314      2725
 -1      8570    3    0    1
 -2      1249      1044      2273      2725
 -1      8571    3    0    1
 -2      2311      1259      2374      2725
 -1      8572    3    0    1
 -2      1046      1269      2266      2725
 -1      8573    3    0    1
 -2      1259      1302      2374      2725
 -1      8574    3    0    1
 -2      1259      2311      2398      2725
 -1      8575    3    0    1
 -2      1437      2398      2401      2725
 -1      8576    3    0    1
 -2      1437      1259      2398      2725
 -1      8577    3    0    1
 -2      1351      1303      2376      2403
 -1      8578    3    0    1
 -2      1359      1426      2654      1512
 -1      8579    3    0    1
 -2      2586      2673      2388      1512
 -1      8580    3    0    1
 -2      2374      1449      2431      2451
 -1      8581    3    0    1
 -2      2586      2654      2673      1512
 -1      8582    3    0    1
 -2      2586      1439      2654      1512
 -1      8583    3    0    1
 -2      2673      2654      2681      1512
 -1      8584    3    0    1
 -2      2673      2681      2697      1512
 -1      8585    3    0    1
 -2      2274      2342      2344      2737
 -1      8586    3    0    1
 -2      2342      2274      2665      2737
 -1      8587    3    0    1
 -2      2343      2344      2407      2737
 -1      8588    3    0    1
 -2      1250      2342      2665      2737
 -1      8589    3    0    1
 -2      1250      2535      2593      2737
 -1      8590    3    0    1
 -2      1341      1291      2680      2405
 -1      8591    3    0    1
 -2      1250      2665      2535      2737
 -1      8592    3    0    1
 -2      1297      1348      2593      2737
 -1      8593    3    0    1
 -2      1486      2701      1507      2738
 -1      8594    3    0    1
 -2      2228      1277      1475      2440
 -1      8595    3    0    1
 -2      1490      1398      2406      2407
 -1      8596    3    0    1
 -2      1398      2344      2406      2407
 -1      8597    3    0    1
 -2      2731      1242      2440      2738
 -1      8598    3    0    1
 -2      2620      2688      1507      2727
 -1      8599    3    0    1
 -2      2688      2620      2701      2727
 -1      8600    3    0    1
 -2      2701      2620      1507      2727
 -1      8601    3    0    1
 -2      2691       369      2727      1501
 -1      8602    3    0    1
 -2      1313      2660      2701      2727
 -1      8603    3    0    1
 -2      2660      1313      2691      2727
 -1      8604    3    0    1
 -2       369      1501      1507      2727
 -1      8605    3    0    1
 -2      2700       369      1507      2727
 -1      8606    3    0    1
 -2      2379      1412      2714      2408
 -1      8607    3    0    1
 -2      2316      2379      2714      2408
 -1      8608    3    0    1
 -2      2379      2316      2714      2367
 -1      8609    3    0    1
 -2      1414      1261      2699      2408
 -1      8610    3    0    1
 -2      1412      1414      2699      2408
 -1      8611    3    0    1
 -2      1261      1412      2699      2408
 -1      8612    3    0    1
 -2      1432      1481      2379      2408
 -1      8613    3    0    1
 -2      2490      2506      2553      2728
 -1      8614    3    0    1
 -2      2553      2506      2621      2728
 -1      8615    3    0    1
 -2      2621      1242      2714      2728
 -1      8616    3    0    1
 -2      2553      2621      2714      2728
 -1      8617    3    0    1
 -2      1242      2553      2714      2728
 -1      8618    3    0    1
 -2      2536      2183      2621      2728
 -1      8619    3    0    1
 -2      1892      2067      2522      2728
 -1      8620    3    0    1
 -2      2067      2490      2553      2728
 -1      8621    3    0    1
 -2      2067      1892      2490      2728
 -1      8622    3    0    1
 -2      2097      2488      2188      2728
 -1      8623    3    0    1
 -2      2701      1486      2404      2728
 -1      8624    3    0    1
 -2      2620      2701      2404      2728
 -1      8625    3    0    1
 -2      2522      2553      2609      2728
 -1      8626    3    0    1
 -2      2609      2553      2701      2728
 -1      8627    3    0    1
 -2      2522      2609      2701      2728
 -1      8628    3    0    1
 -2      1305      1242      2621      2728
 -1      8629    3    0    1
 -2      2183      1305      2621      2728
 -1      8630    3    0    1
 -2      2470      2067      2553      2728
 -1      8631    3    0    1
 -2      2067      2470      2522      2728
 -1      8632    3    0    1
 -2      2522      2470      2553      2728
 -1      8633    3    0    1
 -2      1242      2183      2188      2728
 -1      8634    3    0    1
 -2      1242      2188      2404      2728
 -1      8635    3    0    1
 -2      2183      2097      2188      2728
 -1      8636    3    0    1
 -2      1486      1242      2404      2728
 -1      8637    3    0    1
 -2      2183      1242      1305      2728
 -1      8638    3    0    1
 -2      1496       357      2718      2729
 -1      8639    3    0    1
 -2      2287      1343      1496      2729
 -1      8640    3    0    1
 -2      2359      2287      1496      2729
 -1      8641    3    0    1
 -2      2596      2524      2634      2730
 -1      8642    3    0    1
 -2      2524      2491      2510      2730
 -1      8643    3    0    1
 -2      2491      2524      2510      2112
 -1      8644    3    0    1
 -2      2723      2431      1302      1293
 -1      8645    3    0    1
 -2      2491      2521      2656      2730
 -1      8646    3    0    1
 -2      2352      2322      2676      2743
 -1      8647    3    0    1
 -2      2432      2400      2434      2743
 -1      8648    3    0    1
 -2      2521      2491      2596      2730
 -1      8649    3    0    1
 -2      2596      2634      2656      2730
 -1      8650    3    0    1
 -2      2521      2596      2656      2730
 -1      8651    3    0    1
 -2      2586      2673      1480      2730
 -1      8652    3    0    1
 -2      1480      2673      2402      2730
 -1      8653    3    0    1
 -2      2203      1259      1437      2730
 -1      8654    3    0    1
 -2      2298      2203      1437      2730
 -1      8655    3    0    1
 -2      2189      1259      2203      2730
 -1      8656    3    0    1
 -2      2327      2375      2436      2745
 -1      8657    3    0    1
 -2      2298      1437      2402      2730
 -1      8658    3    0    1
 -2      1437      1480      2402      2730
 -1      8659    3    0    1
 -2      2415      1456      1436      2386
 -1      8660    3    0    1
 -2      1456      1374      2707      2415
 -1      8661    3    0    1
 -2      1498       109      2705      2417
 -1      8662    3    0    1
 -2      1440      1491      2386      2415
 -1      8663    3    0    1
 -2      1281      2639      2351      2413
 -1      8664    3    0    1
 -2      2351      1430      1515      2413
 -1      8665    3    0    1
 -2      2688      1503      2389      2446
 -1      8666    3    0    1
 -2      1502      2430      2447      2455
 -1      8667    3    0    1
 -2      2318      2720      2412      2414
 -1      8668    3    0    1
 -2      2318      2377      2720      2414
 -1      8669    3    0    1
 -2      2642      1307      2412      2414
 -1      8670    3    0    1
 -2       238      1500      1503      2455
 -1      8671    3    0    1
 -2      1372      2642      2720      2414
 -1      8672    3    0    1
 -2      2720      2642      2412      2414
 -1      8673    3    0    1
 -2      1434      2318      2412      2414
 -1      8674    3    0    1
 -2      2677      1460      1503      2455
 -1      8675    3    0    1
 -2      2620      2688      2389      2446
 -1      8676    3    0    1
 -2      1434      1309      2318      2414
 -1      8677    3    0    1
 -2      2620      2219      2418      2446
 -1      8678    3    0    1
 -2      1498      2705      2712      2417
 -1      8679    3    0    1
 -2      2712      2705      2713      2417
 -1      8680    3    0    1
 -2      2713      2705      2718      2417
 -1      8681    3    0    1
 -2      2473      2545      2685      2740
 -1      8682    3    0    1
 -2      2705       109      2718      2417
 -1      8683    3    0    1
 -2      2700      2688      1507      2418
 -1      8684    3    0    1
 -2      1507      2688      2404      2418
 -1      8685    3    0    1
 -2      2620      2219      2404      2418
 -1      8686    3    0    1
 -2      2688      2620      2404      2418
 -1      8687    3    0    1
 -2      1085      2553      2714      2731
 -1      8688    3    0    1
 -2      1085      1083      2553      2731
 -1      8689    3    0    1
 -2      1486      1242      2701      2738
 -1      8690    3    0    1
 -2      2627      1280      2345      2443
 -1      8691    3    0    1
 -2      2387      2228      2440      2738
 -1      8692    3    0    1
 -2      1237      2227      2228      2731
 -1      8693    3    0    1
 -2      1237      1083      2227      2731
 -1      8694    3    0    1
 -2      2228      2731      2440      2738
 -1      8695    3    0    1
 -2      1507      2700      2418      2454
 -1      8696    3    0    1
 -2      2228      1237      2731      2738
 -1      8697    3    0    1
 -2      2164      2181      1285      2732
 -1      8698    3    0    1
 -2      2164      1285      2287      2732
 -1      8699    3    0    1
 -2      1285      1343      2287      2732
 -1      8700    3    0    1
 -2      1285      2181      1376      2732
 -1      8701    3    0    1
 -2       238      2700      1503      2733
 -1      8702    3    0    1
 -2       238      2691      2733      1500
 -1      8703    3    0    1
 -2      1500       238      1503      2733
 -1      8704    3    0    1
 -2      1292      2628      2663      2422
 -1      8705    3    0    1
 -2      2663      2628      2382      2422
 -1      8706    3    0    1
 -2      2528      2378      2717      2734
 -1      8707    3    0    1
 -2      2097      2490      2179      2734
 -1      8708    3    0    1
 -2      2097      2115      2490      2734
 -1      8709    3    0    1
 -2      2179      2490      2536      2734
 -1      8710    3    0    1
 -2      1292      1342      2698      2422
 -1      8711    3    0    1
 -2      1708      2173      2491      2734
 -1      8712    3    0    1
 -2      2115      2133      2490      2734
 -1      8713    3    0    1
 -2      2378      1253      2717      2734
 -1      8714    3    0    1
 -2      2491      2528      2717      2734
 -1      8715    3    0    1
 -2      2491      2173      2189      2734
 -1      8716    3    0    1
 -2      2545      2595      2685      2740
 -1      8717    3    0    1
 -2      1487      1504      2422      2423
 -1      8718    3    0    1
 -2      2297      2178      2685      2740
 -1      8719    3    0    1
 -2      2530      2473      2685      2740
 -1      8720    3    0    1
 -2      2590      2535      2717      2734
 -1      8721    3    0    1
 -2      1253      2590      2717      2734
 -1      8722    3    0    1
 -2      1854      2491      2535      2734
 -1      8723    3    0    1
 -2      2490      1854      2535      2734
 -1      8724    3    0    1
 -2      2491      2189      2528      2734
 -1      8725    3    0    1
 -2      2528      2189      2378      2734
 -1      8726    3    0    1
 -2      2536      2490      2590      2734
 -1      8727    3    0    1
 -2      2521      2491      2717      2734
 -1      8728    3    0    1
 -2      2491      2521      2535      2734
 -1      8729    3    0    1
 -2      2535      2521      2717      2734
 -1      8730    3    0    1
 -2      2590      1253      1407      2734
 -1      8731    3    0    1
 -2      2536      2590      1407      2734
 -1      8732    3    0    1
 -2      2194      2536      1407      2734
 -1      8733    3    0    1
 -2      2194      2179      2536      2734
 -1      8734    3    0    1
 -2      2173      1708      2179      2734
 -1      8735    3    0    1
 -2      2173      2179      2378      2734
 -1      8736    3    0    1
 -2      1708      2097      2179      2734
 -1      8737    3    0    1
 -2      2189      2173      2378      2734
 -1      8738    3    0    1
 -2      2179      1253      2378      2734
 -1      8739    3    0    1
 -2      1253      2179      1407      2734
 -1      8740    3    0    1
 -2      2179      2194      1407      2734
 -1      8741    3    0    1
 -2      1466      2252      2353      2424
 -1      8742    3    0    1
 -2      1344      1336      1492      2426
 -1      8743    3    0    1
 -2      1464      1508      2409      2426
 -1      8744    3    0    1
 -2      1230      2590      2665      2741
 -1      8745    3    0    1
 -2      2321      2665      2370      2741
 -1      8746    3    0    1
 -2      1466      2353      1517      2425
 -1      8747    3    0    1
 -2      2371      2397      2429      2741
 -1      8748    3    0    1
 -2      1506       377      1517      2425
 -1      8749    3    0    1
 -2      2321      2370      2397      2741
 -1      8750    3    0    1
 -2      2371      2321      2397      2741
 -1      8751    3    0    1
 -2      1505      1444      1508      2426
 -1      8752    3    0    1
 -2       378      1505      1508      2426
 -1      8753    3    0    1
 -2      2351      1281      2413      2427
 -1      8754    3    0    1
 -2      1495      1400      1515      2427
 -1      8755    3    0    1
 -2      1400      2351      1515      2427
 -1      8756    3    0    1
 -2       109      1495      1515      2427
 -1      8757    3    0    1
 -2      1400      1281      2351      2427
 -1      8758    3    0    1
 -2      2510      2524      2730      2742
 -1      8759    3    0    1
 -2      2429      1413      2741      2450
 -1      8760    3    0    1
 -2      1413      1451      2741      2450
 -1      8761    3    0    1
 -2      1407      2397      2741      2450
 -1      8762    3    0    1
 -2      2524      2586      2730      2742
 -1      8763    3    0    1
 -2      2388      1439      2726      2742
 -1      8764    3    0    1
 -2      1451      1407      2741      2450
 -1      8765    3    0    1
 -2      2677      1236      2687      2430
 -1      8766    3    0    1
 -2      2545      2473      2595      2740
 -1      8767    3    0    1
 -2       434      1504      2423      2448
 -1      8768    3    0    1
 -2      1278      2595      2676      2744
 -1      8769    3    0    1
 -2      1234      1273      2650      2743
 -1      8770    3    0    1
 -2      2369      2400      2432      2743
 -1      8771    3    0    1
 -2      1278      2352      2676      2743
 -1      8772    3    0    1
 -2      2322      2317      2676      2743
 -1      8773    3    0    1
 -2      1449      1356      2374      2431
 -1      8774    3    0    1
 -2      1375      1278      2650      2743
 -1      8775    3    0    1
 -2      1356      2311      2374      2431
 -1      8776    3    0    1
 -2      1461      2619      1462      2736
 -1      8777    3    0    1
 -2       435       438      2433      2736
 -1      8778    3    0    1
 -2       438       435      1462      2736
 -1      8779    3    0    1
 -2      1463       435      2433      2736
 -1      8780    3    0    1
 -2       438      1469      2433      2736
 -1      8781    3    0    1
 -2       435      1461      1462      2736
 -1      8782    3    0    1
 -2      1433      1484      2432      2434
 -1      8783    3    0    1
 -2      1484      1435      2432      2434
 -1      8784    3    0    1
 -2       386      1435      1484      2434
 -1      8785    3    0    1
 -2      1435      1373      2432      2434
 -1      8786    3    0    1
 -2       369       238      2700      2454
 -1      8787    3    0    1
 -2      1348       204      1483      2438
 -1      8788    3    0    1
 -2      2436      2452      1488      2384
 -1      8789    3    0    1
 -2      1298      2327      2375      2436
 -1      8790    3    0    1
 -2      1496      2453      1494      1399
 -1      8791    3    0    1
 -2      2327      1488      2384      2436
 -1      8792    3    0    1
 -2      2327      1298      1488      2436
 -1      8793    3    0    1
 -2      2388      2673      2435      2437
 -1      8794    3    0    1
 -2      2673      2388      1512      2437
 -1      8795    3    0    1
 -2      1369      1348      1483      2438
 -1      8796    3    0    1
 -2      1369      1490      2406      2438
 -1      8797    3    0    1
 -2      1483       204      1490      2438
 -1      8798    3    0    1
 -2      1294      1369      2406      2438
 -1      8799    3    0    1
 -2      1369      1483      1490      2438
 -1      8800    3    0    1
 -2      2325      2585      2405      2439
 -1      8801    3    0    1
 -2       376      1447      1452      2439
 -1      8802    3    0    1
 -2      2585      1452      2680      2439
 -1      8803    3    0    1
 -2      2405      2680      2585      1291
 -1      8804    3    0    1
 -2      2680      2405      2585      2439
 -1      8805    3    0    1
 -2      1489      1371      2405      2439
 -1      8806    3    0    1
 -2      1341      1489      2405      2439
 -1      8807    3    0    1
 -2      1341      1447      1489      2439
 -1      8808    3    0    1
 -2      1447       376      1489      2439
 -1      8809    3    0    1
 -2      2665      2274      2370      2737
 -1      8810    3    0    1
 -2      2407      2406      2438      2737
 -1      8811    3    0    1
 -2      2406      1294      2438      2737
 -1      8812    3    0    1
 -2      1294      1348      2438      2737
 -1      8813    3    0    1
 -2      1253      2535      2590      2737
 -1      8814    3    0    1
 -2      2590      2535      2665      2737
 -1      8815    3    0    1
 -2      2429      2397      1476      2450
 -1      8816    3    0    1
 -2       213      1451      1473      2450
 -1      8817    3    0    1
 -2      1476      1485      2429      2450
 -1      8818    3    0    1
 -2      2342      1250      2344      2737
 -1      8819    3    0    1
 -2      2344      1250      2406      2737
 -1      8820    3    0    1
 -2      1297      2343      2407      2737
 -1      8821    3    0    1
 -2      1250      1294      2406      2737
 -1      8822    3    0    1
 -2      1297      1253      2343      2737
 -1      8823    3    0    1
 -2      2274      2343      2370      2737
 -1      8824    3    0    1
 -2      1297      2407      2438      2737
 -1      8825    3    0    1
 -2      2343      1253      2370      2737
 -1      8826    3    0    1
 -2      1348      1297      2438      2737
 -1      8827    3    0    1
 -2      2397      2429      2741      2450
 -1      8828    3    0    1
 -2      1513      1475      2441      2442
 -1      8829    3    0    1
 -2      1237      2553      2731      2738
 -1      8830    3    0    1
 -2      2553      1237      2701      2738
 -1      8831    3    0    1
 -2      1507      2701      2727      2738
 -1      8832    3    0    1
 -2      2701      1313      2727      2738
 -1      8833    3    0    1
 -2      1313      1468      2727      2738
 -1      8834    3    0    1
 -2      1507      1468      2442      2738
 -1      8835    3    0    1
 -2      1468      1507      2727      2738
 -1      8836    3    0    1
 -2      1242      1486      2440      2738
 -1      8837    3    0    1
 -2      2440      1486      2441      2738
 -1      8838    3    0    1
 -2      1313      2387      2442      2738
 -1      8839    3    0    1
 -2      1313      1237      2387      2738
 -1      8840    3    0    1
 -2      1237      2228      2387      2738
 -1      8841    3    0    1
 -2      1486      1507      2441      2738
 -1      8842    3    0    1
 -2      1468      1313      2442      2738
 -1      8843    3    0    1
 -2      2411      2385      2444      2739
 -1      8844    3    0    1
 -2      2241      1229      2647      2739
 -1      8845    3    0    1
 -2      2222      2241      2647      2739
 -1      8846    3    0    1
 -2      2661      1453      1459      2739
 -1      8847    3    0    1
 -2      1459      2411      2444      2739
 -1      8848    3    0    1
 -2      2661      1459      2704      2739
 -1      8849    3    0    1
 -2      1378      2661      2704      2739
 -1      8850    3    0    1
 -2      1443      1378      2704      2739
 -1      8851    3    0    1
 -2      1443      1459      2444      2739
 -1      8852    3    0    1
 -2      1459      1443      2704      2739
 -1      8853    3    0    1
 -2      2284      1296      2385      2739
 -1      8854    3    0    1
 -2      1296      1378      2385      2739
 -1      8855    3    0    1
 -2      2281      1296      2284      2739
 -1      8856    3    0    1
 -2      2385      1378      2444      2739
 -1      8857    3    0    1
 -2      1229      2222      2410      2739
 -1      8858    3    0    1
 -2      1453      1229      2410      2739
 -1      8859    3    0    1
 -2      1453      2410      2411      2739
 -1      8860    3    0    1
 -2       937      1296      2281      2739
 -1      8861    3    0    1
 -2      2222      1229      2241      2739
 -1      8862    3    0    1
 -2      1459      1453      2411      2739
 -1      8863    3    0    1
 -2      1378      1443      2444      2739
 -1      8864    3    0    1
 -2      2595      1406      2735      2744
 -1      8865    3    0    1
 -2      1337      1233      2595      2744
 -1      8866    3    0    1
 -2      1445      2425      2744      1477
 -1      8867    3    0    1
 -2      2595      1233      2676      2744
 -1      8868    3    0    1
 -2      2473      2572      2595      2740
 -1      8869    3    0    1
 -2      1406      2595      2735      2740
 -1      8870    3    0    1
 -2      2595      2572      2735      2740
 -1      8871    3    0    1
 -2      2530      2297      2645      2740
 -1      8872    3    0    1
 -2      2572      2530      2645      2740
 -1      8873    3    0    1
 -2      1477      1406      2735      2740
 -1      8874    3    0    1
 -2      2645      1477      2735      2740
 -1      8875    3    0    1
 -2      2572      2645      2735      2740
 -1      8876    3    0    1
 -2      1477      2645      2393      2740
 -1      8877    3    0    1
 -2      2645      2297      2393      2740
 -1      8878    3    0    1
 -2      1278      1406      2297      2740
 -1      8879    3    0    1
 -2      2297      1406      1477      2740
 -1      8880    3    0    1
 -2      2297      1477      2393      2740
 -1      8881    3    0    1
 -2      2224      2388      2726      2742
 -1      8882    3    0    1
 -2      1253      2370      2737      2741
 -1      8883    3    0    1
 -2      1451      1407      2715      2741
 -1      8884    3    0    1
 -2      1260      1413      2715      2741
 -1      8885    3    0    1
 -2      2524      2510      2726      2742
 -1      8886    3    0    1
 -2      1413      1451      2715      2741
 -1      8887    3    0    1
 -2      1230      2321      2371      2741
 -1      8888    3    0    1
 -2      1260      1230      2371      2741
 -1      8889    3    0    1
 -2      2370      1407      2397      2741
 -1      8890    3    0    1
 -2      1260      2371      2429      2741
 -1      8891    3    0    1
 -2      2510      2149      2726      2742
 -1      8892    3    0    1
 -2      1253      1407      2370      2741
 -1      8893    3    0    1
 -2      1413      1260      2429      2741
 -1      8894    3    0    1
 -2      2388      2586      1512      2742
 -1      8895    3    0    1
 -2      2586      1439      1512      2742
 -1      8896    3    0    1
 -2      2402      2673      2435      2742
 -1      8897    3    0    1
 -2      2224      2203      2298      2742
 -1      8898    3    0    1
 -2      2224      2298      2388      2742
 -1      8899    3    0    1
 -2      2149      2203      2224      2742
 -1      8900    3    0    1
 -2      2388      2298      2435      2742
 -1      8901    3    0    1
 -2      2298      2402      2435      2742
 -1      8902    3    0    1
 -2      1439      2388      1512      2742
 -1      8903    3    0    1
 -2      1375      2643      1441      2743
 -1      8904    3    0    1
 -2      2317      1234      2650      2743
 -1      8905    3    0    1
 -2      1273      1373      2643      2743
 -1      8906    3    0    1
 -2      2643      1373      1441      2743
 -1      8907    3    0    1
 -2      1373      2432      2434      2743
 -1      8908    3    0    1
 -2      1441      1373      2434      2743
 -1      8909    3    0    1
 -2      1273      2369      2432      2743
 -1      8910    3    0    1
 -2      1273      1234      2369      2743
 -1      8911    3    0    1
 -2      1278      1375      2400      2743
 -1      8912    3    0    1
 -2      1234      2322      2369      2743
 -1      8913    3    0    1
 -2      2352      1278      2400      2743
 -1      8914    3    0    1
 -2      2400      1375      2434      2743
 -1      8915    3    0    1
 -2      1373      1273      2432      2743
 -1      8916    3    0    1
 -2      1234      2317      2322      2743
 -1      8917    3    0    1
 -2      1375      1441      2434      2743
 -1      8918    3    0    1
 -2      2733      1467      2447      2455
 -1      8919    3    0    1
 -2      1500      1467      1503      2455
 -1      8920    3    0    1
 -2      2677      1503      2733      2455
 -1      8921    3    0    1
 -2      2447      2733      2677      1312
 -1      8922    3    0    1
 -2      2733      2447      2677      2455
 -1      8923    3    0    1
 -2      1516      1502      2447      2455
 -1      8924    3    0    1
 -2      1467      1516      2447      2455
 -1      8925    3    0    1
 -2      1500       238      1516      2455
 -1      8926    3    0    1
 -2      1467      1500      1516      2455
 -1      8927    3    0    1
 -2      1477      1445      2735      2744
 -1      8928    3    0    1
 -2      1445      1337      2735      2744
 -1      8929    3    0    1
 -2      1406      2424      2425      2744
 -1      8930    3    0    1
 -2      1477      1406      2425      2744
 -1      8931    3    0    1
 -2      2353      1337      2449      2744
 -1      8932    3    0    1
 -2      1233      1337      2353      2744
 -1      8933    3    0    1
 -2      1406      1278      2424      2744
 -1      8934    3    0    1
 -2      2252      1233      2353      2744
 -1      8935    3    0    1
 -2      1337      1445      2449      2744
 -1      8936    3    0    1
 -2      1457      2695      2711      2745
 -1      8937    3    0    1
 -2      1470      1457      2711      2745
 -1      8938    3    0    1
 -2       357      1494      1496      2458
 -1      8939    3    0    1
 -2      2384      2436      2452      2745
 -1      8940    3    0    1
 -2      1377      1442      2711      2745
 -1      8941    3    0    1
 -2      1442      1470      2711      2745
 -1      8942    3    0    1
 -2      1328      1457      2375      2745
 -1      8943    3    0    1
 -2      1295      2327      2384      2745
 -1      8944    3    0    1
 -2      1295      2295      2327      2745
 -1      8945    3    0    1
 -2      2375      1457      2436      2745
 -1      8946    3    0    1
 -2      1295       915      2295      2745
 -1      8947    3    0    1
 -2      1377      1295      2384      2745
 -1      8948    3    0    1
 -2      1280      1496      2453      2458
 -1      8949    3    0    1
 -2      1377      2384      2452      2745
 -1      8950    3    0    1
 -2      1442      1377      2452      2745
 -3
    1PSTEP                         1           1           1          
  100CL  101 1.000000000        2745                     0    1           1
 -4  DISP        4    1
 -5  D1          1    2    1    0
 -5  D2          1    2    2    0
 -5  D3          1    2    3    0
 -5  ALL         1    2    0    0    1ALL
 -1         1-1.53378E-02 2.35366E-03-5.01188E-01
 -1         2-5.65450E-02-3.53567E-03-5.00098E-01
 -1         3-5.61460E-02-3.94882E-03-5.04046E-01
 -1         4-6.54815E-02 3.22584E-04-2.45671E-01
 -1         5-6.32294E-02-9.97202E-04-3.79741E-01
 -1         6-6.50590E-02 1.45964E-03-2.46091E-01
 -1         7-6.38037E-02 1.45748E-03-1.06034E-01
 -1         8-6.47562E-02 8.02968E-04-2.46015E-01
 -1         9-6.41029E-02 1.66225E-03-1.04584E-01
 -1        10-1.95156E-02-1.17625E-03-3.82132E-01
 -1        11-1.56749E-02-3.27358E-03-5.01516E-01
 -1        12-6.24842E-02-7.43196E-04-3.81578E-01
 -1        13-1.90398E-02 2.69418E-04-1.04088E-01
 -1        14-1.90811E-02 9.31858E-04-3.83623E-01
 -1        15-6.48840E-02 1.22065E-03-2.46736E-01
 -1        16-2.07948E-02-6.69691E-05-2.47882E-01
 -1        17-6.20543E-02-1.27787E-03-3.81318E-01
 -1        18-2.02620E-02 2.57234E-03-2.45750E-01
 -1        19-6.31262E-02-1.04075E-03-3.79978E-01
 -1        20-1.55469E-02-3.90209E-03-5.01512E-01
 -1        21-5.90610E-02-2.66928E-02-2.45227E-01
 -1        22-5.91014E-02-2.57195E-02-1.05102E-01
 -1        23-5.98584E-02-2.67594E-02-2.46701E-01
 -1        24-5.95342E-02-2.71948E-02-2.45329E-01
 -1        25-5.71650E-02-2.57659E-02-3.78492E-01
 -1        26-5.78667E-02-2.50933E-02-3.79091E-01
 -1        27-6.01071E-02-2.71118E-02-2.45007E-01
 -1        28-1.96861E-02-8.38561E-03-1.06038E-01
 -1        29-5.80166E-02-2.53323E-02-1.06337E-01
 -1        30-5.23196E-02-2.21929E-02-5.02016E-01
 -1        31-1.69326E-02-9.33477E-03-3.80538E-01
 -1        32-5.15814E-02-2.25079E-02-5.01709E-01
 -1        33-5.79291E-02-2.57346E-02-3.80143E-01
 -1        34-1.80994E-02-7.36172E-03-3.82067E-01
 -1        35-5.74562E-02-2.58117E-02-3.78253E-01
 -1        36-1.90940E-02-7.79824E-03-2.47124E-01
 -1        37-1.78519E-02-1.05565E-02-2.43564E-01
 -1        38-1.83280E-02-9.99951E-03-2.46387E-01
 -1        39-4.67594E-02-4.51698E-02-2.44561E-01
 -1        40-4.73280E-02-4.48891E-02-2.44089E-01
 -1        41-4.75680E-02-4.55183E-02-2.43696E-01
 -1        42-4.45773E-02-4.56312E-02-1.06192E-01
 -1        43-1.21342E-02-1.33696E-02-1.04989E-01
 -1        44-4.38685E-02-4.55645E-02-1.04882E-01
 -1        45-1.52727E-02-1.42072E-02-2.46060E-01
 -1        46-1.34420E-02-1.39652E-02-3.80704E-01
 -1        47-4.04524E-02-3.96193E-02-5.01994E-01
 -1        48-3.97975E-02-3.94758E-02-5.01648E-01
 -1        49-4.44489E-02-4.41756E-02-3.78206E-01
 -1        50-1.60256E-02-1.34672E-02-2.45223E-01
 -1        51-4.40938E-02-4.37369E-02-3.78500E-01
 -1        52-4.57098E-02-4.42432E-02-3.78615E-01
 -1        53-4.49400E-02-4.34399E-02-3.79086E-01
 -1        54-4.73915E-02-4.55337E-02-2.45102E-01
 -1        55-1.69604E-02-1.35795E-02-2.43391E-01
 -1        56-1.54898E-02-1.21890E-02-3.78247E-01
 -1        57-1.42572E-02-1.53150E-02-2.43929E-01
 -1        58-1.25341E-02-1.48678E-02-3.79290E-01
 -1        59-2.46688E-02-5.95607E-02-2.47608E-01
 -1        60-2.59891E-02-5.91445E-02-2.46363E-01
 -1        61-2.49733E-02-5.94129E-02-2.47185E-01
 -1        62-2.58643E-02-5.62754E-02-3.79692E-01
 -1        63-2.44775E-02-5.05114E-02-5.00654E-01
 -1        64-2.47864E-02-4.97075E-02-5.03240E-01
 -1        65-2.44862E-02-5.80646E-02-1.06400E-01
 -1        66-6.20957E-03-1.91108E-02-2.48281E-01
 -1        67-7.44224E-03-1.66067E-02-1.05828E-01
 -1        68-2.53298E-02-5.71844E-02-3.80958E-01
 -1        69-3.86061E-03-1.50942E-02-5.01118E-01
 -1        70-8.81933E-03-1.29926E-02-5.00316E-01
 -1        71-2.51071E-02-5.83820E-02-1.06124E-01
 -1        72-9.70947E-03-1.67404E-02-3.82605E-01
 -1        73-2.60857E-02-5.99834E-02-2.46362E-01
 -1        74-2.58707E-02-5.62255E-02-3.79436E-01
 -1        75-2.54985E-02-5.67215E-02-3.81588E-01
 -1        76 2.05135E-04-6.39568E-02-2.46252E-01
 -1        77 2.47412E-03-6.36012E-02-1.08110E-01
 -1        78 1.20607E-04-6.22516E-02-3.80471E-01
 -1        79-6.54323E-04-6.45221E-02-2.46953E-01
 -1        80 2.55335E-03-6.31117E-02-1.07374E-01
 -1        81 2.26236E-03-1.55021E-02-5.01731E-01
 -1        82 3.16999E-04-1.88877E-02-3.82542E-01
 -1        83-1.28568E-03-5.54288E-02-5.02795E-01
 -1        84-1.05340E-03-5.56117E-02-5.02430E-01
 -1        85 1.42822E-04-1.96066E-02-1.08797E-01
 -1        86-1.66375E-03-2.04633E-02-2.48597E-01
 -1        87-3.60393E-04-6.21201E-02-3.81170E-01
 -1        88-1.02233E-03-1.85683E-02-3.83084E-01
 -1        89-2.42440E-03-1.86818E-02-3.81161E-01
 -1        90 1.50727E-03-1.87021E-02-3.80144E-01
 -1        91-2.87790E-03-2.03106E-02-2.46971E-01
 -1        92 8.28357E-04-1.99513E-02-2.47999E-01
 -1        93-2.76158E-04-6.27689E-02-3.81518E-01
 -1        94-5.06615E-04-6.43940E-02-2.47527E-01
 -1        95 1.29042E-03-1.97820E-02-2.46980E-01
 -1        96 1.06974E-04-6.39509E-02-2.46934E-01
 -1        97 1.08725E-04-6.26801E-02-3.80359E-01
 -1        98 2.09914E-02-5.11299E-02-5.01446E-01
 -1        99 2.06493E-02-5.11480E-02-5.02388E-01
 -1       100 2.38758E-02-5.83444E-02-3.80119E-01
 -1       101 2.45142E-02-5.96229E-02-2.44162E-01
 -1       102 2.39104E-02-5.72387E-02-3.79166E-01
 -1       103 2.38338E-02-5.70973E-02-3.79156E-01
 -1       104 2.56294E-02-5.93732E-02-2.43737E-01
 -1       105 2.59024E-02-5.94381E-02-2.44163E-01
 -1       106 6.62072E-03-1.66338E-02-1.02465E-01
 -1       107 2.53041E-02-5.81192E-02-1.02671E-01
 -1       108 2.56181E-02-5.82622E-02-1.01947E-01
 -1       109 8.60968E-03-1.26971E-02-5.00032E-01
 -1       110 7.40018E-03-1.71051E-02-3.81032E-01
 -1       111 4.67706E-03-1.79578E-02-3.82968E-01
 -1       112 2.46820E-02-5.91836E-02-2.44622E-01
 -1       113 7.24512E-03-1.82722E-02-2.46289E-01
 -1       114 2.40667E-02-5.81426E-02-3.80663E-01
 -1       115 8.69237E-03-1.78996E-02-2.44887E-01
 -1       116 9.47043E-03-1.63107E-02-3.78781E-01
 -1       117 3.98364E-02-3.84933E-02-5.00150E-01
 -1       118 4.59835E-02-4.29750E-02-3.78231E-01
 -1       119 4.58442E-02-4.45361E-02-1.00768E-01
 -1       120 1.52987E-02-1.29253E-02-2.42166E-01
 -1       121 4.62092E-02-4.47605E-02-1.00322E-01
 -1       122 4.70885E-02-4.48282E-02-2.41678E-01
 -1       123 4.57910E-02-4.27867E-02-3.77806E-01
 -1       124 4.08400E-02-3.86481E-02-5.00822E-01
 -1       125 4.70311E-02-4.47956E-02-2.41124E-01
 -1       126 1.44527E-02-1.45130E-02-2.42695E-01
 -1       127 1.33558E-02-1.35814E-02-3.80914E-01
 -1       128 1.55601E-02-1.10614E-02-3.77518E-01
 -1       129 4.64359E-02-4.34828E-02-3.77662E-01
 -1       130 4.72033E-02-4.51758E-02-2.41972E-01
 -1       131 1.25766E-02-1.55677E-02-2.41257E-01
 -1       132 4.72934E-02-4.53819E-02-2.40736E-01
 -1       133 4.56696E-02-4.28104E-02-3.79198E-01
 -1       134 1.30510E-02-7.64738E-03-4.98435E-01
 -1       135 5.94323E-02-2.52612E-02-9.97915E-02
 -1       136 6.06475E-02-2.48938E-02-2.39792E-01
 -1       137 5.79911E-02-2.38560E-02-3.75484E-01
 -1       138 5.91312E-02-2.33286E-02-3.74903E-01
 -1       139 6.08021E-02-2.41192E-02-2.39188E-01
 -1       140 5.20908E-02-1.99396E-02-4.98545E-01
 -1       141 1.72779E-02-8.45672E-03-9.86826E-02
 -1       142 5.19411E-02-1.91350E-02-4.99964E-01
 -1       143 5.90739E-02-2.54148E-02-9.96815E-02
 -1       144 1.70050E-02-7.76062E-03-3.77977E-01
 -1       145 5.88484E-02-2.36647E-02-3.75897E-01
 -1       146 1.80979E-02-5.79104E-03-3.77757E-01
 -1       147 6.14361E-02-2.50025E-02-2.39935E-01
 -1       148 1.89188E-02-8.31552E-03-2.40856E-01
 -1       149 1.99613E-02-6.41822E-03-2.39664E-01
 -1       150 6.05047E-02-2.42067E-02-2.39439E-01
 -1       151 5.80077E-02-2.38328E-02-3.75785E-01
 -1       152 6.22395E-02 8.99572E-04-3.75334E-01
 -1       153 6.43080E-02 2.37806E-04-2.41314E-01
 -1       154 6.13800E-02 1.10107E-03-3.75518E-01
 -1       155 6.20970E-02 1.01563E-03-3.75656E-01
 -1       156 6.46780E-02 4.54614E-04-2.41192E-01
 -1       157 6.22335E-02 7.37186E-04-3.75885E-01
 -1       158 5.64260E-02 1.90272E-03-4.98369E-01
 -1       159 6.15343E-02 1.91236E-04-1.04947E-01
 -1       160 6.13130E-02 1.11605E-03-1.04838E-01
 -1       161 5.61526E-02 2.36181E-03-5.00555E-01
 -1       162 1.89075E-02-8.03198E-04-3.78064E-01
 -1       163 6.45548E-02 7.16598E-05-2.42234E-01
 -1       164 2.01352E-02 5.59413E-04-2.41752E-01
 -1       165 6.50147E-02 2.96251E-04-2.41531E-01
 -1       166 1.86063E-02 3.42738E-03-3.75308E-01
 -1       167 1.41952E-02 3.62950E-03-4.97764E-01
 -1       168 5.14866E-02 2.17591E-02-4.98889E-01
 -1       169 5.71436E-02 2.37065E-02-3.75595E-01
 -1       170 5.93001E-02 2.40537E-02-2.41955E-01
 -1       171 5.95418E-02 2.44161E-02-2.42543E-01
 -1       172 5.95898E-02 2.40128E-02-2.42158E-01
 -1       173 5.72003E-02 2.15360E-02-1.03414E-01
 -1       174 5.80628E-02 2.20517E-02-1.04565E-01
 -1       175 1.82850E-02 8.07935E-03-2.42834E-01
 -1       176 5.13716E-02 2.13169E-02-4.98609E-01
 -1       177 1.79217E-02 6.28023E-03-3.77395E-01
 -1       178 1.88378E-02 6.85192E-03-2.42888E-01
 -1       179 5.74969E-02 2.37572E-02-3.75835E-01
 -1       180 1.80490E-02 5.51136E-03-3.76052E-01
 -1       181 5.70724E-02 2.38254E-02-3.76047E-01
 -1       182 6.03107E-02 2.44680E-02-2.43002E-01
 -1       183 5.87018E-02 2.34338E-02-3.75586E-01
 -1       184 4.08035E-02 3.72677E-02-4.99691E-01
 -1       185 4.57420E-02 4.23454E-02-3.76419E-01
 -1       186 4.55808E-02 4.21627E-02-3.75968E-01
 -1       187 4.67851E-02 4.43074E-02-2.43491E-01
 -1       188 1.41102E-02 1.35977E-02-1.05056E-01
 -1       189 1.40428E-02 1.43574E-02-2.45046E-01
 -1       190 4.61155E-02 4.40389E-02-1.05072E-01
 -1       191 4.54067E-02 4.26725E-02-3.78072E-01
 -1       192 1.35143E-02 1.34826E-02-3.79843E-01
 -1       193 1.51381E-02 1.16754E-02-3.79614E-01
 -1       194 4.07052E-02 3.74759E-02-4.98547E-01
 -1       195 4.75949E-02 4.42340E-02-2.42331E-01
 -1       196 1.53213E-02 1.40650E-02-2.43787E-01
 -1       197 4.65538E-02 4.39630E-02-1.04132E-01
 -1       198 1.23761E-02 1.50539E-02-3.78090E-01
 -1       199 1.58068E-02 1.35662E-02-2.41322E-01
 -1       200 4.75722E-02 4.44137E-02-2.41559E-01
 -1       201 4.75293E-02 4.46410E-02-2.44515E-01
 -1       202 4.62084E-02 4.32048E-02-3.78932E-01
 -1       203 2.16214E-02 5.16018E-02-5.00445E-01
 -1       204 9.26239E-03 1.22429E-02-4.98748E-01
 -1       205 2.42519E-02 5.76441E-02-3.76520E-01
 -1       206 2.44584E-02 5.99468E-02-2.43442E-01
 -1       207 2.18597E-02 5.12401E-02-4.99326E-01
 -1       208 2.38747E-02 5.84267E-02-3.76482E-01
 -1       209 2.38186E-02 5.76027E-02-3.77401E-01
 -1       210 2.35249E-02 6.00015E-02-2.42453E-01
 -1       211 2.30314E-02 5.89041E-02-1.02745E-01
 -1       212 2.37269E-02 5.83529E-02-3.76621E-01
 -1       213 3.40341E-03 1.46567E-02-4.99645E-01
 -1       214 2.37541E-02 5.82628E-02-1.04871E-01
 -1       215 4.76800E-03 1.84326E-02-3.76996E-01
 -1       216 7.18379E-03 1.93068E-02-2.43873E-01
 -1       217 2.38405E-02 6.03783E-02-2.42316E-01
 -1       218 9.08272E-03 1.83451E-02-2.43194E-01
 -1       219 1.00588E-02 1.64428E-02-3.77738E-01
 -1       220 2.43304E-02 6.00851E-02-2.43695E-01
 -1       221-2.53513E-03 5.58452E-02-5.01235E-01
 -1       222-2.00757E-03 5.69789E-02-4.99283E-01
 -1       223-4.95078E-04 6.33255E-02-2.42125E-01
 -1       224-1.73060E-04 6.42722E-02-2.42131E-01
 -1       225 6.52156E-04 6.12059E-02-1.03812E-01
 -1       226 4.70384E-04 1.65186E-02-1.03989E-01
 -1       227-3.54995E-05 1.88705E-02-2.43265E-01
 -1       228-6.28584E-04 6.19432E-02-3.75609E-01
 -1       229 1.46043E-03 6.00614E-02-1.04183E-01
 -1       230 1.87484E-03 1.86410E-02-3.78256E-01
 -1       231 9.62727E-04 6.21892E-02-3.75362E-01
 -1       232 1.59205E-04 6.17134E-02-3.76112E-01
 -1       233-6.10997E-04 6.21184E-02-3.76245E-01
 -1       234-4.22676E-05 6.38305E-02-2.42228E-01
 -1       235-9.08359E-06 6.42397E-02-2.42770E-01
 -1       236 1.07034E-03 1.91448E-02-2.42576E-01
 -1       237-2.86798E-03 1.84117E-02-3.76167E-01
 -1       238-3.61711E-03 1.46470E-02-4.99047E-01
 -1       239-2.42172E-02 5.94657E-02-2.43510E-01
 -1       240-2.29210E-02 5.86860E-02-1.04495E-01
 -1       241-2.31593E-02 5.67219E-02-3.76066E-01
 -1       242-2.35751E-02 5.90730E-02-2.42287E-01
 -1       243-2.38614E-02 5.98911E-02-2.42296E-01
 -1       244-6.65965E-03 1.51838E-02-1.02864E-01
 -1       245-2.23525E-02 5.79456E-02-1.02800E-01
 -1       246-2.39641E-02 5.91505E-02-2.43288E-01
 -1       247-8.27003E-03 1.76638E-02-2.44040E-01
 -1       248-1.99493E-02 5.21328E-02-5.01219E-01
 -1       249-2.28090E-02 5.71077E-02-3.76325E-01
 -1       250-2.01909E-02 5.18575E-02-4.99642E-01
 -1       251-5.41152E-03 1.75644E-02-3.78097E-01
 -1       252-2.25006E-02 5.80680E-02-3.75646E-01
 -1       253-2.26822E-02 5.76183E-02-3.76390E-01
 -1       254-5.35462E-03 1.86065E-02-2.41727E-01
 -1       255-6.38571E-03 1.84981E-02-2.44455E-01
 -1       256-4.36175E-03 1.84347E-02-3.76675E-01
 -1       257-4.33390E-02 4.51816E-02-3.77158E-01
 -1       258-3.78178E-02 4.07851E-02-5.02099E-01
 -1       259-4.34243E-02 4.45796E-02-3.78250E-01
 -1       260-4.53336E-02 4.48431E-02-2.41956E-01
 -1       261-4.42111E-02 4.32996E-02-1.05054E-01
 -1       262-4.46356E-02 4.28430E-02-1.05279E-01
 -1       263-3.81275E-02 4.07741E-02-4.99689E-01
 -1       264-1.25931E-02 1.34554E-02-3.79965E-01
 -1       265-4.55258E-02 4.54095E-02-2.42540E-01
 -1       266-1.12316E-02 1.44618E-02-3.76898E-01
 -1       267-4.37913E-02 4.54027E-02-3.77321E-01
 -1       268-4.34227E-02 4.44804E-02-3.78811E-01
 -1       269-4.63862E-02 4.57021E-02-2.42543E-01
 -1       270-4.58896E-02 4.54825E-02-2.42196E-01
 -1       271-1.56518E-02 1.14081E-02-3.78563E-01
 -1       272-5.30808E-02 2.05700E-02-5.00982E-01
 -1       273-5.27867E-02 2.00850E-02-5.01872E-01
 -1       274-5.81156E-02 2.40094E-02-3.77665E-01
 -1       275-6.03009E-02 2.52379E-02-2.42908E-01
 -1       276-6.01316E-02 2.12844E-02-9.98257E-02
 -1       277-6.05380E-02 2.21670E-02-1.02355E-01
 -1       278-6.04732E-02 2.42789E-02-2.42632E-01
 -1       279-5.72569E-02 2.39063E-02-3.78030E-01
 -1       280-1.69125E-02 8.53759E-03-3.79985E-01
 -1       281-5.74567E-02 2.38230E-02-3.78433E-01
 -1       282-1.83245E-02 8.48516E-03-2.44232E-01
 -1       283-6.08436E-02 2.45487E-02-2.43279E-01
 -1       284-6.09511E-02 2.53931E-02-2.42984E-01
 -1       285-2.02475E-02 5.63063E-03-2.43094E-01
 -1       286-5.78528E-02 2.37286E-02-3.78678E-01
 -1       287 0.00000E+00 0.00000E+00 0.00000E+00
 -1       288 0.00000E+00 0.00000E+00 0.00000E+00
 -1       289 0.00000E+00 0.00000E+00 0.00000E+00
 -1       290 0.00000E+00 0.00000E+00 0.00000E+00
 -1       291 0.00000E+00 0.00000E+00 0.00000E+00
 -1       292 0.00000E+00 0.00000E+00 0.00000E+00
 -1       293 0.00000E+00 0.00000E+00 0.00000E+00
 -1       294 0.00000E+00 0.00000E+00 0.00000E+00
 -1       295 0.00000E+00 0.00000E+00 0.00000E+00
 -1       296 0.00000E+00 0.00000E+00 0.00000E+00
 -1       297 0.00000E+00 0.00000E+00 0.00000E+00
 -1       298 0.00000E+00 0.00000E+00 0.00000E+00
 -1       299 0.00000E+00 0.00000E+00 0.00000E+00
 -1       300 0.00000E+00 0.00000E+00 0.00000E+00
 -1       301 0.00000E+00 0.00000E+00 0.00000E+00
 -1       302 0.00000E+00 0.00000E+00 0.00000E+00
 -1       303 0.00000E+00 0.00000E+00 0.00000E+00
 -1       304 0.00000E+00 0.00000E+00 0.00000E+00
 -1       305 0.00000E+00 0.00000E+00 0.00000E+00
 -1       306 0.00000E+00 0.00000E+00 0.00000E+00
 -1       307 0.00000E+00 0.00000E+00 0.00000E+00
 -1       308 0.00000E+00 0.00000E+00 0.00000E+00
 -1       309 0.00000E+00 0.00000E+00 0.00000E+00
 -1       310 0.00000E+00 0.00000E+00 0.00000E+00
 -1       311 0.00000E+00 0.00000E+00 0.00000E+00
 -1       312 0.00000E+00 0.00000E+00 0.00000E+00
 -1       313 0.00000E+00 0.00000E+00 0.00000E+00
 -1       314 0.00000E+00 0.00000E+00 0.00000E+00
 -1       315 0.00000E+00 0.00000E+00 0.00000E+00
 -1       316 0.00000E+00 0.00000E+00 0.00000E+00
 -1       317 0.00000E+00 0.00000E+00 0.00000E+00
 -1       318 0.00000E+00 0.00000E+00 0.00000E+00
 -1       319 0.00000E+00 0.00000E+00 0.00000E+00
 -1       320 0.00000E+00 0.00000E+00 0.00000E+00
 -1       321 0.00000E+00 0.00000E+00 0.00000E+00
 -1       322 0.00000E+00 0.00000E+00 0.00000E+00
 -1       323 0.00000E+00 0.00000E+00 0.00000E+00
 -1       324 1.92813E-02-6.92726E-03-2.40393E-01
 -1       325 2.03487E-02-2.45586E-03-2.42596E-01
 -1       326 1.80835E-02 4.08601E-04-1.03744E-01
 -1       327 1.98272E-02-1.67250E-03-2.43272E-01
 -1       328 1.75187E-02-7.40146E-03-9.93674E-02
 -1       329 1.52720E-02 4.27460E-03-1.04060E-01
 -1       330 1.89642E-02 6.23873E-03-2.42157E-01
 -1       331 2.03825E-02 1.63858E-03-2.41252E-01
 -1       332 0.00000E+00 0.00000E+00 0.00000E+00
 -1       333 1.71350E-02 8.45533E-05-1.03873E-01
 -1       334 0.00000E+00 0.00000E+00 0.00000E+00
 -1       335 1.58040E-02-1.35691E-02-1.00572E-01
 -1       336 0.00000E+00 0.00000E+00 0.00000E+00
 -1       337 1.84376E-02-2.36849E-03-3.74585E-01
 -1       338 1.83424E-02-4.32436E-03-3.75914E-01
 -1       339 1.84725E-02 8.42667E-03-2.42391E-01
 -1       340 1.44454E-02 1.19831E-02-1.04197E-01
 -1       341 0.00000E+00 0.00000E+00 0.00000E+00
 -1       342 1.65010E-02 6.77466E-03-1.04648E-01
 -1       343 1.63692E-02-9.40313E-03-3.75810E-01
 -1       344 1.57997E-02-1.28798E-02-2.40217E-01
 -1       345 1.92424E-02-8.53703E-03-2.39437E-01
 -1       346 8.30861E-03 1.90085E-02-2.45051E-01
 -1       347 1.64631E-02 9.86827E-03-3.76322E-01
 -1       348 1.03578E-02-1.70715E-02-2.44312E-01
 -1       349 1.19277E-02-1.51055E-02-3.78991E-01
 -1       350 1.44306E-02-2.84174E-03-4.97671E-01
 -1       351 1.28568E-02-8.08804E-03-4.98607E-01
 -1       352 1.34077E-02 8.69780E-03-4.97739E-01
 -1       353 1.45640E-02-1.20222E-02-3.79316E-01
 -1       354 2.90892E-03 1.48609E-02-4.99844E-01
 -1       355 3.10073E-03 1.86517E-02-3.75767E-01
 -1       356 6.08637E-03 1.76212E-02-3.78577E-01
 -1       357 9.09626E-03-1.22504E-02-5.00073E-01
 -1       358 9.58477E-03 1.19138E-02-4.98756E-01
 -1       359 8.15335E-03 1.69399E-02-3.79311E-01
 -1       360 1.57988E-02 1.06503E-02-3.75967E-01
 -1       361 1.36773E-02 8.25633E-03-4.97895E-01
 -1       362 1.70688E-02 8.33631E-03-3.77562E-01
 -1       363 1.44593E-02-2.36364E-03-4.97912E-01
 -1       364 1.42125E-02 3.06637E-03-4.97835E-01
 -1       365 1.89789E-02 2.06307E-03-3.76849E-01
 -1       366 1.43000E-02 1.51355E-02-2.44324E-01
 -1       367 2.85703E-03-1.50603E-02-5.01648E-01
 -1       368-3.33345E-03-1.52871E-02-5.01128E-01
 -1       369-3.08266E-03 1.46181E-02-4.99097E-01
 -1       370-1.75674E-03 1.86793E-02-3.77754E-01
 -1       371-4.63995E-03-1.81991E-02-3.80517E-01
 -1       372-6.79844E-03-1.77085E-02-3.83292E-01
 -1       373-8.92350E-03-1.75890E-02-2.47748E-01
 -1       374-9.55927E-03-1.82367E-02-2.45918E-01
 -1       375-1.38805E-02 1.23550E-02-3.79904E-01
 -1       376-1.30093E-02-9.54602E-03-5.01222E-01
 -1       377-1.29553E-02 8.09607E-03-5.00475E-01
 -1       378-1.26214E-02 8.53605E-03-5.00480E-01
 -1       379-9.36456E-03-1.27600E-02-5.00351E-01
 -1       380-8.80041E-03 1.74696E-02-2.42966E-01
 -1       381-1.09938E-02-1.61471E-02-3.79185E-01
 -1       382-1.37773E-02 1.50218E-02-2.41930E-01
 -1       383-7.31224E-03 1.51045E-02-1.03273E-01
 -1       384-1.90238E-02 2.28182E-03-3.79417E-01
 -1       385-1.80227E-02 4.98276E-03-3.80492E-01
 -1       386-1.52110E-02 2.87877E-03-5.00911E-01
 -1       387-1.65023E-02 9.73585E-03-3.77887E-01
 -1       388-1.82271E-02 9.45931E-03-2.42472E-01
 -1       389-1.46871E-02 1.29623E-02-2.41871E-01
 -1       390-1.87949E-02 3.45405E-03-3.79109E-01
 -1       391-2.10219E-02-1.06048E-03-2.45543E-01
 -1       392-1.98096E-02-6.68480E-03-2.47259E-01
 -1       393-8.25353E-03-1.72683E-02-1.05601E-01
 -1       394 0.00000E+00 0.00000E+00 0.00000E+00
 -1       395 0.00000E+00 0.00000E+00 0.00000E+00
 -1       396-5.86391E-03-1.95541E-02-2.47826E-01
 -1       397 0.00000E+00 0.00000E+00 0.00000E+00
 -1       398 1.12053E-03-1.89566E-02-1.07508E-01
 -1       399 6.26964E-03-1.81563E-02-2.43623E-01
 -1       400 3.08381E-03-1.85162E-02-3.79809E-01
 -1       401 0.00000E+00 0.00000E+00 0.00000E+00
 -1       402 0.00000E+00 0.00000E+00 0.00000E+00
 -1       403 6.91727E-03-1.41124E-02-1.00658E-01
 -1       404 1.14579E-02-1.22002E-02-1.00565E-01
 -1       405 0.00000E+00 0.00000E+00 0.00000E+00
 -1       406 0.00000E+00 0.00000E+00 0.00000E+00
 -1       407-1.31408E-02-1.44495E-02-1.05058E-01
 -1       408-1.79676E-02-7.67941E-03-1.06424E-01
 -1       409 0.00000E+00 0.00000E+00 0.00000E+00
 -1       410 0.00000E+00 0.00000E+00 0.00000E+00
 -1       411 0.00000E+00 0.00000E+00 0.00000E+00
 -1       412 0.00000E+00 0.00000E+00 0.00000E+00
 -1       413 0.00000E+00 0.00000E+00 0.00000E+00
 -1       414-1.83091E-02 5.55778E-04-1.05190E-01
 -1       415-1.72449E-02 5.81513E-03-9.95862E-02
 -1       416-1.80354E-02 7.01593E-03-1.02530E-01
 -1       417-1.99476E-02 1.95397E-03-2.47699E-01
 -1       418-1.92183E-02 6.54469E-03-2.43789E-01
 -1       419-1.43292E-02 1.16087E-02-1.05089E-01
 -1       420-1.27632E-02 1.14218E-02-1.04284E-01
 -1       421-1.45693E-02 1.34637E-02-2.43400E-01
 -1       422-1.37106E-02 1.44520E-02-2.43422E-01
 -1       423-1.32803E-03 1.93046E-02-2.40443E-01
 -1       424 0.00000E+00 0.00000E+00 0.00000E+00
 -1       425 7.37208E-03 1.69381E-02-1.02886E-01
 -1       426 3.10431E-03 1.56366E-02-1.03418E-01
 -1       427 1.97012E-03 1.94509E-02-2.42823E-01
 -1       428 5.88786E-03 1.90569E-02-2.40968E-01
 -1       429 9.25117E-03 1.56948E-02-1.04559E-01
 -1       430-1.92540E-02-3.36196E-03-3.80135E-01
 -1       431-1.90420E-02-5.06011E-03-3.79678E-01
 -1       432-1.67004E-02-1.05928E-02-3.77819E-01
 -1       433-1.44713E-02-1.29499E-02-3.80524E-01
 -1       434-1.34014E-02-9.17900E-03-5.01381E-01
 -1       435-8.55683E-03 1.22636E-02-4.99587E-01
 -1       436-9.91866E-03 1.56609E-02-3.77583E-01
 -1       437-8.38662E-03 1.65869E-02-3.78220E-01
 -1       438-7.88288E-03 1.26408E-02-4.99697E-01
 -1       439 0.00000E+00 0.00000E+00 0.00000E+00
 -1       440 0.00000E+00 0.00000E+00 0.00000E+00
 -1       441 0.00000E+00 0.00000E+00 0.00000E+00
 -1       442 0.00000E+00 0.00000E+00 0.00000E+00
 -1       443 0.00000E+00 0.00000E+00 0.00000E+00
 -1       444 0.00000E+00 0.00000E+00 0.00000E+00
 -1       445 0.00000E+00 0.00000E+00 0.00000E+00
 -1       446 0.00000E+00 0.00000E+00 0.00000E+00
 -1       447 0.00000E+00 0.00000E+00 0.00000E+00
 -1       448 0.00000E+00 0.00000E+00 0.00000E+00
 -1       449-5.85675E-02-3.30710E-03-4.41866E-01
 -1       450-5.80579E-02-3.37995E-03-4.46802E-01
 -1       451-6.46655E-02-3.34202E-04-3.13525E-01
 -1       452-6.41352E-02 3.00188E-04-3.14549E-01
 -1       453-6.47843E-02 1.34672E-03-1.74351E-01
 -1       454-6.51263E-02 1.51268E-03-1.74323E-01
 -1       455-1.99586E-02 3.16377E-04-1.74574E-01
 -1       456-1.84846E-02-2.08642E-03-4.45062E-01
 -1       457-1.87335E-02 2.21558E-03-4.47631E-01
 -1       458-1.98995E-02 1.40758E-03-1.74137E-01
 -1       459-1.98618E-02 2.47032E-03-3.14873E-01
 -1       460-2.05482E-02-1.36940E-03-3.15811E-01
 -1       461-5.93753E-02-2.63616E-02-1.74454E-01
 -1       462-5.95562E-02-2.71194E-02-1.72838E-01
 -1       463-5.91923E-02-2.58854E-02-3.13137E-01
 -1       464-5.86197E-02-2.64197E-02-3.11884E-01
 -1       465-5.36794E-02-2.21478E-02-4.42248E-01
 -1       466-5.40311E-02-2.23158E-02-4.44265E-01
 -1       467-1.87714E-02-8.64994E-03-1.73682E-01
 -1       468-1.61134E-02-9.48460E-03-4.45381E-01
 -1       469-1.75512E-02-6.47436E-03-4.44604E-01
 -1       470-1.84389E-02-7.99548E-03-1.74850E-01
 -1       471-1.96223E-02-5.98805E-03-3.15617E-01
 -1       472-1.71770E-02-1.08859E-02-3.12368E-01
 -1       473-4.65478E-02-4.53543E-02-1.73703E-01
 -1       474-4.60487E-02-4.53750E-02-1.74199E-01
 -1       475-4.71273E-02-4.40290E-02-3.10392E-01
 -1       476-4.68250E-02-4.50413E-02-3.12669E-01
 -1       477-4.28676E-02-4.06596E-02-4.41415E-01
 -1       478-4.27904E-02-3.99331E-02-4.43638E-01
 -1       479-1.40744E-02-1.46724E-02-1.74028E-01
 -1       480-1.23333E-02-1.31413E-02-4.44515E-01
 -1       481-1.43117E-02-1.14214E-02-4.44365E-01
 -1       482-1.54554E-02-1.39670E-02-1.74081E-01
 -1       483-1.67874E-02-1.20147E-02-3.12776E-01
 -1       484-1.30437E-02-1.59187E-02-3.13380E-01
 -1       485-2.41503E-02-5.89489E-02-3.14163E-01
 -1       486-2.57568E-02-5.98966E-02-1.75168E-01
 -1       487-2.50940E-02-5.95303E-02-1.75488E-01
 -1       488-2.49168E-02-5.16745E-02-4.42104E-01
 -1       489-2.45197E-02-5.21729E-02-4.45921E-01
 -1       490-2.61402E-02-5.81338E-02-3.14215E-01
 -1       491-6.77707E-03-1.81889E-02-1.75345E-01
 -1       492-5.84444E-03-1.65314E-02-4.47516E-01
 -1       493-9.44297E-03-1.56364E-02-4.45163E-01
 -1       494-8.50184E-03-1.84947E-02-1.75521E-01
 -1       495-1.09284E-02-1.69496E-02-3.15327E-01
 -1       496-5.65626E-03-1.92242E-02-3.16393E-01
 -1       497 8.55918E-04-6.33704E-02-3.13616E-01
 -1       498 8.44085E-04-6.48299E-02-1.76568E-01
 -1       499 1.06607E-03-6.40270E-02-1.76316E-01
 -1       500-4.49340E-04-5.81816E-02-4.42619E-01
 -1       501-8.88455E-04-5.75668E-02-4.43911E-01
 -1       502-1.22659E-04-6.35102E-02-3.15561E-01
 -1       503 9.01738E-04-1.87531E-02-1.75895E-01
 -1       504 9.64208E-04-1.78188E-02-4.44633E-01
 -1       505-3.09489E-03-1.72374E-02-4.46862E-01
 -1       506-7.05533E-04-2.10353E-02-1.77232E-01
 -1       507-2.60641E-03-1.97824E-02-3.16314E-01
 -1       508 9.75382E-04-1.93256E-02-3.15110E-01
 -1       509 2.35105E-02-5.93659E-02-3.12503E-01
 -1       510 2.20457E-02-5.33617E-02-4.43585E-01
 -1       511 2.18348E-02-5.31534E-02-4.45965E-01
 -1       512 2.58104E-02-5.91022E-02-1.72517E-01
 -1       513 2.62170E-02-5.88138E-02-1.71736E-01
 -1       514 2.51704E-02-5.88753E-02-3.12257E-01
 -1       515 8.25698E-03-1.69338E-02-1.71482E-01
 -1       516 9.36686E-03-1.55973E-02-4.47042E-01
 -1       517 6.34024E-03-1.61670E-02-4.46122E-01
 -1       518 6.64883E-03-1.79425E-02-1.72822E-01
 -1       519 5.13251E-03-1.86529E-02-3.14493E-01
 -1       520 9.05094E-03-1.72708E-02-3.13424E-01
 -1       521 4.70561E-02-4.43524E-02-1.69083E-01
 -1       522 4.73995E-02-4.47391E-02-1.69205E-01
 -1       523 4.63081E-02-4.49940E-02-3.10514E-01
 -1       524 4.68492E-02-4.44487E-02-3.10777E-01
 -1       525 4.30458E-02-3.90735E-02-4.41829E-01
 -1       526 4.22266E-02-3.92638E-02-4.41633E-01
 -1       527 1.61336E-02-1.22096E-02-1.69093E-01
 -1       528 1.43329E-02-1.06866E-02-4.41952E-01
 -1       529 1.14401E-02-1.31677E-02-4.45345E-01
 -1       530 1.37730E-02-1.34165E-02-1.70038E-01
 -1       531 1.31347E-02-1.49610E-02-3.12712E-01
 -1       532 1.63675E-02-1.13757E-02-3.11264E-01
 -1       533 6.00492E-02-2.51494E-02-1.68035E-01
 -1       534 6.04979E-02-2.46567E-02-1.67766E-01
 -1       535 5.97017E-02-2.52556E-02-3.08646E-01
 -1       536 6.04399E-02-2.33470E-02-3.08294E-01
 -1       537 5.31189E-02-2.13274E-02-4.39721E-01
 -1       538 5.43516E-02-2.19374E-02-4.40483E-01
 -1       539 1.94185E-02-7.52058E-03-1.67735E-01
 -1       540 1.75162E-02-4.89614E-03-4.42253E-01
 -1       541 1.61153E-02-7.91801E-03-4.42447E-01
 -1       542 1.88970E-02-8.70098E-03-1.67829E-01
 -1       543 1.79148E-02-9.40070E-03-3.11029E-01
 -1       544 1.90799E-02-6.07468E-03-3.10090E-01
 -1       545 6.31071E-02 6.99855E-04-1.70916E-01
 -1       546 6.33664E-02 9.87330E-04-1.70532E-01
 -1       547 6.34612E-02-2.52009E-04-3.09131E-01
 -1       548 6.39958E-02 4.64165E-04-3.10048E-01
 -1       549 5.80723E-02 1.69784E-03-4.40382E-01
 -1       550 5.84398E-02 1.41763E-03-4.40111E-01
 -1       551 1.94957E-02 7.90918E-04-1.70379E-01
 -1       552 1.79133E-02 1.72280E-03-4.40971E-01
 -1       553 1.79318E-02-6.22223E-04-4.42560E-01
 -1       554 1.96191E-02-9.94366E-04-1.71353E-01
 -1       555 1.95930E-02-2.33807E-03-3.11504E-01
 -1       556 1.98429E-02 3.05080E-03-3.10549E-01
 -1       557 5.30830E-02 2.21616E-02-4.38120E-01
 -1       558 5.33137E-02 2.20712E-02-4.39285E-01
 -1       559 5.82213E-02 2.53159E-02-3.09549E-01
 -1       560 5.90037E-02 2.33131E-02-3.09426E-01
 -1       561 5.86982E-02 2.39040E-02-1.72125E-01
 -1       562 5.92054E-02 2.28469E-02-1.71425E-01
 -1       563 1.73587E-02 8.27860E-03-1.72227E-01
 -1       564 1.58090E-02 8.60787E-03-4.40875E-01
 -1       565 1.66878E-02 5.16657E-03-4.40589E-01
 -1       566 1.84359E-02 6.02351E-03-1.71377E-01
 -1       567 1.89036E-02 5.36979E-03-3.10896E-01
 -1       568 1.74528E-02 9.48359E-03-3.11558E-01
 -1       569 4.21741E-02 4.00968E-02-4.41896E-01
 -1       570 4.17757E-02 3.96310E-02-4.42058E-01
 -1       571 4.59888E-02 4.47489E-02-3.11625E-01
 -1       572 4.70717E-02 4.36543E-02-3.09484E-01
 -1       573 4.70765E-02 4.38290E-02-1.73577E-01
 -1       574 4.74790E-02 4.42108E-02-1.71630E-01
 -1       575 1.48903E-02 1.44426E-02-1.73751E-01
 -1       576 1.21805E-02 1.27866E-02-4.44678E-01
 -1       577 1.38796E-02 1.10390E-02-4.43518E-01
 -1       578 1.54859E-02 1.42891E-02-1.70959E-01
 -1       579 1.60050E-02 1.20720E-02-3.10476E-01
 -1       580 1.19086E-02 1.58750E-02-3.13839E-01
 -1       581 2.52070E-02 5.90873E-02-3.11086E-01
 -1       582 2.26073E-02 5.30847E-02-4.40664E-01
 -1       583 2.24684E-02 5.28584E-02-4.41675E-01
 -1       584 2.35865E-02 5.98251E-02-1.71508E-01
 -1       585 2.42128E-02 5.96137E-02-1.73414E-01
 -1       586 2.28968E-02 6.00579E-02-3.10382E-01
 -1       587 7.63907E-03 1.89926E-02-1.71653E-01
 -1       588 6.38447E-03 1.63077E-02-4.43245E-01
 -1       589 9.79226E-03 1.55746E-02-4.42411E-01
 -1       590 9.17047E-03 1.74988E-02-1.73291E-01
 -1       591 9.80845E-03 1.76904E-02-3.13357E-01
 -1       592 5.54241E-03 1.91931E-02-3.12187E-01
 -1       593 8.08055E-04 6.33201E-02-3.09240E-01
 -1       594-1.36155E-03 5.85735E-02-4.39726E-01
 -1       595-1.50323E-03 5.77763E-02-4.42427E-01
 -1       596-5.53769E-04 6.28794E-02-1.70837E-01
 -1       597-5.53668E-05 6.25701E-02-1.71554E-01
 -1       598-5.77838E-06 6.32431E-02-3.09761E-01
 -1       599-7.74644E-04 1.85130E-02-1.71053E-01
 -1       600-1.32815E-03 1.82663E-02-4.41963E-01
 -1       601 1.24600E-03 1.81147E-02-4.43325E-01
 -1       602 1.33674E-03 1.82773E-02-1.71084E-01
 -1       603 2.87292E-03 1.91335E-02-3.11271E-01
 -1       604-2.22289E-03 1.90597E-02-3.10185E-01
 -1       605-2.47983E-02 5.80151E-02-3.10774E-01
 -1       606-2.43062E-02 5.87410E-02-1.73242E-01
 -1       607-2.33627E-02 5.90819E-02-1.71982E-01
 -1       608-2.08578E-02 5.36022E-02-4.41632E-01
 -1       609-2.15888E-02 5.43121E-02-4.40924E-01
 -1       610-2.27648E-02 5.93306E-02-3.09542E-01
 -1       611-8.92531E-03 1.71736E-02-1.72890E-01
 -1       612-8.07768E-03 1.62771E-02-4.43574E-01
 -1       613-6.17125E-03 1.66142E-02-4.42415E-01
 -1       614-7.23173E-03 1.75287E-02-1.71573E-01
 -1       615-5.55518E-03 1.86002E-02-3.11235E-01
 -1       616-9.81114E-03 1.62538E-02-3.12838E-01
 -1       617-4.06220E-02 4.18928E-02-4.43075E-01
 -1       618-4.01027E-02 4.15049E-02-4.42223E-01
 -1       619-4.53249E-02 4.48098E-02-3.09862E-01
 -1       620-4.49104E-02 4.55798E-02-3.10662E-01
 -1       621-4.64342E-02 4.36160E-02-1.70669E-01
 -1       622-4.59819E-02 4.39331E-02-1.71655E-01
 -1       623-1.62871E-02 1.16476E-02-1.71800E-01
 -1       624-1.41646E-02 1.11013E-02-4.45465E-01
 -1       625-1.23512E-02 1.27763E-02-4.43175E-01
 -1       626-1.39150E-02 1.35997E-02-1.71585E-01
 -1       627-1.13649E-02 1.58505E-02-3.11033E-01
 -1       628-1.59687E-02 1.13692E-02-3.12199E-01
 -1       629-5.41014E-02 2.23008E-02-4.42259E-01
 -1       630-5.35582E-02 2.19980E-02-4.43366E-01
 -1       631-6.02858E-02 2.38377E-02-3.10939E-01
 -1       632-5.91147E-02 2.46899E-02-3.12015E-01
 -1       633-6.14323E-02 2.32088E-02-1.69772E-01
 -1       634-6.12690E-02 2.38507E-02-1.71367E-01
 -1       635-1.94011E-02 6.11895E-03-1.70673E-01
 -1       636-1.69752E-02 5.31705E-03-4.45379E-01
 -1       637-1.62858E-02 9.23326E-03-4.43980E-01
 -1       638-1.82074E-02 7.92345E-03-1.72352E-01
 -1       639-1.72174E-02 1.01044E-02-3.12790E-01
 -1       640-1.94441E-02 5.26048E-03-3.13257E-01
 -1       641 0.00000E+00 0.00000E+00 0.00000E+00
 -1       642 0.00000E+00 0.00000E+00 0.00000E+00
 -1       643 0.00000E+00 0.00000E+00 0.00000E+00
 -1       644 0.00000E+00 0.00000E+00 0.00000E+00
 -1       645 0.00000E+00 0.00000E+00 0.00000E+00
 -1       646 0.00000E+00 0.00000E+00 0.00000E+00
 -1       647 0.00000E+00 0.00000E+00 0.00000E+00
 -1       648 0.00000E+00 0.00000E+00 0.00000E+00
 -1       649 0.00000E+00 0.00000E+00 0.00000E+00
 -1       650 0.00000E+00 0.00000E+00 0.00000E+00
 -1       651 0.00000E+00 0.00000E+00 0.00000E+00
 -1       652 0.00000E+00 0.00000E+00 0.00000E+00
 -1       653 0.00000E+00 0.00000E+00 0.00000E+00
 -1       654 0.00000E+00 0.00000E+00 0.00000E+00
 -1       655 0.00000E+00 0.00000E+00 0.00000E+00
 -1       656 0.00000E+00 0.00000E+00 0.00000E+00
 -1       657 0.00000E+00 0.00000E+00 0.00000E+00
 -1       658 0.00000E+00 0.00000E+00 0.00000E+00
 -1       659 0.00000E+00 0.00000E+00 0.00000E+00
 -1       660 0.00000E+00 0.00000E+00 0.00000E+00
 -1       661 0.00000E+00 0.00000E+00 0.00000E+00
 -1       662 0.00000E+00 0.00000E+00 0.00000E+00
 -1       663 0.00000E+00 0.00000E+00 0.00000E+00
 -1       664 0.00000E+00 0.00000E+00 0.00000E+00
 -1       665 0.00000E+00 0.00000E+00 0.00000E+00
 -1       666 0.00000E+00 0.00000E+00 0.00000E+00
 -1       667 0.00000E+00 0.00000E+00 0.00000E+00
 -1       668 0.00000E+00 0.00000E+00 0.00000E+00
 -1       669 0.00000E+00 0.00000E+00 0.00000E+00
 -1       670 0.00000E+00 0.00000E+00 0.00000E+00
 -1       671 0.00000E+00 0.00000E+00 0.00000E+00
 -1       672 0.00000E+00 0.00000E+00 0.00000E+00
 -1       673 0.00000E+00 0.00000E+00 0.00000E+00
 -1       674 0.00000E+00 0.00000E+00 0.00000E+00
 -1       675 0.00000E+00 0.00000E+00 0.00000E+00
 -1       676 0.00000E+00 0.00000E+00 0.00000E+00
 -1       677 0.00000E+00 0.00000E+00 0.00000E+00
 -1       678 0.00000E+00 0.00000E+00 0.00000E+00
 -1       679 0.00000E+00 0.00000E+00 0.00000E+00
 -1       680 0.00000E+00 0.00000E+00 0.00000E+00
 -1       681 0.00000E+00 0.00000E+00 0.00000E+00
 -1       682 0.00000E+00 0.00000E+00 0.00000E+00
 -1       683 0.00000E+00 0.00000E+00 0.00000E+00
 -1       684 0.00000E+00 0.00000E+00 0.00000E+00
 -1       685 0.00000E+00 0.00000E+00 0.00000E+00
 -1       686 0.00000E+00 0.00000E+00 0.00000E+00
 -1       687 0.00000E+00 0.00000E+00 0.00000E+00
 -1       688 0.00000E+00 0.00000E+00 0.00000E+00
 -1       689 0.00000E+00 0.00000E+00 0.00000E+00
 -1       690 0.00000E+00 0.00000E+00 0.00000E+00
 -1       691 0.00000E+00 0.00000E+00 0.00000E+00
 -1       692 0.00000E+00 0.00000E+00 0.00000E+00
 -1       693 0.00000E+00 0.00000E+00 0.00000E+00
 -1       694 0.00000E+00 0.00000E+00 0.00000E+00
 -1       695 0.00000E+00 0.00000E+00 0.00000E+00
 -1       696 0.00000E+00 0.00000E+00 0.00000E+00
 -1       697 0.00000E+00 0.00000E+00 0.00000E+00
 -1       698 0.00000E+00 0.00000E+00 0.00000E+00
 -1       699 0.00000E+00 0.00000E+00 0.00000E+00
 -1       700 0.00000E+00 0.00000E+00 0.00000E+00
 -1       701 0.00000E+00 0.00000E+00 0.00000E+00
 -1       702 0.00000E+00 0.00000E+00 0.00000E+00
 -1       703 0.00000E+00 0.00000E+00 0.00000E+00
 -1       704 0.00000E+00 0.00000E+00 0.00000E+00
 -1       705-6.08670E-02-2.17358E-03-4.10568E-01
 -1       706-5.71089E-02-3.67162E-03-4.70940E-01
 -1       707-6.01739E-02-2.80066E-03-4.14122E-01
 -1       708-6.40709E-02-8.10038E-04-3.46359E-01
 -1       709-6.48774E-02 1.17327E-03-2.09887E-01
 -1       710-6.45232E-02 1.82742E-03-1.38677E-01
 -1       711-1.85435E-02 7.91309E-04-4.16040E-01
 -1       712-2.00054E-02-2.16107E-03-3.48615E-01
 -1       713-5.21526E-02-2.23619E-02-4.71958E-01
 -1       714-5.55143E-02-2.35789E-02-4.11645E-01
 -1       715-5.25879E-02-2.23131E-02-4.71792E-01
 -1       716-1.75573E-02-6.83651E-03-4.15363E-01
 -1       717-1.75835E-02-1.14107E-02-2.79194E-01
 -1       718-1.74284E-02-9.52876E-03-3.45734E-01
 -1       719-4.09547E-02-3.98777E-02-4.70996E-01
 -1       720-4.41150E-02-4.16206E-02-4.09844E-01
 -1       721-4.17127E-02-3.90559E-02-4.72686E-01
 -1       722-1.51293E-02-1.35239E-02-1.39110E-01
 -1       723-1.38697E-02-1.58843E-02-2.79461E-01
 -1       724-1.31515E-02-1.51588E-02-3.46979E-01
 -1       725-2.46017E-02-5.01972E-02-4.74106E-01
 -1       726-2.71293E-02-5.69945E-02-3.46099E-01
 -1       727-2.67310E-02-5.82479E-02-2.80505E-01
 -1       728-5.64604E-03-1.86538E-02-3.49853E-01
 -1       729-1.04427E-03-5.66283E-02-4.72807E-01
 -1       730-3.53028E-04-6.01200E-02-4.11162E-01
 -1       731-1.20741E-03-5.63097E-02-4.73405E-01
 -1       732-1.15432E-03-6.43117E-02-2.80923E-01
 -1       733 2.61476E-02-5.89330E-02-2.07987E-01
 -1       734 2.63161E-02-5.88631E-02-2.77814E-01
 -1       735 2.59769E-02-5.76579E-02-3.45112E-01
 -1       736 7.65787E-03-1.67799E-02-1.37821E-01
 -1       737 9.35686E-03-1.76054E-02-2.79197E-01
 -1       738 9.28010E-03-1.66341E-02-3.47026E-01
 -1       739 4.12763E-02-3.86059E-02-4.70767E-01
 -1       740 4.47885E-02-4.06109E-02-4.10069E-01
 -1       741 4.06449E-02-3.88113E-02-4.70740E-01
 -1       742 1.26866E-02-1.25632E-02-4.14009E-01
 -1       743 1.63032E-02-1.17367E-02-2.76099E-01
 -1       744 1.59052E-02-1.16769E-02-3.44594E-01
 -1       745 5.23402E-02-1.99176E-02-4.69908E-01
 -1       746 5.57545E-02-2.33711E-02-4.07960E-01
 -1       747 5.26759E-02-2.04238E-02-4.68859E-01
 -1       748 1.67167E-02-8.09730E-03-4.11448E-01
 -1       749 1.95821E-02-6.35700E-03-2.74399E-01
 -1       750 1.88454E-02-5.26714E-03-3.43200E-01
 -1       751 5.65222E-02 2.35276E-03-4.70315E-01
 -1       752 6.01453E-02 1.76448E-03-4.07667E-01
 -1       753 5.68265E-02 2.05456E-03-4.68137E-01
 -1       754 1.84753E-02-5.43196E-04-4.11484E-01
 -1       755 1.99397E-02 1.60273E-03-2.76429E-01
 -1       756 1.93466E-02 2.78138E-03-3.43482E-01
 -1       757 5.20712E-02 2.19576E-02-4.68812E-01
 -1       758 5.54472E-02 2.29994E-02-4.09126E-01
 -1       759 5.84338E-02 2.36778E-02-3.42917E-01
 -1       760 5.91974E-02 2.36555E-02-2.75652E-01
 -1       761 5.79488E-02 2.23424E-02-1.37062E-01
 -1       762 1.72325E-02 6.87491E-03-4.11638E-01
 -1       763 4.14502E-02 3.80610E-02-4.70385E-01
 -1       764 4.42856E-02 4.09912E-02-4.08054E-01
 -1       765 4.68547E-02 4.23713E-02-3.42576E-01
 -1       766 4.83837E-02 4.30981E-02-2.75118E-01
 -1       767 4.66464E-02 4.43795E-02-1.37520E-01
 -1       768 2.22496E-02 5.17673E-02-4.69889E-01
 -1       769 2.32979E-02 5.53021E-02-4.09865E-01
 -1       770 2.32982E-02 5.92863E-02-3.42827E-01
 -1       771 7.85273E-03 1.66969E-02-4.13295E-01
 -1       772 6.18900E-03 1.85104E-02-3.44571E-01
 -1       773-1.73716E-03 5.72928E-02-4.68837E-01
 -1       774 1.32586E-04 6.00747E-02-4.09337E-01
 -1       775-5.89796E-04 6.31681E-02-2.06811E-01
 -1       776 2.38778E-04 6.13675E-02-1.37156E-01
 -1       777-2.02542E-03 1.86910E-02-3.44196E-01
 -1       778-2.01356E-02 5.24441E-02-4.70941E-01
 -1       779-2.18146E-02 5.59621E-02-4.09047E-01
 -1       780-2.28208E-02 5.86641E-02-3.43198E-01
 -1       781-2.26501E-02 5.94457E-02-2.75379E-01
 -1       782-5.92100E-03 1.71100E-02-4.11306E-01
 -1       783-3.88530E-02 4.13842E-02-4.72142E-01
 -1       784-4.14492E-02 4.40631E-02-4.08594E-01
 -1       785-4.51610E-02 4.44955E-02-3.44063E-01
 -1       786-4.58897E-02 4.42821E-02-2.06797E-01
 -1       787-4.48137E-02 4.39099E-02-1.37797E-01
 -1       788-1.19645E-02 1.37232E-02-4.12110E-01
 -1       789-5.32851E-02 2.09081E-02-4.71023E-01
 -1       790-5.54783E-02 2.37016E-02-4.09735E-01
 -1       791-5.93821E-02 2.36575E-02-3.44981E-01
 -1       792-6.06354E-02 2.43678E-02-2.07070E-01
 -1       793-6.05392E-02 2.31480E-02-1.35790E-01
 -1       794-1.68261E-02 8.22753E-03-4.12528E-01
 -1       795-1.96914E-02 5.66280E-03-2.78913E-01
 -1       796-1.90732E-02 4.50499E-03-3.48036E-01
 -1       797 0.00000E+00 0.00000E+00 0.00000E+00
 -1       798 0.00000E+00 0.00000E+00 0.00000E+00
 -1       799 0.00000E+00 0.00000E+00 0.00000E+00
 -1       800 0.00000E+00 0.00000E+00 0.00000E+00
 -1       801 0.00000E+00 0.00000E+00 0.00000E+00
 -1       802 0.00000E+00 0.00000E+00 0.00000E+00
 -1       803 0.00000E+00 0.00000E+00 0.00000E+00
 -1       804 0.00000E+00 0.00000E+00 0.00000E+00
 -1       805 0.00000E+00 0.00000E+00 0.00000E+00
 -1       806 0.00000E+00 0.00000E+00 0.00000E+00
 -1       807 0.00000E+00 0.00000E+00 0.00000E+00
 -1       808 0.00000E+00 0.00000E+00 0.00000E+00
 -1       809 0.00000E+00 0.00000E+00 0.00000E+00
 -1       810 0.00000E+00 0.00000E+00 0.00000E+00
 -1       811 0.00000E+00 0.00000E+00 0.00000E+00
 -1       812 0.00000E+00 0.00000E+00 0.00000E+00
 -1       813 0.00000E+00 0.00000E+00 0.00000E+00
 -1       814 0.00000E+00 0.00000E+00 0.00000E+00
 -1       815 0.00000E+00 0.00000E+00 0.00000E+00
 -1       816 0.00000E+00 0.00000E+00 0.00000E+00
 -1       817 0.00000E+00 0.00000E+00 0.00000E+00
 -1       818 0.00000E+00 0.00000E+00 0.00000E+00
 -1       819 0.00000E+00 0.00000E+00 0.00000E+00
 -1       820 0.00000E+00 0.00000E+00 0.00000E+00
 -1       821 0.00000E+00 0.00000E+00 0.00000E+00
 -1       822 0.00000E+00 0.00000E+00 0.00000E+00
 -1       823 0.00000E+00 0.00000E+00 0.00000E+00
 -1       824 0.00000E+00 0.00000E+00 0.00000E+00
 -1       825 0.00000E+00 0.00000E+00 0.00000E+00
 -1       826 0.00000E+00 0.00000E+00 0.00000E+00
 -1       827 0.00000E+00 0.00000E+00 0.00000E+00
 -1       828 0.00000E+00 0.00000E+00 0.00000E+00
 -1       829 0.00000E+00 0.00000E+00 0.00000E+00
 -1       830 0.00000E+00 0.00000E+00 0.00000E+00
 -1       831 0.00000E+00 0.00000E+00 0.00000E+00
 -1       832 0.00000E+00 0.00000E+00 0.00000E+00
 -1       833 0.00000E+00 0.00000E+00 0.00000E+00
 -1       834 0.00000E+00 0.00000E+00 0.00000E+00
 -1       835 0.00000E+00 0.00000E+00 0.00000E+00
 -1       836 0.00000E+00 0.00000E+00 0.00000E+00
 -1       837 0.00000E+00 0.00000E+00 0.00000E+00
 -1       838 0.00000E+00 0.00000E+00 0.00000E+00
 -1       839 0.00000E+00 0.00000E+00 0.00000E+00
 -1       840 0.00000E+00 0.00000E+00 0.00000E+00
 -1       841 0.00000E+00 0.00000E+00 0.00000E+00
 -1       842 0.00000E+00 0.00000E+00 0.00000E+00
 -1       843 0.00000E+00 0.00000E+00 0.00000E+00
 -1       844 0.00000E+00 0.00000E+00 0.00000E+00
 -1       845 0.00000E+00 0.00000E+00 0.00000E+00
 -1       846 0.00000E+00 0.00000E+00 0.00000E+00
 -1       847 0.00000E+00 0.00000E+00 0.00000E+00
 -1       848 0.00000E+00 0.00000E+00 0.00000E+00
 -1       849 0.00000E+00 0.00000E+00 0.00000E+00
 -1       850 0.00000E+00 0.00000E+00 0.00000E+00
 -1       851 0.00000E+00 0.00000E+00 0.00000E+00
 -1       852-5.64315E-02-4.10088E-03-4.74829E-01
 -1       853-6.48210E-02-1.19161E-04-2.79644E-01
 -1       854-6.46393E-02 1.51632E-03-2.79945E-01
 -1       855-6.33658E-02 3.06049E-04-3.47481E-01
 -1       856-6.42539E-02 1.59785E-03-1.39937E-01
 -1       857-6.51137E-02 1.43943E-03-2.10648E-01
 -1       858-2.08543E-02 6.01026E-04-2.11129E-01
 -1       859-1.95671E-02 7.02271E-04-1.39661E-01
 -1       860-1.76171E-02-2.66897E-03-4.74294E-01
 -1       861-1.94593E-02-9.76515E-04-4.13971E-01
 -1       862-1.75806E-02 2.22577E-03-4.76083E-01
 -1       863-1.97974E-02 9.76151E-04-1.38255E-01
 -1       864-2.03219E-02 2.35459E-03-2.10930E-01
 -1       865-2.09246E-02-1.96816E-03-2.81748E-01
 -1       866-2.00310E-02 3.23318E-03-2.80501E-01
 -1       867-1.96664E-02 2.43374E-03-3.48373E-01
 -1       868-5.96467E-02-2.69679E-02-2.09105E-01
 -1       869-5.88711E-02-2.57844E-02-1.39964E-01
 -1       870-5.94678E-02-2.64712E-02-2.09885E-01
 -1       871-5.90688E-02-2.64259E-02-1.38360E-01
 -1       872-5.93013E-02-2.58758E-02-2.79779E-01
 -1       873-5.87407E-02-2.54753E-02-3.47131E-01
 -1       874-5.79217E-02-2.63601E-02-3.44799E-01
 -1       875-5.88310E-02-2.76398E-02-2.78440E-01
 -1       876-5.56969E-02-2.31027E-02-4.13020E-01
 -1       877-1.87380E-02-9.11544E-03-2.09598E-01
 -1       878-1.90370E-02-8.58696E-03-1.37870E-01
 -1       879-1.50751E-02-1.00530E-02-4.74551E-01
 -1       880-1.71376E-02-9.13244E-03-4.14980E-01
 -1       881-1.68149E-02-5.09675E-03-4.73525E-01
 -1       882-1.94001E-02-6.82520E-03-1.40134E-01
 -1       883-1.89065E-02-8.21863E-03-2.10170E-01
 -1       884-1.97842E-02-6.18820E-03-2.82143E-01
 -1       885-1.88859E-02-5.66097E-03-3.49461E-01
 -1       886-4.74629E-02-4.38329E-02-2.76867E-01
 -1       887-4.55624E-02-4.54397E-02-1.39615E-01
 -1       888-4.73735E-02-4.50274E-02-2.08406E-01
 -1       889-4.67593E-02-4.50089E-02-2.09579E-01
 -1       890-4.49520E-02-4.50928E-02-1.38718E-01
 -1       891-4.64403E-02-4.36831E-02-3.44694E-01
 -1       892-4.58758E-02-4.51188E-02-3.45891E-01
 -1       893-4.67604E-02-4.54946E-02-2.78901E-01
 -1       894-4.40411E-02-4.09388E-02-4.11757E-01
 -1       895-1.46048E-02-1.45126E-02-2.09704E-01
 -1       896-1.43538E-02-1.33160E-02-1.38111E-01
 -1       897-1.16912E-02-1.35323E-02-4.73442E-01
 -1       898-1.30322E-02-1.38344E-02-4.12770E-01
 -1       899-1.44285E-02-1.21527E-02-4.11921E-01
 -1       900-1.32771E-02-1.12184E-02-4.73284E-01
 -1       901-1.63184E-02-1.36755E-02-2.09166E-01
 -1       902-1.65414E-02-1.25723E-02-2.78425E-01
 -1       903-1.61507E-02-1.16426E-02-3.47301E-01
 -1       904-2.54514E-02-5.38884E-02-4.11310E-01
 -1       905-2.47024E-02-5.07938E-02-4.70975E-01
 -1       906-2.51265E-02-5.80681E-02-3.48504E-01
 -1       907-2.50348E-02-5.90384E-02-2.81163E-01
 -1       908-2.54907E-02-5.93527E-02-1.39708E-01
 -1       909-2.58455E-02-5.97311E-02-2.11163E-01
 -1       910-2.55128E-02-5.91114E-02-2.11398E-01
 -1       911-2.50377E-02-5.86346E-02-1.39947E-01
 -1       912-2.58706E-02-5.44626E-02-4.14210E-01
 -1       913-8.17167E-03-1.79142E-02-2.11908E-01
 -1       914-7.98965E-03-1.71549E-02-1.39347E-01
 -1       915-5.05552E-03-1.63281E-02-4.75716E-01
 -1       916-6.92630E-03-1.70183E-02-4.16716E-01
 -1       917-8.23974E-03-1.61168E-02-4.14393E-01
 -1       918-9.82549E-03-1.46156E-02-4.74242E-01
 -1       919-8.31277E-03-1.84265E-02-1.38855E-01
 -1       920-8.78990E-03-1.86510E-02-2.11870E-01
 -1       921-7.09407E-03-1.89727E-02-2.82247E-01
 -1       922-1.04073E-02-1.72782E-02-2.82099E-01
 -1       923-1.03383E-02-1.67542E-02-3.48181E-01
 -1       924 8.23498E-04-6.28186E-02-3.46777E-01
 -1       925 4.40010E-04-6.36793E-02-2.80664E-01
 -1       926 1.92533E-03-6.42328E-02-1.42244E-01
 -1       927-8.61224E-05-6.48281E-02-2.11704E-01
 -1       928 1.33391E-04-6.41343E-02-2.11903E-01
 -1       929 2.17619E-03-6.34647E-02-1.41081E-01
 -1       930-9.85356E-04-5.97332E-02-4.12816E-01
 -1       931-4.73538E-04-6.29232E-02-3.48312E-01
 -1       932 1.86313E-04-2.02062E-02-2.12203E-01
 -1       933 1.66369E-03-1.91400E-02-1.40598E-01
 -1       934 1.55921E-03-1.67728E-02-4.74279E-01
 -1       935 6.81590E-04-1.84503E-02-4.14541E-01
 -1       936-4.97109E-04-1.83645E-02-4.13616E-01
 -1       937-3.69163E-03-1.67151E-02-4.76036E-01
 -1       938-3.97141E-04-2.04814E-02-1.43313E-01
 -1       939-1.23630E-03-2.10537E-02-2.12727E-01
 -1       940 2.29635E-02-5.54323E-02-4.12632E-01
 -1       941 1.86948E-03-1.91649E-02-3.48737E-01
 -1       942 1.39598E-03-1.94756E-02-2.81485E-01
 -1       943-2.48408E-03-2.01156E-02-2.82329E-01
 -1       944-2.56931E-03-1.93677E-02-3.49177E-01
 -1       945 2.13190E-02-5.18455E-02-4.72453E-01
 -1       946 2.41152E-02-5.93114E-02-2.78865E-01
 -1       947 2.41225E-02-5.88831E-02-3.46979E-01
 -1       948 2.07318E-02-5.14936E-02-4.73130E-01
 -1       949 2.21400E-02-5.53321E-02-4.12963E-01
 -1       950 2.59221E-02-5.83169E-02-1.37955E-01
 -1       951 2.55764E-02-5.92154E-02-2.08946E-01
 -1       952 2.62809E-02-5.84203E-02-1.36715E-01
 -1       953 8.64907E-03-1.74238E-02-2.08582E-01
 -1       954 7.77003E-03-1.68642E-02-1.36377E-01
 -1       955 7.97723E-03-1.48744E-02-4.74451E-01
 -1       956 7.56158E-03-1.64935E-02-4.14648E-01
 -1       957 5.90796E-03-1.72538E-02-4.16248E-01
 -1       958 6.01093E-03-1.59318E-02-4.74642E-01
 -1       959 7.65563E-03-1.84172E-02-2.09586E-01
 -1       960 5.28398E-03-1.87827E-02-2.79765E-01
 -1       961 4.76137E-03-1.86601E-02-3.48052E-01
 -1       962 4.62467E-02-4.53007E-02-2.75717E-01
 -1       963 4.64400E-02-4.43448E-02-1.35237E-01
 -1       964 4.69211E-02-4.51363E-02-2.04828E-01
 -1       965 4.71530E-02-4.51184E-02-2.05558E-01
 -1       966 4.68370E-02-4.47261E-02-1.34512E-01
 -1       967 4.60096E-02-4.42281E-02-3.44692E-01
 -1       968 4.65409E-02-4.37060E-02-3.43703E-01
 -1       969 4.77476E-02-4.44197E-02-2.75305E-01
 -1       970 4.41036E-02-4.10582E-02-4.09180E-01
 -1       971 1.56959E-02-1.29556E-02-2.05642E-01
 -1       972 1.51475E-02-1.38586E-02-1.34126E-01
 -1       973 1.38422E-02-9.47431E-03-4.72146E-01
 -1       974 1.44073E-02-1.14468E-02-4.10908E-01
 -1       975 1.12809E-02-1.25890E-02-4.73225E-01
 -1       976 1.43079E-02-1.19253E-02-1.34471E-01
 -1       977 1.48281E-02-1.38308E-02-2.05534E-01
 -1       978 1.36625E-02-1.50396E-02-2.77365E-01
 -1       979 1.24491E-02-1.49913E-02-3.47317E-01
 -1       980 5.99358E-02-2.57426E-02-2.74079E-01
 -1       981 5.95020E-02-2.52857E-02-1.33871E-01
 -1       982 6.06655E-02-2.49839E-02-2.04175E-01
 -1       983 6.05587E-02-2.45881E-02-2.03848E-01
 -1       984 5.97141E-02-2.50694E-02-1.33967E-01
 -1       985 5.87145E-02-2.53348E-02-3.41914E-01
 -1       986 5.95887E-02-2.37471E-02-3.41983E-01
 -1       987 6.04565E-02-2.41171E-02-2.73686E-01
 -1       988 5.62574E-02-2.36839E-02-4.09339E-01
 -1       989 1.92217E-02-7.77307E-03-2.04261E-01
 -1       990 1.84851E-02-8.12827E-03-1.33946E-01
 -1       991 1.60520E-02-5.14654E-03-4.71431E-01
 -1       992 1.75508E-02-5.88928E-03-4.11772E-01
 -1       993 1.45901E-02-7.63121E-03-4.72427E-01
 -1       994 1.81024E-02-8.13852E-03-1.33626E-01
 -1       995 1.93540E-02-8.42510E-03-2.04591E-01
 -1       996 1.84291E-02-9.55871E-03-2.75295E-01
 -1       997 1.72069E-02-8.89353E-03-3.43783E-01
 -1       998 6.39039E-02-2.65938E-04-2.75345E-01
 -1       999 6.22625E-02 5.99343E-04-1.37362E-01
 -1      1000 6.37972E-02 7.33730E-04-2.05779E-01
 -1      1001 6.41865E-02 9.73119E-04-2.05295E-01
 -1      1002 6.24305E-02 8.68193E-04-1.36624E-01
 -1      1003 6.28777E-02-3.16600E-05-3.42287E-01
 -1      1004 6.32039E-02 1.13439E-03-3.42536E-01
 -1      1005 6.44889E-02 6.00851E-04-2.75798E-01
 -1      1006 6.03461E-02 1.09425E-03-4.07677E-01
 -1      1007 2.01757E-02 1.05691E-03-2.04791E-01
 -1      1008 1.95157E-02 4.65758E-04-1.35968E-01
 -1      1009 1.74382E-02 3.34417E-03-4.71152E-01
 -1      1010 1.84004E-02 1.86631E-03-4.09136E-01
 -1      1011 1.61509E-02-2.00614E-03-4.72233E-01
 -1      1012 1.86917E-02 1.69341E-04-1.36655E-01
 -1      1013 2.00512E-02-4.57074E-04-2.06315E-01
 -1      1014 2.01207E-02-1.80985E-03-2.77076E-01
 -1      1015 1.91745E-02-2.34512E-03-3.44789E-01
 -1      1016 5.50057E-02 2.24738E-02-4.08696E-01
 -1      1017 5.19174E-02 2.23315E-02-4.69398E-01
 -1      1018 5.72372E-02 2.55224E-02-3.42549E-01
 -1      1019 5.87000E-02 2.52463E-02-2.77064E-01
 -1      1020 5.93300E-02 2.41876E-02-2.07861E-01
 -1      1021 5.79940E-02 2.31225E-02-1.38426E-01
 -1      1022 5.92816E-02 2.37214E-02-2.07143E-01
 -1      1023 1.80386E-02 8.62422E-03-2.08410E-01
 -1      1024 1.61690E-02 7.72797E-03-1.38088E-01
 -1      1025 1.47071E-02 8.07434E-03-4.71752E-01
 -1      1026 1.67837E-02 7.68432E-03-4.10791E-01
 -1      1027 1.62620E-02 5.18768E-03-4.70315E-01
 -1      1028 1.64657E-02 6.33663E-03-1.36976E-01
 -1      1029 1.82362E-02 7.53739E-03-2.07224E-01
 -1      1030 1.69086E-02 9.32554E-03-3.44027E-01
 -1      1031 1.76571E-02 9.76320E-03-2.78106E-01
 -1      1032 1.87630E-02 6.89946E-03-2.77087E-01
 -1      1033 1.85197E-02 5.68314E-03-3.44865E-01
 -1      1034 4.44006E-02 4.09063E-02-4.10653E-01
 -1      1035 4.06106E-02 3.80394E-02-4.69095E-01
 -1      1036 4.62162E-02 4.33666E-02-3.46169E-01
 -1      1037 4.65008E-02 4.44070E-02-2.78759E-01
 -1      1038 4.72240E-02 4.38963E-02-2.08323E-01
 -1      1039 4.63376E-02 4.40192E-02-1.38581E-01
 -1      1040 4.76799E-02 4.40178E-02-2.06919E-01
 -1      1041 1.46643E-02 1.15895E-02-4.11431E-01
 -1      1042 1.48987E-02 1.45514E-02-2.09297E-01
 -1      1043 1.36095E-02 1.40072E-02-1.38140E-01
 -1      1044 1.14531E-02 1.25491E-02-4.72349E-01
 -1      1045 1.23657E-02 1.35230E-02-4.12644E-01
 -1      1046 1.41186E-02 9.85540E-03-4.71476E-01
 -1      1047 1.44234E-02 1.42634E-02-1.37241E-01
 -1      1048 1.59832E-02 1.36912E-02-2.07035E-01
 -1      1049 1.30728E-02 1.47912E-02-3.47386E-01
 -1      1050 1.29500E-02 1.52010E-02-2.79724E-01
 -1      1051 1.62692E-02 1.23874E-02-2.76498E-01
 -1      1052 1.56163E-02 1.17371E-02-3.44662E-01
 -1      1053 2.34209E-02 5.56125E-02-4.11051E-01
 -1      1054 2.55629E-02 5.93125E-02-2.77360E-01
 -1      1055 2.50085E-02 5.83918E-02-3.44581E-01
 -1      1056 2.17534E-02 5.18895E-02-4.70769E-01
 -1      1057 2.37322E-02 5.93863E-02-1.38444E-01
 -1      1058 2.37142E-02 6.01013E-02-2.07277E-01
 -1      1059 2.33254E-02 5.91893E-02-1.37340E-01
 -1      1060 2.39759E-02 6.02382E-02-2.08206E-01
 -1      1061 2.35456E-02 5.99513E-02-2.76265E-01
 -1      1062 7.11117E-03 1.94647E-02-2.08195E-01
 -1      1063 7.39372E-03 1.73282E-02-1.37254E-01
 -1      1064 6.04775E-03 1.59204E-02-4.71941E-01
 -1      1065 6.04662E-03 1.74111E-02-4.13884E-01
 -1      1066 1.03685E-02 1.42596E-02-4.72228E-01
 -1      1067 7.89262E-03 1.77749E-02-1.38228E-01
 -1      1068 8.44525E-03 1.88590E-02-2.08170E-01
 -1      1069 5.94647E-03 1.94021E-02-2.76984E-01
 -1      1070 9.81567E-03 1.79694E-02-2.78658E-01
 -1      1071 9.71150E-03 1.70717E-02-3.46038E-01
 -1      1072-2.36838E-05 6.02454E-02-4.09446E-01
 -1      1073 1.12699E-03 6.32621E-02-2.75859E-01
 -1      1074 6.71419E-04 6.28028E-02-3.43114E-01
 -1      1075-2.03024E-03 5.63015E-02-4.71301E-01
 -1      1076 2.83350E-05 6.19594E-02-1.36677E-01
 -1      1077-5.31996E-04 6.33692E-02-2.07001E-01
 -1      1078-4.73525E-04 6.26555E-02-3.43236E-01
 -1      1079-8.16963E-04 6.35694E-02-2.76355E-01
 -1      1080 1.41245E-03 1.83753E-02-4.11765E-01
 -1      1081-1.17626E-03 1.88325E-02-2.07323E-01
 -1      1082 4.55173E-04 1.77971E-02-1.35901E-01
 -1      1083-2.82828E-03 1.71969E-02-4.71894E-01
 -1      1084-5.24445E-04 1.86486E-02-4.11482E-01
 -1      1085 2.60598E-03 1.65919E-02-4.72752E-01
 -1      1086 6.72776E-04 1.72594E-02-1.36369E-01
 -1      1087-4.14436E-04 1.88603E-02-2.06826E-01
 -1      1088-2.40893E-03 1.94494E-02-2.76951E-01
 -1      1089 2.24371E-03 1.92034E-02-2.77480E-01
 -1      1090 1.89246E-03 1.91412E-02-3.45178E-01
 -1      1091-2.16493E-02 5.56281E-02-4.10389E-01
 -1      1092-2.46431E-02 5.70829E-02-3.44138E-01
 -1      1093-2.47473E-02 5.83841E-02-2.78204E-01
 -1      1094-2.42760E-02 5.89262E-02-2.08736E-01
 -1      1095-2.33340E-02 5.87346E-02-1.38817E-01
 -1      1096-2.28724E-02 5.79893E-02-1.37223E-01
 -1      1097-2.39093E-02 5.90512E-02-2.07425E-01
 -1      1098-2.05586E-02 5.23386E-02-4.69519E-01
 -1      1099-9.59692E-03 1.74657E-02-2.09560E-01
 -1      1100-7.83845E-03 1.72106E-02-1.38702E-01
 -1      1101-8.05933E-03 1.53130E-02-4.72617E-01
 -1      1102-7.79749E-03 1.67141E-02-4.12159E-01
 -1      1103-5.60551E-03 1.58567E-02-4.71718E-01
 -1      1104-6.76541E-03 1.53992E-02-1.36945E-01
 -1      1105-8.45251E-03 1.80693E-02-2.07702E-01
 -1      1106-8.82703E-03 1.64234E-02-3.45988E-01
 -1      1107-9.88001E-03 1.68472E-02-2.79293E-01
 -1      1108-4.85900E-03 1.88729E-02-2.77272E-01
 -1      1109-5.19586E-03 1.83500E-02-3.45454E-01
 -1      1110-4.13775E-02 4.39122E-02-4.12098E-01
 -1      1111-3.87277E-02 4.07181E-02-4.69932E-01
 -1      1112-4.55336E-02 4.45753E-02-2.75944E-01
 -1      1113-4.48871E-02 4.60257E-02-2.76313E-01
 -1      1114-4.38707E-02 4.55940E-02-3.44143E-01
 -1      1115-4.51984E-02 4.33879E-02-1.37932E-01
 -1      1116-4.61892E-02 4.47227E-02-2.07685E-01
 -1      1117-1.45291E-02 1.31258E-02-2.07640E-01
 -1      1118-1.45118E-02 1.27942E-02-1.37601E-01
 -1      1119-1.41440E-02 1.02960E-02-4.74235E-01
 -1      1120-1.40501E-02 1.14079E-02-4.14339E-01
 -1      1121-1.10781E-02 1.28998E-02-4.72136E-01
 -1      1122-1.34598E-02 1.38589E-02-1.37759E-01
 -1      1123-1.42160E-02 1.40471E-02-2.07757E-01
 -1      1124-1.54883E-02 1.19007E-02-3.46272E-01
 -1      1125-1.51843E-02 1.20601E-02-2.77610E-01
 -1      1126-1.22098E-02 1.53626E-02-2.76738E-01
 -1      1127-1.16885E-02 1.52251E-02-3.45095E-01
 -1      1128-5.57657E-02 2.35886E-02-4.11746E-01
 -1      1129-5.28804E-02 2.03816E-02-4.72232E-01
 -1      1130-6.03235E-02 2.42808E-02-2.77856E-01
 -1      1131-5.93882E-02 2.62219E-02-2.76992E-01
 -1      1132-5.82908E-02 2.45039E-02-3.45478E-01
 -1      1133-6.07199E-02 2.24720E-02-1.34682E-01
 -1      1134-6.12546E-02 2.45142E-02-2.07637E-01
 -1      1135-1.84743E-02 7.65373E-03-2.08156E-01
 -1      1136-1.92473E-02 6.31375E-03-1.34269E-01
 -1      1137-1.76601E-02 4.40721E-03-4.73286E-01
 -1      1138-1.73504E-02 5.77372E-03-4.14109E-01
 -1      1139-1.60017E-02 7.15822E-03-4.73428E-01
 -1      1140-1.84143E-02 8.19381E-03-1.35999E-01
 -1      1141-1.86020E-02 8.33887E-03-2.07957E-01
 -1      1142-1.78141E-02 9.64530E-03-2.78625E-01
 -1      1143-1.71936E-02 9.12969E-03-3.46801E-01
 -1      1144 0.00000E+00 0.00000E+00 0.00000E+00
 -1      1145 0.00000E+00 0.00000E+00 0.00000E+00
 -1      1146 0.00000E+00 0.00000E+00 0.00000E+00
 -1      1147 0.00000E+00 0.00000E+00 0.00000E+00
 -1      1148 0.00000E+00 0.00000E+00 0.00000E+00
 -1      1149 0.00000E+00 0.00000E+00 0.00000E+00
 -1      1150 0.00000E+00 0.00000E+00 0.00000E+00
 -1      1151 0.00000E+00 0.00000E+00 0.00000E+00
 -1      1152 0.00000E+00 0.00000E+00 0.00000E+00
 -1      1153 0.00000E+00 0.00000E+00 0.00000E+00
 -1      1154 0.00000E+00 0.00000E+00 0.00000E+00
 -1      1155 0.00000E+00 0.00000E+00 0.00000E+00
 -1      1156 0.00000E+00 0.00000E+00 0.00000E+00
 -1      1157 0.00000E+00 0.00000E+00 0.00000E+00
 -1      1158 0.00000E+00 0.00000E+00 0.00000E+00
 -1      1159 0.00000E+00 0.00000E+00 0.00000E+00
 -1      1160 0.00000E+00 0.00000E+00 0.00000E+00
 -1      1161 0.00000E+00 0.00000E+00 0.00000E+00
 -1      1162 0.00000E+00 0.00000E+00 0.00000E+00
 -1      1163 0.00000E+00 0.00000E+00 0.00000E+00
 -1      1164 0.00000E+00 0.00000E+00 0.00000E+00
 -1      1165 0.00000E+00 0.00000E+00 0.00000E+00
 -1      1166 0.00000E+00 0.00000E+00 0.00000E+00
 -1      1167 0.00000E+00 0.00000E+00 0.00000E+00
 -1      1168 0.00000E+00 0.00000E+00 0.00000E+00
 -1      1169 0.00000E+00 0.00000E+00 0.00000E+00
 -1      1170 0.00000E+00 0.00000E+00 0.00000E+00
 -1      1171 0.00000E+00 0.00000E+00 0.00000E+00
 -1      1172 0.00000E+00 0.00000E+00 0.00000E+00
 -1      1173 0.00000E+00 0.00000E+00 0.00000E+00
 -1      1174 0.00000E+00 0.00000E+00 0.00000E+00
 -1      1175 0.00000E+00 0.00000E+00 0.00000E+00
 -1      1176 0.00000E+00 0.00000E+00 0.00000E+00
 -1      1177 0.00000E+00 0.00000E+00 0.00000E+00
 -1      1178 0.00000E+00 0.00000E+00 0.00000E+00
 -1      1179 0.00000E+00 0.00000E+00 0.00000E+00
 -1      1180 0.00000E+00 0.00000E+00 0.00000E+00
 -1      1181 0.00000E+00 0.00000E+00 0.00000E+00
 -1      1182 0.00000E+00 0.00000E+00 0.00000E+00
 -1      1183 0.00000E+00 0.00000E+00 0.00000E+00
 -1      1184 0.00000E+00 0.00000E+00 0.00000E+00
 -1      1185 0.00000E+00 0.00000E+00 0.00000E+00
 -1      1186 0.00000E+00 0.00000E+00 0.00000E+00
 -1      1187 0.00000E+00 0.00000E+00 0.00000E+00
 -1      1188 0.00000E+00 0.00000E+00 0.00000E+00
 -1      1189 0.00000E+00 0.00000E+00 0.00000E+00
 -1      1190 0.00000E+00 0.00000E+00 0.00000E+00
 -1      1191 0.00000E+00 0.00000E+00 0.00000E+00
 -1      1192 0.00000E+00 0.00000E+00 0.00000E+00
 -1      1193 0.00000E+00 0.00000E+00 0.00000E+00
 -1      1194 0.00000E+00 0.00000E+00 0.00000E+00
 -1      1195 0.00000E+00 0.00000E+00 0.00000E+00
 -1      1196 0.00000E+00 0.00000E+00 0.00000E+00
 -1      1197 0.00000E+00 0.00000E+00 0.00000E+00
 -1      1198 0.00000E+00 0.00000E+00 0.00000E+00
 -1      1199 0.00000E+00 0.00000E+00 0.00000E+00
 -1      1200 0.00000E+00 0.00000E+00 0.00000E+00
 -1      1201 0.00000E+00 0.00000E+00 0.00000E+00
 -1      1202 0.00000E+00 0.00000E+00 0.00000E+00
 -1      1203 0.00000E+00 0.00000E+00 0.00000E+00
 -1      1204 0.00000E+00 0.00000E+00 0.00000E+00
 -1      1205 0.00000E+00 0.00000E+00 0.00000E+00
 -1      1206 0.00000E+00 0.00000E+00 0.00000E+00
 -1      1207 0.00000E+00 0.00000E+00 0.00000E+00
 -1      1208 0.00000E+00 0.00000E+00 0.00000E+00
 -1      1209 0.00000E+00 0.00000E+00 0.00000E+00
 -1      1210 0.00000E+00 0.00000E+00 0.00000E+00
 -1      1211 0.00000E+00 0.00000E+00 0.00000E+00
 -1      1212 0.00000E+00 0.00000E+00 0.00000E+00
 -1      1213 0.00000E+00 0.00000E+00 0.00000E+00
 -1      1214 0.00000E+00 0.00000E+00 0.00000E+00
 -1      1215 0.00000E+00 0.00000E+00 0.00000E+00
 -1      1216 0.00000E+00 0.00000E+00 0.00000E+00
 -1      1217 1.31782E-02-8.53808E-03-4.86162E-01
 -1      1218 1.38083E-02-7.11873E-03-4.87227E-01
 -1      1219 1.55338E-02 4.17170E-03-4.84604E-01
 -1      1220 1.57032E-02 2.73735E-03-4.86273E-01
 -1      1221 3.63887E-02 1.33073E-03-5.00264E-01
 -1      1222 1.35237E-02 8.45044E-05-4.99466E-01
 -1      1223-1.29327E-02-1.04721E-02-4.87881E-01
 -1      1224-1.42150E-02-9.32278E-03-4.89605E-01
 -1      1225 1.00002E-02-1.29356E-02-4.87685E-01
 -1      1226 8.35807E-03-1.38403E-02-4.89691E-01
 -1      1227 4.06386E-03-1.60312E-02-4.88274E-01
 -1      1228 1.74267E-03-1.63611E-02-4.90106E-01
 -1      1229-4.16953E-04-1.55971E-02-5.02229E-01
 -1      1230 4.60916E-03 1.55607E-02-4.86224E-01
 -1      1231 2.52719E-03 1.57637E-02-4.88282E-01
 -1      1232-1.34843E-02 9.90341E-03-4.87815E-01
 -1      1233-1.43346E-02 8.63297E-03-4.89119E-01
 -1      1234-1.63408E-02 3.91940E-03-4.87786E-01
 -1      1235-1.65649E-02 2.19316E-03-4.90051E-01
 -1      1236-4.32475E-03 1.55428E-02-4.85923E-01
 -1      1237-2.26564E-03 1.59911E-02-4.87109E-01
 -1      1238-1.50972E-02-2.74149E-04-5.01968E-01
 -1      1239 3.34066E-02-1.18498E-02-4.99494E-01
 -1      1240 1.46933E-02 3.98720E-03-4.91428E-01
 -1      1241 1.49089E-02 2.98106E-03-4.92553E-01
 -1      1242 1.18265E-04 1.48449E-02-4.99884E-01
 -1      1243-9.75803E-03 1.30345E-02-4.86601E-01
 -1      1244-8.40040E-03 1.37677E-02-4.88051E-01
 -1      1245-1.03496E-02-1.37170E-02-4.87436E-01
 -1      1246-8.48804E-03-1.43539E-02-4.88369E-01
 -1      1247 1.30996E-02 5.30925E-03-4.98844E-01
 -1      1248-9.87343E-03 9.25415E-03-5.01510E-01
 -1      1249 1.04701E-02 1.23968E-02-4.85997E-01
 -1      1250 9.00727E-03 1.35480E-02-4.87198E-01
 -1      1251-3.34191E-02-1.51265E-02-5.01694E-01
 -1      1252 1.36599E-02-3.34191E-02-5.01906E-01
 -1      1253 6.52174E-03 1.32703E-02-5.00160E-01
 -1      1254-1.61795E-02-4.84165E-03-4.88214E-01
 -1      1255-1.66192E-02-3.08192E-03-4.89331E-01
 -1      1256-9.55802E-03-1.02914E-02-5.02204E-01
 -1      1257 5.67078E-04-1.52093E-02-5.02803E-01
 -1      1258 1.24854E-02-4.43258E-03-4.99095E-01
 -1      1259 1.10453E-02 1.03719E-02-4.98937E-01
 -1      1260 4.00815E-03 1.49615E-02-4.93470E-01
 -1      1261 2.50887E-03 1.54126E-02-4.94656E-01
 -1      1262 3.52703E-03-1.55409E-02-4.95544E-01
 -1      1263 2.03128E-03-1.57836E-02-4.96505E-01
 -1      1264-3.40069E-02 1.31113E-02-5.01899E-01
 -1      1265 3.62823E-02 1.17112E-03-4.98739E-01
 -1      1266-1.12518E-03-3.64155E-02-5.02739E-01
 -1      1267-1.36388E-02 3.34132E-02-4.99504E-01
 -1      1268-1.19070E-03 3.63593E-02-5.01231E-01
 -1      1269 1.33954E-02 9.49317E-03-4.84924E-01
 -1      1270 1.45397E-02 8.18978E-03-4.87011E-01
 -1      1271 1.54662E-02-4.07829E-03-4.84906E-01
 -1      1272 1.56103E-02-1.70232E-03-4.86591E-01
 -1      1273-1.56589E-02 3.43611E-03-4.94598E-01
 -1      1274-1.59548E-02 2.31080E-03-4.95981E-01
 -1      1275 6.17275E-03-1.33575E-02-5.02326E-01
 -1      1276-3.71099E-02-1.98176E-03-5.03591E-01
 -1      1277-1.01351E-03 3.68017E-02-4.99599E-01
 -1      1278-1.39937E-02 5.56827E-03-5.01386E-01
 -1      1279-1.11174E-02-1.04210E-02-5.02250E-01
 -1      1280 1.00798E-02-1.21456E-02-4.94143E-01
 -1      1281 8.24684E-03-1.35788E-02-4.95168E-01
 -1      1282 1.27754E-02-8.09530E-03-4.92580E-01
 -1      1283 1.34731E-02-7.03395E-03-4.93178E-01
 -1      1284 2.65403E-02-2.48610E-02-5.01011E-01
 -1      1285 1.08295E-02-9.84264E-03-5.00652E-01
 -1      1286 3.37949E-02-1.26510E-02-4.98867E-01
 -1      1287-1.13891E-03-5.55637E-02-5.02170E-01
 -1      1288-2.55216E-02-2.60692E-02-5.01695E-01
 -1      1289 1.42663E-02 4.02937E-03-4.94738E-01
 -1      1290 1.44336E-02 2.94208E-03-4.95470E-01
 -1      1291-1.26692E-02-1.02670E-02-4.95020E-01
 -1      1292-1.37236E-02-9.35612E-03-4.95634E-01
 -1      1293 9.96446E-03 1.19985E-02-4.92378E-01
 -1      1294 9.09331E-03 1.27852E-02-4.93126E-01
 -1      1295-5.02090E-03-1.52159E-02-4.88957E-01
 -1      1296-2.59403E-03-1.61932E-02-4.89934E-01
 -1      1297 7.49957E-03 1.30227E-02-4.99549E-01
 -1      1298-1.58834E-02-3.25167E-02-5.03178E-01
 -1      1299-1.42553E-02-6.78195E-03-5.02113E-01
 -1      1300 3.35871E-02 1.41332E-02-4.99008E-01
 -1      1301 1.38423E-02 1.22478E-03-4.99134E-01
 -1      1302 1.04187E-02 1.08491E-02-4.98831E-01
 -1      1303-9.70519E-03-1.31034E-02-4.94024E-01
 -1      1304-8.81615E-03-1.36049E-02-4.94673E-01
 -1      1305 1.25178E-03 1.44634E-02-5.00135E-01
 -1      1306-5.24825E-03 1.23440E-02-5.00661E-01
 -1      1307-9.69669E-03 1.23365E-02-4.93506E-01
 -1      1308-8.04333E-03 1.32817E-02-4.94058E-01
 -1      1309-2.52911E-02 2.61962E-02-4.99696E-01
 -1      1310-1.32125E-02 3.31089E-02-5.01104E-01
 -1      1311 5.13194E-02 2.14337E-02-4.98310E-01
 -1      1312-4.05992E-03 1.50471E-02-4.92978E-01
 -1      1313-2.97933E-03 1.53274E-02-4.93447E-01
 -1      1314 3.34587E-02 1.38702E-02-4.98697E-01
 -1      1315 2.42726E-02 9.86098E-03-4.98586E-01
 -1      1316 1.35870E-02 4.80553E-03-4.97886E-01
 -1      1317 1.48529E-02-3.28957E-03-4.91485E-01
 -1      1318 1.48800E-02-2.05909E-03-4.92662E-01
 -1      1319 1.36233E-02-4.12308E-03-4.98284E-01
 -1      1320 1.23918E-02-8.50027E-03-4.95767E-01
 -1      1321 1.32477E-02-7.45155E-03-4.95931E-01
 -1      1322-8.68764E-04-3.65359E-02-5.02483E-01
 -1      1323 2.32757E-02-8.20821E-03-4.99482E-01
 -1      1324 1.30875E-02-5.66767E-03-4.99321E-01
 -1      1325-3.80425E-02 4.08997E-02-5.00461E-01
 -1      1326-2.00845E-02 5.19115E-02-5.00324E-01
 -1      1327 1.47546E-02 3.33418E-02-4.99718E-01
 -1      1328-5.97271E-03-1.26141E-02-5.02287E-01
 -1      1329-1.60626E-02-2.97739E-03-4.95858E-01
 -1      1330-1.55807E-02-4.52557E-03-4.96518E-01
 -1      1331-9.22679E-03 1.22007E-02-4.96554E-01
 -1      1332-8.05761E-03 1.29140E-02-4.97178E-01
 -1      1333-6.30307E-03 1.26725E-02-5.00332E-01
 -1      1334-3.69772E-02-1.82381E-03-5.00928E-01
 -1      1335 4.61406E-03-1.38969E-02-5.02438E-01
 -1      1336-1.28094E-02 9.22824E-03-4.94649E-01
 -1      1337-1.38078E-02 8.01050E-03-4.94930E-01
 -1      1338 2.61572E-02-2.47943E-02-5.00347E-01
 -1      1339 1.39934E-02-3.34850E-02-5.01731E-01
 -1      1340-2.53524E-02 2.62064E-02-5.01873E-01
 -1      1341-1.25324E-02-1.01818E-02-4.98256E-01
 -1      1342-1.35905E-02-9.17505E-03-4.98870E-01
 -1      1343 1.02495E-02-1.10045E-02-5.01271E-01
 -1      1344-1.09143E-02 9.58182E-03-5.01477E-01
 -1      1345-1.38343E-02-7.82894E-03-5.01747E-01
 -1      1346 2.05240E-03-1.54872E-02-4.99236E-01
 -1      1347 3.32262E-03-1.47774E-02-4.99303E-01
 -1      1348 8.03835E-03 1.24856E-02-4.99164E-01
 -1      1349 1.39849E-02-8.31137E-04-4.98705E-01
 -1      1350 2.56229E-02 1.22763E-03-4.98650E-01
 -1      1351-9.69118E-03-1.26959E-02-4.97253E-01
 -1      1352-8.60743E-03-1.32729E-02-4.97607E-01
 -1      1353-3.46726E-02 1.35236E-02-5.01229E-01
 -1      1354-9.89275E-03-1.15940E-02-5.00945E-01
 -1      1355-2.36762E-02-1.06434E-02-5.01851E-01
 -1      1356 2.66347E-02 2.43096E-02-4.99548E-01
 -1      1357-3.98994E-02-3.94908E-02-5.01593E-01
 -1      1358 1.31560E-02 9.13308E-03-4.91642E-01
 -1      1359 1.40153E-02 7.96491E-03-4.92615E-01
 -1      1360 9.78324E-03-2.45825E-02-5.01793E-01
 -1      1361-6.92430E-04-2.58161E-02-5.02660E-01
 -1      1362-1.57597E-02-3.28585E-02-5.00836E-01
 -1      1363 2.65683E-02 2.46070E-02-4.98194E-01
 -1      1364 1.45708E-02 3.32179E-02-5.00340E-01
 -1      1365-1.56532E-02-3.00983E-03-4.98540E-01
 -1      1366-1.53927E-02-4.30067E-03-4.99029E-01
 -1      1367-7.20248E-03-1.30054E-02-5.01305E-01
 -1      1368 1.00655E-02 1.17334E-02-4.95688E-01
 -1      1369 8.85629E-03 1.25307E-02-4.95975E-01
 -1      1370-1.60964E-02-1.46136E-03-5.02131E-01
 -1      1371-1.82771E-02-1.87101E-02-5.01529E-01
 -1      1372-9.77217E-03 1.07154E-02-5.00855E-01
 -1      1373-1.51472E-02 3.26900E-03-4.97680E-01
 -1      1374-1.54975E-02 2.13727E-03-4.98835E-01
 -1      1375-1.41124E-02 4.29745E-03-5.01425E-01
 -1      1376 1.14411E-02-8.55318E-03-5.00255E-01
 -1      1377-4.40136E-03-1.52106E-02-4.95034E-01
 -1      1378-3.14442E-03-1.57401E-02-4.95757E-01
 -1      1379 1.19714E-02-8.60455E-03-4.99582E-01
 -1      1380-2.59460E-02-2.62942E-02-5.01749E-01
 -1      1381-1.87456E-02-1.95384E-02-5.01341E-01
 -1      1382 1.02124E-02 1.13878E-02-4.98797E-01
 -1      1383 1.44918E-02-3.10634E-03-4.94732E-01
 -1      1384 1.45493E-02-2.16298E-03-4.95368E-01
 -1      1385 2.43679E-02-8.84274E-03-4.98535E-01
 -1      1386 1.36625E-02-6.35562E-03-4.98822E-01
 -1      1387 2.62905E-02 5.82803E-04-4.99688E-01
 -1      1388 1.39635E-02-3.67345E-03-4.98171E-01
 -1      1389-9.95533E-03-1.20943E-02-5.00950E-01
 -1      1390 1.41694E-02 3.87265E-03-4.96337E-01
 -1      1391 1.41352E-02 2.70241E-03-4.96825E-01
 -1      1392-1.48136E-02 8.76152E-04-5.02238E-01
 -1      1393 1.41518E-02 1.89503E-03-4.98509E-01
 -1      1394 1.37451E-02 4.56268E-03-4.97910E-01
 -1      1395-1.59245E-02-2.32091E-03-5.01838E-01
 -1      1396-9.78462E-03 2.39383E-02-5.00645E-01
 -1      1397-2.65952E-02-1.40484E-03-5.01542E-01
 -1      1398 1.11138E-02 2.37828E-02-4.99888E-01
 -1      1399 9.45115E-03-1.24624E-02-4.97393E-01
 -1      1400 8.43294E-03-1.31841E-02-4.97917E-01
 -1      1401 1.87998E-02-1.78246E-02-5.01070E-01
 -1      1402 7.27805E-03-1.30593E-02-5.01586E-01
 -1      1403-3.39216E-02-1.48696E-02-5.02056E-01
 -1      1404 1.40805E-02 2.35430E-03-4.98230E-01
 -1      1405 6.91312E-03-1.98098E-02-5.01932E-01
 -1      1406-1.35861E-02 6.56107E-03-5.01207E-01
 -1      1407 5.25868E-03 1.38785E-02-5.00186E-01
 -1      1408 1.43121E-02-1.52286E-03-4.98325E-01
 -1      1409-1.47496E-02-5.97061E-03-5.02266E-01
 -1      1410 1.25729E-02-8.31499E-03-4.97243E-01
 -1      1411 1.31671E-02-7.46210E-03-4.97278E-01
 -1      1412 1.79429E-03 1.47804E-02-5.00323E-01
 -1      1413 3.68704E-03 1.46727E-02-4.96493E-01
 -1      1414 2.60457E-03 1.50771E-02-4.97516E-01
 -1      1415 3.90358E-03-1.39646E-02-5.01926E-01
 -1      1416 1.25154E-03-1.50741E-02-5.02079E-01
 -1      1417-9.46735E-03-1.27679E-02-4.98883E-01
 -1      1418-8.72281E-03-1.30964E-02-4.99129E-01
 -1      1419-7.90420E-03-1.30844E-02-5.00738E-01
 -1      1420 1.93872E-02-1.72623E-02-4.99974E-01
 -1      1421 1.89062E-02 7.47776E-03-4.98369E-01
 -1      1422 1.44396E-02-2.98224E-03-4.96273E-01
 -1      1423 1.44597E-02-2.16402E-03-4.96757E-01
 -1      1424 1.54902E-02-1.31568E-02-4.99612E-01
 -1      1425 1.31041E-02 8.95354E-03-4.94924E-01
 -1      1426 1.37690E-02 7.89450E-03-4.95304E-01
 -1      1427 1.91739E-02-6.82829E-03-4.98341E-01
 -1      1428-1.15697E-02-2.38437E-02-5.00715E-01
 -1      1429 2.03622E-02 1.35402E-03-4.98401E-01
 -1      1430 1.03947E-02-2.40920E-02-5.01619E-01
 -1      1431 1.44719E-02-1.95762E-03-4.98116E-01
 -1      1432-4.07047E-04 2.61676E-02-5.00764E-01
 -1      1433-2.50032E-02 9.29818E-03-5.01394E-01
 -1      1434-1.83518E-02 1.83991E-02-4.99549E-01
 -1      1435-1.50596E-02 3.09649E-03-4.99347E-01
 -1      1436-1.52536E-02 2.10809E-03-4.99986E-01
 -1      1437 1.20330E-02 1.00587E-02-4.98721E-01
 -1      1438-9.52882E-03-1.91366E-02-5.00695E-01
 -1      1439 1.39258E-02 6.67218E-03-4.98944E-01
 -1      1440-2.72947E-02-6.58817E-04-5.02955E-01
 -1      1441-1.43230E-02 3.74116E-03-5.00871E-01
 -1      1442-4.31688E-03-1.49401E-02-4.98087E-01
 -1      1443-2.93860E-03-1.54486E-02-4.98519E-01
 -1      1444-1.24133E-02 8.93346E-03-4.97543E-01
 -1      1445-1.32697E-02 8.01027E-03-4.97814E-01
 -1      1446-1.46631E-02-1.56457E-02-5.01068E-01
 -1      1447-1.27402E-02-9.86801E-03-4.99804E-01
 -1      1448-1.36420E-02-9.00846E-03-5.00198E-01
 -1      1449 1.90004E-02 1.76948E-02-4.99451E-01
 -1      1450-1.38654E-02-8.38266E-03-5.01983E-01
 -1      1451 4.49372E-03 1.40739E-02-4.99994E-01
 -1      1452-1.20068E-02-1.04020E-02-5.01767E-01
 -1      1453-1.44495E-03-1.48852E-02-5.01900E-01
 -1      1454-4.09079E-03-1.49928E-02-4.99718E-01
 -1      1455-3.13708E-03-1.53348E-02-4.99992E-01
 -1      1456-1.49883E-02 1.45413E-03-5.01576E-01
 -1      1457-5.18490E-03-1.37270E-02-5.01856E-01
 -1      1458-1.00172E-03-2.66738E-02-5.02028E-01
 -1      1459-2.26257E-03-1.51925E-02-5.01466E-01
 -1      1460-5.13016E-03 1.34512E-02-5.00010E-01
 -1      1461-8.82226E-03 1.22792E-02-4.98175E-01
 -1      1462-8.03917E-03 1.27180E-02-4.98597E-01
 -1      1463-9.49157E-03 1.14081E-02-5.00178E-01
 -1      1464-1.85899E-02 1.86597E-02-5.01308E-01
 -1      1465 2.08777E-02-2.16911E-04-4.99214E-01
 -1      1466-2.49695E-02 9.53526E-03-5.01546E-01
 -1      1467-4.10129E-03 1.47091E-02-4.96061E-01
 -1      1468-2.72504E-03 1.48302E-02-4.96381E-01
 -1      1469-7.01131E-03 1.32097E-02-5.00033E-01
 -1      1470-4.64032E-03-1.42252E-02-5.01550E-01
 -1      1471-1.96715E-02-7.98333E-03-5.01602E-01
 -1      1472 1.86292E-02-7.20376E-03-4.99034E-01
 -1      1473 3.61975E-03 1.45931E-02-4.98180E-01
 -1      1474 2.66301E-03 1.49225E-02-4.98789E-01
 -1      1475-6.77772E-04 2.64914E-02-4.99505E-01
 -1      1476 1.04755E-02 2.40724E-02-5.00200E-01
 -1      1477-1.30748E-02 7.08621E-03-5.00899E-01
 -1      1478 1.91138E-02 1.72304E-02-4.98353E-01
 -1      1479 2.39369E-02 9.86695E-03-4.98522E-01
 -1      1480 1.24956E-02 9.24399E-03-4.98494E-01
 -1      1481 4.10082E-04 2.04893E-02-5.00634E-01
 -1      1482 9.78859E-03 1.18673E-02-4.97256E-01
 -1      1483 8.99180E-03 1.23938E-02-4.97556E-01
 -1      1484-1.99012E-02 7.14550E-03-5.01326E-01
 -1      1485 8.09946E-03 1.90642E-02-5.00179E-01
 -1      1486-1.25852E-03 1.42956E-02-4.99660E-01
 -1      1487-2.44068E-02-1.13027E-02-5.01878E-01
 -1      1488-1.09960E-02-2.37874E-02-5.02706E-01
 -1      1489-1.49013E-02-1.46277E-02-5.01573E-01
 -1      1490 9.25516E-03 1.87212E-02-4.99565E-01
 -1      1491-2.17693E-02-8.89219E-05-5.02366E-01
 -1      1492-1.11762E-02 9.08631E-03-5.00678E-01
 -1      1493-1.02929E-03-2.13374E-02-5.01757E-01
 -1      1494 9.29006E-03-1.22547E-02-4.98718E-01
 -1      1495 8.61968E-03-1.28853E-02-4.99226E-01
 -1      1496 9.96602E-03-1.15400E-02-5.00493E-01
 -1      1497-1.39352E-02 1.47285E-02-4.99741E-01
 -1      1498 7.80561E-03-1.30351E-02-5.01048E-01
 -1      1499-8.57447E-03 1.87454E-02-5.00379E-01
 -1      1500-3.88759E-03 1.46387E-02-4.97630E-01
 -1      1501-2.82086E-03 1.46779E-02-4.97933E-01
 -1      1502-9.75786E-03 2.37161E-02-4.99552E-01
 -1      1503-4.71547E-03 1.41718E-02-4.99700E-01
 -1      1504-1.94273E-02-9.82402E-03-5.01680E-01
 -1      1505-1.23211E-02 8.78623E-03-4.99073E-01
 -1      1506-1.31068E-02 7.91782E-03-4.99341E-01
 -1      1507-1.94309E-03 1.42788E-02-4.99315E-01
 -1      1508-1.49308E-02 1.44150E-02-5.01174E-01
 -1      1509-1.48632E-02-4.95406E-03-5.01631E-01
 -1      1510 1.49998E-02 1.47028E-02-4.99254E-01
 -1      1511-8.55964E-03-1.92121E-02-5.02146E-01
 -1      1512 1.37147E-02 7.23041E-03-4.98415E-01
 -1      1513-7.95922E-04 2.08316E-02-4.99531E-01
 -1      1514 1.43205E-02-1.44565E-02-5.00743E-01
 -1      1515 9.02670E-03-1.88023E-02-5.01212E-01
 -1      1516-7.24733E-03 1.87788E-02-4.99477E-01
 -1      1517-1.96663E-02 8.13864E-03-5.01277E-01
 -1      1518-6.34079E-03-1.91933E-02-9.73525E-02
 -1      1519-1.22814E-02 1.31438E-02-9.50953E-02
 -1      1520-6.93126E-03 2.59616E-02-2.20727E-01
 -1      1521 1.01420E-02-1.52475E-02-9.75678E-02
 -1      1522 1.38177E-03-1.77380E-02-9.81816E-02
 -1      1523-2.54093E-02-1.19616E-03-3.18441E-01
 -1      1524 2.16330E-02 4.45631E-03-4.02348E-01
 -1      1525 1.20078E-02-3.99282E-03-3.02504E-02
 -1      1526 1.55819E-02 3.90785E-03-4.41599E-02
 -1      1527 8.79347E-03-2.06265E-03-4.36335E-02
 -1      1528 2.13074E-02 5.07310E-03-9.82056E-02
 -1      1529 1.38964E-02-4.38973E-04-3.37788E-02
 -1      1530-1.79037E-02 5.99004E-03-9.14587E-02
 -1      1531 8.25550E-03-7.04377E-03-3.05460E-02
 -1      1532 1.86546E-02 1.26830E-02-1.22272E-01
 -1      1533 1.12191E-02-7.73999E-03-4.31289E-02
 -1      1534 1.08686E-02 7.07113E-03-4.44055E-02
 -1      1535 7.35495E-03 3.28151E-03-2.97092E-02
 -1      1536 1.00958E-03 1.14242E-03-5.32654E-01
 -1      1537-9.77219E-03-1.08382E-02-3.58820E-02
 -1      1538-7.13659E-03-1.22996E-02-4.44803E-02
 -1      1539-5.07987E-03-8.97518E-03-3.42429E-02
 -1      1540-2.47915E-03-1.43260E-02-4.92259E-02
 -1      1541 1.40287E-04-1.29718E-02-3.24210E-02
 -1      1542-1.19227E-03 1.85943E-02-8.90518E-02
 -1      1543 3.91616E-03-1.25153E-02-4.69281E-02
 -1      1544 2.61880E-03-7.31323E-03-2.91672E-02
 -1      1545 6.08987E-03 1.93367E-02-7.86040E-02
 -1      1546 5.67304E-03-1.00511E-02-4.33518E-02
 -1      1547-1.38648E-02-6.72597E-03-3.18519E-02
 -1      1548-9.61243E-03-5.28878E-03-4.41752E-02
 -1      1549 7.37652E-03 1.61208E-03-2.22579E-02
 -1      1550-1.44326E-02 6.42786E-04-3.43848E-02
 -1      1551-6.27044E-03-1.35423E-02-5.41941E-02
 -1      1552-1.15302E-02 3.17518E-03-4.51161E-02
 -1      1553-1.31235E-02-2.30985E-03-4.49245E-02
 -1      1554-7.30982E-03 2.15913E-03-3.01281E-02
 -1      1555-1.99539E-02-4.37753E-03-1.49106E-01
 -1      1556-9.86449E-03 6.74751E-03-4.59292E-02
 -1      1557-6.52311E-03 7.69312E-03-3.44094E-02
 -1      1558-7.48208E-03 1.02842E-02-4.88424E-02
 -1      1559-2.59472E-03 7.49879E-03-3.16867E-02
 -1      1560-2.70432E-03 1.12325E-02-4.65308E-02
 -1      1561 3.81912E-04 1.11950E-02-3.26867E-02
 -1      1562 2.60918E-03 9.43185E-03-4.60734E-02
 -1      1563 4.89099E-03 1.04597E-02-3.10021E-02
 -1      1564 5.82068E-03 1.13038E-02-4.56861E-02
 -1      1565 1.05548E-02 8.97027E-03-3.31088E-02
 -1      1566-6.13641E-03 1.77568E-02-7.64277E-02
 -1      1567 1.19207E-02 3.23860E-03-2.99615E-02
 -1      1568-2.10866E-02 1.55849E-02-2.95644E-01
 -1      1569-1.99734E-02-4.62025E-03-9.69671E-02
 -1      1570-1.46808E-02-8.27477E-03-1.10544E-01
 -1      1571 3.88480E-03-1.16105E-02-5.47701E-02
 -1      1572 1.75865E-03 7.27094E-03-1.89714E-02
 -1      1573 8.52877E-03 1.59148E-02-7.25684E-02
 -1      1574-1.82142E-02 4.22543E-03-6.97257E-02
 -1      1575 8.70138E-03 6.02187E-03-3.68324E-02
 -1      1576-1.21375E-02 3.35574E-03-5.20324E-02
 -1      1577-4.05686E-03-6.45294E-03-1.84606E-02
 -1      1578-8.67049E-03 1.26688E-03-2.54973E-02
 -1      1579-2.49899E-02 6.85668E-03-2.10922E-01
 -1      1580-1.87337E-03 1.85990E-02-4.74844E-01
 -1      1581 1.90086E-03 6.76082E-03-2.24206E-02
 -1      1582-8.89073E-03 1.39098E-02-5.52409E-02
 -1      1583 4.02907E-03-1.58016E-02-1.12908E-01
 -1      1584 2.25293E-02-1.01255E-02-1.91307E-01
 -1      1585-7.70974E-03 1.09514E-02-6.11790E-02
 -1      1586-7.62265E-03 6.77787E-03-4.00836E-02
 -1      1587-1.60041E-02-1.00273E-02-9.72025E-02
 -1      1588 3.75296E-03 1.72607E-02-1.10758E-01
 -1      1589 8.66446E-03-7.08939E-03-5.47261E-02
 -1      1590-4.91376E-03 1.26273E-02-2.10019E-02
 -1      1591-1.74311E-02-1.60509E-03-9.45457E-02
 -1      1592 5.53253E-03 1.36316E-02-6.57972E-02
 -1      1593-1.17394E-02 2.32955E-02-3.49756E-01
 -1      1594 1.68456E-02-4.31835E-03-1.07724E-01
 -1      1595 1.16041E-02-1.06107E-02-5.75813E-02
 -1      1596 1.28091E-03-5.83084E-03-1.94097E-02
 -1      1597-8.33545E-03 3.65369E-03-2.89534E-02
 -1      1598-1.91856E-02 8.61185E-03-4.49124E-01
 -1      1599-8.12146E-03-2.13789E-03-2.86844E-02
 -1      1600 7.97849E-03-6.86551E-03-1.91603E-02
 -1      1601 1.58199E-02 9.98585E-03-1.11136E-01
 -1      1602-2.20879E-02 1.10043E-02-1.93827E-01
 -1      1603 4.67530E-05 1.17026E-02-3.11802E-02
 -1      1604 3.94021E-05-7.14440E-03-1.88276E-02
 -1      1605 7.25212E-03-1.12432E-03-2.11567E-02
 -1      1606 1.41845E-02-5.08783E-03-6.65023E-02
 -1      1607 6.27355E-03-1.00178E-02-3.38777E-02
 -1      1608-9.89825E-03 1.49103E-02-1.00962E-01
 -1      1609-5.06665E-03 1.30368E-02-3.68298E-02
 -1      1610 8.58750E-03 8.80179E-03-5.47266E-02
 -1      1611-6.48864E-03 7.76002E-03-2.87548E-02
 -1      1612-1.06156E-02 3.35829E-03-3.02548E-02
 -1      1613-4.66084E-03-1.27994E-02-5.82935E-02
 -1      1614-5.15705E-03-1.62398E-02-1.17284E-01
 -1      1615-1.09614E-02 7.91825E-03-5.74337E-02
 -1      1616-2.51368E-04-6.93853E-03-1.65401E-02
 -1      1617-8.97429E-04-1.47087E-02-5.80471E-02
 -1      1618 2.73194E-03-1.84110E-02-1.82675E-01
 -1      1619 7.63290E-03-9.04126E-03-5.73308E-02
 -1      1620 1.35578E-02 2.06805E-03-5.69690E-02
 -1      1621 5.32521E-03-5.03315E-03-2.08249E-02
 -1      1622-1.80400E-02 1.23876E-02-1.21111E-01
 -1      1623 1.68244E-02-1.13799E-02-1.80649E-01
 -1      1624 1.85348E-02 3.85316E-03-1.44218E-01
 -1      1625 1.77145E-02-1.74484E-02-1.80923E-01
 -1      1626 1.93819E-02-4.19512E-03-1.79803E-01
 -1      1627 1.08695E-02 6.89223E-03-5.31942E-02
 -1      1628 1.26682E-02-8.83680E-03-4.13731E-02
 -1      1629 1.08131E-02-2.48339E-03-3.01314E-02
 -1      1630 1.33094E-02-1.10449E-03-5.67762E-02
 -1      1631 1.41597E-02-1.59936E-02-1.14360E-01
 -1      1632-2.22305E-02 7.76034E-03-1.49647E-01
 -1      1633 8.71779E-03 1.11474E-02-3.57293E-02
 -1      1634 2.92691E-04 1.36486E-02-5.68660E-02
 -1      1635-1.09466E-02 2.08319E-02-1.22698E-01
 -1      1636-1.39845E-02-4.20622E-03-5.36103E-02
 -1      1637-1.47584E-02 1.05933E-02-1.12352E-01
 -1      1638-4.24315E-03 4.74824E-03-1.76206E-02
 -1      1639 1.84796E-02-9.47689E-03-9.70403E-02
 -1      1640-1.14934E-02-8.86237E-03-3.39076E-02
 -1      1641 1.42665E-02-1.85548E-02-1.77318E-01
 -1      1642-9.86496E-03-1.11661E-02-5.56218E-02
 -1      1643 7.41680E-03 8.77593E-04-2.29304E-02
 -1      1644 5.62069E-03-1.58287E-02-4.12579E-02
 -1      1645 3.45493E-03 1.28472E-02-2.75257E-02
 -1      1646 4.15674E-03-1.56208E-02-5.22733E-02
 -1      1647-3.58136E-03 6.45232E-03-2.39833E-02
 -1      1648 4.30381E-03 1.00078E-02-2.16472E-02
 -1      1649 1.32141E-02-9.87592E-03-5.61936E-02
 -1      1650 5.81624E-03 3.02671E-03-2.02430E-02
 -1      1651 2.39262E-02 8.84203E-03-2.48553E-01
 -1      1652 1.23475E-02-1.05640E-03-5.62243E-02
 -1      1653 5.79346E-03-2.41107E-02-1.55643E-01
 -1      1654 3.03988E-03-5.88232E-03-1.33550E-02
 -1      1655-2.86058E-03-1.41764E-02-5.29757E-02
 -1      1656-8.72703E-03-1.36089E-02-9.95196E-02
 -1      1657-6.41804E-03-1.59565E-03-1.78161E-02
 -1      1658-2.42648E-02 1.03098E-02-2.62698E-01
 -1      1659-1.02843E-02 1.10175E-02-5.70435E-02
 -1      1660 1.32749E-02-1.78617E-02-4.08633E-01
 -1      1661 8.73830E-03-4.98142E-03-5.21928E-02
 -1      1662 6.40985E-03 2.75974E-04-1.73110E-02
 -1      1663 5.23597E-03 1.31687E-02-5.96925E-02
 -1      1664-2.79389E-03-7.29723E-03-1.61126E-02
 -1      1665-2.37951E-02 8.88294E-03-2.03542E-01
 -1      1666 2.22796E-02-7.33138E-03-1.29154E-01
 -1      1667-2.68312E-03 5.18624E-03-2.03299E-02
 -1      1668 7.41398E-03 4.21703E-03-1.94815E-02
 -1      1669 2.09024E-02 8.79392E-03-1.42667E-01
 -1      1670 4.81179E-03 6.33624E-03-1.90760E-02
 -1      1671 2.76819E-04-3.91392E-03-5.26236E-01
 -1      1672 1.18336E-02 7.22819E-03-5.01843E-01
 -1      1673 3.60850E-03 8.34361E-03-2.37608E-02
 -1      1674 1.06851E-02 1.65414E-02-1.15375E-01
 -1      1675-1.77957E-02-1.11847E-02-4.25565E-01
 -1      1676-1.56728E-03-2.28531E-02-4.11899E-01
 -1      1677-7.58616E-03 1.58057E-02-7.77573E-02
 -1      1678-5.83909E-03 4.54166E-03-5.16403E-01
 -1      1679-1.14298E-04 8.70584E-03-2.22129E-02
 -1      1680 3.70812E-03-3.75303E-03-1.96323E-02
 -1      1681-6.76540E-03 2.39417E-02-1.51091E-01
 -1      1682-1.38340E-02 1.41039E-02-4.63599E-01
 -1      1683-1.75103E-03 6.24201E-03-2.23118E-02
 -1      1684-4.75725E-03 3.16992E-03-1.14978E-02
 -1      1685 1.58743E-02-1.16981E-02-1.06005E-01
 -1      1686 7.68440E-03-5.18125E-03-3.06650E-02
 -1      1687-8.33138E-03 1.00204E-02-5.84365E-02
 -1      1688-6.03245E-03 1.00296E-03-2.22307E-02
 -1      1689 9.77963E-03 2.47070E-02-2.51067E-01
 -1      1690 2.55158E-03 2.42210E-02-2.02337E-01
 -1      1691-7.66922E-03 1.66574E-03-2.09650E-02
 -1      1692-2.26504E-02 8.93366E-03-3.59870E-01
 -1      1693-9.53641E-03-1.14116E-04-2.15336E-02
 -1      1694-1.83698E-02 3.29456E-03-1.11007E-01
 -1      1695-8.60623E-03 1.67422E-03-2.05993E-02
 -1      1696-6.02222E-03 7.98398E-04-2.08268E-02
 -1      1697 2.06331E-02-3.68497E-03-1.18593E-01
 -1      1698-1.77187E-02 1.44339E-02-3.96855E-01
 -1      1699-6.87304E-03-2.96809E-03-2.01552E-02
 -1      1700-6.69222E-03-5.15740E-03-2.11583E-02
 -1      1701-1.79835E-02 4.40451E-03-6.84288E-02
 -1      1702-2.23924E-02 5.02255E-03-1.18593E-01
 -1      1703 8.72119E-03-8.71276E-03-2.05280E-02
 -1      1704-2.51142E-02 5.98521E-03-2.91784E-01
 -1      1705-8.52090E-03-6.94988E-03-6.13025E-02
 -1      1706 2.48215E-03-7.26555E-03-2.21847E-02
 -1      1707 9.75696E-03-1.24182E-02-1.09847E-01
 -1      1708 3.33544E-03 4.46782E-03-5.25342E-01
 -1      1709 4.21412E-03-3.49734E-03-5.22645E-01
 -1      1710-7.11963E-03 1.38666E-02-4.97742E-01
 -1      1711 3.86831E-03 4.55432E-03-1.89841E-02
 -1      1712 5.23812E-03-3.79177E-03-2.21097E-02
 -1      1713-5.19444E-03-4.64680E-03-2.01559E-02
 -1      1714-1.13618E-02 1.21154E-02-6.15993E-02
 -1      1715-8.12721E-03-1.13644E-02-3.17553E-02
 -1      1716 1.51057E-02 4.57051E-03-6.41759E-02
 -1      1717-1.21096E-02-1.12677E-02-8.75138E-02
 -1      1718-1.31741E-03 6.55867E-03-1.90618E-02
 -1      1719-1.42520E-02-4.98816E-04-2.77737E-02
 -1      1720-1.23211E-02-1.79531E-02-1.22601E-01
 -1      1721-1.95720E-04 2.52600E-02-3.45887E-01
 -1      1722-2.38493E-02-9.70762E-03-2.21832E-01
 -1      1723-2.10792E-02 1.33882E-02-3.49843E-01
 -1      1724 4.02712E-03-1.78291E-04-1.47104E-02
 -1      1725 7.24770E-03-1.41925E-02-6.60801E-02
 -1      1726-2.05315E-02 1.01348E-02-4.05183E-01
 -1      1727 1.99253E-02-1.23011E-02-1.51166E-01
 -1      1728-1.38562E-02 1.99999E-02-1.34664E-01
 -1      1729 3.93923E-03 5.54270E-03-2.19925E-02
 -1      1730 3.59631E-03 1.79322E-02-6.59380E-02
 -1      1731-1.37916E-02-2.15576E-02-2.95693E-01
 -1      1732 8.58091E-03-1.97421E-02-1.24939E-01
 -1      1733 4.55069E-03-1.06800E-03-2.09370E-02
 -1      1734-1.93944E-02 1.06472E-02-1.40003E-01
 -1      1735 9.65619E-03-2.43117E-02-2.92676E-01
 -1      1736 1.36881E-03 5.76304E-03-5.22149E-01
 -1      1737-5.07113E-03-4.79091E-03-1.95586E-02
 -1      1738-9.54332E-03-1.04585E-02-5.37325E-02
 -1      1739-1.11595E-03 2.58559E-02-2.67637E-01
 -1      1740-4.20506E-03 1.43801E-03-1.31699E-02
 -1      1741 6.54470E-03-1.61522E-02-8.85884E-02
 -1      1742-1.75737E-02-1.13845E-02-1.77102E-01
 -1      1743 1.41375E-02 1.02312E-02-6.39840E-02
 -1      1744 3.38566E-03-1.11912E-02-2.76677E-02
 -1      1745-4.03669E-04-1.09555E-02-3.00580E-02
 -1      1746 1.66410E-02-4.68045E-03-6.65218E-02
 -1      1747 6.15580E-03 1.66125E-03-1.74033E-02
 -1      1748-1.72234E-02 1.18486E-03-7.02532E-02
 -1      1749 1.30549E-02-8.97736E-03-9.67863E-02
 -1      1750 3.70656E-03-2.33864E-02-1.22623E-01
 -1      1751-2.50812E-02-6.04952E-04-1.88734E-01
 -1      1752 3.14890E-03-1.02118E-02-2.26676E-02
 -1      1753-2.18631E-02 1.39201E-02-2.47129E-01
 -1      1754-1.03641E-04-5.41232E-03-5.26887E-01
 -1      1755-1.19144E-02 2.33304E-02-2.34213E-01
 -1      1756-8.35835E-03 3.16060E-03-1.59248E-02
 -1      1757 1.21687E-02 9.57949E-05-6.01895E-02
 -1      1758 5.95517E-03-1.85495E-02-4.73626E-01
 -1      1759 6.49423E-03-2.26683E-02-3.77744E-01
 -1      1760-1.34873E-02 8.88940E-03-6.87654E-02
 -1      1761-2.06259E-02-1.42937E-02-3.12594E-01
 -1      1762-3.16528E-03-6.69923E-03-2.82677E-02
 -1      1763-2.57836E-02 4.91253E-04-2.54257E-01
 -1      1764 1.67088E-02 1.22888E-02-1.78650E-01
 -1      1765-1.20267E-02 1.56298E-02-1.65526E-01
 -1      1766-1.38008E-02-4.81391E-03-4.99587E-01
 -1      1767-2.91542E-04-8.93122E-03-2.29090E-02
 -1      1768 1.62042E-02 9.77544E-03-8.22802E-02
 -1      1769 6.89195E-03 2.77673E-03-1.86133E-02
 -1      1770 1.32432E-02 1.46775E-02-1.15000E-01
 -1      1771 2.04612E-02 5.04922E-03-1.09111E-01
 -1      1772-1.82863E-02 1.87685E-02-3.30817E-01
 -1      1773 1.22534E-02-1.54415E-02-1.81869E-01
 -1      1774 4.71483E-03-6.50338E-04-1.28260E-02
 -1      1775-2.98615E-03-1.57303E-02-5.35120E-02
 -1      1776 6.16653E-03 5.96510E-03-1.89086E-02
 -1      1777-1.42567E-02 2.78775E-03-4.93871E-01
 -1      1778-4.48517E-03 2.40917E-03-2.27683E-02
 -1      1779 1.46083E-02-9.73414E-03-7.98673E-02
 -1      1780 6.87415E-04-1.77642E-02-5.72429E-02
 -1      1781 3.25089E-03-2.15883E-02-4.29208E-01
 -1      1782-8.90984E-03 2.42251E-02-2.08334E-01
 -1      1783-2.89993E-03 2.26948E-02-1.17716E-01
 -1      1784 2.26496E-03-1.41618E-02-6.26165E-02
 -1      1785 1.67579E-02 3.78359E-03-9.22360E-02
 -1      1786-2.48311E-03-5.56905E-03-1.71020E-02
 -1      1787 1.14846E-02 1.55379E-02-8.83359E-02
 -1      1788-8.24121E-04 1.68777E-02-3.55928E-02
 -1      1789-1.74168E-02 1.23330E-02-4.41084E-01
 -1      1790-9.03207E-03 6.14510E-03-1.88134E-02
 -1      1791-3.10427E-03 2.54682E-02-1.98548E-01
 -1      1792 2.23761E-02 4.66968E-04-1.36109E-01
 -1      1793-3.27225E-03-4.14625E-03-1.39570E-02
 -1      1794-6.39860E-03-1.46897E-02-7.08449E-02
 -1      1795-7.64014E-03 2.52665E-02-3.05998E-01
 -1      1796 2.53468E-02-9.77289E-04-2.77068E-01
 -1      1797-1.12134E-02-1.54904E-02-9.39318E-02
 -1      1798 4.60001E-03-2.59753E-02-2.38158E-01
 -1      1799-2.06984E-02-9.13023E-03-1.19568E-01
 -1      1800-2.43131E-02 3.27656E-03-3.53732E-01
 -1      1801-1.27189E-02 1.85664E-02-4.05245E-01
 -1      1802 9.09820E-04 2.21046E-02-1.49997E-01
 -1      1803 8.32972E-03 2.24064E-02-1.53056E-01
 -1      1804-4.10370E-03 5.95936E-03-2.00540E-02
 -1      1805 4.66618E-03 1.87879E-02-1.03674E-01
 -1      1806-3.93244E-03 1.71850E-02-1.11149E-01
 -1      1807-2.31126E-02 3.29363E-03-1.21651E-01
 -1      1808-9.41344E-03-2.21312E-02-1.99642E-01
 -1      1809-4.44623E-03-2.01647E-02-1.13486E-01
 -1      1810 2.38139E-02 4.89818E-03-1.83133E-01
 -1      1811-1.74054E-02 2.06238E-02-2.30740E-01
 -1      1812 1.06345E-02 8.62942E-03-6.44189E-02
 -1      1813 1.87730E-02 1.73661E-02-2.68515E-01
 -1      1814-3.84847E-03 2.13360E-02-7.76328E-02
 -1      1815-7.00638E-03-1.28014E-02-6.13576E-02
 -1      1816 1.59611E-02 1.13924E-02-1.02508E-01
 -1      1817-1.91305E-02 1.66128E-02-1.91939E-01
 -1      1818 9.50916E-04-6.45646E-03-1.50795E-02
 -1      1819-1.08590E-02-1.93724E-02-1.37778E-01
 -1      1820-4.93796E-03-2.55363E-02-2.89285E-01
 -1      1821-2.13064E-02-1.62134E-03-1.14979E-01
 -1      1822-2.40129E-02-4.49805E-03-1.79197E-01
 -1      1823-1.38396E-02-4.81992E-03-5.98739E-02
 -1      1824 5.67442E-03-1.97498E-02-8.76262E-02
 -1      1825-9.81808E-04-1.99435E-02-4.64798E-01
 -1      1826 1.28448E-02-7.28068E-03-7.23890E-02
 -1      1827 9.77584E-04-2.35870E-02-3.81403E-01
 -1      1828-1.47260E-02-1.83729E-02-2.07591E-01
 -1      1829-1.39424E-02-1.81708E-03-4.96160E-02
 -1      1830-2.05059E-02-4.55041E-03-1.27872E-01
 -1      1831 9.09279E-03 1.65630E-02-4.76424E-01
 -1      1832-3.12013E-03 9.25264E-04-5.31685E-01
 -1      1833 1.69132E-02-1.97402E-02-2.75812E-01
 -1      1834 1.44036E-02 1.93919E-02-1.86950E-01
 -1      1835 6.88880E-03-2.64720E-03-1.54153E-02
 -1      1836 2.27383E-02 2.37826E-03-1.42516E-01
 -1      1837 2.45378E-02 2.37950E-03-1.99238E-01
 -1      1838-5.78613E-03-2.22798E-03-2.23684E-02
 -1      1839-2.09921E-02-1.17830E-02-1.64461E-01
 -1      1840-2.34723E-02-8.52918E-03-1.68288E-01
 -1      1841-1.83575E-02-1.43655E-02-1.56539E-01
 -1      1842 6.09019E-03 2.48365E-02-2.10685E-01
 -1      1843-1.65778E-02-1.71178E-02-3.69666E-01
 -1      1844-2.37896E-02-8.75908E-03-3.12389E-01
 -1      1845 4.89673E-03-1.22510E-03-1.35456E-02
 -1      1846-2.07436E-02-1.46419E-02-2.38272E-01
 -1      1847 1.32799E-02-2.20385E-02-2.40387E-01
 -1      1848 5.05060E-03 2.16844E-02-1.35830E-01
 -1      1849-2.16942E-02-2.87198E-03-4.25111E-01
 -1      1850 2.35954E-02 5.15109E-03-3.20555E-01
 -1      1851 1.29760E-02-6.84771E-03-4.96090E-01
 -1      1852 1.25123E-03 6.41797E-03-1.21451E-02
 -1      1853 3.10059E-03 9.31915E-03-3.13456E-02
 -1      1854-7.70877E-03-1.20026E-02-4.98504E-01
 -1      1855-2.62095E-03-2.46996E-02-3.51185E-01
 -1      1856-1.97124E-02-2.38017E-03-4.69234E-01
 -1      1857-2.21352E-02 4.31638E-03-4.07383E-01
 -1      1858-1.21700E-02 2.31234E-02-1.74285E-01
 -1      1859 2.01928E-02-5.87792E-03-1.04086E-01
 -1      1860-1.10363E-02 2.44962E-02-2.92056E-01
 -1      1861 2.46577E-02-6.27695E-03-2.02217E-01
 -1      1862 8.35336E-03 1.23055E-02-6.30068E-02
 -1      1863-4.64904E-03 2.27506E-02-4.00852E-01
 -1      1864-1.33452E-02 9.85041E-03-4.87348E-01
 -1      1865 3.43972E-03 2.15026E-02-4.16863E-01
 -1      1866 1.46887E-02 1.76870E-02-3.77111E-01
 -1      1867 1.35137E-02-1.13095E-02-9.50587E-02
 -1      1868 5.03527E-03 1.89221E-02-1.78617E-01
 -1      1869 8.21895E-03 4.76334E-03-1.90522E-02
 -1      1870 1.47190E-02-1.06411E-02-6.24177E-02
 -1      1871-9.98057E-03 1.81695E-02-9.82351E-02
 -1      1872 2.20608E-02-1.55228E-02-2.22581E-01
 -1      1873 1.82809E-02 2.29754E-03-8.66985E-02
 -1      1874 1.17289E-02 1.68243E-02-1.83682E-01
 -1      1875 9.29093E-03 1.66506E-02-7.57405E-02
 -1      1876-1.69788E-02-2.10051E-03-5.78022E-02
 -1      1877 3.02829E-03-2.55412E-02-3.14448E-01
 -1      1878-1.50048E-02-9.87248E-03-7.02923E-02
 -1      1879-3.80014E-03-4.16027E-03-1.44198E-02
 -1      1880-5.88645E-03 7.63223E-03-2.27752E-02
 -1      1881 6.04505E-03-4.01838E-03-1.61153E-02
 -1      1882-1.50842E-03 5.47832E-03-5.22142E-01
 -1      1883 4.49399E-03-6.52620E-03-1.58840E-02
 -1      1884 2.13882E-02 1.23664E-02-3.25058E-01
 -1      1885 1.73821E-02-1.22337E-03-6.05710E-02
 -1      1886 8.99629E-03-2.05068E-02-4.29713E-01
 -1      1887 4.61474E-03-4.46571E-03-1.30820E-02
 -1      1888-1.79324E-02-1.73387E-02-3.11465E-01
 -1      1889-4.76715E-03-2.43210E-03-1.49290E-02
 -1      1890-1.48270E-02-1.22873E-02-4.72896E-01
 -1      1891-1.38196E-02 6.58476E-04-5.75851E-02
 -1      1892 4.52873E-04-1.03814E-02-5.06356E-01
 -1      1893-1.21888E-02-9.76936E-03-5.59585E-02
 -1      1894 6.68330E-03-6.50744E-04-1.85984E-02
 -1      1895-1.18598E-04-6.45972E-03-1.47824E-02
 -1      1896-3.48640E-03 4.86714E-03-1.23534E-02
 -1      1897 5.56971E-04 6.57429E-03-1.71968E-02
 -1      1898 1.46021E-04-1.49406E-02-6.26694E-02
 -1      1899-9.49514E-03-2.46819E-02-2.68303E-01
 -1      1900-3.25494E-03-1.96895E-02-1.82314E-01
 -1      1901 2.40604E-02-1.97033E-03-1.83001E-01
 -1      1902-5.13385E-03 2.00784E-03-1.47816E-02
 -1      1903-5.77657E-03-1.16263E-03-1.38404E-02
 -1      1904-1.67432E-02-2.58763E-03-6.13850E-02
 -1      1905-1.89477E-02 1.92524E-02-2.76175E-01
 -1      1906-1.15880E-02-1.69679E-02-1.83249E-01
 -1      1907 9.45609E-03 1.66139E-02-1.07349E-01
 -1      1908 6.74233E-03-4.94490E-03-1.85074E-02
 -1      1909-6.80888E-04 4.20070E-03-1.34842E-02
 -1      1910-2.87728E-03 1.04497E-02-6.22942E-02
 -1      1911 2.28899E-02 9.46225E-03-3.03943E-01
 -1      1912 5.12981E-04 1.26659E-02-6.17158E-02
 -1      1913-1.28243E-02-2.26118E-02-2.45647E-01
 -1      1914 1.43856E-02-2.17411E-02-3.39283E-01
 -1      1915 1.92622E-02 1.68032E-03-4.69030E-01
 -1      1916 2.07349E-02-1.47278E-02-3.35881E-01
 -1      1917 1.12922E-02-1.07328E-03-5.06760E-01
 -1      1918-2.57289E-02-3.31122E-03-2.57278E-01
 -1      1919 5.61706E-03-6.79142E-03-1.84957E-02
 -1      1920 1.08083E-02-2.23367E-02-1.82701E-01
 -1      1921-1.44021E-02-7.88648E-03-5.57435E-02
 -1      1922 1.42040E-03-2.43912E-02-1.70742E-01
 -1      1923-2.37132E-02-1.06590E-02-2.74610E-01
 -1      1924-1.90344E-02-1.58542E-02-2.24313E-01
 -1      1925 2.00153E-02 3.67523E-03-1.99301E-01
 -1      1926-1.95165E-02-1.28395E-02-3.70312E-01
 -1      1927 1.01152E-02-2.14181E-02-3.84902E-01
 -1      1928 5.86145E-03-1.05657E-02-5.06009E-01
 -1      1929 1.16506E-02 1.84677E-02-1.21790E-01
 -1      1930-1.16434E-02-1.31321E-02-9.27026E-02
 -1      1931 4.97984E-03 5.93312E-03-1.65184E-02
 -1      1932 2.12434E-02 1.20751E-02-1.97550E-01
 -1      1933-2.51317E-02 3.55716E-03-1.97812E-01
 -1      1934 1.23948E-02-1.58132E-02-4.67714E-01
 -1      1935-9.43512E-03-2.29490E-02-3.42172E-01
 -1      1936-6.37949E-03-4.61585E-03-1.71561E-02
 -1      1937-1.54804E-03 7.28683E-03-1.70579E-02
 -1      1938 8.67781E-03 2.34658E-02-3.39709E-01
 -1      1939 1.47171E-02 2.04721E-02-3.00015E-01
 -1      1940 1.67432E-02-1.82782E-02-2.16546E-01
 -1      1941-1.55361E-02 1.14082E-02-1.79322E-01
 -1      1942 1.11728E-02 2.10600E-02-1.61765E-01
 -1      1943-1.20900E-02 6.14632E-03-5.96472E-02
 -1      1944 1.55995E-02 2.06456E-02-2.43665E-01
 -1      1945 4.97149E-03 2.49028E-02-2.80222E-01
 -1      1946-3.98227E-03-7.73842E-03-1.95203E-02
 -1      1947-2.07277E-02 4.80731E-03-1.83464E-01
 -1      1948 1.14131E-02 1.81959E-02-4.23622E-01
 -1      1949-8.68550E-03 2.38947E-02-3.53326E-01
 -1      1950 1.74344E-02 1.69445E-02-1.87559E-01
 -1      1951 1.52878E-02 1.37727E-02-4.42366E-01
 -1      1952 8.29606E-03 2.06336E-02-3.86150E-01
 -1      1953-1.48291E-02 2.18073E-02-3.02871E-01
 -1      1954-2.17063E-03-2.30712E-02-1.40879E-01
 -1      1955 6.16111E-03-1.03228E-02-5.78550E-02
 -1      1956 1.27045E-02-6.18787E-03-5.77097E-02
 -1      1957 1.91444E-02-1.03995E-02-4.23448E-01
 -1      1958 5.95701E-03-2.55578E-02-2.70600E-01
 -1      1959-1.32542E-03-7.75722E-03-1.83708E-02
 -1      1960 1.18778E-03 5.29605E-03-1.66206E-02
 -1      1961 6.75694E-03 1.31649E-02-4.38973E-02
 -1      1962-1.12371E-02-1.93495E-02-1.71342E-01
 -1      1963 2.49072E-02 3.93307E-03-2.54149E-01
 -1      1964-2.33564E-02 4.61682E-03-1.64372E-01
 -1      1965-1.24491E-02-1.77632E-02-1.49997E-01
 -1      1966-3.14877E-03 2.69421E-03-1.06896E-02
 -1      1967 1.82077E-02-1.50210E-02-3.85768E-01
 -1      1968 6.33195E-03-1.39631E-02-6.08882E-02
 -1      1969-2.39616E-02 3.02445E-04-1.44353E-01
 -1      1970 1.26497E-02 5.85582E-04-4.30690E-02
 -1      1971-7.50401E-03 2.57244E-02-2.57844E-01
 -1      1972 2.38815E-02-7.92939E-03-1.79267E-01
 -1      1973 1.73323E-02-2.71953E-03-9.90676E-02
 -1      1974-4.82463E-03 2.39559E-02-1.64920E-01
 -1      1975-3.92330E-03 2.96940E-03-1.28733E-02
 -1      1976-4.67266E-03 3.13235E-03-1.14317E-02
 -1      1977-1.89464E-02-7.04465E-03-4.43858E-01
 -1      1978-7.26546E-03-2.21630E-02-1.54977E-01
 -1      1979 5.44226E-03-2.45199E-02-1.81275E-01
 -1      1980-2.36023E-02-1.32927E-03-3.72694E-01
 -1      1981-1.00976E-02 2.31526E-02-1.69712E-01
 -1      1982-3.45880E-03 1.88339E-02-1.78264E-01
 -1      1983-1.64431E-02 1.89019E-02-1.65358E-01
 -1      1984 9.53237E-03 1.18231E-02-6.36169E-02
 -1      1985 2.41596E-02 7.44574E-03-1.91859E-01
 -1      1986 1.96917E-02-1.73701E-02-2.29482E-01
 -1      1987 6.43227E-03-2.45086E-02-2.15387E-01
 -1      1988-5.91017E-03-2.58919E-02-2.07051E-01
 -1      1989-2.03740E-02-6.34081E-03-2.00544E-01
 -1      1990 1.70537E-02 1.78437E-02-3.25440E-01
 -1      1991 1.90062E-02-6.35628E-03-4.59822E-01
 -1      1992 1.78740E-02 6.90523E-03-4.66478E-01
 -1      1993 1.95556E-02 1.08234E-02-3.93526E-01
 -1      1994-1.04640E-02-1.59890E-02-6.92426E-02
 -1      1995-6.43414E-03-2.55992E-02-2.48139E-01
 -1      1996 1.19809E-02 2.10878E-02-3.45971E-01
 -1      1997 2.42200E-02-3.92782E-04-3.49232E-01
 -1      1998 7.74296E-03-3.70335E-03-2.63919E-02
 -1      1999 1.54514E-03 2.11744E-02-1.12149E-01
 -1      2000-8.39558E-03 1.97024E-02-4.36583E-01
 -1      2001 2.42038E-02-1.05689E-02-2.44314E-01
 -1      2002 2.22701E-02-5.33898E-03-4.00252E-01
 -1      2003-7.64765E-03 1.68759E-02-6.66735E-02
 -1      2004-2.52118E-04-2.58723E-02-3.02330E-01
 -1      2005-2.01651E-02 1.58766E-02-2.41907E-01
 -1      2006-2.96440E-04 1.44752E-02-4.81863E-02
 -1      2007-4.66142E-03 1.47349E-02-4.57767E-02
 -1      2008-1.73360E-02-1.07918E-02-6.96043E-02
 -1      2009-1.00974E-02-1.83262E-02-4.30965E-01
 -1      2010-1.32664E-02-2.08105E-02-3.44675E-01
 -1      2011-1.70609E-02-1.84962E-02-2.59428E-01
 -1      2012 2.48436E-02-4.70542E-03-2.37664E-01
 -1      2013 1.78719E-02-1.88115E-02-3.28987E-01
 -1      2014 2.15811E-02-1.00725E-02-3.69911E-01
 -1      2015-1.90664E-03-2.52730E-02-1.97789E-01
 -1      2016-1.98785E-02-1.52465E-02-2.67894E-01
 -1      2017 2.45864E-02-6.95380E-03-3.05501E-01
 -1      2018 2.16664E-02 1.26933E-02-2.63256E-01
 -1      2019-6.69285E-03-2.24245E-02-3.82432E-01
 -1      2020-5.55170E-03-2.50965E-03-1.96656E-02
 -1      2021 2.70927E-03 2.50994E-02-2.55590E-01
 -1      2022 1.31219E-02 2.18789E-02-2.34835E-01
 -1      2023-1.59643E-03-6.84276E-03-1.53512E-02
 -1      2024 2.56596E-03 4.63915E-03-1.30886E-02
 -1      2025 2.02956E-02 1.40566E-02-2.22541E-01
 -1      2026 1.51766E-02 1.87556E-02-1.59433E-01
 -1      2027-2.17313E-02-7.46732E-03-3.79137E-01
 -1      2028-1.67185E-02 1.41943E-02-1.36107E-01
 -1      2029-2.42543E-02-4.69603E-03-3.39811E-01
 -1      2030 2.00072E-02-1.71926E-02-2.82021E-01
 -1      2031 1.05248E-02-2.40424E-02-2.41179E-01
 -1      2032 1.95066E-02 1.53076E-02-3.07695E-01
 -1      2033 1.73790E-02 1.53282E-02-3.66024E-01
 -1      2034 2.15627E-02 9.15257E-03-3.61001E-01
 -1      2035-7.50975E-03-2.39455E-02-2.03747E-01
 -1      2036 2.17338E-02-1.31376E-02-2.40770E-01
 -1      2037-2.79819E-03-2.60115E-02-2.52394E-01
 -1      2038-1.50941E-02-1.59708E-02-4.16044E-01
 -1      2039 2.32305E-02-1.04858E-02-3.05238E-01
 -1      2040 2.36290E-02-6.32904E-03-3.54480E-01
 -1      2041-1.45240E-02-5.45316E-03-4.26779E-02
 -1      2042-9.17568E-03-2.07345E-02-3.83596E-01
 -1      2043 1.92927E-02 1.25544E-02-1.71103E-01
 -1      2044-2.59788E-03 2.39016E-02-3.62149E-01
 -1      2045-6.23113E-03-2.07203E-05-5.21715E-01
 -1      2046 5.45675E-03 4.53143E-04-5.18165E-01
 -1      2047-1.08704E-02 1.18680E-02-4.86638E-01
 -1      2048-1.58908E-02 1.93259E-02-3.62425E-01
 -1      2049 2.20768E-02-7.50511E-03-3.79603E-01
 -1      2050-3.35811E-03 5.52074E-03-5.19505E-01
 -1      2051 4.56316E-03-6.09352E-03-5.15660E-01
 -1      2052-3.53231E-03 2.07695E-02-4.40898E-01
 -1      2053 4.92504E-03-1.48457E-02-4.98231E-01
 -1      2054-5.26958E-04-7.82111E-03-5.16205E-01
 -1      2055 1.43131E-02 1.62092E-02-4.17521E-01
 -1      2056 1.62872E-02-1.88647E-03-4.86766E-01
 -1      2057-1.68360E-03 1.43765E-02-5.02806E-01
 -1      2058-4.08604E-03-5.66571E-03-5.19702E-01
 -1      2059-5.22090E-03 1.27289E-03-5.23842E-01
 -1      2060 2.95832E-03 8.57725E-04-5.29080E-01
 -1      2061 2.28351E-02-5.49133E-03-3.76833E-01
 -1      2062-1.79212E-02-6.60989E-03-4.73320E-01
 -1      2063 6.77647E-03-3.47199E-03-5.14470E-01
 -1      2064 1.16397E-02-1.97801E-02-4.10470E-01
 -1      2065 1.48118E-02 1.30728E-02-4.74403E-01
 -1      2066-2.02435E-02-4.42659E-03-4.46377E-01
 -1      2067 1.12354E-03-1.60513E-02-4.86252E-01
 -1      2068-5.70634E-03-4.07449E-03-5.15866E-01
 -1      2069-1.11301E-02-1.60102E-02-4.65190E-01
 -1      2070-1.65302E-02-2.58661E-03-4.87011E-01
 -1      2071-5.73854E-03 1.67120E-02-4.87402E-01
 -1      2072-5.16576E-03 6.50409E-03-5.10844E-01
 -1      2073-1.84028E-02-4.74207E-03-4.01951E-01
 -1      2074-2.36887E-02 7.65891E-03-3.30737E-01
 -1      2075 2.06836E-02-1.19884E-02-3.70836E-01
 -1      2076-1.74599E-02 1.09883E-02-4.63763E-01
 -1      2077 2.35993E-03-6.59314E-03-5.15940E-01
 -1      2078 3.91706E-03 1.78441E-02-4.00211E-01
 -1      2079-4.90547E-03-1.60947E-02-4.88674E-01
 -1      2080 1.61407E-02-1.00372E-02-4.00641E-01
 -1      2081 7.88493E-03 1.14919E-02-5.04225E-01
 -1      2082 1.53746E-02 8.18761E-03-4.84755E-01
 -1      2083-6.97937E-03-1.69782E-03-5.15225E-01
 -1      2084 1.31469E-02-1.96199E-02-3.74349E-01
 -1      2085 1.03014E-02-1.41934E-02-4.01376E-01
 -1      2086-2.10888E-02 1.04544E-03-4.44701E-01
 -1      2087 3.92370E-03 2.32955E-02-3.70914E-01
 -1      2088-2.46100E-02-7.46725E-03-2.60412E-01
 -1      2089 3.36396E-03 1.26264E-02-5.04082E-01
 -1      2090 1.46506E-03-2.02580E-02-4.57963E-01
 -1      2091 2.11921E-03-2.45799E-02-3.53268E-01
 -1      2092 6.35399E-03-2.20048E-02-4.10956E-01
 -1      2093-2.56388E-02-7.97819E-04-2.32476E-01
 -1      2094-1.82842E-02 5.98706E-03-4.69835E-01
 -1      2095-1.15443E-02 2.14087E-02-3.80814E-01
 -1      2096-1.96821E-02 1.21677E-02-3.81896E-01
 -1      2097 1.07657E-03 7.54449E-03-5.19702E-01
 -1      2098-8.45406E-03-1.92571E-02-4.61384E-01
 -1      2099-7.19982E-03-3.33054E-03-5.18057E-01
 -1      2100 1.28265E-02 1.55301E-02-4.53653E-01
 -1      2101 1.21470E-02 1.40255E-02-4.80756E-01
 -1      2102 3.50806E-03 1.93079E-02-4.55103E-01
 -1      2103-1.33264E-02-1.96025E-02-3.71422E-01
 -1      2104-2.23164E-02 6.55524E-03-3.73582E-01
 -1      2105-2.27213E-02-3.68543E-03-3.93176E-01
 -1      2106 1.13560E-02-1.16647E-02-4.89980E-01
 -1      2107-1.24118E-02-1.28095E-02-4.82760E-01
 -1      2108 1.77190E-02-3.38864E-03-3.97815E-01
 -1      2109 2.79212E-03-1.76257E-02-4.00958E-01
 -1      2110-4.09604E-03-1.75057E-02-4.02051E-01
 -1      2111 1.49863E-02 3.37471E-03-4.86993E-01
 -1      2112-1.32332E-02-9.32786E-03-4.95173E-01
 -1      2113-1.69865E-02-9.81957E-03-4.53084E-01
 -1      2114 1.95692E-02 5.16080E-03-4.41037E-01
 -1      2115-1.88948E-03-7.18695E-03-5.17347E-01
 -1      2116-2.26911E-02-9.95103E-03-3.37277E-01
 -1      2117-1.99478E-02-9.90333E-03-3.93432E-01
 -1      2118 5.32050E-03-2.91294E-03-5.23919E-01
 -1      2119-6.07716E-03 5.86800E-03-5.13648E-01
 -1      2120 1.54044E-02 1.87359E-02-3.43805E-01
 -1      2121 8.09074E-03-1.92373E-02-4.58934E-01
 -1      2122 8.23400E-03-1.63003E-02-4.85402E-01
 -1      2123 1.27244E-02 1.80716E-02-4.01583E-01
 -1      2124 1.65770E-02-1.27467E-02-4.54815E-01
 -1      2125-1.56047E-02 1.01227E-02-4.00287E-01
 -1      2126-1.19662E-02 5.25491E-03-5.04404E-01
 -1      2127 2.34361E-02 2.62090E-03-3.59563E-01
 -1      2128 1.70631E-02 1.39416E-02-4.05122E-01
 -1      2129 1.22388E-02 1.96294E-02-3.73214E-01
 -1      2130 1.85827E-02 1.25974E-02-3.83273E-01
 -1      2131-1.79394E-02 3.75605E-03-4.00536E-01
 -1      2132-2.30716E-02 3.59160E-03-3.82337E-01
 -1      2133-3.96767E-03-1.11382E-02-5.03941E-01
 -1      2134-2.30567E-02-6.27380E-03-3.65914E-01
 -1      2135-1.23750E-02-1.83782E-02-4.05996E-01
 -1      2136-5.16274E-03 2.35594E-02-3.75649E-01
 -1      2137 1.51902E-02-1.01857E-02-4.77949E-01
 -1      2138-7.40481E-03 1.84165E-02-4.61190E-01
 -1      2139-1.00595E-02-1.55873E-02-4.00017E-01
 -1      2140 6.53360E-03-5.96918E-03-5.10527E-01
 -1      2141-8.00074E-03 2.84918E-03-5.14356E-01
 -1      2142-8.10635E-03-6.55977E-03-5.11883E-01
 -1      2143-1.01926E-02 1.49414E-02-4.00846E-01
 -1      2144-7.99657E-03 8.61446E-04-5.12375E-01
 -1      2145 2.24078E-02 5.66809E-03-3.79503E-01
 -1      2146-1.63734E-02-8.05305E-03-4.79284E-01
 -1      2147 1.61224E-02 1.08838E-02-4.54951E-01
 -1      2148 7.10219E-03 1.70670E-03-5.16114E-01
 -1      2149 6.18173E-03 3.12532E-03-5.15129E-01
 -1      2150 1.90169E-02-1.60565E-02-3.59106E-01
 -1      2151 1.97311E-02-1.20394E-02-3.98908E-01
 -1      2152-1.69530E-03 7.38334E-03-5.11783E-01
 -1      2153-2.96030E-03 7.41672E-03-5.09870E-01
 -1      2154-3.97026E-03-7.61104E-03-5.12256E-01
 -1      2155-9.91483E-03-1.35423E-03-5.05672E-01
 -1      2156 4.18915E-03 2.46853E-02-3.25695E-01
 -1      2157 3.26744E-03-2.30921E-02-3.97874E-01
 -1      2158 5.12270E-03 1.77698E-02-4.80747E-01
 -1      2159-2.52616E-03-8.19403E-03-5.13982E-01
 -1      2160 7.29154E-03-2.08190E-02-4.45100E-01
 -1      2161-3.68516E-03-2.32804E-02-3.81860E-01
 -1      2162-2.95819E-03-2.12944E-02-4.38830E-01
 -1      2163 1.78424E-02 3.75214E-03-3.96144E-01
 -1      2164 5.91379E-03-6.10587E-03-5.11512E-01
 -1      2165 5.39290E-03 2.15658E-02-3.93919E-01
 -1      2166-9.49898E-03 1.67955E-02-4.74893E-01
 -1      2167 1.14331E-02-1.84687E-02-4.40464E-01
 -1      2168 2.19061E-03-9.08466E-03-5.11110E-01
 -1      2169 7.08717E-03-3.03118E-03-5.13445E-01
 -1      2170-1.84722E-02-1.22014E-02-3.98868E-01
 -1      2171 1.89335E-02 4.63324E-03-4.64487E-01
 -1      2172-2.08826E-02-1.28363E-02-3.41322E-01
 -1      2173 5.61331E-03 4.91182E-03-5.13690E-01
 -1      2174 1.97882E-02 1.32506E-02-3.51321E-01
 -1      2175-1.60255E-02-1.07267E-02-4.00682E-01
 -1      2176 1.59039E-02 9.17906E-03-3.97740E-01
 -1      2177 1.05357E-02 1.49710E-02-3.99823E-01
 -1      2178-7.79648E-03 4.83335E-03-5.10854E-01
 -1      2179 3.49142E-03 1.06451E-02-5.11365E-01
 -1      2180 8.18805E-03 9.85394E-04-5.11794E-01
 -1      2181 9.04166E-03-6.24999E-03-5.08614E-01
 -1      2182 1.08660E-02-6.65979E-03-5.03590E-01
 -1      2183 1.17907E-03 1.11933E-02-5.09033E-01
 -1      2184-4.06355E-03 1.77847E-02-3.99636E-01
 -1      2185-1.65872E-03-1.07425E-02-5.09002E-01
 -1      2186-6.69441E-03-1.04218E-02-5.05415E-01
 -1      2187-6.38274E-03 8.98156E-03-5.05816E-01
 -1      2188-1.71250E-03 1.07574E-02-5.07836E-01
 -1      2189 7.08671E-03 7.93606E-03-5.05479E-01
 -1      2190 5.92734E-03-7.01661E-03-5.08970E-01
 -1      2191 7.83087E-03-1.42037E-03-5.07470E-01
 -1      2192-1.00504E-02 6.56736E-04-5.11581E-01
 -1      2193 1.10088E-02 1.89660E-03-5.03420E-01
 -1      2194 3.31821E-03 1.18841E-02-5.06221E-01
 -1      2195 1.50577E-03-1.23411E-02-5.06332E-01
 -1      2196-1.03923E-02-1.68033E-03-5.11295E-01
 -1      2197-6.69558E-04-3.69418E-02-4.82699E-01
 -1      2198 9.76231E-03-3.44938E-03-5.05405E-01
 -1      2199 3.52477E-02 1.04547E-03-4.99414E-01
 -1      2200 8.07896E-03 9.93154E-03-5.01461E-01
 -1      2201-3.74163E-02-1.90489E-03-4.83813E-01
 -1      2202 1.40276E-02-3.36545E-02-4.82105E-01
 -1      2203 8.68245E-03 6.38346E-03-5.07141E-01
 -1      2204-2.96733E-02-9.63487E-04-4.93214E-01
 -1      2205-9.92625E-04 3.54466E-02-5.00071E-01
 -1      2206 8.57441E-03 1.09519E-02-4.99612E-01
 -1      2207-1.06796E-02 2.60114E-02-4.90728E-01
 -1      2208-3.50615E-03 1.01598E-02-5.05387E-01
 -1      2209-2.57001E-02 2.71349E-02-4.79239E-01
 -1      2210 1.06849E-02-2.10696E-03-5.02402E-01
 -1      2211 3.65902E-02 1.43668E-03-4.76671E-01
 -1      2212 3.22999E-02 1.35102E-02-4.98270E-01
 -1      2213 2.54327E-02 1.01032E-02-4.87840E-01
 -1      2214 3.22901E-02-1.19960E-02-4.99183E-01
 -1      2215-2.62655E-02-2.63318E-02-4.81068E-01
 -1      2216 1.20938E-02-2.98637E-03-5.00652E-01
 -1      2217 3.64361E-02 1.07430E-03-4.78831E-01
 -1      2218 1.23828E-02 3.44663E-03-4.99808E-01
 -1      2219-2.59600E-03 1.21608E-02-5.03625E-01
 -1      2220 2.90319E-02 5.97664E-04-4.89307E-01
 -1      2221 2.74230E-02-2.54432E-02-4.80096E-01
 -1      2222-1.00114E-03-3.52164E-02-5.02144E-01
 -1      2223 1.24886E-02 1.52181E-03-5.00486E-01
 -1      2224 1.10112E-02 5.12476E-03-5.03892E-01
 -1      2225-3.58745E-02-1.56935E-03-5.01970E-01
 -1      2226 1.34113E-02-3.19212E-02-5.01920E-01
 -1      2227-8.61599E-04 3.72062E-02-4.77303E-01
 -1      2228-7.25382E-04 2.95493E-02-4.88561E-01
 -1      2229 1.18960E-02-7.07620E-03-5.00394E-01
 -1      2230 2.89877E-02 1.28911E-03-4.87789E-01
 -1      2231-9.97631E-03-8.13035E-03-5.07067E-01
 -1      2232 3.01063E-03 1.31388E-02-5.02474E-01
 -1      2233 2.44499E-02-8.60611E-03-4.98641E-01
 -1      2234 1.24092E-02-2.16978E-03-4.99619E-01
 -1      2235-2.59538E-02 2.65160E-02-4.82100E-01
 -1      2236 3.42778E-02-1.27967E-02-4.76757E-01
 -1      2237-3.75670E-02-1.82801E-03-4.79237E-01
 -1      2238-9.87917E-03 6.91556E-03-5.05204E-01
 -1      2239 1.13048E-02-2.64054E-02-4.91560E-01
 -1      2240 1.41774E-02-3.38048E-02-4.80166E-01
 -1      2241-6.29711E-04-2.73273E-02-5.02074E-01
 -1      2242 1.09016E-02-2.67385E-02-4.89912E-01
 -1      2243-2.97647E-02-1.43923E-03-4.90333E-01
 -1      2244-1.11632E-02 2.63405E-03-5.07527E-01
 -1      2245 8.46574E-03 2.36734E-03-5.08236E-01
 -1      2246 9.03484E-03-3.06186E-04-5.07154E-01
 -1      2247-7.19490E-04 3.65134E-02-4.79689E-01
 -1      2248 2.69651E-02 1.23695E-03-4.99043E-01
 -1      2249-3.38747E-04 2.90047E-02-4.90456E-01
 -1      2250-1.22949E-02 1.42784E-03-5.06533E-01
 -1      2251 2.71643E-02-2.52757E-02-4.80376E-01
 -1      2252-2.69385E-02 1.06179E-02-4.91621E-01
 -1      2253 3.31227E-02-1.28787E-02-4.78759E-01
 -1      2254 2.54028E-02-2.38993E-02-5.00241E-01
 -1      2255-2.42535E-02 2.52405E-02-5.00650E-01
 -1      2256 3.07797E-03-1.22385E-02-5.05827E-01
 -1      2257 2.40238E-03-1.33423E-02-5.04518E-01
 -1      2258 2.41132E-04-2.23302E-02-5.02047E-01
 -1      2259 1.25061E-02-7.38487E-03-4.99075E-01
 -1      2260 1.98905E-02-7.90954E-03-4.98585E-01
 -1      2261-1.28052E-02 2.69759E-03-5.04787E-01
 -1      2262-3.44433E-03-1.10367E-02-5.06768E-01
 -1      2263 2.72081E-02-9.96768E-03-4.87868E-01
 -1      2264-7.79859E-03-1.14318E-02-5.02501E-01
 -1      2265-2.49185E-02-2.54475E-02-5.01284E-01
 -1      2266 2.73330E-02 2.47405E-02-4.78357E-01
 -1      2267 2.38557E-02 9.01732E-03-4.98341E-01
 -1      2268-1.08412E-02-4.48264E-03-5.10028E-01
 -1      2269-1.37822E-02 3.41122E-02-4.79048E-01
 -1      2270-8.48345E-03-1.21388E-02-5.01193E-01
 -1      2271 2.26829E-02 1.20529E-03-4.92203E-01
 -1      2272-1.05763E-02 2.65052E-02-4.88916E-01
 -1      2273 2.68987E-02 2.47094E-02-4.80154E-01
 -1      2274 1.43139E-02 3.20828E-02-4.99772E-01
 -1      2275-5.34039E-03 9.43967E-03-5.04584E-01
 -1      2276 2.37843E-02-8.22593E-03-4.98887E-01
 -1      2277 3.36340E-02 1.40935E-02-4.77305E-01
 -1      2278 2.62376E-02 1.16374E-02-4.88001E-01
 -1      2279 2.14605E-02 8.24860E-03-4.98123E-01
 -1      2280-1.35314E-02 1.97917E-03-5.03243E-01
 -1      2281-9.62637E-04-3.67326E-02-4.81462E-01
 -1      2282 2.73363E-02 2.98290E-04-4.99232E-01
 -1      2283-1.53398E-02-3.19226E-02-5.01755E-01
 -1      2284-8.28099E-04-2.94304E-02-4.91914E-01
 -1      2285-1.95334E-02-1.90215E-02-4.90677E-01
 -1      2286 2.30486E-02 1.26636E-04-4.92949E-01
 -1      2287 8.00689E-03-9.39744E-03-5.04228E-01
 -1      2288-3.45098E-02-1.49782E-02-4.81453E-01
 -1      2289-1.15668E-02-8.41072E-03-5.04283E-01
 -1      2290 1.31024E-02-2.78797E-03-4.98955E-01
 -1      2291 3.10626E-03 1.38815E-02-5.00888E-01
 -1      2292 2.05250E-02-1.91027E-02-4.89146E-01
 -1      2293 9.60682E-03-2.34568E-02-5.01799E-01
 -1      2294 1.33599E-02-2.35907E-03-4.98410E-01
 -1      2295-1.54475E-02-3.28583E-02-4.81657E-01
 -1      2296 1.27351E-02 2.64243E-03-4.99619E-01
 -1      2297-1.10189E-02 6.23066E-03-5.04407E-01
 -1      2298 1.08540E-02 6.90444E-03-5.02621E-01
 -1      2299-1.95566E-02-2.01118E-02-4.90737E-01
 -1      2300-3.26338E-02-1.45176E-02-5.01706E-01
 -1      2301-1.76689E-02-1.85090E-02-5.01262E-01
 -1      2302-3.40607E-02-1.53325E-02-4.80274E-01
 -1      2303-2.71279E-02-1.24511E-02-4.91132E-01
 -1      2304-1.68748E-02-1.83405E-02-5.01315E-01
 -1      2305-1.60725E-02-1.73585E-02-5.01075E-01
 -1      2306 1.97510E-02 7.61187E-03-4.92892E-01
 -1      2307 1.49883E-03-1.37975E-02-5.04636E-01
 -1      2308 3.09948E-03-1.33570E-02-5.03709E-01
 -1      2309 2.67069E-03-1.41470E-02-5.02873E-01
 -1      2310-4.99836E-04-1.20368E-02-5.08240E-01
 -1      2311 2.27636E-02 2.08749E-02-4.98823E-01
 -1      2312-3.84818E-04 2.55606E-02-4.99989E-01
 -1      2313-1.13239E-02 2.74878E-02-5.00228E-01
 -1      2314 2.13898E-02 1.93126E-02-4.87945E-01
 -1      2315 1.90925E-02-1.67513E-02-5.00029E-01
 -1      2316 2.58285E-04 2.29819E-02-4.94228E-01
 -1      2317-3.56252E-02 1.38721E-02-4.80378E-01
 -1      2318-1.97158E-02 2.00792E-02-4.87886E-01
 -1      2319-2.05134E-02 1.99433E-02-4.90854E-01
 -1      2320 1.52126E-02 3.34540E-02-4.77541E-01
 -1      2321 1.21475E-02 2.69661E-02-4.88709E-01
 -1      2322-2.98231E-02 1.15131E-02-4.90645E-01
 -1      2323-9.23076E-03 2.05645E-02-4.94572E-01
 -1      2324 7.58180E-03-1.00282E-02-5.03189E-01
 -1      2325-1.62287E-02-1.64655E-02-5.01403E-01
 -1      2326 1.91820E-02 1.50329E-03-4.94661E-01
 -1      2327-1.23207E-02-2.61711E-02-4.92253E-01
 -1      2328 1.87521E-02-1.72054E-02-5.00037E-01
 -1      2329 2.14973E-02-7.45752E-03-4.98392E-01
 -1      2330-2.37531E-02-3.79123E-04-4.96455E-01
 -1      2331-1.25452E-02-3.03172E-03-5.07056E-01
 -1      2332 1.80960E-02 6.80357E-03-4.97864E-01
 -1      2333-1.03998E-02-2.15138E-02-4.94132E-01
 -1      2334-2.68716E-03-1.26927E-02-5.04827E-01
 -1      2335-3.24887E-03-1.36730E-02-5.02752E-01
 -1      2336-1.04306E-02-2.11424E-02-5.00948E-01
 -1      2337-1.39223E-02-3.42050E-03-5.04196E-01
 -1      2338 1.33434E-02 5.53699E-03-4.98314E-01
 -1      2339-2.59142E-02-5.80770E-04-5.01619E-01
 -1      2340-2.35848E-02-2.22878E-03-4.94986E-01
 -1      2341-3.44284E-03-1.44460E-02-5.01600E-01
 -1      2342 1.46561E-02 3.33224E-02-4.78916E-01
 -1      2343 1.17730E-02 2.47692E-02-4.99467E-01
 -1      2344 1.11854E-02 2.35119E-02-4.90157E-01
 -1      2345 1.56914E-02-1.63195E-02-4.94388E-01
 -1      2346-1.60678E-02-3.29991E-02-4.77996E-01
 -1      2347 2.17337E-02-1.94989E-04-4.98887E-01
 -1      2348-9.36622E-03-1.82924E-02-5.00691E-01
 -1      2349 8.50456E-03-2.22443E-02-4.94910E-01
 -1      2350-2.49780E-02-1.13089E-02-5.01327E-01
 -1      2351 9.90727E-03-2.08965E-02-4.95341E-01
 -1      2352-2.87265E-02 1.12426E-02-5.01536E-01
 -1      2353-2.13805E-02 8.79428E-03-4.95322E-01
 -1      2354-9.34638E-03-1.83790E-02-4.96622E-01
 -1      2355 1.99873E-02-6.92169E-03-4.92918E-01
 -1      2356 1.34059E-02 2.94894E-03-4.98407E-01
 -1      2357-1.22542E-02-8.90250E-03-5.02472E-01
 -1      2358-1.10153E-02 7.19287E-03-5.02975E-01
 -1      2359 8.29426E-03-1.05986E-02-5.02400E-01
 -1      2360 1.98976E-02-1.79373E-02-4.89364E-01
 -1      2361 1.73658E-02-1.47590E-02-4.99821E-01
 -1      2362 1.85513E-02-6.25555E-03-4.98038E-01
 -1      2363 1.60546E-02-1.34668E-02-4.94229E-01
 -1      2364 1.06288E-02-2.48947E-02-5.01142E-01
 -1      2365 1.71639E-02-7.56835E-03-4.98300E-01
 -1      2366 1.88620E-02-8.91231E-04-4.94024E-01
 -1      2367 6.49782E-05 2.28129E-02-5.00152E-01
 -1      2368-2.06828E-02-8.77067E-03-5.01302E-01
 -1      2369-2.27718E-02 8.39321E-03-4.93891E-01
 -1      2370 1.07847E-02 2.36581E-02-4.99677E-01
 -1      2371 9.16259E-03 2.13793E-02-4.93428E-01
 -1      2372-7.18855E-03 1.05910E-02-5.01643E-01
 -1      2373-1.40960E-02 2.95599E-03-5.02515E-01
 -1      2374 1.79454E-02 1.68411E-02-4.98926E-01
 -1      2375-1.05768E-02-2.32965E-02-5.01833E-01
 -1      2376-1.51396E-02-1.61750E-02-4.95698E-01
 -1      2377-1.82121E-02 1.78453E-02-5.01008E-01
 -1      2378 7.07462E-03 9.83267E-03-5.03704E-01
 -1      2379 7.76787E-04 1.96660E-02-5.00082E-01
 -1      2380-1.66217E-02 1.60283E-02-5.00937E-01
 -1      2381-2.41239E-02 1.21818E-05-5.02191E-01
 -1      2382-2.16668E-02-1.03636E-02-5.01397E-01
 -1      2383 6.56875E-03 1.51113E-02-4.92833E-01
 -1      2384-9.66727E-03-2.09564E-02-4.95986E-01
 -1      2385-8.51423E-04-2.35277E-02-4.95563E-01
 -1      2386-2.08765E-02 4.28708E-04-5.01909E-01
 -1      2387-8.68900E-04 2.32573E-02-4.92855E-01
 -1      2388 1.23387E-02 6.36041E-03-5.01543E-01
 -1      2389-3.73595E-03 1.22036E-02-5.02287E-01
 -1      2390-8.91349E-03 2.06468E-02-4.99933E-01
 -1      2391 1.50751E-02-1.22654E-02-4.99479E-01
 -1      2392 2.38449E-02 9.36050E-03-4.97900E-01
 -1      2393-1.20940E-02 7.06166E-03-5.01968E-01
 -1      2394 1.93182E-02-6.55034E-04-4.98836E-01
 -1      2395 2.08382E-02 9.84464E-03-4.92090E-01
 -1      2396 2.04937E-02 8.92904E-03-4.98007E-01
 -1      2397 9.21763E-03 2.11644E-02-5.00057E-01
 -1      2398 2.07787E-02 1.89408E-02-4.98300E-01
 -1      2399-1.43982E-02 2.41124E-03-5.01850E-01
 -1      2400-2.20344E-02 8.00604E-03-5.01310E-01
 -1      2401 1.69530E-02 1.44632E-02-4.98039E-01
 -1      2402 1.19416E-02 7.86132E-03-5.00363E-01
 -1      2403-1.36167E-02-1.51152E-02-5.00808E-01
 -1      2404-1.43256E-03 1.30890E-02-5.02235E-01
 -1      2405-1.55637E-02-1.49585E-02-4.95967E-01
 -1      2406 9.77418E-03 1.96409E-02-4.93987E-01
 -1      2407 1.01562E-02 2.00884E-02-4.99281E-01
 -1      2408 1.20288E-03 1.95396E-02-4.96646E-01
 -1      2409-1.58492E-02 1.47961E-02-4.95618E-01
 -1      2410-1.26539E-03-2.34617E-02-5.01896E-01
 -1      2411-1.32014E-03-2.05072E-02-5.01449E-01
 -1      2412-1.57418E-02 1.68609E-02-4.93165E-01
 -1      2413 9.60926E-03-2.01526E-02-5.00901E-01
 -1      2414-1.60126E-02 1.59137E-02-4.99405E-01
 -1      2415-2.04874E-02 2.71777E-04-4.98360E-01
 -1      2416-7.98648E-03 1.63957E-02-4.97805E-01
 -1      2417 7.81003E-03-1.15205E-02-5.01526E-01
 -1      2418-2.50102E-03 1.32281E-02-5.01126E-01
 -1      2419-1.46764E-02-3.53753E-03-5.02382E-01
 -1      2420-1.05682E-02 2.56518E-02-4.99558E-01
 -1      2421 8.50413E-03-1.15407E-02-5.00822E-01
 -1      2422-1.89429E-02-1.02655E-02-4.96873E-01
 -1      2423-1.85060E-02-9.59903E-03-5.01430E-01
 -1      2424-2.21338E-02 8.93464E-03-5.01099E-01
 -1      2425-1.88221E-02 8.11515E-03-5.00852E-01
 -1      2426-1.45629E-02 1.35056E-02-5.00532E-01
 -1      2427 9.13978E-03-1.73085E-02-5.00640E-01
 -1      2428-1.19423E-02 7.77036E-03-5.01447E-01
 -1      2429 7.38056E-03 1.83995E-02-4.96210E-01
 -1      2430-8.00813E-03 2.02994E-02-4.99268E-01
 -1      2431 1.53368E-02 1.48879E-02-4.93955E-01
 -1      2432-1.94212E-02 6.71434E-03-4.96847E-01
 -1      2433-7.70973E-03 1.15077E-02-5.00358E-01
 -1      2434-1.92440E-02 6.71553E-03-5.00894E-01
 -1      2435 1.18646E-02 6.95612E-03-5.00998E-01
 -1      2436-9.29501E-03-2.10918E-02-5.02104E-01
 -1      2437 1.26329E-02 7.77013E-03-4.98902E-01
 -1      2438 9.24808E-03 1.71144E-02-4.99019E-01
 -1      2439-1.45623E-02-1.40618E-02-5.01154E-01
 -1      2440-6.80991E-04 2.33537E-02-4.99498E-01
 -1      2441-9.88369E-04 1.98865E-02-4.99266E-01
 -1      2442-1.17164E-03 1.98910E-02-4.95400E-01
 -1      2443 1.55643E-02-1.53690E-02-5.00198E-01
 -1      2444-1.31976E-03-2.03341E-02-4.97797E-01
 -1      2445-1.33083E-02 1.43191E-02-4.99399E-01
 -1      2446-3.38399E-03 1.31950E-02-5.00596E-01
 -1      2447-6.91091E-03 1.98570E-02-4.93991E-01
 -1      2448-1.71399E-02-9.55811E-03-4.99114E-01
 -1      2449-1.81591E-02 8.17130E-03-4.97520E-01
 -1      2450 7.59599E-03 1.85366E-02-4.99855E-01
 -1      2451 1.47553E-02 1.44166E-02-4.99083E-01
 -1      2452-7.90313E-03-1.84137E-02-4.98205E-01
 -1      2453 1.33189E-02-1.42353E-02-4.96694E-01
 -1      2454-3.01710E-03 1.36902E-02-5.00081E-01
 -1      2455-6.68983E-03 1.81503E-02-4.99091E-01
 -1      2456 1.33200E-02 1.34128E-02-4.96255E-01
 -1      2457-7.78942E-03-1.86699E-02-5.01680E-01
 -1      2458 1.33441E-02-1.41105E-02-4.99958E-01
 -1      2459 4.20369E-04-6.45873E-04-3.60258E-01
 -1      2460 1.14994E-04-1.82337E-05-4.87879E-01
 -1      2461 1.99288E-03 6.09772E-04-4.94071E-01
 -1      2462-1.42537E-05-7.58513E-05-3.60242E-01
 -1      2463-9.14648E-04 1.44850E-03-5.02929E-01
 -1      2464-8.52770E-04-1.02716E-03-3.62904E-01
 -1      2465-1.67396E-03 3.50103E-03-3.92119E-01
 -1      2466 2.67944E-04 4.60165E-04-3.63128E-01
 -1      2467-3.48650E-04-5.50536E-04-5.15688E-01
 -1      2468-1.47458E-03-4.61492E-04-4.90028E-01
 -1      2469-6.10608E-04-7.07131E-04-5.14601E-01
 -1      2470-1.69303E-04-7.23977E-04-4.87932E-01
 -1      2471 3.46836E-05-5.20985E-04-4.90838E-01
 -1      2472 8.60610E-04 7.18679E-05-4.86743E-01
 -1      2473 1.00124E-03-1.07033E-03-5.05013E-01
 -1      2474 7.03489E-04-2.20389E-03-5.04645E-01
 -1      2475-8.26573E-04 1.40155E-03-3.59002E-01
 -1      2476-3.56894E-05-1.16488E-04-4.88539E-01
 -1      2477 1.11657E-03-2.45364E-03-3.60924E-01
 -1      2478-5.69091E-05 1.07149E-03-4.58523E-01
 -1      2479-7.56603E-04-1.22410E-03-5.11962E-01
 -1      2480-5.55922E-04-1.84917E-04-3.59596E-01
 -1      2481 2.94503E-05 7.83937E-04-4.86590E-01
 -1      2482-1.42216E-03-9.54710E-04-5.09931E-01
 -1      2483-5.78576E-04-4.78162E-05-4.88250E-01
 -1      2484-5.79523E-04 6.64014E-04-5.08986E-01
 -1      2485 3.75657E-04-6.43588E-04-4.90807E-01
 -1      2486-1.52853E-04-3.11291E-04-4.86952E-01
 -1      2487 3.69511E-05-5.65856E-04-3.62632E-01
 -1      2488 3.45349E-04-2.38120E-04-5.10320E-01
 -1      2489-7.95326E-04 4.06171E-06-4.90454E-01
 -1      2490 2.13770E-04-8.49392E-04-5.06678E-01
 -1      2491-1.14045E-04-1.32510E-04-5.09880E-01
 -1      2492 3.77617E-04 4.51000E-05-5.04645E-01
 -1      2493 8.83606E-04-9.98020E-04-5.12119E-01
 -1      2494 1.96480E-04 5.26049E-04-3.62646E-01
 -1      2495-9.41287E-04 4.96401E-04-3.64531E-01
 -1      2496-9.61701E-04 4.82214E-04-3.59060E-01
 -1      2497 1.46954E-03-8.58126E-03-4.97337E-01
 -1      2498-7.35973E-04 7.26150E-04-3.63442E-01
 -1      2499-1.50587E-03-2.83712E-03-3.90245E-01
 -1      2500-2.66112E-04-2.19397E-04-5.04577E-01
 -1      2501 6.98266E-03 1.78957E-03-4.93602E-01
 -1      2502 1.18477E-04-6.92266E-04-4.61427E-01
 -1      2503 4.99936E-03-7.73633E-04-4.96313E-01
 -1      2504-7.87862E-03 8.33333E-04-4.96638E-01
 -1      2505 3.60615E-05 4.71888E-04-4.86375E-01
 -1      2506 1.16254E-03 5.08788E-03-4.98124E-01
 -1      2507-1.78931E-03-2.39668E-03-5.10907E-01
 -1      2508 6.12585E-03-3.39153E-03-4.93942E-01
 -1      2509 3.75874E-03-4.66499E-03-4.95928E-01
 -1      2510 2.35540E-04 4.39242E-04-5.10928E-01
 -1      2511-1.54310E-04-2.23996E-04-3.61923E-01
 -1      2512 1.04793E-02 2.46694E-03-4.95868E-01
 -1      2513-1.85312E-04-1.06310E-04-3.65131E-01
 -1      2514 1.04000E-04 5.54249E-04-4.57940E-01
 -1      2515-7.25992E-04-9.18122E-04-4.90419E-01
 -1      2516-3.59951E-03-4.00303E-03-4.99640E-01
 -1      2517-6.21271E-03-5.05787E-03-4.96473E-01
 -1      2518-4.57636E-03-3.67416E-03-4.82811E-01
 -1      2519-6.05057E-04 1.13689E-04-4.58879E-01
 -1      2520-2.43668E-03 3.32471E-03-5.00049E-01
 -1      2521 2.15583E-03 2.97457E-03-4.98585E-01
 -1      2522-7.10301E-04 2.47095E-03-5.00427E-01
 -1      2523-3.02093E-03-6.98667E-04-5.03291E-01
 -1      2524 2.80598E-03 1.89759E-03-4.99587E-01
 -1      2525-1.38211E-04-5.32563E-04-4.58943E-01
 -1      2526-6.51762E-04-2.50535E-04-3.59536E-01
 -1      2527-1.71079E-03-1.62415E-04-3.61123E-01
 -1      2528 4.73888E-03 5.87443E-03-5.04033E-01
 -1      2529 5.39848E-03 7.08069E-03-4.98252E-01
 -1      2530-4.42603E-03 2.87900E-03-5.08312E-01
 -1      2531 1.47083E-03-8.45893E-03-5.03969E-01
 -1      2532 4.64179E-04-4.36176E-04-4.83010E-01
 -1      2533-4.07201E-03 3.06541E-03-4.96223E-01
 -1      2534-1.02716E-02 1.21695E-04-4.94674E-01
 -1      2535 3.30552E-03 5.43348E-03-4.92191E-01
 -1      2536 1.61638E-03 6.77099E-03-5.05100E-01
 -1      2537 2.89168E-03-4.79018E-03-4.82998E-01
 -1      2538 3.97194E-03-7.98998E-03-4.94316E-01
 -1      2539 3.12757E-03-3.74639E-03-5.05535E-01
 -1      2540 8.99502E-03 9.94945E-04-4.91618E-01
 -1      2541-3.41342E-03-2.18931E-04-5.10212E-01
 -1      2542-9.69598E-03-7.14613E-03-4.99255E-01
 -1      2543 5.36946E-03-3.35885E-03-5.02444E-01
 -1      2544-7.67283E-03 1.02872E-03-5.04246E-01
 -1      2545 1.83535E-03-6.99052E-04-4.99744E-01
 -1      2546-1.15733E-03-4.03142E-03-5.01836E-01
 -1      2547 6.73184E-03 8.63784E-03-5.01199E-01
 -1      2548 8.59159E-03 3.40451E-03-4.93070E-01
 -1      2549-4.66624E-03-6.60386E-03-5.05060E-01
 -1      2550 5.77403E-03-5.87483E-03-4.92235E-01
 -1      2551-5.49199E-03 8.12703E-03-4.98027E-01
 -1      2552 1.98233E-03 9.32163E-03-4.92262E-01
 -1      2553-7.02577E-05 5.32769E-03-4.84809E-01
 -1      2554 1.22149E-02 2.85607E-03-4.96951E-01
 -1      2555 4.54635E-03 1.97301E-04-5.02258E-01
 -1      2556 2.03245E-03-1.19218E-02-4.99890E-01
 -1      2557 6.55404E-03-1.20913E-03-5.02560E-01
 -1      2558 8.75256E-03-1.60977E-03-4.97714E-01
 -1      2559-9.23745E-03-2.37727E-03-4.96877E-01
 -1      2560-8.77250E-03-2.34314E-03-5.02909E-01
 -1      2561 5.28504E-03 1.54724E-03-5.02931E-01
 -1      2562 9.45670E-03-5.37769E-03-4.96404E-01
 -1      2563 7.79218E-03-2.73122E-03-4.91268E-01
 -1      2564 9.09500E-03-1.75394E-03-4.90392E-01
 -1      2565 7.93562E-03 1.02962E-02-5.00061E-01
 -1      2566-2.23920E-03 5.25689E-03-4.91695E-01
 -1      2567 7.22657E-03-5.49143E-03-4.94385E-01
 -1      2568 5.48652E-03 7.04892E-03-4.90928E-01
 -1      2569 2.18332E-03-1.13804E-02-5.02892E-01
 -1      2570-4.21973E-03 4.13329E-03-4.91785E-01
 -1      2571 8.71635E-03-5.19504E-03-5.00572E-01
 -1      2572-6.22804E-03 4.18282E-03-5.01926E-01
 -1      2573 5.17554E-03-6.99118E-03-5.00546E-01
 -1      2574 2.43323E-03 1.00713E-02-4.97887E-01
 -1      2575-1.15680E-02 1.73670E-03-4.99122E-01
 -1      2576-4.11980E-03-4.31386E-03-5.04827E-01
 -1      2577-5.72739E-03-8.22843E-03-4.99677E-01
 -1      2578 2.39223E-03 1.00578E-02-5.01787E-01
 -1      2579 1.13615E-02 1.78813E-03-4.95643E-01
 -1      2580 7.92757E-03 5.06217E-03-4.93318E-01
 -1      2581 2.79587E-03 1.18733E-02-4.99457E-01
 -1      2582-5.64155E-03-6.63128E-03-4.94254E-01
 -1      2583-7.44849E-03-1.07338E-02-4.99395E-01
 -1      2584-1.20312E-02-3.08117E-03-4.99662E-01
 -1      2585-9.13906E-03-8.15816E-03-4.97442E-01
 -1      2586 7.44101E-03 4.67313E-03-4.99465E-01
 -1      2587 8.20238E-03 1.45447E-03-5.00668E-01
 -1      2588 2.26499E-03-1.31779E-02-5.00978E-01
 -1      2589-5.98717E-03-8.37976E-03-4.92508E-01
 -1      2590 2.98335E-03 7.14406E-03-4.94818E-01
 -1      2591-9.79676E-03-1.10013E-03-4.97306E-01
 -1      2592 1.13418E-03-1.18983E-02-5.01064E-01
 -1      2593 6.25296E-03 9.02740E-03-4.95844E-01
 -1      2594-9.70478E-05-4.34024E-03-5.09503E-01
 -1      2595-6.83985E-03 3.38122E-03-4.94360E-01
 -1      2596 3.01483E-03 3.69951E-03-4.85669E-01
 -1      2597 3.04490E-03-1.16981E-02-5.00583E-01
 -1      2598 1.02442E-02-4.56333E-03-4.95335E-01
 -1      2599-6.00124E-03-1.00469E-02-4.97551E-01
 -1      2600-6.95732E-03-9.89873E-03-5.02573E-01
 -1      2601 1.12078E-02-6.47347E-03-4.97538E-01
 -1      2602-1.13837E-02-8.10918E-03-5.00370E-01
 -1      2603 1.05889E-02-1.98722E-03-4.99969E-01
 -1      2604 1.10124E-02-1.88411E-03-4.94428E-01
 -1      2605 9.12817E-03 2.76227E-03-4.98099E-01
 -1      2606 6.18068E-03-1.54067E-02-4.90556E-01
 -1      2607 1.95348E-03-3.91659E-03-5.11425E-01
 -1      2608 2.37658E-03-1.30082E-02-5.02414E-01
 -1      2609-1.74855E-03 6.85651E-03-4.92027E-01
 -1      2610-1.36814E-02-3.40450E-03-5.00562E-01
 -1      2611-2.28184E-03-7.67576E-03-5.07289E-01
 -1      2612 7.59515E-03-2.12563E-03-4.94043E-01
 -1      2613 5.60329E-03 2.22914E-04-4.81686E-01
 -1      2614 9.76240E-03-9.23992E-04-4.92570E-01
 -1      2615-6.87174E-03-4.59416E-03-5.06241E-01
 -1      2616-7.61774E-03-6.33884E-03-5.03827E-01
 -1      2617-2.26859E-03 4.84961E-03-4.91830E-01
 -1      2618-5.43466E-03 9.88442E-03-4.96522E-01
 -1      2619-6.73717E-03 1.00320E-02-4.98900E-01
 -1      2620-2.08516E-03 7.50421E-03-5.03961E-01
 -1      2621 1.56081E-03 9.66824E-03-4.99625E-01
 -1      2622-2.50600E-03-8.95398E-03-5.01746E-01
 -1      2623-3.61038E-03-6.28207E-03-4.82922E-01
 -1      2624-9.59557E-03 6.55626E-03-4.98534E-01
 -1      2625-1.09800E-02 1.72665E-03-5.02682E-01
 -1      2626 6.74372E-03-9.49371E-03-4.96843E-01
 -1      2627 7.17536E-03-8.62471E-03-4.96758E-01
 -1      2628-1.08189E-02-6.99680E-03-4.97881E-01
 -1      2629-9.69295E-03-7.09575E-03-5.03901E-01
 -1      2630 1.02075E-02 6.43946E-03-4.96008E-01
 -1      2631-1.09844E-02-3.83254E-03-5.01713E-01
 -1      2632 1.04469E-02-6.72214E-03-4.97086E-01
 -1      2633 8.90803E-03 4.42531E-03-4.91030E-01
 -1      2634 7.63477E-03 6.27577E-03-4.93366E-01
 -1      2635 1.13579E-02-2.01359E-03-4.97643E-01
 -1      2636-7.27066E-03-1.13653E-02-4.99075E-01
 -1      2637 2.78362E-03 1.23400E-02-5.01012E-01
 -1      2638-7.79072E-03-1.11010E-02-5.00951E-01
 -1      2639 6.37941E-03-9.99896E-03-4.97362E-01
 -1      2640-8.04253E-03-1.06987E-02-4.98680E-01
 -1      2641-1.32951E-02 2.09844E-03-5.00139E-01
 -1      2642-6.96438E-03 8.70521E-03-4.96283E-01
 -1      2643-1.07207E-02 2.51772E-03-5.00287E-01
 -1      2644-5.20267E-03 6.09603E-03-5.03472E-01
 -1      2645-9.35743E-03 6.17144E-03-5.02146E-01
 -1      2646-1.11101E-02-7.91389E-03-5.02320E-01
 -1      2647 8.22008E-05-1.53374E-02-4.91383E-01
 -1      2648-1.24404E-02 1.11966E-03-4.99897E-01
 -1      2649 7.66273E-03 1.01553E-02-4.97663E-01
 -1      2650-1.31093E-02 4.02530E-03-4.90949E-01
 -1      2651-4.06948E-03 6.53534E-03-5.03498E-01
 -1      2652-1.28967E-02 2.07782E-03-5.01864E-01
 -1      2653-2.18666E-03-8.00731E-03-4.93813E-01
 -1      2654 1.07770E-02 5.89065E-03-4.94929E-01
 -1      2655 1.14082E-02-5.77138E-03-4.97121E-01
 -1      2656 6.53621E-03 7.60015E-03-4.94141E-01
 -1      2657 1.07299E-02-6.33929E-03-4.99501E-01
 -1      2658-2.06609E-02-2.10694E-02-4.83791E-01
 -1      2659-3.08371E-03-1.21761E-02-5.00337E-01
 -1      2660-2.15086E-03 9.25389E-03-4.97250E-01
 -1      2661-1.94576E-03-1.18815E-02-4.98394E-01
 -1      2662 1.18614E-02 3.35392E-03-4.95915E-01
 -1      2663-2.11637E-02-9.92508E-03-4.89750E-01
 -1      2664-3.16861E-03-1.22017E-02-5.02856E-01
 -1      2665 1.11113E-02 2.27212E-02-4.79457E-01
 -1      2666 1.24570E-02-2.31116E-03-4.98826E-01
 -1      2667 1.17357E-02-2.74627E-03-4.96229E-01
 -1      2668-3.32550E-03-1.32814E-02-5.01400E-01
 -1      2669 7.26714E-03-1.02122E-02-4.99570E-01
 -1      2670 1.21361E-02-1.63378E-03-4.96495E-01
 -1      2671-8.68931E-03-1.79808E-02-4.93521E-01
 -1      2672 1.07327E-02 2.36270E-03-4.99780E-01
 -1      2673 1.03620E-02 6.44242E-03-4.98926E-01
 -1      2674-1.08281E-02 7.13303E-03-5.00091E-01
 -1      2675-9.24719E-03-6.40756E-03-5.01717E-01
 -1      2676-2.16836E-02 8.85936E-03-4.90026E-01
 -1      2677-3.23743E-03 1.02807E-02-4.95348E-01
 -1      2678 3.70626E-04-7.59147E-03-5.08707E-01
 -1      2679 1.89891E-02 6.90772E-03-4.88601E-01
 -1      2680-1.06566E-02-8.64069E-03-4.99725E-01
 -1      2681 1.18345E-02 7.45420E-03-4.96751E-01
 -1      2682-2.40697E-02 1.80279E-05-4.91191E-01
 -1      2683 1.21431E-02 2.77789E-03-4.98477E-01
 -1      2684-8.42265E-03 6.60410E-03-5.00007E-01
 -1      2685-4.99217E-03 1.54465E-03-5.07667E-01
 -1      2686-1.07952E-02 7.15457E-03-5.01597E-01
 -1      2687-8.87918E-03 2.03417E-02-4.88706E-01
 -1      2688-2.60803E-03 1.04963E-02-5.00747E-01
 -1      2689-5.35591E-03 3.52881E-05-5.06166E-01
 -1      2690 1.92048E-02 1.27689E-03-4.92162E-01
 -1      2691-2.97390E-03 1.23924E-02-4.98292E-01
 -1      2692 7.58910E-03 1.05822E-02-4.98688E-01
 -1      2693 2.17416E-02-6.45690E-05-4.88148E-01
 -1      2694-3.23024E-03-2.52095E-03-4.99122E-01
 -1      2695-3.47328E-03-8.72630E-03-4.96963E-01
 -1      2696 1.54381E-02-1.28067E-02-4.90195E-01
 -1      2697 1.16938E-02 7.38733E-03-4.98313E-01
 -1      2698-1.17881E-02-7.86119E-03-5.00074E-01
 -1      2699 2.51605E-03 1.25207E-02-4.98647E-01
 -1      2700-2.92475E-03 1.23251E-02-5.00062E-01
 -1      2701-1.72721E-03 1.11010E-02-4.96861E-01
 -1      2702-1.10194E-02-5.14061E-03-4.91632E-01
 -1      2703-1.19087E-02-3.00269E-03-5.03691E-01
 -1      2704-2.51005E-03-1.32139E-02-4.99927E-01
 -1      2705 7.21742E-03-1.06908E-02-5.00523E-01
 -1      2706-7.51890E-03 1.00219E-02-4.98330E-01
 -1      2707-1.96944E-02 5.56263E-04-4.95220E-01
 -1      2708-6.59676E-03 1.09947E-02-4.98462E-01
 -1      2709 1.88858E-02-6.60972E-03-4.88651E-01
 -1      2710-1.33467E-02-3.30052E-03-5.02364E-01
 -1      2711-4.02927E-03-1.24806E-02-4.99617E-01
 -1      2712 5.30126E-03-7.53215E-03-5.04112E-01
 -1      2713 7.13722E-03-9.46051E-03-5.01889E-01
 -1      2714 1.34817E-03 1.45401E-02-4.92118E-01
 -1      2715 3.55647E-03 1.19930E-02-4.98113E-01
 -1      2716-1.14688E-02-2.39534E-03-5.01314E-01
 -1      2717 5.42577E-03 7.91193E-03-5.02584E-01
 -1      2718 7.68237E-03-1.07669E-02-5.00673E-01
 -1      2719-1.42273E-02-1.56803E-02-4.90578E-01
 -1      2720-1.12181E-02 9.32379E-03-4.89787E-01
 -1      2721-6.33483E-03-2.55278E-03-5.10482E-01
 -1      2722-7.01194E-03-1.36754E-03-5.09613E-01
 -1      2723 7.97149E-03 9.94778E-03-4.96656E-01
 -1      2724-5.94794E-03 9.13211E-03-5.02016E-01
 -1      2725 1.68925E-02 1.60617E-02-4.84674E-01
 -1      2726 5.10801E-03 2.07249E-03-5.04288E-01
 -1      2727-2.28390E-03 1.26622E-02-4.97905E-01
 -1      2728-1.35182E-04 3.88590E-03-5.04615E-01
 -1      2729 6.99807E-03-8.78200E-03-5.00962E-01
 -1      2730 6.62585E-03 4.99532E-03-5.05040E-01
 -1      2731-3.36988E-04 2.32779E-02-4.87697E-01
 -1      2732 3.82125E-03-3.58760E-03-5.04618E-01
 -1      2733-3.51483E-03 1.21949E-02-4.97491E-01
 -1      2734 2.21297E-03 3.84893E-03-5.12549E-01
 -1      2735-1.14777E-02 6.70543E-03-4.99317E-01
 -1      2736-6.88467E-03 1.04572E-02-5.00405E-01
 -1      2737 9.46814E-03 1.83616E-02-4.89482E-01
 -1      2738-9.80223E-04 1.89957E-02-4.92629E-01
 -1      2739-9.61225E-04-1.95411E-02-4.95391E-01
 -1      2740-7.38814E-03 4.11438E-03-5.04166E-01
 -1      2741 7.34091E-03 1.80878E-02-4.92714E-01
 -1      2742 6.54800E-03 3.65572E-03-5.05229E-01
 -1      2743-1.82520E-02 6.35723E-03-4.94394E-01
 -1      2744-1.80635E-02 8.13346E-03-4.94316E-01
 -1      2745-7.54258E-03-1.77625E-02-4.94807E-01
 -3
    1PSTEP                         2           1           1          
  100CL  101 1.000000000        2745                     0    1           1
 -4  STRESS      6    1
 -5  SXX         1    4    1    1
 -5  SYY         1    4    2    2
 -5  SZZ         1    4    3    3
 -5  SXY         1    4    1    2
 -5  SYZ         1    4    2    3
 -5  SZX         1    4    3    1
 -1         1-7.91350E+01-9.97459E+01-6.87264E+01-6.04425E+00-6.32314E+00-2.05915E+01
 -1         2-2.05064E+00-3.54017E-01 5.12495E-01-6.54747E-01-4.69205E-01-1.30325E+00
 -1         3-6.91486E-01 5.89095E-01-8.41865E-01-4.35239E-02-7.02220E-02-1.48832E+00
 -1         4-5.12671E+00-6.74383E+00-1.19529E+00 5.19350E-02 3.65377E+00 2.35920E+00
 -1         5-6.25715E+00-6.06764E+00 6.96075E-01 6.32079E-01 8.70785E-01 3.29306E-02
 -1         6-4.63386E+00-5.55681E+00-3.12545E+00-3.27259E-01-3.62182E+00 5.70831E-01
 -1         7 3.10206E+00 9.24818E-01 2.11689E-01-5.97838E-02-3.77233E-01-1.19099E+00
 -1         8-1.82894E+00-4.07578E+00 1.41193E+00-1.15364E-01 3.90167E-01 1.18823E+00
 -1         9 2.02798E+00-2.08019E-03-5.08859E-01-2.54339E-01-4.26515E-01-1.15044E+00
 -1        10-6.80443E+00-1.10724E+01-3.94364E+00-4.60341E-01-1.28344E+00 2.04495E+00
 -1        11-8.17410E+01-1.03174E+02-5.76663E+01 5.83561E+00 2.19941E+00-1.11067E+01
 -1        12-6.01562E+00-3.50982E+00-6.44266E-01 4.94476E-01-2.78395E+00 5.59159E-01
 -1        13 5.10980E+00 3.25871E+00 3.89076E+00-5.07076E-01-8.08806E-01 4.67097E+00
 -1        14-4.63268E+00-5.55411E+00-3.83939E+00-1.08192E-01-7.83668E-01 1.75747E+00
 -1        15-9.49115E-01-1.27323E+00 1.18304E+00-1.61965E-01-1.08440E+00 2.33035E-01
 -1        16-3.13216E+00-6.03154E+00-4.82820E-01 2.17690E-01 7.80659E-01 2.54000E+00
 -1        17-6.49047E+00-1.41298E+00-4.82454E+00 2.59928E-01-3.54395E+00-1.45692E-01
 -1        18-5.27241E+00-5.69046E+00-4.84041E+00-5.71225E-01-1.12832E+00 3.50774E+00
 -1        19-2.44604E+00-2.77629E-01 2.43487E+00 1.22377E+00 1.39662E+00-5.97428E-01
 -1        20-1.00702E+02-1.23755E+02-7.46459E+01 5.63628E+00-2.80089E+00-1.22005E+01
 -1        21-3.60602E+00-4.64438E+00 6.78207E-01 9.60769E-01-1.06350E-01 1.22999E+00
 -1        22 1.51046E+00 4.75152E-01 1.36370E+00-6.41648E-01-7.07905E-01-1.65327E+00
 -1        23-7.81573E-01 8.49545E-01 4.36432E+00 5.25742E-01 3.36644E-01 8.95443E-01
 -1        24-2.44703E+00-1.58930E+00-1.08046E-01 4.08120E-01 1.22768E+00 9.48590E-01
 -1        25-5.92297E+00-5.53502E+00 8.31795E-01-3.10459E-01 1.35259E+00-1.67954E-01
 -1        26-1.05247E+01-1.35621E+01-5.35080E+00 1.31805E+00-6.68145E+00 1.76473E-01
 -1        27-2.79083E+00-6.97630E-01-2.49180E+00-7.59633E-01 1.92492E+00 5.20170E-01
 -1        28 4.40373E+00 3.49817E+00 4.24924E+00 2.39976E-01 2.12343E+00 1.58367E+00
 -1        29 1.25858E+00-2.30105E+00-8.15371E-01 7.15915E-01 8.29768E-02-1.09782E+00
 -1        30-1.06990E+00-1.59026E+00-8.22433E-01-1.11137E+00-4.16090E-01-8.52380E-01
 -1        31-5.28289E+00-6.52961E+00-5.18299E+00 1.21244E+00 3.31897E-01 2.60416E+00
 -1        32-1.38460E+00 4.03863E-02-2.28145E-01-5.10261E-01-3.39568E-01-1.27521E+00
 -1        33-4.18414E+00-3.67888E+00 2.60738E+00-2.44623E-01-7.71940E-01 7.58400E-02
 -1        34-7.47692E+00-9.02424E+00-3.97755E+00 1.43052E+00 1.65044E-01 1.04665E+00
 -1        35-2.19585E+00-1.06509E+00-6.30226E-01-5.40804E-01 1.20090E+00-4.97807E-01
 -1        36-5.90982E+00-1.03958E+01-2.10448E+00 1.57408E+00 1.21746E+00 2.20281E+00
 -1        37-6.05959E+00-5.74590E+00-4.63667E+00 1.31052E+00 3.14301E+00 2.97435E+00
 -1        38-1.74773E+00-1.75494E+00 3.07147E-01 8.49508E-01 1.36258E+00 2.61226E+00
 -1        39-3.03784E+00-3.03134E+00 3.09096E-01 1.00240E+00 1.05015E+00 7.97258E-01
 -1        40-3.15803E+00-2.93072E+00 3.93152E-01-5.80533E-01-6.30682E-02 1.92112E+00
 -1        41-2.97899E+00-2.40242E+00-4.06728E-01-2.18968E+00-5.70440E-02 2.03985E+00
 -1        42 2.93333E+00 1.35501E+00 3.45869E-01 1.63589E+00-8.39867E-01-1.33403E+00
 -1        43 4.03898E-01 1.30144E+00 9.07032E-01-2.62991E-01 3.16008E+00 1.78973E+00
 -1        44 1.96114E+00 2.22575E-01 1.23442E+00 1.08047E+00-5.41917E-01-2.10229E+00
 -1        45-5.49941E+00-4.49502E+00-2.99938E+00 1.01236E+00 2.12381E+00 1.02769E+00
 -1        46-4.83649E+00-6.16132E+00-2.31218E+00 6.00059E-01 6.37136E-01 7.04442E-01
 -1        47-3.60460E-01 3.60594E-01-1.03785E+00-1.36555E+00-6.63812E-01-2.35470E+00
 -1        48-6.31330E-01 3.37604E-01 1.86976E+00-8.84923E-01 2.09548E-01-1.85653E+00
 -1        49-4.99110E+00-4.74450E+00 1.21973E+00-1.06250E+00-1.22088E+00 4.06915E-01
 -1        50-4.46931E+00-4.42827E+00-2.96676E+00-2.33524E-01 1.59688E+00 1.68675E+00
 -1        51-2.30792E+00-1.23296E+00 2.00323E+00-1.05419E+00-8.88457E-01 6.46320E-01
 -1        52-7.45151E+00-9.65448E+00-3.85755E+00 3.79485E-01 2.64769E+00-3.34240E+00
 -1        53 1.59989E-01-3.58888E+00 3.35744E+00-2.93366E+00 1.08971E+00-5.98567E-01
 -1        54 2.11185E-01-1.37076E+00-1.39784E+00-6.58618E-01 2.02555E+00 4.77242E-01
 -1        55-8.52577E+00-8.15192E+00-7.19764E+00 2.06881E-01 2.03180E+00 2.66164E+00
 -1        56-1.64905E+01-1.62980E+01-1.33116E+01 2.85016E+00 7.70508E-02 1.42433E+00
 -1        57-8.65056E+00-7.79680E+00-4.96262E+00 1.33807E+00 2.98336E+00 1.94672E+00
 -1        58-1.95928E+01-1.79118E+01-1.31012E+01 3.26657E+00 9.82336E-01 4.97003E-01
 -1        59-9.58243E-01-2.25735E+00 1.01986E+00 1.71735E+00 1.49190E+00-1.03906E+00
 -1        60-4.10462E+00-2.95368E+00 4.72504E-02 1.63286E-01 1.45395E+00 1.24913E+00
 -1        61-2.86964E+00-2.24042E+00 1.22998E+00 1.21824E+00 1.35695E+00 1.29930E-01
 -1        62-5.49392E+00-6.43347E+00 1.98487E+00 1.94006E-01-6.12913E-01 1.01110E+00
 -1        63-4.56074E-01-6.59269E-01 2.43199E-01-7.55460E-01-8.55040E-01-1.03576E+00
 -1        64-5.38155E-01-1.20406E+00-5.86408E-01-6.51022E-01-1.15747E+00-7.54055E-01
 -1        65 6.37025E-01 3.78316E+00 2.57221E-02 2.96849E-01-1.83762E+00-2.14383E-01
 -1        66-5.71969E+00-4.27812E+00-3.18714E+00 1.44686E+00 1.79764E+00 1.14187E+00
 -1        67-6.99926E-01 1.90205E+00-1.18069E-01 8.08433E-01 4.31541E+00 2.41789E+00
 -1        68-7.69301E+00-7.86861E+00-1.31764E+00 8.26972E-02 5.54461E-01-1.65102E+00
 -1        69-9.26590E+01-7.44101E+01-5.45747E+01 2.63501E+00-9.11771E+00-9.47381E+00
 -1        70-8.19873E+01-7.53410E+01-5.25731E+01 4.59980E+00-1.35596E+01-4.00682E+00
 -1        71 1.04308E-01 4.04589E+00-2.95200E-01 7.58673E-01-1.58263E+00-3.52303E-01
 -1        72-2.67065E+00-6.69782E-01-7.13639E-01 3.60963E-02 1.99273E+00 1.33515E+00
 -1        73-7.84873E-01-3.23443E+00 1.48577E-02-1.38504E+00 2.01180E+00 1.57462E+00
 -1        74-1.11608E+00-2.62252E+00 1.14377E+00-6.47079E-01-7.97365E-01 1.11846E+00
 -1        75-2.03507E+00-3.91957E+00-2.09417E+00-1.97257E+00-2.49235E-01-2.80843E+00
 -1        76-4.54308E+00-2.92207E+00 6.40492E-01-4.31732E-01 1.30211E+00-3.28645E-01
 -1        77-2.52421E+00 7.76899E-01 6.05230E-02-7.26069E-01-7.83110E-01-7.50692E-02
 -1        78-4.18950E+00-4.37158E+00 1.59154E+00-8.00859E-03-6.43934E-01-8.45168E-01
 -1        79-4.57242E+00-3.23226E+00 1.95024E-01-8.39790E-03 1.61546E+00 1.70069E+00
 -1        80 3.03569E-01 1.19716E+00 1.13599E-01-6.50913E-01-1.44805E+00 2.04139E-01
 -1        81-1.14525E+02-9.84769E+01-7.04037E+01-9.80035E+00-1.75826E+01-4.63194E+00
 -1        82-6.75494E+00-4.80358E+00-4.65444E+00 9.62556E-02 9.33473E-01-3.89099E-01
 -1        83 4.72561E-01-1.63088E+00 5.68696E-01 1.95657E-01-1.27316E+00 6.12634E-01
 -1        84 4.04957E-01-1.69667E+00 1.38574E+00-1.86119E-01-1.21703E+00-8.54172E-01
 -1        85-3.94655E-01 3.76855E+00 2.66648E+00-8.06615E-02 3.77389E+00 8.80669E-01
 -1        86-7.13276E+00-5.41801E+00-1.72318E+00-7.11688E-02 2.16822E+00-2.29947E-01
 -1        87-3.28335E+00-4.00732E+00 9.88836E-01-6.27421E-01-9.81566E-01 1.59524E+00
 -1        88-7.29821E+00-4.00013E+00-4.46352E+00-5.37683E-01 6.02046E-01-1.04501E+00
 -1        89-1.31073E+01-8.24337E+00-5.88567E+00 5.67740E-01 6.07879E-01-1.97416E-01
 -1        90-1.79658E+01-1.26635E+01-1.08600E+01-8.92437E-02 1.33645E-01-1.15050E+00
 -1        91-9.05287E+00-7.18541E+00-6.15966E+00 1.76311E-01 3.67047E+00 1.47926E+00
 -1        92-6.95958E+00-4.97996E+00-2.48317E+00-8.39064E-01 2.30402E+00-1.14307E+00
 -1        93-1.77561E+00-2.57668E+00-2.89476E+00-1.70523E+00 1.66604E-01 1.47636E+00
 -1        94-1.32093E+00-2.20138E+00-3.13488E+00 1.18392E+00 4.33864E-01 1.21110E+00
 -1        95-9.25416E-01-8.73605E-01 2.74057E-01-9.91475E-01 3.24767E+00-1.04913E+00
 -1        96-1.73230E-01-1.36233E+00-5.10293E-01-4.76453E-01 8.09399E-01 2.69147E-01
 -1        97-2.03280E+00-2.47070E+00-2.53468E+00 1.93953E+00 8.02463E-01-1.70713E+00
 -1        98-3.60069E-01-2.86530E+00-5.06496E-02 1.24603E-01-1.43537E+00 2.62233E-01
 -1        99-8.23386E-01-9.15962E-01-1.42906E+00 8.91890E-01-1.51374E+00 3.63615E-01
 -1       100-6.51238E+00-5.66745E+00 7.75905E-01 1.24334E-01 3.50687E-01 1.07202E+00
 -1       101-7.15622E+00-4.34496E+00-2.83432E+00 4.06839E-01 3.12553E+00 2.81183E+00
 -1       102-6.52551E+00-7.76084E+00-1.26795E-01 6.06975E-01-3.70679E-01-1.45788E+00
 -1       103-2.04904E+00-2.69611E+00 2.86844E-01 1.26745E+00-4.31402E-01-1.32037E+00
 -1       104-4.47454E+00-2.15146E+00 3.57746E-01-4.23584E-01 1.12389E+00-1.32782E+00
 -1       105-8.08255E-01 6.73603E-01 2.21708E+00 2.90252E-01 7.48487E-01-4.09488E-01
 -1       106 3.40151E+00 3.64664E+00 2.69948E+00-1.22274E+00 3.78253E+00-1.15488E+00
 -1       107 1.96978E-01 7.69946E-01-2.05930E-01-9.00514E-01-3.77426E-01 5.51328E-01
 -1       108 1.61670E+00 3.50072E+00 3.40123E-01-2.36077E+00-1.31836E+00 3.17948E-01
 -1       109-9.70881E+01-1.00678E+02-6.39548E+01-1.88881E+00-2.45256E+01 5.27937E+00
 -1       110-9.51028E+00-5.85001E+00 3.66192E-01-2.09661E+00 1.28417E+00-3.64668E-01
 -1       111-4.33756E+00-3.01101E+00-2.28128E+00-1.31894E+00 1.52776E+00-8.99798E-01
 -1       112-4.27528E+00-2.07150E+00 1.24465E+00 4.97217E-02 1.16525E+00-6.23551E-02
 -1       113-2.79178E+00-1.22045E+00 7.70913E-01 3.54920E-01 2.61704E+00-5.16420E-01
 -1       114-2.04674E+00-2.69801E+00-1.67364E+00 1.92220E+00-8.78851E-02 2.53375E+00
 -1       115-9.80012E+00-6.59938E+00-4.17208E+00-1.39706E+00 2.67214E+00-5.03441E-01
 -1       116-2.38899E+01-1.87900E+01-7.37421E+00-4.69700E+00 1.96570E-01-4.74919E-01
 -1       117-1.40320E+00-8.13939E-01-2.67557E-02 1.15914E+00-9.13484E-01 1.26440E+00
 -1       118-5.92904E+00-6.19821E+00 9.61960E-01 2.75679E-01 8.34392E-02 6.46648E-01
 -1       119-6.59137E-02 2.27307E+00 2.65172E-01-6.53431E-01-1.23288E+00 7.39787E-01
 -1       120-3.05622E+00-3.17415E+00-8.86822E-01-3.28744E-01 1.29828E+00-1.72528E+00
 -1       121-9.87212E-01 2.00641E-01-5.33287E-01-2.16799E-01-6.58549E-01-1.79767E-02
 -1       122 3.29738E-01 5.25357E-01 1.80939E+00 1.14647E-01 6.69221E-01-8.65938E-01
 -1       123-5.15631E+00-4.44882E+00-6.94565E-01 8.60863E-01-1.29862E+00-8.97804E-01
 -1       124-2.67851E-02-1.34980E+00-5.73903E-01 8.07550E-01-1.19491E+00 3.06129E-01
 -1       125-3.32842E+00-3.94144E+00-1.00703E-01-1.14689E+00 2.36176E+00-5.03364E-01
 -1       126-7.74698E+00-6.29395E+00-1.51636E+00-2.60376E+00 1.84845E+00-1.82096E+00
 -1       127-7.16921E+00-7.01092E+00-2.55016E+00-1.48713E+00 4.47452E-01-1.33223E+00
 -1       128-1.00700E+01-1.22280E+01-7.63130E+00-1.53997E+00 2.22561E-01-2.30514E+00
 -1       129-4.31472E+00-3.65957E-01-2.39765E+00 4.02826E-01-6.69302E-01-1.39474E+00
 -1       130 8.13691E-01-1.43284E+00 1.12373E+00-1.89543E-01 1.78267E+00-5.92844E-01
 -1       131-9.41010E+00-9.11587E+00-4.77586E+00-2.98998E+00 3.49760E+00-1.37668E+00
 -1       132-4.55800E+00-5.89809E+00-3.64768E+00 3.67620E-02-1.18504E+00-3.30218E+00
 -1       133-2.01118E+00-9.54342E-01 2.34155E+00 8.32527E-01 1.31895E+00 1.07616E+00
 -1       134-6.89229E+01-7.72378E+01-4.68599E+01-8.85795E+00-6.86270E+00 1.22151E+01
 -1       135 2.62155E+00 1.68324E+00 3.06698E-01-6.86241E-01-2.04843E-01 8.97305E-01
 -1       136-2.00449E+00-2.16551E+00 5.55735E-01-3.07840E-02 9.71039E-01-1.20927E+00
 -1       137-7.07193E+00-6.19577E+00 7.98597E-01-5.59631E-02 6.53122E-01 6.31005E-01
 -1       138-7.41242E+00-9.05623E+00-2.88866E+00-3.95750E-01-4.26432E+00-1.01929E+00
 -1       139-3.90806E+00-3.69558E+00-1.07973E+00-6.95903E-01-8.25168E-01-1.89876E+00
 -1       140-3.53103E+00-1.05092E+00-6.84284E-01 3.69718E-01-8.98230E-01 1.47978E+00
 -1       141 2.59325E+00 1.28125E+00-3.88035E-01 3.09064E-01 1.26169E+00-3.44105E+00
 -1       142-6.81340E-01 1.33487E-01 4.07789E-02 1.33438E+00-1.36323E+00 2.01265E+00
 -1       143 1.92279E+00 9.71156E-01 3.88343E-01-1.06569E+00-6.98552E-01 9.93701E-01
 -1       144-6.12518E+00-8.82360E+00-3.42714E+00-1.30624E+00 1.00969E+00-2.29664E+00
 -1       145-5.39339E+00-4.61036E+00 1.08027E+00-2.66787E-02-9.85305E-01-6.25979E-01
 -1       146-7.34220E+00-9.30957E+00-5.19696E+00-6.42212E-01 4.46381E-02-1.93211E+00
 -1       147-2.70485E+00-5.65747E-01-3.10381E-01 9.98377E-01 1.29921E+00-1.41288E+00
 -1       148-2.83792E+00-1.59023E+00-1.11681E+00-1.84850E-03 9.10503E-01-2.00069E+00
 -1       149-6.57435E+00-9.28530E+00-5.73256E+00-4.61914E-01 1.14633E+00-2.67125E+00
 -1       150-2.09910E+00-2.91666E+00 5.56871E-01-4.59002E-01 2.80204E-02-1.23296E+00
 -1       151-3.06188E+00-1.53790E+00 8.74180E-01 1.10246E+00 8.11887E-01 8.02355E-01
 -1       152-5.97621E+00-6.10216E+00 6.01254E-01-1.79365E-02 7.76500E-01 4.99729E-01
 -1       153-1.18394E+00-3.13568E+00 1.01745E+00-9.93517E-02 1.65626E-01-1.77820E+00
 -1       154-4.66019E+00-6.61558E-01 8.94190E-02-1.12337E+00 2.61439E+00 1.39149E+00
 -1       155-5.88956E+00-4.03491E+00-1.48402E+00 1.33051E-01-1.61548E+00 2.77024E-01
 -1       156-2.81372E+00-2.87873E+00-1.48075E+00-4.77936E-01-5.79452E-01-2.08851E+00
 -1       157-4.42427E+00-8.15583E-01-1.65768E+00-1.27978E-01-1.76098E+00 3.34932E-01
 -1       158-2.14930E+00-1.03810E+00-4.62976E-01-3.92195E-01-2.37917E-01 1.38315E+00
 -1       159 5.66548E+00 1.23961E+00 2.40209E-01 1.65727E-01-8.58139E-02 2.07493E+00
 -1       160 7.23448E+00 5.06898E-01 8.52591E-01 3.33394E-01 6.28503E-01 2.67704E+00
 -1       161-1.11689E+00 2.36326E-01-4.63957E-01 8.20584E-02-1.49647E-01 1.44553E+00
 -1       162-5.60134E+00-8.31447E+00-4.22053E+00 7.47797E-02 6.30092E-01-1.27163E+00
 -1       163-6.11616E-01-1.21102E-01 2.79709E+00 7.58753E-01 9.66386E-02-1.08278E+00
 -1       164-4.65490E+00-7.95646E+00-2.34530E+00 2.79673E-01-3.21801E-01-2.66622E+00
 -1       165-2.10069E+00-5.43308E-02-3.85625E-01-5.55453E-01-4.76051E-01-1.74955E+00
 -1       166-1.56469E+01-2.17471E+01-1.30951E+01 1.51664E+00 8.97387E-01-2.27909E-01
 -1       167-7.63878E+01-9.59310E+01-5.63355E+01 4.72105E-01 4.90359E+00 1.21553E+01
 -1       168-1.64755E+00 4.40471E-01 1.99558E-01-8.63787E-01-3.74631E-01 1.36545E+00
 -1       169-5.50322E+00-5.33069E+00 7.17350E-01-1.21127E-01-1.04224E+00-4.15594E-01
 -1       170-1.92856E+00-2.06214E+00 6.32941E-01 9.56714E-01-4.88474E-01-1.73605E+00
 -1       171-2.09793E+00-1.66711E+00-5.90715E-01 3.30497E-01-8.16139E-01-1.16184E+00
 -1       172-6.10812E-01 6.36291E-01 2.13984E+00 6.61765E-01-6.00282E-01-1.48610E+00
 -1       173 1.38380E+00-1.03412E+00 4.51511E-01 1.63053E+00 7.38501E-01 1.69157E+00
 -1       174 1.08517E-01-1.35478E-01-3.88221E-01 4.89294E-01-6.71456E-02 1.39764E+00
 -1       175-3.79524E+00-5.20579E+00-2.77965E+00 5.92137E-01-5.55473E-01-2.18106E+00
 -1       176-1.32676E+00-2.60810E-01 7.42007E-01-1.03243E+00 1.24342E+00 8.76063E-01
 -1       177-6.68808E+00-7.52546E+00-4.51399E+00 6.78717E-01-3.71532E-01-1.38624E+00
 -1       178-4.05264E+00-4.82651E+00-3.70233E+00 9.17886E-01-4.62496E-01-2.51096E+00
 -1       179-4.60707E+00-3.74184E+00 1.11544E+00-2.74887E-01 8.14345E-01-6.47970E-01
 -1       180-9.08136E+00-1.31126E+01-9.61665E+00 1.35033E+00-1.88858E-02-2.77425E-01
 -1       181-1.36512E+00-1.55977E+00 1.37070E+00-6.59323E-01-8.50664E-01-4.10285E-01
 -1       182-3.04046E+00-3.04290E-01-7.68924E-01-8.09206E-01-1.18185E+00-1.96316E+00
 -1       183-2.57844E+00-4.62855E+00-2.81517E-02 1.64681E+00 2.70957E+00-7.79386E-01
 -1       184-7.76734E-01-7.21241E-01-1.49574E-01-4.94427E-01 1.52607E+00 1.04156E+00
 -1       185-5.65078E+00-6.11320E+00 1.25405E+00 1.05707E-01 7.33737E-01-3.34500E-01
 -1       186-1.20441E+00-2.47753E+00 1.54569E+00-1.14100E+00 1.32536E+00-6.69843E-01
 -1       187-3.69288E+00-3.07105E+00 3.96403E-01 3.78310E-01-1.37071E+00-8.07340E-01
 -1       188-5.47334E-01 1.21545E+00-3.53353E-01 1.32402E+00-1.64562E+00-1.74824E+00
 -1       189-5.42892E+00-5.20419E+00-2.44306E+00 1.04168E-01-2.09855E+00-2.00880E+00
 -1       190 4.63117E-01 1.34512E+00 7.14132E-01 5.17500E-01 8.77686E-01 9.51577E-01
 -1       191-5.33101E+00-6.24854E+00-1.10352E+00 2.09088E-02-1.21998E+00 2.35372E+00
 -1       192-7.69214E+00-7.56481E+00-1.53189E+00 1.75404E+00-7.37432E-01-1.19395E+00
 -1       193-3.38075E+00-3.85219E+00-2.78986E+00 8.23320E-01-1.09681E+00-1.61678E+00
 -1       194-1.20962E+00-4.21570E-01-1.73094E+00-3.68349E-01 8.72659E-01 9.29865E-01
 -1       195-1.23841E+00-2.54398E+00 1.37917E+00 8.23897E-02-1.81729E-01-2.01928E+00
 -1       196-1.97221E+00-2.63237E+00 1.91350E-01 1.05695E-01-2.06718E+00-2.10462E+00
 -1       197 1.30218E+00 2.93351E+00 1.55524E+00 1.66783E+00 1.46650E+00 1.22984E+00
 -1       198-2.28153E+01-2.06925E+01-1.13315E+01 4.23430E+00-4.75064E-01 1.16768E+00
 -1       199-4.18262E+00-6.03694E+00-2.07749E+00 6.33162E-01-1.68264E+00-3.47774E+00
 -1       200-6.15165E-01-4.31225E+00-2.77877E+00-8.11467E-01 3.98361E-01-1.05112E+00
 -1       201-1.13343E+00-2.31932E+00-3.05535E-01-1.89350E+00-2.01000E+00-9.90497E-01
 -1       202-8.53409E-01-5.31612E+00-5.09717E+00-5.87126E-01-1.49733E+00 1.75476E+00
 -1       203-2.01965E-01-8.69055E-01-7.26574E-01-6.85708E-01 1.31603E+00 8.39375E-01
 -1       204-8.05511E+01-8.04907E+01-5.16357E+01 6.30024E+00 1.20883E+01 5.50409E+00
 -1       205-1.12564E+01-8.43757E+00-3.75375E+00 1.43030E-01 2.66796E+00-3.59168E+00
 -1       206-2.14696E+00-1.93431E+00 1.54015E+00 1.04500E+00-1.25006E+00-1.39731E+00
 -1       207 1.62292E-01-1.13884E+00 4.54442E-01-7.35687E-01 1.18719E+00 1.01216E-01
 -1       208-6.28771E+00-5.81098E+00 3.01989E-01-3.03328E-01-9.35340E-01 7.87678E-01
 -1       209-4.73606E+00-5.99795E+00 1.96145E+00-1.03806E+00-9.28686E-02-1.00413E+00
 -1       210-3.86832E+00-2.69522E+00-6.60381E-03 7.44577E-01-1.85932E+00 4.53917E-01
 -1       211-1.72884E+00 2.52879E+00 6.60479E-02 6.30236E-01 9.43030E-01 3.00679E-01
 -1       212-1.37854E+00-1.42314E+00 1.96627E+00-9.33023E-01-3.12129E-01 9.19674E-01
 -1       213-8.91238E+01-7.21351E+01-5.00062E+01 5.40398E+00 1.13981E+01 1.60568E+00
 -1       214-3.31474E-01 5.27420E+00 1.29741E+00 9.25026E-01 1.43642E+00 7.69643E-01
 -1       215-1.60234E+01-1.25790E+01-9.71515E+00 1.46497E-01-1.90932E+00 1.09043E+00
 -1       216-4.90012E+00-3.50455E+00-5.42574E-01 3.07076E-01-2.06287E+00 1.81072E-02
 -1       217 5.26135E-01-1.37524E+00-1.29144E+00 3.27613E-01-2.33837E+00 2.13040E-01
 -1       218-7.55374E+00-5.96482E+00-1.57203E+00 1.57028E+00-2.22059E+00-3.27858E+00
 -1       219-2.82031E+01-2.25263E+01-1.12715E+01 5.09064E+00-1.29080E+00 1.08367E+00
 -1       220-7.39594E-01-4.32694E+00-3.62035E+00 7.83514E-01 9.68487E-02-1.48813E+00
 -1       221 4.41693E-02-1.53650E+00-4.41381E-01 1.37796E-01 1.06694E+00-1.46001E-01
 -1       222-1.35559E-01-1.59956E+00-9.51364E-02 6.89822E-01 9.79668E-01-7.10957E-01
 -1       223-2.98328E+00-1.02485E+00 1.53724E-01 2.94027E-01-1.62424E+00 1.59591E-01
 -1       224 9.33294E-02-2.10329E+00-2.46832E+00 8.87156E-01-2.69449E+00 1.42146E+00
 -1       225-4.85849E-01 4.56706E+00 3.52231E-01-7.53753E-01 2.43981E+00-1.56823E-01
 -1       226 5.26731E+00 1.10465E+01 8.29643E+00-4.64318E-01-3.94087E+00 2.42678E-01
 -1       227-3.49319E+00-1.81987E+00-1.72693E+00 3.12570E-01-3.41157E+00 4.41904E-01
 -1       228-6.15964E+00-4.69748E+00 9.90850E-01 6.58245E-02-4.15816E-01 3.33658E-01
 -1       229-3.91304E-01 5.31625E+00-2.30027E-01-1.18620E+00 2.06130E+00-6.76002E-01
 -1       230-6.48914E+00-4.60789E+00-2.17875E+00 2.10885E-01-1.68938E+00-1.34002E-01
 -1       231-8.27924E+00-6.43458E+00-1.62889E+00 5.56584E-01 1.24427E+00-4.75748E+00
 -1       232-5.03086E+00-5.84234E+00 1.78821E+00-1.12455E-01-2.39422E-01-1.97388E+00
 -1       233-2.88038E-01-1.50186E+00 5.55888E-01-2.95705E-01 5.68180E-01 5.88190E-01
 -1       234-2.88336E+00-2.40766E+00-4.60945E-01 4.16044E-01-1.07868E+00-6.60232E-01
 -1       235-4.20601E-01-1.97932E+00 1.47421E+00 7.86747E-02-7.42066E-01-4.20918E-01
 -1       236-7.29501E+00-4.99704E+00-4.28643E+00 7.56999E-01-2.97748E+00 1.50927E+00
 -1       237-1.63352E+01-1.12635E+01-9.54177E+00-6.83685E-01-1.80407E+00 2.00076E-01
 -1       238-8.88143E+01-7.45902E+01-4.60158E+01-9.17613E-01 1.00633E+01-4.98207E+00
 -1       239-4.71527E+00-6.54650E+00-3.45827E+00-7.63500E-01-1.74922E+00 3.24613E+00
 -1       240 1.21277E+00 4.66072E+00 1.21304E+00-3.18150E-01 1.05585E+00 2.69233E-01
 -1       241-7.59307E+00-6.49790E+00-7.24994E-01-1.33507E+00 1.95627E+00 2.60052E+00
 -1       242-3.81978E+00-2.47086E+00 1.27166E+00-6.72360E-01-1.82027E+00-7.05974E-02
 -1       243 3.40018E-01-1.52809E+00 1.46706E+00-2.79999E-01-1.36438E+00-6.64122E-01
 -1       244 3.17787E+00 6.52158E+00 4.43839E+00-1.41281E-01-4.16874E+00 7.77934E-01
 -1       245 2.38878E-01 1.55097E+00 9.43110E-01-6.19096E-02 1.41131E+00-4.38484E-01
 -1       246-2.53247E+00-2.51858E+00 3.83846E-02-1.62173E-01-9.92581E-01 9.72211E-01
 -1       247-7.77978E+00-6.14822E+00-3.22686E+00-8.43921E-01-2.42919E+00 1.18600E+00
 -1       248-1.49829E-01-7.82779E-01-1.12902E+00 7.85960E-01 1.49880E+00-3.99136E-01
 -1       249-6.05977E+00-5.11082E+00 9.59331E-01-3.03196E-01 3.32933E-01 7.85847E-01
 -1       250 1.33331E-01-7.52897E-01 1.48755E-02 4.83593E-01 1.29335E+00-1.33112E-01
 -1       251-6.94456E+00-6.21781E+00-3.43561E+00-2.98286E-01-1.06297E+00 2.29695E-01
 -1       252-6.24444E+00-5.11919E+00 1.55365E-01-6.93352E-01-7.91905E-02-3.00462E+00
 -1       253-3.57251E+00-4.40373E+00 1.70898E+00 6.89223E-01 1.73789E-01-1.32772E+00
 -1       254-4.66936E+00-2.76045E+00-1.20088E+00-4.23801E-01-4.25483E+00 3.17499E-01
 -1       255-4.24097E+00-2.23819E+00-4.32948E-01 1.62862E-01-3.18535E+00 8.22584E-01
 -1       256-1.44155E+01-1.20991E+01-1.23618E+01-2.84728E-01-9.80329E-01 1.55909E+00
 -1       257-6.03620E+00-5.98922E+00 1.11965E+00-1.44076E-01-2.57618E-01-4.48245E-01
 -1       258-6.93806E-01-8.34840E-01 8.50660E-01 9.06735E-01 8.22101E-01-1.44304E+00
 -1       259-5.54824E+00-4.64602E+00 5.30510E-01 3.23796E-01 6.02588E-01 2.15713E+00
 -1       260-2.39058E+00-1.59376E+00 1.05911E+00-5.40816E-01-5.47038E-01 1.07038E+00
 -1       261 4.37752E-01 2.01701E+00 3.06934E-01-2.56124E+00 1.00379E+00-1.35889E+00
 -1       262 1.18528E+00 2.06882E+00 5.96536E-01-1.86001E+00 1.23687E+00-1.15063E+00
 -1       263-5.03420E-01-3.95968E-01-9.27884E-03 8.37584E-01 6.30187E-01-3.95440E-01
 -1       264-7.01305E+00-7.95022E+00-4.76435E+00-2.04631E+00-1.81168E+00 1.61915E+00
 -1       265-2.89618E+00-1.75955E+00-7.06380E-01 6.87570E-01-1.33890E+00-2.69632E-01
 -1       266-2.10409E+01-1.74079E+01-1.47043E+01-2.85865E+00-1.49668E+00 3.37129E-01
 -1       267-5.95042E-01-2.91518E+00-2.73135E+00 6.26705E-01-7.90441E-02-1.10385E+00
 -1       268-2.36012E+00-1.62438E+00 1.23295E+00 8.72487E-01 4.32589E-01 2.11179E+00
 -1       269-2.43981E+00-2.36362E+00-2.30148E+00 2.06732E+00-1.70262E+00-3.46246E-01
 -1       270-1.54316E+00 2.64548E-01 1.45187E+00 9.50886E-01-6.00269E-01 1.67242E+00
 -1       271-1.43953E+01-1.53131E+01-1.12590E+01-1.92259E+00-3.55851E-01 2.91489E-01
 -1       272-1.91686E+00-2.08475E-02-4.84899E-01 1.80010E-01 3.19229E-01-9.67075E-01
 -1       273-2.32873E+00-5.93411E-01-1.43256E+00-1.30371E-01 1.71001E-01-1.63463E+00
 -1       274-6.85676E+00-7.16925E+00 7.16239E-01-1.78571E-01 1.09075E+00-1.71242E-03
 -1       275-2.36417E+00-3.19159E+00 8.41601E-01-3.86649E-01-1.01315E+00 6.60625E-01
 -1       276 2.12280E+00-1.39486E+00 1.58097E-01-1.98730E+00 7.27704E-01-1.20442E+00
 -1       277 2.20809E+00 7.03916E-01 1.79511E+00-1.39235E+00 1.14330E+00-1.70982E+00
 -1       278-3.95686E+00-4.50875E+00-3.25892E-01-9.54051E-01-1.22358E-01 1.63026E+00
 -1       279-6.66512E+00-5.39468E+00 9.97828E-02 3.87275E-01-1.22468E+00-9.45429E-01
 -1       280-3.57881E+00-5.03768E+00-3.46839E-01-7.76792E-01-7.76204E-01 9.85420E-01
 -1       281-2.99037E+00-1.06677E+00-5.54333E-01 9.31531E-01-8.48206E-01-1.34049E+00
 -1       282-2.46428E+00-4.23030E+00-1.26034E+00-4.74409E-01-7.40741E-01 2.70840E+00
 -1       283-2.33716E+00 6.45239E-01 5.83781E-01-8.87819E-02-4.59989E-01 2.29098E+00
 -1       284-2.41151E+00-1.05997E+00 2.02837E-01 1.06763E+00-1.55109E+00 1.14662E+00
 -1       285-5.02275E+00-4.89557E+00-4.52529E+00-5.41404E-01-9.65374E-01 3.42801E+00
 -1       286-1.62982E+00-1.41476E+00 3.89137E+00 1.40967E+00 1.27944E+00-6.63375E-01
 -1       287-3.51767E+01-2.55763E+01-2.55770E+01-1.98269E-01-2.26511E-02 1.29629E+01
 -1       288-1.28035E+01-1.50773E+01-1.45982E+01-5.01487E-01-8.50968E+00-3.54707E+00
 -1       289 2.43176E+01 3.26774E+01 2.39949E+01 1.69312E+00-1.36241E+01-2.25793E+00
 -1       290-2.77135E+01-3.44539E+01-2.61725E+01-2.75789E+00-1.30742E+01-5.42338E+00
 -1       291-2.68150E+01-2.82993E+01-2.32031E+01-4.35199E+00 1.01104E+01 1.00824E+01
 -1       292-3.71668E+00 1.89194E+00 1.09956E+00 3.77694E-01 5.05423E+00 6.94101E+00
 -1       293-1.33650E+01-8.75904E+00-9.57322E+00 2.08183E-01 3.12568E+00-9.64996E+00
 -1       294 5.52768E+00 7.13041E+00 5.46941E+00-1.28124E+00-6.13840E+00 6.67922E+00
 -1       295-3.45672E+01-3.78043E+01-3.04684E+01-5.52033E+00 1.02119E+01 6.79798E+00
 -1       296-1.07945E+01-1.66571E+01-9.20971E+00-1.08474E+00 1.04901E+01 3.05154E+00
 -1       297-8.82804E+00-9.12020E+00-1.15474E+01-4.49041E-02 7.90463E+00 3.13851E-01
 -1       298-2.99099E+01-2.17507E+01-2.17491E+01 5.47039E-01 2.10310E-02-1.41113E+01
 -1       299-3.32247E+01-3.45380E+01-2.85281E+01 5.32105E+00 1.11349E+01-1.04066E+01
 -1       300 3.10083E+00 1.05921E+01 5.52356E+00-1.10496E+00 5.58659E+00-5.86674E+00
 -1       301-2.59266E+01-2.40320E+01-2.10326E+01 3.84650E+00 5.95020E+00-8.30732E+00
 -1       302 5.49268E+00 5.01462E+00 8.34753E+00-3.62033E-02 6.79108E+00-2.31425E+00
 -1       303 1.05209E+01 1.00129E+01 1.28956E+01 2.25492E-01 8.81797E-01 7.91704E+00
 -1       304 4.68500E+00 5.88600E+00 8.35116E+00-1.04742E-01-1.42881E+00 7.94272E+00
 -1       305 2.21707E+01 2.81250E+01 2.11745E+01-2.64204E+00-1.46849E+01 6.08287E+00
 -1       306-5.63372E+00-6.39939E+00-4.92913E+00 2.09788E+00-9.29139E+00 2.06956E+00
 -1       307 3.26573E+00 6.93053E-01 8.62025E+00 1.18522E+00-5.13505E+00 2.79944E+00
 -1       308 4.10879E+00 6.54047E+00 3.33310E+00-6.61572E-01-1.07649E+01 6.53072E+00
 -1       309-9.83873E-01-1.44892E+00-1.77971E+00 3.70989E+00-9.76631E+00 6.40861E-03
 -1       310 2.58192E+01 2.98629E+01 2.34421E+01 3.92449E+00-9.05750E+00-6.06250E+00
 -1       311-9.25188E-01-5.52887E-01-6.00853E-01-9.99276E-02-4.87641E+00-1.09531E+01
 -1       312-2.85037E+01-2.32369E+01-2.17828E+01-3.14587E+00 4.86260E+00 1.16959E+01
 -1       313-1.04133E+01-1.10280E+01-5.59631E+00 3.56058E+00-7.27922E+00 3.48647E+00
 -1       314-2.57640E+00-4.62776E+00 3.57627E-01-1.37454E+00 8.71254E+00-2.22260E-01
 -1       315-3.08989E+01-4.24941E+01-3.08985E+01-2.19167E-01-1.59072E+01-1.51949E-02
 -1       316-2.69825E+01-3.71127E+01-2.69841E+01-4.19804E-01 1.32470E+01-2.41742E-02
 -1       317-5.18086E+00-9.62514E+00-6.07351E+00 2.24525E+00-9.17027E+00-2.06062E+00
 -1       318-6.92632E+00-1.15646E+01-7.54317E+00-4.30227E+00 1.10908E+01-1.78191E+00
 -1       319 2.64647E+00 1.85689E+00 5.34280E+00-5.54355E-01-4.55837E+00-3.76234E+00
 -1       320-3.35144E+01-3.71025E+01-2.97297E+01 5.28240E+00 9.35647E+00-6.70521E+00
 -1       321-3.90038E+01-3.49163E+01-3.11203E+01-5.47516E+00-7.05434E+00-1.06003E+01
 -1       322-3.20755E+01-2.40888E+01-2.36452E+01-1.95223E+00-2.97611E+00-1.48876E+01
 -1       323-2.95510E+01-2.94558E+01-2.48418E+01-4.83380E+00-9.42060E+00-9.01392E+00
 -1       324-4.33350E+00-5.82120E+00-2.79572E+00-1.90705E-01 3.85160E-01-1.77844E+00
 -1       325-4.22449E+00-5.10825E+00-4.87422E+00 3.57500E-01 4.28354E-01-3.83531E+00
 -1       326 5.48907E+00 5.01891E+00 3.82024E+00-1.14581E+00 2.03887E+00-2.43160E+00
 -1       327-5.55219E+00-8.28331E+00-4.72830E+00 3.32610E-01-6.80625E-01-2.97133E+00
 -1       328 3.25728E+00 2.88268E+00-7.15968E-01-1.15842E+00 1.92848E+00-2.05131E+00
 -1       329 3.84804E+00 2.21437E+00 2.38163E+00 1.37836E+00-9.47661E-01-5.78638E+00
 -1       330-5.06576E+00-5.26240E+00-4.24723E+00 7.27495E-01-1.65225E+00-3.10043E+00
 -1       331-5.18838E+00-7.02612E+00-2.92964E+00-4.93505E-01-1.11554E+00-3.44833E+00
 -1       332 2.78908E-02-2.61742E-02-2.74160E+00 1.29302E+00-1.97652E+00-3.74192E+00
 -1       333 5.62665E+00 3.36774E+00 2.23658E+00 1.61175E+00-1.67845E-01-2.50147E+00
 -1       334-4.80237E-01-3.37146E+00-7.52526E+00 1.63419E-01-5.46869E-01-7.43457E+00
 -1       335 9.63108E-01 2.42180E+00 1.95604E+00-4.97078E-01 1.98344E+00-2.41998E+00
 -1       336 3.39945E+00 6.20517E+00-6.05691E-02-2.47066E+00 5.08432E+00-6.69826E+00
 -1       337-1.96966E+01-2.60833E+01-1.46175E+01-2.46007E+00 6.85076E-01-1.62319E-01
 -1       338-1.56225E+01-1.96693E+01-1.42134E+01-8.16601E-01-1.26514E+00-1.23342E+00
 -1       339-2.62058E+00-1.80393E+00-2.27854E+00 7.24969E-02-1.61311E+00-3.07700E+00
 -1       340 4.69879E+00 2.05088E+00 1.70497E+00 1.59270E+00-3.14703E+00-3.69531E+00
 -1       341-3.85989E+00-5.37385E+00-1.07565E+01 9.03246E-01-5.45396E+00-4.33625E+00
 -1       342 2.78361E+00 4.02428E-01 2.72925E+00 6.98670E-02-3.05221E+00-3.87111E+00
 -1       343-1.66281E+01-2.05039E+01-9.89933E+00-3.67637E+00 4.16238E-01-2.02135E+00
 -1       344-7.05865E+00-7.00384E+00-5.12401E+00-8.29446E-01 2.07888E+00-3.23192E+00
 -1       345-4.29819E+00-2.48436E+00-1.24426E+00-1.37347E+00 1.71078E+00-2.40570E+00
 -1       346-1.76777E+00-2.48770E+00 7.98539E-01 2.60159E-01-2.29820E+00-1.42939E+00
 -1       347-8.73308E+00-1.01415E+01-8.07755E+00 1.30384E+00-8.48016E-01-5.08335E-01
 -1       348-8.30867E+00-5.09159E+00-5.52005E+00-6.23924E-01 2.72818E+00-1.75531E+00
 -1       349-2.41286E+01-2.04937E+01-8.89146E+00-4.71914E+00-1.62469E-01-2.89162E-01
 -1       350-6.93606E+01-8.06947E+01-4.58872E+01-1.46686E+00-2.94962E+00 1.28248E+01
 -1       351-7.18274E+01-8.21235E+01-5.62214E+01-8.96624E+00-1.62550E+01 5.81156E+00
 -1       352-7.62054E+01-8.20024E+01-4.67290E+01 8.08665E+00 8.80776E+00 1.13442E+01
 -1       353-8.90662E+00-8.71867E+00-4.99085E+00-1.51240E+00 1.56548E+00-4.60266E-01
 -1       354-8.48669E+01-7.48600E+01-5.38438E+01 5.11965E+00 1.60406E+01-7.92896E+00
 -1       355-2.73311E+01-2.04562E+01-1.54747E+01 1.82198E+00-1.62763E+00 6.74968E-01
 -1       356-1.21402E+01-9.20181E+00-5.38722E+00 1.24091E+00-2.58518E+00-3.85730E-01
 -1       357-8.98135E+01-8.53320E+01-5.22356E+01-8.03021E+00-9.17476E+00 1.17628E+01
 -1       358-7.89107E+01-7.59581E+01-5.09863E+01 6.54511E+00 4.94166E+00 1.19415E+01
 -1       359-6.36697E+00-4.13673E+00-1.07068E+00 7.40308E-01-2.01744E+00-7.24851E-01
 -1       360-1.50655E+01-1.89479E+01-1.34746E+01 2.24005E+00-1.13641E-01-5.45936E-01
 -1       361-7.82206E+01-8.53752E+01-5.43214E+01 7.88401E+00 1.37015E+00 1.67732E+01
 -1       362-8.26132E+00-1.01406E+01-7.76654E+00 1.26992E+00-1.29018E+00-1.88011E+00
 -1       363-7.41322E+01-8.61631E+01-5.59869E+01-4.24103E+00 5.06894E+00 1.46569E+01
 -1       364-9.70208E+01-1.22204E+02-7.41591E+01 2.08544E+00-3.24947E+00 1.63657E+01
 -1       365-6.42902E+00-9.80235E+00-3.40526E+00 8.08552E-02 3.35871E-01-8.01017E-01
 -1       366-7.13087E+00-6.81661E+00-4.39824E+00-1.99169E-01-2.96499E+00-1.97996E+00
 -1       367-1.22747E+02-1.10992E+02-7.39695E+01-1.21988E+01-1.45454E+01 2.70972E+00
 -1       368-8.69097E+01-7.67681E+01-5.17848E+01 8.38092E+00-1.47746E+01 8.61433E+00
 -1       369-8.49777E+01-7.24267E+01-4.55025E+01-2.17766E+00 1.23476E+01 3.83943E+00
 -1       370-1.19267E+01-7.38116E+00-6.10980E+00-3.72245E-01-2.49475E+00 2.49297E-01
 -1       371-3.02909E+01-2.04806E+01-1.57594E+01 1.31889E+00 1.78949E-02-1.22172E+00
 -1       372-7.86300E+00-4.80145E+00-5.48406E-01 1.42421E+00 1.96555E+00 2.82568E-01
 -1       373-5.06903E+00-4.88890E+00-2.23128E+00 1.49661E+00 1.78088E+00 1.89025E+00
 -1       374-3.13137E+00-5.36494E+00-1.72686E+00 2.12328E+00 2.41028E+00 3.18299E+00
 -1       375-8.26855E+00-9.05175E+00-7.08666E+00-1.67212E+00-1.89492E+00 1.15912E+00
 -1       376-8.23090E+01-8.84375E+01-5.12339E+01 1.03145E+01-8.32783E+00-6.45922E+00
 -1       377-8.34701E+01-8.35465E+01-4.75601E+01-5.01541E+00 1.35947E+00-1.60668E+01
 -1       378-9.26474E+01-9.90363E+01-5.78018E+01-1.12878E+01 9.60810E+00-1.07454E+01
 -1       379-9.01029E+01-8.18343E+01-6.10717E+01 5.62604E+00-6.49837E+00-1.28131E+01
 -1       380-5.45280E+00-4.48205E+00-2.56700E+00-4.17288E-01-2.82154E+00 2.70170E+00
 -1       381-1.71993E+01-1.39747E+01-9.69355E+00 2.93963E+00 8.82272E-01-2.15575E-03
 -1       382-4.64815E+00-3.95865E+00-2.75359E+00 5.40104E-01-3.26523E+00 2.01066E+00
 -1       383-8.40985E-01 2.37710E+00 9.45026E-01-6.13524E-01-5.77240E+00 1.47529E+00
 -1       384-1.57813E+01-2.05104E+01-1.30624E+01-1.31449E+00-1.91979E+00-1.67180E-01
 -1       385-1.07075E+01-1.24058E+01-5.90466E+00-1.82725E+00 2.12766E-01 1.09084E+00
 -1       386-7.43665E+01-8.89575E+01-5.29419E+01-3.69320E+00 5.42124E+00-1.65716E+01
 -1       387-1.45744E+01-1.71195E+01-1.00980E+01-2.89593E+00-4.81377E-02 5.95169E-01
 -1       388-6.01259E+00-7.46314E+00-5.03018E+00-8.14848E-01-1.98970E+00 3.13661E+00
 -1       389-1.67571E+00-3.88307E+00-1.63225E+00-5.19638E-01-1.78081E+00 3.18832E+00
 -1       390-9.30696E+00-1.12796E+01-7.53366E+00-7.95163E-01-8.53683E-01-6.24765E-01
 -1       391-6.86052E+00-1.25239E+01-2.91077E+00-1.45013E-01 1.76670E+00 3.61321E+00
 -1       392-4.13783E+00-5.04038E+00-2.44578E+00 5.47019E-01 1.42305E+00 3.11913E+00
 -1       393 2.43753E+00 3.71718E+00 1.26387E+00 2.92622E-01 3.87233E+00 2.48267E+00
 -1       394-2.61400E+00-2.04468E+00-5.64903E+00 9.99093E-01 4.21198E+00 1.65465E+00
 -1       395-6.33742E-01-1.57319E+00-4.52444E+00 1.27284E+00 7.56813E+00 2.50848E+00
 -1       396-8.29045E+00-6.83190E+00-6.41579E+00 1.19767E+00 3.01053E+00 1.32579E+00
 -1       397 7.89097E+00 1.51647E+01 7.86800E+00-1.04627E+00 9.31311E+00 3.56157E-01
 -1       398 4.19490E+00 6.25949E+00 4.53950E+00-1.32542E+00 3.27792E+00-5.49832E-01
 -1       399-8.74294E+00-4.08883E+00-2.47838E+00 1.21790E-01 4.89118E+00 9.74939E-01
 -1       400-2.42714E+01-1.68100E+01-1.37537E+01-9.45936E-01-2.50976E-02 5.68785E-02
 -1       401 2.17463E+01 2.75193E+01 2.07408E+01-2.61758E+00 1.35173E+01-5.59921E+00
 -1       402 6.69564E+00 5.04437E+00 6.08465E+00-7.89968E+00 9.47837E+00-1.88982E+00
 -1       403 3.43650E+00 4.58077E+00 5.34069E+00-2.03822E+00 5.25378E+00-2.73001E+00
 -1       404 5.28087E+00 7.98325E+00 5.55994E+00-2.82791E+00 4.10555E+00-2.57849E+00
 -1       405 7.36811E+00 3.00925E+00 1.91345E+00-2.43193E+00 6.47402E+00-4.57042E+00
 -1       406-1.26848E+00-3.76943E+00-9.58914E+00 1.31642E+00 1.31130E+00 4.82752E+00
 -1       407 4.99405E+00-2.95859E-01 1.23843E+00 9.18496E-01 1.56461E+00 4.55294E+00
 -1       408 3.85659E+00 1.31683E+00 2.54088E+00-8.56449E-01 6.70131E-02 3.01231E+00
 -1       409 3.69929E+01 2.75718E+01 2.71817E+01 1.95636E+00 2.32173E+00 1.17535E+01
 -1       410 3.01816E+01 2.58368E+01 2.35837E+01 3.89114E+00 6.91496E+00 1.03311E+01
 -1       411-6.20787E+00-8.64742E+00-1.43335E+01-2.60354E-01 6.54529E-02 7.12732E+00
 -1       412 3.37481E+01 2.57022E+01 2.50286E+01-2.56630E+00-2.47962E+00 1.25528E+01
 -1       413-5.62908E+00-5.99313E+00-1.29817E+01 1.47931E+00 4.51366E+00 5.70389E+00
 -1       414-4.82865E+00-1.20381E+00-2.10921E+00 1.87775E-01-6.49206E-01 3.73357E+00
 -1       415 6.32502E+00 2.60394E+00 4.34212E+00-1.28722E+00-6.90695E-01 4.13671E+00
 -1       416 6.70714E+00 4.66114E+00 4.52168E+00-1.37018E+00-2.05792E+00 1.94609E+00
 -1       417-2.81376E+00-4.02399E+00-1.61430E+00-4.92284E-01-1.53496E-02 2.33102E+00
 -1       418-5.15342E+00-8.40100E+00-2.26236E+00-1.53685E+00-8.64887E-02 2.14756E+00
 -1       419 3.38944E+00 3.19926E+00 3.80809E-01-1.61245E+00-2.94887E+00 2.77841E+00
 -1       420 1.26325E+00 8.56216E-01 6.45997E-01-6.43423E-01-4.94497E+00 2.37111E+00
 -1       421-2.12838E+00-3.75913E+00-6.57137E-01-6.32061E-01-1.64167E+00 1.97287E+00
 -1       422-2.72194E+00-3.04279E+00-7.19967E-01 8.95550E-02-2.05975E+00 1.58689E+00
 -1       423-1.00456E+01-5.46139E+00-4.26432E+00-3.08568E-02-4.00588E+00 1.59754E+00
 -1       424 2.14212E+01 2.88639E+01 2.11700E+01-1.39841E+00-1.23486E+01 2.48730E+00
 -1       425 2.18226E+00 5.30763E+00 3.69213E+00 2.37745E-01-4.26368E+00-6.47471E-01
 -1       426 5.54809E+00 1.12562E+01 8.01973E+00-1.09036E+00-5.28778E+00-1.29335E+00
 -1       427-3.03479E+00-2.44324E+00-2.25988E+00-4.07485E-01-3.30981E+00-4.08339E-01
 -1       428-7.48925E+00-3.79309E+00-2.56624E+00-1.26670E-01-3.92043E+00 8.00367E-01
 -1       429 7.92896E-01 4.30800E+00 1.85499E+00-1.46384E-01-3.47126E+00-8.78426E-01
 -1       430-1.28807E+01-1.92669E+01-7.09121E+00 2.84159E+00-3.66425E-01 3.16447E-01
 -1       431-1.76025E+01-2.27536E+01-1.20995E+01 3.24353E+00-7.46152E-01-2.58034E-01
 -1       432-1.84337E+01-1.66953E+01-1.23931E+01 4.40301E+00-5.18812E-01 1.66214E+00
 -1       433-4.41000E+00-5.01897E+00-4.40071E+00 1.21378E+00 7.19553E-01 1.31585E+00
 -1       434-7.64396E+01-7.21146E+01-4.51843E+01 6.60155E+00 3.91595E-01-1.44390E+01
 -1       435-1.09759E+02-9.72250E+01-6.46185E+01-7.26270E+00 1.02485E+01-1.30636E+01
 -1       436-1.66052E+01-1.58662E+01-1.20125E+01-3.34167E+00-6.89453E-01 1.37620E+00
 -1       437-1.27285E+01-1.06392E+01-5.12262E+00-2.81286E+00-1.47744E+00 5.90115E-01
 -1       438-1.13003E+02-1.03514E+02-7.51341E+01-7.27164E+00 1.75504E+01-1.38062E+00
 -1       439 1.22364E+01 1.58072E+01 1.52888E+01-3.53491E+00 3.24181E+00-8.49977E+00
 -1       440-8.98581E+00-3.14903E+00-5.42396E+00-3.91097E+00 1.98831E+00-1.02084E+01
 -1       441 8.31750E-01 6.43507E+00 3.03279E+00-7.04180E+00 2.36395E+00-9.22812E+00
 -1       442 1.05184E+01 9.83690E+00 1.32858E+01 4.47323E-02-3.15739E+00 4.95784E+00
 -1       443 3.26198E+01 2.89018E+01 2.59006E+01-4.49066E+00-5.47657E+00 8.21928E+00
 -1       444-1.59343E+01-1.43817E+01-8.64053E+00 3.31667E+00-5.15028E+00 5.69681E+00
 -1       445 9.97092E+00 2.24969E+00 5.05691E+00 2.68792E+00-4.33717E+00 1.17922E+01
 -1       446-2.03028E+00-8.07226E+00-3.35281E+00 5.29495E+00-2.70147E+00 8.10250E+00
 -1       447 6.26457E+00 1.55698E+00-2.54943E+00 9.26557E-01-2.89243E-01-3.40170E+00
 -1       448-8.05347E+00-6.52698E+00-7.18074E+00-7.24031E-01-5.23228E+00-1.02989E+01
 -1       449-6.95475E+00-6.55476E+00 6.64651E-01-2.26105E-01 8.42914E-01-9.26086E-01
 -1       450-5.31692E+00-1.80606E+00 2.40333E-01-9.44166E-02-3.32668E-02-1.36645E+00
 -1       451-4.00268E+00-5.96856E+00-7.70492E-02 1.93917E-01-1.93346E-01 6.97857E-01
 -1       452-3.12627E+00-2.68586E+00-8.92682E-01 4.06879E-01-1.57258E+00 9.32325E-01
 -1       453 3.24206E-01-1.95852E+00-3.88599E-01-5.75989E-02 6.25987E-02 1.07606E+00
 -1       454 1.05247E+00-6.06813E-02 3.86092E-02 4.52228E-02 7.95170E-03 1.46860E+00
 -1       455-1.94647E+00-5.11547E+00-4.68475E-01-1.05304E-01 4.58799E-02 4.12581E+00
 -1       456-8.99732E+00-1.40901E+01-1.76039E+00 8.68407E-01 2.32238E-01 1.39837E+00
 -1       457-8.02812E+00-1.08558E+01-5.72124E+00-1.17554E+00-5.06347E-01 3.60649E-01
 -1       458-4.38465E-01-6.27603E-01 4.07519E-01-6.66449E-01-8.16986E-01 4.20854E+00
 -1       459-3.21074E+00-3.94155E+00-2.46464E+00-1.42570E-01 4.46422E-01 2.31299E+00
 -1       460-3.68104E+00-4.06660E+00-2.30014E+00 2.76379E-01-4.81322E-01 2.31665E+00
 -1       461-4.92272E-02-1.18418E+00 9.03466E-01 6.58029E-01 2.16072E-01 8.04619E-01
 -1       462-9.91268E-01-3.13530E+00-5.18609E-01 8.84959E-01 6.97567E-01 8.64085E-01
 -1       463-4.70127E+00-6.79861E+00-1.51936E-01 4.19471E-01 2.03802E-01 3.85323E-01
 -1       464-3.39193E+00-3.85220E+00-1.07935E+00-7.53711E-01 1.58811E+00-5.31473E-01
 -1       465-6.86933E+00-6.39961E+00 4.72617E-02-5.91575E-01-1.00914E+00-1.67699E+00
 -1       466-3.01018E+00-8.24794E-01 2.97155E+00-1.19281E+00-1.04068E+00-2.26125E+00
 -1       467-2.42957E+00-1.30150E+00-3.29436E-01 1.66835E-01 2.26725E+00 1.79592E+00
 -1       468-1.06267E+01-9.21173E+00-6.83302E+00 1.64066E+00 1.21360E+00 1.31774E+00
 -1       469-5.91161E+00-1.11267E+01 6.72546E-01 7.49245E-01-4.06540E-01 4.42135E-01
 -1       470-2.59859E+00-2.84177E+00-1.66678E+00 4.60669E-01 1.65342E+00 2.06647E+00
 -1       471-8.65540E+00-1.17644E+01-3.42317E+00 9.71794E-01 5.84863E-01 1.63548E+00
 -1       472-6.82712E+00-6.77219E+00-5.20398E+00-1.31232E-02 7.91538E-01 1.73090E+00
 -1       473-8.93244E-01-5.97290E-01-4.25347E-01 1.55661E+00 6.60853E-01 6.81466E-01
 -1       474 8.96689E-01 1.19451E+00 2.69870E-01 1.15636E+00 1.06789E+00 1.05076E+00
 -1       475-5.67604E+00-5.87167E+00-3.05300E-01 9.80740E-01 7.58859E-01 6.33546E-01
 -1       476-3.02911E+00-3.33581E+00-4.01678E-01-1.52790E-01 1.44054E+00-7.95332E-01
 -1       477-6.59374E+00-5.50158E+00-4.47961E-02-1.25366E+00-1.08197E+00-1.20386E+00
 -1       478-3.72297E+00-3.43487E+00-2.92561E-01-1.65240E+00-9.46540E-01-1.83710E+00
 -1       479-2.37679E+00-2.38036E+00-2.23342E+00 1.57768E+00 2.28850E+00 1.62438E+00
 -1       480-8.02590E+00-7.91324E+00-3.60293E+00 1.51655E+00 6.06047E-01 7.71351E-01
 -1       481-7.99077E+00-7.84186E+00-4.62912E+00 1.32531E+00 4.40405E-01 1.20875E+00
 -1       482-2.58498E+00-2.58407E+00-3.53258E+00 1.27710E+00 1.36103E+00 2.01852E+00
 -1       483-5.16919E+00-4.69787E+00-2.51479E+00 5.31097E-01 1.56506E+00 2.14880E+00
 -1       484-7.39472E+00-6.33041E+00-3.02680E+00 8.28784E-01 1.74413E+00 1.28410E+00
 -1       485-7.08190E+00-5.24083E+00-1.02456E-02 9.59033E-01 6.33681E-01 2.56964E-03
 -1       486-1.87693E+00 1.40160E+00-3.89502E-01-1.60759E-02 1.36097E+00 5.35175E-01
 -1       487-8.55655E-01 6.97896E-01 3.12776E-01 1.77002E-01 1.47632E+00 3.15343E-01
 -1       488-6.51311E+00-5.73055E+00 1.51311E+00 4.18106E-01-2.64650E+00 6.00526E-01
 -1       489-5.15457E+00-7.39257E+00 2.46512E-01-6.95896E-01-2.15807E+00-4.17634E-01
 -1       490-2.85690E+00-2.40424E+00 2.16365E+00 7.04149E-01-3.76280E-01 9.14794E-01
 -1       491-1.89044E+00 2.61621E-01 1.05027E+00 3.28466E-01 4.03999E+00 1.55070E+00
 -1       492-9.56619E+00-6.90836E+00-4.93355E+00 5.22180E-01 8.52286E-01-4.60574E-01
 -1       493-1.89945E+01-1.44212E+01-8.72024E+00 3.09723E+00 1.14043E+00 9.12924E-01
 -1       494-1.93190E+00 5.78836E-01-2.36258E-01-7.35440E-04 3.78185E+00 2.50481E+00
 -1       495-3.55441E+00-2.60258E+00-2.62950E+00 1.27195E-02 1.61657E+00 5.25809E-01
 -1       496-9.23546E+00-6.48187E+00-3.39974E+00 6.01849E-01 1.89515E+00 6.99806E-01
 -1       497-5.94939E+00-4.27602E+00-3.64085E-01-1.16921E-01 6.60521E-01 4.39952E-02
 -1       498-3.15027E+00-1.01647E-02-3.15515E-01-1.49793E-01 8.53846E-01-4.85864E-02
 -1       499-1.22660E-01 1.52997E+00-1.69197E-01 2.94262E-01 1.03111E+00-7.21907E-02
 -1       500-5.76308E+00-7.35346E+00 3.51851E-01 2.94132E-01-1.16070E+00 2.46358E-01
 -1       501-1.98732E+00-5.77508E+00-3.29559E-01-9.27500E-02-1.21167E+00-3.37841E-01
 -1       502-2.65667E+00-3.06445E+00 3.95653E-01-2.84304E-01 9.55226E-01 1.11971E+00
 -1       503-4.03701E+00-2.24521E+00-1.42742E+00-2.35220E-01 2.68346E+00-9.04761E-01
 -1       504-1.86896E+01-1.15828E+01-2.19128E+00-3.69254E-01 9.08827E-01 1.40619E+00
 -1       505-1.00093E+01-6.43784E+00-4.21748E+00 1.36784E+00 2.67626E+00 5.10432E-01
 -1       506-3.93547E+00-3.15826E+00-1.84235E+00-4.66268E-01 1.93893E+00 9.30403E-01
 -1       507-6.27564E+00-4.68559E+00-2.71221E+00 1.69922E-02 1.96469E+00-3.46916E-01
 -1       508-3.45809E+00-2.83286E+00-3.33162E+00-7.56995E-01 2.60706E+00 2.53907E-01
 -1       509-6.46046E+00-4.58906E+00 1.32476E-02-7.99273E-01 6.89890E-01-7.24515E-02
 -1       510-5.24302E+00-7.15290E+00 6.32734E-01-5.75942E-02-9.09083E-01 6.00454E-01
 -1       511-2.09578E+00-5.69243E+00 6.94132E-01 1.15786E+00-1.53933E+00 4.91811E-01
 -1       512-2.64282E+00-1.17953E-01-4.67903E-01-1.22866E+00 9.39295E-01-3.61715E-01
 -1       513-3.05368E-01 1.07249E+00-4.42409E-03-5.93683E-01-1.95728E-01-3.25158E-01
 -1       514-3.04786E+00-2.85258E+00 1.69374E+00-1.76527E-01 1.71304E-01-9.10391E-01
 -1       515-7.90802E-01 2.42497E-01-7.86844E-02-8.59996E-01 2.60144E+00-1.44002E+00
 -1       516-9.28991E+00-8.41130E+00-5.49228E+00-1.21357E+00 1.46707E+00 5.39570E-01
 -1       517-1.31045E+01-7.88520E+00-4.24737E+00-2.06134E+00 2.14795E+00 7.99406E-02
 -1       518-3.46939E+00-2.88141E-01-1.25251E+00-7.90644E-01 3.49716E+00-1.12705E+00
 -1       519-6.25315E+00-3.79189E+00-1.99866E+00-4.52339E-01 1.84992E+00-3.98197E-01
 -1       520-5.69548E+00-4.65808E+00-1.10701E+00-7.05967E-01 1.76028E+00-7.96228E-01
 -1       521-1.12894E+00 2.68339E-01-4.70797E-02-9.46398E-01 1.33296E-01-2.79678E-01
 -1       522-2.33145E-01 2.53596E-01-3.82917E-01-5.00132E-02 4.23489E-01-8.62370E-01
 -1       523-5.05910E+00-5.02400E+00 6.18136E-02-9.70817E-01 8.71325E-01-8.37520E-01
 -1       524-2.88570E+00-2.48004E+00-2.85502E-01 1.61620E-01-3.87921E-01-1.44704E+00
 -1       525-6.37701E+00-5.68380E+00 6.94004E-01 1.03881E+00-1.27945E+00 9.82265E-01
 -1       526-4.26509E+00-3.71821E+00-1.19990E+00 2.36768E+00-1.17465E+00 8.13796E-01
 -1       527-2.16251E-01-1.16397E-01 1.37371E+00 3.60067E-02 1.43817E+00-2.48644E+00
 -1       528-8.98296E+00-1.01926E+01-2.78958E+00-1.60290E+00-5.41646E-02-2.93915E-01
 -1       529-1.24582E+01-1.23015E+01-5.19523E+00-3.05369E+00 8.90695E-01-8.54154E-01
 -1       530-5.15218E+00-1.74258E+00-2.04356E+00-2.53655E+00 2.93247E+00-1.65797E+00
 -1       531-8.16315E+00-7.38787E+00-2.34424E+00-1.57125E+00 1.90894E+00-1.77097E+00
 -1       532-5.11123E+00-4.65576E+00-3.60915E+00-1.01158E+00 1.61878E+00-1.22461E+00
 -1       533 1.22394E+00-1.25841E+00-1.96521E-01-7.99502E-01 2.50662E-01-1.09108E-01
 -1       534 4.58210E-01-1.49826E+00 4.11681E-02-4.58299E-01 2.93928E-01-1.13124E+00
 -1       535-3.78725E+00-4.57865E+00 2.13939E+00-2.52844E-01 6.88363E-01-6.06374E-01
 -1       536-5.14166E+00-6.34687E+00-2.99603E-01-3.35173E-01 1.35990E-01-8.71309E-01
 -1       537-8.24003E+00-6.33816E+00 6.20328E-02 8.41223E-01-1.51879E-01 1.82870E+00
 -1       538-8.56571E+00-6.00921E+00 7.87710E-01 1.35583E+00-7.10581E-01 2.03084E+00
 -1       539-2.91198E+00-3.87501E+00-2.34316E+00 1.81923E-01 1.24424E+00-2.36389E+00
 -1       540-9.86223E+00-1.33875E+01-3.80539E+00-3.65260E-01 1.74442E-01-7.04597E-01
 -1       541-9.80857E+00-9.21589E+00-3.97839E+00-1.06413E+00 1.26634E+00-4.66767E-01
 -1       542-2.08648E+00-2.81119E+00-2.63225E+00 3.33830E-02 1.92971E+00-2.61552E+00
 -1       543-2.60511E+00-2.37493E+00-2.01256E+00-1.25778E-01 1.15785E+00-2.48318E+00
 -1       544-4.54171E+00-7.42692E+00-5.51432E-01-1.83464E-03 9.90120E-01-2.36117E+00
 -1       545 1.44564E+00-1.85682E+00-3.67530E-01-1.94306E-01-1.71155E-01-4.89458E-01
 -1       546 2.20373E+00-4.90585E-02-1.80701E-01-5.26771E-02-2.37590E-01-4.57803E-01
 -1       547-4.37450E+00-6.11496E+00 6.77479E-03 1.65297E-01 8.40910E-02-7.09982E-01
 -1       548-3.30660E+00-2.78924E+00-6.53574E-01 3.01006E-01-1.53684E+00-4.06848E-01
 -1       549-6.97199E+00-4.96025E+00 2.41303E-01-1.60211E-01-9.38722E-02 1.27298E+00
 -1       550-4.30018E+00-1.61855E-01 1.83026E+00-1.66651E-01-2.46407E-01 2.01715E+00
 -1       551-1.18417E+00-3.05327E+00-1.09936E+00-2.61064E-01-1.74483E-01-2.41407E+00
 -1       552-7.82475E+00-1.11176E+01-4.72827E+00 6.86553E-01-1.03218E+00-1.70389E+00
 -1       553-8.81102E+00-1.10055E+01-2.79371E+00-2.94853E-01-7.63104E-01-1.66547E+00
 -1       554-2.67688E+00-3.54173E+00-2.94380E+00-5.56107E-02 8.80408E-01-3.14317E+00
 -1       555-1.65802E+00-1.02428E+00-1.02108E+00 1.12960E-01 2.71192E-01-2.49146E+00
 -1       556-4.84662E+00-7.36686E+00-2.71977E+00 5.16593E-01 1.74738E-02-1.74623E+00
 -1       557-6.94717E+00-6.47018E+00-4.49891E-01-1.80509E-01 1.43140E-01 1.77148E+00
 -1       558-6.28964E+00-4.03151E+00 4.68595E-01-9.28378E-01 9.40862E-01 2.11200E+00
 -1       559-5.03663E+00-6.20709E+00-4.29390E-02 6.91773E-01-8.73038E-02-3.04638E-02
 -1       560-4.39128E+00-5.56794E+00 5.41855E-02 6.54933E-01 6.76288E-02-8.04702E-01
 -1       561 1.82702E+00-2.73886E+00-3.01152E-01 2.14573E+00-2.79368E-01-3.38055E-01
 -1       562 1.60220E+00-9.01512E-01 6.97928E-01 1.88943E+00-3.08531E-01-1.27317E+00
 -1       563 2.91710E+00 5.79720E-02 3.90510E-03 1.43443E+00-1.42006E+00-2.22928E+00
 -1       564-1.31863E+01-1.46927E+01-8.11011E+00 1.78035E+00-1.27723E+00-2.17854E+00
 -1       565-7.80225E+00-1.10749E+01-4.38409E+00-1.57836E-01-5.19261E-01-3.91054E-01
 -1       566-1.09378E+00-2.59602E+00-1.44314E+00 1.87583E+00-1.42777E+00-3.43760E+00
 -1       567-6.06602E+00-7.89541E+00-3.99049E+00 2.61398E-01-4.70859E-01-1.78368E+00
 -1       568 5.37340E-01 1.73056E+00 4.43985E-01-7.51133E-01-1.17270E+00-1.35913E+00
 -1       569-6.68873E+00-7.60172E+00 8.21515E-01-1.15180E+00 1.11135E+00 1.24156E+00
 -1       570-2.82369E+00-3.75826E+00 3.30127E+00-2.21388E+00 9.13927E-01 9.20395E-01
 -1       571-5.96985E+00-5.95634E+00-2.77322E-01 1.08235E+00-7.51741E-01-4.94085E-01
 -1       572-3.52205E+00-3.13507E+00 1.24252E+00-2.68023E-02-1.97400E-02-1.43425E+00
 -1       573 3.76835E-01-2.88530E-02 3.74823E-02 9.52344E-01-5.83151E-01-1.02632E+00
 -1       574 5.15925E-01 6.74948E-02-8.71063E-01 4.09306E-01-4.90635E-02-1.09623E+00
 -1       575 1.92715E-01 4.41161E-01 6.92830E-01 1.63403E-01-2.37615E+00-2.89301E+00
 -1       576-5.12326E+00-5.75246E+00-2.30181E+00 6.29950E-01-1.34083E+00 7.37845E-01
 -1       577-6.85361E+00-6.76134E+00-4.04099E+00 6.85447E-01-2.57383E-01-1.38821E+00
 -1       578-1.35618E+00-2.44606E+00-1.10636E+00 9.79375E-01-1.37642E+00-1.98778E+00
 -1       579-4.63189E+00-4.86443E+00-6.39719E-01 7.42792E-01-1.55746E+00-1.47495E+00
 -1       580-8.62957E+00-8.54187E+00-6.75340E+00 1.45888E+00-1.74583E+00-1.81261E+00
 -1       581-5.82453E+00-4.32033E+00 1.12637E+00 8.04969E-01-4.34912E-01-6.83736E-01
 -1       582-5.56711E+00-7.73948E+00 5.35911E-01 3.18944E-01 2.38466E+00 7.69572E-01
 -1       583-1.72230E+00-4.82711E+00 1.80729E-01-1.09467E+00 1.80060E+00-2.60125E-02
 -1       584-2.64399E+00 7.94184E-01-4.65328E-01 1.31406E+00-7.62867E-01-2.11545E-01
 -1       585-2.77075E-01 1.62174E+00 2.31174E-01 9.08710E-01 1.06928E-01-7.95831E-02
 -1       586-6.10026E+00-5.08760E+00-1.99462E-01 1.01726E+00-6.04971E-01 8.02074E-02
 -1       587-3.53964E+00 3.61586E-01-2.15315E-01 5.63410E-01-3.28379E+00-1.77220E-02
 -1       588-1.28488E+01-9.28037E+00-4.81925E+00 1.09575E+00-1.45366E+00 6.21554E-01
 -1       589-1.34129E+01-1.24073E+01-5.94452E+00 2.48369E+00-1.88926E-01 1.22648E-01
 -1       590-2.39899E+00-7.76772E-01-1.03340E+00 8.81536E-01-2.92506E+00-9.98596E-01
 -1       591-4.23748E+00-3.51864E+00-2.63585E+00 4.93470E-01-2.19344E+00-6.18147E-01
 -1       592-7.31266E+00-5.45085E+00-3.94743E+00 4.70839E-01-2.14373E+00-8.17135E-01
 -1       593-6.13400E+00-3.83125E+00-2.95351E-01-4.99592E-02-7.61645E-01 1.25153E-01
 -1       594-4.93982E+00-6.47077E+00 7.28140E-02-2.10424E-02 1.60309E+00 3.99866E-01
 -1       595-7.03578E-01-4.47338E+00 1.74771E+00-5.71354E-02 6.95466E-01 4.49491E-01
 -1       596-1.55200E+00 1.94507E+00-3.94757E-01-3.61810E-01-8.92252E-01 7.74356E-02
 -1       597-2.40428E-01 3.27260E+00-1.34284E-01-2.81427E-01-7.36511E-01-8.14784E-02
 -1       598-3.04492E+00-3.31138E+00-8.92706E-01 2.10479E-01-5.91767E-01 1.69131E+00
 -1       599-2.32444E+00 4.75462E-01-4.11687E-01-3.54201E-01-3.81234E+00-4.06749E-01
 -1       600-1.67432E+01-1.01284E+01-2.37535E+00-1.19986E+00-1.69497E+00-3.55962E-01
 -1       601-5.35925E+00-3.49990E+00-2.20805E-01 3.13706E-02-2.16981E+00-5.30705E-02
 -1       602-3.00960E+00 1.21918E-01-7.42043E-01-5.71122E-01-3.89943E+00-5.87903E-01
 -1       603-1.07779E+01-7.22969E+00-6.29437E+00-3.38906E-01-2.61623E+00-5.40856E-01
 -1       604-8.78990E+00-6.80588E+00-3.77628E+00-4.94655E-02-1.87469E+00 7.23258E-01
 -1       605-6.41578E+00-4.81848E+00 4.41728E-01-7.65844E-01 2.80296E-02 4.51534E-01
 -1       606-1.41249E+00 1.94479E+00-3.42965E-01-1.44151E+00-4.31578E-01 2.17183E-01
 -1       607-9.25270E-01 1.69437E+00 5.02747E-01-1.80708E+00-1.04328E+00 3.99226E-01
 -1       608-3.52966E+00-6.04355E+00 8.11950E-01 8.97459E-01 1.88939E+00-5.84076E-02
 -1       609-4.74111E+00-7.93393E+00-3.68008E-01 9.52157E-01 1.48813E+00-5.64321E-01
 -1       610-6.18274E+00-4.78846E+00 3.68141E-01-1.15993E+00-9.15758E-01-8.28738E-02
 -1       611-1.65358E+00-1.72677E-01-9.75757E-01-2.69816E-01-3.29404E+00 2.07135E+00
 -1       612-6.42398E+00-5.25035E+00-1.47383E+00-1.65702E+00-1.55148E+00-3.76407E-01
 -1       613-5.37928E+00-3.04024E+00-1.57630E+00-2.17596E-01-1.37806E+00 4.10273E-01
 -1       614-4.37130E+00-5.50048E-01-9.79689E-01-2.34106E+00-3.21263E+00 1.39259E+00
 -1       615-6.45969E+00-5.11509E+00-2.26950E+00-8.07066E-01-1.79126E+00 6.63375E-01
 -1       616-7.30864E+00-6.77088E+00-5.92662E+00 8.12971E-02-1.78597E+00 9.56051E-01
 -1       617-6.94063E+00-6.34026E+00 5.90280E-01 5.95362E-01 1.23553E+00-1.33088E+00
 -1       618-2.98959E+00-2.32010E+00 2.93652E+00 1.74691E+00 9.78163E-01-1.17494E+00
 -1       619-5.42061E+00-5.27583E+00-4.37338E-01-1.47128E+00-7.62023E-01 7.00634E-01
 -1       620-3.35454E+00-3.15517E+00-1.16843E+00 5.66899E-02-1.73099E+00-6.37447E-01
 -1       621-1.94016E+00-1.99963E+00-4.30325E-01-1.85540E+00-3.35733E-01 8.15800E-01
 -1       622 9.15955E-01 5.90805E-01 5.55627E-01-1.34201E+00-6.73269E-01 6.27262E-01
 -1       623-5.44063E+00-4.52739E+00-1.76902E+00-4.38723E-01-1.72601E+00 2.21289E+00
 -1       624-6.02851E+00-7.12878E+00-4.07792E+00-8.51582E-01-2.37249E-01 1.19811E+00
 -1       625-1.07051E+01-1.03007E+01-3.05483E+00-2.72799E+00-5.10942E-01 1.58356E+00
 -1       626 1.06790E+00-3.74157E-02 1.86600E+00-7.03816E-01-3.02041E+00 1.21947E+00
 -1       627-6.49103E+00-6.08579E+00-2.23232E+00-1.51395E+00-1.12653E+00 1.87250E+00
 -1       628-7.24386E+00-7.33117E+00-5.19423E+00-1.71250E+00-1.43008E+00 2.32493E+00
 -1       629-6.41663E+00-6.65249E+00 9.32096E-01-1.00826E-01 5.90975E-02-1.54526E+00
 -1       630-3.74896E+00-1.93460E+00 8.76282E-01 1.63506E+00-3.39090E-02-1.08076E+00
 -1       631-5.49792E+00-6.68799E+00 2.72676E-02-7.84526E-01-2.88480E-01 8.50933E-01
 -1       632-3.48316E+00-3.34754E+00 4.69494E-01 1.70484E-01-1.68833E+00 6.88835E-01
 -1       633-1.37074E+00-1.64436E+00 7.04927E-01-1.44903E+00-3.27403E-01 1.29094E+00
 -1       634-9.87629E-01-2.66995E+00-4.12577E-01-1.58661E+00-1.97273E-01 7.47912E-01
 -1       635-4.44865E+00-3.88452E+00 7.65558E-02-1.63583E+00-1.22277E+00 3.82957E+00
 -1       636-9.67361E+00-1.54494E+01-6.98467E+00-1.99760E+00-7.04236E-01 9.97395E-01
 -1       637-1.06027E+01-1.36448E+01-6.99652E+00-1.75469E+00-4.42754E-01 3.59544E-01
 -1       638-2.66865E+00-2.60829E+00 4.74066E-01-9.37807E-01-1.72768E+00 2.69471E+00
 -1       639-5.86242E+00-5.92010E+00-4.43661E+00-4.57578E-01-6.22997E-01 2.54692E+00
 -1       640-7.33597E+00-1.00361E+01-3.03678E+00-5.61382E-01-1.22480E-01 2.35552E+00
 -1       641 3.25809E+01 3.33126E+01 2.77412E+01 5.23481E+00 1.13726E+01 9.33301E+00
 -1       642-4.98977E-01-7.59151E-01 4.49379E+00-1.52909E+00 4.94955E+00 4.56184E+00
 -1       643 1.83245E+01 1.44703E+01 1.40460E+01-8.44902E+00-1.06441E+00 1.22892E+01
 -1       644 3.98546E+00 4.66543E+00 4.06943E+00-1.23944E+01-8.52808E-01 1.04533E+01
 -1       645 1.24746E+01 9.03243E+00 9.25932E+00 4.92722E+00-1.05420E+01-2.93462E+00
 -1       646 4.91219E+00-4.63535E+00 4.66349E-01 6.10098E+00-9.23008E+00-2.39124E+00
 -1       647 6.28892E-01 1.64738E+01 7.14791E+00 2.46482E+00 7.39970E+00 9.04534E+00
 -1       648-1.78929E+01 7.16754E+00-4.60268E+00 8.98224E-01 6.24016E+00 7.66720E+00
 -1       649 6.18261E+00 1.93533E+00 3.62584E+00-3.13177E+00 1.18972E+01-3.29645E+00
 -1       650-8.45376E+00-1.90187E+01-1.20435E+01-1.84930E+00 8.96420E+00-2.57297E+00
 -1       651 1.12635E+01 9.90963E+00 8.45483E+00-1.72295E+00 5.02455E+00-1.00205E+01
 -1       652 2.95010E+01 2.56493E+01 2.32182E+01-3.95312E+00 7.08757E+00-1.32594E+01
 -1       653 2.43096E+00 7.47998E+00 3.71329E+00-7.40079E-01-8.31138E+00 7.38190E+00
 -1       654-2.07357E+01-1.39121E+01-1.50612E+01 3.47115E+00-7.88291E+00 6.50965E+00
 -1       655-4.11963E+00-1.71211E+00-2.44091E+00 2.45116E-01 5.80869E+00 9.10617E+00
 -1       656-2.38595E+01-1.70778E+01-1.72346E+01-1.62395E+00 6.46770E+00 1.20998E+01
 -1       657 7.75534E+00 1.36180E+01 9.11370E+00-3.98317E-01 9.88005E+00 5.50116E+00
 -1       658-1.12619E+01-8.18921E+00-9.60966E+00-3.84808E+00 6.96118E+00 3.48084E+00
 -1       659 4.01701E+00 5.55985E+00 2.30996E+00 2.21948E+00 1.05526E+01 1.69686E+00
 -1       660-1.00177E+01-1.35903E+01-1.26413E+01 2.93129E+00 8.63755E+00 1.83469E+00
 -1       661 8.04460E+00 6.68588E+00 7.52575E+00-3.76337E-01 3.59366E-01-8.51685E+00
 -1       662 3.63691E+01 2.67034E+01 2.65535E+01-1.24421E+00 1.41005E+00-1.43175E+01
 -1       663-3.60426E+01-3.28535E+01-2.90052E+01 5.23223E+00 6.97911E+00-8.50427E+00
 -1       664-1.74293E+00-1.51403E+00-6.43733E+00-1.29079E+00 3.81415E+00-4.35519E+00
 -1       665 1.50784E+01 5.90766E+00 8.39742E+00-7.15764E+00 1.08540E+01-6.71439E+00
 -1       666 8.03825E+00-9.27947E+00-1.20766E+00-8.82764E+00 9.49782E+00-6.46122E+00
 -1       667 2.57849E+01 3.54494E+01 2.57797E+01-5.02826E-01 1.27414E+01-1.25483E+00
 -1       668 3.79996E+00-1.23165E+00 9.20784E+00-3.12810E-01 4.19650E+00-5.87201E-01
 -1       669 2.45979E+01 2.54235E+01 2.10590E+01-3.94701E+00 1.14155E+01-9.36820E+00
 -1       670-4.02278E+00-5.13148E+00-1.54068E+00 1.32586E+00 6.49363E+00-5.19212E+00
 -1       671 1.14255E+01 8.35310E+00 8.20827E+00 6.22633E+00 1.49283E+00 1.20293E+01
 -1       672-1.64763E+00-9.55232E-01-1.30695E+00 9.64756E+00 1.52859E+00 1.03634E+01
 -1       673 2.68755E+01 3.65004E+01 2.66813E+01-1.46968E+00-1.42689E+01 1.40527E+00
 -1       674 1.41198E+00-1.12244E+00 4.92517E+00 8.06481E-01-7.26816E+00-6.71297E-01
 -1       675-1.19761E+01-1.02943E+01-1.17545E+01 6.39754E-01-3.19613E+00 9.45536E+00
 -1       676-3.49934E+01-2.66305E+01-2.59437E+01 2.50469E+00-3.79705E+00 1.25170E+01
 -1       677 2.41796E+01 3.16121E+01 2.34883E+01-2.37163E+00-1.45190E+01 4.40437E+00
 -1       678 1.74009E-01-2.17947E+00 3.49623E+00 8.38739E-01-7.32856E+00 2.29802E+00
 -1       679-1.07445E+01-1.11271E+01-1.21245E+01 9.11011E-01-6.96262E+00 4.23212E+00
 -1       680-3.66185E+01-4.38267E+01-3.38674E+01 5.23514E+00-1.13055E+01 6.04316E+00
 -1       681 3.13411E+01 4.31395E+01 3.13563E+01 5.02879E-01-1.50323E+01-1.48045E+00
 -1       682-2.63891E+00-4.52478E+00-1.90459E+00 3.50423E+00-9.18742E+00-1.22461E+00
 -1       683 1.37417E+01 7.78828E+00 8.96908E+00 2.31229E+00-8.44767E+00-6.99829E+00
 -1       684 4.04944E+00-6.13567E+00-1.06429E+00 8.37043E-01-6.97637E+00-5.81698E+00
 -1       685-2.56139E+00-6.39214E+00-4.92863E+00-2.08690E+00-4.02823E+00-8.18515E+00
 -1       686 2.28613E+01 1.13234E+01 1.39312E+01-4.86519E-01-4.60152E+00-9.03478E+00
 -1       687 8.45337E+00 7.94483E+00 1.02260E+01 3.16556E-01-1.15931E+00-9.37027E+00
 -1       688 3.70983E+01 2.71768E+01 2.70598E+01 1.08822E+00-1.52827E+00-1.55179E+01
 -1       689-1.09777E+01-4.69904E+00-7.00750E+00 2.39627E+00 3.35466E+00 1.02874E+01
 -1       690-1.12490E+01-4.47267E+00-5.89283E+00-6.80940E-01-6.10084E+00 9.56830E+00
 -1       691-1.31479E+01-1.49189E+01-8.83536E+00 3.37186E+00-5.01718E+00 7.01300E+00
 -1       692 8.39840E+00 8.00116E+00 1.02344E+01 8.53286E-01 8.34682E+00 1.52670E+00
 -1       693-3.33503E+01-4.27018E+01-3.20180E+01-4.10172E+00-1.19842E+01-6.40593E+00
 -1       694 5.07646E+00 5.26753E+00 7.53220E+00-2.40538E-01-5.71826E+00-6.61025E+00
 -1       695-1.26195E+00 3.58398E+00 1.67847E+00 3.72800E+00-3.40558E+00-1.29126E+01
 -1       696-1.20845E+01-5.30747E+00-4.23268E+00-3.99324E-01 4.59515E+00-1.06282E+01
 -1       697 2.81191E+01 2.79668E+01 2.36122E+01 4.50246E+00-9.07581E+00-1.10592E+01
 -1       698 1.47959E+00 6.92492E+00 2.86685E+00 5.19255E+00 3.07762E+00 9.01040E+00
 -1       699 2.40475E+01 2.92115E+01 2.24220E+01 3.70894E+00 1.14273E+01 3.46647E+00
 -1       700-4.77465E-01-3.32518E+00-1.96331E+00 1.36703E+00 2.97408E+00-9.05642E+00
 -1       701 1.38863E+01 1.76245E+01 1.42563E+01 6.96800E+00-2.82168E+00-1.18366E+01
 -1       702 4.96233E+00 1.19511E+01 6.53340E+00-4.79345E+00-5.99546E+00 1.00374E+01
 -1       703 1.16641E+01 7.11279E+00 5.85684E+00-2.06097E+00-4.91436E+00 4.84789E+00
 -1       704-6.77578E+00-7.60454E+00-1.01458E+01 3.68502E-01-6.54205E+00-4.84407E+00
 -1       705-1.14389E+01-6.44875E+00 3.66270E-01 6.60931E-01 5.98252E-01-1.73706E+00
 -1       706-4.42257E+00-1.33552E+00-1.36109E-01-4.73586E-01 5.49673E-03-1.70308E+00
 -1       707-1.00665E+01-3.38505E+00 2.95381E-02 9.29416E-01 7.38687E-02-8.14842E-01
 -1       708-4.54723E+00-5.12463E+00 1.00515E+00 6.45998E-01 4.73239E-02 2.85841E-01
 -1       709-1.82844E+00-4.01759E+00-1.98515E-01 2.01168E-01 1.30714E-01 1.63926E+00
 -1       710 1.45959E+00-3.80000E-01-6.53332E-01 3.84298E-01-3.46635E-01-6.05435E-01
 -1       711-7.26987E+00-8.25044E+00-4.48220E+00-5.83459E-01-7.60856E-01 1.21606E+00
 -1       712-8.34783E+00-1.06481E+01-4.52021E+00 9.61073E-01-4.73260E-01 1.76718E+00
 -1       713-2.90811E+00-9.21458E-01 1.03897E-01-5.48546E-01-5.72244E-01-1.12794E+00
 -1       714-9.57363E+00-7.64769E+00 1.69941E+00-2.30018E+00 1.59371E-02-2.45978E-01
 -1       715-3.40078E+00-2.13944E+00-2.04500E-01-7.87919E-01-4.45610E-01-1.38866E+00
 -1       716-5.32992E+00-8.21453E+00-1.80545E+00 1.04496E+00 1.35501E-01 1.64882E+00
 -1       717-3.64665E+00-4.58043E+00-1.28558E+00 4.59511E-01 1.07587E+00 1.16558E+00
 -1       718-5.88878E+00-7.28138E+00-2.62881E+00 5.42771E-01 1.13924E+00 1.35866E+00
 -1       719-3.77573E+00-2.57838E+00 3.62646E-01-2.54752E+00-5.05396E-01-1.89469E+00
 -1       720-7.07361E+00-7.14291E+00-1.61144E+00-1.14290E+00-8.91529E-01-5.67481E-01
 -1       721-2.81709E+00-2.02967E+00-1.11329E+00-1.97125E+00-8.75981E-01-2.46487E+00
 -1       722-3.76080E-01-6.95319E-01-7.12964E-01 1.51032E-01 2.14424E+00 2.54218E+00
 -1       723-5.63308E+00-4.60779E+00-2.54335E+00 1.17602E+00 1.62380E+00 9.20126E-01
 -1       724-9.50350E+00-1.04778E+01-4.26799E+00 1.97002E+00 1.53149E+00 4.79647E-01
 -1       725-1.57470E+00-3.02499E+00-1.77970E-01-7.04862E-01-1.43499E+00-1.07243E+00
 -1       726-5.84096E+00-6.03987E+00 5.56254E-01 5.81887E-01 6.25017E-01 2.19782E-01
 -1       727-4.23929E+00-3.83151E+00 9.01656E-01 3.14633E-01 7.59606E-01 6.69156E-01
 -1       728-1.24649E+01-9.92532E+00-5.06742E+00 6.28953E-01 1.33928E+00-1.79922E-01
 -1       729-1.43346E+00-4.60150E+00 7.71244E-01-7.01576E-02-1.30672E+00-1.05292E-01
 -1       730-5.42033E+00-1.03234E+01-2.08905E-01 5.34127E-02-1.36988E+00 3.76737E-01
 -1       731-7.26492E-01-3.90110E+00 6.37804E-01-1.50137E-01-1.34747E+00-3.36242E-01
 -1       732-5.00301E+00-3.55537E+00-5.92274E-01-3.34766E-01 1.17228E+00 7.69818E-01
 -1       733-2.08799E+00 2.42236E-01 1.04281E+00-5.81383E-01 1.28063E+00-1.03582E+00
 -1       734-4.64445E+00-2.57699E+00 6.54450E-01-4.14311E-01 7.29194E-01-9.19483E-02
 -1       735-6.07115E+00-5.41392E+00 1.34440E-01-5.46082E-02 5.78590E-01-3.34305E-01
 -1       736-3.69635E-01 9.91806E-01-2.61497E-01-2.70765E-01 2.10824E+00-7.10053E-01
 -1       737-6.26638E+00-3.98139E+00-1.17976E+00-4.84699E-01 1.58451E+00-8.89018E-01
 -1       738-9.94847E+00-7.54494E+00-1.86692E+00-1.27204E+00 1.04333E+00-6.30174E-01
 -1       739-1.58374E+00-1.84231E+00-6.89588E-01 1.60145E+00-8.92544E-01 1.13348E+00
 -1       740-8.62825E+00-9.25573E+00 8.83440E-01 2.57595E+00-1.53278E+00 5.83764E-01
 -1       741-2.81369E+00-2.04404E+00 4.84140E-01 1.92885E+00-8.90292E-01 1.44711E+00
 -1       742-7.80222E+00-5.58325E+00-2.42952E+00-1.13569E+00 1.28853E+00-1.31418E+00
 -1       743-3.67034E+00-4.91470E+00-1.75729E+00-2.89029E-01 1.50739E+00-2.32060E+00
 -1       744-8.08653E+00-8.24118E+00-2.97153E+00-1.03726E+00 1.10939E+00-1.69585E+00
 -1       745-3.32439E+00-1.34112E+00 8.31551E-01 8.66281E-01-1.05733E+00 1.61402E+00
 -1       746-1.14037E+01-7.28539E+00 1.23246E+00 1.07689E+00 2.60137E-01 1.35240E+00
 -1       747-5.47542E+00-2.43747E+00-5.45193E-01 9.92462E-01-8.77734E-01 1.45695E+00
 -1       748-8.62803E+00-9.98533E+00-2.77045E+00-6.87312E-01 6.27793E-01-3.67852E-01
 -1       749-4.22321E+00-5.02556E+00-1.86084E+00-4.05680E-01 6.72789E-01-2.66931E+00
 -1       750-7.80721E+00-1.10157E+01-2.77553E+00-4.43655E-01-6.48447E-01-1.46135E+00
 -1       751-2.39351E+00-1.47687E-01 1.17652E-01-9.83999E-02-2.07894E-02 1.31806E+00
 -1       752-1.08932E+01-7.22587E+00 2.01927E-01 4.65519E-01-4.86996E-01 7.98823E-02
 -1       753-4.15100E+00-1.82410E+00-1.26294E-01-6.62711E-02-9.96837E-02 1.86331E+00
 -1       754-5.39513E+00-7.22921E+00-4.00192E+00-3.67766E-01 6.60404E-01-2.34727E+00
 -1       755-3.32936E+00-4.71302E+00-5.19972E-01 3.87144E-01-2.47131E-01-2.37354E+00
 -1       756-6.63199E+00-8.14431E+00-2.73500E+00 4.17839E-01 2.30977E-01-1.29825E+00
 -1       757-2.43002E+00-4.41671E-01 9.27155E-01-1.32784E+00 6.05072E-01 1.12472E+00
 -1       758-8.40906E+00-4.74732E+00 1.03458E+00-1.29577E+00-2.93224E-01 3.41063E-01
 -1       759-3.62508E+00-5.26646E+00 8.51806E-01 8.52717E-01 1.28616E+00-5.96706E-01
 -1       760-2.18365E+00-3.10522E+00 1.56764E+00 4.93387E-01-6.23718E-01-1.15420E+00
 -1       761 2.32722E+00-1.30345E+00-1.22171E-01 1.88338E+00 2.47531E-01 1.06751E+00
 -1       762-3.09752E+00-4.78350E+00-2.35261E+00-1.79504E-01-3.86180E-01-2.35822E+00
 -1       763-3.93571E+00-5.62647E+00-4.04476E-01-2.15172E+00 1.74134E+00 1.09904E+00
 -1       764-1.04315E+01-1.05845E+01-4.68820E-01-1.60689E+00 4.87859E-01 2.41367E-01
 -1       765-4.78214E+00-4.82380E+00 1.28772E+00-1.65245E-01-5.78805E-01-7.21757E-01
 -1       766-3.40700E+00-3.64593E+00 2.19351E-01 7.31494E-01-1.34335E-01-9.69093E-01
 -1       767-3.33269E-01 4.95855E-01-6.85295E-01 5.22126E-01 3.29402E-01 7.79375E-01
 -1       768-6.22387E-01-3.00663E+00 1.55556E-01-1.15777E+00 1.33846E+00 2.67849E-01
 -1       769-5.76120E+00-1.07013E+01 2.54146E+00-9.35286E-01 1.59874E+00 3.61585E-01
 -1       770-4.27727E+00-4.48080E+00 1.15002E+00 8.03734E-01 8.91461E-02 1.17386E-01
 -1       771-8.71845E+00-7.76036E+00-4.18612E+00 1.35396E+00-1.22084E+00-9.82834E-01
 -1       772-1.23448E+01-9.31000E+00-3.48596E+00 1.04187E+00-1.55594E+00 9.20479E-01
 -1       773-9.07914E-01-3.14646E+00-1.67135E-01 4.83829E-01 1.45257E+00-8.10197E-02
 -1       774-5.48901E+00-7.77118E+00 1.17206E+00-1.33412E-01 6.60461E-02-2.76204E-01
 -1       775-7.78758E-01 7.22716E-01 4.77549E-01-8.68671E-02-1.37099E+00 7.56152E-02
 -1       776-3.03211E-01 3.10752E+00-1.14496E+00-1.95031E-01 1.09888E+00 9.69507E-02
 -1       777-7.71819E+00-4.98083E+00-2.73305E+00-4.69716E-01-1.90075E+00 4.04538E-01
 -1       778-2.56767E+00-4.27687E+00-3.00845E-01 1.61551E+00 2.17452E+00 7.37503E-02
 -1       779-5.56643E+00-7.32483E+00 5.21093E-01 3.72594E-01-2.33958E-01-8.50280E-02
 -1       780-4.67489E+00-3.78409E+00 2.32582E+00-3.03743E-01-4.34606E-01-7.83143E-01
 -1       781-4.93313E+00-3.20026E+00 1.24102E+00-1.16922E+00-1.03608E+00-3.64209E-01
 -1       782-8.14884E+00-6.46977E+00-4.52579E+00-9.75857E-01-1.61277E+00 8.00631E-01
 -1       783-4.48585E+00-3.12662E+00 4.78796E-01 1.55446E+00 7.52909E-01-1.43525E+00
 -1       784-1.11956E+01-1.03894E+01-1.65586E-01 1.51328E+00 3.99218E-01-1.54185E+00
 -1       785-5.34149E+00-5.09857E+00 9.18764E-01-3.02300E-01-7.66893E-01 1.30966E+00
 -1       786-1.04532E+00 1.09403E-01 9.63688E-01-5.96176E-01-1.09479E+00 1.09417E+00
 -1       787 5.03694E-01-2.81194E-01-3.67048E-01-2.27964E+00 4.82239E-01-1.01558E+00
 -1       788-1.04560E+01-1.11286E+01-3.78451E+00-2.04911E+00-4.80280E-01 6.23318E-01
 -1       789-3.26103E+00-1.70230E+00-2.70388E-02 1.40318E+00 7.19940E-01-1.23649E+00
 -1       790-9.68918E+00-7.29491E+00 6.30786E-01 6.59940E-01-3.55324E-01-1.53634E+00
 -1       791-5.11702E+00-4.72832E+00 2.86733E+00-2.15936E-01 3.88512E-02 3.66720E-01
 -1       792-1.73218E+00-8.08857E-01 1.24417E+00-4.03781E-01-1.17441E+00 7.80360E-01
 -1       793 1.82009E-01-2.88651E+00-1.25741E+00-2.05447E+00-1.97962E-02-2.50342E-02
 -1       794-9.05606E+00-1.12373E+01-3.82276E+00-1.86864E+00-1.36293E+00 1.05395E+00
 -1       795-4.74713E+00-5.36993E+00-2.39221E+00-4.68693E-01-5.54261E-01 2.66495E+00
 -1       796-6.18375E+00-8.88260E+00-3.31594E+00-6.92445E-02-4.18484E-01 1.50279E+00
 -1       797 1.21272E+00-1.40670E+00-5.04204E+00 1.53427E+00 7.83065E+00 5.77923E+00
 -1       798 2.34792E+00 5.33995E+00 1.44950E+00 7.63069E-01-6.31023E+00-6.18641E-01
 -1       799 7.13341E+00 5.58009E+00 6.80747E+00 1.10867E+00 5.99615E+00 7.29177E+00
 -1       800 1.91031E+00 5.85278E+00 4.36518E+00 2.47021E+00 8.92664E+00-3.00102E+00
 -1       801 1.63154E+01-6.45345E+00 3.61853E+00-4.09766E+00-9.01891E+00 8.34331E+00
 -1       802 8.53922E+00 6.37214E+00 2.84729E+00 3.20069E+00 4.45140E+00 6.91157E+00
 -1       803-3.30201E+00-3.48999E+00-6.41855E+00 7.86123E-01 5.87807E+00 4.33386E+00
 -1       804 5.00705E+00-1.75240E+00 3.72570E-01 1.54489E+00 8.98314E+00 4.86399E+00
 -1       805-2.40102E+01-3.03554E+01-2.28879E+01-3.04558E+00 1.23821E+01 6.61860E+00
 -1       806-3.31810E+01-2.99230E+01-2.65668E+01 4.33498E+00 6.56431E+00-8.39917E+00
 -1       807 7.79952E+00 5.66871E+00 2.38818E+00-1.72840E+00 5.18832E+00-7.22067E+00
 -1       808 7.83084E+00 1.75493E+01 9.80319E+00-8.93147E-01 7.69263E+00-5.02649E+00
 -1       809 2.44905E+01 3.09093E+01 2.33233E+01-2.92893E+00 1.31317E+01-6.89024E+00
 -1       810-7.86139E+00-9.73213E+00-9.11578E+00 1.02116E+00 8.61656E+00-5.25265E+00
 -1       811 2.88749E+01 3.95564E+01 2.88096E+01-2.28345E-01 1.28716E+01-1.20919E+00
 -1       812 5.41087E+00 9.69554E+00 2.32500E+00 1.55466E+00 8.16082E+00-2.59056E+00
 -1       813 4.78495E+00 2.01851E+00 8.42322E+00 5.65518E-01 6.53791E+00-1.35597E+00
 -1       814 1.43096E+00-1.84651E+00-9.01348E-02-3.11882E-01 7.18422E+00-4.84536E+00
 -1       815-7.87127E-01 1.85886E+00-1.65352E+00-7.92417E-01 7.22325E+00-5.29524E+00
 -1       816-8.91756E+00-1.27117E+01-7.54427E+00 2.06523E+00 8.21615E+00-6.64709E+00
 -1       817 1.89226E+00-1.17870E+00-6.28844E+00-1.35968E+00 1.80238E+00 8.83345E+00
 -1       818-1.50451E+01-1.28381E+01-1.05536E+01-3.61383E+00 1.30942E+00 1.11457E+01
 -1       819 2.58661E+01 3.71184E+01 2.65165E+01-1.07012E+00-1.54481E+01 2.16814E+00
 -1       820-5.79543E-01-4.32194E-01-2.57420E+00-6.18024E-01-1.63765E+00 6.90325E+00
 -1       821 2.23869E+01 2.92669E+01 2.17462E+01-2.54816E+00-1.50377E+01 4.23148E+00
 -1       822 2.17041E+01 2.94447E+01 2.15337E+01-1.99380E+00-1.33743E+01 3.33312E+00
 -1       823 4.57836E+00 3.65361E+00 8.30357E+00 6.70761E-01-7.51624E+00 1.78003E+00
 -1       824 1.06848E+01 1.43269E+01 7.05171E+00-2.39988E+00-6.62865E+00 4.75348E+00
 -1       825-3.66185E+01-4.38267E+01-3.38674E+01 5.23514E+00-1.13055E+01 6.04316E+00
 -1       826 9.84841E+00 1.38357E+01 9.39368E+00-2.99687E+00-7.26038E+00-1.85902E+00
 -1       827 2.72037E+00 4.62287E+00 4.12589E+00 1.67763E+00-9.77963E+00-1.78216E+00
 -1       828-8.74643E+00-1.24659E+01-8.00811E+00-2.51457E+00-1.06226E+01-1.72675E+00
 -1       829-3.87237E+00-3.28585E+00-6.03466E+00 8.61301E-01-6.69704E+00-4.01663E+00
 -1       830-1.22734E+01-5.03747E+00-3.44736E+00 3.84617E-01-1.79238E+00-7.68483E+00
 -1       831-3.14840E+01-2.48247E+01-2.37059E+01-3.43371E+00 3.75603E+00 1.21015E+01
 -1       832-1.82896E+00-2.28872E-01 2.89119E+00-1.28563E+00 2.14999E+00 5.85526E+00
 -1       833-1.25715E+01-1.94614E+01-9.95043E+00 5.05346E+00-6.07804E+00 7.95816E+00
 -1       834-1.38519E+01-8.62345E+00-7.22507E+00 1.98427E+00-4.83034E+00 6.94908E+00
 -1       835 2.03507E+00 1.47639E+00 5.42158E+00 9.63893E-01-4.43607E+00 5.88438E+00
 -1       836 4.04954E-01-3.07996E+00 4.68109E+00-4.84653E-01 5.70814E+00 1.56677E+00
 -1       837 5.73869E-01-2.60400E+00 4.14064E+00-5.74541E-01 6.80660E+00 5.56818E-01
 -1       838-3.33503E+01-4.27018E+01-3.20180E+01-4.10172E+00-1.19842E+01-6.40593E+00
 -1       839-1.44201E+01-1.27686E+01-1.00218E+01-4.30705E+00-8.92959E+00-5.76690E+00
 -1       840-1.43836E+01-9.25014E+00-1.07585E+01-1.61963E+00-6.69994E+00-8.36975E+00
 -1       841-8.38205E+00-9.91100E+00-2.49815E+00-3.05557E+00-3.97453E+00-7.82877E+00
 -1       842-8.11431E+00-7.84667E+00-5.26188E+00-3.85004E+00-2.91079E+00-9.47768E+00
 -1       843-1.15345E+01-1.39387E+01-1.10758E+01 4.21234E+00 1.81736E+00-7.74499E+00
 -1       844 1.96639E+00-6.77134E-01-5.84260E-01 3.50036E-01-6.86154E+00-9.02714E+00
 -1       845 3.57513E+01 2.69647E+01 2.64034E+01 2.51757E+00 3.37982E+00 1.22626E+01
 -1       846 2.40475E+01 2.92115E+01 2.24220E+01 3.70894E+00 1.14273E+01 3.46647E+00
 -1       847 8.00436E+00 4.37016E+00 4.72567E+00 5.42437E-01 2.20178E+00-1.09302E+01
 -1       848 3.09133E+00 2.86853E+00 4.63145E+00 1.99036E-01-2.52627E+00-9.00627E+00
 -1       849 1.04764E+01 9.41251E+00 9.24715E+00-5.54643E-01-6.10063E+00 1.11817E+01
 -1       850 6.63751E+00 6.99919E+00 4.22129E+00-1.49989E+00-4.08281E+00 6.48945E+00
 -1       851-4.71761E+00-2.37929E+00-7.09667E+00 4.72872E-01-4.90384E+00-4.30584E+00
 -1       852-2.95899E+00-2.71240E-01-4.34089E-01-4.61278E-01-1.92552E-01-1.49065E+00
 -1       853-3.16405E+00-5.98449E+00 5.55970E-01-2.76728E-01 3.85040E-01 8.26183E-01
 -1       854-3.04398E+00-3.53825E+00-1.12062E+00 5.08075E-01-1.73946E+00 4.17706E-01
 -1       855-5.13487E+00-2.84946E+00-7.13651E-01 3.90289E-01-1.57196E+00 1.04080E+00
 -1       856 1.93136E+00 1.10963E-01 4.07999E-02 3.71053E-01-4.53743E-01-8.96037E-01
 -1       857-7.31235E-01-1.16529E+00 3.97722E-02 5.39831E-01-3.45288E-01 1.48851E+00
 -1       858-1.39437E+00-7.19775E+00 1.09196E+00-1.75475E-01 6.57070E-01 3.41820E+00
 -1       859 3.40610E+00 5.59003E-01 5.62483E-01 4.37849E-01-3.10137E-01 1.81748E+00
 -1       860-1.42693E+01-1.85762E+01-8.27492E-01 1.49686E+00-1.48000E-01 3.36768E-01
 -1       861-9.32427E+00-1.50617E+01-3.92818E+00 1.19222E+00-1.97900E+00 1.69108E+00
 -1       862-1.55915E+01-1.89218E+01-6.54465E+00 2.53769E-01-1.16149E+00-1.13793E+00
 -1       863 2.99382E+00 2.69363E+00 2.92971E+00-9.31184E-02-5.25086E-01 3.58252E+00
 -1       864-7.46466E-02-7.59837E-01 7.36984E-01 1.20888E-01-1.38402E-01 3.52510E+00
 -1       865-4.72879E+00-7.90493E+00-1.90889E+00 1.74097E-01 1.04424E+00 2.45451E+00
 -1       866-3.31749E+00-5.09993E+00-1.60119E+00 4.59046E-02-5.22078E-01 1.55350E+00
 -1       867-7.59160E+00-8.11174E+00-5.06199E+00-2.23506E-01-1.02590E-01 2.24704E+00
 -1       868-6.55964E-01-2.30649E+00-3.17476E-02 3.28923E-01 4.63795E-01 1.46973E+00
 -1       869 1.10484E+00-2.63507E+00-9.21994E-01 1.31751E+00 1.47333E-01 1.84233E-01
 -1       870-1.04489E+00-1.75103E+00-3.30770E-01 8.54567E-02-2.78778E-01 1.58925E+00
 -1       871 1.42810E+00-5.70009E-01-1.09084E+00 7.20481E-01 2.04503E-01-6.02827E-01
 -1       872-2.74587E+00-4.48346E+00 2.06154E+00 1.15151E+00 2.32696E-01 5.49186E-01
 -1       873-4.42082E+00-5.45925E+00 1.09912E+00 1.64648E-01-8.03668E-01 8.42244E-01
 -1       874-4.19659E+00-3.10244E+00-2.98554E-01-3.89017E-01 1.22609E+00 1.76622E-01
 -1       875-2.87912E+00-2.93205E+00-2.08221E-01-4.55251E-01 1.40288E+00-2.16644E-01
 -1       876-6.40640E+00-3.64290E+00 1.58882E+00-3.21769E+00 2.66584E-01 1.72085E-01
 -1       877-9.00146E-01-1.43662E+00-6.23838E-01 4.20298E-01 2.04338E+00 2.31570E+00
 -1       878 1.25744E+00 5.35649E-01 1.80208E+00-4.93059E-03 1.88009E+00 1.03688E+00
 -1       879-1.79445E+01-1.84939E+01-6.51600E+00 2.10430E+00 2.11536E+00-6.48725E-02
 -1       880-6.45879E+00-6.66439E+00-4.08806E+00 2.61890E-01 1.10228E+00 1.31664E+00
 -1       881-1.23478E+01-1.64534E+01-7.74324E-01 1.56262E+00 3.32260E-01 8.13629E-01
 -1       882-5.23997E-01-8.09640E-01 9.91800E-01 3.52589E-01 1.11120E+00 1.99741E+00
 -1       883-2.95933E+00-5.01742E+00-1.25572E+00 9.10811E-01 1.22402E+00 2.30868E+00
 -1       884-4.08273E+00-6.44133E+00-1.69775E+00 7.26720E-01 6.92194E-01 2.20441E+00
 -1       885-7.02530E+00-1.02163E+01-2.99373E+00 1.12878E+00-6.55316E-01 1.65613E+00
 -1       886-3.63154E+00-3.22649E+00 7.48861E-01 5.68695E-01 1.89259E-01 4.07995E-01
 -1       887 1.28693E+00 6.49935E-01-6.83399E-01 1.00788E+00-6.47512E-01-4.97637E-01
 -1       888-2.32834E+00-2.82534E+00-6.67911E-01 1.37510E+00 3.01562E-01 1.00916E+00
 -1       889 8.89627E-02-3.11493E-01 2.76833E-01 7.61896E-01 5.96847E-01 3.41690E-01
 -1       890 1.27215E+00 4.60828E-01-6.82676E-01 1.48728E+00-5.67502E-01-5.11672E-01
 -1       891-5.88338E+00-5.36227E+00 1.41517E+00 1.38704E-02 5.33465E-01 9.56915E-01
 -1       892-2.89707E+00-3.96666E+00 1.13221E+00-8.32422E-01 1.48576E+00-5.43658E-01
 -1       893-1.12131E+00-2.24353E+00 2.44751E-01 2.10645E-01 1.43793E+00-3.29677E-01
 -1       894-4.00859E+00-4.11696E+00-3.09394E-01-2.71746E+00-3.98259E-01-8.04019E-01
 -1       895-1.91141E+00-2.77836E+00-1.53110E+00 8.52912E-01 1.89447E+00 1.71135E+00
 -1       896 1.74214E-01 1.72256E+00 9.17577E-01 1.10698E+00 1.88812E+00 1.41720E+00
 -1       897-1.31951E+01-1.06806E+01-6.34509E+00 1.38071E+00 6.77967E-01 1.76972E-01
 -1       898-5.65661E+00-4.91236E+00-1.62053E+00 4.32794E-01 8.59890E-01 1.42061E+00
 -1       899-8.98066E+00-1.04060E+01-5.42302E+00 6.12009E-01 6.64584E-01 1.45879E+00
 -1       900-9.01883E+00-7.56644E+00-3.40114E+00 7.60312E-01 1.43082E+00 1.22380E+00
 -1       901-5.11560E+00-5.31775E+00-4.09033E+00 7.91074E-01 1.88809E+00 2.03737E+00
 -1       902-3.00746E+00-3.63919E+00-1.48144E+00-2.74000E-01 8.33766E-01 1.66486E+00
 -1       903-5.95793E+00-6.08784E+00-4.25832E+00 6.17131E-01 9.26170E-01 2.20963E+00
 -1       904-6.39002E+00-1.14949E+01 9.35611E-01-9.09695E-01-1.38573E+00 4.13999E-01
 -1       905-2.09267E+00-3.19231E+00-3.04205E-02-6.27876E-01-1.77748E+00-6.91550E-01
 -1       906-1.87350E+00-3.59403E+00 1.70183E+00 2.30156E-01 1.38280E+00-1.26460E+00
 -1       907-3.26129E+00-3.00457E+00 5.81207E-01 4.68617E-01 9.58354E-01-4.10251E-01
 -1       908-3.91420E-01 2.08842E+00-1.51722E+00 1.11389E-01-5.68600E-01 9.32778E-02
 -1       909-1.27751E+00-1.03925E+00 8.89151E-01-4.16345E-01 1.05374E+00 5.02396E-01
 -1       910-2.13554E+00-1.30982E+00 6.39701E-02-2.04037E-01 9.07506E-01 6.00316E-01
 -1       911-3.79436E-01 2.55293E+00-8.66818E-01 3.12804E-01-2.87769E-01 3.37511E-01
 -1       912-4.64470E+00-1.11186E+01 8.01245E-01-1.11372E+00-2.42673E-01-8.76873E-01
 -1       913-3.42578E+00-1.46259E+00-2.36777E-01-8.52848E-02 2.59861E+00 1.34240E+00
 -1       914 2.17946E-01 2.51692E+00 1.04268E+00-1.05828E+00 3.17694E+00 1.30567E+00
 -1       915-1.41462E+01-1.26751E+01-7.79098E+00 4.27685E-01 7.38485E-01 1.10827E-01
 -1       916-6.13937E+00-6.14566E+00-1.58460E+00-9.50276E-02 1.60558E+00 5.09444E-02
 -1       917-1.10691E+01-1.00727E+01-3.57867E+00 1.28160E+00 4.98351E-01 1.56102E+00
 -1       918-2.45458E+01-1.91614E+01-1.03708E+01 2.19778E+00 3.07776E-01 8.69336E-01
 -1       919 6.64497E-01 3.81068E-01 3.97264E-01-6.17004E-02 3.12881E+00 1.75565E+00
 -1       920-1.02472E+00-1.22269E+00 1.43568E-01-4.46903E-01 2.77477E+00 1.60923E+00
 -1       921-5.77068E+00-4.87629E+00-2.72931E+00 8.80838E-01 1.90330E+00 4.71440E-01
 -1       922-4.21123E+00-3.29413E+00-1.27505E+00 7.36492E-01 1.89803E+00 1.35049E+00
 -1       923-8.15940E+00-7.40718E+00-3.23995E+00 8.39357E-01 1.40173E+00 9.22921E-01
 -1       924-5.35374E+00-4.35678E+00-4.29335E-01 3.97548E-01 3.56618E-01-1.30433E+00
 -1       925-1.72005E+00-1.50712E+00 5.03919E-01-4.02027E-01 1.04142E+00-8.04152E-01
 -1       926-3.32271E+00 8.72553E-01-1.62448E-01-7.05823E-02-1.24064E-01-6.57286E-01
 -1       927-3.34243E+00-1.78885E+00 1.75669E-02 1.30597E-01 1.10511E+00 4.00214E-01
 -1       928-2.85452E-01 1.36125E-01 8.25717E-01-4.87359E-03 1.05653E+00-1.71287E-03
 -1       929-4.84117E-01 1.39511E+00-1.05104E+00 2.64810E-01-2.61225E-01-3.78266E-01
 -1       930-1.57710E+00-8.74687E+00 7.73973E-01-1.63902E-02-7.26129E-01-5.03869E-02
 -1       931-3.31094E+00-4.15930E+00-1.18047E+00-1.62516E-01 2.53476E-01 1.80287E+00
 -1       932-2.63734E+00-6.51853E-01-7.35224E-01-4.48330E-01 2.80392E+00-5.29504E-01
 -1       933 2.97163E-01 1.10572E+00 1.94527E+00-1.82464E-01 2.64833E+00-1.43085E+00
 -1       934-3.06399E+01-1.94060E+01-8.82124E+00-1.62352E+00 1.17704E+00 7.27975E-01
 -1       935-9.96229E+00-8.60139E+00-4.45185E+00-2.70356E-01 1.64668E+00 1.47443E-01
 -1       936-1.27320E+01-9.83295E+00-3.94165E+00 2.04547E+00 1.11867E+00-3.67671E-01
 -1       937-2.22872E+01-1.54332E+01-7.84113E+00-2.01242E-01 2.31758E-01 1.17944E+00
 -1       938-4.12643E+00 1.05955E+00 2.19630E+00-8.35692E-02 2.87872E+00 8.71861E-02
 -1       939-4.53418E+00-3.75732E+00-3.25553E+00-1.96975E-01 2.90158E+00 5.09824E-01
 -1       940-6.05153E+00-1.07649E+01 1.36071E+00 1.40733E+00-8.05475E-01-3.52775E-01
 -1       941-9.30753E+00-6.83822E+00-4.45236E+00-5.11134E-01 1.78984E+00-7.59266E-01
 -1       942-4.43494E+00-2.72469E+00-3.35982E-01-1.87345E-01 2.05649E+00-5.42243E-01
 -1       943-4.25014E+00-3.70903E+00-1.33660E+00 4.86809E-02 2.37047E+00 4.45863E-01
 -1       944-8.92774E+00-7.37705E+00-3.09045E+00-1.52972E-02 1.43877E+00 1.13801E-01
 -1       945-2.24022E+00-5.70924E+00-2.81230E-01 1.08433E+00-1.75001E+00 5.85943E-01
 -1       946-4.17490E+00-2.67018E+00-2.09933E-01-3.27086E-01 1.50476E+00 1.45911E+00
 -1       947-1.83492E+00-2.25912E+00 1.46045E+00-1.61547E-01 1.18905E+00 1.15205E+00
 -1       948-1.41832E+00-3.83450E+00-6.91640E-01 9.92417E-01-1.74727E+00 3.09542E-01
 -1       949-3.59464E+00-9.02904E+00-3.13015E-01 2.41032E+00 2.05961E-01-4.52215E-01
 -1       950 2.99764E-01 1.62293E+00 3.58030E-01-8.03998E-01-4.41129E-01 6.14284E-02
 -1       951-2.83571E+00-5.28552E-01 4.83009E-01 1.69101E-01 1.50704E+00-6.71992E-01
 -1       952 2.25764E-01 9.14519E-01-2.38099E-01-8.30395E-01-4.33953E-01 1.29067E-01
 -1       953-4.84962E+00-2.83046E+00-2.32563E+00-1.35719E+00 3.36372E+00-1.71282E+00
 -1       954 2.52420E+00 3.38830E+00 2.62495E+00-1.80695E+00 2.79041E+00-1.57632E+00
 -1       955-2.25403E+01-1.84078E+01-9.88632E+00-1.13235E+00 3.80014E-01 3.51007E-01
 -1       956-9.51320E+00-9.16444E+00-4.42288E+00-1.87218E+00 1.01238E+00-6.22568E-01
 -1       957-6.92336E+00-6.97144E+00-3.52586E+00-1.28775E+00 1.55779E+00-6.90174E-01
 -1       958-2.15545E+01-1.46458E+01-6.19657E+00-5.66717E-01 1.21603E+00 9.03488E-01
 -1       959-3.22321E+00-1.20281E+00-4.85589E-01-5.92972E-01 3.12658E+00-8.07595E-01
 -1       960-7.01872E+00-3.38953E+00-1.52009E+00-1.32246E-01 2.17191E+00 2.92725E-01
 -1       961-9.69058E+00-6.90411E+00-4.28181E+00-2.01093E-01 1.55809E+00-9.87858E-02
 -1       962-2.93432E+00-3.49702E+00 6.90360E-01-9.05530E-01 7.46023E-01-5.93762E-01
 -1       963 1.81211E+00 3.25821E+00 4.23770E-01-6.70098E-02-1.09858E+00 5.43616E-01
 -1       964-1.63506E+00-1.12966E+00 2.18864E-01-5.26936E-01 1.51957E+00-6.77242E-01
 -1       965-5.07341E-01 8.26350E-01 6.84273E-01-1.37429E-01 1.21592E+00-8.97356E-01
 -1       966 1.04222E+00 9.27948E-01-3.17650E-01-5.45592E-01-8.19642E-02 2.49287E-01
 -1       967-5.01544E+00-5.65823E+00 1.24155E+00 9.53282E-03 1.04629E+00-6.79564E-01
 -1       968-4.27162E+00-4.09782E+00-1.38967E+00 8.53721E-01-9.56532E-01-1.54658E+00
 -1       969-2.39196E+00-3.01296E+00-2.21812E-01-2.56578E-01-3.58315E-01-1.48931E+00
 -1       970-6.71088E+00-7.72664E+00-9.48046E-01 3.93825E+00-1.20776E+00 3.60781E-01
 -1       971-1.95633E+00-1.39448E-01-5.16357E-01-2.34647E-02 1.86807E+00-2.08262E+00
 -1       972 2.07579E+00 1.68945E+00 1.87585E+00 9.55826E-01 1.48265E+00-1.54203E+00
 -1       973-1.17058E+01-1.25901E+01-3.43224E+00-3.56413E-01 7.77901E-01-6.41236E-01
 -1       974-1.02544E+01-1.08120E+01-3.03225E+00-5.17182E-01 8.68408E-02 1.51579E-01
 -1       975-2.21804E+01-2.00009E+01-5.06023E+00-3.86357E+00-2.22402E-01-5.78958E-01
 -1       976-2.88939E-01 2.35577E+00 1.80603E+00 1.81115E-02 2.67313E+00-1.92223E+00
 -1       977-5.71235E+00-4.60645E+00-1.04043E+00-2.11577E+00 2.03070E+00-1.85551E+00
 -1       978-3.98879E+00-4.44583E+00-6.45973E-01-1.18175E+00 2.23391E+00-1.54499E+00
 -1       979-1.07093E+01-9.14258E+00-2.84027E+00-1.92970E+00 1.23058E+00-6.91936E-01
 -1       980-3.38538E+00-4.12863E+00 2.00997E-02-2.61820E-01 6.44927E-01-1.20393E+00
 -1       981 1.29752E+00 7.50893E-02 1.16269E-01-4.54534E-01-8.26486E-02 8.80947E-01
 -1       982 3.41970E-01-1.20413E+00 8.69096E-01-9.88037E-02 6.90283E-01-1.43233E+00
 -1       983-5.34900E-01-1.81458E+00 2.36851E-01 1.37836E-01 4.36678E-01-1.24650E+00
 -1       984 1.51272E+00-4.54631E-01 3.83011E-01-3.96442E-01-2.60021E-01 8.97201E-01
 -1       985-5.84672E+00-5.78187E+00 9.89521E-02 1.29248E-01 1.47789E-02-1.99312E-01
 -1       986-5.02215E+00-4.75937E+00-5.06992E-01-2.68368E-01-2.10474E+00-8.05143E-01
 -1       987-2.56490E+00-3.17207E+00-2.97003E-01-3.40729E-01-4.88096E-01-1.77228E+00
 -1       988-9.97440E+00-4.35383E+00 1.19059E+00 1.49263E+00-9.16307E-01 8.14338E-01
 -1       989-1.87368E+00-3.40312E+00-8.13486E-01 1.29442E-01 9.81089E-01-2.05488E+00
 -1       990 3.21507E+00 1.87972E-01 8.51823E-01-5.41152E-01 8.02189E-01-1.06450E+00
 -1       991-1.52048E+01-1.87691E+01-4.98673E+00-1.10165E+00 3.76541E-01-9.33620E-01
 -1       992-6.32552E+00-6.98446E+00-2.90216E+00-4.09892E-01 9.96273E-02-1.73663E+00
 -1       993-1.24831E+01-1.39892E+01-4.33214E+00-4.71711E-01 3.28051E-01-7.26389E-01
 -1       994 2.84338E+00 2.30568E+00 2.94993E-01-7.06352E-01 1.63963E+00-1.77029E+00
 -1       995-7.90098E-01-2.15298E+00-3.36146E-01-1.48472E-01 1.60441E+00-2.36182E+00
 -1       996-3.90205E+00-4.17142E+00-1.08104E+00-3.93900E-01 1.05517E+00-2.08768E+00
 -1       997-8.20549E+00-8.76660E+00-2.82852E+00-8.82053E-01 1.15081E+00-1.49039E+00
 -1       998-2.81255E+00-3.59735E+00 1.13233E+00-4.91215E-02 1.00219E-01-9.05258E-01
 -1       999 2.26771E+00-4.63237E-01-1.26451E+00-2.06086E-01-3.50924E-01 9.61095E-01
 -1      1000 8.37369E-01-2.70526E+00-7.38340E-01-5.92822E-01-5.28163E-01-1.34273E+00
 -1      1001 1.92155E+00-3.04061E-01-8.14651E-01-7.21339E-01-4.93541E-01-1.29213E+00
 -1      1002 2.68092E+00-7.13600E-01-1.11981E+00 2.41608E-02-1.22565E-01 7.10619E-01
 -1      1003-4.75180E+00-5.08580E+00 1.43822E+00 2.95387E-02 4.47199E-01-4.66489E-01
 -1      1004-4.66603E+00-2.78134E+00-3.27955E-01 1.38817E-01-1.39235E+00-1.90760E-01
 -1      1005-2.08529E+00-1.41590E+00 3.96632E-01-4.36774E-01-7.22705E-01-1.09860E+00
 -1      1006-8.88622E+00-2.81370E+00-5.96698E-01 2.29457E-01-7.86600E-01 4.22506E-01
 -1      1007-1.12857E+00-4.55912E+00-1.10930E+00-5.21713E-01-6.91610E-01-2.37498E+00
 -1      1008 3.44107E+00 1.21001E+00 1.27264E+00-2.36969E-01 1.10031E-01-1.07787E+00
 -1      1009-1.59723E+01-1.89118E+01-3.46387E+00 1.89640E-01-1.45074E+00-1.36021E+00
 -1      1010-7.80371E+00-9.79912E+00-2.28009E+00 5.11349E-01-4.60873E-01-1.21964E+00
 -1      1011-1.62127E+01-2.38377E+01-4.35904E+00-2.93563E-01-1.25911E-01-1.48137E-01
 -1      1012 1.03829E-01-1.94114E+00-2.19934E+00-8.71703E-01 8.99629E-01-2.07939E+00
 -1      1013-1.42105E+00-3.43549E+00-9.89220E-01-4.68443E-01-2.35348E-01-3.19802E+00
 -1      1014-4.01639E+00-5.60277E+00-1.46175E+00 1.40292E-01 4.48620E-01-2.07114E+00
 -1      1015-7.05444E+00-8.22350E+00-3.79292E+00-6.53954E-02 6.01487E-01-1.23696E+00
 -1      1016-8.73694E+00-3.50385E+00 1.06609E+00-1.83655E+00-1.08530E+00 1.95415E+00
 -1      1017-3.62901E+00-1.37386E+00-4.12876E-01-4.60604E-01 9.78242E-01 1.45321E+00
 -1      1018-4.10719E+00-4.94451E+00 6.46164E-01-5.17568E-01-3.66134E-01-6.89875E-01
 -1      1019-2.85674E+00-2.22140E+00 9.56633E-01 3.40383E-03-1.17974E+00-7.38875E-01
 -1      1020 6.55548E-01-1.24131E+00 8.27105E-01 1.12738E+00-6.26094E-01-9.55459E-01
 -1      1021 1.95569E+00 4.48019E-02-1.59613E-01 1.30223E+00 9.45846E-02 1.36899E+00
 -1      1022 6.94478E-01-4.21543E-02 5.16635E-01 7.11915E-01-3.94984E-01-8.36823E-01
 -1      1023-1.14189E+00-2.42313E+00-1.92468E+00 6.69792E-01-9.15879E-01-2.31691E+00
 -1      1024 7.77686E-01-8.63285E-01 9.37335E-01 1.13841E+00-7.21608E-01-1.32687E+00
 -1      1025-7.66515E+00-9.16966E+00-2.36455E+00 1.06003E+00-1.06156E+00-2.40176E+00
 -1      1026-5.52286E+00-6.51726E+00-3.89531E+00-3.50671E-01-1.34960E+00-1.04834E+00
 -1      1027-1.10498E+01-1.33328E+01-3.70614E+00 7.39206E-01-6.03315E-01-1.36292E+00
 -1      1028 4.66269E+00 2.24320E+00 2.66020E+00 2.30160E+00 1.76078E-01-2.50230E+00
 -1      1029-1.39780E+00-2.67108E+00-1.04144E+00 6.59658E-01-6.24579E-01-2.26969E+00
 -1      1030-6.56014E+00-7.50072E+00-3.46271E+00 9.22353E-01-8.64748E-01-1.61328E+00
 -1      1031-3.70412E+00-3.99886E+00-1.83132E+00 5.13643E-01-8.86526E-01-2.05615E+00
 -1      1032-3.16425E+00-3.83395E+00-2.45283E+00 3.62550E-01-8.68989E-01-2.56361E+00
 -1      1033-5.38855E+00-6.50350E+00-5.01800E+00 4.18198E-01-1.77541E-01-1.68187E+00
 -1      1034-6.80859E+00-6.35608E+00 3.66921E-01-2.65434E+00 2.27924E-01 1.52511E+00
 -1      1035-2.71216E+00-4.88262E+00-5.18360E-01-2.12466E+00 1.59738E+00 5.88122E-01
 -1      1036-3.77815E+00-5.25966E+00-1.41653E+00-3.47402E-01-1.74594E+00 1.83306E+00
 -1      1037-1.58250E+00-1.59463E+00 1.52637E+00 1.32511E-01-1.30134E+00 2.79540E-01
 -1      1038-2.70898E+00-1.35453E+00-9.45017E-02 9.77068E-01-5.34803E-01-1.12073E+00
 -1      1039-5.34855E-01 3.43839E-01-9.70408E-01 1.68352E-01 2.33616E-01 1.01434E+00
 -1      1040-1.48875E+00-1.25080E-01-3.35742E-01 3.83784E-01-4.84932E-01-1.35979E+00
 -1      1041-1.19709E+01-1.19424E+01-6.76907E+00 1.10270E+00-7.09974E-01-2.04962E+00
 -1      1042-1.77506E+00-1.65500E+00-2.06616E-01-2.10990E-01-2.31243E+00-1.98395E+00
 -1      1043-3.89752E+00-1.91928E+00-1.01117E+00 4.09381E-01-2.20877E+00-3.48654E+00
 -1      1044-1.87711E+01-1.82152E+01-1.20805E+01 1.48016E+00-1.01254E+00 5.56963E-01
 -1      1045-8.63542E+00-9.61314E+00-2.67842E+00 9.66889E-01-1.00246E+00-4.75423E-01
 -1      1046-1.46073E+01-1.55520E+01-6.82164E+00 1.69938E+00-7.73976E-01-2.87126E-02
 -1      1047 9.80837E-01-8.95429E-02-2.39674E-01 9.93882E-01-1.10697E+00-2.36128E+00
 -1      1048-3.74395E+00-2.77916E+00-1.01081E+00 6.45965E-01-1.60563E+00-2.22026E+00
 -1      1049-9.60731E+00-9.49419E+00-4.52202E+00 1.59817E+00-1.50321E+00-6.36864E-01
 -1      1050-5.83296E+00-4.45330E+00-2.60343E+00 3.70041E-01-1.97524E+00-1.41840E+00
 -1      1051-4.03440E+00-5.57111E+00-6.64248E-01 5.92224E-01-1.12471E+00-1.83266E+00
 -1      1052-6.23590E+00-7.49917E+00-3.33839E+00 9.27167E-01-1.26208E+00-1.86742E+00
 -1      1053-3.61445E+00-9.92313E+00 2.70886E+00-1.59650E+00 2.17179E-01 1.13135E+00
 -1      1054-4.37300E+00-3.61356E+00-6.06814E-01 1.04642E+00-9.03838E-01-1.10297E+00
 -1      1055-5.14719E+00-5.74570E+00-2.58414E-01-1.06636E-01 7.81011E-01-1.27436E+00
 -1      1056 3.75707E-02-1.73882E+00 7.40936E-01-1.35770E+00 1.88540E+00 3.76057E-01
 -1      1057-8.18552E-01 9.69032E-01-4.22255E-01 6.32441E-01 2.37480E-01 1.34944E-01
 -1      1058-2.84252E+00-1.01754E+00-3.26649E-02 6.02827E-01-1.59471E+00-8.08930E-01
 -1      1059-1.00403E-01 1.52258E+00 3.43985E-01 7.64313E-01 3.31540E-01 3.03447E-01
 -1      1060-1.20556E+00-3.19323E-02-6.27071E-01 3.98795E-01-9.73967E-01-5.87280E-01
 -1      1061-2.24836E+00-2.00475E+00 3.42657E-01 3.94096E-01-1.62135E+00 7.11322E-01
 -1      1062-2.34345E+00-1.02125E+00 2.08597E-01 2.31130E-01-2.92261E+00-6.45116E-01
 -1      1063 3.72265E-01 2.69167E+00 2.24791E+00 5.31495E-01-2.78432E+00-4.70314E-01
 -1      1064-2.02814E+01-1.34864E+01-1.49122E+00 1.58428E+00-8.95472E-01 3.06041E-01
 -1      1065-7.76690E+00-7.29542E+00-4.07471E+00 1.91203E-01-1.32058E+00-5.12555E-01
 -1      1066-2.02616E+01-1.76072E+01-8.24812E+00 1.02020E+00-1.89831E+00-3.63495E-01
 -1      1067-1.98539E-01 1.75690E+00 3.73786E-01 3.36945E-01-2.60774E+00-1.10876E+00
 -1      1068-4.82831E+00-1.22142E+00-7.48372E-01 1.09641E+00-2.36744E+00-1.48322E+00
 -1      1069-5.79852E+00-3.49153E+00-2.00415E+00 5.16205E-01-2.49625E+00 1.40813E-02
 -1      1070-5.58130E+00-4.58079E+00-6.64168E-01 1.15609E+00-1.48993E+00-1.00967E+00
 -1      1071-8.99248E+00-8.11604E+00-2.47552E+00 1.09156E+00-1.17154E+00-1.46112E-01
 -1      1072-1.96444E+00-6.13583E+00 2.63275E+00-3.02935E-01 4.83602E-01 4.03195E-01
 -1      1073-4.18721E+00-2.21904E+00 1.09982E+00-2.02326E-01-5.53788E-01 8.17661E-04
 -1      1074-4.07507E+00-3.25544E+00 2.28182E+00 1.49878E-01-4.84930E-01-8.47874E-01
 -1      1075-9.88111E-01-3.83420E+00-9.26573E-02 2.56596E-01 1.38023E+00-1.29567E-01
 -1      1076-4.39338E-02 2.66294E+00-1.20106E+00-1.55552E-01 1.21365E+00 8.22434E-02
 -1      1077-8.18434E-02 1.64979E+00 1.40775E-01-1.40741E-01-1.07485E+00 2.07705E-01
 -1      1078-2.15523E+00-2.98306E+00 6.85757E-01-3.66284E-01-2.71658E-01 1.16504E+00
 -1      1079-1.62603E+00-1.24463E+00 5.58145E-01 6.00282E-01-9.29156E-01 1.45077E+00
 -1      1080-1.09392E+01-7.79433E+00-5.00219E+00 3.44037E-01-1.43145E+00-5.33953E-01
 -1      1081-1.80134E+00-1.72525E+00-1.06155E+00-2.57019E-01-3.96304E+00-3.23601E-01
 -1      1082 1.69953E+00 3.55658E+00 2.95596E+00-6.25582E-01-2.90949E+00 4.05387E-01
 -1      1083-2.70771E+01-1.93047E+01-4.64537E+00-1.42395E+00-8.74629E-01 6.35627E-01
 -1      1084-1.26852E+01-8.04113E+00-5.24375E+00 3.05047E-01-1.57003E+00 4.65498E-01
 -1      1085-2.40995E+01-1.75552E+01-4.37423E+00 8.72628E-01-2.05102E-01 8.92958E-01
 -1      1086 9.51020E-02 3.65414E+00 1.66805E+00-1.40480E-01-2.72324E+00-6.51667E-01
 -1      1087-3.20238E+00-2.68774E-01-9.51770E-02-4.59210E-01-3.00301E+00-2.11521E-01
 -1      1088-5.64117E+00-3.07682E+00-1.80686E+00-3.89588E-01-2.32830E+00 5.87320E-01
 -1      1089-4.33927E+00-2.70541E+00-1.33285E+00 3.73648E-01-2.35881E+00-7.41477E-02
 -1      1090-9.02712E+00-6.03851E+00-3.24778E+00 1.04340E-01-1.81918E+00-4.91574E-01
 -1      1091-2.60330E+00-7.22303E+00 1.11858E+00 1.46129E+00 5.85887E-02 9.94784E-01
 -1      1092-5.51476E+00-4.56133E+00 1.12809E+00 3.92272E-01 1.13888E-01 2.55758E-01
 -1      1093-2.79373E+00-2.68348E+00 9.25281E-01-5.30551E-01-6.52203E-01 1.54550E+00
 -1      1094-2.22882E+00-3.26530E-01 7.20445E-01-7.24962E-01-8.56572E-01 7.38539E-01
 -1      1095-6.16458E-01 1.52709E+00 5.58256E-02 2.92616E-01 8.99774E-01-5.11879E-01
 -1      1096-1.48171E-01 1.74286E+00 1.00841E-01-5.83527E-01 1.27212E+00-6.01274E-01
 -1      1097-1.02948E+00-1.04081E-01 3.45937E-01-2.12180E-01-9.81649E-01 5.51142E-01
 -1      1098-1.18139E+00-4.09790E+00 2.77544E-01 1.35155E+00 1.72100E+00-3.89167E-01
 -1      1099-3.64438E+00-1.55253E+00-1.64315E+00 2.22377E-01-2.43380E+00 9.69882E-01
 -1      1100 1.33417E+00 4.16376E+00 2.23268E+00-8.54269E-01-3.14568E+00 1.66496E+00
 -1      1101-1.62975E+01-1.50544E+01-3.39756E+00-1.16191E+00-6.62962E-01-3.78748E-01
 -1      1102-6.93613E+00-5.09947E+00-3.08061E+00-2.71908E-01-1.05867E+00 2.63470E-01
 -1      1103-1.52547E+01-1.19164E+01-3.04274E+00-1.30768E+00-1.76711E+00 3.39979E-01
 -1      1104-1.94246E-01 2.74877E+00 1.79852E+00-9.44771E-01-2.50513E+00 6.07632E-01
 -1      1105-6.08294E+00-2.23363E+00-9.25520E-01 1.72790E-01-2.29439E+00 4.48125E-01
 -1      1106-8.81034E+00-7.39864E+00-3.83681E+00-1.41398E+00-1.17392E+00 9.30895E-01
 -1      1107-4.29902E+00-3.51494E+00-1.13824E+00-5.53009E-01-2.08755E+00 1.25650E+00
 -1      1108-6.40126E+00-4.37971E+00-2.54784E+00-7.45771E-01-2.70200E+00 7.62973E-02
 -1      1109-7.85951E+00-5.75544E+00-4.93473E+00-3.08660E-01-1.94971E+00 5.16849E-01
 -1      1110-5.93991E+00-5.87959E+00 1.67414E+00 2.46443E+00 1.43754E+00-2.40379E-01
 -1      1111-4.31297E+00-1.84133E+00-4.30007E-01 1.66108E+00 3.95365E-01-1.32961E+00
 -1      1112-3.40533E+00-2.42497E+00 1.01698E+00-1.07016E+00-3.13096E-01 5.22836E-01
 -1      1113-1.77531E+00-1.88719E+00-2.80869E-01 6.17933E-02-1.14137E+00-5.38474E-01
 -1      1114-2.95458E+00-2.72494E+00-3.79753E-01 5.24671E-01-1.02578E+00-1.33227E+00
 -1      1115 1.69332E+00 8.90941E-01 1.05480E-01-1.89570E+00 8.27587E-01-1.18160E+00
 -1      1116-2.38916E-01 9.59740E-01 5.16517E-01-5.49605E-01-9.90005E-01 9.39126E-01
 -1      1117-8.04351E-01 6.89293E-01 1.13273E+00-6.76888E-02-1.64185E+00 1.87005E+00
 -1      1118 1.05211E+00 1.20490E+00 1.72519E+00-7.61610E-01-1.73845E+00 2.17922E+00
 -1      1119-1.71228E+01-1.62328E+01-7.95970E+00-1.37992E+00-6.63000E-01 5.36247E-01
 -1      1120-5.82066E+00-4.97623E+00-3.46344E+00-2.79968E-01-1.01263E+00 1.35263E+00
 -1      1121-2.15196E+01-1.81250E+01-3.57480E+00-3.78886E+00-9.45129E-01 4.50168E-01
 -1      1122-1.04188E-01-3.58973E-01 1.36543E+00-1.83010E+00-2.56231E+00 1.38444E+00
 -1      1123-1.59165E+00-7.22551E-01-1.41569E-01-6.74234E-01-2.40924E+00 1.30335E+00
 -1      1124-8.05164E+00-7.86245E+00-3.10315E+00-1.58903E+00-1.30515E+00 1.82612E+00
 -1      1125-3.53917E+00-4.97697E+00-6.46365E-01-1.04739E+00-1.06875E+00 2.71611E+00
 -1      1126-6.24735E+00-3.82487E+00-1.09753E+00-4.39305E-01-1.39549E+00 9.46686E-01
 -1      1127-8.82476E+00-9.11369E+00-3.79243E+00-1.43980E+00-1.26602E+00 1.31706E+00
 -1      1128-7.80956E+00-3.36249E+00 2.31258E+00 1.27597E+00 9.03038E-01-8.93924E-01
 -1      1129-2.31933E+00-8.35204E-01 1.13462E-01 5.58382E-01 3.11183E-01-2.20968E+00
 -1      1130-1.54557E+00-1.29843E+00 1.94201E+00-5.03146E-01 4.87405E-01 1.26032E+00
 -1      1131-3.60981E+00-4.11840E+00 1.10618E+00-5.78335E-01-3.11224E-01 8.02643E-01
 -1      1132-5.38610E+00-3.18459E+00 3.19815E-01 4.14962E-01-1.14881E+00-1.14123E-01
 -1      1133 2.08868E+00 1.04276E-01-3.02382E-01-1.88997E+00 1.31861E-01 7.70549E-01
 -1      1134-1.82261E+00-4.32153E-01 3.84052E-05-5.15575E-01-7.84655E-01 7.53871E-01
 -1      1135-8.95443E-01-2.64111E+00 6.11569E-01 2.00528E-01-6.37024E-01 2.66577E+00
 -1      1136 1.68902E+00-1.17124E+00 1.48313E+00-1.48094E+00-1.00281E+00 3.04231E+00
 -1      1137-1.62652E+01-1.95830E+01-4.49718E+00-7.73920E-01-1.26194E+00 7.49756E-01
 -1      1138-3.17329E+00-3.68732E+00 1.37891E-01-1.97495E-01-5.51022E-01 1.65231E+00
 -1      1139-1.70839E+01-1.88045E+01-4.52604E+00-2.24727E+00-5.96589E-01-6.47946E-02
 -1      1140 1.63516E+00 7.37622E-02 2.19041E+00-8.06931E-01-1.21333E+00 2.34535E+00
 -1      1141-8.70107E-01-2.10514E+00 1.26540E-01-9.39303E-02-1.21395E+00 2.19692E+00
 -1      1142-4.72810E+00-5.16489E+00-1.72888E+00-9.65320E-01-8.79970E-01 2.35733E+00
 -1      1143-6.26646E+00-7.10539E+00-2.44318E+00-9.22159E-01-7.23434E-01 1.40526E+00
 -1      1144-5.78800E+00-1.57339E+00-5.09982E+00-8.03839E-02 8.65517E+00 6.10416E+00
 -1      1145-1.60027E+00 7.00022E-01 4.13738E+00-1.29588E+00 8.58855E+00 4.58747E+00
 -1      1146 1.38103E+00-3.15821E+00-8.69721E-01 2.12259E-01 9.36580E+00 7.60531E+00
 -1      1147 1.56490E+01 8.86127E+00 1.09503E+01 8.98495E-01-1.90661E+00 9.02376E+00
 -1      1148 4.85006E+00 1.48058E+00-2.35389E+00 1.75296E+00-1.65764E+00 9.41646E+00
 -1      1149-1.45717E+00-4.12431E-01-5.65212E-01 2.27366E+00-6.98310E-01 8.39913E+00
 -1      1150-1.78025E+01-1.44479E+01-1.22816E+01 2.83261E+00-1.46612E+00 1.21183E+01
 -1      1151 5.11397E+00 6.78862E+00 5.49007E+00 1.92250E-01-9.09965E+00-3.69333E+00
 -1      1152-4.45036E+00-4.39820E+00-2.99686E+00-3.34561E+00-8.16279E+00-2.97930E+00
 -1      1153-2.60732E+01-3.32078E+01-2.49573E+01-3.09073E+00-1.26682E+01-3.84291E+00
 -1      1154-2.53379E+00-4.10579E+00-7.44316E+00 6.51878E-01 3.40518E+00 6.34189E+00
 -1      1155-3.45810E+01-3.49887E+01-2.92888E+01-5.99219E+00 9.07194E+00 1.09857E+01
 -1      1156-4.09849E+00-8.19909E+00-5.34085E+00-2.46852E+00 5.15429E+00 6.55255E+00
 -1      1157 8.18946E+00 1.46562E+01 1.00040E+01 4.68539E-01 9.67947E+00-2.56384E+00
 -1      1158-1.37507E+01-1.27473E+01-1.09627E+01 3.38221E+00 1.11396E+01-2.95684E+00
 -1      1159-4.89942E+00-2.75392E+00-3.67676E+00 3.52132E+00 1.10088E+01-3.36349E+00
 -1      1160-1.34153E+01-1.49706E+01-1.24079E+01 3.10595E+00 4.83404E+00-9.35397E+00
 -1      1161-1.02985E+01-2.61423E+00-8.03864E+00-9.40564E-01 5.58431E+00-8.07840E+00
 -1      1162 1.12336E+01 1.40220E+01 1.05592E+01-2.75568E+00 6.24064E+00-1.08828E+01
 -1      1163 1.54336E+01 1.10216E+01 1.27568E+01-1.02351E+00 3.94184E+00-6.13123E+00
 -1      1164 1.15205E+01-9.96083E+00 2.16528E-01-5.42224E-01-8.48780E+00 7.15188E+00
 -1      1165-2.88031E+00-1.74413E+01-8.79644E+00 1.35107E+00-9.74937E+00 8.17282E+00
 -1      1166-4.49708E+00-2.06333E+01-1.09503E+01-2.77653E-01-9.98259E+00 8.82512E+00
 -1      1167 1.99269E+01 1.59963E+01 1.51978E+01 1.35418E+00 5.91102E+00 8.36353E+00
 -1      1168-3.47585E+00-2.16568E+00-1.47192E+00-1.44025E+00 6.10193E+00 9.80273E+00
 -1      1169-8.01818E+00-7.15207E+00-6.58633E+00 1.27916E+00 5.41643E+00 9.87606E+00
 -1      1170 4.98932E+00-1.77014E+00 3.48179E-01 1.54489E+00 8.95995E+00 4.84706E+00
 -1      1171-9.20462E+00-8.59542E+00-1.19358E+01 1.16327E-01 5.70971E+00-2.97025E-03
 -1      1172 1.06280E+01 1.61044E+01 1.02457E+01-2.56437E+00 1.01825E+01 8.63811E-01
 -1      1173-6.76404E+00-1.00365E+01-5.95028E+00-1.64104E+00 8.86523E+00 1.22224E+00
 -1      1174-3.12737E+01-4.24891E+01-3.10542E+01-1.67775E+00 1.08195E+01 1.06555E+00
 -1      1175-8.81146E+00-7.81610E+00-6.99260E+00 2.94112E+00 9.32551E-01-1.10049E+01
 -1      1176-2.80659E+00-5.08619E-01 1.57753E-01-1.60243E-01 1.52886E+00-7.12015E+00
 -1      1177 3.49668E+01 2.57800E+01 2.55744E+01-1.24964E+00 1.82083E+00-1.32247E+01
 -1      1178 7.66192E+00 2.96175E+00 1.43855E+00 8.69632E-01 1.59882E+00-1.03335E+01
 -1      1179-4.15280E+00 3.06572E-01-2.46801E+00 8.15777E-01 3.98326E+00-7.19697E+00
 -1      1180-8.10351E+00-7.95817E+00-1.13852E+01-5.92788E-01 4.27991E+00-5.28101E+00
 -1      1181 3.10570E+00 2.68660E+00 5.89707E+00 8.25666E-01 5.84085E+00-4.51450E+00
 -1      1182-3.94792E+00-6.30384E+00-3.79436E+00 1.79077E+00 1.07433E+01-1.54572E+00
 -1      1183-8.17782E+00-6.38494E+00-4.51794E+00 1.90342E+00 8.34057E+00-4.85609E+00
 -1      1184 1.43838E+01 7.04708E+00 8.98161E+00-2.10821E+00 1.96509E+00 8.88433E+00
 -1      1185-3.41376E+00-2.14208E+00-2.80812E+00-2.29701E+00 9.61897E-01 8.73112E+00
 -1      1186 4.10461E+00 5.22553E+00 4.04019E+00-1.78941E-01-9.78283E+00 1.43177E+00
 -1      1187-1.96556E+00-4.94822E+00 3.08482E-01-8.19229E-01-8.91772E+00 1.00289E+00
 -1      1188 5.29316E+00 5.46925E+00 6.01767E+00 2.24538E+00-7.81419E+00 7.94382E-01
 -1      1189 1.43898E+01 1.18007E+01 8.53351E+00-2.38222E+00-2.58070E+00 9.30792E+00
 -1      1190-1.69316E+01-1.07158E+01-1.13794E+01-4.90908E-01-3.02059E+00 1.03249E+01
 -1      1191-3.35660E+01-2.55776E+01-2.48994E+01 3.09318E+00-3.78772E+00 1.37749E+01
 -1      1192 1.98171E-01-1.02236E+00 1.90244E+00 5.85082E-01-7.76401E+00 1.34658E+00
 -1      1193 2.67409E+00 4.66706E+00-1.81366E+00-2.56197E+00-4.26126E+00 2.92218E+00
 -1      1194-4.91722E+00-9.52801E+00-1.50905E+00 1.56737E+00-7.12464E+00 6.09464E+00
 -1      1195-9.92435E+00-1.33301E+01-9.74312E+00-2.11108E+00-1.03816E+01-1.39269E+00
 -1      1196 2.77120E+01 3.14552E+01 2.49094E+01 4.85998E+00-9.74514E+00-7.05315E+00
 -1      1197 1.82488E+00 2.63103E+00 5.80789E+00-1.01082E+00-4.56490E+00-4.08483E+00
 -1      1198-3.08790E+01-3.23078E+01-2.66016E+01-4.94746E+00-9.88889E+00-8.11541E+00
 -1      1199-1.15069E+01-5.67969E-01-6.29628E+00 1.78440E+00-4.55401E+00-8.00591E+00
 -1      1200-2.97562E+01-2.45186E+01-2.28497E+01-3.40694E+00-6.53861E+00-1.22324E+01
 -1      1201 4.92973E-01-7.71175E-01-1.68872E+00 3.04720E-01-3.74141E+00-6.33221E+00
 -1      1202 8.66454E+00 1.34484E+01 8.50925E+00 3.21436E+00-5.30377E+00-9.57481E+00
 -1      1203-1.18480E+01-5.76444E+00-3.09484E+00-6.13593E-01 1.01400E-01-7.23921E+00
 -1      1204 9.06592E+00 4.19044E+00 1.62038E+00-2.09636E-01-1.91614E+00-1.04705E+01
 -1      1205 7.73535E+00 6.54910E+00 5.58071E+00 1.81033E+00-1.06432E+00-1.23780E+01
 -1      1206-3.97619E+00-2.64569E+00-1.42759E+00 1.01589E+00-5.57185E+00 1.00137E+01
 -1      1207-3.17877E+01-2.47263E+01-2.37924E+01-2.75201E+00-4.68812E+00-1.54544E+01
 -1      1208-9.23313E+00-6.62251E+00-2.83917E+00 2.36718E+00 4.10942E-01-1.01596E+01
 -1      1209 2.60488E+00 4.27989E+00-9.87810E-01 1.44703E+00-5.85492E+00-7.65606E+00
 -1      1210-4.91231E+00-6.24541E+00-9.24674E+00 7.45880E-03 8.65942E-01 6.29906E+00
 -1      1211 2.99919E+01 3.79955E+01 2.86227E+01 4.34587E+00 1.23050E+01 4.03394E+00
 -1      1212 4.84276E+01 3.76652E+01 3.62450E+01-4.18852E+00 4.13487E+00-1.36306E+01
 -1      1213 8.51513E+00 4.46484E+00 5.69905E+00-1.85030E+00-3.80439E+00-1.16907E+01
 -1      1214 1.13460E+00-5.82004E+00-1.70903E+00 1.24305E+00-6.03978E+00 7.00950E+00
 -1      1215 2.98374E+01 2.77123E+01 2.42284E+01-4.42414E+00-7.55186E+00 9.20219E+00
 -1      1216-7.36203E+00-5.49445E+00-7.63631E+00-1.74992E+00-6.35534E+00-5.64821E+00
 -1      1217-2.85658E+01-3.30767E+01-1.53876E+01-2.23182E+00-2.19382E+00 5.21830E-01
 -1      1218-2.42492E+01-3.00948E+01-1.36627E+01-1.98643E+00 4.56907E-01 3.29823E+00
 -1      1219-2.95186E+01-3.22914E+01-1.24789E+01 5.97497E-01 8.71401E-01-3.70923E-02
 -1      1220-2.99208E+01-3.26525E+01-1.01005E+01 2.82482E-01-2.88234E+00 3.97723E-01
 -1      1221-1.77758E+00-1.54452E+00-6.45215E+00 6.05259E-01 1.47731E+00 3.25433E+00
 -1      1222-3.83573E+01-3.32701E+01-1.35013E+01-8.58142E-01 1.92460E+00 5.28874E+00
 -1      1223-2.62973E+01-2.57959E+01-1.00054E+01 3.21432E+00-5.38053E-02 8.07187E-01
 -1      1224-2.57564E+01-2.71472E+01-1.04395E+01 3.63162E+00 7.06346E-01-1.90703E+00
 -1      1225-3.07962E+01-2.98899E+01-1.18644E+01-4.54011E+00 6.34537E-01 8.81623E-01
 -1      1226-4.18497E+01-3.72939E+01-2.24576E+01-4.52003E+00-3.56553E+00-2.05494E+00
 -1      1227-4.80639E+01-3.50093E+01-1.82027E+01-2.51559E+00 6.41092E-01-7.04532E-02
 -1      1228-3.87560E+01-3.03510E+01-1.83881E+01-2.18756E+00-1.54063E+00-2.90267E+00
 -1      1229-3.60389E+01-4.14951E+01-1.86285E+01 1.15864E+00-3.84529E+00 1.69564E+00
 -1      1230-3.58061E+01-2.65503E+01-1.04849E+01 9.78001E-01-2.51066E-01 1.44505E+00
 -1      1231-3.83895E+01-2.87319E+01-1.53297E+01 4.06472E-01-1.01594E-01-2.55617E+00
 -1      1232-3.46617E+01-3.25969E+01-1.76938E+01-2.70015E+00 4.91128E-01-2.45646E-01
 -1      1233-3.63340E+01-3.81065E+01-1.76945E+01-3.51818E+00-2.02410E+00-3.15115E+00
 -1      1234-2.96435E+01-3.25227E+01-1.16598E+01-1.09478E+00 9.59654E-01-1.63966E+00
 -1      1235-3.16008E+01-3.70108E+01-1.87654E+01-5.01664E-01-3.47193E+00-3.63125E+00
 -1      1236-2.74456E+01-2.32829E+01-7.06193E+00-1.50464E+00 3.79615E-02-8.68920E-01
 -1      1237-3.25697E+01-2.63648E+01-8.20175E+00-1.21029E+00 2.30513E+00 2.68770E+00
 -1      1238-3.85236E+01-3.43519E+01-1.49334E+01-5.68069E-01-9.88123E-01-6.80443E+00
 -1      1239-3.98963E+00-4.92948E+00-7.90924E+00 1.89850E+00-2.40503E+00 5.02381E+00
 -1      1240-3.23887E+01-3.38141E+01-1.25016E+01 5.10378E-01 2.22703E+00 2.47746E+00
 -1      1241-4.32184E+01-4.86145E+01-2.07510E+01 1.18702E+00-5.52876E+00 2.97836E+00
 -1      1242-3.32783E+01-3.31310E+01-1.21812E+01-3.20750E-01 4.77399E+00 8.51978E-01
 -1      1243-3.13496E+01-3.01082E+01-8.90723E+00-3.86414E+00-1.55419E+00-1.77242E+00
 -1      1244-3.68829E+01-3.36865E+01-1.48805E+01-2.82998E+00 1.42880E+00 9.56751E-02
 -1      1245-3.15178E+01-2.65935E+01-1.39481E+01 1.26292E+00 6.73460E-01-1.05503E+00
 -1      1246-3.38669E+01-2.80996E+01-9.75949E+00 3.20866E+00-1.57889E+00 2.01325E+00
 -1      1247-3.66391E+01-3.41022E+01-1.50685E+01-4.65721E+00 1.35294E+00 2.95306E+00
 -1      1248-3.98601E+01-3.71247E+01-1.61382E+01 3.70166E+00 7.97361E-01-3.80015E+00
 -1      1249-2.46972E+01-2.28391E+01-1.09916E+01 9.88374E-01-2.72751E-03 1.10231E+00
 -1      1250-3.12408E+01-2.90518E+01-1.37250E+01 1.70466E+00 3.10980E+00-1.38654E+00
 -1      1251-3.90015E+00-2.13320E+00-3.71519E+00-1.03609E-01-1.57923E+00-3.45084E+00
 -1      1252-4.94289E+00-2.55804E+00-8.74313E+00 1.04969E+00-3.48340E+00 9.21106E-02
 -1      1253-3.07486E+01-3.22566E+01-9.44539E+00 1.85982E-01 3.63087E+00 1.59774E+00
 -1      1254-2.43529E+01-3.17890E+01-9.78619E+00 2.47114E+00-1.97613E+00-2.16517E-01
 -1      1255-2.27988E+01-3.04532E+01-5.37619E+00 7.42485E-01 3.30383E-01-1.70418E+00
 -1      1256-3.89858E+01-3.80811E+01-1.32871E+01-5.34694E+00-2.98814E-01-1.78931E+00
 -1      1257-4.60252E+01-4.92240E+01-2.34071E+01-8.31564E-01-5.14087E+00-2.79228E+00
 -1      1258-3.37024E+01-2.98367E+01-1.62025E+01 1.33417E+00-6.72669E-01 1.65976E+00
 -1      1259-2.88745E+01-2.82131E+01-9.54396E+00-2.42646E+00 1.56912E+00 3.58351E+00
 -1      1260-4.74115E+01-3.78035E+01-1.67788E+01 2.38986E+00 2.20031E+00 1.61026E+00
 -1      1261-4.82823E+01-3.86061E+01-2.23279E+01 1.17953E+00 4.52904E+00-6.22214E+00
 -1      1262-4.98799E+01-4.29793E+01-1.59677E+01-2.04122E+00-3.89528E-01 3.12624E+00
 -1      1263-5.36079E+01-4.48452E+01-2.63238E+01-3.02204E+00-4.48062E+00-3.99154E+00
 -1      1264 4.79187E-01 9.22606E-01-1.42898E+00-9.65432E-02 1.71394E-01-1.28539E+00
 -1      1265-3.35733E+00-2.90349E+00-2.31692E+00-4.56841E-02-1.29450E+00 3.32352E+00
 -1      1266-1.95527E+00-3.01064E+00-3.56802E+00 6.42531E-01-3.06866E+00 4.04468E-01
 -1      1267-2.02644E+00-2.16709E+00-2.95788E+00-1.42396E-01 2.40197E+00-8.25900E-01
 -1      1268-3.95028E+00-4.12389E+00-6.83243E+00-9.21846E-01 4.07007E+00-9.98129E-01
 -1      1269-2.21798E+01-2.31380E+01-8.27463E+00 3.10800E+00-7.34296E-01 1.63835E+00
 -1      1270-2.58293E+01-3.09036E+01-1.19169E+01 2.98210E+00-2.20150E+00 3.40458E+00
 -1      1271-2.91032E+01-3.55829E+01-1.45721E+01-1.28951E-01-1.26557E+00 1.95745E-01
 -1      1272-2.81380E+01-3.50292E+01-1.45909E+01-4.74885E-02 5.31199E+00 2.31752E+00
 -1      1273-3.66513E+01-4.06404E+01-1.35577E+01-2.48350E+00 2.41423E+00-2.33690E+00
 -1      1274-4.59769E+01-5.37361E+01-2.79946E+01-1.32452E+00-6.21019E+00-4.84494E+00
 -1      1275-3.71725E+01-4.26965E+01-7.84675E+00 2.50291E-01-4.41323E+00-5.70864E-01
 -1      1276-1.46648E+00-1.06662E+00-6.94163E+00 8.27285E-01-1.85942E+00-3.38549E+00
 -1      1277 2.79108E-02-8.12179E-01-3.27421E-01 2.46861E-01 2.51021E+00-6.50257E-01
 -1      1278-3.47353E+01-3.31933E+01-1.23693E+01 1.13929E+00 1.33813E+00-6.09054E+00
 -1      1279-4.56578E+01-4.33111E+01-1.84111E+01-3.07443E+00-5.36945E+00-1.15964E+00
 -1      1280-5.82623E+01-5.00051E+01-3.27529E+01-6.49926E+00 7.76763E-01 8.44092E+00
 -1      1281-6.69279E+01-6.27936E+01-4.68913E+01-8.37549E+00-1.23637E+01-4.33415E+00
 -1      1282-4.09801E+01-4.06314E+01-2.42962E+01-4.81715E+00-4.87830E+00 1.69233E-01
 -1      1283-4.54303E+01-4.97552E+01-3.27680E+01-7.79256E+00 6.41576E-01 7.10093E+00
 -1      1284-2.76021E+00-4.58161E+00-3.54625E+00 1.51517E-01-3.35305E+00 1.95657E+00
 -1      1285-3.41692E+01-3.53983E+01-1.19916E+01 1.11810E+00-4.08559E+00 3.17703E+00
 -1      1286-4.08419E+00-1.63548E+00-4.66109E+00-2.23046E-01-2.02198E+00 3.15036E+00
 -1      1287-6.66236E-01-2.50102E+00 9.36020E-02 5.22470E-02-1.66615E+00-8.12612E-02
 -1      1288-4.63303E+00-1.91505E+00-3.41562E+00 1.45625E-02-1.81355E+00-2.55637E+00
 -1      1289-5.73214E+01-6.54077E+01-4.00297E+01-5.94840E-01 5.19524E+00 5.54043E+00
 -1      1290-5.89166E+01-6.71803E+01-3.55766E+01-2.02673E-01-7.45757E+00 6.18502E+00
 -1      1291-4.81500E+01-4.91286E+01-2.63205E+01 8.17548E+00-2.08380E+00 2.78844E+00
 -1      1292-4.79969E+01-5.39503E+01-3.01021E+01 7.08923E+00 1.38423E+00-1.91652E+00
 -1      1293-3.77147E+01-3.91862E+01-2.25649E+01 2.65426E+00-9.03479E-01 6.46221E+00
 -1      1294-4.85347E+01-4.64885E+01-2.86513E+01 3.70605E+00 6.65047E+00-7.68214E-01
 -1      1295-3.41580E+01-2.81300E+01-1.61276E+01 2.65078E+00-1.21121E+00-1.62589E+00
 -1      1296-4.10693E+01-2.99006E+01-1.83644E+01 1.55694E+00-4.01269E+00 3.67329E+00
 -1      1297-3.47930E+01-3.68754E+01-1.58764E+01 3.92323E-01 7.11174E+00 1.12710E-01
 -1      1298-1.72389E+00-2.12322E+00-5.27990E+00 5.47037E-02-2.99331E+00-2.99862E+00
 -1      1299-2.90659E+01-2.78662E+01-9.04687E+00-8.97583E-01-1.05898E+00-2.84827E+00
 -1      1300-3.96967E+00-1.24667E+00-4.68893E+00-1.90520E-01 1.43956E+00 2.62704E+00
 -1      1301-4.06865E+01-3.81701E+01-1.05100E+01-2.67744E+00-1.42853E+00 5.88169E+00
 -1      1302-3.24606E+01-3.43772E+01-1.60788E+01-4.70583E-01 2.38537E+00 6.90276E+00
 -1      1303-3.67516E+01-3.63370E+01-1.79275E+01 1.31437E+00 7.80413E-01-4.61687E+00
 -1      1304-4.78698E+01-4.33162E+01-2.13459E+01 3.67857E+00-2.92798E+00 1.34226E+00
 -1      1305-3.31703E+01-3.56522E+01-1.28795E+01-1.82567E+00 8.22490E+00-5.75972E-01
 -1      1306-2.86334E+01-3.24022E+01-1.20878E+01 2.72272E+00 1.70618E+00-8.26871E-01
 -1      1307-5.18739E+01-4.52242E+01-2.13997E+01-5.01046E+00-2.45080E-01-8.91280E+00
 -1      1308-5.68344E+01-5.12820E+01-3.03065E+01-4.14732E+00 5.29472E+00 1.60782E+00
 -1      1309-9.86415E-01-3.50708E+00-3.41283E+00 5.50181E-01 3.18966E+00-1.59490E+00
 -1      1310-3.17203E-01-3.22803E-01-2.85765E+00 2.72971E-01 1.16832E+00-6.12035E-01
 -1      1311-2.02699E+00-7.17068E-01-2.82065E-01-1.02083E+00 5.96537E-01 1.44400E+00
 -1      1312-5.15146E+01-4.42936E+01-2.48512E+01-4.47431E+00 1.11161E+00-2.78235E+00
 -1      1313-5.50894E+01-4.49932E+01-2.20468E+01-1.15617E+00 2.81352E+00 3.10993E+00
 -1      1314-1.97572E+00-4.90205E+00-4.55198E+00-1.29023E+00 2.33716E+00 3.28792E+00
 -1      1315-1.08897E+01-5.28151E+00-1.44827E+01-1.34083E+00 2.86500E+00 8.35872E+00
 -1      1316-3.42801E+01-2.99465E+01-1.37444E+01-2.10054E+00 4.95091E+00 6.14284E+00
 -1      1317-3.76267E+01-4.35853E+01-1.86198E+01 1.38380E-01-3.15564E+00 3.12151E+00
 -1      1318-4.08262E+01-4.59678E+01-2.44967E+01 1.24290E-01 6.30575E+00 6.14902E+00
 -1      1319-3.99058E+01-3.29809E+01-1.71605E+01-1.23361E-01-4.67903E+00 7.87409E+00
 -1      1320-5.69982E+01-6.42549E+01-4.66436E+01-7.70384E+00-1.28525E+01-1.06832E-01
 -1      1321-6.25202E+01-7.16556E+01-4.50998E+01-1.14467E+01-2.04691E+00 7.17687E+00
 -1      1322-2.42939E-01-1.08961E+00-2.67393E+00-5.30749E-01-2.87228E+00-4.32815E-01
 -1      1323-8.31732E+00-7.54298E+00-1.13941E+01 1.20268E+00 1.18853E+00 6.55214E+00
 -1      1324-4.06510E+01-4.02723E+01-2.54469E+01-1.76286E-01 6.14299E-02 7.01155E+00
 -1      1325-1.64657E+00-1.50633E+00 1.16928E-01 6.72939E-01 1.00883E+00-1.34053E+00
 -1      1326-1.26961E-02-9.12548E-01-8.81606E-01 2.90870E-01 1.94022E+00-4.11705E-01
 -1      1327-2.55680E+00-1.61070E+00 1.02532E+00-4.34713E-01 1.71261E+00 1.08639E+00
 -1      1328-3.14350E+01-3.32974E+01-1.13735E+01-2.75222E+00-1.12460E+00 1.16395E+00
 -1      1329-4.16292E+01-5.34897E+01-2.15574E+01 3.72844E+00 1.75747E+00-4.28029E+00
 -1      1330-4.37321E+01-5.58601E+01-2.66752E+01 2.35718E+00-4.83303E+00-3.64043E+00
 -1      1331-8.14127E+01-6.65425E+01-4.18794E+01-5.17662E+00 1.03044E+00-9.88407E+00
 -1      1332-8.52469E+01-7.66360E+01-5.15336E+01-9.30624E+00 8.07937E+00 2.69678E+00
 -1      1333-4.68300E+01-4.71465E+01-2.28897E+01 8.14003E+00 8.67826E+00-1.12623E+00
 -1      1334-2.53962E+00-2.88476E+00 1.56111E+00-4.39536E-01-1.31897E+00-3.45258E+00
 -1      1335-3.87084E+01-3.67438E+01-1.25780E+01 2.66493E-01-3.76665E+00 6.31566E+00
 -1      1336-4.95530E+01-4.76640E+01-2.51500E+01-2.25411E+00 7.95570E+00-1.40691E+00
 -1      1337-5.11638E+01-5.21009E+01-2.55445E+01-4.60264E+00-2.64462E+00-6.81440E+00
 -1      1338-2.33597E+00-1.74582E+00-4.44723E+00 8.00941E-02-4.03897E+00 1.64837E+00
 -1      1339-2.01760E+00-3.74955E+00-2.47516E+00-1.21816E+00-1.95491E+00 2.30304E+00
 -1      1340-5.95960E+00-2.39982E+00-6.60125E+00 5.40287E-02 3.35341E+00-1.80257E+00
 -1      1341-5.69159E+01-6.90371E+01-3.73688E+01 8.83980E+00-7.96356E+00 1.91892E+00
 -1      1342-7.56922E+01-8.94962E+01-5.40033E+01 1.20105E+01 2.25713E+00-7.07087E+00
 -1      1343-4.27201E+01-4.14606E+01-1.78023E+01 1.55118E+00-1.96169E+00 8.70544E+00
 -1      1344-3.59061E+01-3.37251E+01-1.46029E+01 1.71407E+00 1.15517E+01-2.97320E+00
 -1      1345-3.46874E+01-3.47884E+01-1.38871E+01-1.31263E+00-2.36534E+00-4.24031E+00
 -1      1346-6.74498E+01-5.29695E+01-3.54751E+01-4.92423E+00-8.51783E+00-4.76649E+00
 -1      1347-7.71851E+01-5.86739E+01-3.27454E+01-7.68372E+00-2.94047E+00 3.61941E+00
 -1      1348-5.25247E+01-5.25366E+01-2.38924E+01 1.39129E+00 9.95819E+00 1.11223E+00
 -1      1349-4.04921E+01-3.98627E+01-2.10171E+01 1.15012E+00 3.70799E+00 9.69323E+00
 -1      1350-1.57807E-01-1.97904E+00-2.11732E+00 9.92268E-01-2.83527E+00 6.13250E+00
 -1      1351-6.36505E+01-5.56131E+01-4.29078E+01 3.17934E+00 3.03249E-01-1.18912E+01
 -1      1352-5.46555E+01-4.59372E+01-2.73308E+01 6.95936E+00-7.54336E+00 2.31973E+00
 -1      1353-1.96008E+00-1.75754E+00-6.64591E-01 6.72479E-02 1.52721E+00-2.75106E+00
 -1      1354-3.15051E+01-3.75030E+01-1.69704E+01-3.71412E+00-3.96164E+00-6.86881E+00
 -1      1355-9.25728E+00-8.72412E+00-7.12369E+00 1.89381E-01-5.61159E+00-3.41182E+00
 -1      1356-5.17287E-01-3.82151E-01-2.24736E+00 7.80965E-01 1.86932E+00 3.22285E+00
 -1      1357-1.47616E+00-6.43422E-01-7.15257E-01-9.71432E-01-4.45348E-01-1.95909E+00
 -1      1358-3.65399E+01-3.97055E+01-2.04512E+01 4.29670E+00 1.79711E+00 1.98802E+00
 -1      1359-5.24044E+01-5.69727E+01-3.29063E+01 5.89120E+00-2.96554E+00 7.03792E+00
 -1      1360-5.02664E+00-5.25278E+00-5.01311E+00-1.92651E+00-1.44165E+00 5.37770E+00
 -1      1361-1.76949E+01-2.02568E+01-1.99496E+01-2.71162E+00-7.98138E+00-6.21574E+00
 -1      1362 1.53830E+00 1.18825E+00 4.54005E-01 2.14872E-01-2.27648E+00-1.06885E+00
 -1      1363-2.61707E+00-2.52840E+00-3.75533E+00-1.68182E-01 2.35276E+00 2.33782E+00
 -1      1364-1.05575E+00-6.96977E-01-4.63679E+00-1.59980E-01 3.10420E+00 5.97582E-01
 -1      1365-4.81824E+01-6.78064E+01-2.97473E+01 5.46746E+00 2.70090E+00-4.59110E+00
 -1      1366-5.44534E+01-7.38220E+01-3.76750E+01 4.14191E+00-5.02178E+00-4.29355E+00
 -1      1367-3.92337E+01-3.82861E+01-1.61308E+01-3.55352E+00-8.84062E+00 8.36019E-01
 -1      1368-7.62618E+01-6.68590E+01-5.21649E+01 9.84459E+00-2.13274E+00 1.29350E+01
 -1      1369-5.84267E+01-5.28820E+01-3.75643E+01 5.83780E+00 7.40630E+00-8.72722E-01
 -1      1370-3.94221E+01-4.35202E+01-1.56552E+01 1.55260E+00 1.37900E+00-7.60201E+00
 -1      1371-8.53863E+00-4.55332E+00-8.67837E+00 2.00395E-01-4.41810E+00-1.24401E+00
 -1      1372-5.04463E+01-5.33958E+01-2.18444E+01 4.29339E+00 1.37893E+00-9.94956E+00
 -1      1373-4.76416E+01-5.82534E+01-2.51950E+01-2.56510E+00 3.64866E+00-4.37047E+00
 -1      1374-6.41328E+01-7.28012E+01-4.14666E+01-1.67226E+00-8.59298E+00-7.60177E+00
 -1      1375-3.96985E+01-3.87347E+01-1.54560E+01 2.33800E+00 5.69147E+00-5.73386E+00
 -1      1376-3.09134E+01-3.00081E+01-1.53273E+01-3.51076E-01-5.17971E+00 9.99019E-01
 -1      1377-5.31302E+01-4.23045E+01-2.67411E+01 5.18753E+00-1.61740E+00-4.69320E+00
 -1      1378-5.89162E+01-4.54397E+01-2.83067E+01 3.02098E+00-5.02781E+00 5.72985E+00
 -1      1379-5.53097E+01-5.60801E+01-3.65809E+01-2.44842E+00-1.46345E+01 3.35143E+00
 -1      1380-2.09218E+00-2.08432E+00-4.62541E+00-8.35080E-01-1.20245E+00-2.94578E+00
 -1      1381-6.16784E+00-6.09630E+00-1.27675E+01-2.11494E+00-4.51198E+00-6.09457E+00
 -1      1382-5.48571E+01-5.03946E+01-3.29089E+01 2.21118E+00 3.40991E+00 1.46986E+01
 -1      1383-4.50555E+01-5.55757E+01-3.13125E+01-8.36497E-01-4.71604E+00 6.04536E+00
 -1      1384-5.35760E+01-6.74957E+01-4.66016E+01-1.35068E+00 6.62786E+00 9.54998E+00
 -1      1385-6.48549E+00-2.96133E+00-1.04929E+01 8.26677E-01-1.88166E+00 6.15783E+00
 -1      1386-5.37725E+01-5.88232E+01-2.96780E+01-6.39298E+00-5.67084E-02 1.31592E+01
 -1      1387-3.00223E+00-3.27514E+00-1.41458E+01 1.27224E+00 3.31478E+00 5.80442E+00
 -1      1388-4.88156E+01-5.02999E+01-2.41243E+01-8.08376E-01-6.00667E+00 9.47302E+00
 -1      1389-6.20710E+01-5.96352E+01-3.48853E+01-7.30023E-01-4.68205E+00-1.10993E+01
 -1      1390-5.75745E+01-7.65421E+01-4.65596E+01 4.26715E-01 5.79227E+00 7.21783E+00
 -1      1391-7.09201E+01-9.71356E+01-6.04647E+01 2.45244E+00-9.25916E+00 9.89300E+00
 -1      1392-4.16175E+01-3.75932E+01-1.92317E+01 4.54002E-01-3.16555E+00-6.25383E+00
 -1      1393-4.43077E+01-4.48290E+01-2.03668E+01-1.97432E+00-6.67827E+00 1.16380E+01
 -1      1394-6.28484E+01-6.54029E+01-4.02356E+01-2.04017E+00 6.91276E+00 1.20409E+01
 -1      1395-3.79749E+01-4.46342E+01-1.48608E+01 3.48006E+00 2.83165E+00-8.28179E+00
 -1      1396-6.76896E+00-2.50660E+00-1.09914E+01 9.42838E-01 4.11174E+00 5.55845E-01
 -1      1397-1.11350E+01-1.98723E+01-9.01704E+00-2.86746E-01 5.16930E+00-5.21485E+00
 -1      1398-1.22739E+00-2.19202E+00-1.01809E+01-9.05769E-01 5.06203E+00 1.44437E+00
 -1      1399-7.27381E+01-6.73720E+01-3.99460E+01-8.83603E+00-9.95868E-01 4.52593E+00
 -1      1400-6.39196E+01-6.43588E+01-4.35866E+01-6.35180E+00-1.05089E+01-2.10521E+00
 -1      1401-4.76664E+00-1.14608E+01-1.50448E+01-1.85452E+00-1.05864E+00 6.94876E+00
 -1      1402-4.49391E+01-5.08190E+01-2.47524E+01 5.53686E-01-1.07010E+01-7.80479E-01
 -1      1403-1.22018E+00-2.23160E+00-3.32727E+00-1.12322E+00-1.08188E+00-2.54518E+00
 -1      1404-5.45192E+01-6.01965E+01-2.80919E+01-7.15572E-01-6.78884E+00 1.20750E+01
 -1      1405-3.34284E+01-2.49696E+01-2.45093E+01-5.32902E+00-6.13432E+00 1.38538E+01
 -1      1406-4.63926E+01-4.23470E+01-1.96608E+01 1.00059E+00-1.18656E+00-8.98703E+00
 -1      1407-3.40644E+01-3.01723E+01-1.22841E+01 1.70022E-01 4.14406E+00 3.50455E+00
 -1      1408-4.82230E+01-5.33784E+01-3.43283E+01 7.00325E-01 5.68326E+00 1.39910E+01
 -1      1409-4.15650E+01-4.21100E+01-1.72791E+01-1.11984E+00-4.44641E+00-4.46228E+00
 -1      1410-5.54890E+01-6.88801E+01-5.08183E+01-1.05019E+01-1.61369E+01 2.13673E-01
 -1      1411-5.70651E+01-6.53943E+01-4.11900E+01-1.10068E+01-2.27584E+00 9.47098E+00
 -1      1412-4.71482E+01-3.82654E+01-1.89094E+01-3.50332E-01 1.10752E+01-5.53290E+00
 -1      1413-5.77408E+01-4.51476E+01-2.68092E+01 4.01066E+00 4.45125E+00 3.74919E+00
 -1      1414-7.76836E+01-6.11242E+01-4.58852E+01 5.34060E+00 9.26057E+00-1.11572E+01
 -1      1415-6.07770E+01-6.11882E+01-3.10920E+01-2.52012E+00-6.76579E+00 7.29492E+00
 -1      1416-6.26787E+01-6.28200E+01-3.08671E+01-1.58409E+00-1.23211E+01-4.31803E+00
 -1      1417-6.56368E+01-5.73350E+01-4.36521E+01 6.87287E+00-1.81088E+00-1.02089E+01
 -1      1418-5.88845E+01-5.32695E+01-3.58248E+01 7.68072E+00-9.48563E+00 2.31577E-01
 -1      1419-4.67561E+01-4.31421E+01-1.81358E+01 1.00888E+00-9.74288E+00-5.23813E-01
 -1      1420-4.90515E+00-5.21906E+00-1.30491E+01 1.01827E+00-7.08322E+00 3.48876E+00
 -1      1421-2.02746E+01-1.68584E+01-2.29628E+01-2.63165E+00 9.81517E+00 9.94011E+00
 -1      1422-4.87946E+01-6.51741E+01-4.23045E+01-1.39978E+00-6.52292E+00 8.54978E+00
 -1      1423-5.09163E+01-6.51786E+01-5.17009E+01-2.36542E+00 9.28981E+00 1.17046E+01
 -1      1424-1.47328E+01-2.07112E+01-2.97557E+01 1.32964E+00-1.45322E+01 1.84823E+00
 -1      1425-4.85649E+01-5.53357E+01-3.17365E+01 8.46628E+00 4.24495E+00 3.15779E+00
 -1      1426-4.48344E+01-5.23187E+01-2.89459E+01 7.48029E+00-2.11797E+00 8.62518E+00
 -1      1427-1.96362E+01-1.91281E+01-2.45413E+01 3.00748E+00-1.24528E+01 9.39700E+00
 -1      1428-1.25441E+00-3.23534E+00-4.45317E+00 6.50377E-01-3.94730E+00-1.22158E-01
 -1      1429-2.71334E+01-3.74106E+01-3.36721E+01 1.60977E+00-9.75821E+00 1.36138E+01
 -1      1430-7.78603E+00-4.33316E+00-1.32551E+01 1.17486E+00-5.91271E+00-1.73101E+00
 -1      1431-5.78058E+01-6.03637E+01-4.40144E+01-1.00467E+00 4.19333E+00 1.54841E+01
 -1      1432-1.07169E+01-8.06011E+00-1.45151E+01-1.96637E+00 6.27744E+00-4.01845E+00
 -1      1433-2.24673E-01-1.66118E+00-3.95080E+00-2.21429E-01 2.38881E+00-4.72076E+00
 -1      1434-6.49742E+00-1.03993E+01-5.66504E+00-1.29855E+00 2.68375E+00-6.01960E+00
 -1      1435-5.42517E+01-7.50086E+01-3.87615E+01-4.33956E+00 3.55088E+00-7.38385E+00
 -1      1436-5.78234E+01-7.30932E+01-5.02040E+01-3.83780E+00-8.53904E+00-1.36288E+01
 -1      1437-3.94226E+01-4.15288E+01-1.47816E+01 1.30925E-01 3.86619E+00 2.44897E+00
 -1      1438-1.12377E+01-1.62523E+01-1.48965E+01 1.31239E+00-1.31926E+01 4.48972E+00
 -1      1439-3.96567E+01-3.85753E+01-1.68347E+01-2.11038E+00 5.08984E-01 5.72782E+00
 -1      1440-2.25662E+00-3.00616E+00-1.74329E+01-3.76347E-01-3.48391E+00-6.20039E+00
 -1      1441-5.20630E+01-5.39297E+01-2.65223E+01-1.80215E+00 6.10470E+00-9.38760E+00
 -1      1442-5.98692E+01-4.61382E+01-3.43024E+01 4.15392E+00-2.50145E+00-8.55175E+00
 -1      1443-7.06049E+01-5.03768E+01-3.67686E+01 4.88162E+00-7.85868E+00 8.42755E+00
 -1      1444-6.01461E+01-5.97939E+01-3.38358E+01-5.70603E+00 8.51568E+00-1.78753E+00
 -1      1445-5.96514E+01-6.11362E+01-3.33064E+01-6.20258E+00-3.51024E+00-8.41006E+00
 -1      1446-1.99434E+01-1.90214E+01-2.68783E+01-2.75729E+00-2.38886E+00-1.45364E+01
 -1      1447-5.63117E+01-7.33725E+01-4.07837E+01 1.18812E+01-1.04950E+01-8.19661E-03
 -1      1448-6.78842E+01-7.06853E+01-4.27412E+01 1.31014E+01 3.76793E+00-1.37572E+01
 -1      1449-6.56849E+00-6.91724E+00-8.18507E+00 1.39521E-01 1.06560E+00 5.06798E+00
 -1      1450-5.76211E+01-5.06642E+01-2.71940E+01 3.24299E+00-4.90971E-01-1.00280E+01
 -1      1451-5.21589E+01-4.43644E+01-1.92105E+01 2.42515E+00 7.55242E+00 5.85171E+00
 -1      1452-5.62028E+01-6.17245E+01-2.44749E+01 2.97703E+00-1.06778E+01-2.35050E+00
 -1      1453-4.59846E+01-5.13416E+01-2.26790E+01 3.21532E-01-6.90963E+00 4.26234E+00
 -1      1454-7.23909E+01-5.10335E+01-4.47363E+01 5.06636E+00-4.07869E+00-8.00038E+00
 -1      1455-7.18430E+01-5.35430E+01-4.23955E+01 7.80450E+00-9.55851E+00 6.93560E+00
 -1      1456-4.85770E+01-5.02126E+01-2.71126E+01-4.43573E-01-5.29878E+00-1.22609E+01
 -1      1457-3.61976E+01-3.71670E+01-1.82289E+01 1.52032E+00-5.12119E+00-3.81013E+00
 -1      1458-3.50858E+00-2.33184E+00-1.18011E+01 2.96751E-01-5.04505E+00 9.08046E-01
 -1      1459-5.77008E+01-5.03194E+01-2.60945E+01 1.29512E+00-9.98793E+00 5.52721E+00
 -1      1460-3.52727E+01-4.48228E+01-1.52771E+01 8.10932E-02 4.33303E+00-4.68575E+00
 -1      1461-7.64677E+01-6.24365E+01-3.89465E+01-6.56502E+00 4.36055E+00-1.07597E+01
 -1      1462-9.39000E+01-8.19720E+01-5.69393E+01-8.57088E+00 1.20297E+01 3.85364E-01
 -1      1463-7.26085E+01-6.46299E+01-2.98711E+01-9.34200E-01 5.04549E+00-1.32569E+01
 -1      1464-1.39820E+01-7.14950E+00-1.77617E+01 2.44165E+00 5.74508E+00-3.31999E+00
 -1      1465-2.87690E+01-3.34203E+01-4.66740E+01 2.31800E+00 1.23710E+01 1.32830E+01
 -1      1466-4.21476E-01-8.62793E-01-8.95182E+00-4.44966E-01-1.31348E+00-4.97893E+00
 -1      1467-6.63172E+01-5.31945E+01-3.49326E+01-1.16703E+00 3.13316E+00-6.31633E+00
 -1      1468-6.46447E+01-4.69116E+01-2.61347E+01-2.72667E-01 5.65778E+00 7.38429E+00
 -1      1469-5.63741E+01-5.62450E+01-2.88504E+01-7.44987E-01 1.16544E+01 8.64240E-01
 -1      1470-5.46091E+01-5.29274E+01-2.59696E+01 2.59247E+00-5.93643E+00-5.66132E+00
 -1      1471-2.99329E+01-3.01963E+01-2.72755E+01 2.56162E+00-1.46980E+01-5.67921E+00
 -1      1472-2.06045E+01-1.07478E+01-2.82942E+01-1.49503E+00 6.72226E+00 1.33203E+01
 -1      1473-6.54753E+01-4.69766E+01-3.61243E+01 4.08610E+00 5.69869E+00 6.34990E+00
 -1      1474-6.69865E+01-5.27564E+01-4.25088E+01 5.67207E+00 1.26309E+01-1.22149E+01
 -1      1475-3.83327E+00-1.81928E+00-4.94959E+00 3.05577E-01 5.53267E+00 1.13158E+00
 -1      1476-2.01080E+00 9.96410E-01-1.58147E-01 3.96404E-01 4.15315E+00 4.35456E+00
 -1      1477-5.88739E+01-5.81471E+01-2.84991E+01 5.47756E-01-1.18920E+00-1.14164E+01
 -1      1478-8.50385E+00-9.69572E+00-9.32507E+00-2.82039E-01 7.40209E+00 2.14403E+00
 -1      1479-5.43945E+00-1.36925E+01-1.20789E+01-1.07401E+00-1.92858E+00 5.85442E+00
 -1      1480-4.49770E+01-4.97675E+01-2.38315E+01 3.46745E+00 4.34328E+00 3.83582E+00
 -1      1481-1.84723E+01-2.10726E+01-2.62252E+01 1.80287E-01 1.09737E+01-1.01136E+01
 -1      1482-7.69000E+01-6.48086E+01-5.04287E+01 9.47431E+00 1.49060E-01 1.11593E+01
 -1      1483-6.65038E+01-6.27767E+01-4.82231E+01 1.10728E+01 9.58885E+00 7.00157E-02
 -1      1484-6.05199E+00-1.36155E+01-1.25134E+01 1.51917E+00 1.05099E+01-6.56136E+00
 -1      1485-1.77521E+01-1.20661E+01-1.81172E+01-2.37537E+00 5.65408E+00 1.53151E+01
 -1      1486-4.64833E+01-4.82897E+01-2.57474E+01-1.41249E+00 9.71553E+00 4.42703E+00
 -1      1487-1.07423E+00-7.07705E+00-6.62644E+00-1.28110E+00 5.43337E-01-4.81194E+00
 -1      1488-1.94683E+00-7.58004E-01-1.43752E+01 3.46500E-01-3.06683E+00-4.78298E+00
 -1      1489-1.02663E+01-2.09154E+01-1.39330E+01-8.20771E-02-1.05040E+01 1.80899E+00
 -1      1490-1.59405E+01-2.05637E+01-2.98243E+01-1.08521E-01 1.38527E+01-4.20716E+00
 -1      1491-1.52583E+01-1.40979E+01-3.27497E+01-3.44644E+00-1.14576E+01-1.37751E+01
 -1      1492-6.51105E+01-6.13604E+01-2.99316E+01-1.94057E+00 9.95701E+00-7.21498E+00
 -1      1493-1.64099E+01-1.77251E+01-2.31936E+01 2.98676E+00-1.19683E+01 9.97411E+00
 -1      1494-6.58211E+01-6.09781E+01-3.53673E+01-8.31855E+00-3.93472E+00 8.46221E+00
 -1      1495-7.46726E+01-7.54755E+01-4.97409E+01-8.03010E+00-1.74775E+01 4.46613E-01
 -1      1496-6.09504E+01-5.83172E+01-2.65199E+01-1.04273E+00-4.66892E+00 1.31483E+01
 -1      1497-2.51637E+01-1.82293E+01-1.53344E+01 2.08410E+00 1.41569E+00-1.37000E+01
 -1      1498-6.42550E+01-7.33560E+01-4.31091E+01-1.61751E+00-1.95094E+01-7.08263E-01
 -1      1499-2.34431E+01-1.55257E+01-2.51170E+01-3.02359E+00 9.03990E+00 3.55492E+00
 -1      1500-7.38525E+01-5.24636E+01-3.92199E+01-1.09656E+00 4.56702E+00-7.59293E+00
 -1      1501-6.49352E+01-4.72121E+01-3.19244E+01-3.56009E+00 8.54518E+00 8.35853E+00
 -1      1502-3.91536E+00-8.21767E+00-8.32261E+00-2.12122E+00 3.81391E+00-4.18140E+00
 -1      1503-6.41664E+01-5.85744E+01-2.97744E+01-3.77219E-01 7.05750E+00-6.81585E+00
 -1      1504-8.29196E+00-1.47225E+01-1.78270E+01-1.69046E+00 3.55172E+00-9.28261E+00
 -1      1505-6.42587E+01-6.93081E+01-4.08983E+01-1.02387E+01 9.90194E+00-3.45097E+00
 -1      1506-5.59203E+01-5.96559E+01-3.60443E+01-9.27145E+00-4.04531E+00-1.26840E+01
 -1      1507-5.37602E+01-4.75854E+01-2.05771E+01 2.52113E-01 9.46357E+00 3.19174E+00
 -1      1508-1.90007E+01-2.19660E+01-2.51586E+01 2.71984E+00 1.49994E+01-3.24530E+00
 -1      1509-5.32895E+01-5.91480E+01-2.63596E+01 9.37550E-01-5.32954E+00-8.11502E+00
 -1      1510-1.26744E+01-1.28456E+01-1.96744E+01 4.84585E+00-2.92672E-01 1.17645E+01
 -1      1511-1.78657E+01-1.44898E+01-3.10791E+01-2.67236E+00-3.92399E+00-1.54704E+01
 -1      1512-5.09279E+01-5.16790E+01-2.64126E+01 1.85165E+00-3.77303E-01 1.01581E+01
 -1      1513-1.70067E+01-1.80465E+01-1.76945E+01-2.17926E+00 1.21099E+01 9.82448E+00
 -1      1514-1.61807E+01-1.55071E+01-2.20325E+01 2.42499E+00-1.01034E+00 9.26188E+00
 -1      1515-2.47175E+01-3.12376E+01-4.04689E+01 2.54726E+00-1.52230E+01-3.50195E+00
 -1      1516-1.78327E+01-1.87545E+01-1.87097E+01 3.47936E+00 5.64793E+00-8.88388E+00
 -1      1517-1.68385E+01-1.47450E+01-2.41683E+01-2.19386E+00-5.90276E+00-1.43718E+01
 -1      1518-1.47690E+00-3.17805E+00-2.69032E+00-1.99316E+00-6.13779E+00-1.57376E+00
 -1      1519-5.15687E-01 1.46058E+00 1.34951E+00 1.74308E+00 4.06432E+00-3.24486E+00
 -1      1520 6.35195E+00 4.18306E+00 4.92717E+00 1.99236E-01 4.50850E+00-1.34578E+00
 -1      1521 5.94518E-01-1.79490E-01 7.18381E-01 1.57673E+00-5.16725E+00 2.88943E+00
 -1      1522 3.56664E+00 4.43221E+00 3.85636E+00-1.22663E-01-7.66069E+00-9.64501E-02
 -1      1523 4.78081E+00 6.15426E+00 4.22534E+00 1.07375E-02 2.76622E-01-2.42860E+00
 -1      1524 3.65799E+00 2.01087E+00 2.40352E+00 4.48339E-01-4.36140E-01 1.97597E+00
 -1      1525 1.14997E+01 1.03593E+01 7.48458E+00-2.09585E+00 2.15548E+00-2.38251E+00
 -1      1526-2.30911E-01 1.04160E-01-3.59394E-01-1.21773E+00-1.79722E+00-3.57093E+00
 -1      1527 4.23698E+00 3.78800E+00 6.76344E+00-1.33346E+00-1.67900E-01-7.87515E+00
 -1      1528-1.27539E+00 1.93078E+00 1.12807E+00-4.57557E-01 2.61194E+00 5.19966E+00
 -1      1529 3.97100E+00 2.48163E+00 1.42950E+00 7.91252E-01 4.68392E-01-4.48368E+00
 -1      1530-8.78236E+00-5.06623E+00-4.86766E+00 2.97186E+00 3.78893E+00-4.68598E+00
 -1      1531 4.71985E-01 2.51111E+00-1.96301E-01-5.27855E-01 3.81996E+00-3.74958E+00
 -1      1532-1.67602E+00 1.30967E+00 2.52983E+00-1.49856E-01 3.46489E+00 3.64414E+00
 -1      1533 3.63474E+00 2.63970E+00 3.23108E+00-3.75419E-01 3.30447E+00-7.19059E+00
 -1      1534-1.14928E+00-2.02371E+00 2.07708E+00 4.96545E-01-2.48281E+00-3.90408E+00
 -1      1535 8.98450E+00 5.50218E+00 8.14289E+00 8.58193E-01-3.72275E+00-7.03488E+00
 -1      1536-1.15306E+01-1.34326E+01-6.15957E+00 5.24602E-01 1.97475E-01 9.66942E-02
 -1      1537 4.72035E+00 3.23307E+00-8.57019E-01 1.64032E+00 3.18886E+00 3.75869E+00
 -1      1538 1.03780E+00 1.56363E+00 2.39658E+00 1.39618E-01 4.34215E+00 2.74707E+00
 -1      1539 8.12189E+00 1.60433E+01 4.61935E+00 2.38022E+00 6.31666E+00 3.72118E+00
 -1      1540 1.53026E+00 1.94099E+00 3.73835E+00 1.41932E+00 6.03096E+00-8.05894E-02
 -1      1541 1.24128E-01 3.70618E+00 5.49200E-01-3.67257E-01 4.70876E+00-2.25627E-01
 -1      1542 9.90832E-01-2.44314E+00-7.39243E-01-1.62239E-01 6.04799E+00 1.31784E-01
 -1      1543 3.71556E+00 3.57294E+00 2.16860E+00-2.25440E-01 5.09209E+00-3.14941E-01
 -1      1544 5.78069E+00 7.38703E+00 7.98994E+00-8.16164E-01 7.76569E+00-3.19132E+00
 -1      1545-3.26911E-02-2.77949E+00 1.04734E+00-3.12202E-01 3.21619E+00 1.39326E+00
 -1      1546 3.76614E+00 3.83473E+00 7.68614E+00-4.89672E-01 6.43982E+00-3.56179E+00
 -1      1547 7.65568E+00 3.98179E+00 1.69280E+00 1.37428E+00 1.04993E+00 3.83189E+00
 -1      1548 7.93609E+00 7.59948E+00 6.32959E+00 2.79191E+00 2.31779E+00 6.83890E+00
 -1      1549 1.44181E+01 1.28319E+01 1.27951E+01 2.32944E+00-2.06257E+00-5.89426E+00
 -1      1550 1.12517E+01 6.09174E+00 2.71295E+00 1.71800E+00 1.83173E-01 4.36713E+00
 -1      1551 9.64803E-01 1.64012E+00 1.38364E+00-8.29449E-02 6.19022E+00 4.84137E+00
 -1      1552 1.90681E+00 1.63771E+00 2.32331E+00 1.26432E-01-2.12429E+00 4.83205E+00
 -1      1553 3.10028E+00 2.91235E+00 4.58482E+00 6.69680E-01 2.35032E+00 5.28914E+00
 -1      1554 6.32369E+00 5.44352E+00 5.64233E+00-1.00013E+00-3.08026E+00 7.44961E+00
 -1      1555-3.86759E-01-2.02070E+00 6.74278E-01 1.00127E+00 1.30255E+00 4.13530E+00
 -1      1556 2.56960E+00 2.48730E+00 1.92630E+00-1.08889E+00-3.09716E+00 4.42070E+00
 -1      1557 7.49774E+00 5.94631E+00 5.18234E+00-3.14114E+00-6.35166E+00 6.01553E+00
 -1      1558 3.50063E+00 1.48167E+00 1.14400E+00-6.99847E-01-4.65271E+00 3.00344E+00
 -1      1559 3.86494E+00 5.19623E+00 7.31909E+00-2.16704E-01-6.74462E+00 3.36612E+00
 -1      1560 3.80785E+00 3.79518E+00 5.56067E+00-2.21495E-01-6.99498E+00 2.74076E-01
 -1      1561 3.73161E+00 3.64926E+00 3.91766E+00 8.79161E-01-5.43057E+00-1.25719E-01
 -1      1562 5.26733E+00 8.78226E+00 7.16934E+00 1.43058E+00-8.29717E+00-2.93600E+00
 -1      1563 4.00017E+00 5.89606E+00 1.97563E+00 8.01009E-01-4.34193E+00-1.02055E+00
 -1      1564 7.71067E+00 7.58045E+00 4.52595E+00 2.37789E+00-4.46614E+00-4.99815E+00
 -1      1565 4.69976E+00 4.31854E+00 1.85084E-01 2.12916E+00-3.35259E+00-3.81345E+00
 -1      1566-1.69242E+00-6.22709E+00-1.46927E+00 1.10173E+00 6.38130E+00-1.95803E+00
 -1      1567-8.52026E+00-3.65708E+00-2.53322E-01-1.26728E+00 1.24504E+00 4.39712E+00
 -1      1568 2.37520E+00 3.90062E+00-1.05234E+00 1.34047E+00 1.54707E+00-2.22700E+00
 -1      1569-2.46263E+00 2.63821E+00 1.21324E+00-3.24404E-01-1.95562E+00-4.84158E+00
 -1      1570 3.00584E+00 3.53863E+00 3.39401E+00 3.15657E+00 3.31451E+00 4.41444E+00
 -1      1571 2.30491E+00 1.36243E+00 2.47490E+00-1.25140E-01 8.30984E+00-2.61954E+00
 -1      1572 8.14553E+00 7.79457E+00 8.88842E+00 1.25300E+00-5.92259E+00-2.90823E+00
 -1      1573-5.57473E+00-6.64820E+00-1.74084E+00-1.66109E+00 5.41053E+00 3.58953E+00
 -1      1574-7.45518E+00-2.65552E+00 1.10457E+00 4.58460E-01 5.14537E-01-5.25339E+00
 -1      1575-7.06295E+00-4.33025E+00-3.12091E+00-1.29938E+00 3.00749E+00 6.67285E+00
 -1      1576 2.78290E+00 1.62684E+00 1.25674E+00-8.25571E-01-2.55328E+00 5.48503E+00
 -1      1577 8.84625E+00 1.07916E+01 5.41047E+00 1.07864E+00 4.83948E+00 2.87731E+00
 -1      1578-8.63749E+00-2.58282E+00 7.82391E-01 1.32221E-01 3.28173E-01-5.58090E+00
 -1      1579-1.13041E-01 1.71509E-01 7.06686E-01 1.09574E+00 1.29918E+00-3.23979E+00
 -1      1580 1.62442E+01 1.39608E+01 8.83894E+00-5.86321E-01 3.70740E+00 1.31131E-01
 -1      1581-6.91950E+00-7.36814E+00-7.20576E+00-1.72969E+00 6.67854E+00 4.81222E+00
 -1      1582-6.78203E+00-8.90776E+00-8.06104E-01 3.82701E+00 4.51537E+00-2.34184E+00
 -1      1583 1.47778E+00 1.66346E+00 2.31215E+00 8.69157E-03 5.13219E+00-1.33631E+00
 -1      1584 2.33804E+00 3.27592E+00 2.35406E+00 2.18871E+00-1.73765E+00 3.39442E+00
 -1      1585-4.82067E-01 2.04287E+00-1.01753E+00-1.20163E+00-4.93060E+00 1.52510E+00
 -1      1586-1.07460E+01-8.60004E+00-6.35826E+00 2.86198E+00 3.66403E+00-5.08284E+00
 -1      1587-1.80443E+00-2.22977E+00 1.49072E+00-6.34610E-01-2.97306E+00-4.31079E+00
 -1      1588 3.40789E+00 5.57722E+00 5.40301E+00 4.74733E-01-6.50359E+00-1.87139E+00
 -1      1589 2.58294E+00 2.44994E+00 3.00176E+00-6.09477E-01 5.79575E+00-4.13186E+00
 -1      1590 2.30418E+00 3.73444E+00 5.99012E-02-1.62238E+00-2.79200E+00 1.65943E+00
 -1      1591 4.56250E+00 5.83039E-01 6.44957E-01 1.03302E+00 1.90241E+00 3.40797E+00
 -1      1592-6.59560E+00-8.13410E+00-6.36884E+00-1.84752E+00 6.02165E+00 3.88609E+00
 -1      1593 7.00393E+00 7.28032E+00 5.24022E+00 4.59187E-01 2.69259E+00-6.24252E-01
 -1      1594 5.80530E+00 9.06682E-01 3.22959E+00-5.09550E-01 1.18425E+00-4.76932E+00
 -1      1595-3.28554E+00-6.27204E+00-4.30572E+00 1.00924E+00-4.14029E+00 3.34057E+00
 -1      1596 6.11533E+00 5.88989E+00 4.10920E+00-1.16055E+00 7.05931E+00-2.40439E+00
 -1      1597-4.21338E+00-2.20789E+00-1.07391E+00 2.73873E-01 2.53102E+00-5.02901E+00
 -1      1598 1.00695E+01 1.27852E+01 8.01882E+00 4.23984E-01 1.51073E+00-1.88949E+00
 -1      1599-6.61597E+00-3.79567E+00-4.18895E+00-1.43126E+00-1.60470E+00-6.44032E+00
 -1      1600 1.04021E+01 9.07947E+00 1.42917E+00-4.23424E+00 2.48813E+00-2.95975E+00
 -1      1601 3.56403E+00 1.57484E+00 2.49231E+00 1.91766E+00-2.77795E+00-3.87508E+00
 -1      1602-1.33939E+00-3.45836E-01-5.36193E-01 1.88535E+00 2.10590E+00-3.32571E+00
 -1      1603-1.28683E+00-7.42927E+00 8.33499E-01-2.83045E-01 4.71370E+00 1.29204E-01
 -1      1604 8.72506E+00 9.18380E+00 1.15462E+01-8.49404E-01 6.09761E+00-1.26887E+00
 -1      1605 1.16494E+01 8.46492E+00 9.23902E+00-7.49468E-01 9.40991E-01-8.47848E+00
 -1      1606-1.13304E+01-5.75008E+00-7.35218E-01 1.33154E+00-2.40652E+00 7.39860E+00
 -1      1607-5.49070E+00-7.16258E+00-2.91775E+00 1.74079E+00-3.45943E+00 2.73680E+00
 -1      1608 2.45194E+00 3.74192E+00 1.46065E+00-2.07869E+00-3.66089E+00 3.72953E+00
 -1      1609-6.03435E+00-1.05954E+01 7.18250E-01 2.08240E+00 5.21612E+00-2.42251E+00
 -1      1610-9.84040E-01-2.91539E+00-2.35382E+00-3.88163E-01-3.29884E+00-5.24227E+00
 -1      1611-1.37519E+01-1.32366E+01-1.02104E+01 2.93603E+00 4.35584E+00-4.89054E+00
 -1      1612-1.11253E+01-6.43995E+00-2.23744E+00 4.57039E-01 7.30100E-01-5.07442E+00
 -1      1613 1.59975E+00 4.56108E+00 3.38721E+00 5.01926E-01 6.18301E+00 2.28942E+00
 -1      1614-8.57104E-01 1.01865E+00 6.87134E-01 1.16621E+00 4.46925E+00 9.52684E-01
 -1      1615 3.91079E+00 3.41407E+00 7.65372E-01-1.20606E+00-2.60553E+00 3.40721E+00
 -1      1616 6.95782E+00 1.26766E+01 4.85607E+00 5.52094E-01 6.57157E+00 9.59294E-01
 -1      1617 1.00010E-01-8.01986E-01 1.17344E+00-3.56791E-01 6.35617E+00-1.56212E-01
 -1      1618-2.78991E+00-1.13896E+00-2.69788E-01-3.31423E-01 4.86622E+00-1.03691E+00
 -1      1619-5.13421E+00-5.31632E+00-5.17471E+00 1.84861E+00-5.51312E+00 3.98978E+00
 -1      1620 6.16626E+00 6.95114E+00 6.36004E+00 1.57874E+00-2.06199E+00-5.34443E+00
 -1      1621-4.79018E+00-8.40093E+00-5.83729E+00 1.38717E+00-5.23234E+00 5.85162E+00
 -1      1622-1.60933E+00-1.67149E+00 4.74658E-01 2.88093E+00 2.27348E+00-4.21235E+00
 -1      1623-1.33908E+00-2.07701E+00-7.83074E-01 1.43534E-01 2.34728E+00-3.75650E+00
 -1      1624-1.52776E+00-3.50011E+00-2.01263E+00 6.32998E-01-1.93173E+00-4.81695E+00
 -1      1625-8.65635E-01-3.86954E-01 1.34327E+00 1.82644E+00-2.72121E+00 2.06740E+00
 -1      1626-2.25482E-01-3.90392E+00 1.14856E+00 3.76231E-02 1.21554E+00-4.16728E+00
 -1      1627 6.44537E-02 2.38290E+00 2.55444E+00-6.14307E-01-1.52489E+00-7.29031E+00
 -1      1628-8.62394E+00-4.74458E+00-4.16212E+00 1.69766E+00-1.79433E+00 4.10469E+00
 -1      1629-9.77773E+00-4.44892E+00-4.29434E+00 2.04748E+00-1.87605E+00 4.73058E+00
 -1      1630-1.01341E+01-4.33408E+00-4.85265E+00-1.85501E+00-1.07331E+00 3.99788E+00
 -1      1631-1.75865E-01-1.07296E+00 2.01932E+00 2.36331E+00-4.58961E+00 1.64209E+00
 -1      1632 8.68014E-03 1.56553E+00-6.75713E-01 1.98122E+00 1.64281E+00-3.47743E+00
 -1      1633-8.65078E+00-9.22331E+00-2.79822E+00-2.58962E+00 2.80386E+00 1.13909E+00
 -1      1634 9.06439E+00 1.16794E+01 1.25043E+01 1.18738E-01-4.72866E+00 1.13235E-01
 -1      1635 1.22741E+00-2.19431E+00 2.15615E+00 7.93332E-01 5.41423E+00-2.67179E+00
 -1      1636 1.96524E+00-2.12777E+00 3.68997E+00-1.31174E+00 1.40461E+00 6.42874E+00
 -1      1637 1.07448E+00 5.39474E-01-4.80160E-02-1.04712E+00-2.67489E+00 4.45996E+00
 -1      1638 1.08902E+01 8.75708E+00 6.23536E+00-1.89181E+00-5.15039E+00 6.10723E+00
 -1      1639-1.96169E+00 4.67654E-01 1.41060E-01 2.04633E+00-2.51530E+00 4.27182E+00
 -1      1640-9.39369E+00-7.93322E+00-1.84824E+00-1.88750E+00-1.33236E+00-2.92804E+00
 -1      1641 1.07440E+00-9.43086E-01 1.80337E-01 1.66418E+00-4.07972E+00 1.76631E+00
 -1      1642 4.34300E+00 8.33975E+00 7.20482E+00 9.51746E-01 4.87569E+00 2.69009E+00
 -1      1643 6.68746E+00 5.80349E+00 7.84137E+00 3.14689E-01-8.41136E-01-5.20740E+00
 -1      1644-4.64435E+00-5.19537E+00-7.77899E-01 1.37109E+00-4.79260E+00 1.55987E+00
 -1      1645-4.71770E+00-1.14641E+01-6.78753E-01-7.96912E-01 2.54049E+00-1.06519E+00
 -1      1646-3.55786E+00-7.93601E+00-9.97441E-01 9.85857E-01-4.17237E+00 9.86751E-01
 -1      1647-6.75234E+00-1.11937E+01-5.41541E+00 1.31080E+00 8.05410E+00-2.10491E+00
 -1      1648-2.40761E+00-3.88968E+00 2.79631E+00-1.43259E+00 4.89614E+00 1.29125E+00
 -1      1649 7.59776E+00 6.85746E+00 4.27061E+00-2.25281E+00 3.51884E+00-4.83497E+00
 -1      1650-9.31479E+00-8.73949E+00-9.63212E+00-1.28195E+00 2.78431E+00 6.19792E+00
 -1      1651 9.18370E-01 1.07494E+00-2.71662E-01-6.19460E-01 1.76324E+00 3.07942E+00
 -1      1652 2.72408E+00 3.38635E+00 7.44890E+00-1.14108E+00 1.86822E+00-6.65972E+00
 -1      1653-2.88941E-02-1.73045E+00 5.10051E-01 7.82739E-02-4.82889E+00 1.53782E+00
 -1      1654-8.23043E+00-9.60024E+00-7.20619E+00 1.28504E+00-5.97434E+00 3.65007E+00
 -1      1655-2.34942E+00-4.93784E+00-2.39681E+00 1.03136E+00-5.97583E+00-2.33011E+00
 -1      1656-2.14521E+00-2.10941E+00 2.50731E-02 7.96985E-01 5.41863E+00 3.19566E+00
 -1      1657 1.18884E+01 8.55185E+00 7.38316E+00 1.94405E+00 2.07593E+00 6.11920E+00
 -1      1658 2.82982E+00 5.66403E+00 2.28777E+00 3.05921E-01 6.59569E-01-2.71257E+00
 -1      1659-6.25054E+00-2.44896E+00-3.41228E+00 7.43721E-01 4.27159E+00-3.11364E+00
 -1      1660 4.36168E+00 1.32455E+00 5.54782E-01 1.86838E-02-2.74781E+00 2.09522E+00
 -1      1661 1.40791E+00-5.49711E-01 9.71892E-02 4.04237E-01 1.99820E+00-4.35294E+00
 -1      1662-1.07967E+01-6.69960E+00-9.32970E+00-7.62815E-01 5.03816E-01 5.63363E+00
 -1      1663 5.38527E+00 1.13018E+01 6.72970E+00 1.64837E+00-5.66292E+00-2.80014E+00
 -1      1664 8.71743E+00 1.27467E+01 9.59529E+00 9.18108E-01 6.53975E+00 1.05781E-01
 -1      1665 7.09694E-01 2.40485E+00 8.77640E-01 1.88482E+00 1.53589E+00-2.85668E+00
 -1      1666-1.01803E+00 7.24838E-01 2.49857E+00 1.39615E+00-1.55168E+00 3.75974E+00
 -1      1667-4.24293E+00-7.66950E+00-3.84515E+00 1.28688E-01 5.59651E+00-4.05359E+00
 -1      1668-1.05736E+01-8.75863E+00-5.51935E+00-2.34399E+00 3.50929E+00 5.33284E+00
 -1      1669 2.27660E-01 3.25795E+00 1.81043E+00-1.78688E+00 2.36833E+00 2.27984E+00
 -1      1670 8.94270E+00 1.00369E+01 1.03614E+01 1.54580E+00-5.34999E+00-3.81887E+00
 -1      1671 1.28589E+01 1.25089E+01 5.95250E+00-8.44119E-01-1.28046E-01 9.26614E-01
 -1      1672 2.15901E+01 2.28801E+01-4.92304E+00 2.44915E+00 2.08413E+00 1.20499E+00
 -1      1673 5.24495E+00 6.82320E+00 6.80224E-01 1.77896E+00-2.84191E+00-3.20350E+00
 -1      1674 5.54037E-01 2.33569E+00 2.21943E+00 1.25639E+00-3.16897E+00-2.18532E+00
 -1      1675 4.48367E+00 5.64951E+00 1.68237E+00 6.73326E-01-1.28532E+00-3.39467E+00
 -1      1676 7.94503E+00 7.43571E+00 4.48628E+00 1.11885E+00-2.55515E+00-3.89554E-01
 -1      1677-1.89590E+00-4.90465E+00-5.21832E-01 2.67535E-01 7.30937E+00-2.93338E+00
 -1      1678 1.19244E+01 1.14994E+01 5.72548E+00 2.94721E-01 1.15834E-01-5.93821E-01
 -1      1679 9.96851E+00 1.39165E+01 1.16636E+01-5.60978E-01-6.99582E+00-1.04899E+00
 -1      1680 3.06096E+00 2.77726E+00 3.69737E+00-8.82228E-01 7.09982E+00-5.24799E+00
 -1      1681 1.99773E+00-4.11969E-01 1.44689E+00 1.60755E+00 4.95897E+00-2.02334E+00
 -1      1682 9.63306E+00 7.68993E+00 4.53391E+00-2.17852E-01 2.44674E+00-2.13735E+00
 -1      1683 7.67784E+00 8.50902E+00 9.71040E+00-3.53581E-01-9.06038E+00 2.35662E+00
 -1      1684-7.28246E+00-7.26716E+00-9.44891E+00-1.46016E-01 3.53764E+00-5.11108E+00
 -1      1685-4.30065E+00-4.79313E+00-5.17579E+00 1.17438E+00-3.18040E+00 3.94721E+00
 -1      1686-1.59223E+01-9.02016E+00-9.07197E+00 1.76568E+00-2.80827E+00 7.07442E+00
 -1      1687 3.11205E+00 4.62481E+00 1.57790E+00-1.30938E+00-4.94705E+00 5.06448E+00
 -1      1688 1.01999E+01 9.38193E+00 9.57969E+00-2.25731E+00-4.32573E+00 7.04309E+00
 -1      1689 5.22592E+00 2.38708E+00 2.11601E+00-1.65003E-01 2.37587E+00 1.50473E+00
 -1      1690 2.22019E+00-1.94441E+00-4.94449E-01-3.40201E-01 3.01332E+00 7.93311E-01
 -1      1691 1.34661E+01 8.68960E+00 8.56667E+00 3.16213E+00 1.95176E+00 7.46107E+00
 -1      1692 8.66386E+00 8.71948E+00 7.20062E+00 6.77086E-01 1.11895E+00-2.60565E+00
 -1      1693 9.50633E+00 8.02425E+00 9.21078E+00-4.52276E+00-1.06273E+00 4.55539E+00
 -1      1694 5.75013E+00 1.06433E+00 2.34769E-01-1.37323E+00-2.63236E+00 4.63155E+00
 -1      1695 1.20766E+01 8.09687E+00 3.23353E+00-9.76362E-01-1.57361E+00 3.74232E+00
 -1      1696-8.34110E+00-5.46037E+00-4.98336E+00 6.34346E-01 2.57157E-01-6.65744E+00
 -1      1697-1.39186E+00 7.47894E-01 1.82614E+00-1.13633E-01-2.20440E+00 5.23386E+00
 -1      1698 6.55712E+00 6.91263E+00 2.00894E+00 2.46665E-01 1.84604E+00-1.66934E+00
 -1      1699 1.54112E+01 1.31598E+01 9.81154E+00 3.85905E+00 3.45937E+00 4.81254E+00
 -1      1700 8.07293E+00 1.13741E+01 1.12556E+01 1.31177E+00 4.22864E+00 6.03404E+00
 -1      1701-7.03824E+00-4.38227E+00-5.04956E+00 1.15293E+00 1.43984E+00-4.35310E+00
 -1      1702-7.97121E-01-2.98380E-01 1.42205E+00 8.35825E-01 1.45793E+00-3.79772E+00
 -1      1703-8.57787E+00-7.61899E+00-1.79383E+00 2.39317E+00-2.90825E+00 2.84775E+00
 -1      1704 1.77869E+00 3.56784E+00-1.03048E-01 6.91516E-01 6.97110E-01-3.08405E+00
 -1      1705 8.95541E+00 6.01527E+00 9.06722E+00 2.31589E+00 3.92391E+00 6.89213E+00
 -1      1706 1.36863E+01 1.23784E+01 1.19208E+01-3.99300E+00 6.64482E+00-4.89160E+00
 -1      1707 3.54723E+00 5.69083E+00 6.02143E+00-3.98299E-01 5.56921E+00-3.15322E+00
 -1      1708-1.15574E+01-1.20602E+01-7.56057E+00-3.40547E-01-1.91650E-01-2.02718E+00
 -1      1709-1.75720E+01-1.85959E+01-1.08048E+01 8.87264E-01 6.21617E-01-6.56575E-01
 -1      1710 1.83100E+01 2.69842E+01 3.57641E+00-9.45555E-01 4.07215E+00-2.04974E+00
 -1      1711 9.04504E+00 8.11633E+00 7.51830E+00 1.50983E+00-3.64543E+00-5.63358E+00
 -1      1712 7.88469E+00 7.59073E+00 5.65759E+00-1.96324E+00 4.56090E+00-8.59736E+00
 -1      1713-8.10457E+00-8.90802E+00-8.31106E+00-2.23412E+00-4.25915E+00-4.57343E+00
 -1      1714-8.73723E+00-1.09138E+01-7.24612E+00 3.02957E+00 4.83580E+00-3.22761E+00
 -1      1715-4.02934E+00-4.15609E+00-6.41150E-01-2.16219E+00-4.08131E+00-4.04488E+00
 -1      1716-1.46960E+01-9.42953E+00-4.06275E+00-3.61588E+00 8.90114E-01 6.88197E+00
 -1      1717 1.19900E+00-1.60016E+00-3.81598E+00-1.34247E+00-2.97803E+00-5.30430E+00
 -1      1718 7.86379E+00 1.02996E+01 1.19810E+01-5.42307E-01-8.25785E+00 2.53380E-01
 -1      1719-1.46582E+01-6.04506E+00-1.32566E+00 3.48991E-01-5.22657E-01-1.94153E+00
 -1      1720-3.67460E+00-3.37538E+00-1.32864E+00-1.34414E+00-2.97951E+00-2.70374E+00
 -1      1721 6.29084E+00 4.70539E+00 1.58336E+00-1.38657E-01 2.23138E+00-4.65046E-01
 -1      1722 1.50219E+00 3.23402E+00-5.40530E-01-1.00390E+00-7.05305E-01-2.54125E+00
 -1      1723 2.75876E+00 4.91556E+00-2.86871E+00 2.79539E-01 1.75865E+00-2.78800E+00
 -1      1724-5.93835E+00-3.29556E+00-2.55448E+00-1.56843E-01 4.86630E+00 6.68521E+00
 -1      1725-3.46853E+00-5.24648E+00-3.76799E+00 1.53049E+00-4.24997E+00 1.46744E+00
 -1      1726 8.80750E+00 9.88201E+00 5.47756E+00 5.86920E-01 1.13670E+00-2.38239E+00
 -1      1727-2.33479E+00-8.20700E-01 9.89611E-01 2.49689E+00-2.36120E+00 3.66673E+00
 -1      1728 3.78164E-01 9.04395E-01 8.87411E-01 1.67513E+00 4.56523E+00-3.08478E+00
 -1      1729-1.03796E+01-1.06701E+01-1.13809E+01-1.61424E+00 4.99803E+00 5.02674E+00
 -1      1730-3.99950E+00-1.33896E+01-3.94715E+00 2.57494E-02 3.89239E+00-9.32299E-01
 -1      1731 5.08744E+00 5.12063E+00 2.79632E-01-1.42276E+00-2.36055E+00-1.13768E+00
 -1      1732-1.64817E+00-3.24927E+00-4.29160E-01 1.21717E+00-5.18741E+00 2.10024E+00
 -1      1733 4.64865E+00 4.15860E+00 5.67369E+00-1.25689E+00 1.34218E+00-9.14854E+00
 -1      1734-1.17506E+00 1.34017E+00-1.72166E+00 8.15050E-01 2.56675E+00-4.76358E+00
 -1      1735 5.72066E+00 4.15590E+00 1.18383E+00 8.47930E-01-2.39545E+00 1.51076E+00
 -1      1736 7.42954E+00 1.02842E+01 3.48321E-01 6.58511E-02 1.40636E+00 2.16109E+00
 -1      1737 9.58039E+00 1.15294E+01 8.76176E+00 2.20964E+00 5.97128E+00 3.31651E+00
 -1      1738-1.01952E+01-7.94467E+00-6.70204E+00-2.89745E+00-4.47441E+00-4.82143E+00
 -1      1739 4.48445E+00 1.58243E+00 1.25536E+00-4.30435E-01 2.57076E+00-7.79702E-01
 -1      1740-9.21192E+00-3.66476E+00-3.24595E+00-9.68360E-01 3.88738E-01-8.46997E+00
 -1      1741-2.41070E+00-2.81955E+00-6.43699E-01 1.31413E+00-7.10843E+00 8.33182E-01
 -1      1742-1.99395E+00-1.39881E+00 6.68223E-01 1.77333E+00 3.07419E+00 3.26341E+00
 -1      1743-5.17548E+00-3.93477E+00-2.44308E-01-1.38616E+00 3.30592E+00 6.85511E+00
 -1      1744-6.31325E+00-1.31077E+01-1.61802E+00 1.98151E+00-4.03488E+00 6.99523E-01
 -1      1745-9.85563E+00-1.56756E+01-1.03295E+01 1.22269E-01-6.68258E+00-2.32029E-01
 -1      1746-4.02793E+00-1.64839E+00-1.20027E+00 7.56715E-01-3.34341E+00 6.57535E+00
 -1      1747-9.32696E+00-7.08348E+00-5.43407E+00 1.82603E+00 1.16666E+00 6.49891E+00
 -1      1748-1.04783E+01-1.49272E+00-1.51491E+00-3.81819E-01 2.50821E+00-4.81937E+00
 -1      1749 5.13766E-01-1.52232E+00 1.54875E+00 3.20690E-01 2.46774E+00-4.77822E+00
 -1      1750 4.84811E-01-1.56548E+00 1.15160E+00-2.78018E-01-3.60575E+00 9.14676E-01
 -1      1751 1.09031E+00 3.42022E+00 2.16444E+00-2.32138E-01-2.89310E-03-3.27275E+00
 -1      1752-1.03976E+01-1.93996E+01-6.23311E+00 6.01438E-01-2.61463E+00-5.74690E-01
 -1      1753 1.50679E+00 3.47416E+00 1.88410E+00 6.47971E-01 1.23290E+00-2.96791E+00
 -1      1754-1.71663E+01-1.72022E+01-1.14892E+01-1.46733E+00 2.19385E+00 2.01506E+00
 -1      1755 2.80663E-01 8.59769E-01-2.03539E-02 8.08544E-01 3.37885E+00-1.51339E+00
 -1      1756-6.02076E+00-5.38882E+00-5.82560E+00 8.28511E-01 2.00274E+00-3.62922E+00
 -1      1757 1.09849E+01 6.21793E+00 1.08767E+01 1.78312E+00-1.46330E+00-4.46813E+00
 -1      1758 1.90314E+01 1.69520E+01 4.95262E+00-8.59725E-01-3.49442E+00 2.66130E+00
 -1      1759 8.46097E+00 5.08824E+00 3.47578E-01 1.22327E+00-1.94604E+00 2.48612E+00
 -1      1760-1.03976E+01-6.70469E+00-6.11118E-01 4.43728E+00 1.53228E+00-5.40913E+00
 -1      1761 9.03985E-01 2.80660E+00-7.29259E-01-6.92364E-01-2.43334E+00-1.45211E+00
 -1      1762-9.93833E+00-1.27903E+01-1.04408E+01-1.50476E+00-7.23279E+00-2.73344E+00
 -1      1763 2.60265E+00 5.06010E+00 2.03625E+00 3.19367E-01-9.13427E-01-3.19585E+00
 -1      1764-2.55337E+00-4.77779E+00-2.00293E+00 8.72099E-01-1.76604E+00-3.31972E+00
 -1      1765-4.04992E+00-3.94475E+00-1.42428E+00 3.13333E-01-4.26106E+00 2.97195E+00
 -1      1766 2.15941E+01 1.83811E+01 4.46533E+00 2.25082E+00-1.82523E+00-3.05084E+00
 -1      1767-6.26305E+00-9.01784E+00-4.78215E+00-1.34961E+00-6.13858E+00-1.43711E+00
 -1      1768-4.11943E+00-7.92228E-01-1.19290E+00-2.14765E+00 2.89506E+00 3.34805E+00
 -1      1769-1.09895E+01-8.15685E+00-8.56496E+00 4.15886E-02 1.74371E+00 6.11238E+00
 -1      1770-4.44565E+00-3.51239E+00-1.46493E+00-3.40361E+00 3.37341E+00 3.16550E+00
 -1      1771-5.25127E-01 5.59249E-02-1.87905E-01-1.44269E+00 1.14469E+00 4.91615E+00
 -1      1772 6.34252E+00 6.86893E+00 2.99161E+00 9.42064E-01 2.06589E+00-1.81927E+00
 -1      1773-4.16869E+00-1.37522E+00-2.40446E+00-9.38632E-01 3.53352E+00-2.16641E+00
 -1      1774 6.48091E+00 7.06346E+00 5.38521E+00-2.92943E+00 1.35051E+00-8.32260E+00
 -1      1775-6.23056E+00-1.00167E+01-5.41538E+00-1.49052E+00-7.31153E+00-2.80238E+00
 -1      1776-1.07831E+01-4.15211E+00-5.72580E+00-1.39242E+00 4.34469E+00 6.56015E+00
 -1      1777 2.54077E+01 1.91556E+01 3.61903E+00-1.64126E+00 1.67288E+00-3.49961E+00
 -1      1778-9.19426E+00-5.64050E+00-5.73762E+00 1.72135E+00 3.53629E+00-6.02317E+00
 -1      1779-1.60901E+00-3.57558E-01-1.74228E+00 1.23754E+00-3.33829E+00 5.69081E+00
 -1      1780-5.75116E-01-6.26344E+00-1.26730E+00 5.17312E-01-5.24227E+00 1.08156E+00
 -1      1781 4.89656E+00 6.52902E+00 4.19076E+00 1.71793E-02-2.24310E+00 6.71326E-01
 -1      1782 2.62797E+00 1.64079E+00 2.44183E+00 8.69535E-01 4.51526E+00-1.11399E+00
 -1      1783-2.17532E+00-5.12442E+00-2.91595E+00-5.72691E-02 3.95157E+00-1.63754E+00
 -1      1784 4.92219E-01 2.31443E+00 2.30801E+00-5.35455E-01 4.82117E+00-2.36801E-01
 -1      1785 4.76709E+00 1.73773E+00 1.72323E+00 6.83251E-01-1.77273E+00-3.67560E+00
 -1      1786-6.92456E+00-1.26856E+01-7.44878E+00 3.08821E-01-7.29005E+00-1.71322E+00
 -1      1787-4.09259E+00-3.28816E+00 3.10531E-01-1.98549E+00 4.39939E+00 2.75344E+00
 -1      1788-6.10627E+00-1.24562E+01-3.66089E+00 1.19250E+00 3.31348E+00-5.25764E-02
 -1      1789 6.84309E+00 5.98691E+00 6.17463E+00 1.39401E-01 1.49310E+00-1.45131E+00
 -1      1790 1.17431E+01 1.13346E+01 9.80712E+00-1.27644E+00-1.03101E+00 2.87529E+00
 -1      1791 4.44776E+00 7.99246E-01 8.02330E-01-3.85593E-01 3.64386E+00-1.20620E+00
 -1      1792-1.14969E+00 3.39591E+00 7.80447E-01 8.76218E-02 2.52982E-01 5.61902E+00
 -1      1793 9.86559E+00 1.09384E+01 1.09115E+01 1.89696E+00 8.67932E+00 1.15936E+00
 -1      1794 6.13259E+00 1.37740E+01 1.53132E+00 2.79269E+00 6.55983E+00 4.07648E+00
 -1      1795 1.21221E+00 5.36905E-01-2.71929E+00-3.35457E-01 2.44089E+00-8.80041E-01
 -1      1796 3.36628E+00 5.98883E+00 2.09673E+00-2.07215E-01 5.27343E-01 2.80075E+00
 -1      1797-2.80362E+00-1.21546E+00-7.32897E-01-1.33864E+00-1.70535E+00-3.46391E+00
 -1      1798-7.04384E-01-1.30413E+00-1.61593E+00 7.16755E-02-4.09090E+00-3.02352E-01
 -1      1799-2.88456E+00 2.84204E+00 1.09830E+00-1.05293E+00-6.62575E-01-4.32445E+00
 -1      1800 9.87822E+00 1.56615E+01 2.00808E+00 1.59684E+00-6.55583E-01-2.51152E+00
 -1      1801 1.20261E+00 3.81754E+00-2.14127E+00-9.90157E-01 1.66981E+00-1.47513E+00
 -1      1802 1.10057E+00-9.53066E-01 2.56021E+00-3.13373E-02 4.08245E+00-3.96328E-01
 -1      1803 2.38963E+00-8.12889E-01 7.55460E-01-1.99573E+00 4.77369E+00 1.70895E+00
 -1      1804 9.77176E+00 6.91871E+00 6.41735E+00-2.54723E+00-5.48888E+00 3.64210E+00
 -1      1805-3.85034E-01-2.49968E+00-4.01210E-01-2.05267E+00 4.24993E+00 2.27744E+00
 -1      1806 2.55906E+00 4.23300E+00 5.08979E+00-1.36211E+00-3.48998E+00 7.91403E-01
 -1      1807 5.72447E-01 1.63402E+00 1.60958E+00-1.78672E-01 2.09039E+00-4.48526E+00
 -1      1808 1.10597E+00 5.17020E-01 2.51587E+00-9.02430E-01-3.72845E+00-1.79155E+00
 -1      1809-2.06807E+00-4.98557E+00-1.63921E+00-8.62978E-01-5.07014E+00-8.62807E-01
 -1      1810 7.58381E-01 4.52223E+00 1.96872E+00-3.30463E-01 5.10561E-01 3.84143E+00
 -1      1811 5.09893E-01 1.37482E+00 1.29705E+00 5.87913E-01 2.09954E+00-2.36640E+00
 -1      1812-4.75926E+00-5.27589E+00-2.72100E+00-2.11989E+00 3.92887E+00 5.89899E+00
 -1      1813 4.65085E+00 4.74046E+00 2.26288E+00-1.54568E+00 2.19374E+00 1.17825E+00
 -1      1814-2.87623E+00-6.77543E+00-3.51262E+00 1.20884E+00 4.68692E+00 9.14793E-01
 -1      1815-3.61146E+00-6.91137E+00-4.94214E+00-1.69646E+00-5.84472E+00-3.31505E+00
 -1      1816-6.69318E-01-3.62526E+00-1.71771E+00-1.18350E+00 2.65389E+00 4.78169E+00
 -1      1817-1.11036E+00 9.15062E-01-1.08685E+00 2.30758E+00 2.44066E+00-2.54667E+00
 -1      1818-1.01014E+01-1.41410E+01-7.53781E+00 1.82762E+00-6.02623E+00 1.01322E+00
 -1      1819 9.37721E-01-1.22008E+00 4.77553E-03-1.33264E+00-4.95114E+00-9.62744E-01
 -1      1820 5.81186E+00 3.50094E+00 3.71287E-01 1.41614E-01-2.69323E+00-1.34326E+00
 -1      1821-1.38351E+00 6.23465E-01 8.50064E-01-3.32485E-01-6.66719E-02-3.55040E+00
 -1      1822-1.30890E+00 1.90055E+00 6.06928E-01-7.17201E-02-1.24130E+00-4.20461E+00
 -1      1823-9.10173E+00-3.94948E+00-2.12535E+00-9.99681E-01-2.46166E+00-7.78794E+00
 -1      1824 1.51787E+00-2.44847E+00 1.74429E+00-7.26870E-01-4.92650E+00 5.28334E-01
 -1      1825 2.23624E+01 1.76209E+01 9.26207E+00-9.52487E-01-4.36989E+00-2.95882E-01
 -1      1826-1.94436E+00-7.52533E-01 1.77454E+00 7.92519E-01 3.82177E+00-6.09548E+00
 -1      1827 8.31364E+00 8.07086E+00 6.48718E+00-2.91134E-02-2.99478E+00 5.34567E-01
 -1      1828-1.71586E-01-8.12774E-01-5.23977E-01-2.02158E+00-3.49176E+00-2.38440E+00
 -1      1829-6.24992E+00-1.35194E+00-5.71999E-01 1.88671E+00 1.71522E-01-4.79653E+00
 -1      1830-4.24822E-01 2.59725E+00 5.02828E-02 2.94714E-01-1.49092E+00-6.14888E+00
 -1      1831 1.20304E+01 9.98735E+00 4.82280E+00 3.02111E-01 2.77681E+00-3.60543E-02
 -1      1832 1.34093E+01 1.08145E+01 8.37968E+00-2.53647E-02 1.59391E-01-3.42943E-01
 -1      1833 1.84307E+00 1.49586E+00 2.35044E+00 9.73506E-01-2.35740E+00 2.14819E+00
 -1      1834 1.68886E+00-1.66968E+00 1.81869E+00-4.76600E-01 3.61228E+00 1.78667E+00
 -1      1835 1.91787E+01 1.44947E+01 1.42777E+01-1.49579E+00 1.11147E+00-4.74157E+00
 -1      1836-9.30844E-01 8.04584E-01 1.02944E+00 3.89605E-01 8.79546E-01 4.58270E+00
 -1      1837-1.27683E-01-1.03910E-01 2.07841E+00-1.57438E-01-3.12392E-02 4.34628E+00
 -1      1838-1.23298E+01-7.55757E+00-5.32454E+00-4.47251E-01-2.73254E+00-8.20107E+00
 -1      1839 7.83727E-01 1.24249E+00 4.83641E-01-1.40501E+00-2.52172E+00-3.03909E+00
 -1      1840 8.87803E-01 4.16740E+00 7.06822E-01 2.22572E-01-3.33666E-01-3.43994E+00
 -1      1841 4.34995E-02-1.35396E+00 9.77762E-02-1.18856E+00-2.33435E+00-3.54055E+00
 -1      1842 1.08221E+00 1.40931E-01 1.22943E+00 7.65517E-02 3.85215E+00 1.51153E+00
 -1      1843 1.11007E+01 1.09878E+01 3.67803E+00-1.65174E+00-2.06171E+00-2.04453E+00
 -1      1844 7.21303E+00 8.60912E+00 4.52912E+00-1.09028E+00-8.79119E-01-2.09705E+00
 -1      1845-1.38230E+01-9.80927E+00-1.12346E+01 1.00797E+00-2.46508E+00 7.58896E+00
 -1      1846 1.35318E+00 1.30140E+00 9.13917E-01-8.79290E-01-2.08217E+00-3.17040E+00
 -1      1847 1.86928E+00 2.31089E+00 1.10305E+00 1.92626E+00-3.15731E+00 1.85650E+00
 -1      1848 6.48970E-01-1.06323E+00 8.66444E-01-6.81938E-01 4.85364E+00 1.44635E+00
 -1      1849 3.68148E+00 1.20469E+00 1.79604E+00 6.34211E-01 2.30150E-01-2.50516E+00
 -1      1850 9.12912E-01 2.19862E+00-1.23637E+00-2.27974E-01-1.05559E-01 2.87259E+00
 -1      1851 3.20089E+01 2.87788E+01 4.15704E-04-3.72706E+00-1.85681E+00 4.90716E+00
 -1      1852-7.42626E+00-9.92910E+00-8.26290E+00-8.08424E-02 6.24667E+00-3.30314E-02
 -1      1853-5.43553E+00-4.55839E+00-3.55603E+00-5.70847E-01 7.72556E+00 3.24091E+00
 -1      1854 2.24799E+01 2.16892E+01-1.53932E-01 1.59706E+00-4.60223E+00-2.36752E+00
 -1      1855 6.73053E+00 5.24261E+00-6.57439E-01-1.85317E+00-2.21858E+00-7.64114E-01
 -1      1856 2.14542E+01 2.33678E+01 9.86904E+00 4.30752E-01 2.98066E-01-4.03716E+00
 -1      1857 6.11526E+00 6.12744E+00 1.90443E+00 1.09612E-01 1.07583E+00-3.91154E+00
 -1      1858 1.70039E+00 4.49397E-01 1.31098E+00 1.26633E-01 4.38754E+00-2.70947E+00
 -1      1859-6.38411E-01 1.31045E+00 8.46948E-01 3.62577E-01-2.17805E+00 5.21973E+00
 -1      1860 7.31296E+00 6.67381E+00 6.52474E+00 1.15630E+00 1.94080E+00-1.14868E+00
 -1      1861-1.77389E+00 2.11829E+00 1.11758E+00-1.36329E-01-9.16925E-01 3.65229E+00
 -1      1862 3.56736E+00 6.36693E+00 3.69035E+00 2.26765E+00-4.64292E+00-4.14613E+00
 -1      1863-4.95519E-01 4.42974E-01-2.47266E+00-1.40444E+00 1.78486E+00-9.26356E-01
 -1      1864 1.58043E+01 1.80600E+01-1.56502E+00-2.09535E+00 1.67931E+00-2.91950E+00
 -1      1865 2.71463E+00 2.94960E+00 6.75491E-01 9.85742E-01 2.73082E+00-7.72402E-01
 -1      1866 1.01704E+01 6.83287E+00 3.55070E+00 1.29622E-02 1.20619E+00 1.77959E+00
 -1      1867 2.54690E+00 2.82542E+00 1.59905E+00 2.38940E+00-3.19840E+00 3.12384E+00
 -1      1868-2.39748E+00-1.57790E+00 3.30597E-01-5.43085E-01-4.79928E+00-2.03673E-01
 -1      1869 1.26317E+01 1.14880E+01 9.36589E+00 1.94492E+00-2.58214E+00-5.85818E+00
 -1      1870-5.72695E+00-4.35276E+00-5.84702E+00 1.86323E+00-2.46137E+00 3.37359E+00
 -1      1871 6.84321E-01 4.32531E-01 4.48594E+00 2.41381E+00 6.09031E+00-2.76228E+00
 -1      1872 1.96978E+00 2.52750E+00 2.06828E+00 9.99610E-01-1.44692E+00 3.45908E+00
 -1      1873-8.38538E+00-8.92237E-01-2.12080E+00 4.98800E-01 1.13026E-01 4.89162E+00
 -1      1874-1.85598E+00-1.65746E+00 6.44370E-01 2.44880E-01-3.80201E+00-2.63742E+00
 -1      1875 4.00856E+00 2.51578E+00 1.23436E+00 1.03319E+00-4.44346E+00-9.33789E-01
 -1      1876-2.02402E+00-4.53669E-01 1.79630E+00-1.28781E+00-1.93386E+00-4.66297E+00
 -1      1877-7.43638E-01-1.26947E+00-3.60205E+00-4.18284E-01-2.87383E+00 8.35673E-01
 -1      1878-3.43090E+00-3.97209E+00-1.85302E+00-1.34730E+00-4.09724E+00-3.88801E+00
 -1      1879-1.06644E+01-1.26354E+01-9.62716E+00-1.82792E+00-5.86426E+00-4.24421E+00
 -1      1880-1.16282E+01-1.39092E+01-6.75322E+00 2.23819E+00 4.58765E+00-3.17503E+00
 -1      1881 1.65967E+01 1.21871E+01 5.76375E+00-3.51668E+00 4.06339E+00-5.54180E+00
 -1      1882-1.90992E+01-1.81815E+01-1.03280E+01 1.93535E-01-1.71121E+00 6.68438E-01
 -1      1883 6.70143E+00 8.76418E+00 3.50968E+00-2.60012E+00 5.74114E+00-4.29488E+00
 -1      1884 4.53678E-01 1.12899E+00-3.50802E+00-1.10519E+00 5.44725E-01 2.95412E+00
 -1      1885-5.41247E+00-4.71152E+00-3.53670E+00 4.63667E-01-1.87797E+00 4.36774E+00
 -1      1886 1.64525E+01 1.40050E+01 1.04255E+01 9.83325E-01-2.54527E+00-7.38387E-01
 -1      1887-1.12558E+01-9.59924E+00-6.22220E+00 2.65329E+00-3.03231E+00 5.08223E+00
 -1      1888 6.16288E+00 6.06981E+00 4.47726E+00-1.15668E+00-2.07736E+00-2.01556E+00
 -1      1889 7.87370E+00 8.01709E+00 7.83554E+00 9.42211E-01 4.31993E+00 5.65081E+00
 -1      1890 1.47123E+01 1.53885E+01 7.52226E+00-1.62205E+00-1.77993E+00-1.25152E+00
 -1      1891 8.32552E+00 5.29122E+00 6.65981E+00-3.38044E+00-1.36829E+00 3.16330E+00
 -1      1892 2.19380E+01 2.73234E+01 3.58882E+00-4.27658E-01-5.16514E+00 1.00989E+00
 -1      1893-1.98222E+01-1.50486E+01-9.68104E+00-3.09992E+00-2.03591E+00-5.21782E+00
 -1      1894-9.44903E+00-5.92459E+00-3.31440E+00-2.44752E+00-9.28596E-01 6.58724E+00
 -1      1895 1.23612E+01 1.42079E+01 1.39923E+01-2.98548E+00 5.98631E+00-9.51504E-01
 -1      1896-9.05206E+00-1.21685E+01-9.15349E+00 1.12178E+00 5.51591E+00-3.54231E+00
 -1      1897-7.65876E+00-1.16867E+01-6.58833E+00-2.06640E-01 6.02379E+00-7.35253E-01
 -1      1898-8.90959E-01-4.43191E+00-1.90238E+00-2.97696E+00-7.05289E+00-1.01955E+00
 -1      1899 6.80961E+00 4.72435E+00 4.37336E+00-1.39260E+00-1.69513E+00-5.13674E-01
 -1      1900-3.66464E+00-2.02734E+00-4.80512E-01 6.53930E-01 4.08382E+00 1.87570E+00
 -1      1901-6.64503E-01 4.51554E+00 1.85831E+00 4.02337E-01-6.49767E-01 4.84798E+00
 -1      1902 9.53885E+00 7.57302E+00 8.45990E+00-3.27390E-01-1.49142E+00 7.45566E+00
 -1      1903 1.48775E+01 1.04767E+01 1.33747E+01 8.68974E-02 1.42236E+00 7.37427E+00
 -1      1904 7.74686E+00 4.86225E+00 4.55253E+00 1.23120E+00-3.85510E-01 5.87654E+00
 -1      1905 4.25546E+00 4.41038E+00 4.10202E+00 8.77498E-01 1.84862E+00-2.13103E+00
 -1      1906-3.94947E+00-3.96681E+00-1.38515E+00 1.43035E+00 3.64155E+00 2.99562E+00
 -1      1907 9.49641E-01-2.07147E+00-1.45200E-01-2.23717E+00 4.90705E+00 2.24245E+00
 -1      1908-1.14524E+01-8.29639E+00-5.59242E+00 8.49738E-01-4.90843E+00 6.25819E+00
 -1      1909 6.01544E+00 9.89671E+00 6.11414E+00 5.67283E-01-9.00762E+00 2.10884E+00
 -1      1910 5.48259E+00 5.67005E+00 6.94485E+00-1.10986E+00-6.78510E+00 1.57711E+00
 -1      1911 5.25701E+00 5.72745E+00 5.43416E+00-5.20810E-01 1.12117E+00 2.10582E+00
 -1      1912 5.81526E+00 8.71452E+00 5.26034E+00-2.03915E+00-7.76832E+00-1.55286E+00
 -1      1913 1.18067E+00 7.13412E-01 1.99224E+00-1.38810E+00-3.12213E+00-1.11740E+00
 -1      1914 4.70057E+00 2.80253E+00-2.75636E+00 9.63630E-01-1.79728E+00 2.88668E+00
 -1      1915 9.90306E+00 1.20449E+01 5.85628E+00 8.76603E-01-5.13263E-01 2.99751E+00
 -1      1916 3.71015E+00 5.48215E+00-1.50902E+00 3.83761E-01-1.67714E+00 2.94129E+00
 -1      1917 2.30410E+01 1.91828E+01-1.05293E+00 2.20954E+00-4.03509E-02 6.93041E+00
 -1      1918 1.18346E+00 2.04319E+00 1.11625E+00-3.23927E-01-1.05950E+00-3.10271E+00
 -1      1919-8.17770E+00-1.23633E+01-1.04879E+01 8.35937E-01-5.63118E+00 5.22876E+00
 -1      1920 6.25801E-01-6.47282E-01-4.21855E-01 2.59180E+00-4.22736E+00 9.54515E-01
 -1      1921 3.98282E+00 6.02236E+00 5.61859E+00 9.56102E-01 3.82452E+00 6.23445E+00
 -1      1922 1.83732E+00-1.54117E+00-4.98331E-01-7.53803E-01-5.12304E+00 2.49790E-01
 -1      1923 4.02268E+00 6.55980E+00 1.82371E+00-9.95477E-01-6.70047E-01-2.74479E+00
 -1      1924 1.44874E+00 1.65928E+00 1.83170E+00-1.18441E+00-2.25655E+00-2.93496E+00
 -1      1925-2.24167E+00-3.73575E+00-7.54700E-01 1.04814E+00-1.69653E+00-4.14697E+00
 -1      1926 6.15697E+00 7.30012E+00-1.50431E+00-3.21911E-01-1.32921E+00-3.84505E-01
 -1      1927 5.55932E+00 4.46675E+00 3.19693E+00-6.19566E-01-2.34991E+00 8.29635E-01
 -1      1928 2.52424E+01 3.60375E+01 8.62579E-01-1.77442E+00 1.42793E-01 1.44539E+00
 -1      1929-1.08429E+00-2.52560E+00 2.71437E-01-4.72261E-01 5.16114E+00 2.72318E+00
 -1      1930-1.42995E+00 1.51897E+00 2.15966E+00 6.53868E-01 4.49701E+00 2.44768E+00
 -1      1931-1.10442E+01-1.40952E+01-1.17739E+01-1.76929E+00 5.23618E+00 2.35441E+00
 -1      1932 6.88486E-01 2.65220E+00 6.54141E-01-1.18820E+00 3.01083E+00 2.93371E+00
 -1      1933-1.03927E+00 1.87551E+00-1.61753E+00 1.19874E-01 6.80102E-01-3.95474E+00
 -1      1934 1.10672E+01 1.30187E+01 6.45111E+00 6.03680E-01-2.40650E+00 2.24267E+00
 -1      1935 9.08852E+00 7.14963E+00 4.80754E+00-4.58740E-01-2.61042E+00-6.30358E-01
 -1      1936-1.33632E+01-8.78131E+00-9.62038E+00-7.89782E-01-2.96222E+00-5.98316E+00
 -1      1937-1.04440E+01-1.58299E+01-1.11111E+01 4.70477E-01 5.70015E+00-1.71151E+00
 -1      1938 7.20816E+00 6.54889E+00 3.87884E+00-7.35853E-01 2.26459E+00 1.30436E+00
 -1      1939 5.25974E+00 5.23344E+00 1.32650E-01-1.18913E+00 1.93544E+00 1.15531E+00
 -1      1940 4.52066E+00 2.83605E+00 9.41189E-01 2.20403E+00-3.70811E+00 1.43341E+00
 -1      1941-3.58603E+00-3.76335E+00-1.89940E+00 2.29832E-01-2.49516E+00 3.42458E+00
 -1      1942 2.85181E+00-2.99264E-01 1.98276E+00-1.81595E+00 3.99667E+00 2.59121E+00
 -1      1943 2.53110E+00 3.84650E+00 1.91518E+00-7.77333E-01-3.01922E+00 5.92198E+00
 -1      1944 2.07485E-01 1.51552E+00-7.10736E-02-8.44861E-01 2.35420E+00 1.49638E+00
 -1      1945-8.98005E-02-1.02245E+00-1.50374E+00-5.62894E-02 2.92990E+00 1.27583E+00
 -1      1946-8.01457E+00-9.38811E+00-6.10428E+00-2.95507E+00-4.04314E+00-5.43020E+00
 -1      1947-3.95566E+00-2.81675E+00-1.10735E+00-3.07312E-01-1.75588E+00 5.11525E+00
 -1      1948 4.99662E+00 4.85907E+00 4.12074E+00 5.95276E-01 2.28502E+00 1.36935E+00
 -1      1949 1.58501E+01 1.05054E+01 3.29870E+00 3.52618E-01 2.00976E+00-3.29041E+00
 -1      1950 9.85861E-01 2.61496E+00-7.75873E-01-1.90134E+00 2.02290E+00 2.72542E+00
 -1      1951 1.38274E+01 1.40431E+01 1.01273E+01-5.45384E-01 2.02161E+00 1.92150E+00
 -1      1952 1.51547E+01 1.41322E+01 7.74960E+00-1.23031E+00 3.57336E+00 1.93340E+00
 -1      1953 1.70054E+00 1.44213E+00 2.11202E-01 5.07925E-01 2.72456E+00-1.89792E+00
 -1      1954 1.47173E+00-1.97672E+00 1.09834E+00-7.61039E-01-5.73636E+00-3.87487E-01
 -1      1955 2.83029E+00 2.56992E+00 6.08426E+00 8.23842E-01 6.34309E+00-3.04486E+00
 -1      1956-1.27214E+01-6.52182E+00-7.11031E+00 1.72908E+00-3.15691E+00 6.56588E+00
 -1      1957 3.28592E+00 3.30548E+00 1.84950E+00-1.31348E+00-1.38996E+00 2.00909E+00
 -1      1958 4.14906E+00 2.34924E+00 4.57787E-01 7.37942E-01-2.91928E+00 1.01330E+00
 -1      1959-8.33503E+00-1.46636E+01-7.11058E+00-1.21834E+00-5.93391E+00-2.94598E+00
 -1      1960 8.25796E+00 1.03852E+01 8.45618E+00 9.93634E-01-7.26805E+00-2.35146E+00
 -1      1961-9.31143E+00-1.26427E+01-9.47891E+00-3.43678E+00 4.45863E+00 3.98356E+00
 -1      1962 3.82919E+00 2.16787E+00 2.61855E+00-2.12227E+00-4.45399E+00-1.61670E+00
 -1      1963 6.03472E-01 8.19001E-01 4.48128E-01-3.75029E-01 1.80274E-01 3.08599E+00
 -1      1964-1.07631E+00 3.43860E-01 1.41998E+00 1.22701E+00 8.65555E-01-3.75266E+00
 -1      1965-3.02916E+00-1.24242E+00-1.22287E+00-1.45595E+00-2.22083E+00-5.06317E+00
 -1      1966-1.02473E+01-7.62231E+00-1.20738E+01-1.97237E-01 4.09074E+00-5.23884E+00
 -1      1967 8.90656E+00 9.43694E+00 2.18831E+00 6.29989E-01-2.32209E+00 1.21300E+00
 -1      1968-3.61158E+00-9.17096E+00-7.80185E-02 1.83594E+00-6.42793E+00 1.31051E+00
 -1      1969-4.88535E-01 4.39050E+00 7.20065E-01-1.99118E-01 1.42003E+00-2.94156E+00
 -1      1970-8.02417E+00-3.13054E+00-3.16812E+00 1.66095E+00 1.14555E+00 6.77805E+00
 -1      1971 1.75396E+00 3.14357E+00 4.55448E+00 7.42620E-01 3.43362E+00-1.10494E+00
 -1      1972 3.68286E-01 1.78246E+00 3.56270E+00 7.85177E-01-8.30794E-01 4.11311E+00
 -1      1973-4.32856E+00 1.37930E+00-3.43853E-01-4.91861E-02-9.55747E-01 5.59483E+00
 -1      1974 3.86533E+00 3.61978E-02 1.52533E+00 6.60637E-01 4.59176E+00-2.35041E+00
 -1      1975 6.65910E+00 6.80874E+00 7.83416E+00-1.10930E+00-4.12785E+00 5.16988E+00
 -1      1976 8.50776E+00 6.24465E+00 9.05793E+00-2.65962E-01-3.87198E+00 5.24025E+00
 -1      1977 1.22544E+01 1.41941E+01 9.55705E+00-1.43188E+00-3.12604E-01-3.14902E+00
 -1      1978 1.15186E+00 2.35638E-02 1.08935E+00-1.43760E+00-4.43300E+00-5.33572E-01
 -1      1979 1.24664E+00-4.97216E-01 1.18665E+00-5.94070E-01-4.39565E+00 7.17921E-01
 -1      1980 9.19001E+00 9.87115E+00 6.00496E+00-3.97017E-01 9.13946E-01-2.44242E+00
 -1      1981 2.95603E+00 1.37464E+00 7.27373E-01 6.32415E-01 4.00053E+00-2.38660E+00
 -1      1982-3.79172E+00-8.02645E-01 1.12326E+00-1.47330E+00-4.28721E+00 1.50095E-01
 -1      1983-8.20100E-02 1.06649E+00 2.11682E+00 1.45621E+00 3.44605E+00-2.45918E+00
 -1      1984-3.83364E+00-1.38288E+00-3.76716E-01-3.05874E+00 4.76859E+00 2.67488E+00
 -1      1985 2.22191E-01 2.18516E+00 3.89180E-01-1.02227E+00 1.87062E+00 2.92934E+00
 -1      1986 3.17086E+00 1.43935E+00 9.10390E-01 1.15556E+00-2.17558E+00 1.94576E+00
 -1      1987 7.14187E-01 1.41837E+00 1.85337E+00 9.15374E-01-4.15977E+00 1.03770E+00
 -1      1988 4.67412E+00 1.32314E+00 3.20937E+00-1.43409E+00-3.19206E+00-2.59448E-01
 -1      1989-1.30857E+00-4.38615E+00-7.76409E-02 2.42413E-01 1.16387E+00 3.78946E+00
 -1      1990 5.14879E+00 4.90190E+00 4.82114E+00-3.25125E-01 2.07702E+00 1.55531E+00
 -1      1991 9.66004E+00 9.59456E+00 3.97258E+00-1.44973E-01-2.22636E+00 3.17517E+00
 -1      1992 1.28890E+01 1.32508E+01 1.08016E+01-1.55488E+00 2.27719E+00 2.68724E+00
 -1      1993 7.86099E+00 8.54259E+00 3.19179E+00 7.62610E-02 7.04719E-01 2.99999E+00
 -1      1994-3.79142E+00-5.75333E+00-3.48604E+00-1.15620E+00-4.17149E+00-3.55028E+00
 -1      1995 1.68480E+00 2.02232E+00 2.53941E+00-1.78014E-01-3.14579E+00-9.99326E-01
 -1      1996 1.42654E+01 1.20012E+01 3.45336E+00-2.56938E+00 3.44468E+00-1.62796E-01
 -1      1997 7.06475E+00 1.02298E+01 3.63367E+00-2.93174E-02 2.19232E-02 3.08662E+00
 -1      1998-1.11896E+01-8.78082E+00-8.10089E+00 1.85811E+00-2.67729E+00 7.81617E+00
 -1      1999 2.23304E+00 7.86363E-01 1.39661E+00 4.44839E-01 4.63885E+00 7.02776E-01
 -1      2000 1.76791E+01 1.67131E+01 8.97498E+00 8.68048E-01 2.76750E+00-1.19803E+00
 -1      2001 2.20967E+00 2.96625E+00 1.15275E+00 1.04136E+00-3.36944E-01 3.01245E+00
 -1      2002 3.89975E-01 7.83656E-01-3.14713E+00-8.40344E-01-8.02372E-01 2.42801E+00
 -1      2003-2.82720E+00-7.32631E+00 1.45675E+00 3.24488E+00 4.90960E+00-2.01123E+00
 -1      2004 5.44209E+00 4.57766E+00 3.48520E+00-1.11994E-02-3.08597E+00 1.78654E-01
 -1      2005 2.05077E+00 3.47708E+00 1.16285E-02 1.99433E+00 2.44403E+00-3.05128E+00
 -1      2006-4.82207E+00-1.11805E+01-7.28818E-01-1.29798E+00 7.00486E+00-6.72299E-03
 -1      2007-7.21507E+00-1.36829E+01-1.03043E+01 2.31622E+00 5.52901E+00-6.91201E-01
 -1      2008-7.85087E-01 1.07067E+00 2.94545E+00-2.29560E+00-1.40704E+00-3.90522E+00
 -1      2009 9.09275E+00 7.39447E+00 6.47276E+00 8.94317E-02-2.57654E+00-5.32192E-01
 -1      2010 5.59174E+00 3.79698E+00-1.76747E+00-8.41526E-01-2.48314E+00-1.04576E+00
 -1      2011 4.31002E+00 3.88575E+00 9.31283E-01-2.56021E+00-2.83902E+00-1.98674E+00
 -1      2012 5.38063E-01 3.39614E+00 1.34119E-02 4.84958E-01-2.55812E-01 4.01075E+00
 -1      2013 6.52690E+00 6.97805E+00 5.17665E+00 2.83725E-01-1.61288E+00 2.30490E+00
 -1      2014 9.64163E+00 1.00575E+01 8.16918E+00 5.90457E-01-1.33612E+00 2.25546E+00
 -1      2015 6.42547E-02-1.48231E+00-4.79413E-01-8.14158E-01-4.37052E+00 3.58048E-01
 -1      2016 5.27333E+00 4.24087E+00 4.31527E+00-1.21625E+00-2.47941E+00-1.95126E+00
 -1      2017-3.11458E+00-1.83836E+00-6.17074E+00 1.18966E-01-1.55110E-01 3.40214E+00
 -1      2018 6.98332E-01 1.78026E+00-4.62383E-01-6.05200E-01 1.43485E+00 2.89962E+00
 -1      2019 6.41837E+00 5.41263E+00 1.67577E+00 1.00776E-02-2.98229E+00-1.84579E+00
 -1      2020-9.04861E+00-7.85851E+00-5.78095E+00-2.38245E+00-2.62344E+00-6.40613E+00
 -1      2021 3.45303E+00 7.05582E-01 7.05559E-01-1.77204E-01 3.57467E+00 1.97225E-01
 -1      2022 4.03787E+00 1.99677E+00 3.35327E+00-3.21859E-01 2.71405E+00 2.21561E+00
 -1      2023-1.38256E+01-1.62887E+01-1.52612E+01-1.40228E+00-7.09440E+00-5.06399E+00
 -1      2024 6.15635E+00 9.21015E+00 8.26656E+00 1.67564E-01-4.95094E+00-4.76871E+00
 -1      2025 1.20034E+00 1.64354E+00 4.32417E-01-1.51088E+00 2.40458E+00 2.75129E+00
 -1      2026-6.53030E-01-5.14738E-01 7.54659E-01-1.48455E+00 3.49522E+00 2.45626E+00
 -1      2027 7.87673E+00 8.82207E+00 3.00011E+00-2.53423E-01-1.29977E+00-2.68279E+00
 -1      2028 7.02033E-01-4.82141E-01 1.90267E+00 4.01505E+00 2.32815E+00-3.31438E+00
 -1      2029 4.81060E+00 8.54071E+00 1.66041E+00-6.55912E-01 4.17240E-01-2.96639E+00
 -1      2030 3.67569E+00 2.97603E+00 3.93511E-03 9.10597E-01-1.88040E+00 2.72785E+00
 -1      2031 2.95009E+00 2.17656E+00 2.07725E+00 1.73280E+00-3.05405E+00 1.15107E+00
 -1      2032 5.21887E+00 6.76890E+00 9.07820E-02-1.86502E+00 1.81074E+00 2.50815E+00
 -1      2033 7.88022E+00 7.59168E+00 2.02187E+00-2.68227E-01 1.79490E+00 1.97906E+00
 -1      2034 8.59137E+00 1.14824E+01 4.95218E+00-4.61132E-01 1.64317E+00 2.65701E+00
 -1      2035 1.78741E+00 4.35374E-02 1.84983E+00-1.06437E+00-3.18754E+00-4.12418E-01
 -1      2036 2.24759E+00 2.83284E+00-2.73437E-01 1.25272E+00-1.51710E+00 3.46656E+00
 -1      2037 4.24494E+00 1.06422E+00-6.46964E-01 5.39266E-02-3.29967E+00 3.76693E-01
 -1      2038 1.35588E+01 1.31293E+01 8.24923E+00-1.75321E+00-1.65096E+00-2.01646E+00
 -1      2039 4.98656E+00 5.70608E+00 4.10340E+00 6.63570E-01-1.23812E+00 2.94365E+00
 -1      2040 7.02411E+00 1.01002E+01-5.91392E-01 2.39633E-01-9.55923E-01 3.00141E+00
 -1      2041-9.35114E+00-6.68523E+00-3.78707E+00-2.41990E+00-2.64802E+00-6.51725E+00
 -1      2042 1.52970E+01 1.32688E+01 2.81920E+00-2.58981E+00-3.40799E+00-1.80445E-02
 -1      2043-4.61802E-02 1.11987E+00 2.31977E-01-2.63893E-01 2.67908E+00 3.71982E+00
 -1      2044 8.90332E+00 6.43240E+00-7.85877E-01 3.92913E-01 2.45519E+00-1.92849E-02
 -1      2045 1.13342E+01 9.97140E+00 1.02003E+01 4.24909E-01 7.60353E-01-2.09953E+00
 -1      2046-2.05308E+01-2.15023E+01-9.58905E+00 2.22255E+00 8.93255E-02-1.60148E+00
 -1      2047 2.22891E+01 2.35278E+01 5.42369E+00-2.01383E+00 3.07519E+00-4.13126E+00
 -1      2048 1.70205E+01 1.45348E+01 2.23529E+00 2.25444E+00 2.36853E+00-2.19878E+00
 -1      2049 8.31695E+00 1.19919E+01 6.40699E+00-3.88505E-01-1.60031E+00 1.16962E+00
 -1      2050 1.72304E+01 1.93595E+01 9.07773E+00-5.49899E-01-4.08772E-02-1.61228E+00
 -1      2051-2.17330E+01-2.43012E+01-7.07553E+00 4.83708E-01-1.26482E+00-2.40629E+00
 -1      2052 2.79536E+00 5.62131E+00 3.89849E+00 7.41414E-01 4.18293E+00-3.52715E-01
 -1      2053 1.77356E+01 2.16028E+01-7.11573E-01-2.21685E+00-2.54242E+00 1.26919E+00
 -1      2054-2.96308E+01-3.93754E+01-7.86091E+00-1.08729E+00 4.01727E+00 7.74724E-01
 -1      2055 9.28376E+00 1.09649E+01 8.09319E+00-1.03995E+00 2.36887E+00 1.74809E+00
 -1      2056 2.06392E+01 1.63182E+01-3.48917E-01 1.39837E-01-9.98655E-01 4.63163E+00
 -1      2057 2.15313E+01 2.43249E+01 2.60357E+00-7.69615E-01 3.61490E+00 1.01217E+00
 -1      2058-2.27756E+01-1.88279E+01-3.49809E+00-2.06969E+00 2.33595E+00 2.31924E+00
 -1      2059-2.15797E+01-1.89622E+01-5.76345E+00-2.40201E-01-6.57789E-01-2.04961E-01
 -1      2060 1.20574E+01 1.15864E+01 6.55183E+00 5.26082E-01 5.55271E-01 1.80789E+00
 -1      2061 4.99399E+00 5.23869E+00 1.79642E-01 4.32389E-01-9.98928E-01 9.41113E-01
 -1      2062 1.59776E+01 1.54347E+01 7.17340E+00-8.61469E-01-1.45091E+00-4.43783E+00
 -1      2063-2.34591E+01-2.20309E+01-1.14194E+01 1.79651E+00-1.93102E+00-2.41649E+00
 -1      2064 1.51586E+01 1.43340E+01 1.10627E+01 1.42410E+00-2.10496E+00-5.99980E-01
 -1      2065 1.46950E+01 1.76975E+01 5.96544E+00-7.63301E-01 3.02372E+00 2.43947E+00
 -1      2066 9.32282E+00 9.64626E+00 6.40002E+00-9.94296E-03-2.00826E-01-3.57102E+00
 -1      2067 2.21364E+01 2.41390E+01 5.56593E+00-7.34947E-01-5.94849E+00 7.97525E-01
 -1      2068 1.53573E+01 1.79441E+01 3.82375E+00 7.43168E-01-4.44446E-01-1.80275E+00
 -1      2069 1.07654E+01 1.10717E+01 2.37277E+00-9.09712E-01-2.85753E+00-7.61266E-01
 -1      2070 2.03050E+01 1.63881E+01-2.26435E-01 7.56148E-01 1.40831E-01-5.17761E+00
 -1      2071 3.36750E+01 2.82215E+01 1.27880E+01-1.06403E+00 4.02368E+00-1.86439E+00
 -1      2072 1.43977E+01 1.84422E+01 5.31428E+00-2.34097E+00 1.30969E-01-1.79070E+00
 -1      2073-1.46682E+01-2.13782E+01-8.73855E+00 2.52422E+00-7.47048E-01 1.86753E+00
 -1      2074 5.35014E+00 5.65353E+00 3.72518E+00 5.58108E-01 1.27252E+00-2.60912E+00
 -1      2075 9.43319E+00 1.14381E+01 3.86899E+00 8.17212E-01 1.11472E-01 1.50908E+00
 -1      2076 6.38220E+00 7.75698E+00 2.24787E+00 2.81849E-01 1.64692E+00-3.11383E+00
 -1      2077 1.35624E+01 1.72165E+01 6.29240E+00-1.66205E+00-1.30033E-01 1.06244E+00
 -1      2078-1.61722E+01-1.42970E+01-1.35838E+01 1.56811E+00-3.69079E+00-1.10965E-01
 -1      2079 2.02840E+01 2.39945E+01 1.39589E-01 9.50838E-01-5.10730E+00-1.30693E+00
 -1      2080-7.81013E+00-9.70143E+00-7.02298E+00-1.38990E+00 9.86650E-01-1.83506E+00
 -1      2081 1.87258E+01 1.77961E+01-5.76520E+00 1.89676E+00 1.10052E+00 7.57492E-01
 -1      2082 1.92192E+01 2.07921E+01 5.51468E+00 4.42475E-01 1.77096E+00 4.66204E+00
 -1      2083 1.54416E+01 1.44093E+01 7.33796E+00 2.11442E+00-8.18791E-01-1.31689E+00
 -1      2084 4.77223E+00 6.05673E+00-9.28121E-01-1.27959E-01-1.48203E+00 2.57156E+00
 -1      2085-2.86186E+01-2.40091E+01-1.06267E+01-5.36663E+00 4.42785E-01-3.08452E-01
 -1      2086 1.65371E+01 2.17236E+01 7.43739E+00 1.57170E+00 6.02426E-01-3.09783E+00
 -1      2087 1.17443E+01 1.12585E+01 6.69221E-02-1.92031E+00 2.16314E+00-6.63678E-01
 -1      2088 2.93677E+00 7.43832E+00-5.66068E-01-1.05266E+00-1.95945E+00-2.61714E+00
 -1      2089 3.33784E+01 3.20086E+01 6.37351E+00 2.66029E+00 2.46942E+00-1.03956E+00
 -1      2090 2.06089E+01 1.77180E+01 9.70064E+00-4.93941E-01-3.82139E+00 1.01241E-02
 -1      2091 1.25600E+01 1.03846E+01 3.97729E+00 2.86079E-01-2.62765E+00 1.12994E+00
 -1      2092 1.77701E+01 1.43909E+01 1.01521E+01 1.00917E+00-2.31642E+00 1.07461E+00
 -1      2093 7.62698E-01 1.34083E+00 2.29796E+00-2.57589E-01-3.93890E-01-4.09537E+00
 -1      2094 1.69836E+01 1.85071E+01 6.03289E+00-7.94702E-01 3.99544E-01-3.13720E+00
 -1      2095 1.07136E+01 1.08383E+01 4.39616E+00 1.21471E-01 2.56120E+00-1.05857E+00
 -1      2096 4.59220E+00 3.29323E+00 3.63725E-01 9.16537E-02-2.38377E-01-2.92517E+00
 -1      2097-1.68590E+01-1.72426E+01-8.01228E+00 3.88275E-01-4.06878E-01 1.53838E+00
 -1      2098 1.36753E+01 1.25442E+01 8.28442E+00-9.26149E-01-2.91597E+00-1.01175E+00
 -1      2099-2.76910E+01-2.64524E+01-4.57542E+00-1.03328E+00 6.56931E-01 7.98340E-01
 -1      2100 4.99346E+00 4.52883E+00 3.35515E+00 7.78242E-01 1.20043E+00 1.36325E+00
 -1      2101 1.95840E+01 1.67330E+01 1.24498E+00 4.63097E-01 1.09504E+00 2.96388E+00
 -1      2102 7.98897E+00 5.23950E+00-4.08336E+00-1.15245E+00 3.47242E+00 2.86067E-01
 -1      2103 2.26240E+01 1.72965E+01 5.25116E-02-4.53818E+00-1.33061E+00-8.51562E-01
 -1      2104 6.38572E+00 9.09024E+00 1.57102E+00 8.45287E-02 1.13314E+00-2.21943E+00
 -1      2105 1.34997E+00 6.31367E-01 3.18211E-01 8.27917E-01 3.51546E-01-1.85434E+00
 -1      2106 2.29341E+01 2.43009E+01 2.16229E+00-1.90901E+00-2.95990E+00 3.46332E+00
 -1      2107 2.21758E+01 2.09580E+01 6.22514E+00 2.45074E-02-1.86506E+00-2.64486E+00
 -1      2108-1.63851E+01-2.11481E+01-1.63109E+01-5.26321E-01 6.93747E-01-3.61109E+00
 -1      2109-2.88550E+01-2.08192E+01-1.74079E+01-3.38422E+00 3.10285E+00-3.39796E-02
 -1      2110-2.52227E+01-1.89069E+01-1.16942E+01 3.21123E+00 2.89289E+00-1.46251E+00
 -1      2111 2.66247E+01 3.10938E+01 1.98071E+00 1.08873E+00 1.21004E+00 5.76416E+00
 -1      2112 2.72209E+01 2.81774E+01 5.32140E+00 1.99117E+00-1.70742E+00-1.44551E+00
 -1      2113 9.71445E+00 1.13301E+01 6.53742E+00-8.03870E-01-2.07937E-01-4.52010E+00
 -1      2114 5.19952E+00 2.43815E+00 4.06270E+00 9.21653E-01-2.85383E-02 2.86033E+00
 -1      2115 1.86911E+01 2.11987E+01 3.65672E+00 2.44398E+00-2.48804E+00-8.63059E-01
 -1      2116 1.03849E+01 1.13527E+01 5.83959E+00-9.79539E-01-7.42593E-01-2.37872E+00
 -1      2117 9.98679E+00 8.39699E+00 3.34104E+00-1.71514E+00-1.06405E+00-2.51616E+00
 -1      2118 3.63108E+00 3.78280E+00 4.74383E+00-6.74002E-01-1.18160E+00 8.28401E-01
 -1      2119-2.74805E+01-2.41580E+01-7.94896E+00-1.00418E-01-1.83800E+00-6.84013E-01
 -1      2120 6.19495E+00 3.70734E+00 1.60364E+00 2.23219E-01 2.31552E+00 7.14887E-01
 -1      2121 9.23597E+00 1.02254E+01 4.76330E+00 9.40275E-01-3.66632E+00-3.54809E-01
 -1      2122 1.89438E+01 2.41283E+01 1.85838E+00 1.08159E+00-3.57585E+00 2.73644E-01
 -1      2123-6.58402E-02 3.05671E-03 7.04023E-01 1.33349E+00 1.43691E+00 1.51784E+00
 -1      2124 1.45092E+01 1.47970E+01 2.35715E+00 2.28307E+00-1.92028E+00 2.41558E+00
 -1      2125-2.06040E+01-1.95379E+01-1.63735E+01-3.05478E+00-1.62878E+00 1.84094E+00
 -1      2126 2.04898E+01 2.00505E+01 2.12435E+00-2.76281E+00 2.00157E+00-3.00729E+00
 -1      2127 1.12086E+01 1.71970E+01 5.34203E+00-1.37322E+00-9.99599E-01 3.20190E+00
 -1      2128 3.83694E+00 1.48997E+00 1.67647E-01-3.73798E-01 1.84066E+00 1.65212E+00
 -1      2129 1.08992E+01 1.15908E+01 2.16192E+00-1.01032E+00 3.06210E+00 8.45653E-02
 -1      2130 3.03977E+00 5.76830E+00 2.49688E+00 1.05696E+00 1.30009E-01 1.88430E+00
 -1      2131-1.88221E+01-2.05322E+01-1.42267E+01-2.32603E+00-1.67821E+00 1.98632E+00
 -1      2132 5.05785E-01 7.59805E-01-3.06511E+00-3.74825E-01 3.76152E-01-2.49315E+00
 -1      2133 4.09133E+01 4.35519E+01 1.18066E+01 8.02560E+00-6.11480E+00-2.55569E+00
 -1      2134 9.67235E+00 1.15397E+01 1.92626E+00-1.31236E+00-6.50758E-01-1.58375E+00
 -1      2135 1.28357E+01 1.01968E+01 5.95337E+00-1.30797E+00-1.98602E+00-6.94494E-01
 -1      2136 1.03899E+00 2.35521E+00-1.77732E+00-6.75335E-02 1.66251E+00-1.43204E+00
 -1      2137 2.43123E+01 2.32399E+01-1.15759E+00-5.27555E-01-1.65386E+00 4.81421E+00
 -1      2138 1.40152E+01 1.36117E+01 7.55354E+00 2.13997E-01 2.85344E+00-7.79216E-01
 -1      2139-2.65276E+01-2.39805E+01-1.48220E+01 5.41354E+00-1.52206E-01 2.47966E+00
 -1      2140 2.47176E+01 2.67460E+01 7.55491E+00-3.54261E+00-9.27710E-01 1.41445E+00
 -1      2141-2.61614E+01-2.58764E+01-4.77885E+00-4.83518E-02-4.98607E-01-1.22605E+00
 -1      2142-4.82753E+01-4.10663E+01-6.21894E+00-4.04199E+00-2.59023E+00-2.30517E+00
 -1      2143-1.06854E+01-8.94466E+00-8.14508E+00-1.29734E+00-1.97679E+00 1.26627E+00
 -1      2144 6.59392E+00 5.89868E+00 3.06227E+00-9.26188E-01-1.97782E-01-1.44397E+00
 -1      2145 4.26463E+00 7.10918E+00 4.84962E+00 1.48037E+00 1.72094E+00 1.13625E+00
 -1      2146 2.35459E+01 2.59901E+01 9.23959E+00-1.18994E+00 1.41252E+00-3.67610E+00
 -1      2147 8.26036E+00 1.62365E+01 4.98100E+00-1.27387E+00 2.88816E+00 3.02578E+00
 -1      2148 3.32646E+01 2.69667E+01 7.87888E+00 3.98061E+00 1.77873E+00 1.32538E+00
 -1      2149-2.58755E+01-2.46658E+01-7.08682E+00-2.11532E+00-1.47287E+00-1.05966E+00
 -1      2150 1.20793E+01 1.62669E+01 5.36872E+00 9.85607E-01-2.32584E+00 1.14207E+00
 -1      2151 2.73955E+00 4.56299E+00 1.39861E+00-6.74901E-01-1.04907E+00 1.36337E+00
 -1      2152-2.43863E+01-2.64617E+01-9.39664E+00 1.84277E+00 3.21219E-01 2.16826E+00
 -1      2153-4.02788E+01-3.92435E+01-1.45825E+01 3.75377E+00 1.04346E-02 6.71026E-01
 -1      2154-3.97556E+01-4.03383E+01-1.40578E+01-5.24332E+00 1.08309E+00 2.00672E+00
 -1      2155 2.95812E+01 2.31089E+01 7.12112E+00 6.06951E-01 1.62071E+00-3.05507E+00
 -1      2156 5.97314E+00 2.72769E+00 1.40139E-01-3.76319E-01 2.93930E+00-8.86703E-02
 -1      2157 6.17861E+00 5.85442E+00 3.09017E+00 1.18223E+00-2.44429E+00 1.25809E+00
 -1      2158 3.10597E+01 2.70094E+01 5.46602E+00-1.79495E+00 4.55004E+00 1.25167E-03
 -1      2159-3.67006E+01-4.06140E+01-1.70974E+01-3.97278E+00 2.76418E+00 4.45594E+00
 -1      2160 1.99535E+01 1.89739E+01 8.84370E+00 5.59938E-01-2.04713E+00 1.42937E+00
 -1      2161 1.82586E+00 8.13609E-01-1.33199E+00 9.40813E-02-2.14588E+00 8.57520E-01
 -1      2162 1.07252E+01 1.07196E+01 4.44319E+00-1.97011E+00-3.39732E+00-1.32538E+00
 -1      2163-2.02606E+01-2.84886E+01-1.61577E+01 2.76534E+00 1.73019E-01-2.06679E+00
 -1      2164-2.91919E+01-2.61259E+01-1.05651E+01 4.20240E+00-6.83038E-01 1.81337E+00
 -1      2165-2.27465E-01 1.29010E+00 5.97246E-01 9.86770E-01 2.77323E+00 3.36862E-01
 -1      2166 1.65466E+01 1.66433E+01 7.78233E+00 6.75900E-01 3.49926E+00 1.55489E-01
 -1      2167 9.95901E+00 1.01171E+01 8.01824E+00-2.65085E-01-2.55861E+00 1.30631E+00
 -1      2168-4.12013E+01-5.00880E+01-4.14056E-01-5.95470E-01-7.27283E-01-2.10825E-01
 -1      2169 2.61415E+01 1.88781E+01 9.97804E+00-1.19715E+00-1.27786E+00 3.32208E+00
 -1      2170 3.64855E+00 1.92831E+00-3.88480E-01-8.76432E-02-1.86366E+00-2.10611E+00
 -1      2171 1.15616E+01 1.12996E+01 1.27156E+01 1.17761E-01 1.08733E+00 2.70838E+00
 -1      2172 8.46074E+00 1.12645E+01 2.15547E+00-1.27308E+00-3.22766E+00-1.56370E+00
 -1      2173-3.19789E+01-3.35361E+01-1.05268E+01-2.03474E+00-3.06418E+00-2.18390E+00
 -1      2174 1.27726E+01 9.81142E+00 2.23936E+00-1.22481E+00 8.00040E-01 4.10101E+00
 -1      2175-1.13839E+01-1.51364E+01-1.17187E+01 4.52055E-01 1.11174E+00 1.94307E+00
 -1      2176-1.72565E+01-2.09731E+01-1.64766E+01 1.62400E+00-2.01216E+00-2.21875E+00
 -1      2177-2.85310E+01-2.32473E+01-1.20952E+01 4.31692E+00-1.08914E+00 3.57678E-02
 -1      2178-3.55095E+01-3.26378E+01-5.30811E+00 3.71166E+00-7.75715E-02-2.29336E+00
 -1      2179-3.42608E+01-3.81414E+01-5.34808E+00-2.13715E+00 1.68610E+00 8.48991E-02
 -1      2180-1.95371E+01-1.48886E+01-6.21948E+00-1.70430E+00 4.26774E-01-2.67975E+00
 -1      2181-3.91555E+01-3.34112E+01-6.40137E+00 3.74468E+00-1.69951E+00 1.30981E+00
 -1      2182-5.08215E+01-4.77231E+01-1.85200E+01 4.99395E-01-2.68869E+00 2.28128E+00
 -1      2183-3.65785E+01-4.28079E+01-1.05677E+01-1.69708E+00 4.75703E+00 1.23219E+00
 -1      2184-1.36944E+01-1.10564E+01-1.15766E+01-1.29090E+00-2.52625E+00 1.25914E+00
 -1      2185-3.89025E+01-5.35330E+01-8.19428E+00-9.93354E-01 1.49315E-01 1.29350E+00
 -1      2186-5.99747E+01-6.09813E+01-1.50555E+01-1.00403E+01-5.47308E+00-2.90743E+00
 -1      2187-5.43237E+01-4.87780E+01-1.59847E+01 6.45513E+00 2.50184E+00-3.34513E+00
 -1      2188-3.68774E+01-4.27719E+01-7.16680E+00 1.05571E-02 2.90863E+00-4.16027E-02
 -1      2189-4.14954E+01-4.99298E+01-9.57764E+00-6.39483E+00-1.48370E+00-2.72511E-01
 -1      2190-3.62445E+01-4.35871E+01-9.42355E+00 5.29963E+00-4.24321E+00-1.35306E+00
 -1      2191-4.14287E+01-3.64952E+01-1.53050E+01 1.77577E-02-2.92484E+00 5.91346E-01
 -1      2192-3.64078E+01-2.76803E+01-4.09219E+00-8.89384E-02-1.06116E+00-1.90281E+00
 -1      2193-4.85544E+01-4.29449E+01-4.33039E+00-4.23416E+00-6.29703E-01 5.82841E+00
 -1      2194-4.41473E+01-4.45498E+01-1.00415E+01-4.20276E+00 2.98891E+00 2.41252E+00
 -1      2195-5.54776E+01-6.77279E+01-8.12121E+00-1.12337E+00-6.28934E+00 1.26593E+00
 -1      2196-4.40569E+01-3.64230E+01-4.55653E+00-1.12715E+00-3.79156E+00-3.13991E+00
 -1      2197-4.69407E+00-5.34026E+00-1.80934E+00 2.43780E-01-2.84285E+00-1.63554E+00
 -1      2198-5.46462E+01-4.32885E+01-1.89662E+01 3.20358E+00-2.91278E+00-1.08215E+00
 -1      2199-1.27531E+00-2.89480E+00-2.22417E+00 2.65184E-01 2.06502E-01 3.48309E+00
 -1      2200-5.47195E+01-6.41851E+01-1.26429E+01-6.28419E+00 3.95716E+00 3.28039E+00
 -1      2201-6.08945E+00-4.10985E+00-3.63523E+00 2.07019E-01-2.23621E+00-3.52781E+00
 -1      2202-5.89703E+00-6.31838E+00-2.11136E+00 9.52264E-01-3.74976E+00-1.59606E-01
 -1      2203-4.13717E+01-3.94864E+01-5.32402E+00-6.84984E+00-4.04616E-02-2.85988E-01
 -1      2204-5.47590E+00-5.57277E+00-1.20956E+01 1.24636E+00-4.23367E+00-6.57562E+00
 -1      2205-2.43080E+00-3.11979E+00-2.20210E+00 1.38362E-01 2.77563E+00-2.56251E-01
 -1      2206-8.32333E+01-8.73632E+01-2.38428E+01-5.18846E+00 1.21711E+01 1.03418E+01
 -1      2207-5.86759E+00-5.19380E+00-5.74279E+00 7.42621E-01 3.90473E+00 9.64720E-01
 -1      2208-3.66840E+01-4.81033E+01-8.65281E+00 4.13206E+00 2.85871E+00-1.10164E+00
 -1      2209-5.98081E+00-5.54185E+00-1.46450E-02 4.13553E-01 1.77505E+00-2.20381E+00
 -1      2210-5.76048E+01-4.10548E+01-5.72070E+00 4.67840E-01-1.83652E+00 5.22373E+00
 -1      2211-9.00068E+00-9.51462E+00-1.50606E+00-7.21989E-01-1.10358E+00 3.50104E+00
 -1      2212-4.85331E+00-4.87242E+00-4.13801E+00-1.76326E-01 2.80560E+00 3.53690E+00
 -1      2213-6.05134E+00-3.54463E+00-4.24904E+00-3.10389E-01 4.48089E+00 4.11171E+00
 -1      2214-3.50888E+00-2.06695E+00-2.04075E+00 2.93166E-01-1.98748E+00 3.20642E+00
 -1      2215-2.66983E+00-2.19010E+00 1.43086E+00-6.90212E-01-1.39724E+00-1.58489E+00
 -1      2216-5.97356E+01-4.83143E+01-6.61910E+00 3.45780E+00-3.97477E+00 7.12317E+00
 -1      2217-5.30366E+00-3.97162E+00-1.90319E+00 5.19636E-01 1.70498E+00 3.51330E+00
 -1      2218-6.12682E+01-5.78243E+01-1.83555E+01-6.49761E+00 1.27987E+00 8.84876E+00
 -1      2219-4.88105E+01-5.47701E+01-3.21116E+00-1.86070E+00 5.25986E+00 8.36972E-01
 -1      2220-3.70330E+00-5.05153E+00-9.17138E+00 1.50777E+00 3.13948E+00 5.49961E+00
 -1      2221-5.95091E+00-5.62913E+00-3.75939E-02 5.51240E-01-1.95582E+00 2.12484E+00
 -1      2222-6.46166E+00-6.94922E+00-5.52584E+00 4.45049E-01-4.76396E+00-3.36112E-01
 -1      2223-6.33967E+01-5.61158E+01-1.63635E+01-2.74711E+00-1.34407E+00 1.21151E+01
 -1      2224-5.38180E+01-4.94268E+01-1.10558E+01-7.17069E+00 1.85842E+00 3.86598E+00
 -1      2225-3.85080E+00-3.00340E+00-3.23634E+00 2.12544E-02-1.36494E+00-3.35198E+00
 -1      2226-2.82941E+00-3.49801E+00-2.81061E+00 9.84443E-02-3.18584E+00 1.29491E+00
 -1      2227-7.41314E+00-7.03943E+00 3.72700E-01 4.10905E-01 3.31912E+00 7.69338E-01
 -1      2228-3.99057E+00-2.46239E+00 3.57121E-01 6.74356E-01 5.48868E+00 2.03486E+00
 -1      2229-6.62532E+01-6.35550E+01-1.78040E+01-2.43070E+00-6.36129E+00 8.05236E+00
 -1      2230-3.68604E+00-5.06934E+00-6.42881E-01-9.79498E-01-2.49314E+00 5.26647E+00
 -1      2231-4.67617E+01-3.81076E+01-7.76451E+00-3.18924E+00-3.31318E+00-4.71276E+00
 -1      2232-5.64226E+01-5.60165E+01-1.19330E+01 1.40873E+00 9.27701E+00 2.45655E+00
 -1      2233-2.30161E+01-2.29732E+01-1.58982E+01 1.02500E+00-1.44638E-01 8.24932E+00
 -1      2234-6.43444E+01-4.98253E+01-7.70831E+00 1.44756E+00-1.33096E+00 1.04325E+01
 -1      2235-7.70011E+00-6.16293E+00-2.31694E+00 8.25290E-02 3.44367E+00-1.00714E+00
 -1      2236-7.75690E+00-6.08504E+00 3.50050E-01 7.06924E-02-1.44637E+00 2.62367E+00
 -1      2237-7.42417E+00-7.87387E+00 3.62920E-01 2.66942E-02 5.56418E-01-3.54412E+00
 -1      2238-5.12625E+01-5.26196E+01-1.30360E+01 3.81912E+00 1.46308E+00-4.63243E+00
 -1      2239-1.04637E+01-6.63452E+00-8.71920E+00-5.10239E-01-6.58335E+00-1.36000E+00
 -1      2240-4.81722E+00-5.64525E+00 6.44340E-01 6.30369E-01-2.87281E+00 2.01301E+00
 -1      2241-1.95620E+01-2.02633E+01-1.49784E+01 5.08873E-01-6.96592E+00-2.84817E+00
 -1      2242-9.46211E+00-8.41769E+00-4.63092E+00-1.72494E+00-2.58942E+00 5.91601E+00
 -1      2243-8.41247E+00-1.05117E+01-1.51261E+00-5.12750E-01 2.30394E+00-4.99525E+00
 -1      2244-4.74836E+01-4.08982E+01-7.86905E+00 2.15284E+00 9.39079E-02-5.32067E+00
 -1      2245-4.61480E+01-4.12309E+01-1.85232E+01-6.55790E+00-1.35739E+00-3.30677E+00
 -1      2246-4.18886E+01-3.35622E+01-1.25068E+01-1.51575E+00 3.29434E-01 2.55146E+00
 -1      2247-6.51021E+00-7.57176E+00-2.64636E+00-3.66420E-01 2.98407E+00-1.49200E+00
 -1      2248-8.55309E+00-1.14718E+01-8.03679E+00 2.58016E-01-1.39010E+00 7.92686E+00
 -1      2249-8.62601E+00-7.08540E+00-6.87483E+00-1.15901E+00 5.92245E+00-3.39009E+00
 -1      2250-5.00507E+01-4.12111E+01-1.37004E+01 1.37095E+00-8.68916E-02-3.22864E+00
 -1      2251-3.72439E+00-2.36371E+00-5.32978E-02 1.57828E+00-3.17641E+00 1.39341E+00
 -1      2252-5.02887E+00-5.48131E+00-5.83568E+00-1.23537E-01-2.00319E+00-5.53896E+00
 -1      2253-6.12204E+00-5.70522E+00-1.64741E+00 1.12945E+00-4.89022E-01 3.99102E+00
 -1      2254-3.83800E+00-3.39024E+00-2.65948E+00 6.53711E-01-3.20244E+00 1.94662E+00
 -1      2255-5.58247E+00-4.77731E+00-3.66238E+00 1.15901E-01 3.80246E+00-2.68226E+00
 -1      2256-5.78031E+01-6.56728E+01-2.08557E+01 1.86214E+00-3.10272E+00 1.61557E+00
 -1      2257-6.05824E+01-6.77547E+01-1.85365E+01-1.54860E+00-7.99662E+00-2.26845E+00
 -1      2258-4.07879E+01-3.81268E+01-3.09821E+01-1.39870E+00-1.22155E+01-8.00255E+00
 -1      2259-8.39556E+01-8.72666E+01-3.31729E+01-4.95454E-01-1.40689E+01 1.64068E+01
 -1      2260-2.85325E+01-3.04562E+01-2.52030E+01-1.58264E+00 3.53888E+00 1.17457E+01
 -1      2261-5.33660E+01-4.78523E+01-1.70777E+01 1.74097E+00 3.14587E+00-3.84257E+00
 -1      2262-5.17392E+01-6.17289E+01-1.36976E+01-3.90437E+00-8.20514E-01 2.04728E+00
 -1      2263-4.63010E+00-2.98680E+00-3.62064E+00-5.29062E-01-3.83019E+00 4.26114E+00
 -1      2264-6.94576E+01-6.52885E+01-1.67626E+01-5.30200E+00-7.01664E+00-5.53467E+00
 -1      2265-4.60316E+00-4.06896E+00-4.24079E+00 2.99956E-02-1.62558E+00-3.16291E+00
 -1      2266-5.37090E+00-5.64415E+00-1.31719E+00-4.00434E-02 2.70750E+00 2.13472E+00
 -1      2267-1.05307E+01-7.86206E+00-8.51623E+00 7.35262E-02 4.66622E+00 7.21547E+00
 -1      2268-5.19047E+01-4.28829E+01-8.36843E+00-4.25179E+00-9.65127E-01-1.26597E+00
 -1      2269-5.17539E+00-5.67934E+00-1.08117E+00 2.35382E-01 2.26444E+00-1.57291E+00
 -1      2270-9.52484E+01-9.17481E+01-4.10207E+01-4.52236E+00-1.16199E+01-9.82791E+00
 -1      2271-8.73873E+00-8.48700E+00-2.21750E+00-1.28452E+00-5.50088E+00 7.30078E+00
 -1      2272-7.42608E+00-7.36546E+00-3.77894E+00-1.42948E+00 3.54629E+00-5.31999E+00
 -1      2273-5.13029E+00-5.00756E+00-2.15209E+00-1.06318E-01 1.62041E+00 3.63504E+00
 -1      2274-1.81366E+00-2.19848E+00-1.78325E+00-1.53350E-01 2.45215E+00 3.96888E-01
 -1      2275-6.63603E+01-6.31764E+01-1.94491E+01 7.64330E+00 6.28632E+00-1.13694E+00
 -1      2276-1.03535E+01-8.42060E+00-1.01606E+01-6.59282E-01-4.37326E+00 7.67901E+00
 -1      2277-5.74523E+00-5.21122E+00 5.36032E-01 7.57216E-02 8.55181E-01 2.34656E+00
 -1      2278-8.86254E+00-1.46788E+01-5.83573E+00-1.61895E-01-1.32568E-01 4.96579E+00
 -1      2279-1.29417E+01-8.55910E+00-1.48588E+01-1.50004E+00 5.45712E+00 9.04692E+00
 -1      2280-6.86315E+01-6.33749E+01-2.16116E+01 1.31280E+00 3.68174E+00-9.05807E+00
 -1      2281-7.32892E+00-6.17583E+00-3.73231E-01-2.11770E-01-3.20785E+00 6.15689E-01
 -1      2282-6.49283E+00-8.94485E+00-1.29768E+01 1.39863E+00 3.31278E+00 8.03976E+00
 -1      2283-2.28272E+00-1.51543E+00-2.45575E+00 7.48503E-02-2.65968E+00-1.74490E+00
 -1      2284-3.02198E+00-2.25943E+00-4.21501E+00-8.07300E-01-5.73406E+00 1.45947E+00
 -1      2285-7.94336E+00-5.78015E+00-1.32601E+00 3.61783E-01-4.49606E+00-8.92257E-01
 -1      2286-8.40830E+00-8.76550E+00-1.65475E+01 1.86845E+00 6.82012E+00 8.93109E+00
 -1      2287-5.06087E+01-5.49245E+01-1.79498E+01 7.74906E+00-7.71319E+00 7.94517E+00
 -1      2288-5.48788E+00-4.25027E+00-6.22131E-01-1.66584E-01-2.19238E+00-1.91043E+00
 -1      2289-6.28900E+01-5.30811E+01-1.38441E+01-2.96676E+00-6.29401E+00-6.57581E+00
 -1      2290-6.63400E+01-5.50626E+01-7.07358E+00 4.22823E+00-5.28349E+00 1.32299E+01
 -1      2291-8.22929E+01-8.15542E+01-2.77382E+01 3.07256E+00 1.75541E+01 2.29763E-01
 -1      2292-1.19105E+01-1.10884E+01-4.76674E+00-6.45778E-01-6.85270E-01 6.36329E+00
 -1      2293-1.01330E+01-9.29972E+00-4.85324E+00-1.17807E+00-5.05370E+00 4.75567E+00
 -1      2294-8.41367E+01-7.07159E+01-1.88659E+01 9.55913E-01-1.36010E+00 1.80677E+01
 -1      2295-6.41398E+00-7.76414E+00-4.08165E+00-1.55295E-01-3.05593E+00-2.58330E+00
 -1      2296-6.23374E+01-6.11677E+01-7.90588E+00-4.16540E+00-3.09629E+00 1.11310E+01
 -1      2297-6.13841E+01-5.13578E+01-1.50300E+01 5.81518E+00 7.74604E-01-6.59683E+00
 -1      2298-5.78718E+01-5.46838E+01-1.11415E+01-4.81353E+00 3.13277E+00 2.89862E+00
 -1      2299-5.73084E+00-6.29734E+00-7.41993E+00-8.47941E-01-1.26853E+00-5.07857E+00
 -1      2300-4.47533E+00-3.90772E+00-2.67301E+00-7.98048E-01-9.60652E-01-2.70912E+00
 -1      2301-2.44279E+01-2.31536E+01-1.32328E+01-1.60540E+00-4.85391E+00-4.03827E+00
 -1      2302-6.70625E+00-7.70020E+00 8.17174E-02 4.74940E-02-4.48885E-01-2.90285E+00
 -1      2303-5.40933E+00-7.58761E+00-3.21222E+00 2.24715E-02 9.63927E-01-5.21651E+00
 -1      2304-8.04704E+00-1.07282E+01-8.20901E+00-3.46580E-01-3.53434E+00-6.27265E+00
 -1      2305-1.09564E+01-1.12866E+01-1.62229E+01-1.60587E+00-4.08103E+00-7.91724E+00
 -1      2306-1.45286E+01-9.13600E+00-1.18268E+01-1.55770E+00 8.32874E+00 8.16637E+00
 -1      2307-6.51795E+01-7.21375E+01-2.67437E+01-3.51371E+00-7.31298E+00-2.01794E+00
 -1      2308-7.72978E+01-8.98655E+01-4.30334E+01-2.34406E-01-9.46973E+00 2.26772E+00
 -1      2309-1.00179E+02-1.07111E+02-5.17527E+01-4.58772E+00-1.81141E+01-1.40629E+00
 -1      2310-4.59275E+01-6.44913E+01-8.42446E+00-8.66253E-01-2.68292E+00 1.82052E+00
 -1      2311-4.12278E+00-3.84789E+00-4.75483E+00 4.33769E-01 1.97903E+00 3.37858E+00
 -1      2312-1.74713E+01-1.73431E+01-1.46523E+01-3.43589E-02 8.17125E+00-2.38291E+00
 -1      2313-6.03941E+00-6.06314E+00-7.12964E+00 6.77769E-01 4.23001E+00-1.31761E+00
 -1      2314-6.60668E+00-7.01314E+00-3.00209E+00 4.82900E-01 5.48810E+00 2.17823E+00
 -1      2315-9.59094E+00-9.08373E+00-6.90351E+00-9.80524E-01-6.82114E+00 3.82722E+00
 -1      2316-2.58734E+01-1.97467E+01-1.87466E+01-2.41207E-01 8.23532E+00-8.83040E+00
 -1      2317-7.77884E+00-7.65218E+00-1.05679E+00-6.47818E-02 2.26232E+00-2.52914E+00
 -1      2318-1.23799E+01-1.28892E+01-5.96784E+00-1.17735E+00 2.02860E+00-5.79083E+00
 -1      2319-1.19488E+01-7.34554E+00-9.49003E+00-2.91729E-01 6.55016E+00-1.31157E+00
 -1      2320-3.39632E+00-3.73202E+00 9.83315E-01-4.20313E-01 1.89526E+00 1.59706E+00
 -1      2321-5.74298E+00-4.27102E+00 6.89984E-01 3.72670E-01 2.73703E+00 4.63296E+00
 -1      2322-3.53056E+00-3.30730E+00 1.66746E-01-7.50077E-01 3.62426E+00-4.21177E+00
 -1      2323-1.12218E+01-8.71502E+00-9.30407E+00 2.65073E+00 8.90722E+00 3.28154E+00
 -1      2324-5.65557E+01-7.26435E+01-2.13791E+01 7.16039E+00-1.17626E+01 3.27700E+00
 -1      2325-2.08784E+01-1.90217E+01-1.29322E+01-1.14759E+00-7.76668E+00-6.94465E-01
 -1      2326-3.05443E+01-3.49399E+01-2.60868E+01-1.52608E+00-1.27746E+01 1.25271E+01
 -1      2327-1.35692E+00-2.84310E+00-7.07464E+00 6.13031E-01-3.99170E+00-4.08602E+00
 -1      2328-2.07889E+01-2.07621E+01-9.93088E+00-7.83042E-01-1.59117E+00 6.71544E+00
 -1      2329-1.00356E+01-7.46240E+00-1.22249E+01 3.87611E-01-4.88947E+00 7.23085E+00
 -1      2330-1.11051E+01-1.31576E+01-2.18414E+01 2.78246E-01-7.69869E+00-9.51551E+00
 -1      2331-5.84362E+01-4.84555E+01-8.68463E+00-3.67576E-01-1.39942E+00-4.65454E+00
 -1      2332-4.04751E+01-3.95955E+01-3.51454E+01-2.22904E+00 1.05432E+01 1.11338E+01
 -1      2333-7.35176E+00-4.60446E+00-3.83377E+00 1.19442E+00-5.38482E+00 6.80648E-01
 -1      2334-5.09225E+01-6.20881E+01-5.02962E+00-7.55335E-01-3.91062E+00 2.27528E+00
 -1      2335-5.51991E+01-6.60413E+01-7.40046E+00-1.09429E+00-4.74205E+00 3.56602E-01
 -1      2336-1.00214E+01-9.02917E+00-8.86037E+00 1.03781E+00-6.82503E+00-4.50424E-01
 -1      2337-6.80267E+01-6.26916E+01-2.18870E+01-3.39124E-01-1.10226E+00-5.12501E+00
 -1      2338 2.54049E+01 2.44366E+01 3.89108E+00 3.06397E+00 1.81619E+00 5.22939E+00
 -1      2339-1.78794E+01-2.10461E+01-1.05699E+01 2.01875E-01 1.52427E+00-6.85010E+00
 -1      2340-1.94321E+01-2.71125E+01-6.82155E+00 1.53814E+00 5.39800E+00-6.16805E+00
 -1      2341-1.12538E+02-1.10641E+02-5.21884E+01 3.00533E+00-1.28576E+01-3.65498E-01
 -1      2342-5.23848E+00-5.76524E+00-2.42057E+00-9.98083E-01 3.55230E+00-9.70804E-01
 -1      2343-8.64821E+00-6.78592E+00-9.08435E+00 1.42747E-01 6.85165E+00 5.59903E-01
 -1      2344-4.34838E+00-3.38369E+00-7.45451E+00-2.75648E-01 5.73519E+00-1.66947E-01
 -1      2345-1.55857E+01-1.78349E+01-9.68249E+00-2.30252E+00 1.02952E+00 1.02856E+01
 -1      2346-6.40083E+00-4.50710E+00 1.28753E+00 1.32361E-01-3.36155E+00-5.53567E-01
 -1      2347-9.77458E+00-1.34693E+01-1.96453E+01 1.67573E+00 7.20321E+00 1.17915E+01
 -1      2348-2.66186E+01-2.33726E+01-2.15461E+01 4.13778E+00-1.48351E+01 3.13218E+00
 -1      2349-2.48526E+01-2.25317E+01-1.16729E+01-2.55949E+00-4.48768E+00 1.17976E+01
 -1      2350-1.57093E+01-1.33290E+01-6.69830E+00 2.39388E-02-4.41443E+00-3.73595E+00
 -1      2351-2.06361E+01-1.83590E+01-1.76741E+01-2.07237E+00-1.11875E+01-4.12975E+00
 -1      2352-5.28434E+00-5.52883E+00-5.26004E+00 8.19798E-02 8.13620E-01-3.75152E+00
 -1      2353-4.83960E+00-6.87943E+00-8.85891E+00-2.16865E-01-3.88779E+00-9.82654E+00
 -1      2354-1.67334E+01-1.24536E+01-1.07309E+01 3.40662E+00-1.13056E+01 3.55256E+00
 -1      2355-1.32515E+01-1.18126E+01-1.17994E+01 9.21647E-01-8.70965E+00 6.67568E+00
 -1      2356-8.99764E+01-9.29895E+01-3.60226E+01-5.19247E+00 5.11240E-01 1.82594E+01
 -1      2357-8.75689E+01-8.04594E+01-3.09887E+01 1.41839E+00-7.69403E+00-1.26086E+01
 -1      2358-7.04392E+01-6.79622E+01-1.77019E+01 3.45407E+00 2.51122E+00-8.21572E+00
 -1      2359-6.31351E+01-7.17102E+01-2.62033E+01 6.95735E+00-1.03955E+01 7.94711E+00
 -1      2360-6.10648E+00-6.46956E+00-7.14106E+00 2.02468E-01-7.08359E+00 1.36565E+00
 -1      2361-8.24106E+00-9.17410E+00-1.12047E+01 5.13533E-01-9.11924E+00 3.20973E+00
 -1      2362-2.93705E+01-3.08959E+01-2.78005E+01-2.59562E-03-1.30493E+01 1.05312E+01
 -1      2363-1.81326E+01-1.85704E+01-1.91681E+01-7.67476E-01-1.23218E+01 1.54569E+00
 -1      2364-1.75898E+01-1.62461E+01-1.44027E+01-3.45853E-01-9.23931E+00-1.65729E+00
 -1      2365-4.35446E+01-4.29144E+01-3.56407E+01-7.15736E+00 6.08838E+00 1.55998E+01
 -1      2366-2.16765E+01-2.83258E+01-2.86622E+01 1.56868E+00 1.21048E+01 1.38159E+01
 -1      2367-1.52003E+01-1.56798E+01-1.59451E+01-7.52178E-01 8.96568E+00-5.61288E+00
 -1      2368-3.27318E+01-3.51017E+01-2.19721E+01 4.59200E-01-1.03964E+01-5.77636E+00
 -1      2369-8.74986E+00-8.05664E+00-1.98826E+00-1.34570E+00 7.07360E+00-4.93124E+00
 -1      2370-1.35362E+01-1.09556E+01-6.91829E+00 7.17269E-01 5.20655E+00 4.24989E+00
 -1      2371-8.37802E+00-7.24424E+00-2.46048E-02 7.71031E-01 3.37324E+00 8.71907E+00
 -1      2372-8.02701E+01-7.49728E+01-1.66767E+01 6.29461E+00 9.57995E+00-7.30576E+00
 -1      2373-8.11269E+01-7.27863E+01-3.48264E+01 2.62915E+00 5.70162E+00-1.20163E+01
 -1      2374-9.84766E+00-1.00052E+01-9.57469E+00 6.17960E-01 2.62320E+00 6.72624E+00
 -1      2375-1.07143E+01-8.85678E+00-8.80577E+00 6.02601E-01-6.04476E+00-4.73951E+00
 -1      2376-1.11578E+01-1.22647E+01-1.45901E+01-2.58582E+00-2.23036E+00-1.12682E+01
 -1      2377-2.00641E+01-1.61276E+01-1.26689E+01 2.29664E+00 6.75218E+00-5.23587E+00
 -1      2378-4.27668E+01-5.76029E+01-9.51643E+00-2.37018E+00-1.19411E-01-4.07030E-01
 -1      2379-3.49700E+01-2.73887E+01-2.57458E+01 1.13187E+00 1.27229E+01-1.12009E+01
 -1      2380-1.56908E+01-1.08986E+01-1.37152E+01 1.76876E+00 9.74614E+00-3.40573E+00
 -1      2381-8.09922E+00-9.69691E+00-1.47027E+01 7.87348E-01-4.09954E+00-9.03638E+00
 -1      2382-1.52628E+01-1.77992E+01-1.12041E+01-6.53701E-01 6.44103E-01-7.57137E+00
 -1      2383 1.42827E+01 1.45447E+01 2.43189E+00 1.84649E+00 2.98065E+00 9.89850E-01
 -1      2384-1.02094E+01-9.81372E+00-1.68286E+01 1.55986E+00-3.34241E+00-8.98167E+00
 -1      2385-1.41073E+01-8.85232E+00-1.33287E+01 4.24980E-01-8.29933E+00 6.21342E+00
 -1      2386-1.84383E+01-2.42379E+01-3.21786E+01-1.78200E+00-1.06357E+01-1.53819E+01
 -1      2387-1.10878E+01-6.30601E+00-4.42224E+00 5.50743E-01 8.21444E+00 5.90732E+00
 -1      2388-6.13860E+01-5.46286E+01-1.83148E+01-2.57336E+00 2.05676E+00 6.92718E+00
 -1      2389-5.39868E+01-6.17741E+01-6.38122E+00 2.13148E+00 7.08966E+00-3.35202E+00
 -1      2390-2.04473E+01-1.73417E+01-1.52861E+01 2.16366E+00 8.96645E+00 1.45878E+00
 -1      2391-3.22670E+01-3.75296E+01-3.44802E+01-6.83619E-02-1.54099E+01 2.68997E+00
 -1      2392-2.12228E+01-2.34191E+01-1.18056E+01-5.22405E-01 8.27478E-02 7.14441E+00
 -1      2393-8.79573E+01-8.10352E+01-3.35782E+01 5.56305E+00 3.04540E+00-1.20404E+01
 -1      2394-2.35727E+01-2.98919E+01-3.75753E+01 1.84119E+00 1.14250E+01 1.29911E+01
 -1      2395-2.08411E+01-2.55639E+01-1.09481E+01 1.65953E+00-2.83778E+00 7.93776E+00
 -1      2396-2.61632E+01-2.99515E+01-1.76949E+01 2.00346E+00-3.60659E+00 9.88500E+00
 -1      2397-6.75202E+00-4.32524E+00-3.26504E+00 4.47688E-01 3.90144E+00 6.28147E+00
 -1      2398-7.38498E+00-8.65347E+00-6.52032E+00 1.04881E+00 4.35635E+00 3.00156E+00
 -1      2399-9.79529E+01-9.42171E+01-4.14318E+01 1.40236E+00 4.79355E+00-2.11121E+01
 -1      2400-8.04206E+00-9.29257E+00-9.08498E+00-6.24284E-01 5.02507E+00-5.76148E+00
 -1      2401-2.06626E+01-2.33103E+01-1.24886E+01 2.17266E+00 7.41070E+00 2.23961E+00
 -1      2402-6.12920E+01-6.24086E+01-1.94431E+01-4.37695E+00 8.29294E+00 4.57232E+00
 -1      2403-3.76157E+01-3.58351E+01-3.33808E+01-1.26512E+00-3.05653E+00-1.48160E+01
 -1      2404-5.25975E+01-5.64130E+01-1.69405E+01-1.48619E+00 5.80703E+00 3.66283E-01
 -1      2405-2.59457E+01-2.86742E+01-1.41887E+01 4.69440E+00-9.08135E+00 2.00928E+00
 -1      2406-1.08365E+01-1.26669E+01-1.66843E+01-9.85324E-01 1.12504E+01-3.13633E+00
 -1      2407-8.12430E+00-8.80059E+00-1.48823E+01-8.99977E-01 8.74731E+00 1.45155E-01
 -1      2408-3.57224E+01-2.57542E+01-1.95016E+01 7.67448E-01 1.00235E+01-1.11977E+01
 -1      2409-2.26062E+01-1.87354E+01-1.46111E+01 1.81124E-01 1.37952E+01-1.56799E+00
 -1      2410-9.18351E+00-8.22752E+00-1.25117E+01 7.13636E-01-7.80604E+00 2.27091E+00
 -1      2411-3.32652E+01-2.38513E+01-2.82257E+01 2.84635E+00-1.31347E+01 9.69669E+00
 -1      2412-2.36426E+01-2.26082E+01-6.71924E+00-3.37742E+00 1.48737E-01-1.03624E+01
 -1      2413-2.87906E+01-2.74524E+01-2.58261E+01-1.40391E+00-1.37162E+01-4.49614E+00
 -1      2414-2.84312E+01-2.77491E+01-1.31767E+01-2.06857E-02 1.82123E+00-9.96688E+00
 -1      2415-2.14952E+01-2.50574E+01-2.80322E+01 3.11331E-01-1.30712E+01-1.54130E+01
 -1      2416-4.41835E+01-3.80323E+01-3.57009E+01-3.01946E+00 1.41483E+01 8.20498E+00
 -1      2417-7.32171E+01-8.79417E+01-3.54573E+01 4.42136E+00-1.87878E+01 2.04179E+00
 -1      2418-6.03645E+01-5.73063E+01-1.00488E+01-9.81231E-01 1.04287E+01 2.08765E+00
 -1      2419-9.14180E+01-9.11978E+01-3.85105E+01 3.09608E+00-1.05257E+00-1.49508E+01
 -1      2420-7.58398E+00-8.41177E+00-5.85918E+00-2.55960E-01 4.26224E+00-3.79599E+00
 -1      2421-9.82369E+01-1.02043E+02-4.33567E+01 4.71079E-01-1.55335E+01 7.83925E+00
 -1      2422-2.04428E+01-2.80397E+01-1.44521E+01 2.95284E+00 3.81962E+00-9.64738E+00
 -1      2423-4.03404E+01-3.58921E+01-2.49452E+01 2.52029E+00 3.31118E+00-1.31633E+01
 -1      2424-9.40817E+00-1.23806E+01-1.44788E+01-3.98652E-01-2.54782E+00-9.69156E+00
 -1      2425-2.41271E+01-2.55802E+01-2.56899E+01-2.03338E+00-6.45861E+00-1.78742E+01
 -1      2426-3.94247E+01-3.86746E+01-3.39555E+01-1.57333E+00 2.01113E+01-4.55002E+00
 -1      2427-4.73942E+01-5.30889E+01-4.36848E+01-2.12389E+00-1.94964E+01-4.03120E+00
 -1      2428-1.04585E+02-1.00907E+02-3.49644E+01 2.62775E+00 6.78236E+00-1.78685E+01
 -1      2429-1.25121E+01-8.94644E+00-9.12358E+00 1.33779E-01 4.06721E+00 1.29206E+01
 -1      2430-1.48730E+01-1.78902E+01-8.14154E+00-2.12467E+00 4.28421E+00-6.42450E+00
 -1      2431-8.92485E+00-1.06202E+01-9.04074E+00 6.88848E-01 1.04253E+00 8.83760E+00
 -1      2432-1.10233E+01-1.42835E+01-9.73069E+00-4.16751E-01 1.01413E+01-5.74193E+00
 -1      2433-1.08282E+02-1.11161E+02-4.63046E+01 2.31940E-01 1.58468E+01-1.18115E+01
 -1      2434-2.45020E+01-3.06190E+01-2.56884E+01-1.45557E+00 1.35147E+01-9.55195E+00
 -1      2435-6.06814E+01-5.74059E+01-1.36029E+01-2.83389E+00 2.24492E+00 3.54730E+00
 -1      2436-6.44107E+00-5.31169E+00-1.54914E+01 9.51178E-01-3.78618E+00-6.75552E+00
 -1      2437-8.93721E+01-8.55709E+01-4.15684E+01-2.20988E+00 1.03443E+01 1.37144E+01
 -1      2438-3.30115E+01-3.22402E+01-3.24373E+01 1.87201E+00 1.78282E+01-5.11930E+00
 -1      2439-3.67434E+01-4.83103E+01-2.73174E+01 2.73616E+00-1.32845E+01 1.37307E+00
 -1      2440-1.11260E+01-8.08517E+00-8.63698E+00-2.56291E-01 8.17609E+00 2.52523E+00
 -1      2441-2.90976E+01-1.99991E+01-2.04305E+01-1.11017E+00 1.33073E+01 9.09342E+00
 -1      2442-1.99308E+01-1.03212E+01-7.03110E+00 1.51067E+00 1.08206E+01 9.96734E+00
 -1      2443-2.25128E+01-2.27692E+01-1.61643E+01-2.18392E+00 3.81876E-01 1.19392E+01
 -1      2444-2.66024E+01-1.48133E+01-1.72609E+01 1.46928E+00-1.18621E+01 1.14436E+01
 -1      2445-5.67380E+01-4.71264E+01-2.95559E+01-9.45630E-01 1.45553E+00-1.63847E+01
 -1      2446-6.46556E+01-6.86666E+01-1.81120E+01 6.78384E-01 1.15475E+01-2.60791E+00
 -1      2447-2.58826E+01-2.34443E+01-1.24622E+01-2.60764E+00 3.91403E+00-7.31627E+00
 -1      2448-4.85253E+01-4.79476E+01-3.18671E+01 6.47402E+00 6.41766E+00-1.65293E+01
 -1      2449-1.67232E+01-1.54884E+01-1.62176E+01-1.13932E+00-8.95741E+00-1.49521E+01
 -1      2450-3.00909E+01-2.33780E+01-2.40497E+01 1.63819E+00 6.54753E+00 1.63898E+01
 -1      2451-1.59010E+01-1.52684E+01-1.69853E+01 1.17707E+00 1.81062E+00 1.26670E+01
 -1      2452-1.57770E+01-1.25713E+01-2.40900E+01 6.74340E-01-2.24453E+00-1.31013E+01
 -1      2453-2.63857E+01-2.30315E+01-1.73802E+01-2.29220E+00 5.33719E-01 1.15785E+01
 -1      2454-8.83601E+01-8.68513E+01-3.68545E+01-5.35963E-03 1.87641E+01 7.84272E-02
 -1      2455-4.51355E+01-4.09636E+01-2.89144E+01 8.26023E-01 6.65749E+00-1.02876E+01
 -1      2456-4.21568E+01-3.67506E+01-3.57354E+01 4.49379E+00-1.78339E+00 1.80266E+01
 -1      2457-3.20398E+01-2.64793E+01-3.59687E+01 1.80435E+00-5.87927E+00-1.70059E+01
 -1      2458-3.79620E+01-3.11606E+01-2.48745E+01-1.14107E+00-7.82847E-01 1.40180E+01
 -1      2459 5.19359E-01-4.26476E-01-6.13926E-01-8.14879E-01 1.53914E+00-2.68210E+00
 -1      2460-1.68709E+00-2.22438E+00-3.31067E+00-1.60844E+00 1.60500E+00-1.39245E+00
 -1      2461 7.27820E+00 7.56463E+00-2.69941E+00 2.90458E+00 3.10890E+00 3.38818E+00
 -1      2462-9.74547E+00-6.83295E+00-7.16299E+00-2.06380E-01-2.21473E+00-7.11313E-01
 -1      2463 5.19012E+00 5.70432E+00-2.53313E+00-2.15450E+00 4.26102E+00-3.45163E+00
 -1      2464-3.75183E+00-4.66617E+00-6.28277E+00 2.27685E-02-7.09263E-01 1.51368E+00
 -1      2465-7.16073E+00-5.04736E+00-2.23427E+00-2.02247E+00 1.09915E+00-1.42907E+00
 -1      2466-2.88173E+00-1.45607E+00-7.50894E-01-1.47997E+00 1.47196E+00-1.19944E+00
 -1      2467-9.82516E-02 3.98518E+00 1.16867E+00-1.25562E+00 2.25027E+00 1.46667E-01
 -1      2468-6.44728E+00-8.93655E+00-3.45158E+00-8.38674E-01-2.01191E+00 1.77140E+00
 -1      2469 4.18175E-02-9.58167E-01-2.01439E-01 1.37847E+00 2.08981E-02 3.20995E+00
 -1      2470-5.24691E+00-3.51368E+00-3.83209E+00-7.49634E-01-3.27802E+00 1.04694E+00
 -1      2471-1.01850E+01-5.60535E+00-2.33553E+00-1.55995E+00 3.02031E+00-7.29389E-01
 -1      2472-4.70240E+00-7.60697E+00-4.43647E+00 4.37533E-03-1.24077E+00-4.00653E+00
 -1      2473-1.05794E+00-2.13233E+00-7.25924E+00-1.31902E+00-2.74720E+00 3.67538E+00
 -1      2474-1.08211E+01-6.83669E+00-5.64320E+00-1.31087E+00 2.85064E+00-8.46266E-01
 -1      2475-1.57967E+00-1.68974E+00-3.18555E+00-7.39202E-01 1.65557E-01-1.60764E+00
 -1      2476-8.41436E+00-4.43935E+00-3.44074E+00 1.64523E+00-2.93810E+00-8.51959E-01
 -1      2477-5.27508E+00-5.47465E+00-6.14926E+00-2.25162E+00-1.11802E+00 1.87484E+00
 -1      2478-1.39156E+00-2.88161E+00-2.42765E+00 2.91752E-01-2.71115E-01-3.30123E+00
 -1      2479-1.31440E+01-1.31368E+01-8.30275E+00-1.13106E+00 2.96329E+00 2.59003E+00
 -1      2480-3.16124E+00-1.10763E+00-5.19302E+00-2.38339E-02-2.27872E+00 1.21433E+00
 -1      2481-6.22234E+00-1.15581E+01-8.13201E+00-1.96249E+00 7.02655E-01-3.36940E+00
 -1      2482-7.54305E+00-5.70219E+00-5.83152E+00-5.11830E-02 2.58044E+00 2.99875E+00
 -1      2483 2.57722E+00 2.16044E+00-1.28739E+00 7.16461E-01 1.10959E+00 2.17267E+00
 -1      2484-9.19160E+00-5.49477E+00-5.54869E+00-2.21180E-01-1.42361E+00 8.41563E-01
 -1      2485-6.92840E+00-2.92006E+00-3.58877E+00-1.00285E+00-1.95669E+00 1.94177E+00
 -1      2486 4.65310E-01 1.64411E+00-3.56790E+00-3.54845E-01-2.53621E+00-2.03498E+00
 -1      2487-2.41273E+00-1.89327E+00-3.33206E+00 8.06581E-01-1.87571E+00 9.51797E-02
 -1      2488-2.89911E+00-1.66953E-01-3.48993E+00 4.91128E-01-1.20062E+00 8.46194E-01
 -1      2489 2.15698E+00-9.72540E-01-4.06563E-02 1.53891E+00-8.05475E-02 3.57262E+00
 -1      2490-3.14103E+00-2.57128E+00-5.02035E+00 1.02604E+00-3.15799E+00-6.52876E-01
 -1      2491-2.07287E+00-2.95626E+00-2.45298E+00 5.93367E-01-3.66086E+00-2.10922E+00
 -1      2492-1.09417E+01-1.16718E+01-1.03206E+01-1.33513E+00 9.05809E-01-4.12848E+00
 -1      2493-1.29704E+01-1.11074E+01-5.62189E+00 3.08584E-01 1.75526E-01-1.27515E+00
 -1      2494-5.03591E+00-4.72962E+00-6.52317E+00 1.20323E+00 2.16663E+00 3.85998E-01
 -1      2495-1.80174E+00-2.99822E+00-2.01639E+00 7.87189E-01-4.14162E-01 1.89783E+00
 -1      2496-1.04569E+00-6.52320E-01-3.62473E+00 6.81688E-01 4.92173E-01-1.72012E+00
 -1      2497-4.23271E+01-3.17598E+01-1.57284E+01-2.86016E+00 8.27147E-01-1.83444E+00
 -1      2498-7.59106E+00-6.40863E+00-8.15765E+00-1.00991E+00 1.98661E+00-1.66185E+00
 -1      2499-2.61636E+00-1.91057E+00-2.00249E+00 4.78003E-01-1.69752E+00-2.88966E-01
 -1      2500-3.24940E+00-6.12626E+00-6.27856E+00-1.42135E-01-1.23890E+00-3.38190E+00
 -1      2501-2.56660E+01-2.90163E+01-8.58126E+00 2.82401E-01-3.12699E+00-1.79794E+00
 -1      2502-4.29132E+00 1.02861E-02 2.04100E+00-8.61428E-01 3.05839E+00 2.64563E-01
 -1      2503-1.89970E+01-2.00363E+01-8.54701E+00-1.03429E+00 4.25779E-01-4.11349E+00
 -1      2504-2.55693E+01-3.01139E+01-1.27002E+01-1.81058E+00-1.74618E+00 3.21676E-01
 -1      2505 4.27430E-01 2.66286E-01-1.91162E+00 1.43203E+00-1.95450E+00-1.27243E+00
 -1      2506-1.83195E+01-1.48640E+01-5.10050E+00 1.79804E+00-1.65497E+00 5.15757E-01
 -1      2507-8.98025E+00-6.78675E+00-4.68591E+00 9.47066E-01 1.20610E+00 1.67265E+00
 -1      2508-2.91531E+01-3.40546E+01-1.76866E+01-3.84702E+00 3.27805E-01 1.39276E+00
 -1      2509-2.72802E+01-2.88036E+01-1.73785E+01-1.45507E+00 1.59963E+00-3.12986E+00
 -1      2510-5.47619E+00-5.82987E+00-2.38266E+00-5.15803E-01-2.14312E+00-1.97975E+00
 -1      2511-3.29770E+00-2.55974E+00-4.61031E+00-1.63711E+00-1.06613E+00 1.15425E+00
 -1      2512-4.31887E+01-4.67440E+01-2.12967E+01 6.53284E-01-3.32577E+00 1.96264E+00
 -1      2513-2.58092E+00-4.04192E-02-3.01308E+00-4.85568E-01 2.00491E+00 6.92274E-02
 -1      2514 1.48869E-01 1.70933E-01 9.94252E-01-1.13728E+00-2.86535E+00 4.80362E-01
 -1      2515-4.10747E-01 8.42068E-01-1.74141E+00 3.60835E-01 3.31148E+00 1.28791E-01
 -1      2516-5.76177E+00-4.44309E+00-5.02567E+00 6.45688E-01 2.94346E+00 3.71541E+00
 -1      2517-2.32987E+01-2.35530E+01-1.00569E+01 4.13865E+00 1.74152E+00 2.32060E+00
 -1      2518-8.18213E+00-6.43950E+00-3.70930E+00 1.14722E+00 2.61050E+00 2.14289E+00
 -1      2519-6.90423E+00-5.66334E+00-2.61032E+00 1.89980E-01-3.72344E+00 4.66426E-01
 -1      2520-1.73187E+01-1.29661E+01-6.64713E+00-3.53921E+00-2.16644E+00 1.17940E+00
 -1      2521-1.12889E+01-1.21634E+01-9.06997E+00 4.88468E-01-3.17364E+00-1.57343E+00
 -1      2522-9.58510E+00-6.53542E+00-5.98856E+00-1.16120E+00-2.73944E+00 7.51612E-01
 -1      2523-8.66294E+00-1.14582E+01-6.31123E+00 1.59152E+00-8.96706E-01 3.81375E+00
 -1      2524-6.89837E+00-7.40330E+00-6.77119E+00 1.15162E+00-2.71321E+00-1.99052E+00
 -1      2525 1.77871E-01 1.31584E+00 3.34010E+00-4.81810E-01-2.64605E+00 7.86721E-01
 -1      2526-9.88162E-01-1.20077E+00-4.61116E+00 1.91594E-01-1.43589E+00-1.35448E+00
 -1      2527-5.22404E+00-7.39715E+00-7.91788E+00 1.14065E+00 1.61662E-01 3.18935E+00
 -1      2528-2.98659E+01-3.48719E+01-7.02414E+00-1.99186E+00-3.68534E-01 2.74870E-02
 -1      2529-3.10983E+01-3.33582E+01-1.91834E+01-1.09737E-02 4.44888E-02-4.44717E-01
 -1      2530-2.69402E+01-2.70010E+01-7.26484E+00 1.69124E+00-6.74484E-01-1.24218E+00
 -1      2531-3.93851E+01-4.06076E+01-1.30920E+01-8.02076E-01-1.13533E+00-1.14964E+00
 -1      2532-1.39501E-01-4.46253E-01-1.44341E+00-1.76431E+00-2.58016E+00 3.10554E+00
 -1      2533-2.06705E+01-2.06704E+01-9.66996E+00-1.56349E+00-2.82600E+00 1.88306E+00
 -1      2534-1.74126E+01-1.86996E+01-5.59443E+00 3.56768E-01 4.09817E-01 1.11014E-02
 -1      2535-1.49050E+01-1.18616E+01-5.95987E+00 2.09769E-01-1.86355E+00-1.11136E-01
 -1      2536-3.27714E+01-3.29115E+01-7.90288E+00-1.04309E+00 4.14018E+00 8.98359E-01
 -1      2537-1.20700E+01-1.12666E+01-6.99059E+00-3.55091E+00 2.10385E+00-1.52895E+00
 -1      2538-1.62019E+01-1.45095E+01-5.84755E+00-1.76951E+00 3.03862E+00-1.45507E+00
 -1      2539-2.94755E+01-3.28464E+01-1.05759E+01 4.16481E+00-3.31374E+00 1.21973E+00
 -1      2540-1.87601E+01-1.92472E+01-1.09018E+00-1.64502E+00 1.21190E+00-2.60693E+00
 -1      2541-1.26212E+01-1.34719E+01-4.29966E+00 3.26512E-01-3.97838E-01 9.24477E-01
 -1      2542-4.14784E+01-4.28813E+01-2.21190E+01 3.45332E+00-4.23927E-01 6.93016E-01
 -1      2543-1.75165E+01-1.91934E+01-1.50512E+01-3.48950E+00 6.56002E-01-8.96334E-01
 -1      2544-2.99346E+01-2.91882E+01-1.11306E+01-1.37304E+00-3.40363E-01-9.96617E-01
 -1      2545 6.07233E+00 1.49527E+00-7.17026E-01-1.51024E+00-2.57458E+00 4.15894E+00
 -1      2546-8.60895E+00-5.96149E+00-4.34129E+00 1.76948E+00 3.55642E+00 4.02196E-01
 -1      2547-4.50762E+01-4.94266E+01-1.80317E+01-8.85243E-01 5.65876E+00 3.76698E+00
 -1      2548-2.05253E+01-2.27489E+01-7.06827E+00-1.32541E+00-1.86083E+00-1.00642E+00
 -1      2549-4.13351E+01-4.17075E+01-1.39646E+01-3.00222E+00-1.66562E+00-3.91852E-01
 -1      2550-1.38037E+01-1.38762E+01-5.78012E+00-2.50001E+00 9.37019E-01-1.69660E+00
 -1      2551-4.19049E+01-3.91169E+01-1.74686E+01-2.42247E+00-2.33435E-01-8.71613E-01
 -1      2552-3.03255E+01-2.43825E+01-8.84605E+00 1.91567E+00-1.17810E+00-9.96841E-02
 -1      2553-9.87117E+00-7.59297E+00 1.36603E+00 4.84360E-01-2.43610E+00 8.73310E-01
 -1      2554-5.66957E+01-7.01396E+01-3.59458E+01 1.03075E+00-2.38945E+00 5.82769E+00
 -1      2555-2.06159E+01-2.09787E+01-8.09486E+00-1.10454E+00-1.17730E-02-1.75917E+00
 -1      2556-5.77424E+01-4.83539E+01-2.27138E+01-4.28376E+00-7.96772E-01-1.10754E+00
 -1      2557-4.39746E+01-3.77608E+01-1.37551E+01 5.00504E-01-5.84147E-01 2.92932E+00
 -1      2558-3.74152E+01-3.79459E+01-1.99506E+01-2.12560E-01 5.53385E-01 2.39242E+00
 -1      2559-2.82634E+01-3.82298E+01-1.31798E+01 2.25778E+00-1.43496E+00-1.93512E-02
 -1      2560-3.31128E+01-3.78169E+01-1.58879E+01 6.22867E-01-2.19433E+00-2.12235E+00
 -1      2561-4.05160E+01-3.67496E+01-1.25933E+01-4.38612E+00-1.10373E+00-1.96665E-01
 -1      2562-4.48466E+01-4.90289E+01-2.95185E+01-7.04260E+00-2.76888E+00 1.84603E+00
 -1      2563-1.70424E+01-1.82473E+01-1.17761E+01-1.09568E+00 1.65995E-01 8.99893E-02
 -1      2564-2.97693E+01-3.61580E+01-1.44096E+01 4.60058E-01 2.38590E+00-2.25846E+00
 -1      2565-7.18874E+01-7.29825E+01-3.74499E+01 2.64650E-01 9.76271E+00 8.79124E+00
 -1      2566-8.89952E+00-8.09725E+00-2.86848E+00-8.35533E-01-2.76734E+00 1.25026E+00
 -1      2567-2.17568E+01-2.54111E+01-1.21942E+01-1.99928E+00 8.72774E-01 2.29211E-01
 -1      2568-3.09278E+01-3.00008E+01-1.61942E+01 9.34954E-01-1.02502E+00-9.46366E-01
 -1      2569-5.76649E+01-6.24653E+01-2.50951E+01-1.74684E+00-5.53908E+00-1.04114E+00
 -1      2570-8.91873E+00-5.65549E+00 4.41783E-01-1.30014E+00-3.14690E+00 2.56992E+00
 -1      2571-4.70681E+01-4.76610E+01-2.79096E+01-3.70581E+00-2.95752E+00 4.64298E+00
 -1      2572-3.58799E+01-3.79682E+01-2.16282E+01-5.05687E-01-2.42164E-01 8.66448E-01
 -1      2573-3.88671E+01-4.02209E+01-2.53142E+01 1.65846E+00-1.78790E+00 7.23309E-01
 -1      2574-4.21530E+01-3.59661E+01-1.77933E+01 3.14981E+00 2.28456E+00-2.29508E+00
 -1      2575-4.55476E+01-5.21792E+01-2.44077E+01-3.21492E+00-3.03935E+00-1.41519E+00
 -1      2576-1.12780E+01-1.07126E+01-3.29096E+00 4.05487E-01 3.08297E+00 2.45192E+00
 -1      2577-3.54545E+01-3.54781E+01-1.55624E+01-3.75482E-01-1.63901E-01 1.16952E+00
 -1      2578-4.48801E+01-3.74013E+01-1.71082E+01 1.04441E+00 5.33395E+00-1.80407E-01
 -1      2579-2.77999E+01-2.99707E+01-2.56938E+00-2.42635E-01-2.06190E+00 1.28778E+00
 -1      2580-2.96513E+01-3.19924E+01-1.50839E+01 3.23607E+00-2.74626E+00 1.14165E+00
 -1      2581-6.61276E+01-5.44411E+01-3.37775E+01 4.77572E+00 7.22246E+00-4.85227E+00
 -1      2582-1.50737E+01-1.54457E+01-5.61530E+00-4.45590E-01 2.36381E+00 2.49501E+00
 -1      2583-5.84114E+01-5.48023E+01-3.20699E+01 4.29252E+00-1.49444E+00-2.87082E+00
 -1      2584-4.78184E+01-6.17418E+01-2.77427E+01 2.70192E+00-1.28731E+00-2.53785E+00
 -1      2585-2.48517E+01-2.46648E+01-7.56774E+00 1.68853E+00-8.86302E-01 1.49144E+00
 -1      2586-3.42337E+01-3.59619E+01-1.66394E+01 1.55523E+00-5.95667E-01 2.25095E+00
 -1      2587-3.83426E+01-3.74331E+01-9.70983E+00-1.70109E+00-2.89399E+00 6.35691E+00
 -1      2588-6.92170E+01-5.85605E+01-2.83208E+01-7.00270E+00-6.71752E+00-1.62368E+00
 -1      2589-2.98019E+01-2.62641E+01-1.07620E+01 1.03457E+00 1.64275E+00 2.48913E+00
 -1      2590-2.12971E+01-1.70545E+01-3.51887E+00 9.43958E-01 1.25818E-01-1.49145E+00
 -1      2591-1.96629E+01-2.46352E+01-5.00563E+00 7.91280E-01-1.30137E+00-2.53581E+00
 -1      2592-3.62511E+01-3.42491E+01-1.25005E+01-2.30563E+00-6.54912E-01 3.05153E-01
 -1      2593-2.91038E+01-2.82586E+01-9.84429E+00 1.20647E+00 9.76194E-01 8.52295E-01
 -1      2594-2.41217E+01-2.74068E+01-1.01672E+01 2.90626E-01 2.21953E+00 1.75419E+00
 -1      2595-2.15713E+01-2.19360E+01-4.07170E+00-1.40263E+00-8.98793E-01 6.12265E-01
 -1      2596-9.43909E+00-9.17198E+00-6.67352E+00 9.23598E-01-2.33323E+00-8.57039E-01
 -1      2597-3.62171E+01-3.51800E+01-8.49029E+00-1.05964E+00-7.70166E-01-1.01812E+00
 -1      2598-3.35872E+01-3.90573E+01-2.27895E+01-3.57089E+00 3.42086E-01 6.95688E+00
 -1      2599-2.66662E+01-2.53165E+01-7.86509E+00 5.63134E-01 1.20353E+00 2.12717E+00
 -1      2600-5.24210E+01-5.12318E+01-1.92990E+01-7.76363E-01-5.48511E+00-4.96125E+00
 -1      2601-5.91107E+01-6.83017E+01-4.10042E+01-9.67712E+00-8.01057E+00 3.67118E+00
 -1      2602-6.03467E+01-6.51598E+01-3.41198E+01 7.73402E+00-1.67059E+00-4.26814E+00
 -1      2603-5.82071E+01-5.51817E+01-2.14232E+01 6.59874E-01-1.45548E+00 1.05523E+01
 -1      2604-4.06944E+01-4.47196E+01-2.09751E+01-1.21444E-02 1.78739E+00 1.81429E+00
 -1      2605-2.94365E+01-3.11813E+01-9.93883E+00-1.51538E+00-9.82900E-01 4.42504E+00
 -1      2606-1.92185E+01-1.63962E+01-3.04346E+00-1.09829E+00-3.35120E+00 9.67014E-01
 -1      2607-2.14365E+01-2.25880E+01-4.21825E+00-3.44955E-01 2.22949E-01-1.60163E+00
 -1      2608-8.56291E+01-8.75859E+01-4.41920E+01-5.56334E+00-1.19977E+01-2.20347E+00
 -1      2609-2.69227E+01-2.29555E+01-7.80326E+00-1.08556E+00-1.94169E+00 2.41148E-01
 -1      2610-5.16160E+01-7.21515E+01-3.19475E+01 4.19409E+00 5.01638E-01-5.13428E+00
 -1      2611-4.10998E+01-4.36107E+01-1.18945E+01-1.41015E-01-1.86400E+00 1.03295E+00
 -1      2612-1.73122E+01-1.83791E+01-6.64242E+00-9.97004E-01 1.86791E+00-1.35163E+00
 -1      2613-5.41671E+00-8.80400E+00-4.16800E+00-5.12224E-01-7.45640E-01-3.36036E+00
 -1      2614-2.14506E+01-2.23159E+01-6.35419E+00-2.57009E-01 9.62932E-01-8.91380E-01
 -1      2615-2.98391E+01-2.61870E+01-3.63618E+00 1.41213E-02-1.85148E+00-1.27731E-01
 -1      2616-3.24011E+01-3.02001E+01-5.15003E+00 1.13767E+00-1.39090E+00-5.78965E-01
 -1      2617-7.31116E+00-6.09688E+00-1.51368E+00-9.55559E-01-3.03943E+00-1.64657E+00
 -1      2618-3.55160E+01-3.12885E+01-1.26986E+01 3.43760E-01 3.06632E+00-1.47572E+00
 -1      2619-6.99096E+01-6.46308E+01-3.65879E+01-3.30737E+00 4.04332E+00-2.01505E+00
 -1      2620-3.59381E+01-3.72067E+01-6.70628E+00-1.00435E+00 2.81672E+00-6.06240E-01
 -1      2621-2.16026E+01-1.89130E+01-2.68737E+00-9.25738E-01 7.29454E-01 2.74347E+00
 -1      2622-4.11538E+01-3.57761E+01-1.81654E+01 3.76981E+00-2.44351E+00-3.41150E-01
 -1      2623-1.57903E+01-1.40168E+01-4.11669E+00 1.32926E+00 1.61480E+00 1.11811E+00
 -1      2624-5.24737E+01-5.41429E+01-2.70131E+01-3.76988E+00 4.16864E-02-1.32159E+00
 -1      2625-5.26855E+01-5.07376E+01-2.33136E+01-1.41305E+00 6.67904E-01-6.19803E+00
 -1      2626-5.86352E+01-5.58512E+01-3.73735E+01-3.81138E+00-1.80909E+00-1.34539E+00
 -1      2627-3.11620E+01-3.03794E+01-1.24638E+01-2.18520E+00 6.47142E-01 4.43492E+00
 -1      2628-2.65651E+01-2.89831E+01-1.13396E+01 1.66837E+00-4.51383E-01-2.44282E+00
 -1      2629-4.98454E+01-4.26015E+01-1.17564E+01 2.58413E-01-4.14671E+00-5.55729E+00
 -1      2630-4.44443E+01-4.83485E+01-2.50565E+01 5.21549E+00-1.14881E-01 3.20898E+00
 -1      2631-3.53328E+01-4.03052E+01-1.54032E+01 8.30018E-01-5.44275E-01-3.11450E+00
 -1      2632-3.65966E+01-3.67296E+01-2.54347E+01-3.88194E+00-7.43870E+00 1.51531E+00
 -1      2633-1.20262E+01-1.62255E+01-6.21724E+00 1.65382E-01-5.38183E-01-1.58011E-01
 -1      2634-2.34624E+01-2.37369E+01-9.74377E+00 2.26286E+00-1.76249E+00 1.60341E+00
 -1      2635-5.48945E+01-6.69933E+01-4.16929E+01-2.06819E+00 1.48734E+00 8.26747E+00
 -1      2636-3.60176E+01-3.41029E+01-1.14086E+01 1.65672E+00-3.25719E+00-1.66715E+00
 -1      2637-7.34999E+01-6.82116E+01-3.40858E+01 1.89052E+00 1.22559E+01-1.24530E+00
 -1      2638-7.33868E+01-6.90089E+01-4.03720E+01 2.73913E+00-7.62558E+00-7.47190E+00
 -1      2639-3.70050E+01-3.70616E+01-2.17262E+01-1.12822E+00-8.22803E+00-1.62763E+00
 -1      2640-3.85870E+01-3.92052E+01-2.09678E+01 6.31029E-01-2.20577E+00-5.45521E+00
 -1      2641-5.63654E+01-6.44572E+01-2.99879E+01-3.18268E+00-2.56779E+00-4.39481E+00
 -1      2642-3.19541E+01-3.14804E+01-9.39358E+00-1.25176E+00 2.69484E-03-4.40631E+00
 -1      2643-3.71080E+01-3.67377E+01-1.11747E+01-9.55148E-01 1.01044E-01-2.04419E+00
 -1      2644-3.81509E+01-3.38629E+01-1.20627E+01 7.99415E-01 8.60624E-01-1.28939E-01
 -1      2645-5.40483E+01-5.14009E+01-1.97558E+01 4.04444E-01 1.57999E+00-4.72427E+00
 -1      2646-6.44894E+01-6.07077E+01-3.00277E+01 2.47604E+00-4.73331E+00-7.42594E+00
 -1      2647-2.19789E+01-1.78566E+01-7.49011E+00-7.79646E-01-1.94482E+00 2.04197E-02
 -1      2648-3.42362E+01-3.54416E+01-1.36533E+01-1.22627E+00-7.35119E-01-2.66892E+00
 -1      2649-5.97478E+01-5.77079E+01-3.86490E+01 5.83263E+00 2.11045E+00 4.16316E+00
 -1      2650-1.58363E+01-1.64423E+01 3.34457E+00-5.04444E-01 5.92505E-01-6.64469E-01
 -1      2651-3.66132E+01-3.56790E+01-1.29469E+01 1.09704E+00 9.00377E-01-5.56641E-01
 -1      2652-6.74268E+01-7.46889E+01-3.59729E+01-2.81818E+00 1.92812E-01-1.16465E+01
 -1      2653-4.39636E+01-3.36264E+01-1.91380E+01 3.68409E+00 6.01192E-01-1.00080E+00
 -1      2654-2.78737E+01-3.04416E+01-1.31327E+01 1.72228E+00-1.07552E+00 4.28302E+00
 -1      2655-3.62966E+01-4.54773E+01-2.19854E+01-6.69212E+00-3.99487E+00 6.82687E+00
 -1      2656-2.07644E+01-2.06958E+01-7.83848E+00 3.21407E-01 3.22216E-02-8.57969E-01
 -1      2657-6.65887E+01-6.94031E+01-3.70516E+01-5.33748E+00-9.28913E+00 9.77721E+00
 -1      2658-6.94998E+00-6.37880E+00-1.14537E+00-2.80555E-01-1.66338E+00-2.02558E+00
 -1      2659-6.27652E+01-4.89114E+01-3.09289E+01 5.24473E+00-3.26549E+00 3.83314E-01
 -1      2660-3.54914E+01-3.18760E+01-1.41285E+01-2.50268E+00 2.25405E-01-1.97179E-01
 -1      2661-3.50614E+01-3.05928E+01-1.29584E+01 1.61562E+00-1.68364E+00 6.21898E-01
 -1      2662-3.76485E+01-4.04242E+01-1.91774E+01-3.37022E-01 1.91028E+00 5.72109E+00
 -1      2663-1.39649E+01-1.59911E+01-2.58252E+00 7.38340E-01-7.08554E-03-5.24836E+00
 -1      2664-6.38868E+01-6.16601E+01-2.29561E+01 2.21189E+00-7.32857E+00 1.04967E-02
 -1      2665-1.13635E+01-9.20142E+00 2.89843E-02 2.25076E-01 2.53667E+00 1.54584E+00
 -1      2666-7.42846E+01-7.29118E+01-3.87368E+01-9.30080E-01-1.06893E+00 1.52019E+01
 -1      2667-3.40365E+01-3.81777E+01-1.56299E+01-1.25213E+00-8.05420E-01 5.08165E+00
 -1      2668-8.38576E+01-6.74757E+01-4.54347E+01 6.22612E+00-8.81122E+00 2.40092E-01
 -1      2669-6.58606E+01-6.71367E+01-4.08288E+01-3.70339E+00-5.94233E+00 1.36961E+00
 -1      2670-3.64237E+01-4.16460E+01-2.34550E+01-4.24186E-01 8.98158E-02 6.83536E+00
 -1      2671-2.21616E+01-2.02587E+01-7.93665E+00 6.25201E-01-7.06595E+00 7.42062E-01
 -1      2672-5.45170E+01-5.35523E+01-1.80083E+01-2.73178E+00-2.54650E+00 1.02861E+01
 -1      2673-5.02686E+01-5.55496E+01-2.32025E+01 6.05042E-01 4.21388E+00 4.13989E+00
 -1      2674-6.42812E+01-6.64542E+01-3.05171E+01-8.52525E+00 1.70276E+00-4.00238E+00
 -1      2675-2.69286E+01-2.74825E+01-1.22567E+01 1.96453E+00-1.63000E+00 3.74143E-01
 -1      2676-1.35123E+01-1.44193E+01-3.79657E+00-6.41708E-01 5.21469E-01-5.10045E+00
 -1      2677-3.07941E+01-3.08282E+01-1.30131E+01-2.57983E+00 2.17524E+00-1.51033E+00
 -1      2678-3.83319E+01-4.55266E+01-6.57454E+00-7.07095E-01-1.11654E+00 2.94020E-01
 -1      2679-1.75956E+01-1.65380E+01-6.57392E+00-5.44705E-01 4.11892E+00 5.74630E+00
 -1      2680-3.74499E+01-4.54492E+01-1.52978E+01 5.83778E+00-6.29683E+00 9.03926E-01
 -1      2681-5.35577E+01-6.13602E+01-3.28425E+01 8.31632E+00 1.69427E+00 6.57073E+00
 -1      2682-1.46786E+01-1.66619E+01-5.59962E+00 3.91732E-01-6.00744E-01-5.95270E+00
 -1      2683-7.65552E+01-8.25819E+01-4.28828E+01-1.22403E+00 2.81200E-01 1.39566E+01
 -1      2684-3.25485E+01-2.98775E+01-9.41295E+00-4.42769E-01-8.15055E-01-1.22012E+00
 -1      2685-2.65364E+01-2.50086E+01-5.90428E+00 7.40287E-01-2.18883E-02-4.11214E-01
 -1      2686-8.40053E+01-8.08846E+01-3.55078E+01-6.86968E-01 4.59443E+00-1.03902E+01
 -1      2687-1.73943E+01-1.75281E+01-5.76275E+00 6.72129E-01 3.90065E+00-1.56455E+00
 -1      2688-4.91263E+01-4.54576E+01-1.36514E+01-1.47224E+00 5.48519E+00 1.08864E-02
 -1      2689-1.80008E+01-1.67682E+01-7.27857E+00 5.27766E-02-6.50952E-01 1.67954E+00
 -1      2690-2.06957E+01-2.22972E+01-7.95238E+00-9.41020E-01-4.64287E+00 6.75719E+00
 -1      2691-7.17779E+01-5.58832E+01-3.17825E+01-1.65086E+00 2.02297E+00 1.04864E+00
 -1      2692-4.10563E+01-3.83879E+01-2.04472E+01 2.52959E+00 3.73966E+00 2.87009E+00
 -1      2693-1.60024E+01-1.78968E+01-8.28724E+00 3.38486E-01 2.85301E+00 6.70873E+00
 -1      2694-6.98310E+00-8.80894E+00-3.54020E+00 2.15884E+00 3.28557E-01 3.70504E+00
 -1      2695-2.61380E+01-2.08881E+01-9.06938E+00 2.33291E+00 7.15766E-01 1.33036E+00
 -1      2696-1.92073E+01-1.86835E+01-9.08560E+00-4.26483E-01-6.11128E+00 2.61287E+00
 -1      2697-8.87470E+01-9.01788E+01-5.52782E+01 1.92773E+00 8.64679E+00 1.25499E+01
 -1      2698-4.61302E+01-4.66544E+01-2.64432E+01 4.07599E+00 1.80998E+00-8.23744E+00
 -1      2699-3.37423E+01-2.86824E+01-1.25165E+01-6.25343E-01 6.02936E+00-2.62577E+00
 -1      2700-7.54489E+01-7.11829E+01-3.21527E+01-1.90549E-01 1.10655E+01-8.82400E-01
 -1      2701-3.28028E+01-3.11185E+01-8.43092E+00-6.12586E-01 1.65172E+00-6.31977E-02
 -1      2702-1.61187E+01-1.99172E+01-3.81473E+00 7.91003E-01-6.52060E-01-2.49688E-01
 -1      2703-5.00224E+01-4.87720E+01-1.50998E+01 8.21848E-01-5.99037E-01-7.07683E+00
 -1      2704-4.51385E+01-3.62470E+01-1.68406E+01 2.28428E+00-5.56049E+00 1.89524E+00
 -1      2705-5.04970E+01-5.38718E+01-2.72067E+01 1.64211E+00-1.18436E+01 1.83528E+00
 -1      2706-4.98195E+01-4.26634E+01-1.68905E+01-1.81760E+00 2.94315E+00-7.75948E+00
 -1      2707-2.89288E+01-2.92864E+01-1.92976E+01 6.39589E-01-6.99142E+00-1.01931E+01
 -1      2708-4.45835E+01-4.16025E+01-1.72243E+01-2.92836E+00 5.08937E+00-2.87492E+00
 -1      2709-1.79791E+01-1.73028E+01-7.51538E+00 1.91736E-01-4.69083E+00 5.73239E+00
 -1      2710-6.54551E+01-7.27503E+01-3.67796E+01 2.30195E+00-9.74174E-01-1.08505E+01
 -1      2711-4.26399E+01-3.48126E+01-1.55666E+01 3.82639E+00-3.57868E+00-6.84301E-01
 -1      2712-4.29286E+01-5.27010E+01-2.06803E+01 2.13804E+00-6.05122E+00-1.13897E-01
 -1      2713-5.17772E+01-6.01082E+01-2.13573E+01 3.65805E+00-1.07062E+01 4.97803E+00
 -1      2714-2.64582E+01-2.34380E+01-1.07065E+01 2.17002E-02 5.35473E+00-3.36020E+00
 -1      2715-3.61193E+01-2.94593E+01-8.82872E+00 2.49119E+00 3.63590E+00-8.63201E-01
 -1      2716-2.84913E+01-3.68813E+01-1.20390E+01 1.27614E+00-1.64872E+00-4.63077E+00
 -1      2717-2.97455E+01-3.47350E+01-1.02144E+01-1.80537E-01 7.02260E-01 1.22272E+00
 -1      2718-7.85966E+01-8.01492E+01-3.95764E+01-2.79968E+00-1.37558E+01 6.58917E+00
 -1      2719-2.12957E+01-2.22047E+01-1.14268E+01-1.22592E+00-2.15009E+00-6.23661E+00
 -1      2720-2.26301E+01-2.03996E+01-6.33571E+00 6.82601E-01 2.32629E+00-3.68886E+00
 -1      2721-3.35078E+01-3.22919E+01-5.75154E+00-1.21476E+00-7.66982E-01-4.91289E-01
 -1      2722-3.26524E+01-3.08957E+01-4.15058E+00 1.07594E+00-1.52154E+00-2.68832E+00
 -1      2723-3.45278E+01-3.48297E+01-2.32909E+01 2.35523E+00 1.91504E+00 7.81744E+00
 -1      2724-6.28593E+01-6.28075E+01-2.04166E+01 8.79318E-01 7.50012E+00-4.59562E+00
 -1      2725-1.59178E+01-1.58390E+01-6.23629E+00 1.02976E+00 2.46717E+00 3.99874E+00
 -1      2726-3.10738E+01-3.10980E+01-1.34658E+01-3.78890E+00-1.06590E+00-1.69455E+00
 -1      2727-3.98926E+01-3.36568E+01-6.94868E+00 4.78225E-01 2.43935E+00 1.18846E+00
 -1      2728-2.10052E+01-2.07709E+01-6.58496E+00 2.19618E-01-1.32862E+00 2.37185E-01
 -1      2729-4.17587E+01-4.56255E+01-1.81686E+01 7.03029E-01-5.14823E+00 5.86506E+00
 -1      2730-2.82832E+01-2.97810E+01-6.75807E+00-1.72505E+00 1.40623E-01-7.28113E-03
 -1      2731-1.40290E+01-1.16006E+01-2.79634E+00 2.94602E-01 4.96732E+00 9.47823E-01
 -1      2732-1.73635E+01-1.72001E+01-6.83873E+00 2.88820E-01 8.20570E-02-9.10737E-01
 -1      2733-4.33745E+01-3.72012E+01-1.83918E+01-2.87279E+00 3.82395E+00-3.83361E+00
 -1      2734-1.75146E+01-2.06067E+01-4.07055E+00 3.99521E-01-2.09586E+00-9.34035E-01
 -1      2735-4.12912E+01-4.05536E+01-1.26628E+01-1.87672E+00-1.29800E-01-3.38675E+00
 -1      2736-9.06693E+01-8.51129E+01-4.82972E+01-3.99230E+00 1.25380E+01-8.11638E+00
 -1      2737-1.86182E+01-1.77274E+01-7.85428E+00 4.64805E-01 7.18787E+00-1.81784E-01
 -1      2738-2.83797E+01-2.55089E+01-8.41411E+00-8.91440E-02 8.79803E+00 6.23041E+00
 -1      2739-2.84892E+01-2.45664E+01-1.55467E+01 5.16059E-01-9.01228E+00 6.15358E+00
 -1      2740-4.50629E+01-3.99871E+01-1.64512E+01 3.46495E+00 5.33363E-01-1.94351E+00
 -1      2741-2.44029E+01-2.06296E+01-7.36139E+00 8.60456E-01 4.41438E+00 7.95983E+00
 -1      2742-4.23507E+01-3.91978E+01-8.58751E+00-2.38045E+00 1.10147E+00 1.89425E+00
 -1      2743-2.14742E+01-2.12446E+01-8.21488E+00-1.01376E+00 8.14302E+00-6.13497E+00
 -1      2744-2.68103E+01-2.77541E+01-1.42012E+01-7.00349E-01-3.95356E+00-1.13411E+01
 -1      2745-2.28943E+01-2.14396E+01-1.44050E+01 1.17952E+00-4.13180E+00-6.64147E+00
 -3
 9999
