    1C
    1U meshsolid_t.inp                                                  
    1UUSER                                                              
    1UDATE              04.july.2016                                    
    1UTIME              10:52:13                                        
    1UHOST                                                              
    1UPGM               CalculiX                                        
    1UVERSION           Version 2.10                             
    1UCOMPILETIME       Sa 5. MÃ¤r 12:23:33 CET 2016                    
    1UDIR                                                               
    1UDBN                                                               
    1UMAT    1PDMS                                                      
    2C                          3097                                     1
 -1         1 2.63013E+00-4.74999E-01 1.70000E+00
 -1         2 2.63013E+00 4.74999E-01 1.70000E+00
 -1         3 9.21869E+00 9.50000E-01 1.70000E+00
 -1         4 9.21869E+00-4.74999E-01 1.70000E+00
 -1         5 5.98657E+00 9.50000E-01 1.70000E+00
 -1         6 5.98657E+00 4.74999E-01 1.70000E+00
 -1         7 9.21869E+00-9.50000E-01 1.70000E+00
 -1         8 5.98657E+00-9.50000E-01 1.70000E+00
 -1         9 1.25751E+01 4.74999E-01 1.70000E+00
 -1        10 9.21869E+00 4.74999E-01 1.70000E+00
 -1        11 1.25751E+01-4.74999E-01 1.70000E+00
 -1        12 1.25751E+01 4.74999E-01 3.49999E-01
 -1        13 9.21869E+00 4.74999E-01 3.49999E-01
 -1        14 5.98657E+00 4.74999E-01 3.49999E-01
 -1        15 5.98657E+00-4.74999E-01 1.70000E+00
 -1        16 5.98657E+00-4.74999E-01 3.49999E-01
 -1        17 9.21869E+00-4.74999E-01 3.49999E-01
 -1        18 5.98657E+00-9.50000E-01 3.49999E-01
 -1        19 8.69874E+00 3.08900E+00 1.70000E+00
 -1        20 1.14361E+01 5.25114E+00 1.70000E+00
 -1        21 8.88051E+00 2.65016E+00 1.70000E+00
 -1        22 8.33519E+00 3.96668E+00 1.70000E+00
 -1        23 5.89442E+00 1.41328E+00 1.70000E+00
 -1        24 8.15341E+00 4.40553E+00 1.70000E+00
 -1        25 1.14361E+01 5.25114E+00 3.49999E-01
 -1        26 1.17997E+01 4.37345E+00 1.70000E+00
 -1        27 5.34909E+00 2.72980E+00 1.70000E+00
 -1        28 2.24815E+00 1.44535E+00 1.70000E+00
 -1        29 5.34909E+00 2.72980E+00 3.49999E-01
 -1        30 2.61170E+00 5.67665E-01 1.70000E+00
 -1        31 5.71264E+00 1.85212E+00 1.70000E+00
 -1        32 5.71264E+00 1.85212E+00 3.49999E-01
 -1        33 8.69874E+00 3.08900E+00 3.49999E-01
 -1        34 8.15341E+00 4.40553E+00 3.49999E-01
 -1        35 8.33519E+00 3.96668E+00 3.49999E-01
 -1        36 5.16732E+00 3.16865E+00 1.70000E+00
 -1        37 6.85448E+00 6.18273E+00 1.70000E+00
 -1        38 6.18273E+00 6.85448E+00 1.70000E+00
 -1        39 8.55608E+00 9.22784E+00 3.49999E-01
 -1        40 8.55608E+00 9.22784E+00 1.70000E+00
 -1        41 6.18273E+00 6.85448E+00 3.49999E-01
 -1        42 1.52391E+00 2.19566E+00 3.49999E-01
 -1        43 3.89727E+00 4.56902E+00 3.49999E-01
 -1        44 1.52391E+00 2.19566E+00 1.70000E+00
 -1        45 2.19566E+00 1.52391E+00 1.70000E+00
 -1        46 9.22784E+00 8.55608E+00 1.70000E+00
 -1        47 4.56902E+00 3.89727E+00 1.70000E+00
 -1        48 3.56139E+00 4.90489E+00 1.70000E+00
 -1        49 3.89727E+00 4.56902E+00 1.70000E+00
 -1        50 7.19035E+00 5.84685E+00 1.70000E+00
 -1        51 5.84685E+00 7.19035E+00 1.70000E+00
 -1        52 4.90489E+00 3.56139E+00 1.70000E+00
 -1        53 4.90489E+00 3.56139E+00 3.49999E-01
 -1        54 5.84685E+00 7.19035E+00 3.49999E-01
 -1        55 2.65016E+00 8.88051E+00 1.70000E+00
 -1        56 3.96668E+00 8.33519E+00 1.70000E+00
 -1        57 3.08900E+00 8.69874E+00 1.70000E+00
 -1        58 2.72980E+00 5.34909E+00 1.70000E+00
 -1        59 1.44535E+00 2.24815E+00 1.70000E+00
 -1        60 4.37345E+00 1.17997E+01 1.70000E+00
 -1        61 5.25114E+00 1.14361E+01 1.70000E+00
 -1        62 4.37345E+00 1.17997E+01 3.49999E-01
 -1        63 1.85212E+00 5.71264E+00 1.70000E+00
 -1        64 5.67665E-01 2.61170E+00 1.70000E+00
 -1        65 1.44535E+00 2.24815E+00 3.49999E-01
 -1        66 5.25114E+00 1.14361E+01 3.49999E-01
 -1        67 1.85212E+00 5.71264E+00 3.49999E-01
 -1        68 3.16865E+00 5.16732E+00 1.70000E+00
 -1        69 4.40553E+00 8.15341E+00 1.70000E+00
 -1        70 1.41328E+00 5.89442E+00 1.70000E+00
 -1        71-4.74999E-01 9.21869E+00 1.70000E+00
 -1        72 4.74999E-01 1.25751E+01 1.70000E+00
 -1        73 4.74999E-01 5.98657E+00 1.70000E+00
 -1        74-4.74999E-01 1.25751E+01 1.70000E+00
 -1        75-4.74999E-01 1.25751E+01 3.49999E-01
 -1        76-4.74999E-01 2.63013E+00 3.49999E-01
 -1        77-4.74999E-01 2.63013E+00 1.70000E+00
 -1        78 4.74999E-01 2.63013E+00 1.70000E+00
 -1        79 4.74999E-01 1.25751E+01 3.49999E-01
 -1        80 4.74999E-01 9.21869E+00 3.49999E-01
 -1        81 9.50000E-01 5.98657E+00 3.49999E-01
 -1        82-9.50000E-01 5.98657E+00 3.49999E-01
 -1        83-9.50000E-01 5.98657E+00 1.70000E+00
 -1        84-4.74999E-01 5.98657E+00 1.70000E+00
 -1        85-4.74999E-01 5.98657E+00 3.49999E-01
 -1        86 9.50000E-01 9.21869E+00 3.49999E-01
 -1        87 4.74999E-01 9.21869E+00 1.70000E+00
 -1        88 9.50000E-01 9.21869E+00 1.70000E+00
 -1        89 9.50000E-01 5.98657E+00 1.70000E+00
 -1        90-9.50000E-01 9.21869E+00 1.70000E+00
 -1        91-1.44535E+00 2.24815E+00 1.70000E+00
 -1        92-1.85212E+00 5.71264E+00 1.70000E+00
 -1        93-2.65016E+00 8.88051E+00 1.70000E+00
 -1        94-2.72980E+00 5.34909E+00 1.70000E+00
 -1        95-3.96668E+00 8.33519E+00 1.70000E+00
 -1        96-3.08900E+00 8.69874E+00 1.70000E+00
 -1        97-3.16865E+00 5.16732E+00 1.70000E+00
 -1        98-5.25114E+00 1.14361E+01 1.70000E+00
 -1        99-4.40553E+00 8.15341E+00 1.70000E+00
 -1       100-4.37345E+00 1.17997E+01 1.70000E+00
 -1       101-4.37345E+00 1.17997E+01 3.49999E-01
 -1       102-3.96668E+00 8.33519E+00 3.49999E-01
 -1       103-5.67665E-01 2.61170E+00 1.70000E+00
 -1       104-1.85212E+00 5.71264E+00 3.49999E-01
 -1       105-1.41328E+00 5.89442E+00 1.70000E+00
 -1       106-2.65016E+00 8.88051E+00 3.49999E-01
 -1       107-3.16865E+00 5.16732E+00 3.49999E-01
 -1       108-2.19566E+00 1.52391E+00 1.70000E+00
 -1       109-1.52391E+00 2.19566E+00 3.49999E-01
 -1       110-6.85448E+00 6.18273E+00 1.70000E+00
 -1       111-9.22784E+00 8.55608E+00 1.70000E+00
 -1       112-3.89727E+00 4.56902E+00 1.70000E+00
 -1       113-3.56139E+00 4.90489E+00 1.70000E+00
 -1       114-6.18273E+00 6.85448E+00 1.70000E+00
 -1       115-4.56902E+00 3.89727E+00 1.70000E+00
 -1       116-1.52391E+00 2.19566E+00 1.70000E+00
 -1       117-8.55608E+00 9.22784E+00 1.70000E+00
 -1       118-9.22784E+00 8.55608E+00 3.49999E-01
 -1       119-3.89727E+00 4.56902E+00 3.49999E-01
 -1       120-3.56139E+00 4.90489E+00 3.49999E-01
 -1       121-4.90489E+00 3.56139E+00 1.70000E+00
 -1       122-4.56902E+00 3.89727E+00 3.49999E-01
 -1       123-6.18273E+00 6.85448E+00 3.49999E-01
 -1       124-5.84685E+00 7.19035E+00 1.70000E+00
 -1       125-7.19035E+00 5.84685E+00 3.49999E-01
 -1       126-6.85448E+00 6.18273E+00 3.49999E-01
 -1       127-7.19035E+00 5.84685E+00 1.70000E+00
 -1       128-2.61170E+00 5.67665E-01 1.70000E+00
 -1       129-1.14361E+01 5.25114E+00 1.70000E+00
 -1       130-1.17997E+01 4.37345E+00 1.70000E+00
 -1       131-8.33519E+00 3.96668E+00 1.70000E+00
 -1       132-5.16732E+00 3.16865E+00 1.70000E+00
 -1       133-5.34909E+00 2.72980E+00 1.70000E+00
 -1       134-2.24815E+00 1.44535E+00 1.70000E+00
 -1       135-1.14361E+01 5.25114E+00 3.49999E-01
 -1       136-1.17997E+01 4.37345E+00 3.49999E-01
 -1       137-5.34909E+00 2.72980E+00 3.49999E-01
 -1       138-8.33519E+00 3.96668E+00 3.49999E-01
 -1       139-5.71264E+00 1.85212E+00 1.70000E+00
 -1       140-5.71264E+00 1.85212E+00 3.49999E-01
 -1       141-5.89442E+00 1.41328E+00 1.70000E+00
 -1       142-8.88051E+00 2.65016E+00 3.49999E-01
 -1       143-8.69874E+00 3.08900E+00 1.70000E+00
 -1       144-8.88051E+00 2.65016E+00 1.70000E+00
 -1       145-8.15341E+00 4.40553E+00 1.70000E+00
 -1       146-8.15341E+00 4.40553E+00 3.49999E-01
 -1       147-5.98657E+00 4.74999E-01 1.70000E+00
 -1       148-5.98657E+00 9.50000E-01 1.70000E+00
 -1       149-9.21869E+00 4.74999E-01 1.70000E+00
 -1       150-9.21869E+00-4.74999E-01 1.70000E+00
 -1       151-2.63013E+00-4.74999E-01 1.70000E+00
 -1       152-5.98657E+00-4.74999E-01 1.70000E+00
 -1       153-1.25751E+01 4.74999E-01 1.70000E+00
 -1       154-1.25751E+01-4.74999E-01 1.70000E+00
 -1       155-2.63013E+00-4.74999E-01 3.49999E-01
 -1       156-2.63013E+00 4.74999E-01 1.70000E+00
 -1       157-9.21869E+00 4.74999E-01 3.49999E-01
 -1       158-9.21869E+00 9.50000E-01 1.70000E+00
 -1       159-5.98657E+00-9.50000E-01 1.70000E+00
 -1       160-9.21869E+00-9.50000E-01 1.70000E+00
 -1       161-5.98657E+00-9.50000E-01 3.49999E-01
 -1       162-2.61170E+00-5.67665E-01 1.70000E+00
 -1       163-5.34909E+00-2.72980E+00 1.70000E+00
 -1       164-5.89442E+00-1.41328E+00 1.70000E+00
 -1       165-5.71264E+00-1.85212E+00 1.70000E+00
 -1       166-8.69874E+00-3.08900E+00 1.70000E+00
 -1       167-8.33519E+00-3.96668E+00 1.70000E+00
 -1       168-8.88051E+00-2.65016E+00 1.70000E+00
 -1       169-1.17997E+01-4.37345E+00 1.70000E+00
 -1       170-1.14361E+01-5.25114E+00 1.70000E+00
 -1       171-5.34909E+00-2.72980E+00 3.49999E-01
 -1       172-2.24815E+00-1.44535E+00 1.70000E+00
 -1       173-2.24815E+00-1.44535E+00 3.49999E-01
 -1       174-8.69874E+00-3.08900E+00 3.49999E-01
 -1       175-5.71264E+00-1.85212E+00 3.49999E-01
 -1       176-5.16732E+00-3.16865E+00 1.70000E+00
 -1       177-8.33519E+00-3.96668E+00 3.49999E-01
 -1       178-8.15341E+00-4.40553E+00 1.70000E+00
 -1       179-4.56902E+00-3.89727E+00 1.70000E+00
 -1       180-4.90489E+00-3.56139E+00 1.70000E+00
 -1       181-3.56139E+00-4.90489E+00 1.70000E+00
 -1       182-6.85448E+00-6.18273E+00 1.70000E+00
 -1       183-7.19035E+00-5.84685E+00 1.70000E+00
 -1       184-6.18273E+00-6.85448E+00 1.70000E+00
 -1       185-8.55608E+00-9.22784E+00 3.49999E-01
 -1       186-8.55608E+00-9.22784E+00 1.70000E+00
 -1       187-1.52391E+00-2.19566E+00 1.70000E+00
 -1       188-2.19566E+00-1.52391E+00 1.70000E+00
 -1       189-9.22784E+00-8.55608E+00 1.70000E+00
 -1       190-6.85448E+00-6.18273E+00 3.49999E-01
 -1       191-4.90489E+00-3.56139E+00 3.49999E-01
 -1       192-3.89727E+00-4.56902E+00 1.70000E+00
 -1       193-3.56139E+00-4.90489E+00 3.49999E-01
 -1       194-5.84685E+00-7.19035E+00 1.70000E+00
 -1       195-5.84685E+00-7.19035E+00 3.49999E-01
 -1       196-1.44535E+00-2.24815E+00 1.70000E+00
 -1       197-1.44535E+00-2.24815E+00 3.49999E-01
 -1       198-3.96668E+00-8.33519E+00 1.70000E+00
 -1       199-5.67665E-01-2.61170E+00 1.70000E+00
 -1       200-2.72980E+00-5.34909E+00 1.70000E+00
 -1       201-4.37345E+00-1.17997E+01 1.70000E+00
 -1       202-5.25114E+00-1.14361E+01 1.70000E+00
 -1       203-5.67665E-01-2.61170E+00 3.49999E-01
 -1       204-1.85212E+00-5.71264E+00 3.49999E-01
 -1       205-5.25114E+00-1.14361E+01 3.49999E-01
 -1       206-3.16865E+00-5.16732E+00 1.70000E+00
 -1       207-1.41328E+00-5.89442E+00 3.49999E-01
 -1       208-1.41328E+00-5.89442E+00 1.70000E+00
 -1       209-1.85212E+00-5.71264E+00 1.70000E+00
 -1       210-3.08900E+00-8.69874E+00 1.70000E+00
 -1       211-2.65016E+00-8.88051E+00 1.70000E+00
 -1       212-3.16865E+00-5.16732E+00 3.49999E-01
 -1       213-4.40553E+00-8.15341E+00 1.70000E+00
 -1       214-4.74999E-01-2.63013E+00 1.70000E+00
 -1       215-9.50000E-01-9.21869E+00 1.70000E+00
 -1       216-4.74999E-01-5.98657E+00 1.70000E+00
 -1       217 4.74999E-01-2.63013E+00 1.70000E+00
 -1       218 4.74999E-01-9.21869E+00 1.70000E+00
 -1       219-4.74999E-01-1.25751E+01 1.70000E+00
 -1       220 4.74999E-01-1.25751E+01 1.70000E+00
 -1       221 4.74999E-01-5.98657E+00 1.70000E+00
 -1       222-4.74999E-01-9.21869E+00 3.49999E-01
 -1       223-4.74999E-01-5.98657E+00 3.49999E-01
 -1       224-9.50000E-01-5.98657E+00 1.70000E+00
 -1       225-4.74999E-01-9.21869E+00 1.70000E+00
 -1       226 9.50000E-01-9.21869E+00 3.49999E-01
 -1       227-9.50000E-01-5.98657E+00 3.49999E-01
 -1       228 9.50000E-01-5.98657E+00 3.49999E-01
 -1       229 9.50000E-01-5.98657E+00 1.70000E+00
 -1       230 9.50000E-01-9.21869E+00 1.70000E+00
 -1       231 5.67665E-01-2.61170E+00 3.49999E-01
 -1       232 5.25114E+00-1.14361E+01 1.70000E+00
 -1       233 3.08900E+00-8.69874E+00 1.70000E+00
 -1       234 1.85212E+00-5.71264E+00 1.70000E+00
 -1       235 1.44535E+00-2.24815E+00 1.70000E+00
 -1       236 2.65016E+00-8.88051E+00 1.70000E+00
 -1       237 3.96668E+00-8.33519E+00 1.70000E+00
 -1       238 3.96668E+00-8.33519E+00 3.49999E-01
 -1       239 2.72980E+00-5.34909E+00 1.70000E+00
 -1       240 5.67665E-01-2.61170E+00 1.70000E+00
 -1       241 4.37345E+00-1.17997E+01 3.49999E-01
 -1       242 4.37345E+00-1.17997E+01 1.70000E+00
 -1       243 1.85212E+00-5.71264E+00 3.49999E-01
 -1       244 1.41328E+00-5.89442E+00 1.70000E+00
 -1       245 1.41328E+00-5.89442E+00 3.49999E-01
 -1       246 3.16865E+00-5.16732E+00 3.49999E-01
 -1       247 3.16865E+00-5.16732E+00 1.70000E+00
 -1       248 2.72980E+00-5.34909E+00 3.49999E-01
 -1       249 2.65016E+00-8.88051E+00 3.49999E-01
 -1       250 4.40553E+00-8.15341E+00 1.70000E+00
 -1       251 4.40553E+00-8.15341E+00 3.49999E-01
 -1       252 4.56902E+00-3.89727E+00 1.70000E+00
 -1       253 2.19566E+00-1.52391E+00 1.70000E+00
 -1       254 1.52391E+00-2.19566E+00 1.70000E+00
 -1       255 7.19035E+00-5.84685E+00 1.70000E+00
 -1       256 6.85448E+00-6.18273E+00 1.70000E+00
 -1       257 6.18273E+00-6.85448E+00 1.70000E+00
 -1       258 8.55608E+00-9.22784E+00 1.70000E+00
 -1       259 9.22784E+00-8.55608E+00 3.49999E-01
 -1       260 9.22784E+00-8.55608E+00 1.70000E+00
 -1       261 6.85448E+00-6.18273E+00 3.49999E-01
 -1       262 3.89727E+00-4.56902E+00 1.70000E+00
 -1       263 8.55608E+00-9.22784E+00 3.49999E-01
 -1       264 3.89727E+00-4.56902E+00 3.49999E-01
 -1       265 3.56139E+00-4.90489E+00 3.49999E-01
 -1       266 4.90489E+00-3.56139E+00 3.49999E-01
 -1       267 4.90489E+00-3.56139E+00 1.70000E+00
 -1       268 4.56902E+00-3.89727E+00 3.49999E-01
 -1       269 6.18273E+00-6.85448E+00 3.49999E-01
 -1       270 5.84685E+00-7.19035E+00 1.70000E+00
 -1       271 7.19035E+00-5.84685E+00 3.49999E-01
 -1       272 3.56139E+00-4.90489E+00 1.70000E+00
 -1       273 2.61170E+00-5.67665E-01 1.70000E+00
 -1       274 5.71264E+00-1.85212E+00 1.70000E+00
 -1       275 8.33519E+00-3.96668E+00 1.70000E+00
 -1       276 1.17997E+01-4.37345E+00 1.70000E+00
 -1       277 1.14361E+01-5.25114E+00 1.70000E+00
 -1       278 1.14361E+01-5.25114E+00 3.49999E-01
 -1       279 8.69874E+00-3.08900E+00 1.70000E+00
 -1       280 2.24815E+00-1.44535E+00 1.70000E+00
 -1       281 5.34909E+00-2.72980E+00 1.70000E+00
 -1       282 5.34909E+00-2.72980E+00 3.49999E-01
 -1       283 5.16732E+00-3.16865E+00 3.49999E-01
 -1       284 5.16732E+00-3.16865E+00 1.70000E+00
 -1       285 8.33519E+00-3.96668E+00 3.49999E-01
 -1       286 8.15341E+00-4.40553E+00 1.70000E+00
 -1       287 8.88051E+00-2.65016E+00 1.70000E+00
 -1       288 8.69874E+00-3.08900E+00 3.49999E-01
 -1       289 8.88051E+00-2.65016E+00 3.49999E-01
 -1       290 5.89442E+00-1.41328E+00 1.70000E+00
 -1       291-1.66733E+01 3.31653E+00 3.49999E-01
 -1       292-1.70000E+01 0.00000E+00-3.49999E-01
 -1       293 3.31653E+00 1.66733E+01-3.49999E-01
 -1       294 1.41350E+01 9.44469E+00 3.49999E-01
 -1       295 1.41350E+01 9.44469E+00-3.49999E-01
 -1       296 1.66733E+01 3.31653E+00-3.49999E-01
 -1       297 1.66733E+01-3.31653E+00-3.49999E-01
 -1       298 1.41350E+01-9.44469E+00-3.49999E-01
 -1       299 1.57060E+01 6.50562E+00-3.49999E-01
 -1       300 9.44469E+00-1.41350E+01-3.49999E-01
 -1       301 1.20208E+01 1.20208E+01-3.49999E-01
 -1       302 9.44469E+00 1.41350E+01-3.49999E-01
 -1       303 6.50562E+00 1.57060E+01-3.49999E-01
 -1       304-3.31653E+00-1.66733E+01-3.49999E-01
 -1       305-6.50562E+00 1.57060E+01-3.49999E-01
 -1       306-9.44469E+00 1.41350E+01-3.49999E-01
 -1       307-1.20208E+01-1.20208E+01-3.49999E-01
 -1       308-1.20208E+01 1.20208E+01-3.49999E-01
 -1       309-1.41350E+01 9.44469E+00-3.49999E-01
 -1       310-1.57060E+01 6.50562E+00-3.49999E-01
 -1       311-1.66733E+01 3.31653E+00-3.49999E-01
 -1       312 1.57060E+01 6.50562E+00 3.49999E-01
 -1       313 3.31653E+00 1.66733E+01 3.49999E-01
 -1       314-1.41350E+01 9.44469E+00 3.49999E-01
 -1       315-8.69874E+00 3.08900E+00 3.49999E-01
 -1       316-1.57060E+01 6.50562E+00 3.49999E-01
 -1       317-8.88051E+00-2.65016E+00 3.49999E-01
 -1       318-9.21869E+00-4.74999E-01 3.49999E-01
 -1       319-9.21869E+00-9.50000E-01 3.49999E-01
 -1       320-1.25751E+01-4.74999E-01 3.49999E-01
 -1       321-1.66733E+01-3.31653E+00 3.49999E-01
 -1       322-1.25751E+01 4.74999E-01 3.49999E-01
 -1       323-1.17997E+01-4.37345E+00 3.49999E-01
 -1       324-1.57060E+01-6.50562E+00 3.49999E-01
 -1       325-1.70000E+01 0.00000E+00 3.49999E-01
 -1       326-1.20208E+01 1.20208E+01 3.49999E-01
 -1       327-5.89442E+00 1.41328E+00 3.49999E-01
 -1       328-9.21869E+00 9.50000E-01 3.49999E-01
 -1       329-1.14361E+01-5.25114E+00 3.49999E-01
 -1       330-8.15341E+00-4.40553E+00 3.49999E-01
 -1       331-9.22784E+00-8.55608E+00 3.49999E-01
 -1       332-1.20208E+01-1.20208E+01 3.49999E-01
 -1       333-3.96668E+00-8.33519E+00 3.49999E-01
 -1       334-4.40553E+00-8.15341E+00 3.49999E-01
 -1       335-7.19035E+00-5.84685E+00 3.49999E-01
 -1       336-5.25114E+00 1.14361E+01 3.49999E-01
 -1       337-4.40553E+00 8.15341E+00 3.49999E-01
 -1       338-5.84685E+00 7.19035E+00 3.49999E-01
 -1       339-2.61170E+00-5.67665E-01 3.49999E-01
 -1       340-2.61170E+00 5.67665E-01 3.49999E-01
 -1       341-2.63013E+00 4.74999E-01 3.49999E-01
 -1       342-5.98657E+00 9.50000E-01 3.49999E-01
 -1       343-5.98657E+00 4.74999E-01 3.49999E-01
 -1       344-2.19566E+00 1.52391E+00 3.49999E-01
 -1       345-4.90489E+00 3.56139E+00 3.49999E-01
 -1       346-2.24815E+00 1.44535E+00 3.49999E-01
 -1       347-5.16732E+00 3.16865E+00 3.49999E-01
 -1       348-2.72980E+00 5.34909E+00 3.49999E-01
 -1       349-1.44535E+00 2.24815E+00 3.49999E-01
 -1       350-4.74999E-01-2.63013E+00 3.49999E-01
 -1       351-2.72980E+00-5.34909E+00 3.49999E-01
 -1       352-1.52391E+00-2.19566E+00 3.49999E-01
 -1       353-3.89727E+00-4.56902E+00 3.49999E-01
 -1       354-2.19566E+00-1.52391E+00 3.49999E-01
 -1       355-4.56902E+00-3.89727E+00 3.49999E-01
 -1       356-5.16732E+00-3.16865E+00 3.49999E-01
 -1       357-5.98657E+00-4.74999E-01 3.49999E-01
 -1       358-5.89442E+00-1.41328E+00 3.49999E-01
 -1       359-5.67665E-01 2.61170E+00 3.49999E-01
 -1       360 5.67665E-01 2.61170E+00 3.49999E-01
 -1       361 4.74999E-01-2.63013E+00 3.49999E-01
 -1       362 4.74999E-01 2.63013E+00 3.49999E-01
 -1       363 4.74999E-01-5.98657E+00 3.49999E-01
 -1       364 1.41328E+00 5.89442E+00 3.49999E-01
 -1       365 4.74999E-01 5.98657E+00 3.49999E-01
 -1       366 3.96668E+00 8.33519E+00 3.49999E-01
 -1       367 2.24815E+00-1.44535E+00 3.49999E-01
 -1       368 2.19566E+00-1.52391E+00 3.49999E-01
 -1       369 2.72980E+00 5.34909E+00 3.49999E-01
 -1       370 3.16865E+00 5.16732E+00 3.49999E-01
 -1       371 5.84685E+00-7.19035E+00 3.49999E-01
 -1       372 5.89442E+00-1.41328E+00 3.49999E-01
 -1       373 5.71264E+00-1.85212E+00 3.49999E-01
 -1       374 2.63013E+00-4.74999E-01 3.49999E-01
 -1       375 2.24815E+00 1.44535E+00 3.49999E-01
 -1       376 2.61170E+00-5.67665E-01 3.49999E-01
 -1       377 9.21869E+00 9.50000E-01 3.49999E-01
 -1       378 9.44469E+00 1.41350E+01 3.49999E-01
 -1       379 6.50562E+00 1.57060E+01 3.49999E-01
 -1       380 2.65016E+00 8.88051E+00 3.49999E-01
 -1       381 3.08900E+00 8.69874E+00 3.49999E-01
 -1       382-4.74999E-01 9.21869E+00 3.49999E-01
 -1       383-1.41328E+00 5.89442E+00 3.49999E-01
 -1       384-9.50000E-01 9.21869E+00 3.49999E-01
 -1       385-3.08900E+00 8.69874E+00 3.49999E-01
 -1       386-6.50562E+00 1.57060E+01 3.49999E-01
 -1       387-3.31653E+00 1.66733E+01 3.49999E-01
 -1       388-9.44469E+00 1.41350E+01 3.49999E-01
 -1       389-8.55608E+00 9.22784E+00 3.49999E-01
 -1       390 1.17997E+01 4.37345E+00 3.49999E-01
 -1       391 9.22784E+00 8.55608E+00 3.49999E-01
 -1       392 7.19035E+00 5.84685E+00 3.49999E-01
 -1       393 6.85448E+00 6.18273E+00 3.49999E-01
 -1       394 1.66733E+01 3.31653E+00 3.49999E-01
 -1       395 1.70000E+01 0.00000E+00 3.49999E-01
 -1       396 1.17997E+01-4.37345E+00 3.49999E-01
 -1       397 1.25751E+01-4.74999E-01 3.49999E-01
 -1       398 1.20208E+01 1.20208E+01 3.49999E-01
 -1       399 1.57060E+01-6.50562E+00 3.49999E-01
 -1       400 9.21869E+00-9.50000E-01 3.49999E-01
 -1       401 1.41350E+01-9.44469E+00 3.49999E-01
 -1       402 1.20208E+01-1.20208E+01 3.49999E-01
 -1       403 8.15341E+00-4.40553E+00 3.49999E-01
 -1       404 5.25114E+00-1.14361E+01 3.49999E-01
 -1       405 9.44469E+00-1.41350E+01 3.49999E-01
 -1       406 6.50562E+00-1.57060E+01 3.49999E-01
 -1       407 3.08900E+00-8.69874E+00 3.49999E-01
 -1       408 4.74999E-01-1.25751E+01 3.49999E-01
 -1       409 4.74999E-01-9.21869E+00 3.49999E-01
 -1       410 3.31653E+00-1.66733E+01 3.49999E-01
 -1       411-9.50000E-01-9.21869E+00 3.49999E-01
 -1       412-2.65016E+00-8.88051E+00 3.49999E-01
 -1       413-4.37345E+00-1.17997E+01 3.49999E-01
 -1       414-3.08900E+00-8.69874E+00 3.49999E-01
 -1       415-4.74999E-01-1.25751E+01 3.49999E-01
 -1       416-6.18273E+00-6.85448E+00 3.49999E-01
 -1       417-6.50562E+00-1.57060E+01 3.49999E-01
 -1       418 8.88051E+00 2.65016E+00 3.49999E-01
 -1       419 5.98657E+00 9.50000E-01 3.49999E-01
 -1       420 5.89442E+00 1.41328E+00 3.49999E-01
 -1       421 2.63013E+00 4.74999E-01 3.49999E-01
 -1       422 2.61170E+00 5.67665E-01 3.49999E-01
 -1       423 3.56139E+00 4.90489E+00 3.49999E-01
 -1       424 4.40553E+00 8.15341E+00 3.49999E-01
 -1       425 2.19566E+00 1.52391E+00 3.49999E-01
 -1       426 4.56902E+00 3.89727E+00 3.49999E-01
 -1       427 5.16732E+00 3.16865E+00 3.49999E-01
 -1       428 1.52391E+00-2.19566E+00 3.49999E-01
 -1       429 1.44535E+00-2.24815E+00 3.49999E-01
 -1       430 0.00000E+00 1.70000E+01-3.49999E-01
 -1       431 0.00000E+00 1.70000E+01 3.49999E-01
 -1       432-3.31653E+00 1.66733E+01-3.49999E-01
 -1       433 1.70000E+01 0.00000E+00-3.49999E-01
 -1       434 1.20208E+01-1.20208E+01-3.49999E-01
 -1       435-9.44469E+00-1.41350E+01 3.49999E-01
 -1       436-1.66733E+01-3.31653E+00-3.49999E-01
 -1       437 1.66733E+01-3.31653E+00 3.49999E-01
 -1       438 1.57060E+01-6.50562E+00-3.49999E-01
 -1       439-9.44469E+00-1.41350E+01-3.49999E-01
 -1       440-6.50562E+00-1.57060E+01-3.49999E-01
 -1       441 0.00000E+00-1.70000E+01 3.49999E-01
 -1       442-3.31653E+00-1.66733E+01 3.49999E-01
 -1       443 0.00000E+00-1.70000E+01-3.49999E-01
 -1       444-1.41350E+01-9.44469E+00-3.49999E-01
 -1       445-1.41350E+01-9.44469E+00 3.49999E-01
 -1       446-1.57060E+01-6.50562E+00-3.49999E-01
 -1       447 3.31653E+00-1.66733E+01-3.49999E-01
 -1       448 6.50562E+00-1.57060E+01-3.49999E-01
 -1       449 2.63013E+00 4.74999E-01 1.02500E+00
 -1       450 2.63013E+00-4.74999E-01 1.02500E+00
 -1       451 4.30835E+00 4.74999E-01 1.70000E+00
 -1       452 4.30835E+00-4.74999E-01 1.70000E+00
 -1       453 7.60263E+00 9.50000E-01 1.70000E+00
 -1       454 7.60263E+00-9.50000E-01 1.70000E+00
 -1       455 1.08969E+01 4.74999E-01 1.70000E+00
 -1       456 1.08969E+01-4.74999E-01 1.70000E+00
 -1       457 1.25751E+01 4.74999E-01 1.02500E+00
 -1       458 1.25751E+01-4.74999E-01 1.02500E+00
 -1       459 1.08969E+01 4.74999E-01 3.49999E-01
 -1       460 9.21869E+00 4.74999E-01 1.02500E+00
 -1       461 5.98657E+00 4.74999E-01 1.02500E+00
 -1       462 4.30835E+00 4.74999E-01 3.49999E-01
 -1       463 4.30835E+00-4.74999E-01 3.49999E-01
 -1       464 5.98657E+00-4.74999E-01 1.02500E+00
 -1       465 9.21869E+00-4.74999E-01 1.02500E+00
 -1       466 1.08969E+01-4.74999E-01 3.49999E-01
 -1       467 5.98657E+00-9.50000E-01 1.02500E+00
 -1       468 5.98657E+00 9.50000E-01 1.02500E+00
 -1       469 9.21869E+00-9.50000E-01 1.02500E+00
 -1       470 9.21869E+00 9.50000E-01 1.02500E+00
 -1       471 7.60263E+00-9.50000E-01 3.49999E-01
 -1       472 7.60263E+00 9.50000E-01 3.49999E-01
 -1       473 2.24815E+00 1.44535E+00 1.02500E+00
 -1       474 2.61170E+00 5.67665E-01 1.02500E+00
 -1       475 1.02492E+01 3.73123E+00 1.70000E+00
 -1       476 9.88564E+00 4.60891E+00 1.70000E+00
 -1       477 7.38747E+00 2.03172E+00 1.70000E+00
 -1       478 6.66037E+00 3.78709E+00 1.70000E+00
 -1       479 4.16217E+00 1.20989E+00 1.70000E+00
 -1       480 3.79862E+00 2.08757E+00 1.70000E+00
 -1       481 1.14361E+01 5.25114E+00 1.02500E+00
 -1       482 1.17997E+01 4.37345E+00 1.02500E+00
 -1       483 9.88564E+00 4.60891E+00 3.49999E-01
 -1       484 8.33519E+00 3.96668E+00 1.02500E+00
 -1       485 5.34909E+00 2.72980E+00 1.02500E+00
 -1       486 3.79862E+00 2.08757E+00 3.49999E-01
 -1       487 4.16217E+00 1.20989E+00 3.49999E-01
 -1       488 5.71264E+00 1.85212E+00 1.02500E+00
 -1       489 8.69874E+00 3.08900E+00 1.02500E+00
 -1       490 1.02492E+01 3.73123E+00 3.49999E-01
 -1       491 5.89442E+00 1.41328E+00 1.02500E+00
 -1       492 5.16732E+00 3.16865E+00 1.02500E+00
 -1       493 8.88051E+00 2.65016E+00 1.02500E+00
 -1       494 8.15341E+00 4.40553E+00 1.02500E+00
 -1       495 7.38747E+00 2.03172E+00 3.49999E-01
 -1       496 6.66037E+00 3.78709E+00 3.49999E-01
 -1       497 1.52391E+00 2.19566E+00 1.02500E+00
 -1       498 2.19566E+00 1.52391E+00 1.02500E+00
 -1       499 8.04116E+00 7.36940E+00 1.70000E+00
 -1       500 7.36940E+00 8.04116E+00 1.70000E+00
 -1       501 6.04762E+00 4.70412E+00 1.70000E+00
 -1       502 4.70412E+00 6.04762E+00 1.70000E+00
 -1       503 3.38234E+00 2.71059E+00 1.70000E+00
 -1       504 2.71059E+00 3.38234E+00 1.70000E+00
 -1       505 8.55608E+00 9.22784E+00 1.02500E+00
 -1       506 9.22784E+00 8.55608E+00 1.02500E+00
 -1       507 7.36940E+00 8.04116E+00 3.49999E-01
 -1       508 6.18273E+00 6.85448E+00 1.02500E+00
 -1       509 3.89727E+00 4.56902E+00 1.02500E+00
 -1       510 2.71059E+00 3.38234E+00 3.49999E-01
 -1       511 4.56902E+00 3.89727E+00 1.02500E+00
 -1       512 3.38234E+00 2.71059E+00 3.49999E-01
 -1       513 6.85448E+00 6.18273E+00 1.02500E+00
 -1       514 8.04116E+00 7.36940E+00 3.49999E-01
 -1       515 4.90489E+00 3.56139E+00 1.02500E+00
 -1       516 3.56139E+00 4.90489E+00 1.02500E+00
 -1       517 7.19035E+00 5.84685E+00 1.02500E+00
 -1       518 5.84685E+00 7.19035E+00 1.02500E+00
 -1       519 6.04762E+00 4.70412E+00 3.49999E-01
 -1       520 4.70412E+00 6.04762E+00 3.49999E-01
 -1       521 5.67665E-01 2.61170E+00 1.02500E+00
 -1       522 1.44535E+00 2.24815E+00 1.02500E+00
 -1       523 2.03172E+00 7.38747E+00 1.70000E+00
 -1       524 4.60891E+00 9.88564E+00 1.70000E+00
 -1       525 3.73123E+00 1.02492E+01 1.70000E+00
 -1       526 2.08757E+00 3.79862E+00 1.70000E+00
 -1       527 1.20989E+00 4.16217E+00 1.70000E+00
 -1       528 3.78709E+00 6.66037E+00 1.70000E+00
 -1       529 5.25114E+00 1.14361E+01 1.02500E+00
 -1       530 4.37345E+00 1.17997E+01 1.02500E+00
 -1       531 3.73123E+00 1.02492E+01 3.49999E-01
 -1       532 3.08900E+00 8.69874E+00 1.02500E+00
 -1       533 1.85212E+00 5.71264E+00 1.02500E+00
 -1       534 1.20989E+00 4.16217E+00 3.49999E-01
 -1       535 2.72980E+00 5.34909E+00 1.02500E+00
 -1       536 2.08757E+00 3.79862E+00 3.49999E-01
 -1       537 3.96668E+00 8.33519E+00 1.02500E+00
 -1       538 4.60891E+00 9.88564E+00 3.49999E-01
 -1       539 3.16865E+00 5.16732E+00 1.02500E+00
 -1       540 1.41328E+00 5.89442E+00 1.02500E+00
 -1       541 4.40553E+00 8.15341E+00 1.02500E+00
 -1       542 2.65016E+00 8.88051E+00 1.02500E+00
 -1       543 3.78709E+00 6.66037E+00 3.49999E-01
 -1       544 2.03172E+00 7.38747E+00 3.49999E-01
 -1       545-4.74999E-01 2.63013E+00 1.02500E+00
 -1       546 4.74999E-01 2.63013E+00 1.02500E+00
 -1       547-9.50000E-01 7.60263E+00 1.70000E+00
 -1       548 4.74999E-01 1.08969E+01 1.70000E+00
 -1       549-4.74999E-01 1.08969E+01 1.70000E+00
 -1       550 4.74999E-01 4.30835E+00 1.70000E+00
 -1       551-4.74999E-01 4.30835E+00 1.70000E+00
 -1       552 9.50000E-01 7.60263E+00 1.70000E+00
 -1       553 4.74999E-01 1.25751E+01 1.02500E+00
 -1       554-4.74999E-01 1.25751E+01 1.02500E+00
 -1       555-4.74999E-01 1.08969E+01 3.49999E-01
 -1       556-4.74999E-01 9.21869E+00 1.02500E+00
 -1       557-4.74999E-01 5.98657E+00 1.02500E+00
 -1       558-4.74999E-01 4.30835E+00 3.49999E-01
 -1       559 4.74999E-01 5.98657E+00 1.02500E+00
 -1       560 4.74999E-01 4.30835E+00 3.49999E-01
 -1       561 4.74999E-01 9.21869E+00 1.02500E+00
 -1       562 4.74999E-01 1.08969E+01 3.49999E-01
 -1       563 9.50000E-01 5.98657E+00 1.02500E+00
 -1       564-9.50000E-01 5.98657E+00 1.02500E+00
 -1       565 9.50000E-01 9.21869E+00 1.02500E+00
 -1       566-9.50000E-01 9.21869E+00 1.02500E+00
 -1       567 9.50000E-01 7.60263E+00 3.49999E-01
 -1       568-9.50000E-01 7.60263E+00 3.49999E-01
 -1       569-1.44535E+00 2.24815E+00 1.02500E+00
 -1       570-5.67665E-01 2.61170E+00 1.02500E+00
 -1       571-2.03172E+00 7.38747E+00 1.70000E+00
 -1       572-1.20989E+00 4.16217E+00 1.70000E+00
 -1       573-2.08757E+00 3.79862E+00 1.70000E+00
 -1       574-3.73123E+00 1.02492E+01 1.70000E+00
 -1       575-4.60891E+00 9.88564E+00 1.70000E+00
 -1       576-3.78709E+00 6.66037E+00 1.70000E+00
 -1       577-4.37345E+00 1.17997E+01 1.02500E+00
 -1       578-5.25114E+00 1.14361E+01 1.02500E+00
 -1       579-4.60891E+00 9.88564E+00 3.49999E-01
 -1       580-3.96668E+00 8.33519E+00 1.02500E+00
 -1       581-2.72980E+00 5.34909E+00 1.02500E+00
 -1       582-2.08757E+00 3.79862E+00 3.49999E-01
 -1       583-1.85212E+00 5.71264E+00 1.02500E+00
 -1       584-1.20989E+00 4.16217E+00 3.49999E-01
 -1       585-3.08900E+00 8.69874E+00 1.02500E+00
 -1       586-3.73123E+00 1.02492E+01 3.49999E-01
 -1       587-1.41328E+00 5.89442E+00 1.02500E+00
 -1       588-3.16865E+00 5.16732E+00 1.02500E+00
 -1       589-2.65016E+00 8.88051E+00 1.02500E+00
 -1       590-4.40553E+00 8.15341E+00 1.02500E+00
 -1       591-2.03172E+00 7.38747E+00 3.49999E-01
 -1       592-3.78709E+00 6.66037E+00 3.49999E-01
 -1       593-1.52391E+00 2.19566E+00 1.02500E+00
 -1       594-2.19566E+00 1.52391E+00 1.02500E+00
 -1       595-7.36940E+00 8.04116E+00 1.70000E+00
 -1       596-8.04116E+00 7.36940E+00 1.70000E+00
 -1       597-4.70412E+00 6.04762E+00 1.70000E+00
 -1       598-6.04762E+00 4.70412E+00 1.70000E+00
 -1       599-2.71059E+00 3.38234E+00 1.70000E+00
 -1       600-3.38234E+00 2.71059E+00 1.70000E+00
 -1       601-8.55608E+00 9.22784E+00 1.02500E+00
 -1       602-9.22784E+00 8.55608E+00 1.02500E+00
 -1       603-8.04116E+00 7.36940E+00 3.49999E-01
 -1       604-6.85448E+00 6.18273E+00 1.02500E+00
 -1       605-4.56902E+00 3.89727E+00 1.02500E+00
 -1       606-3.38234E+00 2.71059E+00 3.49999E-01
 -1       607-3.89727E+00 4.56902E+00 1.02500E+00
 -1       608-2.71059E+00 3.38234E+00 3.49999E-01
 -1       609-6.18273E+00 6.85448E+00 1.02500E+00
 -1       610-7.36940E+00 8.04116E+00 3.49999E-01
 -1       611-3.56139E+00 4.90489E+00 1.02500E+00
 -1       612-4.90489E+00 3.56139E+00 1.02500E+00
 -1       613-5.84685E+00 7.19035E+00 1.02500E+00
 -1       614-7.19035E+00 5.84685E+00 1.02500E+00
 -1       615-4.70412E+00 6.04762E+00 3.49999E-01
 -1       616-6.04762E+00 4.70412E+00 3.49999E-01
 -1       617-2.24815E+00 1.44535E+00 1.02500E+00
 -1       618-2.61170E+00 5.67665E-01 1.02500E+00
 -1       619-9.88564E+00 4.60891E+00 1.70000E+00
 -1       620-1.02492E+01 3.73123E+00 1.70000E+00
 -1       621-6.66037E+00 3.78709E+00 1.70000E+00
 -1       622-7.38747E+00 2.03172E+00 1.70000E+00
 -1       623-3.79862E+00 2.08757E+00 1.70000E+00
 -1       624-4.16217E+00 1.20989E+00 1.70000E+00
 -1       625-1.14361E+01 5.25114E+00 1.02500E+00
 -1       626-1.17997E+01 4.37345E+00 1.02500E+00
 -1       627-1.02492E+01 3.73123E+00 3.49999E-01
 -1       628-8.69874E+00 3.08900E+00 1.02500E+00
 -1       629-5.71264E+00 1.85212E+00 1.02500E+00
 -1       630-4.16217E+00 1.20989E+00 3.49999E-01
 -1       631-3.79862E+00 2.08757E+00 3.49999E-01
 -1       632-5.34909E+00 2.72980E+00 1.02500E+00
 -1       633-8.33519E+00 3.96668E+00 1.02500E+00
 -1       634-9.88564E+00 4.60891E+00 3.49999E-01
 -1       635-5.16732E+00 3.16865E+00 1.02500E+00
 -1       636-5.89442E+00 1.41328E+00 1.02500E+00
 -1       637-8.15341E+00 4.40553E+00 1.02500E+00
 -1       638-8.88051E+00 2.65016E+00 1.02500E+00
 -1       639-6.66037E+00 3.78709E+00 3.49999E-01
 -1       640-7.38747E+00 2.03172E+00 3.49999E-01
 -1       641-2.63013E+00 4.74999E-01 1.02500E+00
 -1       642-2.63013E+00-4.74999E-01 1.02500E+00
 -1       643-1.08969E+01 4.74999E-01 1.70000E+00
 -1       644-1.08969E+01-4.74999E-01 1.70000E+00
 -1       645-7.60263E+00 9.50000E-01 1.70000E+00
 -1       646-7.60263E+00-9.50000E-01 1.70000E+00
 -1       647-4.30835E+00 4.74999E-01 1.70000E+00
 -1       648-4.30835E+00-4.74999E-01 1.70000E+00
 -1       649-1.25751E+01 4.74999E-01 1.02500E+00
 -1       650-1.25751E+01-4.74999E-01 1.02500E+00
 -1       651-1.08969E+01-4.74999E-01 3.49999E-01
 -1       652-9.21869E+00-4.74999E-01 1.02500E+00
 -1       653-5.98657E+00-4.74999E-01 1.02500E+00
 -1       654-4.30835E+00-4.74999E-01 3.49999E-01
 -1       655-4.30835E+00 4.74999E-01 3.49999E-01
 -1       656-5.98657E+00 4.74999E-01 1.02500E+00
 -1       657-9.21869E+00 4.74999E-01 1.02500E+00
 -1       658-1.08969E+01 4.74999E-01 3.49999E-01
 -1       659-5.98657E+00 9.50000E-01 1.02500E+00
 -1       660-5.98657E+00-9.50000E-01 1.02500E+00
 -1       661-9.21869E+00 9.50000E-01 1.02500E+00
 -1       662-9.21869E+00-9.50000E-01 1.02500E+00
 -1       663-7.60263E+00 9.50000E-01 3.49999E-01
 -1       664-7.60263E+00-9.50000E-01 3.49999E-01
 -1       665-2.61170E+00-5.67665E-01 1.02500E+00
 -1       666-2.24815E+00-1.44535E+00 1.02500E+00
 -1       667-3.79862E+00-2.08757E+00 1.70000E+00
 -1       668-4.16217E+00-1.20989E+00 1.70000E+00
 -1       669-6.66037E+00-3.78709E+00 1.70000E+00
 -1       670-7.38747E+00-2.03172E+00 1.70000E+00
 -1       671-9.88564E+00-4.60891E+00 1.70000E+00
 -1       672-1.02492E+01-3.73123E+00 1.70000E+00
 -1       673-1.17997E+01-4.37345E+00 1.02500E+00
 -1       674-1.14361E+01-5.25114E+00 1.02500E+00
 -1       675-9.88564E+00-4.60891E+00 3.49999E-01
 -1       676-8.33519E+00-3.96668E+00 1.02500E+00
 -1       677-5.34909E+00-2.72980E+00 1.02500E+00
 -1       678-3.79862E+00-2.08757E+00 3.49999E-01
 -1       679-4.16217E+00-1.20989E+00 3.49999E-01
 -1       680-5.71264E+00-1.85212E+00 1.02500E+00
 -1       681-8.69874E+00-3.08900E+00 1.02500E+00
 -1       682-1.02492E+01-3.73123E+00 3.49999E-01
 -1       683-5.89442E+00-1.41328E+00 1.02500E+00
 -1       684-5.16732E+00-3.16865E+00 1.02500E+00
 -1       685-8.88051E+00-2.65016E+00 1.02500E+00
 -1       686-8.15341E+00-4.40553E+00 1.02500E+00
 -1       687-7.38747E+00-2.03172E+00 3.49999E-01
 -1       688-6.66037E+00-3.78709E+00 3.49999E-01
 -1       689-2.19566E+00-1.52391E+00 1.02500E+00
 -1       690-1.52391E+00-2.19566E+00 1.02500E+00
 -1       691-2.71059E+00-3.38234E+00 1.70000E+00
 -1       692-3.38234E+00-2.71059E+00 1.70000E+00
 -1       693-4.70412E+00-6.04762E+00 1.70000E+00
 -1       694-6.04762E+00-4.70412E+00 1.70000E+00
 -1       695-7.36940E+00-8.04116E+00 1.70000E+00
 -1       696-8.04116E+00-7.36940E+00 1.70000E+00
 -1       697-9.22784E+00-8.55608E+00 1.02500E+00
 -1       698-8.55608E+00-9.22784E+00 1.02500E+00
 -1       699-6.18273E+00-6.85448E+00 1.02500E+00
 -1       700-7.36940E+00-8.04116E+00 3.49999E-01
 -1       701-3.89727E+00-4.56902E+00 1.02500E+00
 -1       702-2.71059E+00-3.38234E+00 3.49999E-01
 -1       703-3.38234E+00-2.71059E+00 3.49999E-01
 -1       704-4.56902E+00-3.89727E+00 1.02500E+00
 -1       705-6.85448E+00-6.18273E+00 1.02500E+00
 -1       706-8.04116E+00-7.36940E+00 3.49999E-01
 -1       707-4.90489E+00-3.56139E+00 1.02500E+00
 -1       708-3.56139E+00-4.90489E+00 1.02500E+00
 -1       709-7.19035E+00-5.84685E+00 1.02500E+00
 -1       710-5.84685E+00-7.19035E+00 1.02500E+00
 -1       711-6.04762E+00-4.70412E+00 3.49999E-01
 -1       712-4.70412E+00-6.04762E+00 3.49999E-01
 -1       713-5.67665E-01-2.61170E+00 1.02500E+00
 -1       714-1.44535E+00-2.24815E+00 1.02500E+00
 -1       715-3.78709E+00-6.66037E+00 1.70000E+00
 -1       716-1.20989E+00-4.16217E+00 1.70000E+00
 -1       717-2.08757E+00-3.79862E+00 1.70000E+00
 -1       718-3.73123E+00-1.02492E+01 1.70000E+00
 -1       719-4.60891E+00-9.88564E+00 1.70000E+00
 -1       720-2.03172E+00-7.38747E+00 1.70000E+00
 -1       721-5.25114E+00-1.14361E+01 1.02500E+00
 -1       722-4.37345E+00-1.17997E+01 1.02500E+00
 -1       723-3.08900E+00-8.69874E+00 1.02500E+00
 -1       724-3.73123E+00-1.02492E+01 3.49999E-01
 -1       725-1.85212E+00-5.71264E+00 1.02500E+00
 -1       726-1.20989E+00-4.16217E+00 3.49999E-01
 -1       727-2.08757E+00-3.79862E+00 3.49999E-01
 -1       728-2.72980E+00-5.34909E+00 1.02500E+00
 -1       729-3.96668E+00-8.33519E+00 1.02500E+00
 -1       730-4.60891E+00-9.88564E+00 3.49999E-01
 -1       731-3.16865E+00-5.16732E+00 1.02500E+00
 -1       732-1.41328E+00-5.89442E+00 1.02500E+00
 -1       733-4.40553E+00-8.15341E+00 1.02500E+00
 -1       734-2.65016E+00-8.88051E+00 1.02500E+00
 -1       735-3.78709E+00-6.66037E+00 3.49999E-01
 -1       736-2.03172E+00-7.38747E+00 3.49999E-01
 -1       737 4.74999E-01-2.63013E+00 1.02500E+00
 -1       738-4.74999E-01-2.63013E+00 1.02500E+00
 -1       739-9.50000E-01-7.60263E+00 1.70000E+00
 -1       740 4.74999E-01-4.30835E+00 1.70000E+00
 -1       741-4.74999E-01-4.30835E+00 1.70000E+00
 -1       742 4.74999E-01-1.08969E+01 1.70000E+00
 -1       743-4.74999E-01-1.08969E+01 1.70000E+00
 -1       744 9.50000E-01-7.60263E+00 1.70000E+00
 -1       745-4.74999E-01-1.25751E+01 1.02500E+00
 -1       746 4.74999E-01-1.25751E+01 1.02500E+00
 -1       747 4.74999E-01-9.21869E+00 1.02500E+00
 -1       748 4.74999E-01-1.08969E+01 3.49999E-01
 -1       749 4.74999E-01-5.98657E+00 1.02500E+00
 -1       750 4.74999E-01-4.30835E+00 3.49999E-01
 -1       751-4.74999E-01-4.30835E+00 3.49999E-01
 -1       752-4.74999E-01-5.98657E+00 1.02500E+00
 -1       753-4.74999E-01-9.21869E+00 1.02500E+00
 -1       754-4.74999E-01-1.08969E+01 3.49999E-01
 -1       755-9.50000E-01-5.98657E+00 1.02500E+00
 -1       756 9.50000E-01-5.98657E+00 1.02500E+00
 -1       757-9.50000E-01-9.21869E+00 1.02500E+00
 -1       758 9.50000E-01-9.21869E+00 1.02500E+00
 -1       759-9.50000E-01-7.60263E+00 3.49999E-01
 -1       760 9.50000E-01-7.60263E+00 3.49999E-01
 -1       761 1.44535E+00-2.24815E+00 1.02500E+00
 -1       762 5.67665E-01-2.61170E+00 1.02500E+00
 -1       763 3.78709E+00-6.66037E+00 1.70000E+00
 -1       764 4.60891E+00-9.88564E+00 1.70000E+00
 -1       765 3.73123E+00-1.02492E+01 1.70000E+00
 -1       766 2.08757E+00-3.79862E+00 1.70000E+00
 -1       767 1.20989E+00-4.16217E+00 1.70000E+00
 -1       768 2.03172E+00-7.38747E+00 1.70000E+00
 -1       769 4.37345E+00-1.17997E+01 1.02500E+00
 -1       770 5.25114E+00-1.14361E+01 1.02500E+00
 -1       771 3.96668E+00-8.33519E+00 1.02500E+00
 -1       772 4.60891E+00-9.88564E+00 3.49999E-01
 -1       773 2.72980E+00-5.34909E+00 1.02500E+00
 -1       774 2.08757E+00-3.79862E+00 3.49999E-01
 -1       775 1.20989E+00-4.16217E+00 3.49999E-01
 -1       776 1.85212E+00-5.71264E+00 1.02500E+00
 -1       777 3.08900E+00-8.69874E+00 1.02500E+00
 -1       778 3.73123E+00-1.02492E+01 3.49999E-01
 -1       779 1.41328E+00-5.89442E+00 1.02500E+00
 -1       780 3.16865E+00-5.16732E+00 1.02500E+00
 -1       781 2.65016E+00-8.88051E+00 1.02500E+00
 -1       782 4.40553E+00-8.15341E+00 1.02500E+00
 -1       783 2.03172E+00-7.38747E+00 3.49999E-01
 -1       784 3.78709E+00-6.66037E+00 3.49999E-01
 -1       785 2.19566E+00-1.52391E+00 1.02500E+00
 -1       786 1.52391E+00-2.19566E+00 1.02500E+00
 -1       787 3.38234E+00-2.71059E+00 1.70000E+00
 -1       788 2.71059E+00-3.38234E+00 1.70000E+00
 -1       789 6.04762E+00-4.70412E+00 1.70000E+00
 -1       790 4.70412E+00-6.04762E+00 1.70000E+00
 -1       791 8.04116E+00-7.36940E+00 1.70000E+00
 -1       792 7.36940E+00-8.04116E+00 1.70000E+00
 -1       793 9.22784E+00-8.55608E+00 1.02500E+00
 -1       794 8.55608E+00-9.22784E+00 1.02500E+00
 -1       795 8.04116E+00-7.36940E+00 3.49999E-01
 -1       796 6.85448E+00-6.18273E+00 1.02500E+00
 -1       797 4.56902E+00-3.89727E+00 1.02500E+00
 -1       798 3.38234E+00-2.71059E+00 3.49999E-01
 -1       799 2.71059E+00-3.38234E+00 3.49999E-01
 -1       800 3.89727E+00-4.56902E+00 1.02500E+00
 -1       801 6.18273E+00-6.85448E+00 1.02500E+00
 -1       802 7.36940E+00-8.04116E+00 3.49999E-01
 -1       803 3.56139E+00-4.90489E+00 1.02500E+00
 -1       804 4.90489E+00-3.56139E+00 1.02500E+00
 -1       805 5.84685E+00-7.19035E+00 1.02500E+00
 -1       806 7.19035E+00-5.84685E+00 1.02500E+00
 -1       807 4.70412E+00-6.04762E+00 3.49999E-01
 -1       808 6.04762E+00-4.70412E+00 3.49999E-01
 -1       809 2.61170E+00-5.67665E-01 1.02500E+00
 -1       810 2.24815E+00-1.44535E+00 1.02500E+00
 -1       811 4.16217E+00-1.20989E+00 1.70000E+00
 -1       812 3.79862E+00-2.08757E+00 1.70000E+00
 -1       813 7.38747E+00-2.03172E+00 1.70000E+00
 -1       814 6.66037E+00-3.78709E+00 1.70000E+00
 -1       815 1.02492E+01-3.73123E+00 1.70000E+00
 -1       816 9.88564E+00-4.60891E+00 1.70000E+00
 -1       817 1.17997E+01-4.37345E+00 1.02500E+00
 -1       818 1.14361E+01-5.25114E+00 1.02500E+00
 -1       819 1.02492E+01-3.73123E+00 3.49999E-01
 -1       820 8.69874E+00-3.08900E+00 1.02500E+00
 -1       821 5.71264E+00-1.85212E+00 1.02500E+00
 -1       822 4.16217E+00-1.20989E+00 3.49999E-01
 -1       823 3.79862E+00-2.08757E+00 3.49999E-01
 -1       824 5.34909E+00-2.72980E+00 1.02500E+00
 -1       825 8.33519E+00-3.96668E+00 1.02500E+00
 -1       826 9.88564E+00-4.60891E+00 3.49999E-01
 -1       827 5.16732E+00-3.16865E+00 1.02500E+00
 -1       828 5.89442E+00-1.41328E+00 1.02500E+00
 -1       829 8.15341E+00-4.40553E+00 1.02500E+00
 -1       830 8.88051E+00-2.65016E+00 1.02500E+00
 -1       831 6.66037E+00-3.78709E+00 3.49999E-01
 -1       832 7.38747E+00-2.03172E+00 3.49999E-01
 -1       833 1.68367E+01 1.65826E+00 3.49999E-01
 -1       834 1.68367E+01 1.65826E+00-3.49999E-01
 -1       835-1.68367E+01 1.65826E+00-3.49999E-01
 -1       836-1.68367E+01 1.65826E+00 3.49999E-01
 -1       837 1.65826E+00 1.68367E+01 3.49999E-01
 -1       838 1.65826E+00 1.68367E+01-3.49999E-01
 -1       839 1.30779E+01 1.07327E+01 3.49999E-01
 -1       840 1.30779E+01 1.07327E+01-3.49999E-01
 -1       841 1.61896E+01 4.91108E+00 3.49999E-01
 -1       842 1.61896E+01 4.91108E+00-3.49999E-01
 -1       843-1.07327E+01 1.30779E+01 3.49999E-01
 -1       844-1.07327E+01 1.30779E+01-3.49999E-01
 -1       845-4.91108E+00 1.61896E+01 3.49999E-01
 -1       846-4.91108E+00 1.61896E+01-3.49999E-01
 -1       847 1.30779E+01-1.07327E+01 3.49999E-01
 -1       848 1.30779E+01-1.07327E+01-3.49999E-01
 -1       849 1.68367E+01-1.65826E+00-3.49999E-01
 -1       850 1.61896E+01-4.91108E+00-3.49999E-01
 -1       851 1.49205E+01-7.97515E+00-3.49999E-01
 -1       852 1.49205E+01 7.97515E+00-3.49999E-01
 -1       853 1.07327E+01-1.30779E+01-3.49999E-01
 -1       854 1.07327E+01 1.30779E+01-3.49999E-01
 -1       855 7.97515E+00-1.49205E+01-3.49999E-01
 -1       856 7.97515E+00 1.49205E+01-3.49999E-01
 -1       857 4.91108E+00-1.61896E+01-3.49999E-01
 -1       858 4.91108E+00 1.61896E+01-3.49999E-01
 -1       859 1.65826E+00-1.68367E+01-3.49999E-01
 -1       860-1.65826E+00-1.68367E+01-3.49999E-01
 -1       861-1.65826E+00 1.68367E+01-3.49999E-01
 -1       862-4.91108E+00-1.61896E+01-3.49999E-01
 -1       863-7.97515E+00-1.49205E+01-3.49999E-01
 -1       864-7.97515E+00 1.49205E+01-3.49999E-01
 -1       865-1.07327E+01-1.30779E+01-3.49999E-01
 -1       866-1.30779E+01-1.07327E+01-3.49999E-01
 -1       867-1.30779E+01 1.07327E+01-3.49999E-01
 -1       868-1.49205E+01-7.97515E+00-3.49999E-01
 -1       869-1.49205E+01 7.97515E+00-3.49999E-01
 -1       870-1.61896E+01-4.91108E+00-3.49999E-01
 -1       871-1.61896E+01 4.91108E+00-3.49999E-01
 -1       872-1.68367E+01-1.65826E+00-3.49999E-01
 -1       873 1.49205E+01 7.97515E+00 3.49999E-01
 -1       874 7.97515E+00 1.49205E+01 3.49999E-01
 -1       875 4.91108E+00 1.61896E+01 3.49999E-01
 -1       876 1.07327E+01 1.30779E+01 3.49999E-01
 -1       877-1.49205E+01 7.97515E+00 3.49999E-01
 -1       878-1.30779E+01 1.07327E+01 3.49999E-01
 -1       879-1.61896E+01 4.91108E+00 3.49999E-01
 -1       880-1.30779E+01-1.07327E+01 3.49999E-01
 -1       881-1.49205E+01-7.97515E+00 3.49999E-01
 -1       882-1.61896E+01-4.91108E+00 3.49999E-01
 -1       883-1.68367E+01-1.65826E+00 3.49999E-01
 -1       884-1.07327E+01-1.30779E+01 3.49999E-01
 -1       885-1.65826E+00 1.68367E+01 3.49999E-01
 -1       886-7.97515E+00 1.49205E+01 3.49999E-01
 -1       887 1.68367E+01-1.65826E+00 3.49999E-01
 -1       888 1.61896E+01-4.91108E+00 3.49999E-01
 -1       889 1.49205E+01-7.97515E+00 3.49999E-01
 -1       890 1.07327E+01-1.30779E+01 3.49999E-01
 -1       891 7.97515E+00-1.49205E+01 3.49999E-01
 -1       892 4.91108E+00-1.61896E+01 3.49999E-01
 -1       893 1.65826E+00-1.68367E+01 3.49999E-01
 -1       894-1.65826E+00-1.68367E+01 3.49999E-01
 -1       895-4.91108E+00-1.61896E+01 3.49999E-01
 -1       896-7.97515E+00-1.49205E+01 3.49999E-01
 -1       897 5.14746E+00 4.74999E-01 1.70000E+00
 -1       898 3.46924E+00 4.74999E-01 1.70000E+00
 -1       899 5.14746E+00-4.74999E-01 1.70000E+00
 -1       900 6.79460E+00 9.50000E-01 1.70000E+00
 -1       901 1.00578E+01 4.74999E-01 1.70000E+00
 -1       902 1.17360E+01-4.74999E-01 1.70000E+00
 -1       903 1.00578E+01 4.74999E-01 3.49999E-01
 -1       904 3.46924E+00 4.74999E-01 3.49999E-01
 -1       905 5.14746E+00-4.74999E-01 3.49999E-01
 -1       906 1.17360E+01-4.74999E-01 3.49999E-01
 -1       907 8.41066E+00-9.50000E-01 3.49999E-01
 -1       908 8.41066E+00 9.50000E-01 3.49999E-01
 -1       909 6.79460E+00 9.50000E-01 3.49999E-01
 -1       910 4.93741E+00 1.53101E+00 1.70000E+00
 -1       911 3.02339E+00 1.76646E+00 1.70000E+00
 -1       912 9.11042E+00 4.28780E+00 3.49999E-01
 -1       913 3.02339E+00 1.76646E+00 3.49999E-01
 -1       914 4.93741E+00 1.53101E+00 3.49999E-01
 -1       915 1.10245E+01 4.05234E+00 3.49999E-01
 -1       916 8.13399E+00 2.34094E+00 3.49999E-01
 -1       917 7.40689E+00 4.09631E+00 3.49999E-01
 -1       918 5.91384E+00 3.47787E+00 3.49999E-01
 -1       919 5.27549E+00 6.61899E+00 1.70000E+00
 -1       920 4.13275E+00 5.47625E+00 1.70000E+00
 -1       921 3.97568E+00 3.30393E+00 1.70000E+00
 -1       922 2.11725E+00 2.78900E+00 1.70000E+00
 -1       923 6.77607E+00 7.44782E+00 3.49999E-01
 -1       924 2.11725E+00 2.78900E+00 3.49999E-01
 -1       925 3.97568E+00 3.30393E+00 3.49999E-01
 -1       926 8.63450E+00 7.96274E+00 3.49999E-01
 -1       927 5.47625E+00 4.13275E+00 3.49999E-01
 -1       928 6.61899E+00 5.27549E+00 3.49999E-01
 -1       929 5.27549E+00 6.61899E+00 3.49999E-01
 -1       930 4.13275E+00 5.47625E+00 3.49999E-01
 -1       931 1.72250E+00 6.64094E+00 1.70000E+00
 -1       932 3.41011E+00 9.47398E+00 1.70000E+00
 -1       933 8.88779E-01 3.38693E+00 1.70000E+00
 -1       934 3.47787E+00 5.91384E+00 1.70000E+00
 -1       935 4.09631E+00 7.40689E+00 1.70000E+00
 -1       936 4.05234E+00 1.10245E+01 3.49999E-01
 -1       937 3.41011E+00 9.47398E+00 3.49999E-01
 -1       938 8.88779E-01 3.38693E+00 3.49999E-01
 -1       939 2.40869E+00 4.57385E+00 3.49999E-01
 -1       940 4.93003E+00 1.06609E+01 3.49999E-01
 -1       941 4.09631E+00 7.40689E+00 3.49999E-01
 -1       942 2.34094E+00 8.13399E+00 3.49999E-01
 -1       943 1.72250E+00 6.64094E+00 3.49999E-01
 -1       944-9.50000E-01 6.79460E+00 1.70000E+00
 -1       945 4.74999E-01 5.14746E+00 1.70000E+00
 -1       946-4.74999E-01 3.46924E+00 1.70000E+00
 -1       947 9.50000E-01 8.41066E+00 1.70000E+00
 -1       948-4.74999E-01 1.00578E+01 3.49999E-01
 -1       949-4.74999E-01 3.46924E+00 3.49999E-01
 -1       950 4.74999E-01 5.14746E+00 3.49999E-01
 -1       951 4.74999E-01 1.17360E+01 3.49999E-01
 -1       952 9.50000E-01 6.79460E+00 3.49999E-01
 -1       953 9.50000E-01 8.41066E+00 3.49999E-01
 -1       954-9.50000E-01 8.41066E+00 3.49999E-01
 -1       955-9.50000E-01 6.79460E+00 3.49999E-01
 -1       956-2.34094E+00 8.13399E+00 1.70000E+00
 -1       957-4.09631E+00 7.40689E+00 1.70000E+00
 -1       958-3.47787E+00 5.91384E+00 1.70000E+00
 -1       959-4.28780E+00 9.11042E+00 3.49999E-01
 -1       960-1.76646E+00 3.02339E+00 3.49999E-01
 -1       961-1.53101E+00 4.93741E+00 3.49999E-01
 -1       962-4.05234E+00 1.10245E+01 3.49999E-01
 -1       963-1.72250E+00 6.64094E+00 3.49999E-01
 -1       964-2.34094E+00 8.13399E+00 3.49999E-01
 -1       965-4.09631E+00 7.40689E+00 3.49999E-01
 -1       966-3.47787E+00 5.91384E+00 3.49999E-01
 -1       967-5.27549E+00 6.61899E+00 1.70000E+00
 -1       968-2.11725E+00 2.78900E+00 1.70000E+00
 -1       969-3.30393E+00 3.97568E+00 1.70000E+00
 -1       970-2.78900E+00 2.11725E+00 1.70000E+00
 -1       971-8.63450E+00 7.96274E+00 3.49999E-01
 -1       972-7.44782E+00 6.77607E+00 3.49999E-01
 -1       973-2.78900E+00 2.11725E+00 3.49999E-01
 -1       974-3.30393E+00 3.97568E+00 3.49999E-01
 -1       975-7.96274E+00 8.63450E+00 3.49999E-01
 -1       976-4.13275E+00 5.47625E+00 3.49999E-01
 -1       977-5.27549E+00 6.61899E+00 3.49999E-01
 -1       978-6.61899E+00 5.27549E+00 3.49999E-01
 -1       979-5.47625E+00 4.13275E+00 3.49999E-01
 -1       980-9.47398E+00 3.41011E+00 1.70000E+00
 -1       981-7.40689E+00 4.09631E+00 1.70000E+00
 -1       982-3.02339E+00 1.76646E+00 1.70000E+00
 -1       983-4.57385E+00 2.40869E+00 1.70000E+00
 -1       984-3.38693E+00 8.88779E-01 1.70000E+00
 -1       985-9.47398E+00 3.41011E+00 3.49999E-01
 -1       986-3.38693E+00 8.88779E-01 3.49999E-01
 -1       987-4.57385E+00 2.40869E+00 3.49999E-01
 -1       988-1.06609E+01 4.93003E+00 3.49999E-01
 -1       989-5.91384E+00 3.47787E+00 3.49999E-01
 -1       990-7.40689E+00 4.09631E+00 3.49999E-01
 -1       991-8.13399E+00 2.34094E+00 3.49999E-01
 -1       992-6.64094E+00 1.72250E+00 3.49999E-01
 -1       993-8.41066E+00 9.50000E-01 1.70000E+00
 -1       994-3.46924E+00 4.74999E-01 1.70000E+00
 -1       995-5.14746E+00 4.74999E-01 1.70000E+00
 -1       996-3.46924E+00-4.74999E-01 1.70000E+00
 -1       997-1.17360E+01-4.74999E-01 3.49999E-01
 -1       998-1.00578E+01-4.74999E-01 3.49999E-01
 -1       999-3.46924E+00-4.74999E-01 3.49999E-01
 -1      1000-5.14746E+00 4.74999E-01 3.49999E-01
 -1      1001-1.17360E+01 4.74999E-01 3.49999E-01
 -1      1002-6.79460E+00 9.50000E-01 3.49999E-01
 -1      1003-8.41066E+00 9.50000E-01 3.49999E-01
 -1      1004-8.41066E+00-9.50000E-01 3.49999E-01
 -1      1005-6.79460E+00-9.50000E-01 3.49999E-01
 -1      1006-3.02339E+00-1.76646E+00 1.70000E+00
 -1      1007-4.93741E+00-1.53101E+00 1.70000E+00
 -1      1008-6.64094E+00-1.72250E+00 1.70000E+00
 -1      1009-8.13399E+00-2.34094E+00 1.70000E+00
 -1      1010-1.10245E+01-4.05234E+00 1.70000E+00
 -1      1011-9.11042E+00-4.28780E+00 3.49999E-01
 -1      1012-3.02339E+00-1.76646E+00 3.49999E-01
 -1      1013-4.93741E+00-1.53101E+00 3.49999E-01
 -1      1014-1.10245E+01-4.05234E+00 3.49999E-01
 -1      1015-6.64094E+00-1.72250E+00 3.49999E-01
 -1      1016-8.13399E+00-2.34094E+00 3.49999E-01
 -1      1017-7.40689E+00-4.09631E+00 3.49999E-01
 -1      1018-5.91384E+00-3.47787E+00 3.49999E-01
 -1      1019-3.30393E+00-3.97568E+00 1.70000E+00
 -1      1020-2.11725E+00-2.78900E+00 1.70000E+00
 -1      1021-3.97568E+00-3.30393E+00 1.70000E+00
 -1      1022-5.47625E+00-4.13275E+00 1.70000E+00
 -1      1023-6.61899E+00-5.27549E+00 1.70000E+00
 -1      1024-8.63450E+00-7.96274E+00 1.70000E+00
 -1      1025-7.96274E+00-8.63450E+00 3.49999E-01
 -1      1026-6.77607E+00-7.44782E+00 3.49999E-01
 -1      1027-2.11725E+00-2.78900E+00 3.49999E-01
 -1      1028-3.97568E+00-3.30393E+00 3.49999E-01
 -1      1029-8.63450E+00-7.96274E+00 3.49999E-01
 -1      1030-5.47625E+00-4.13275E+00 3.49999E-01
 -1      1031-6.61899E+00-5.27549E+00 3.49999E-01
 -1      1032-5.27549E+00-6.61899E+00 3.49999E-01
 -1      1033-4.13275E+00-5.47625E+00 3.49999E-01
 -1      1034-4.09631E+00-7.40689E+00 1.70000E+00
 -1      1035-8.88779E-01-3.38693E+00 1.70000E+00
 -1      1036-2.40869E+00-4.57385E+00 1.70000E+00
 -1      1037-1.72250E+00-6.64094E+00 1.70000E+00
 -1      1038-3.41011E+00-9.47398E+00 3.49999E-01
 -1      1039-8.88779E-01-3.38693E+00 3.49999E-01
 -1      1040-2.40869E+00-4.57385E+00 3.49999E-01
 -1      1041-4.93003E+00-1.06609E+01 3.49999E-01
 -1      1042-3.47787E+00-5.91384E+00 3.49999E-01
 -1      1043-4.09631E+00-7.40689E+00 3.49999E-01
 -1      1044-2.34094E+00-8.13399E+00 3.49999E-01
 -1      1045-1.72250E+00-6.64094E+00 3.49999E-01
 -1      1046-9.50000E-01-8.41066E+00 1.70000E+00
 -1      1047 4.74999E-01-3.46924E+00 1.70000E+00
 -1      1048-4.74999E-01-5.14746E+00 1.70000E+00
 -1      1049 4.74999E-01-1.00578E+01 1.70000E+00
 -1      1050-4.74999E-01-1.17360E+01 1.70000E+00
 -1      1051 4.74999E-01-1.17360E+01 3.49999E-01
 -1      1052 4.74999E-01-1.00578E+01 3.49999E-01
 -1      1053 4.74999E-01-3.46924E+00 3.49999E-01
 -1      1054-4.74999E-01-5.14746E+00 3.49999E-01
 -1      1055-4.74999E-01-1.17360E+01 3.49999E-01
 -1      1056-9.50000E-01-8.41066E+00 3.49999E-01
 -1      1057 9.50000E-01-8.41066E+00 3.49999E-01
 -1      1058 9.50000E-01-6.79460E+00 3.49999E-01
 -1      1059 3.47787E+00-5.91384E+00 1.70000E+00
 -1      1060 1.76646E+00-3.02339E+00 1.70000E+00
 -1      1061 1.53101E+00-4.93741E+00 1.70000E+00
 -1      1062 1.72250E+00-6.64094E+00 1.70000E+00
 -1      1063 2.34094E+00-8.13399E+00 1.70000E+00
 -1      1064 4.28780E+00-9.11042E+00 3.49999E-01
 -1      1065 1.76646E+00-3.02339E+00 3.49999E-01
 -1      1066 1.53101E+00-4.93741E+00 3.49999E-01
 -1      1067 4.05234E+00-1.10245E+01 3.49999E-01
 -1      1068 1.72250E+00-6.64094E+00 3.49999E-01
 -1      1069 2.34094E+00-8.13399E+00 3.49999E-01
 -1      1070 4.09631E+00-7.40689E+00 3.49999E-01
 -1      1071 3.47787E+00-5.91384E+00 3.49999E-01
 -1      1072 2.78900E+00-2.11725E+00 1.70000E+00
 -1      1073 3.30393E+00-3.97568E+00 1.70000E+00
 -1      1074 5.47625E+00-4.13275E+00 1.70000E+00
 -1      1075 7.44782E+00-6.77607E+00 1.70000E+00
 -1      1076 7.96274E+00-8.63450E+00 1.70000E+00
 -1      1077 7.44782E+00-6.77607E+00 3.49999E-01
 -1      1078 2.78900E+00-2.11725E+00 3.49999E-01
 -1      1079 3.30393E+00-3.97568E+00 3.49999E-01
 -1      1080 7.96274E+00-8.63450E+00 3.49999E-01
 -1      1081 5.27549E+00-6.61899E+00 3.49999E-01
 -1      1082 6.61899E+00-5.27549E+00 3.49999E-01
 -1      1083 5.47625E+00-4.13275E+00 3.49999E-01
 -1      1084 4.93741E+00-1.53101E+00 1.70000E+00
 -1      1085 3.38693E+00-8.88779E-01 1.70000E+00
 -1      1086 4.57385E+00-2.40869E+00 1.70000E+00
 -1      1087 6.64094E+00-1.72250E+00 1.70000E+00
 -1      1088 9.47398E+00-3.41011E+00 1.70000E+00
 -1      1089 1.06609E+01-4.93003E+00 1.70000E+00
 -1      1090 9.47398E+00-3.41011E+00 3.49999E-01
 -1      1091 3.38693E+00-8.88779E-01 3.49999E-01
 -1      1092 4.57385E+00-2.40869E+00 3.49999E-01
 -1      1093 1.06609E+01-4.93003E+00 3.49999E-01
 -1      1094 7.40689E+00-4.09631E+00 3.49999E-01
 -1      1095 8.13399E+00-2.34094E+00 3.49999E-01
 -1      1096 6.64094E+00-1.72250E+00 3.49999E-01
 -1      1097 1.69183E+01 8.29132E-01 3.49999E-01
 -1      1098-1.69183E+01 8.29132E-01-3.49999E-01
 -1      1099 2.48740E+00 1.67550E+01 3.49999E-01
 -1      1100 1.64315E+01 4.11380E+00 3.49999E-01
 -1      1101 1.59478E+01 5.70835E+00-3.49999E-01
 -1      1102-1.00887E+01 1.36065E+01 3.49999E-01
 -1      1103 1.67550E+01-2.48740E+00-3.49999E-01
 -1      1104 1.59478E+01-5.70835E+00-3.49999E-01
 -1      1105 1.45278E+01-8.70992E+00-3.49999E-01
 -1      1106 1.53132E+01 7.24039E+00-3.49999E-01
 -1      1107 1.00887E+01-1.36065E+01-3.49999E-01
 -1      1108 1.13768E+01 1.25493E+01-3.49999E-01
 -1      1109 7.24039E+00-1.53132E+01-3.49999E-01
 -1      1110 8.70992E+00 1.45278E+01-3.49999E-01
 -1      1111 4.11380E+00-1.64315E+01-3.49999E-01
 -1      1112 4.11380E+00 1.64315E+01-3.49999E-01
 -1      1113 5.70835E+00 1.59478E+01-3.49999E-01
 -1      1114 8.29132E-01-1.69183E+01-3.49999E-01
 -1      1115-2.48740E+00-1.67550E+01-3.49999E-01
 -1      1116-2.48740E+00 1.67550E+01-3.49999E-01
 -1      1117-8.29132E-01 1.69183E+01-3.49999E-01
 -1      1118-5.70835E+00-1.59478E+01-3.49999E-01
 -1      1119-8.70992E+00-1.45278E+01-3.49999E-01
 -1      1120-8.70992E+00 1.45278E+01-3.49999E-01
 -1      1121-7.24039E+00 1.53132E+01-3.49999E-01
 -1      1122-1.13768E+01-1.25493E+01-3.49999E-01
 -1      1123-1.36065E+01-1.00887E+01-3.49999E-01
 -1      1124-1.36065E+01 1.00887E+01-3.49999E-01
 -1      1125-1.25493E+01 1.13768E+01-3.49999E-01
 -1      1126-1.53132E+01-7.24039E+00-3.49999E-01
 -1      1127-1.45278E+01 8.70992E+00-3.49999E-01
 -1      1128-1.64315E+01-4.11380E+00-3.49999E-01
 -1      1129-1.59478E+01 5.70835E+00-3.49999E-01
 -1      1130-1.69183E+01-8.29132E-01-3.49999E-01
 -1      1131 1.53132E+01 7.24039E+00 3.49999E-01
 -1      1132 8.70992E+00 1.45278E+01 3.49999E-01
 -1      1133 1.13768E+01 1.25493E+01 3.49999E-01
 -1      1134-1.25493E+01 1.13768E+01 3.49999E-01
 -1      1135-1.59478E+01 5.70835E+00 3.49999E-01
 -1      1136-1.25493E+01-1.13768E+01 3.49999E-01
 -1      1137-1.45278E+01-8.70992E+00 3.49999E-01
 -1      1138-1.59478E+01-5.70835E+00 3.49999E-01
 -1      1139-1.67550E+01-2.48740E+00 3.49999E-01
 -1      1140-1.00887E+01-1.36065E+01 3.49999E-01
 -1      1141-2.48740E+00 1.67550E+01 3.49999E-01
 -1      1142-8.70992E+00 1.45278E+01 3.49999E-01
 -1      1143 1.69183E+01-8.29132E-01 3.49999E-01
 -1      1144 1.64315E+01-4.11380E+00 3.49999E-01
 -1      1145 1.53132E+01-7.24039E+00 3.49999E-01
 -1      1146 1.13768E+01-1.25493E+01 3.49999E-01
 -1      1147 8.70992E+00-1.45278E+01 3.49999E-01
 -1      1148 5.70835E+00-1.59478E+01 3.49999E-01
 -1      1149 2.48740E+00-1.67550E+01 3.49999E-01
 -1      1150-8.29132E-01-1.69183E+01 3.49999E-01
 -1      1151-4.11380E+00-1.64315E+01 3.49999E-01
 -1      1152-7.24039E+00-1.53132E+01 3.49999E-01
 -1      1153 3.46924E+00-4.74999E-01 1.70000E+00
 -1      1154 8.41066E+00 9.50000E-01 1.70000E+00
 -1      1155 8.41066E+00-9.50000E-01 1.70000E+00
 -1      1156 6.79460E+00-9.50000E-01 1.70000E+00
 -1      1157 1.17360E+01 4.74999E-01 1.70000E+00
 -1      1158 1.00578E+01-4.74999E-01 1.70000E+00
 -1      1159 1.17360E+01 4.74999E-01 3.49999E-01
 -1      1160 5.14746E+00 4.74999E-01 3.49999E-01
 -1      1161 3.46924E+00-4.74999E-01 3.49999E-01
 -1      1162 1.00578E+01-4.74999E-01 3.49999E-01
 -1      1163 6.79460E+00-9.50000E-01 3.49999E-01
 -1      1164 1.10245E+01 4.05234E+00 1.70000E+00
 -1      1165 9.47398E+00 3.41011E+00 1.70000E+00
 -1      1166 9.11042E+00 4.28780E+00 1.70000E+00
 -1      1167 1.06609E+01 4.93003E+00 1.70000E+00
 -1      1168 8.13399E+00 2.34094E+00 1.70000E+00
 -1      1169 6.64094E+00 1.72250E+00 1.70000E+00
 -1      1170 5.91384E+00 3.47787E+00 1.70000E+00
 -1      1171 7.40689E+00 4.09631E+00 1.70000E+00
 -1      1172 3.38693E+00 8.88779E-01 1.70000E+00
 -1      1173 4.57385E+00 2.40869E+00 1.70000E+00
 -1      1174 1.06609E+01 4.93003E+00 3.49999E-01
 -1      1175 4.57385E+00 2.40869E+00 3.49999E-01
 -1      1176 3.38693E+00 8.88779E-01 3.49999E-01
 -1      1177 9.47398E+00 3.41011E+00 3.49999E-01
 -1      1178 6.64094E+00 1.72250E+00 3.49999E-01
 -1      1179 8.63450E+00 7.96274E+00 1.70000E+00
 -1      1180 7.44782E+00 6.77607E+00 1.70000E+00
 -1      1181 6.77607E+00 7.44782E+00 1.70000E+00
 -1      1182 7.96274E+00 8.63450E+00 1.70000E+00
 -1      1183 6.61899E+00 5.27549E+00 1.70000E+00
 -1      1184 5.47625E+00 4.13275E+00 1.70000E+00
 -1      1185 2.78900E+00 2.11725E+00 1.70000E+00
 -1      1186 3.30393E+00 3.97568E+00 1.70000E+00
 -1      1187 7.96274E+00 8.63450E+00 3.49999E-01
 -1      1188 3.30393E+00 3.97568E+00 3.49999E-01
 -1      1189 2.78900E+00 2.11725E+00 3.49999E-01
 -1      1190 7.44782E+00 6.77607E+00 3.49999E-01
 -1      1191 2.34094E+00 8.13399E+00 1.70000E+00
 -1      1192 4.93003E+00 1.06609E+01 1.70000E+00
 -1      1193 4.28780E+00 9.11042E+00 1.70000E+00
 -1      1194 4.05234E+00 1.10245E+01 1.70000E+00
 -1      1195 2.40869E+00 4.57385E+00 1.70000E+00
 -1      1196 1.76646E+00 3.02339E+00 1.70000E+00
 -1      1197 1.53101E+00 4.93741E+00 1.70000E+00
 -1      1198 1.53101E+00 4.93741E+00 3.49999E-01
 -1      1199 1.76646E+00 3.02339E+00 3.49999E-01
 -1      1200 4.28780E+00 9.11042E+00 3.49999E-01
 -1      1201 3.47787E+00 5.91384E+00 3.49999E-01
 -1      1202-9.50000E-01 8.41066E+00 1.70000E+00
 -1      1203 4.74999E-01 1.17360E+01 1.70000E+00
 -1      1204 4.74999E-01 1.00578E+01 1.70000E+00
 -1      1205-4.74999E-01 1.00578E+01 1.70000E+00
 -1      1206-4.74999E-01 1.17360E+01 1.70000E+00
 -1      1207 4.74999E-01 3.46924E+00 1.70000E+00
 -1      1208-4.74999E-01 5.14746E+00 1.70000E+00
 -1      1209 9.50000E-01 6.79460E+00 1.70000E+00
 -1      1210-4.74999E-01 1.17360E+01 3.49999E-01
 -1      1211-4.74999E-01 5.14746E+00 3.49999E-01
 -1      1212 4.74999E-01 3.46924E+00 3.49999E-01
 -1      1213 4.74999E-01 1.00578E+01 3.49999E-01
 -1      1214-1.72250E+00 6.64094E+00 1.70000E+00
 -1      1215-1.53101E+00 4.93741E+00 1.70000E+00
 -1      1216-8.88779E-01 3.38693E+00 1.70000E+00
 -1      1217-1.76646E+00 3.02339E+00 1.70000E+00
 -1      1218-2.40869E+00 4.57385E+00 1.70000E+00
 -1      1219-4.05234E+00 1.10245E+01 1.70000E+00
 -1      1220-3.41011E+00 9.47398E+00 1.70000E+00
 -1      1221-4.28780E+00 9.11042E+00 1.70000E+00
 -1      1222-4.93003E+00 1.06609E+01 1.70000E+00
 -1      1223-4.93003E+00 1.06609E+01 3.49999E-01
 -1      1224-2.40869E+00 4.57385E+00 3.49999E-01
 -1      1225-8.88779E-01 3.38693E+00 3.49999E-01
 -1      1226-3.41011E+00 9.47398E+00 3.49999E-01
 -1      1227-7.96274E+00 8.63450E+00 1.70000E+00
 -1      1228-6.77607E+00 7.44782E+00 1.70000E+00
 -1      1229-7.44782E+00 6.77607E+00 1.70000E+00
 -1      1230-8.63450E+00 7.96274E+00 1.70000E+00
 -1      1231-4.13275E+00 5.47625E+00 1.70000E+00
 -1      1232-5.47625E+00 4.13275E+00 1.70000E+00
 -1      1233-6.61899E+00 5.27549E+00 1.70000E+00
 -1      1234-3.97568E+00 3.30393E+00 1.70000E+00
 -1      1235-3.97568E+00 3.30393E+00 3.49999E-01
 -1      1236-2.11725E+00 2.78900E+00 3.49999E-01
 -1      1237-6.77607E+00 7.44782E+00 3.49999E-01
 -1      1238-1.06609E+01 4.93003E+00 1.70000E+00
 -1      1239-9.11042E+00 4.28780E+00 1.70000E+00
 -1      1240-1.10245E+01 4.05234E+00 1.70000E+00
 -1      1241-5.91384E+00 3.47787E+00 1.70000E+00
 -1      1242-6.64094E+00 1.72250E+00 1.70000E+00
 -1      1243-8.13399E+00 2.34094E+00 1.70000E+00
 -1      1244-4.93741E+00 1.53101E+00 1.70000E+00
 -1      1245-1.10245E+01 4.05234E+00 3.49999E-01
 -1      1246-4.93741E+00 1.53101E+00 3.49999E-01
 -1      1247-3.02339E+00 1.76646E+00 3.49999E-01
 -1      1248-9.11042E+00 4.28780E+00 3.49999E-01
 -1      1249-1.17360E+01 4.74999E-01 1.70000E+00
 -1      1250-1.00578E+01 4.74999E-01 1.70000E+00
 -1      1251-1.00578E+01-4.74999E-01 1.70000E+00
 -1      1252-1.17360E+01-4.74999E-01 1.70000E+00
 -1      1253-6.79460E+00 9.50000E-01 1.70000E+00
 -1      1254-6.79460E+00-9.50000E-01 1.70000E+00
 -1      1255-8.41066E+00-9.50000E-01 1.70000E+00
 -1      1256-5.14746E+00-4.74999E-01 1.70000E+00
 -1      1257-5.14746E+00-4.74999E-01 3.49999E-01
 -1      1258-3.46924E+00 4.74999E-01 3.49999E-01
 -1      1259-1.00578E+01 4.74999E-01 3.49999E-01
 -1      1260-4.57385E+00-2.40869E+00 1.70000E+00
 -1      1261-3.38693E+00-8.88779E-01 1.70000E+00
 -1      1262-5.91384E+00-3.47787E+00 1.70000E+00
 -1      1263-7.40689E+00-4.09631E+00 1.70000E+00
 -1      1264-9.11042E+00-4.28780E+00 1.70000E+00
 -1      1265-1.06609E+01-4.93003E+00 1.70000E+00
 -1      1266-9.47398E+00-3.41011E+00 1.70000E+00
 -1      1267-1.06609E+01-4.93003E+00 3.49999E-01
 -1      1268-4.57385E+00-2.40869E+00 3.49999E-01
 -1      1269-3.38693E+00-8.88779E-01 3.49999E-01
 -1      1270-9.47398E+00-3.41011E+00 3.49999E-01
 -1      1271-2.78900E+00-2.11725E+00 1.70000E+00
 -1      1272-4.13275E+00-5.47625E+00 1.70000E+00
 -1      1273-5.27549E+00-6.61899E+00 1.70000E+00
 -1      1274-6.77607E+00-7.44782E+00 1.70000E+00
 -1      1275-7.96274E+00-8.63450E+00 1.70000E+00
 -1      1276-7.44782E+00-6.77607E+00 1.70000E+00
 -1      1277-3.30393E+00-3.97568E+00 3.49999E-01
 -1      1278-2.78900E+00-2.11725E+00 3.49999E-01
 -1      1279-7.44782E+00-6.77607E+00 3.49999E-01
 -1      1280-3.47787E+00-5.91384E+00 1.70000E+00
 -1      1281-1.53101E+00-4.93741E+00 1.70000E+00
 -1      1282-1.76646E+00-3.02339E+00 1.70000E+00
 -1      1283-4.93003E+00-1.06609E+01 1.70000E+00
 -1      1284-3.41011E+00-9.47398E+00 1.70000E+00
 -1      1285-4.05234E+00-1.10245E+01 1.70000E+00
 -1      1286-4.28780E+00-9.11042E+00 1.70000E+00
 -1      1287-2.34094E+00-8.13399E+00 1.70000E+00
 -1      1288-4.05234E+00-1.10245E+01 3.49999E-01
 -1      1289-1.53101E+00-4.93741E+00 3.49999E-01
 -1      1290-1.76646E+00-3.02339E+00 3.49999E-01
 -1      1291-4.28780E+00-9.11042E+00 3.49999E-01
 -1      1292-9.50000E-01-6.79460E+00 1.70000E+00
 -1      1293 4.74999E-01-5.14746E+00 1.70000E+00
 -1      1294-4.74999E-01-3.46924E+00 1.70000E+00
 -1      1295 4.74999E-01-1.17360E+01 1.70000E+00
 -1      1296-4.74999E-01-1.00578E+01 1.70000E+00
 -1      1297 9.50000E-01-6.79460E+00 1.70000E+00
 -1      1298 9.50000E-01-8.41066E+00 1.70000E+00
 -1      1299 4.74999E-01-5.14746E+00 3.49999E-01
 -1      1300-4.74999E-01-3.46924E+00 3.49999E-01
 -1      1301-4.74999E-01-1.00578E+01 3.49999E-01
 -1      1302-9.50000E-01-6.79460E+00 3.49999E-01
 -1      1303 4.09631E+00-7.40689E+00 1.70000E+00
 -1      1304 4.28780E+00-9.11042E+00 1.70000E+00
 -1      1305 4.93003E+00-1.06609E+01 1.70000E+00
 -1      1306 4.05234E+00-1.10245E+01 1.70000E+00
 -1      1307 3.41011E+00-9.47398E+00 1.70000E+00
 -1      1308 2.40869E+00-4.57385E+00 1.70000E+00
 -1      1309 8.88779E-01-3.38693E+00 1.70000E+00
 -1      1310 4.93003E+00-1.06609E+01 3.49999E-01
 -1      1311 2.40869E+00-4.57385E+00 3.49999E-01
 -1      1312 8.88779E-01-3.38693E+00 3.49999E-01
 -1      1313 3.41011E+00-9.47398E+00 3.49999E-01
 -1      1314 3.97568E+00-3.30393E+00 1.70000E+00
 -1      1315 2.11725E+00-2.78900E+00 1.70000E+00
 -1      1316 6.61899E+00-5.27549E+00 1.70000E+00
 -1      1317 5.27549E+00-6.61899E+00 1.70000E+00
 -1      1318 4.13275E+00-5.47625E+00 1.70000E+00
 -1      1319 8.63450E+00-7.96274E+00 1.70000E+00
 -1      1320 6.77607E+00-7.44782E+00 1.70000E+00
 -1      1321 8.63450E+00-7.96274E+00 3.49999E-01
 -1      1322 3.97568E+00-3.30393E+00 3.49999E-01
 -1      1323 2.11725E+00-2.78900E+00 3.49999E-01
 -1      1324 6.77607E+00-7.44782E+00 3.49999E-01
 -1      1325 4.13275E+00-5.47625E+00 3.49999E-01
 -1      1326 3.02339E+00-1.76646E+00 1.70000E+00
 -1      1327 8.13399E+00-2.34094E+00 1.70000E+00
 -1      1328 7.40689E+00-4.09631E+00 1.70000E+00
 -1      1329 5.91384E+00-3.47787E+00 1.70000E+00
 -1      1330 1.10245E+01-4.05234E+00 1.70000E+00
 -1      1331 9.11042E+00-4.28780E+00 1.70000E+00
 -1      1332 1.10245E+01-4.05234E+00 3.49999E-01
 -1      1333 4.93741E+00-1.53101E+00 3.49999E-01
 -1      1334 3.02339E+00-1.76646E+00 3.49999E-01
 -1      1335 9.11042E+00-4.28780E+00 3.49999E-01
 -1      1336 5.91384E+00-3.47787E+00 3.49999E-01
 -1      1337 1.67550E+01 2.48740E+00 3.49999E-01
 -1      1338 1.67550E+01 2.48740E+00-3.49999E-01
 -1      1339 1.69183E+01 8.29132E-01-3.49999E-01
 -1      1340-1.67550E+01 2.48740E+00-3.49999E-01
 -1      1341-1.67550E+01 2.48740E+00 3.49999E-01
 -1      1342-1.69183E+01 8.29132E-01 3.49999E-01
 -1      1343 8.29132E-01 1.69183E+01 3.49999E-01
 -1      1344 8.29132E-01 1.69183E+01-3.49999E-01
 -1      1345 2.48740E+00 1.67550E+01-3.49999E-01
 -1      1346 1.36065E+01 1.00887E+01 3.49999E-01
 -1      1347 1.25493E+01 1.13768E+01 3.49999E-01
 -1      1348 1.25493E+01 1.13768E+01-3.49999E-01
 -1      1349 1.36065E+01 1.00887E+01-3.49999E-01
 -1      1350 1.59478E+01 5.70835E+00 3.49999E-01
 -1      1351 1.64315E+01 4.11380E+00-3.49999E-01
 -1      1352-1.13768E+01 1.25493E+01 3.49999E-01
 -1      1353-1.13768E+01 1.25493E+01-3.49999E-01
 -1      1354-1.00887E+01 1.36065E+01-3.49999E-01
 -1      1355-4.11380E+00 1.64315E+01 3.49999E-01
 -1      1356-5.70835E+00 1.59478E+01 3.49999E-01
 -1      1357-5.70835E+00 1.59478E+01-3.49999E-01
 -1      1358-4.11380E+00 1.64315E+01-3.49999E-01
 -1      1359 1.25493E+01-1.13768E+01 3.49999E-01
 -1      1360 1.36065E+01-1.00887E+01 3.49999E-01
 -1      1361 1.36065E+01-1.00887E+01-3.49999E-01
 -1      1362 1.25493E+01-1.13768E+01-3.49999E-01
 -1      1363 1.69183E+01-8.29132E-01-3.49999E-01
 -1      1364 1.64315E+01-4.11380E+00-3.49999E-01
 -1      1365 1.53132E+01-7.24039E+00-3.49999E-01
 -1      1366 1.45278E+01 8.70992E+00-3.49999E-01
 -1      1367 1.13768E+01-1.25493E+01-3.49999E-01
 -1      1368 1.00887E+01 1.36065E+01-3.49999E-01
 -1      1369 8.70992E+00-1.45278E+01-3.49999E-01
 -1      1370 7.24039E+00 1.53132E+01-3.49999E-01
 -1      1371 5.70835E+00-1.59478E+01-3.49999E-01
 -1      1372 2.48740E+00-1.67550E+01-3.49999E-01
 -1      1373-8.29132E-01-1.69183E+01-3.49999E-01
 -1      1374-4.11380E+00-1.64315E+01-3.49999E-01
 -1      1375-7.24039E+00-1.53132E+01-3.49999E-01
 -1      1376-1.00887E+01-1.36065E+01-3.49999E-01
 -1      1377-1.25493E+01-1.13768E+01-3.49999E-01
 -1      1378-1.45278E+01-8.70992E+00-3.49999E-01
 -1      1379-1.53132E+01 7.24039E+00-3.49999E-01
 -1      1380-1.59478E+01-5.70835E+00-3.49999E-01
 -1      1381-1.64315E+01 4.11380E+00-3.49999E-01
 -1      1382-1.67550E+01-2.48740E+00-3.49999E-01
 -1      1383 1.45278E+01 8.70992E+00 3.49999E-01
 -1      1384 7.24039E+00 1.53132E+01 3.49999E-01
 -1      1385 5.70835E+00 1.59478E+01 3.49999E-01
 -1      1386 4.11380E+00 1.64315E+01 3.49999E-01
 -1      1387 1.00887E+01 1.36065E+01 3.49999E-01
 -1      1388-1.45278E+01 8.70992E+00 3.49999E-01
 -1      1389-1.53132E+01 7.24039E+00 3.49999E-01
 -1      1390-1.36065E+01 1.00887E+01 3.49999E-01
 -1      1391-1.64315E+01 4.11380E+00 3.49999E-01
 -1      1392-1.36065E+01-1.00887E+01 3.49999E-01
 -1      1393-1.53132E+01-7.24039E+00 3.49999E-01
 -1      1394-1.64315E+01-4.11380E+00 3.49999E-01
 -1      1395-1.69183E+01-8.29132E-01 3.49999E-01
 -1      1396-1.13768E+01-1.25493E+01 3.49999E-01
 -1      1397-8.29132E-01 1.69183E+01 3.49999E-01
 -1      1398-7.24039E+00 1.53132E+01 3.49999E-01
 -1      1399 1.67550E+01-2.48740E+00 3.49999E-01
 -1      1400 1.59478E+01-5.70835E+00 3.49999E-01
 -1      1401 1.45278E+01-8.70992E+00 3.49999E-01
 -1      1402 1.00887E+01-1.36065E+01 3.49999E-01
 -1      1403 7.24039E+00-1.53132E+01 3.49999E-01
 -1      1404 4.11380E+00-1.64315E+01 3.49999E-01
 -1      1405 8.29132E-01-1.69183E+01 3.49999E-01
 -1      1406-2.48740E+00-1.67550E+01 3.49999E-01
 -1      1407-5.70835E+00-1.59478E+01 3.49999E-01
 -1      1408-8.70992E+00-1.45278E+01 3.49999E-01
 -1      1409-1.82058E+00 2.49233E+00 3.49999E-01
 -1      1410-1.58663E+00 2.58923E+00 3.49999E-01
 -1      1411-1.82058E+00-2.49233E+00 3.49999E-01
 -1      1412-1.58663E+00-2.58923E+00 3.49999E-01
 -1      1413 3.04969E+00 4.74999E-01 3.49999E-01
 -1      1414 2.95278E+00 7.08946E-01 3.49999E-01
 -1      1415-7.28222E-01 2.99932E+00 3.49999E-01
 -1      1416-4.74999E-01 2.99932E+00 3.49999E-01
 -1      1417 1.60591E+00-2.63577E+00 3.49999E-01
 -1      1418 1.78496E+00-2.45671E+00 3.49999E-01
 -1      1419 7.28222E-01-2.99932E+00 3.49999E-01
 -1      1420 4.74999E-01-2.99932E+00 3.49999E-01
 -1      1421-2.49233E+00-1.82058E+00 3.49999E-01
 -1      1422-2.58923E+00-1.58663E+00 3.49999E-01
 -1      1423-7.28222E-01-2.99932E+00 3.49999E-01
 -1      1424-4.74999E-01-2.99932E+00 3.49999E-01
 -1      1425-2.99932E+00-7.28222E-01 3.49999E-01
 -1      1426-2.99932E+00-4.74999E-01 3.49999E-01
 -1      1427-2.63577E+00 1.60591E+00 3.49999E-01
 -1      1428-2.45671E+00 1.78496E+00 3.49999E-01
 -1      1429 1.82058E+00 2.49233E+00 3.49999E-01
 -1      1430 1.58663E+00 2.58923E+00 3.49999E-01
 -1      1431 7.28222E-01 2.99932E+00 3.49999E-01
 -1      1432 4.74999E-01 2.99932E+00 3.49999E-01
 -1      1433 2.63577E+00 1.60591E+00 3.49999E-01
 -1      1434 2.45671E+00 1.78496E+00 3.49999E-01
 -1      1435-2.99932E+00 7.28222E-01 3.49999E-01
 -1      1436-2.99932E+00 4.74999E-01 3.49999E-01
 -1      1437 2.63577E+00-1.60591E+00 3.49999E-01
 -1      1438 2.45671E+00-1.78496E+00 3.49999E-01
 -1      1439 2.99932E+00-7.28222E-01 3.49999E-01
 -1      1440 2.99932E+00-4.74999E-01 3.49999E-01
 -1      1441-2.80551E+00-6.47943E-01 3.49999E-01
 -1      1442-2.80551E+00-4.74999E-01 3.49999E-01
 -1      1443-2.63013E+00 0.00000E+00 3.49999E-01
 -1      1444-2.42992E+00-1.00651E+00 3.49999E-01
 -1      1445-2.34400E+00-1.67225E+00 3.49999E-01
 -1      1446-2.41018E+00-1.51246E+00 3.49999E-01
 -1      1447 2.42992E+00-1.00651E+00 3.49999E-01
 -1      1448 2.83991E+00 4.74999E-01 3.49999E-01
 -1      1449 2.77372E+00 6.34778E-01 3.49999E-01
 -1      1450 0.00000E+00-2.63013E+00 3.49999E-01
 -1      1451 2.63013E+00 0.00000E+00 3.49999E-01
 -1      1452-2.24815E+00-1.44535E+00 6.87499E-01
 -1      1453 6.47943E-01-2.80551E+00 3.49999E-01
 -1      1454 4.74999E-01-2.80551E+00 3.49999E-01
 -1      1455-1.85978E+00-1.85978E+00 3.49999E-01
 -1      1456-1.67225E+00-2.34400E+00 3.49999E-01
 -1      1457-1.51246E+00-2.41018E+00 3.49999E-01
 -1      1458-1.00651E+00-2.42992E+00 3.49999E-01
 -1      1459 1.00651E+00-2.42992E+00 3.49999E-01
 -1      1460 2.63013E+00 4.74999E-01 6.87499E-01
 -1      1461-1.52391E+00-2.19566E+00 6.87499E-01
 -1      1462 2.44196E+00 1.52563E+00 3.49999E-01
 -1      1463 2.31967E+00 1.64792E+00 3.49999E-01
 -1      1464 1.85978E+00 1.85978E+00 3.49999E-01
 -1      1465 2.42992E+00 1.00651E+00 3.49999E-01
 -1      1466-2.80551E+00 6.47943E-01 3.49999E-01
 -1      1467-2.80551E+00 4.74999E-01 3.49999E-01
 -1      1468 1.52563E+00-2.44196E+00 3.49999E-01
 -1      1469 1.64792E+00-2.31967E+00 3.49999E-01
 -1      1470-6.47943E-01 2.80551E+00 3.49999E-01
 -1      1471-4.74999E-01 2.80551E+00 3.49999E-01
 -1      1472-6.47943E-01-2.80551E+00 3.49999E-01
 -1      1473-4.74999E-01-2.80551E+00 3.49999E-01
 -1      1474-1.00651E+00 2.42992E+00 3.49999E-01
 -1      1475 1.00651E+00 2.42992E+00 3.49999E-01
 -1      1476 0.00000E+00 2.63013E+00 3.49999E-01
 -1      1477-2.63013E+00-4.74999E-01 6.87499E-01
 -1      1478-2.42992E+00 1.00651E+00 3.49999E-01
 -1      1479-1.85978E+00 1.85978E+00 3.49999E-01
 -1      1480-2.63013E+00 4.74999E-01 6.87499E-01
 -1      1481-2.61170E+00-5.67665E-01 6.87499E-01
 -1      1482-4.74999E-01 2.63013E+00 6.87499E-01
 -1      1483-5.67665E-01 2.61170E+00 6.87499E-01
 -1      1484-4.74999E-01-2.63013E+00 6.87499E-01
 -1      1485-5.67665E-01-2.61170E+00 6.87499E-01
 -1      1486 1.85978E+00-1.85978E+00 3.49999E-01
 -1      1487 2.24815E+00 1.44535E+00 6.87499E-01
 -1      1488 2.19566E+00 1.52391E+00 6.87499E-01
 -1      1489 4.74999E-01-2.63013E+00 6.87499E-01
 -1      1490 2.80551E+00-6.47943E-01 3.49999E-01
 -1      1491 2.80551E+00-4.74999E-01 3.49999E-01
 -1      1492 2.61170E+00-5.67665E-01 6.87499E-01
 -1      1493-1.44535E+00-2.24815E+00 6.87499E-01
 -1      1494-2.44196E+00 1.52563E+00 3.49999E-01
 -1      1495-2.31967E+00 1.64792E+00 3.49999E-01
 -1      1496 2.63013E+00 2.37500E-01 3.49999E-01
 -1      1497 2.44196E+00-1.52563E+00 3.49999E-01
 -1      1498 2.31967E+00-1.64792E+00 3.49999E-01
 -1      1499 6.47943E-01 2.80551E+00 3.49999E-01
 -1      1500 4.74999E-01 2.80551E+00 3.49999E-01
 -1      1501 2.19566E+00-1.52391E+00 6.87499E-01
 -1      1502 1.67225E+00 2.34400E+00 3.49999E-01
 -1      1503 1.51246E+00 2.41018E+00 3.49999E-01
 -1      1504 1.44535E+00 2.24815E+00 6.87499E-01
 -1      1505-2.19566E+00-1.52391E+00 6.87499E-01
 -1      1506 1.44535E+00-2.24815E+00 6.87499E-01
 -1      1507-2.61170E+00 5.67665E-01 6.87499E-01
 -1      1508 2.61170E+00 5.67665E-01 6.87499E-01
 -1      1509-1.67225E+00 2.34400E+00 3.49999E-01
 -1      1510-1.51246E+00 2.41018E+00 3.49999E-01
 -1      1511 1.52391E+00-2.19566E+00 6.87499E-01
 -1      1512-2.24815E+00 1.44535E+00 6.87499E-01
 -1      1513 2.63013E+00-4.74999E-01 6.87499E-01
 -1      1514-2.19566E+00 1.52391E+00 6.87499E-01
 -1      1515-1.52391E+00 2.19566E+00 6.87499E-01
 -1      1516 5.67665E-01-2.61170E+00 6.87499E-01
 -1      1517 4.74999E-01 2.63013E+00 6.87499E-01
 -1      1518 1.52391E+00 2.19566E+00 6.87499E-01
 -1      1519-1.44535E+00 2.24815E+00 6.87499E-01
 -1      1520 5.67665E-01 2.61170E+00 6.87499E-01
 -1      1521 1.21556E+01 2.41790E+00 3.49999E-01
 -1      1522-6.88558E+00-1.03050E+01 3.49999E-01
 -1      1523-2.41790E+00-1.21556E+01 3.49999E-01
 -1      1524-3.78002E+00-1.40896E+01 3.49999E-01
 -1      1525 1.06013E+01-7.08348E+00-3.49999E-01
 -1      1526-8.94056E+00 1.15508E+01 3.49999E-01
 -1      1527 1.47158E+01-1.03076E+00 3.49999E-01
 -1      1528-5.47244E+00 1.37349E+01 3.49999E-01
 -1      1529 1.27506E+01-0.00000E+00-3.49999E-01
 -1      1530 1.11346E+01 9.67677E+00 3.49999E-01
 -1      1531 3.82483E+00 5.31739E+00-3.49999E-01
 -1      1532-5.06996E+00-1.97361E+00-3.49999E-01
 -1      1533-4.87957E+00 1.17803E+01-3.49999E-01
 -1      1534-1.41048E+01 2.64492E+00 3.49999E-01
 -1      1535-3.18429E+00-9.06144E+00-3.49999E-01
 -1      1536 1.03119E+01-1.05952E+01 3.49999E-01
 -1      1537-1.25040E+01-2.48724E+00-3.49999E-01
 -1      1538 3.24781E+00-3.04985E+00-3.49999E-01
 -1      1539-8.00568E+00-1.23265E+01 3.49999E-01
 -1      1540-5.03396E+00-1.22892E+01-3.49999E-01
 -1      1541-8.42996E+00 9.61536E+00-3.49999E-01
 -1      1542 2.74616E+00-1.04873E+01-3.49999E-01
 -1      1543 7.24393E+00-1.01013E+01-3.49999E-01
 -1      1544 1.40688E+01-3.40968E+00 3.49999E-01
 -1      1545-2.64492E+00 1.41048E+01 3.49999E-01
 -1      1546-1.36384E+01 5.64931E+00 3.49999E-01
 -1      1547-1.40069E+01-2.78612E+00 3.49999E-01
 -1      1548-1.03465E+01 1.06373E+01-3.49999E-01
 -1      1549-1.47621E+01 0.00000E+00 3.49999E-01
 -1      1550-1.18745E+01 7.93427E+00 3.49999E-01
 -1      1551-1.18745E+01-7.93427E+00 3.49999E-01
 -1      1552-1.36384E+01-5.64931E+00 3.49999E-01
 -1      1553 1.38952E+01-2.62428E+00-3.49999E-01
 -1      1554 0.00000E+00 0.00000E+00 3.49999E-01
 -1      1555 7.93427E+00 1.18745E+01 3.49999E-01
 -1      1556 5.64931E+00 1.36384E+01 3.49999E-01
 -1      1557-1.25040E+01 2.48724E+00-3.49999E-01
 -1      1558 2.78612E+00 1.40069E+01 3.49999E-01
 -1      1559 0.00000E+00 1.47621E+01 3.49999E-01
 -1      1560-7.12181E+00 1.06585E+01 3.49999E-01
 -1      1561 1.01965E+01 4.97770E+00-3.49999E-01
 -1      1562-1.46295E+01-1.85944E+00-3.49999E-01
 -1      1563 1.37035E+01 2.85105E+00-3.49999E-01
 -1      1564 1.36384E+01 5.64931E+00 3.49999E-01
 -1      1565 1.47668E+01-4.04420E+00-3.49999E-01
 -1      1566 1.38487E+01-5.50695E+00 3.49999E-01
 -1      1567-3.87374E+00-1.42048E+01-3.49999E-01
 -1      1568-9.60317E-01-1.40007E+01-3.49999E-01
 -1      1569 1.18745E+01-7.93427E+00 3.49999E-01
 -1      1570-5.21884E+00 1.25993E+01 3.49999E-01
 -1      1571 5.64931E+00-1.36384E+01 3.49999E-01
 -1      1572 6.41025E+00-9.59361E+00 3.49999E-01
 -1      1573 2.78612E+00-1.40069E+01 3.49999E-01
 -1      1574 0.00000E+00-1.47621E+01 3.49999E-01
 -1      1575 3.63344E+00-1.34126E+01-3.49999E-01
 -1      1576-1.04384E+01-1.04384E+01 3.49999E-01
 -1      1577 9.59363E+00 6.41027E+00 3.49999E-01
 -1      1578-1.10679E+01 6.39472E+00-3.49999E-01
 -1      1579 9.03954E+00 9.03519E+00-3.49999E-01
 -1      1580 4.70232E+00-6.88361E+00-3.49999E-01
 -1      1581-1.46197E+01 4.26327E+00 3.49999E-01
 -1      1582-1.02457E+01 6.94491E+00 3.49999E-01
 -1      1583-1.19921E+00-4.73857E+00-3.49999E-01
 -1      1584 1.53329E+01-2.71924E+00-3.49999E-01
 -1      1585-1.06843E+01 1.02069E+01 3.49999E-01
 -1      1586 1.00983E+01-9.90033E+00-3.49999E-01
 -1      1587-1.16939E+01 8.68379E+00-3.49999E-01
 -1      1588 1.25916E+00 1.38905E+01 3.49999E-01
 -1      1589 1.26704E+01 6.30006E+00-3.49999E-01
 -1      1590-4.80792E+00-5.69865E+00-3.49999E-01
 -1      1591-1.13164E+01 2.25097E+00 3.49999E-01
 -1      1592-1.13164E+01-2.25097E+00 3.49999E-01
 -1      1593-9.34723E+00 1.20463E+01-3.49999E-01
 -1      1594-3.54666E+00-1.28073E+01 3.49999E-01
 -1      1595 1.25916E+00-1.38905E+01 3.49999E-01
 -1      1596-1.80118E+00-1.40082E+01 3.49999E-01
 -1      1597 2.40375E+00-1.20845E+01 3.49999E-01
 -1      1598 1.44896E+01 1.84565E+00 3.49999E-01
 -1      1599 1.21556E+01-2.41790E+00 3.49999E-01
 -1      1600 9.59361E+00-6.41025E+00 3.49999E-01
 -1      1601-7.78370E+00-1.19113E+01-3.49999E-01
 -1      1602-1.38905E+01-1.25916E+00 3.49999E-01
 -1      1603-1.41196E+01-4.04478E+00-3.49999E-01
 -1      1604-6.37004E-01-1.37553E+01 3.49999E-01
 -1      1605 9.64306E+00-9.64306E+00 3.49999E-01
 -1      1606 1.48623E+00 1.08409E+01-3.49999E-01
 -1      1607 1.20700E+01-4.72218E+00-3.49999E-01
 -1      1608 2.49545E+00 1.21235E+01 3.49999E-01
 -1      1609-3.84561E+00 1.32045E+01 3.49999E-01
 -1      1610 7.72361E+00-3.54455E+00-3.49999E-01
 -1      1611-8.96036E+00 1.28882E+01 3.49999E-01
 -1      1612-1.52467E+01-3.15564E+00-3.49999E-01
 -1      1613 1.32172E+01-6.59233E+00-3.49999E-01
 -1      1614-1.05566E+01 8.26843E+00 3.49999E-01
 -1      1615 1.86377E+00-1.46735E+01-3.49999E-01
 -1      1616-2.74192E+00-1.52323E+01 3.49999E-01
 -1      1617 1.48753E+01 2.09295E-01-3.49999E-01
 -1      1618 1.06783E+01 1.03801E+01-3.49999E-01
 -1      1619-2.75774E+00-1.52500E+01-3.49999E-01
 -1      1620-2.37666E+00-1.16681E+01-3.49999E-01
 -1      1621-8.91188E+00 5.95473E+00 3.49999E-01
 -1      1622 9.38811E-01-1.22924E+01-3.49999E-01
 -1      1623 1.19681E+01 8.48353E+00-3.49999E-01
 -1      1624 1.91955E+00-1.53011E+01 3.49999E-01
 -1      1625-1.34064E+01 7.29351E+00 3.49999E-01
 -1      1626 1.35855E+01-2.00078E+00 3.49999E-01
 -1      1627 1.18938E+01-9.22209E+00-3.49999E-01
 -1      1628 1.30889E+01 7.46850E+00 3.49999E-01
 -1      1629 9.46136E-01 1.38567E+01-3.49999E-01
 -1      1630-1.43278E+01-5.65229E+00-3.49999E-01
 -1      1631-1.53472E+01 3.14066E+00 3.49999E-01
 -1      1632-1.48123E+01-4.92860E+00 3.49999E-01
 -1      1633-1.33151E+01-4.15239E+00 3.49999E-01
 -1      1634 1.38940E+01-6.95410E+00 3.49999E-01
 -1      1635-1.17303E+01 1.01657E+01-3.49999E-01
 -1      1636 5.35923E+00-4.44159E+00-3.49999E-01
 -1      1637 7.84127E+00-1.20190E+01 3.49999E-01
 -1      1638-1.27558E+01-7.29042E+00-3.49999E-01
 -1      1639 7.52637E+00-9.66421E+00 3.49999E-01
 -1      1640-4.67814E+00 1.39865E+01-3.49999E-01
 -1      1641-6.05933E+00-9.55780E+00-3.49999E-01
 -1      1642 1.91955E+00 1.53011E+01 3.49999E-01
 -1      1643 2.08408E+00 1.04774E+01 3.49999E-01
 -1      1644 5.79116E-01-1.38023E+01-3.49999E-01
 -1      1645 1.32563E+01 8.50264E+00-3.49999E-01
 -1      1646-2.68152E-01-9.58638E+00-3.49999E-01
 -1      1647-7.77939E-01-1.22937E+01-3.49999E-01
 -1      1648-5.93495E+00-8.88227E+00 3.49999E-01
 -1      1649-2.07002E+00-1.04067E+01 3.49999E-01
 -1      1650-9.75738E+00-1.12328E+01-3.49999E-01
 -1      1651 4.32252E+00 1.46369E+01 3.49999E-01
 -1      1652-8.82760E+00-1.08743E+01 3.49999E-01
 -1      1653 4.46283E-01-1.53810E+01-3.49999E-01
 -1      1654 7.29351E+00 1.34064E+01 3.49999E-01
 -1      1655-1.04865E+01 1.17955E+01-3.49999E-01
 -1      1656-3.22241E+00 4.84361E+00-3.49999E-01
 -1      1657-4.24314E+00 1.47453E+01 3.49999E-01
 -1      1658 1.55030E+01 2.71124E-01 3.49999E-01
 -1      1659 1.38409E+01 0.00000E+00 3.49999E-01
 -1      1660-1.32092E+01 4.30498E+00 3.49999E-01
 -1      1661 1.12886E+01-2.19940E+00-3.49999E-01
 -1      1662-1.18345E+00 1.38740E+01 3.49999E-01
 -1      1663-1.32337E+01 6.60115E+00-3.49999E-01
 -1      1664-1.23512E+01-6.47900E+00 3.49999E-01
 -1      1665-9.13645E+00 1.31028E+01-3.49999E-01
 -1      1666-9.04377E+00 1.07723E+01-3.49999E-01
 -1      1667-5.27311E-01 4.54240E-01-3.49999E-01
 -1      1668 2.07002E+00-1.04067E+01 3.49999E-01
 -1      1669 1.31987E+01 1.62638E+00 3.49999E-01
 -1      1670 1.33900E+01 8.57410E+00 3.49999E-01
 -1      1671-1.38740E+01 1.18345E+00 3.49999E-01
 -1      1672-1.12563E+00-1.08266E+01-3.49999E-01
 -1      1673-1.52845E+01-3.33060E+00 3.49999E-01
 -1      1674-4.53563E+00 1.38482E+01 3.49999E-01
 -1      1675 8.54214E+00-8.16912E+00-3.49999E-01
 -1      1676-1.49180E+01 2.13499E-01-3.49999E-01
 -1      1677-1.21831E+01 9.45952E+00 3.49999E-01
 -1      1678 1.47174E+01-1.42772E-01 3.49999E-01
 -1      1679 1.46902E+01 8.61375E-01 3.49999E-01
 -1      1680-1.23817E+01 6.31047E+00 3.49999E-01
 -1      1681 1.91564E+00 1.52001E+01-3.49999E-01
 -1      1682 1.42025E+01-7.11904E+00-3.49999E-01
 -1      1683-1.31086E+00-2.60780E-01 3.49999E-01
 -1      1684 1.53498E+01-2.76756E+00 3.49999E-01
 -1      1685 6.31945E+00-1.27066E+01-3.49999E-01
 -1      1686-9.35748E+00 1.02885E+01 3.49999E-01
 -1      1687 3.30330E-01-1.35528E+01 3.49999E-01
 -1      1688-1.52312E+01-4.29496E+00-3.49999E-01
 -1      1689 1.12144E+01-1.08201E+01-3.49999E-01
 -1      1690 1.17201E+01-1.01573E+01 3.49999E-01
 -1      1691-1.46872E+01-6.04126E+00 3.49999E-01
 -1      1692-1.17683E+01-9.11906E+00-3.49999E-01
 -1      1693-1.18686E+01-9.59477E+00 3.49999E-01
 -1      1694-6.67281E+00-1.17440E+01 3.49999E-01
 -1      1695-1.46295E+01 2.69661E+00-3.49999E-01
 -1      1696-8.94111E+00 0.00000E+00-3.49999E-01
 -1      1697-1.34018E+01-7.63571E+00 3.49999E-01
 -1      1698-1.23910E+01-3.12256E+00 3.49999E-01
 -1      1699-3.94203E+00 1.37967E+00-3.49999E-01
 -1      1700 1.49591E+01-4.97315E+00 3.49999E-01
 -1      1701-8.21412E+00 1.03193E+01 3.49999E-01
 -1      1702-1.19279E+01-1.03278E+01-3.49999E-01
 -1      1703-8.79927E+00 1.08041E+01 3.49999E-01
 -1      1704 1.06675E+00-1.06132E+01-3.49999E-01
 -1      1705-2.43886E+00-1.37912E+01-3.49999E-01
 -1      1706 3.33983E+00-5.20773E+00-3.49999E-01
 -1      1707-1.20999E+01 1.04690E+01 3.49999E-01
 -1      1708 1.10305E+01-1.14708E+01 3.49999E-01
 -1      1709-1.41262E+01-2.89414E+00-3.49999E-01
 -1      1710 1.09103E+01 2.19982E+00-3.49999E-01
 -1      1711 1.42259E+01 4.75076E+00-3.49999E-01
 -1      1712-3.08363E-01-1.58810E+01 3.49999E-01
 -1      1713 6.88485E+00-1.09484E+01 3.49999E-01
 -1      1714-6.33943E+00 3.19731E-01-3.49999E-01
 -1      1715 8.64577E+00-9.64096E+00-3.49999E-01
 -1      1716-7.10205E+00 5.83710E+00-3.49999E-01
 -1      1717-5.04822E+00-1.31964E+01 3.49999E-01
 -1      1718 4.07292E+00-4.09557E+00-3.49999E-01
 -1      1719 7.97361E+00 1.16859E+01-3.49999E-01
 -1      1720-3.53843E+00-1.26926E+01-3.49999E-01
 -1      1721-1.81246E+00-1.46924E+01-3.49999E-01
 -1      1722-1.55709E+01 1.11499E+00 3.49999E-01
 -1      1723-2.41997E+00-1.02531E+01-3.49999E-01
 -1      1724 1.20635E+01-7.65963E+00-3.49999E-01
 -1      1725 1.97967E+00-1.15272E+01-3.49999E-01
 -1      1726 1.37561E+01 7.19048E+00-3.49999E-01
 -1      1727 9.95240E+00 5.54408E+00 3.49999E-01
 -1      1728 1.24110E+01-6.46923E+00 3.49999E-01
 -1      1729-8.83740E+00-8.34416E+00-3.49999E-01
 -1      1730 1.31384E+01-4.37219E+00 3.49999E-01
 -1      1731 1.74190E+00-8.35431E+00-3.49999E-01
 -1      1732-1.26569E+01 9.84837E+00-3.49999E-01
 -1      1733 9.72439E-01-9.35466E+00-3.49999E-01
 -1      1734-1.13923E+01 6.89255E+00 3.49999E-01
 -1      1735 1.05287E+01 8.89149E+00-3.49999E-01
 -1      1736 8.20865E+00-1.27063E+01-3.49999E-01
 -1      1737 1.56823E+01-1.66211E+00 3.49999E-01
 -1      1738 5.63016E+00-1.42549E+01-3.49999E-01
 -1      1739-7.42568E-01 1.11129E+00 3.49999E-01
 -1      1740 1.44159E+01-2.50326E+00 3.49999E-01
 -1      1741-1.03450E+00 1.47538E+01-3.49999E-01
 -1      1742 1.36313E+01 3.69663E+00 3.49999E-01
 -1      1743-1.32483E+01 6.43274E+00 3.49999E-01
 -1      1744 1.51425E+01-5.02876E+00-3.49999E-01
 -1      1745 4.91432E-02-7.84836E+00-3.49999E-01
 -1      1746 9.69401E+00-4.88178E+00-3.49999E-01
 -1      1747-5.61596E+00-1.42081E+01-3.49999E-01
 -1      1748 1.09394E+01-5.65638E+00-3.49999E-01
 -1      1749 4.62614E+00-5.55375E+00-3.49999E-01
 -1      1750-7.70528E+00-1.11978E+01 3.49999E-01
 -1      1751-1.14476E+01-1.10115E+01 3.49999E-01
 -1      1752 8.58175E+00-1.07215E+01 3.49999E-01
 -1      1753 2.15062E+00-9.46479E+00-3.49999E-01
 -1      1754-1.23198E+01 1.06495E+01-3.49999E-01
 -1      1755 5.79253E+00-1.47902E+01 3.49999E-01
 -1      1756-1.32444E+01-8.49627E+00-3.49999E-01
 -1      1757-1.05683E+01-9.02439E+00 3.49999E-01
 -1      1758-1.21330E+01-5.11942E+00-3.49999E-01
 -1      1759-5.00550E+00 1.50658E+01-3.49999E-01
 -1      1760 5.67793E+00-8.49762E+00 3.49999E-01
 -1      1761 4.15239E+00-1.33151E+01 3.49999E-01
 -1      1762-1.04774E+01-9.90438E+00-3.49999E-01
 -1      1763-1.22490E+01-8.19767E+00-3.49999E-01
 -1      1764-1.56180E+00-1.28996E+01 3.49999E-01
 -1      1765 1.39505E+00-1.21555E+01 3.49999E-01
 -1      1766-1.09403E+01-1.10146E+01-3.49999E-01
 -1      1767-1.08401E-01-1.45394E+01-3.49999E-01
 -1      1768 5.57952E+00 1.30897E+01-3.49999E-01
 -1      1769-1.03709E+01-1.17324E+01 3.49999E-01
 -1      1770-1.12977E+00-1.57210E+01-3.49999E-01
 -1      1771-2.47491E+00-1.27277E+01-3.49999E-01
 -1      1772-7.08694E+00 1.27782E+01 3.49999E-01
 -1      1773 1.33120E+01-3.95979E+00-3.49999E-01
 -1      1774-1.35171E+01-8.64205E+00 3.49999E-01
 -1      1775 1.19739E+01 3.95378E+00-3.49999E-01
 -1      1776-3.40017E+00-3.72789E+00-3.49999E-01
 -1      1777 1.59438E+01-1.98890E+00-3.49999E-01
 -1      1778-1.57306E+01 1.13072E+00-3.49999E-01
 -1      1779-1.54926E+01-4.26434E+00 3.49999E-01
 -1      1780 1.07425E+01 6.90234E+00-3.49999E-01
 -1      1781-1.09693E+01 1.13962E+01 3.49999E-01
 -1      1782 5.03715E+00-1.07849E+01-3.49999E-01
 -1      1783 9.54646E+00-2.97890E+00-3.49999E-01
 -1      1784-5.11328E+00-1.46357E+01 3.49999E-01
 -1      1785 7.64944E+00-8.97154E+00-3.49999E-01
 -1      1786 2.14398E+00-1.31944E+01-3.49999E-01
 -1      1787-1.06785E+01 5.98387E+00 3.49999E-01
 -1      1788-1.37553E+00 1.53626E+01 3.49999E-01
 -1      1789-1.24448E+01 3.11033E+00 3.49999E-01
 -1      1790 8.47489E+00-1.32044E+01 3.49999E-01
 -1      1791-1.24391E+01 0.00000E+00-3.49999E-01
 -1      1792-7.42555E-01 3.07557E-01 3.49999E-01
 -1      1793 1.19779E+01 9.87709E+00-3.49999E-01
 -1      1794-1.26696E+01-1.81175E+00 3.49999E-01
 -1      1795 4.55930E-01-1.00262E+01-3.49999E-01
 -1      1796-1.00086E+01 8.96285E+00-3.49999E-01
 -1      1797-9.96707E+00 9.37182E+00 3.49999E-01
 -1      1798-1.48034E+00-1.30819E+01-3.49999E-01
 -1      1799 3.74277E+00-1.17822E+01-3.49999E-01
 -1      1800 4.10792E+00-4.91632E+00-3.49999E-01
 -1      1801 1.13164E+01 1.58236E+00 3.49999E-01
 -1      1802 1.10606E+01 2.86873E+00 3.49999E-01
 -1      1803 1.06097E+01-8.53832E+00-3.49999E-01
 -1      1804 1.13164E+01-1.58236E+00 3.49999E-01
 -1      1805 1.19130E+01 3.38391E+00 3.49999E-01
 -1      1806 9.67188E+00-7.81629E+00-3.49999E-01
 -1      1807 1.28466E+01-8.92619E+00 3.49999E-01
 -1      1808 9.66421E+00-7.52637E+00 3.49999E-01
 -1      1809 6.24117E+00 1.43276E+01-3.49999E-01
 -1      1810 3.32418E+00 1.52634E+01-3.49999E-01
 -1      1811 3.36287E+00-1.17642E+01 3.49999E-01
 -1      1812 1.57119E+01 1.12888E+00-3.49999E-01
 -1      1813 1.48123E+01 4.92860E+00 3.49999E-01
 -1      1814-1.40743E+00-9.71519E+00-3.49999E-01
 -1      1815-2.38012E+00 1.19657E+01 3.49999E-01
 -1      1816-4.25715E+00-1.05905E+01-3.49999E-01
 -1      1817-1.49777E+01 4.10815E+00-3.49999E-01
 -1      1818 5.66432E+00-1.68123E+00-3.49999E-01
 -1      1819-1.47994E+01 5.43095E+00 3.49999E-01
 -1      1820 3.74339E+00-6.27142E+00-3.49999E-01
 -1      1821 1.09952E+01-6.78146E+00 3.49999E-01
 -1      1822-1.03830E+00-1.47142E+01 3.49999E-01
 -1      1823 1.50624E+00-1.57309E+01-3.49999E-01
 -1      1824-1.45316E+01-4.80864E+00-3.49999E-01
 -1      1825 1.42333E+01-5.87641E+00-3.49999E-01
 -1      1826-1.76188E+00-7.93698E+00-3.49999E-01
 -1      1827 1.22484E+00 1.04773E+01 3.49999E-01
 -1      1828 1.59724E+01 1.15454E+00 3.49999E-01
 -1      1829 1.47762E+01 5.78828E+00-3.49999E-01
 -1      1830 8.48263E-01-1.57550E+01 3.49999E-01
 -1      1831 3.23021E+00 1.53640E+01 3.49999E-01
 -1      1832-6.22230E+00 1.42923E+01-3.49999E-01
 -1      1833 1.29388E+01-3.24829E+00 3.49999E-01
 -1      1834-5.05966E+00 1.52443E+01 3.49999E-01
 -1      1835 1.27289E+01-1.57121E+00-3.49999E-01
 -1      1836 1.15218E+01-7.68780E-01-3.49999E-01
 -1      1837 3.27382E+00 1.43151E+00-3.49999E-01
 -1      1838-1.34542E+01 3.73521E+00-3.49999E-01
 -1      1839 6.42108E-01 3.78669E+00-3.49999E-01
 -1      1840-3.23490E+00-1.09862E+01-3.49999E-01
 -1      1841-3.11156E-01-1.04732E+01-3.49999E-01
 -1      1842 5.06261E+00-1.21566E+01-3.49999E-01
 -1      1843 1.36453E+01 5.72335E+00-3.49999E-01
 -1      1844 8.08662E-02-1.28858E+01-3.49999E-01
 -1      1845-6.69220E+00-7.22011E+00-3.49999E-01
 -1      1846-1.33321E+01-4.96259E+00-3.49999E-01
 -1      1847-5.35871E+00 8.57230E+00-3.49999E-01
 -1      1848-5.29674E+00-3.86130E+00-3.49999E-01
 -1      1849-1.55902E+01 3.20836E+00-3.49999E-01
 -1      1850 4.29329E+00 1.32173E+01 3.49999E-01
 -1      1851-7.07659E+00 1.22208E+01-3.49999E-01
 -1      1852-4.65608E+00-2.46489E-01-3.49999E-01
 -1      1853 7.71205E-01 1.57031E+01 3.49999E-01
 -1      1854-6.28518E+00-1.12008E+01-3.49999E-01
 -1      1855-9.62335E-01-1.48690E+01-3.49999E-01
 -1      1856-9.92982E+00 1.22050E+01 3.49999E-01
 -1      1857-1.28689E+01-6.08316E+00-3.49999E-01
 -1      1858-7.30360E+00 7.88874E+00-3.49999E-01
 -1      1859-1.93424E+00 9.70058E+00-3.49999E-01
 -1      1860-6.80207E+00-1.36095E+01 3.49999E-01
 -1      1861 1.31149E+01-5.36812E+00-3.49999E-01
 -1      1862-1.91386E+00-1.48951E+01 3.49999E-01
 -1      1863-9.45440E-01-8.69867E+00-3.49999E-01
 -1      1864 1.35808E+01-2.78973E+00 3.49999E-01
 -1      1865 1.07403E+01-7.88760E+00 3.49999E-01
 -1      1866 1.25072E+01 1.66610E+00-3.49999E-01
 -1      1867 1.41800E+01-1.13650E+00-3.49999E-01
 -1      1868-1.59262E+00-8.00665E+00 3.49999E-01
 -1      1869-1.53773E+01-1.35711E+00 3.49999E-01
 -1      1870-8.17495E+00 1.16524E+01-3.49999E-01
 -1      1871-1.13989E+01 8.82437E+00 3.49999E-01
 -1      1872-1.57523E+01-1.97004E+00-3.49999E-01
 -1      1873 2.95123E+00-1.08618E+01 3.49999E-01
 -1      1874-1.22853E+01 5.08673E+00-3.49999E-01
 -1      1875 1.11141E+01 7.68970E+00 3.49999E-01
 -1      1876-4.72321E+00-7.73111E+00-3.49999E-01
 -1      1877 1.09136E+01-3.69793E+00-3.49999E-01
 -1      1878-1.55138E+01 4.04564E+00 3.49999E-01
 -1      1879 1.10366E+01 7.94000E+00-3.49999E-01
 -1      1880 1.52194E+01 2.58673E+00-3.49999E-01
 -1      1881 2.74496E+00 3.48851E+00-3.49999E-01
 -1      1882 1.26211E+01-2.86297E+00-3.49999E-01
 -1      1883 3.57563E+00-8.10997E-01-3.49999E-01
 -1      1884 2.78547E+00-1.55315E+01-3.49999E-01
 -1      1885 6.50737E+00 1.21776E+01 3.49999E-01
 -1      1886-4.40356E+00-3.01114E+00-3.49999E-01
 -1      1887 1.21009E+01-6.06919E+00-3.49999E-01
 -1      1888 5.35304E+00-1.32040E+01-3.49999E-01
 -1      1889 5.37794E+00 5.73134E-01-3.49999E-01
 -1      1890-6.85809E+00 1.04531E+01-3.49999E-01
 -1      1891-9.94795E+00 1.11559E+01 3.49999E-01
 -1      1892 5.79253E+00 1.47902E+01 3.49999E-01
 -1      1893 2.22796E-01-8.77804E+00-3.49999E-01
 -1      1894 1.45497E+00-6.22956E+00-3.49999E-01
 -1      1895 1.07705E+01 1.11540E+01 3.49999E-01
 -1      1896 1.03327E+01-2.43325E+00 3.49999E-01
 -1      1897-1.32642E+00-9.98577E+00 3.49999E-01
 -1      1898-1.47678E+00-1.13164E+01 3.49999E-01
 -1      1899-2.92729E+00-1.11452E+01 3.49999E-01
 -1      1900-5.94623E+00-1.06941E+01 3.49999E-01
 -1      1901 9.78705E+00 9.78705E+00 3.49999E-01
 -1      1902 8.59110E+00-6.34080E+00-3.49999E-01
 -1      1903 1.24100E+01 9.64571E+00 3.49999E-01
 -1      1904 6.98873E+00-1.39322E+01-3.49999E-01
 -1      1905 4.21203E+00-1.48288E+01-3.49999E-01
 -1      1906-2.49942E+00 1.26753E+01-3.49999E-01
 -1      1907 6.21755E+00-3.13941E+00-3.49999E-01
 -1      1908-2.54529E-01-6.16481E+00-3.49999E-01
 -1      1909-2.78328E+00-1.42270E+01 3.49999E-01
 -1      1910 5.13005E+00 9.00271E+00-3.49999E-01
 -1      1911 5.66110E+00-8.89550E+00-3.49999E-01
 -1      1912 1.58968E+01-3.09919E-01-3.49999E-01
 -1      1913 8.89573E+00-9.96906E+00 3.49999E-01
 -1      1914-1.31133E+01 8.42622E+00-3.49999E-01
 -1      1915 1.24054E+01-6.87202E+00-3.49999E-01
 -1      1916-6.12080E+00-9.78705E+00 3.49999E-01
 -1      1917 1.54492E+01 2.77736E+00 3.49999E-01
 -1      1918-5.81207E+00-1.38830E+01 3.49999E-01
 -1      1919 1.91602E+00-1.06779E+01-3.49999E-01
 -1      1920 6.93404E+00-1.01707E+01 3.49999E-01
 -1      1921 1.45542E+01 6.36231E+00 3.49999E-01
 -1      1922 1.11805E+00-7.35681E+00-3.49999E-01
 -1      1923 1.36969E+01 2.60258E+00 3.49999E-01
 -1      1924 1.38336E+01-1.05034E-01-3.49999E-01
 -1      1925 1.11086E+01-1.06740E+01 3.49999E-01
 -1      1926 1.10259E+01 1.14652E+01-3.49999E-01
 -1      1927 5.88942E+00 1.51096E+01-3.49999E-01
 -1      1928 1.02118E+01-1.17865E+01-3.49999E-01
 -1      1929 1.35863E+01-1.79400E+00-3.49999E-01
 -1      1930-6.35003E+00 1.45312E+01 3.49999E-01
 -1      1931-1.34040E+01 3.33845E+00 3.49999E-01
 -1      1932 9.55680E+00-1.23017E+01 3.49999E-01
 -1      1933 1.08876E+00-1.59029E+00-3.49999E-01
 -1      1934 1.21338E+01-2.17192E+00-3.49999E-01
 -1      1935-3.20370E+00-1.50769E+00-3.49999E-01
 -1      1936 1.03661E+01-7.21895E+00 3.49999E-01
 -1      1937 8.01955E+00-1.37380E+01-3.49999E-01
 -1      1938 1.12447E+01-2.49353E+00 3.49999E-01
 -1      1939-1.68674E+00-1.38053E+01-3.49999E-01
 -1      1940-4.33564E+00-3.97676E+00-3.49999E-01
 -1      1941-3.93059E+00 9.99876E+00-3.49999E-01
 -1      1942 5.21106E+00-1.25805E+01 3.49999E-01
 -1      1943 8.47751E+00-6.33971E+00 3.49999E-01
 -1      1944-5.79676E+00 1.29049E+01-3.49999E-01
 -1      1945 7.03392E+00-5.29120E+00-3.49999E-01
 -1      1946 1.14997E+01-6.94690E+00-3.49999E-01
 -1      1947-5.52806E+00 1.37462E+01-3.49999E-01
 -1      1948 4.53540E+00-6.78771E+00 3.49999E-01
 -1      1949-1.05266E+01-7.88524E+00-3.49999E-01
 -1      1950 7.47272E+00-4.99312E+00 3.49999E-01
 -1      1951 7.03032E+00-1.32145E+01 3.49999E-01
 -1      1952 1.45513E+01 6.69683E+00-3.49999E-01
 -1      1953 8.49129E-01-8.17999E+00-3.49999E-01
 -1      1954 1.12125E+01-1.16925E+01-3.49999E-01
 -1      1955-2.88340E+00-1.01463E+01 3.49999E-01
 -1      1956 1.75335E+00-8.81468E+00 3.49999E-01
 -1      1957-1.36912E+01 1.32927E+00-3.49999E-01
 -1      1958 1.39946E+01-4.77326E+00-3.49999E-01
 -1      1959 4.44279E+00-1.28924E+01-3.49999E-01
 -1      1960-3.90607E+00 1.28037E+01-3.49999E-01
 -1      1961-1.02448E+01-6.84535E+00 3.49999E-01
 -1      1962 1.34833E+01-9.71035E-01 3.49999E-01
 -1      1963 1.19817E+01 2.74958E+00-3.49999E-01
 -1      1964 1.09992E+01 3.34533E+00-3.49999E-01
 -1      1965 3.36910E+00-7.91484E+00-3.49999E-01
 -1      1966-4.74629E+00-1.34242E+01-3.49999E-01
 -1      1967-9.75433E+00 1.12762E+01-3.49999E-01
 -1      1968-3.12421E+00 5.07183E-02-3.49999E-01
 -1      1969 7.94531E+00-1.39810E+01 3.49999E-01
 -1      1970-4.63508E+00-9.18443E+00-3.49999E-01
 -1      1971 1.04694E+01-1.21980E+01 3.49999E-01
 -1      1972 6.39579E+00-1.12670E+01-3.49999E-01
 -1      1973 4.42749E+00-1.25814E+01 3.49999E-01
 -1      1974 2.93628E+00-4.14404E+00-3.49999E-01
 -1      1975 4.62148E+00-8.15654E+00-3.49999E-01
 -1      1976-1.25805E+01-5.21106E+00 3.49999E-01
 -1      1977 2.60780E-01-1.31086E+00 3.49999E-01
 -1      1978 4.98680E+00-3.26214E+00-3.49999E-01
 -1      1979 4.29361E+00-2.02943E+00-3.49999E-01
 -1      1980 5.53858E+00-2.56297E+00-3.49999E-01
 -1      1981 1.39570E+01 1.36955E+00-3.49999E-01
 -1      1982-7.98286E+00 1.05939E+01-3.49999E-01
 -1      1983 1.91662E+00 5.21085E+00-3.49999E-01
 -1      1984 7.78106E+00-1.13835E+01-3.49999E-01
 -1      1985 1.96650E+00-1.30731E+01 3.49999E-01
 -1      1986-2.26900E+00-9.31532E+00-3.49999E-01
 -1      1987-6.02495E+00 9.75321E+00 3.49999E-01
 -1      1988-1.44605E+01 6.31223E+00-3.49999E-01
 -1      1989 9.10124E+00-1.09528E+01-3.49999E-01
 -1      1990 9.85627E+00 9.71087E+00-3.49999E-01
 -1      1991 1.21833E+01 8.30887E+00 3.49999E-01
 -1      1992 6.64324E+00-9.24803E+00-3.49999E-01
 -1      1993-5.78875E+00-1.23899E+01 3.49999E-01
 -1      1994-1.28074E+01 9.97184E+00 3.49999E-01
 -1      1995-1.33549E+01-6.62284E+00 3.49999E-01
 -1      1996 1.26057E+01-1.49835E+00 3.49999E-01
 -1      1997-1.12805E+01 1.11119E+01-3.49999E-01
 -1      1998 1.00467E+01-1.08499E+01-3.49999E-01
 -1      1999-7.69136E+00-1.01705E+01-3.49999E-01
 -1      2000-1.00539E+01 1.25434E+01-3.49999E-01
 -1      2001-5.36467E+00-2.89568E+00-3.49999E-01
 -1      2002 6.84535E+00 1.02448E+01 3.49999E-01
 -1      2003-1.66143E+00-8.05121E-01-3.49999E-01
 -1      2004-1.30464E+01 2.06306E+00 3.49999E-01
 -1      2005-6.70969E+00-1.03054E+01-3.49999E-01
 -1      2006-1.35516E+01-5.70935E+00-3.49999E-01
 -1      2007-1.45976E+00-1.16805E+01-3.49999E-01
 -1      2008 5.85580E-01-6.58369E+00-3.49999E-01
 -1      2009-2.51929E+00-8.44077E+00-3.49999E-01
 -1      2010-6.85216E+00 1.33401E+01-3.49999E-01
 -1      2011 1.40688E+01-3.49521E+00-3.49999E-01
 -1      2012-1.44029E+01 6.51882E+00 3.49999E-01
 -1      2013-7.31377E+00-8.64290E+00-3.49999E-01
 -1      2014 8.86079E+00-3.98922E+00-3.49999E-01
 -1      2015 5.95140E+00 1.09806E+01-3.49999E-01
 -1      2016 8.49763E+00 5.67794E+00 3.49999E-01
 -1      2017 1.29014E+01-7.47960E+00 3.49999E-01
 -1      2018-5.91217E+00-8.26345E+00-3.49999E-01
 -1      2019 1.33040E+01-6.24829E+00 3.49999E-01
 -1      2020 1.63160E-01 1.36524E+01 3.49999E-01
 -1      2021-2.07285E+00-9.53442E+00 3.49999E-01
 -1      2022 1.21890E+00-1.04773E+01 3.49999E-01
 -1      2023-4.96393E+00-1.23758E+01 3.49999E-01
 -1      2024-1.63992E+00-2.79648E+00-3.49999E-01
 -1      2025 1.10333E+01 4.37565E+00-3.49999E-01
 -1      2026 9.93143E+00-3.90621E+00-3.49999E-01
 -1      2027 9.16038E+00-1.31319E+01-3.49999E-01
 -1      2028 1.46585E+01-1.99924E+00-3.49999E-01
 -1      2029 1.08035E+01-9.69278E+00 3.49999E-01
 -1      2030 9.44551E+00-1.06402E+01 3.49999E-01
 -1      2031 9.09058E+00-1.14984E+01 3.49999E-01
 -1      2032 1.02367E+01-8.79348E+00 3.49999E-01
 -1      2033-1.29394E+00-1.56858E+01 3.49999E-01
 -1      2034 7.36671E+00-1.86939E+00-3.49999E-01
 -1      2035 3.13704E+00-1.89020E+00-3.49999E-01
 -1      2036 8.14407E+00-1.04778E+01-3.49999E-01
 -1      2037-5.18109E+00-1.11950E+01-3.49999E-01
 -1      2038 5.53653E-01 7.93814E+00-3.49999E-01
 -1      2039-5.16144E+00-1.00797E+01-3.49999E-01
 -1      2040 4.07950E+00 3.98382E-01-3.49999E-01
 -1      2041-8.21987E+00-9.22937E+00-3.49999E-01
 -1      2042-5.80734E+00-8.83758E-01-3.49999E-01
 -1      2043-5.18817E+00 9.57000E-01-3.49999E-01
 -1      2044-1.57052E+01 3.94505E+00-3.49999E-01
 -1      2045-8.73081E+00-4.40385E+00-3.49999E-01
 -1      2046-5.41983E+00 1.00616E+01-3.49999E-01
 -1      2047-6.99499E+00-9.13600E+00 3.49999E-01
 -1      2048-6.74293E+00-5.22975E+00-3.49999E-01
 -1      2049-8.01139E+00-1.35380E+01 3.49999E-01
 -1      2050-4.90168E+00 6.35782E+00-3.49999E-01
 -1      2051-1.39450E+01 5.02855E+00-3.49999E-01
 -1      2052-1.40506E+01 7.32071E+00-3.49999E-01
 -1      2053-1.31562E+01 7.51255E+00-3.49999E-01
 -1      2054-1.02034E+01-5.84810E+00-3.49999E-01
 -1      2055 9.07597E+00-1.20438E+01-3.49999E-01
 -1      2056 7.94952E+00-4.64324E+00-3.49999E-01
 -1      2057 8.02003E-02-1.19680E+01-3.49999E-01
 -1      2058-4.09556E+00-1.16914E+01-3.49999E-01
 -1      2059 7.26396E+00-1.22811E+01-3.49999E-01
 -1      2060 1.17096E+00 1.72969E+00-3.49999E-01
 -1      2061-1.71982E+00 2.74412E+00-3.49999E-01
 -1      2062 9.91678E+00 7.56944E+00 3.49999E-01
 -1      2063 6.70935E+00-7.51948E+00-3.49999E-01
 -1      2064-1.35591E+01 2.66964E+00-3.49999E-01
 -1      2065 9.30479E+00-1.01471E+01-3.49999E-01
 -1      2066-7.19446E+00 9.19064E+00-3.49999E-01
 -1      2067 7.06300E+00-1.30961E+01-3.49999E-01
 -1      2068-6.08937E+00 1.14454E+01-3.49999E-01
 -1      2069 9.80651E+00-1.22350E+00-3.49999E-01
 -1      2070-3.36115E+00-2.61255E+00-3.49999E-01
 -1      2071 1.23842E+01-7.80692E-01-3.49999E-01
 -1      2072 6.50332E+00-4.26175E+00-3.49999E-01
 -1      2073 8.66973E+00-1.23382E+01 3.49999E-01
 -1      2074 1.59937E+00-1.60366E+01 3.49999E-01
 -1      2075 1.53165E+01 5.08155E+00-3.49999E-01
 -1      2076 1.56174E+00 1.15307E+01 3.49999E-01
 -1      2077-2.76598E+00-6.11164E+00-3.49999E-01
 -1      2078 4.74685E+00-9.41594E-01-3.49999E-01
 -1      2079-7.16457E+00 9.48959E+00 3.49999E-01
 -1      2080-2.44444E+00-2.17954E+00-3.49999E-01
 -1      2081 1.04735E+01-5.91976E+00 3.49999E-01
 -1      2082-7.09994E+00-9.50620E+00-3.49999E-01
 -1      2083-4.94032E+00-1.09153E+00-3.49999E-01
 -1      2084-1.41060E+01 4.93998E+00 3.49999E-01
 -1      2085 1.33360E+01 2.02575E+00-3.49999E-01
 -1      2086 6.63335E-01-4.53088E+00-3.49999E-01
 -1      2087 3.30282E+00-1.52901E+01 3.49999E-01
 -1      2088 8.40598E+00-2.52357E+00-3.49999E-01
 -1      2089 1.98752E+00-1.44094E+01 3.49999E-01
 -1      2090-3.03303E+00-1.44256E+01-3.49999E-01
 -1      2091-1.52235E+01 5.05332E+00-3.49999E-01
 -1      2092-3.58383E-01 1.99767E+00-3.49999E-01
 -1      2093 9.64643E+00 7.77349E+00-3.49999E-01
 -1      2094-2.06546E+00 1.03838E+01 3.49999E-01
 -1      2095-2.05590E+00 1.30918E+01 3.49999E-01
 -1      2096-2.97602E+00 1.27470E+01 3.49999E-01
 -1      2097-3.73421E+00 1.23611E+01 3.49999E-01
 -1      2098 4.21782E+00-3.68901E-01-3.49999E-01
 -1      2099-3.45987E+00 3.08622E+00-3.49999E-01
 -1      2100 2.90633E+00 4.62647E+00-3.49999E-01
 -1      2101 5.84980E+00-5.12295E-01-3.49999E-01
 -1      2102-1.50666E+00-5.96819E+00-3.49999E-01
 -1      2103 3.85085E+00-7.16023E+00-3.49999E-01
 -1      2104-4.99312E+00-7.47272E+00 3.49999E-01
 -1      2105-9.43151E+00 3.65115E+00-3.49999E-01
 -1      2106 2.05488E+00-5.08684E+00-3.49999E-01
 -1      2107 3.18602E+00-1.28306E+01 3.49999E-01
 -1      2108-1.21784E+01 6.20782E+00-3.49999E-01
 -1      2109 1.71350E+00-1.12738E+01 3.49999E-01
 -1      2110 1.52945E+01-1.16691E+00-3.49999E-01
 -1      2111 7.15955E+00 1.30409E+01-3.49999E-01
 -1      2112-5.65030E+00-7.25440E+00-3.49999E-01
 -1      2113 9.52166E+00-8.93267E+00-3.49999E-01
 -1      2114 1.17943E+01 1.05664E+01 3.49999E-01
 -1      2115-1.00236E+01 1.99382E+00 3.49999E-01
 -1      2116 2.79209E+00 2.25113E-01-3.49999E-01
 -1      2117 9.30579E+00-1.33091E+01 3.49999E-01
 -1      2118 1.32996E+01-8.51888E-01-3.49999E-01
 -1      2119 3.38520E+00 6.87654E-01-3.49999E-01
 -1      2120-1.00236E+01-1.99382E+00 3.49999E-01
 -1      2121 1.15126E+01-8.39026E+00-3.49999E-01
 -1      2122 1.00085E+01 2.38099E+00 3.49999E-01
 -1      2123 1.09517E+01-9.44375E+00-3.49999E-01
 -1      2124 1.22606E+01 1.47326E+00 3.49999E-01
 -1      2125 2.76918E+00-1.22911E+01-3.49999E-01
 -1      2126 1.25878E+01 5.04806E+00-3.49999E-01
 -1      2127 1.17803E+01 4.78173E+00-3.49999E-01
 -1      2128 4.25763E+00-1.54705E+01 3.49999E-01
 -1      2129 4.92820E+00-1.65549E+00-3.49999E-01
 -1      2130-9.43922E+00 9.82119E+00-3.49999E-01
 -1      2131-1.07912E+01 9.67626E+00-3.49999E-01
 -1      2132-1.30994E+01 4.60963E+00-3.49999E-01
 -1      2133-8.07040E+00-8.46710E+00-3.49999E-01
 -1      2134 1.26021E+01 9.17589E+00-3.49999E-01
 -1      2135 1.11174E+01 9.58417E+00-3.49999E-01
 -1      2136 7.28646E+00 1.41026E+01-3.49999E-01
 -1      2137-7.49707E+00-7.71565E+00-3.49999E-01
 -1      2138 1.04130E+01 8.64977E+00 3.49999E-01
 -1      2139-1.37463E+01-6.79987E-01-3.49999E-01
 -1      2140-1.06901E+01-1.29014E+00-3.49999E-01
 -1      2141-7.24669E+00-1.11083E+01-3.49999E-01
 -1      2142-1.36880E+01-6.76882E+00-3.49999E-01
 -1      2143-6.76119E-01-1.14948E+01-3.49999E-01
 -1      2144-9.38519E+00-7.02212E+00-3.49999E-01
 -1      2145-3.37072E+00 1.49723E+01-3.49999E-01
 -1      2146-1.20149E+01-1.25555E+00-3.49999E-01
 -1      2147-1.31212E+01-3.46370E+00-3.49999E-01
 -1      2148-1.05966E+01-3.40463E+00-3.49999E-01
 -1      2149 1.46702E+01-6.20551E+00 3.49999E-01
 -1      2150-1.14582E+01-8.76306E+00 3.49999E-01
 -1      2151-7.90598E+00 1.13599E+01 3.49999E-01
 -1      2152-7.32835E+00 1.12593E+01-3.49999E-01
 -1      2153-1.47700E+01-6.47768E+00-3.49999E-01
 -1      2154 4.54146E+00-1.14802E+01-3.49999E-01
 -1      2155-5.43226E-01 3.27531E+00-3.49999E-01
 -1      2156 1.33197E+01-8.12818E+00-3.49999E-01
 -1      2157 4.11226E+00-1.31554E+00-3.49999E-01
 -1      2158-5.83095E+00-1.30952E+01-3.49999E-01
 -1      2159 1.23899E+01 6.26484E+00 3.49999E-01
 -1      2160-1.36340E+01 7.84697E-02 3.49999E-01
 -1      2161-1.87571E+00-7.76943E-01 3.49999E-01
 -1      2162-1.33029E+01 8.52755E+00 3.49999E-01
 -1      2163 1.14919E+00 1.59181E+01-3.49999E-01
 -1      2164 1.72442E+00-3.89450E+00-3.49999E-01
 -1      2165 8.47227E+00-3.30639E+00-3.49999E-01
 -1      2166-1.14715E+01 9.90903E+00 3.49999E-01
 -1      2167-1.27661E+01-7.15759E+00 3.49999E-01
 -1      2168-1.21555E+01-1.17638E+00 3.49999E-01
 -1      2169-8.57865E-01 1.46727E+01 3.49999E-01
 -1      2170-8.78601E+00-2.26530E+00-3.49999E-01
 -1      2171-1.04330E+01-1.20560E+01-3.49999E-01
 -1      2172 6.91189E+00-3.56017E+00-3.49999E-01
 -1      2173 7.08203E+00 9.35161E+00-3.49999E-01
 -1      2174 5.44790E+00 1.25376E+01 3.49999E-01
 -1      2175-1.86745E+00 5.20755E-01-3.49999E-01
 -1      2176-3.22844E+00 7.86767E+00-3.49999E-01
 -1      2177 1.25206E+01 5.18626E+00 3.49999E-01
 -1      2178 1.38467E+01 4.67221E+00 3.49999E-01
 -1      2179-1.51406E+00-1.79932E+00-3.49999E-01
 -1      2180-1.17335E+01-1.12461E+01-3.49999E-01
 -1      2181 4.68774E+00-1.43692E+01 3.49999E-01
 -1      2182 1.15881E+01-1.00355E+01-3.49999E-01
 -1      2183-1.64330E+00 6.80677E-01 3.49999E-01
 -1      2184-3.96972E+00-8.41475E+00-3.49999E-01
 -1      2185 1.26833E+01 8.91172E+00 3.49999E-01
 -1      2186 1.36116E+01-8.23086E+00 3.49999E-01
 -1      2187-1.27238E+01-8.22319E+00 3.49999E-01
 -1      2188 2.69239E+00 1.36180E+01-3.49999E-01
 -1      2189-1.50493E+01 2.08258E+00 3.49999E-01
 -1      2190 3.79436E+00-1.07116E+01-3.49999E-01
 -1      2191-7.65102E+00-1.34304E+01-3.49999E-01
 -1      2192 7.01475E+00-8.89457E+00 3.49999E-01
 -1      2193-8.08489E+00 8.60977E+00-3.49999E-01
 -1      2194-1.06964E+01-5.94060E+00 3.49999E-01
 -1      2195 1.07659E+01-1.37988E+00-3.49999E-01
 -1      2196 9.10131E+00-5.40610E+00 3.49999E-01
 -1      2197 2.75794E+00 8.83116E+00-3.49999E-01
 -1      2198 1.18027E+01-7.07722E+00 3.49999E-01
 -1      2199-8.04976E+00 1.23885E+01 3.49999E-01
 -1      2200-2.23978E+00-5.13164E+00-3.49999E-01
 -1      2201 6.57615E+00-1.22673E+00-3.49999E-01
 -1      2202 9.49899E+00 1.20914E+01 3.49999E-01
 -1      2203 1.98972E+00-2.58153E+00-3.49999E-01
 -1      2204-2.59985E-01-1.10542E+00-3.49999E-01
 -1      2205 2.69079E+00-8.63552E+00-3.49999E-01
 -1      2206-1.15014E+01 5.57765E+00-3.49999E-01
 -1      2207-7.15373E+00-3.41321E+00-3.49999E-01
 -1      2208 1.49317E+00-1.38372E+01-3.49999E-01
 -1      2209 8.20741E+00 2.98592E+00-3.49999E-01
 -1      2210-3.22495E+00-7.33788E+00-3.49999E-01
 -1      2211-1.45539E+01-3.98348E+00 3.49999E-01
 -1      2212 1.41367E+01-4.40624E+00 3.49999E-01
 -1      2213-9.04457E+00 6.78607E+00-3.49999E-01
 -1      2214 5.46030E+00-9.43569E+00 3.49999E-01
 -1      2215 1.80911E+00-1.23857E+01-3.49999E-01
 -1      2216 9.54197E+00 3.64224E+00-3.49999E-01
 -1      2217 2.64925E+00 1.45785E+01-3.49999E-01
 -1      2218-4.41938E-02 9.73141E+00-3.49999E-01
 -1      2219 1.52823E+00 1.60245E+01 3.49999E-01
 -1      2220 1.56069E+01 3.84093E-01-3.49999E-01
 -1      2221 9.93316E+00-1.15463E+01 3.49999E-01
 -1      2222 1.63979E+00 1.24247E+01-3.49999E-01
 -1      2223-6.44833E+00 1.35412E+01 3.49999E-01
 -1      2224-6.21457E+00 1.20449E+01 3.49999E-01
 -1      2225 1.10356E+01 5.26150E+00-3.49999E-01
 -1      2226-9.01671E-01 5.73558E+00-3.49999E-01
 -1      2227-9.31440E+00-1.25316E+01 3.49999E-01
 -1      2228-9.73972E+00-1.10507E+01 3.49999E-01
 -1      2229 3.90884E+00-1.46996E+01 3.49999E-01
 -1      2230 7.12374E+00-1.09053E+01-3.49999E-01
 -1      2231-2.57012E+00-1.31953E+01 3.49999E-01
 -1      2232 6.67358E+00-1.20997E+01 3.49999E-01
 -1      2233-9.03591E+00 8.84543E+00-3.49999E-01
 -1      2234 7.20214E+00 1.43580E+01 3.49999E-01
 -1      2235-1.13277E+01-3.23958E-01-3.49999E-01
 -1      2236-1.00175E+01-4.56480E+00-3.49999E-01
 -1      2237-1.37086E+01 5.86883E+00-3.49999E-01
 -1      2238-9.61514E+00-9.64974E+00 3.49999E-01
 -1      2239-2.18150E+00-3.90198E+00-3.49999E-01
 -1      2240-9.48780E+00-3.57574E+00-3.49999E-01
 -1      2241-6.84329E+00-1.19592E+01-3.49999E-01
 -1      2242 7.77128E+00-1.11190E+01 3.49999E-01
 -1      2243-1.22092E+01-1.05587E+01 3.49999E-01
 -1      2244 6.14583E+00-1.35569E+01-3.49999E-01
 -1      2245-9.09563E+00-6.90827E+00 3.49999E-01
 -1      2246-5.01954E+00-1.51121E+01-3.49999E-01
 -1      2247-1.72622E+00 4.32699E+00-3.49999E-01
 -1      2248 2.45468E+00-3.41548E+00-3.49999E-01
 -1      2249-8.42255E-01-4.02481E-01-3.49999E-01
 -1      2250 4.67455E-01-3.00147E+00-3.49999E-01
 -1      2251-6.11598E+00-8.02459E+00 3.49999E-01
 -1      2252 1.05078E+01 1.03057E+01 3.49999E-01
 -1      2253-1.14308E+00 1.58561E+01-3.49999E-01
 -1      2254-1.30735E+01-1.54812E+00-3.49999E-01
 -1      2255 4.14564E+00-2.92390E+00-3.49999E-01
 -1      2256-1.28969E+01-7.16454E-01-3.49999E-01
 -1      2257 5.98690E-01 1.20379E+00 3.49999E-01
 -1      2258-3.63533E-01 1.82750E+00 3.49999E-01
 -1      2259 4.30877E+00-1.56391E+01-3.49999E-01
 -1      2260-1.13773E+01-2.22173E+00-3.49999E-01
 -1      2261 1.56263E+01-6.92365E-01 3.49999E-01
 -1      2262-1.02552E+01-2.33023E+00-3.49999E-01
 -1      2263 3.13535E+00-1.44424E+01-3.49999E-01
 -1      2264 1.17104E+01-9.03976E+00 3.49999E-01
 -1      2265-1.17356E+00 1.61655E+01 3.49999E-01
 -1      2266-1.19919E+01 9.41787E+00-3.49999E-01
 -1      2267 1.06035E+01 6.75338E+00 3.49999E-01
 -1      2268 1.25640E+01-5.34761E+00 3.49999E-01
 -1      2269 7.33017E+00-4.19801E+00-3.49999E-01
 -1      2270-1.32644E+01-3.26843E+00 3.49999E-01
 -1      2271 1.26268E+01 7.51157E+00-3.49999E-01
 -1      2272-1.25461E+01 5.19682E+00 3.49999E-01
 -1      2273-3.06667E+00 1.53666E+01 3.49999E-01
 -1      2274-1.01694E+00 1.14159E+01-3.49999E-01
 -1      2275-1.17168E+00-3.71128E+00-3.49999E-01
 -1      2276-2.53871E+00 1.11268E+01-3.49999E-01
 -1      2277 1.28587E+01-4.61433E+00-3.49999E-01
 -1      2278-1.01260E+01-2.24348E-01-3.49999E-01
 -1      2279-7.73945E+00-9.79529E+00 3.49999E-01
 -1      2280-1.21936E+01 2.26963E+00 3.49999E-01
 -1      2281-8.31007E+00-3.32300E+00-3.49999E-01
 -1      2282 1.75526E+00 4.07288E+00-3.49999E-01
 -1      2283 3.13825E+00-1.12165E+01-3.49999E-01
 -1      2284-9.88218E+00 5.24213E+00-3.49999E-01
 -1      2285 4.59061E+00 1.49162E+01-3.49999E-01
 -1      2286 9.45576E+00 1.21786E+01-3.49999E-01
 -1      2287 1.20676E+01 7.27598E+00 3.49999E-01
 -1      2288-4.78724E+00-6.71578E+00-3.49999E-01
 -1      2289-2.30796E-01-1.60654E+01-3.49999E-01
 -1      2290 1.07592E+01 2.14016E+00 3.49999E-01
 -1      2291-9.46978E+00-1.25388E+00-3.49999E-01
 -1      2292-1.33646E+01-4.19374E+00-3.49999E-01
 -1      2293 2.60188E+00-6.10284E+00-3.49999E-01
 -1      2294 2.80670E-01 1.14676E+00-3.49999E-01
 -1      2295 2.59950E+00 1.48192E+01 3.49999E-01
 -1      2296 1.54041E+00 1.25961E+01 3.49999E-01
 -1      2297-5.11477E+00-1.54260E+01 3.49999E-01
 -1      2298-3.77384E+00-6.97378E-01-3.49999E-01
 -1      2299-4.85783E+00 1.27343E+01-3.49999E-01
 -1      2300-1.06708E+01 7.73345E+00-3.49999E-01
 -1      2301-2.35896E+00-1.31799E+00-3.49999E-01
 -1      2302-8.32128E+00 7.56981E+00-3.49999E-01
 -1      2303 1.53195E+01-3.89959E+00 3.49999E-01
 -1      2304-1.07181E+01-7.88862E+00 3.49999E-01
 -1      2305 3.76491E+00 1.16110E+01-3.49999E-01
 -1      2306-8.81468E+00-1.75335E+00 3.49999E-01
 -1      2307-3.44767E+00-1.00176E+01-3.49999E-01
 -1      2308 1.43715E+01 2.20290E+00-3.49999E-01
 -1      2309-1.34344E+01 3.16838E-01-3.49999E-01
 -1      2310-4.37184E+00 5.98550E-01-3.49999E-01
 -1      2311-7.31862E+00 1.19663E+01 3.49999E-01
 -1      2312-2.70212E+00-3.19395E+00-3.49999E-01
 -1      2313 4.99969E+00 1.52681E+01 3.49999E-01
 -1      2314-5.89547E+00-1.04677E+01-3.49999E-01
 -1      2315 3.56608E+00-1.53169E+01-3.49999E-01
 -1      2316 5.65202E+00-3.70061E+00-3.49999E-01
 -1      2317 1.48822E+01-1.83146E+00 3.49999E-01
 -1      2318-8.61588E-01-1.28942E+00 3.49999E-01
 -1      2319-2.89684E-01-7.38999E-01 3.49999E-01
 -1      2320-1.02608E+01-1.06463E+01-3.49999E-01
 -1      2321 1.37753E+01 9.14078E-01 3.49999E-01
 -1      2322-1.29359E+01-5.97283E+00 3.49999E-01
 -1      2323-8.05876E+00 1.27733E+01-3.49999E-01
 -1      2324-8.88403E+00 1.14835E+01-3.49999E-01
 -1      2325 5.82047E+00-9.99587E+00-3.49999E-01
 -1      2326-4.76780E-01 4.54124E+00-3.49999E-01
 -1      2327 1.99954E+00 1.60518E+01-3.49999E-01
 -1      2328-5.79622E-01-2.83099E+00-3.49999E-01
 -1      2329 5.88390E+00-1.50914E+01-3.49999E-01
 -1      2330-2.81250E+00 1.58059E+01-3.49999E-01
 -1      2331 2.83028E+00-1.59864E+01 3.49999E-01
 -1      2332 3.20738E+00 1.29777E+01 3.49999E-01
 -1      2333 6.90827E+00 9.09563E+00 3.49999E-01
 -1      2334-5.33737E+00 1.00380E+01 3.49999E-01
 -1      2335-4.73700E+00-1.42917E+01-3.49999E-01
 -1      2336 6.94971E+00-8.39421E+00-3.49999E-01
 -1      2337-9.23573E+00-9.94447E+00-3.49999E-01
 -1      2338-3.39127E+00 1.45567E+01 3.49999E-01
 -1      2339 1.55901E+01-4.29404E+00-3.49999E-01
 -1      2340-1.03199E+00-7.03066E+00-3.49999E-01
 -1      2341-1.19208E+00-1.21555E+01 3.49999E-01
 -1      2342-2.93236E+00-7.40297E-01-3.49999E-01
 -1      2343 1.05881E+01-4.58269E+00-3.49999E-01
 -1      2344-4.53540E+00-6.78770E+00 3.49999E-01
 -1      2345-1.52164E+01 4.76912E+00 3.49999E-01
 -1      2346 1.19623E+01-3.67894E+00-3.49999E-01
 -1      2347 8.50043E+00-1.22091E+00-3.49999E-01
 -1      2348-5.84477E+00 1.30556E+01 3.49999E-01
 -1      2349 8.17535E+00 1.05348E+01 3.49999E-01
 -1      2350-1.08150E+01 8.60412E+00-3.49999E-01
 -1      2351 5.14448E+00 3.00894E+00-3.49999E-01
 -1      2352 5.98515E-02-2.47860E-01-3.49999E-01
 -1      2353 1.03294E+01-1.43529E+00 3.49999E-01
 -1      2354 9.58301E+00-6.74782E+00-3.49999E-01
 -1      2355-8.33599E+00-7.67003E+00-3.49999E-01
 -1      2356 5.25604E-01 5.57059E+00-3.49999E-01
 -1      2357-1.17188E+01-3.29613E+00-3.49999E-01
 -1      2358-2.77539E+00 1.97144E+00-3.49999E-01
 -1      2359 7.28908E+00-1.25172E+01 3.49999E-01
 -1      2360 6.17061E+00-1.28751E+01 3.49999E-01
 -1      2361 3.80778E+00-9.00728E+00-3.49999E-01
 -1      2362-7.53083E+00 6.83070E+00-3.49999E-01
 -1      2363-1.87890E+00 9.44585E+00 3.49999E-01
 -1      2364-1.36956E+00 3.53698E+00-3.49999E-01
 -1      2365-2.28587E-01 5.30228E+00-3.49999E-01
 -1      2366-5.37694E+00-1.00216E+01 3.49999E-01
 -1      2367 1.48027E+01 3.75584E+00 3.49999E-01
 -1      2368 6.05580E+00-5.14388E+00-3.49999E-01
 -1      2369 1.17528E+01 1.08216E+01-3.49999E-01
 -1      2370 9.07432E+00 1.08503E+01-3.49999E-01
 -1      2371-6.18028E+00 1.10324E+01 3.49999E-01
 -1      2372 6.40033E+00-2.23603E+00-3.49999E-01
 -1      2373 9.33843E+00 6.26089E+00-3.49999E-01
 -1      2374 2.77836E+00 6.91850E+00-3.49999E-01
 -1      2375-1.31399E+01 1.95166E+00-3.49999E-01
 -1      2376-1.15393E+01-7.20603E+00-3.49999E-01
 -1      2377-9.88989E+00-8.87989E+00-3.49999E-01
 -1      2378 5.57539E+00-6.16649E+00-3.49999E-01
 -1      2379 6.91097E+00-1.42863E+01 3.49999E-01
 -1      2380 1.69650E+00 2.84309E+00-3.49999E-01
 -1      2381 5.56201E+00-1.14613E+01-3.49999E-01
 -1      2382-8.85223E+00-1.00246E+01 3.49999E-01
 -1      2383 3.45000E+00 1.20517E+01 3.49999E-01
 -1      2384-8.64790E+00-1.35280E+01-3.49999E-01
 -1      2385-6.63687E+00-1.38281E+01-3.49999E-01
 -1      2386-1.33142E+01-4.93595E+00 3.49999E-01
 -1      2387 1.03522E+00-1.54929E+00 3.49999E-01
 -1      2388 8.68054E+00 4.89252E+00-3.49999E-01
 -1      2389-2.14667E-01-5.11243E+00-3.49999E-01
 -1      2390-1.05572E+01-6.83619E+00-3.49999E-01
 -1      2391 1.48146E+01 1.10482E+00-3.49999E-01
 -1      2392-4.45829E+00-9.89075E+00-3.49999E-01
 -1      2393-5.79249E+00-1.31366E+01 3.49999E-01
 -1      2394-1.43126E+01-6.99985E+00 3.49999E-01
 -1      2395-8.57272E+00-1.09966E+01-3.49999E-01
 -1      2396-6.37745E+00-2.06385E+00-3.49999E-01
 -1      2397 6.27252E+00 1.11406E+01 3.49999E-01
 -1      2398 7.72906E+00-8.16234E+00-3.49999E-01
 -1      2399-5.31333E+00 9.00762E+00 3.49999E-01
 -1      2400-5.64802E+00-4.93846E+00-3.49999E-01
 -1      2401-8.76515E+00-1.37474E+01 3.49999E-01
 -1      2402-2.88653E+00-4.48478E+00-3.49999E-01
 -1      2403-5.99910E+00 7.28574E+00-3.49999E-01
 -1      2404-9.84070E+00-8.95445E+00 3.49999E-01
 -1      2405 5.46822E-01 2.66571E+00-3.49999E-01
 -1      2406-4.50028E+00 7.59506E+00-3.49999E-01
 -1      2407 9.78460E+00-1.25362E+01-3.49999E-01
 -1      2408 8.74663E+00-5.31200E+00-3.49999E-01
 -1      2409 4.22647E-01 4.66811E+00-3.49999E-01
 -1      2410 6.56831E+00-1.19980E+01-3.49999E-01
 -1      2411-6.26384E+00 1.22395E+01-3.49999E-01
 -1      2412 1.35270E+00 6.74473E+00-3.49999E-01
 -1      2413-3.38161E+00 6.35533E+00-3.49999E-01
 -1      2414 7.36667E+00-6.47745E+00-3.49999E-01
 -1      2415-5.37045E+00 8.03744E+00 3.49999E-01
 -1      2416 5.65487E+00-7.80347E+00-3.49999E-01
 -1      2417-1.24402E+01-3.21086E+00-3.49999E-01
 -1      2418-1.13254E+01-6.81964E+00 3.49999E-01
 -1      2419-6.30947E+00 9.63086E+00-3.49999E-01
 -1      2420 1.02625E+01 5.19083E-01-3.49999E-01
 -1      2421-1.14164E+01-6.04329E+00-3.49999E-01
 -1      2422-3.94802E+00-7.63378E+00-3.49999E-01
 -1      2423-4.14889E+00-2.11478E+00-3.49999E-01
 -1      2424 3.98870E+00 1.15829E+00-3.49999E-01
 -1      2425 4.05485E+00 2.40321E+00-3.49999E-01
 -1      2426-8.22428E+00-1.27151E+01-3.49999E-01
 -1      2427-1.49155E+00 1.13202E+01 3.49999E-01
 -1      2428-2.95553E+00 1.10246E+01 3.49999E-01
 -1      2429-3.89179E+00-6.73978E+00-3.49999E-01
 -1      2430-4.92649E-01 1.23140E+00-3.49999E-01
 -1      2431-1.12017E+01 3.68658E+00-3.49999E-01
 -1      2432-7.86676E+00 2.00281E+00-3.49999E-01
 -1      2433-7.59151E+00-4.46693E+00-3.49999E-01
 -1      2434 5.80284E+00-1.03113E+01 3.49999E-01
 -1      2435-8.17228E+00-5.96640E+00-3.49999E-01
 -1      2436 1.42216E+00 3.74716E-01-3.49999E-01
 -1      2437 6.77010E+00 1.18849E+01-3.49999E-01
 -1      2438 2.33444E+00-9.35302E-01-3.49999E-01
 -1      2439-1.05331E+01-2.81102E+00 3.49999E-01
 -1      2440-1.12553E+01-4.36014E+00-3.49999E-01
 -1      2441 6.66789E+00 1.92586E+00-3.49999E-01
 -1      2442-5.92500E+00 3.60895E+00-3.49999E-01
 -1      2443-7.69709E+00 6.22242E-01-3.49999E-01
 -1      2444-2.27647E+00 1.40736E+01-3.49999E-01
 -1      2445 8.28426E+00 7.60186E-01-3.49999E-01
 -1      2446-1.35749E+01-7.66046E+00-3.49999E-01
 -1      2447-4.20525E+00 1.47192E+01-3.49999E-01
 -1      2448 9.17974E+00-1.28555E-01-3.49999E-01
 -1      2449 9.30417E+00 8.92317E-01-3.49999E-01
 -1      2450-1.14411E+01-3.19553E+00 3.49999E-01
 -1      2451-1.71271E+00 1.62707E+00-3.49999E-01
 -1      2452-2.60377E+00 2.84434E+00-3.49999E-01
 -1      2453 2.92386E+00 1.03434E+01-3.49999E-01
 -1      2454 2.51941E+00 1.15401E+01-3.49999E-01
 -1      2455 1.19542E+01-5.83569E+00 3.49999E-01
 -1      2456 2.54843E-01 1.49655E+01-3.49999E-01
 -1      2457-1.38944E+01-1.48951E+00-3.49999E-01
 -1      2458-9.96646E-01-1.12300E+00-3.49999E-01
 -1      2459 1.43600E+00-4.61640E+00-3.49999E-01
 -1      2460-1.12450E+01-1.33030E+00 3.49999E-01
 -1      2461-7.30763E+00-8.27702E-01-3.49999E-01
 -1      2462-4.62106E+00-1.39368E+01 3.49999E-01
 -1      2463-2.15111E+00 5.52133E+00-3.49999E-01
 -1      2464-1.14833E+01 3.20236E+00 3.49999E-01
 -1      2465 1.02254E+01 4.13539E+00-3.49999E-01
 -1      2466 2.44471E+00-7.72435E+00-3.49999E-01
 -1      2467 1.05125E+01-2.80137E+00-3.49999E-01
 -1      2468-7.98907E+00 1.35787E+01 3.49999E-01
 -1      2469 7.93068E-01-1.61110E+01-3.49999E-01
 -1      2470 8.44125E-02 6.75976E+00-3.49999E-01
 -1      2471-1.01039E+01 6.83707E+00-3.49999E-01
 -1      2472-7.47272E+00-4.99312E+00 3.49999E-01
 -1      2473 9.00352E-01-3.72327E+00-3.49999E-01
 -1      2474-1.22102E+01 4.02544E+00-3.49999E-01
 -1      2475-1.17979E+01 7.33949E+00-3.49999E-01
 -1      2476-1.55834E+00 7.35462E+00-3.49999E-01
 -1      2477 5.70678E+00 1.20248E+01-3.49999E-01
 -1      2478-1.45901E+01-1.97375E+00 3.49999E-01
 -1      2479-1.57058E+01-2.36149E+00 3.49999E-01
 -1      2480-1.52914E+01-8.95002E-01-3.49999E-01
 -1      2481-1.07936E+01 9.38749E+00 3.49999E-01
 -1      2482-2.97251E+00 5.63417E+00-3.49999E-01
 -1      2483 1.23799E+01-5.38892E+00-3.49999E-01
 -1      2484-1.65408E+00 6.37310E+00-3.49999E-01
 -1      2485-2.13078E+00 8.46599E+00-3.49999E-01
 -1      2486-3.59260E+00 6.78592E-01-3.49999E-01
 -1      2487 3.42157E+00-1.35668E+01 3.49999E-01
 -1      2488-1.14660E+01 1.26988E+00-3.49999E-01
 -1      2489-9.53637E+00 7.82341E+00-3.49999E-01
 -1      2490 5.82290E+00 1.19023E+01 3.49999E-01
 -1      2491 4.67901E+00-1.39437E+01-3.49999E-01
 -1      2492 1.41189E+01 7.30920E+00 3.49999E-01
 -1      2493 1.51036E+01 5.72112E+00 3.49999E-01
 -1      2494 1.33629E+01 6.76780E-01-3.49999E-01
 -1      2495 1.17645E+01-3.36195E+00 3.49999E-01
 -1      2496 4.03815E+00 3.71618E+00-3.49999E-01
 -1      2497 3.48834E+00 3.05260E+00-3.49999E-01
 -1      2498 4.01839E+00 7.88818E+00-3.49999E-01
 -1      2499-4.64432E+00 1.07621E+01-3.49999E-01
 -1      2500-1.13392E+01-8.30916E+00-3.49999E-01
 -1      2501 9.89032E+00-2.13288E+00-3.49999E-01
 -1      2502 4.03082E+00 6.59456E+00-3.49999E-01
 -1      2503 4.85180E+00 1.12738E+01-3.49999E-01
 -1      2504 1.14857E+01-1.49721E+00-3.49999E-01
 -1      2505 2.14920E+00-9.56344E+00 3.49999E-01
 -1      2506-1.47479E+01 1.60975E+00-3.49999E-01
 -1      2507-1.43669E+01-7.30796E+00-3.49999E-01
 -1      2508-1.21291E+01-6.55582E+00-3.49999E-01
 -1      2509-2.52390E+00 6.95337E+00-3.49999E-01
 -1      2510 6.68014E+00 3.55602E+00-3.49999E-01
 -1      2511-9.76156E-01 8.91512E+00-3.49999E-01
 -1      2512-4.48410E-01-4.24467E+00-3.49999E-01
 -1      2513-6.34091E+00-4.11663E+00-3.49999E-01
 -1      2514-1.19162E+00 4.95968E+00-3.49999E-01
 -1      2515-7.59738E+00-5.32686E+00-3.49999E-01
 -1      2516-5.47241E+00 1.11961E-01-3.49999E-01
 -1      2517-1.17729E+01 1.42126E+00 3.49999E-01
 -1      2518-7.65580E+00-2.39266E+00-3.49999E-01
 -1      2519 1.83833E+00 7.93409E+00-3.49999E-01
 -1      2520-1.42761E+01 7.38402E+00 3.49999E-01
 -1      2521 3.20570E-01-1.11064E+01-3.49999E-01
 -1      2522 8.70480E+00 4.93913E+00 3.49999E-01
 -1      2523-1.56278E+01 2.16734E+00-3.49999E-01
 -1      2524 9.54377E+00-5.80916E+00-3.49999E-01
 -1      2525 5.18091E-01-5.66713E+00-3.49999E-01
 -1      2526 7.81439E+00 7.66907E+00-3.49999E-01
 -1      2527 2.84867E+00 5.65911E+00-3.49999E-01
 -1      2528-5.92745E+00-6.09155E+00-3.49999E-01
 -1      2529-4.70413E+00 9.34508E+00-3.49999E-01
 -1      2530-2.31023E-01 1.38927E+01-3.49999E-01
 -1      2531 2.31704E+00 1.59837E+01 3.49999E-01
 -1      2532 3.20762E-01 1.26698E+01-3.49999E-01
 -1      2533 1.03081E+01-6.26043E+00-3.49999E-01
 -1      2534-6.04172E+00 1.06146E+01-3.49999E-01
 -1      2535 1.50974E+01 3.84078E+00-3.49999E-01
 -1      2536 5.99411E+00 9.80339E+00-3.49999E-01
 -1      2537 7.20334E+00 1.06427E+01-3.49999E-01
 -1      2538 1.25265E+01 8.18082E-01-3.49999E-01
 -1      2539 2.27963E+00 1.31988E+01 3.49999E-01
 -1      2540 2.37674E+00 1.12787E+01 3.49999E-01
 -1      2541-1.11006E+00 1.28085E+01-3.49999E-01
 -1      2542-1.45749E+01 5.52092E+00-3.49999E-01
 -1      2543-3.74096E+00 7.15565E+00-3.49999E-01
 -1      2544 1.89326E+00 9.69124E+00-3.49999E-01
 -1      2545 5.01403E+00-1.64081E-01-3.49999E-01
 -1      2546-2.23608E+00-7.00899E+00-3.49999E-01
 -1      2547-8.75988E+00 1.19234E+00-3.49999E-01
 -1      2548-6.80397E+00 1.43271E+00-3.49999E-01
 -1      2549 9.46122E+00 4.53075E+00-3.49999E-01
 -1      2550-1.17061E+01 4.46125E-01-3.49999E-01
 -1      2551-4.47242E+00 8.48519E+00-3.49999E-01
 -1      2552 1.14699E+01 1.21832E+00-3.49999E-01
 -1      2553 1.35796E+00 0.00000E+00 3.49999E-01
 -1      2554 1.19463E+00 7.50310E+00-3.49999E-01
 -1      2555 1.32076E+01 3.98100E+00-3.49999E-01
 -1      2556 2.92351E+00-1.30659E+01-3.49999E-01
 -1      2557 1.09537E+01-7.80889E+00-3.49999E-01
 -1      2558-1.06429E+01 5.64573E+00-3.49999E-01
 -1      2559-5.74990E+00-1.63927E+00-3.49999E-01
 -1      2560 7.53557E+00-3.23848E-01-3.49999E-01
 -1      2561-9.98794E-01 1.03033E+01-3.49999E-01
 -1      2562 1.48307E+01-6.51289E+00-3.49999E-01
 -1      2563 1.31283E+01-9.15741E+00-3.49999E-01
 -1      2564 1.24678E+01-8.49398E+00-3.49999E-01
 -1      2565-9.31622E-01 2.56692E+00-3.49999E-01
 -1      2566 1.30331E+01-7.37598E+00-3.49999E-01
 -1      2567-4.14303E+00 5.51091E+00-3.49999E-01
 -1      2568 1.03247E+01 5.98109E+00-3.49999E-01
 -1      2569-8.84118E+00 8.11653E+00-3.49999E-01
 -1      2570-1.19345E+01 3.17561E+00-3.49999E-01
 -1      2571-6.93744E+00-6.23053E+00-3.49999E-01
 -1      2572 9.30459E-01 9.99727E+00-3.49999E-01
 -1      2573 1.17860E+01 1.75433E-01-3.49999E-01
 -1      2574-8.58161E+00-1.29296E+01 3.49999E-01
 -1      2575 8.06804E+00-7.20801E+00-3.49999E-01
 -1      2576 1.27857E+01 4.22502E+00 3.49999E-01
 -1      2577 5.22151E+00 1.40769E+01-3.49999E-01
 -1      2578 1.41380E+01 3.71556E+00-3.49999E-01
 -1      2579 6.36255E+00 1.41345E+01 3.49999E-01
 -1      2580-9.16118E+00 7.01233E+00 3.49999E-01
 -1      2581-9.98739E+00-5.45961E+00 3.49999E-01
 -1      2582-1.26619E+01 1.02165E+00-3.49999E-01
 -1      2583 2.87791E+00 1.01485E+01 3.49999E-01
 -1      2584-6.01520E+00 6.15380E+00-3.49999E-01
 -1      2585-1.95940E+00 1.52192E+01-3.49999E-01
 -1      2586 1.39161E+00 1.39161E+00 3.49999E-01
 -1      2587 8.59966E+00 1.30900E+01 3.49999E-01
 -1      2588-3.60444E+00 1.10191E+01-3.49999E-01
 -1      2589-8.26169E+00 5.92598E+00-3.49999E-01
 -1      2590-1.30577E+00 1.00474E+01 3.49999E-01
 -1      2591 7.10831E+00 1.14964E+01 3.49999E-01
 -1      2592 5.83991E+00 1.02329E+01 3.49999E-01
 -1      2593-1.00866E+01 2.15108E+00-3.49999E-01
 -1      2594-9.80170E+00 5.57337E+00 3.49999E-01
 -1      2595 1.01366E+01 2.83611E+00-3.49999E-01
 -1      2596 8.23660E-01 1.17045E+01-3.49999E-01
 -1      2597 7.89677E+00-1.03499E+01 3.49999E-01
 -1      2598-3.69985E+00-4.48398E+00-3.49999E-01
 -1      2599 1.76923E+00 1.33714E+01-3.49999E-01
 -1      2600 1.18749E+01 5.74634E+00-3.49999E-01
 -1      2601 6.13156E+00-1.14052E+01 3.49999E-01
 -1      2602 4.74261E+00-9.08690E+00-3.49999E-01
 -1      2603-6.81619E+00 7.23064E+00-3.49999E-01
 -1      2604-1.89445E+00 1.18852E+01-3.49999E-01
 -1      2605-9.41594E+00 7.77464E+00 3.49999E-01
 -1      2606 9.91665E+00 1.78016E+00-3.49999E-01
 -1      2607-3.62867E+00 1.38281E+01-3.49999E-01
 -1      2608-9.26856E+00-5.32843E+00-3.49999E-01
 -1      2609-5.94905E+00-1.21813E+01-3.49999E-01
 -1      2610 9.51627E+00 1.09234E+01 3.49999E-01
 -1      2611 5.52040E+00-6.98958E+00-3.49999E-01
 -1      2612-8.33693E+00-6.02943E+00 3.49999E-01
 -1      2613 1.13524E+00-2.45311E+00-3.49999E-01
 -1      2614 1.69851E-01-2.02808E+00-3.49999E-01
 -1      2615-9.60884E+00 6.09301E+00-3.49999E-01
 -1      2616-1.14518E+01 4.61239E+00-3.49999E-01
 -1      2617 1.12868E+01-8.41198E+00 3.49999E-01
 -1      2618 1.62036E+01-1.28826E-01 3.49999E-01
 -1      2619-3.63149E+00 2.21332E+00-3.49999E-01
 -1      2620 2.39979E+00-1.40090E+01-3.49999E-01
 -1      2621 1.14185E+01 6.22328E+00 3.49999E-01
 -1      2622 1.16886E+01 7.19471E+00-3.49999E-01
 -1      2623-2.22002E+00 1.58284E+01 3.49999E-01
 -1      2624-5.64913E-01 7.87285E+00-3.49999E-01
 -1      2625 5.42127E+00 4.66086E+00-3.49999E-01
 -1      2626 1.14090E+01 6.42258E+00-3.49999E-01
 -1      2627-8.12380E+00-1.46733E+00-3.49999E-01
 -1      2628 8.51110E+00 1.31515E+01-3.49999E-01
 -1      2629 3.71450E+00 1.42037E+01-3.49999E-01
 -1      2630 5.18301E+00 1.53957E+01-3.49999E-01
 -1      2631 5.10155E+00 1.42913E+01 3.49999E-01
 -1      2632 1.01175E+01 1.43017E+00 3.49999E-01
 -1      2633-6.14140E-03 8.74780E+00-3.49999E-01
 -1      2634 4.45763E+00 4.58688E+00-3.49999E-01
 -1      2635-7.80663E+00 4.25376E+00-3.49999E-01
 -1      2636-1.08457E+01 7.50223E+00 3.49999E-01
 -1      2637 1.71338E+00 1.16182E+01-3.49999E-01
 -1      2638 2.67394E+00 1.25734E+01-3.49999E-01
 -1      2639-8.09759E+00-1.61071E+00 3.49999E-01
 -1      2640-3.34607E+00 1.37891E+01 3.49999E-01
 -1      2641-7.82311E+00 1.38394E+01-3.49999E-01
 -1      2642 2.26672E+00 1.89321E+00-3.49999E-01
 -1      2643-9.00707E+00 5.43035E+00-3.49999E-01
 -1      2644 3.60802E+00 1.37425E+01 3.49999E-01
 -1      2645 5.69504E+00 8.52322E+00 3.49999E-01
 -1      2646-1.03011E+01 9.66593E-01-3.49999E-01
 -1      2647-1.03270E+01 3.14913E+00-3.49999E-01
 -1      2648-1.07735E+01 2.88765E-01-3.49999E-01
 -1      2649-2.41594E+00 4.75437E+00-3.49999E-01
 -1      2650 3.90395E+00 9.47063E+00-3.49999E-01
 -1      2651-2.22990E+00 3.62409E+00-3.49999E-01
 -1      2652 4.31407E+00 8.70492E+00-3.49999E-01
 -1      2653 3.10353E+00 9.55845E+00-3.49999E-01
 -1      2654 5.81023E-01 1.08324E+01-3.49999E-01
 -1      2655-9.27646E+00 4.55439E+00-3.49999E-01
 -1      2656 1.03029E+00-5.69582E-01-3.49999E-01
 -1      2657-7.87097E+00-6.85504E+00-3.49999E-01
 -1      2658-6.30243E+00-3.00498E+00-3.49999E-01
 -1      2659 1.53752E+01-3.52073E+00-3.49999E-01
 -1      2660-9.27949E-01-7.86152E+00-3.49999E-01
 -1      2661-4.20608E+00-1.34133E+00-3.49999E-01
 -1      2662-2.26873E+00-2.20542E-01-3.49999E-01
 -1      2663 6.07441E+00 6.59727E+00-3.49999E-01
 -1      2664-1.02984E+01 4.26490E+00-3.49999E-01
 -1      2665 2.14840E+00 1.04285E+01-3.49999E-01
 -1      2666 1.04243E+01-4.54217E-01-3.49999E-01
 -1      2667-1.16405E+01-6.05373E+00 3.49999E-01
 -1      2668 1.13016E+01-4.94353E+00-3.49999E-01
 -1      2669-9.39859E+00-1.26200E+01-3.49999E-01
 -1      2670-1.07397E+01 4.88821E+00-3.49999E-01
 -1      2671 3.32386E+00 3.98684E+00-3.49999E-01
 -1      2672 6.35724E+00 1.26676E+01-3.49999E-01
 -1      2673 4.95268E+00 5.79068E+00-3.49999E-01
 -1      2674 9.51630E+00-1.93701E+00 3.49999E-01
 -1      2675 3.03909E+00-9.45296E+00-3.49999E-01
 -1      2676-2.44923E+00 1.16610E+00-3.49999E-01
 -1      2677-8.03786E+00 6.11230E+00 3.49999E-01
 -1      2678 7.42611E+00 1.07762E+01 3.49999E-01
 -1      2679 1.00425E+01 1.11821E+01-3.49999E-01
 -1      2680 5.19809E+00 1.03639E+01-3.49999E-01
 -1      2681 2.04843E+00 6.12991E+00-3.49999E-01
 -1      2682 6.42045E+00-1.36891E+01 3.49999E-01
 -1      2683 6.43511E+00-5.94622E+00-3.49999E-01
 -1      2684-5.31294E+00 7.74685E+00-3.49999E-01
 -1      2685-1.85730E+00 1.32898E+01-3.49999E-01
 -1      2686-4.51467E-01 1.21531E+01-3.49999E-01
 -1      2687 7.82144E+00 6.14790E+00-3.49999E-01
 -1      2688 4.60923E+00 1.24121E+01-3.49999E-01
 -1      2689 8.58439E+00 3.90438E+00-3.49999E-01
 -1      2690 7.69207E+00-1.12294E+00-3.49999E-01
 -1      2691-8.94536E+00 2.54578E+00-3.49999E-01
 -1      2692-1.11429E+01 2.42463E+00-3.49999E-01
 -1      2693 1.24744E+00 4.72531E+00-3.49999E-01
 -1      2694-3.07141E+00-5.31638E+00-3.49999E-01
 -1      2695 5.19194E+00-7.77027E+00 3.49999E-01
 -1      2696-1.23922E+01-4.18213E+00-3.49999E-01
 -1      2697 5.43732E+00 1.80792E+00-3.49999E-01
 -1      2698-1.25109E+01-3.94446E+00 3.49999E-01
 -1      2699 6.06874E-01 9.26406E+00-3.49999E-01
 -1      2700-8.81468E+00 1.75335E+00 3.49999E-01
 -1      2701-1.45246E+00 1.23083E+01 3.49999E-01
 -1      2702-1.05331E+01 2.81102E+00 3.49999E-01
 -1      2703 2.19278E+00 9.61713E+00 3.49999E-01
 -1      2704 8.65676E+00 1.88724E+00-3.49999E-01
 -1      2705-1.69746E+00 1.08483E+01-3.49999E-01
 -1      2706 9.67091E+00 5.55475E+00-3.49999E-01
 -1      2707 6.78979E-01-5.46295E-01 3.49999E-01
 -1      2708 1.94871E+00-1.71374E+00-3.49999E-01
 -1      2709-1.09233E+01-5.24120E+00-3.49999E-01
 -1      2710 6.12072E+00 1.15623E+00-3.49999E-01
 -1      2711 9.15417E+00-8.70053E-01-3.49999E-01
 -1      2712-2.68662E+00 1.19053E+01-3.49999E-01
 -1      2713 5.97480E+00 5.55251E+00-3.49999E-01
 -1      2714-1.04773E+01-1.14427E+00 3.49999E-01
 -1      2715 8.76206E+00 7.16591E+00-3.49999E-01
 -1      2716 1.26026E-01 1.59826E+01-3.49999E-01
 -1      2717 3.98715E+00 1.05507E+01-3.49999E-01
 -1      2718-6.57192E+00-1.24214E+00-3.49999E-01
 -1      2719 7.66654E+00 2.12348E+00-3.49999E-01
 -1      2720 2.10654E+00-6.87320E+00-3.49999E-01
 -1      2721 3.52333E+00 6.02121E+00-3.49999E-01
 -1      2722-2.15627E-01 6.06185E+00-3.49999E-01
 -1      2723 1.46604E+00-3.15900E+00-3.49999E-01
 -1      2724-1.24844E+01 3.92685E+00 3.49999E-01
 -1      2725-1.23130E+01 8.05550E+00-3.49999E-01
 -1      2726-1.22082E+01 7.14739E+00 3.49999E-01
 -1      2727-3.02332E+00 9.24102E+00-3.49999E-01
 -1      2728-7.14732E+00 3.10987E+00-3.49999E-01
 -1      2729-7.04618E+00 2.25685E+00-3.49999E-01
 -1      2730-1.58810E+01-3.08363E-01 3.49999E-01
 -1      2731-8.34236E-01 6.78856E+00-3.49999E-01
 -1      2732-8.18605E+00 3.27313E+00-3.49999E-01
 -1      2733-6.02238E+00 1.10550E+00-3.49999E-01
 -1      2734-9.08508E+00 5.13007E+00 3.49999E-01
 -1      2735 9.15244E+00-1.74233E+00-3.49999E-01
 -1      2736-1.08609E+01-9.08116E+00-3.49999E-01
 -1      2737-5.35217E+00 1.11348E+01-3.49999E-01
 -1      2738 8.91502E+00 3.23208E+00-3.49999E-01
 -1      2739-1.47279E+01 1.28497E+00 3.49999E-01
 -1      2740-1.51814E-01-3.50422E+00-3.49999E-01
 -1      2741-1.26195E+01 1.32579E+00 3.49999E-01
 -1      2742 2.02501E+00 7.16404E+00-3.49999E-01
 -1      2743 2.79322E+00 7.87510E+00-3.49999E-01
 -1      2744 1.59262E+00 8.00665E+00 3.49999E-01
 -1      2745-1.59717E+01 1.99165E+00 3.49999E-01
 -1      2746 7.98838E+00 8.74546E+00-3.49999E-01
 -1      2747 4.69240E+00 1.33265E+01-3.49999E-01
 -1      2748 8.22626E+00 9.95867E+00-3.49999E-01
 -1      2749 6.72849E+00 1.00361E+01-3.49999E-01
 -1      2750 7.30388E+00 1.13744E+01-3.49999E-01
 -1      2751 1.31808E+00 5.76567E+00-3.49999E-01
 -1      2752 6.18602E+00 8.72972E+00-3.49999E-01
 -1      2753-2.27852E+00 1.49286E+01 3.49999E-01
 -1      2754-6.23129E+00 4.87212E+00-3.49999E-01
 -1      2755 8.61247E+00 5.76759E+00-3.49999E-01
 -1      2756-6.82195E+00 4.05935E+00-3.49999E-01
 -1      2757 1.10646E+01 5.26134E-01-3.49999E-01
 -1      2758-4.53458E+00 4.09200E+00-3.49999E-01
 -1      2759-1.27180E+01 3.39109E+00-3.49999E-01
 -1      2760-9.21983E+00-5.11997E+00 3.49999E-01
 -1      2761 5.05230E+00 6.83543E+00-3.49999E-01
 -1      2762-2.00071E+00 1.60636E+01-3.49999E-01
 -1      2763 7.48967E+00 4.50965E+00-3.49999E-01
 -1      2764 6.85109E+00 5.99609E+00-3.49999E-01
 -1      2765-3.95687E+00 1.18773E+01-3.49999E-01
 -1      2766-1.04773E+01 1.24423E+00 3.49999E-01
 -1      2767-9.66589E+00 6.37496E+00 3.49999E-01
 -1      2768 4.20573E+00-9.86260E+00-3.49999E-01
 -1      2769 5.10236E+00 7.91867E+00-3.49999E-01
 -1      2770 1.00557E+01 1.15155E+01 3.49999E-01
 -1      2771 0.00000E+00-2.03023E+00 3.49999E-01
 -1      2772-5.07989E+00 2.41542E+00-3.49999E-01
 -1      2773 1.06573E+01 5.94449E+00 3.49999E-01
 -1      2774-8.71335E+00-8.34422E-01-3.49999E-01
 -1      2775-7.32597E+00-1.64483E+00-3.49999E-01
 -1      2776 5.74298E+00 3.75781E+00-3.49999E-01
 -1      2777 6.39269E+00 4.49810E+00-3.49999E-01
 -1      2778 5.20681E+00 7.79253E+00 3.49999E-01
 -1      2779 3.48963E+00 1.45697E+01 3.49999E-01
 -1      2780 7.01789E+00 7.01387E+00-3.49999E-01
 -1      2781 2.73622E+00 2.62179E+00-3.49999E-01
 -1      2782 2.17795E+00 9.48472E-01-3.49999E-01
 -1      2783-9.64099E+00 4.55330E-01-3.49999E-01
 -1      2784 5.15374E+00 9.20584E+00 3.49999E-01
 -1      2785 6.04445E+00 9.35458E+00 3.49999E-01
 -1      2786 6.16821E+00 7.66151E+00-3.49999E-01
 -1      2787 6.15049E+00 7.90002E+00 3.49999E-01
 -1      2788-3.09712E+00 3.93195E+00-3.49999E-01
 -1      2789-3.10411E-01 1.08710E+01-3.49999E-01
 -1      2790 8.05965E+00 1.08164E+01-3.49999E-01
 -1      2791 3.64877E+00 1.25789E+01-3.49999E-01
 -1      2792 3.72807E+00 4.59424E+00-3.49999E-01
 -1      2793 8.70615E+00-1.73176E+00 3.49999E-01
 -1      2794 6.41241E+00 1.31042E+01 3.49999E-01
 -1      2795 4.69637E+00 9.70668E+00-3.49999E-01
 -1      2796 6.32844E+00-6.77534E+00-3.49999E-01
 -1      2797-1.07717E+00 1.36803E+01-3.49999E-01
 -1      2798 7.89434E+00 6.15207E+00 3.49999E-01
 -1      2799 7.47272E+00 4.99312E+00 3.49999E-01
 -1      2800 4.66441E+00 1.25272E+01 3.49999E-01
 -1      2801-3.78355E+00 4.30205E+00-3.49999E-01
 -1      2802-3.87498E+00-5.80135E+00-3.49999E-01
 -1      2803 1.19801E+00 8.57630E+00-3.49999E-01
 -1      2804 4.59315E+00 1.75039E+00-3.49999E-01
 -1      2805-1.25942E+00 1.30811E+01 3.49999E-01
 -1      2806 7.16163E+00 7.34980E-01-3.49999E-01
 -1      2807-2.31969E+00 1.03784E+01-3.49999E-01
 -1      2808 9.33920E+00 2.45132E+00-3.49999E-01
 -1      2809 8.81468E+00 1.75335E+00 3.49999E-01
 -1      2810 6.20315E+00 2.86591E-01-3.49999E-01
 -1      2811 7.44590E+00 5.37123E+00-3.49999E-01
 -1      2812 8.75609E+00 8.12204E+00-3.49999E-01
 -1      2813 9.09408E+00 7.17416E+00 3.49999E-01
 -1      2814-2.45120E-01 1.57495E+01 3.49999E-01
 -1      2815-6.06653E+00 2.09711E+00-3.49999E-01
 -1      2816-3.87283E+00 9.14588E+00-3.49999E-01
 -1      2817-1.27430E+01 7.85925E+00 3.49999E-01
 -1      2818-1.25038E+01 6.94706E+00-3.49999E-01
 -1      2819-1.59593E+01 1.09556E-01-3.49999E-01
 -1      2820-8.62298E+00 4.00590E+00-3.49999E-01
 -1      2821 7.65791E+00 9.71298E+00 3.49999E-01
 -1      2822 7.09069E+00 8.33831E+00-3.49999E-01
 -1      2823-5.42069E+00 4.39995E+00-3.49999E-01
 -1      2824-4.26757E+00-5.07883E+00-3.49999E-01
 -1      2825 7.57338E+00 3.61817E+00-3.49999E-01
 -1      2826 5.00940E+00-9.97405E+00-3.49999E-01
 -1      2827-4.28851E+00 2.79582E+00-3.49999E-01
 -1      2828-3.73177E+00 8.41546E+00-3.49999E-01
 -1      2829-5.04988E+00 3.33263E+00-3.49999E-01
 -1      2830-4.73060E+00 1.65626E+00-3.49999E-01
 -1      2831 4.88797E+00 3.84315E+00-3.49999E-01
 -1      2832 3.86164E+00 1.33840E+01-3.49999E-01
 -1      2833 6.30452E+00 1.34980E+01-3.49999E-01
 -1      2834 7.71006E+00 1.32160E+00-3.49999E-01
 -1      2835 6.68308E+00 5.24063E+00-3.49999E-01
 -1      2836-4.72922E-01 1.53656E+01-3.49999E-01
 -1      2837-1.61432E+01 4.94243E-01 3.49999E-01
 -1      2838-4.07296E+00 3.50819E+00-3.49999E-01
 -1      2839 4.07379E-01 1.90735E+00-3.49999E-01
 -1      2840 3.68234E-01 1.90234E+00 3.49999E-01
 -1      2841 1.66420E+00 2.17761E+00-3.49999E-01
 -1      2842-2.66841E-01 2.66310E+00-3.49999E-01
 -1      2843-2.56672E+00 4.75274E-01-3.49999E-01
 -1      2844-1.09496E+00-2.35874E+00-3.49999E-01
 -1      2845-2.37848E+00-7.63949E-01-3.49999E-01
 -1      2846 1.46842E+00-2.00250E+00-3.49999E-01
 -1      2847 2.49523E+00-2.12278E+00-3.49999E-01
 -1      2848-1.53605E+00-1.36444E+00 3.49999E-01
 -1      2849 5.64989E-01-2.43946E+00-3.49999E-01
 -1      2850-6.72775E-01-1.94126E+00 3.49999E-01
 -1      2851-6.12540E-01-1.77534E+00-3.49999E-01
 -1      2852 4.49964E-01 2.26207E+00 3.49999E-01
 -1      2853 1.77080E+00 1.46327E+00-3.49999E-01
 -1      2854-1.43096E+00 2.18741E+00-3.49999E-01
 -1      2855 2.10304E+00 2.62489E-01-3.49999E-01
 -1      2856 2.91713E+00-4.94652E-01-3.49999E-01
 -1      2857 8.42193E-01-2.77704E+00-3.49999E-01
 -1      2858-1.59382E+00-2.29578E+00-3.49999E-01
 -1      2859-4.42702E-01 2.22556E+00 3.49999E-01
 -1      2860-2.02008E+00 1.82091E-02 3.49999E-01
 -1      2861 9.79944E-01 1.84739E+00 3.49999E-01
 -1      2862-2.19907E+00 2.21008E-01-3.49999E-01
 -1      2863-1.03518E+00 1.63739E+00-3.49999E-01
 -1      2864-1.88755E+00 1.08754E+00-3.49999E-01
 -1      2865-2.64158E+00-4.28023E-01-3.49999E-01
 -1      2866-2.17039E+00-4.19763E-01 3.49999E-01
 -1      2867-1.80911E+00-1.33503E+00-3.49999E-01
 -1      2868 1.59920E+00-1.04902E+00-3.49999E-01
 -1      2869 1.77959E+00-7.37128E-01 3.49999E-01
 -1      2870-2.12159E+00 1.46148E+00-3.49999E-01
 -1      2871-2.18440E+00 4.34515E-01 3.49999E-01
 -1      2872 1.86053E+00 7.70654E-01 3.49999E-01
 -1      2873 1.06883E+00 2.33769E+00-3.49999E-01
 -1      2874 2.24365E+00 1.41884E+00-3.49999E-01
 -1      2875-1.11406E+00 1.66729E+00 3.49999E-01
 -1      2876-3.48535E-01-2.29545E+00-3.49999E-01
 -1      2877-2.09806E+00-1.77889E+00-3.49999E-01
 -1      2878 1.26069E+00-1.88674E+00 3.49999E-01
 -1      2879 6.14447E-01-1.99820E+00 3.49999E-01
 -1      2880 2.00798E+00-1.25832E+00-3.49999E-01
 -1      2881-1.18605E+00-1.77503E+00 3.49999E-01
 -1      2882 1.41003E-01 2.34833E+00-3.49999E-01
 -1      2883 5.22942E-01 2.27810E+00-3.49999E-01
 -1      2884-1.30028E+00 1.94599E+00 3.49999E-01
 -1      2885-2.11985E+00 2.18326E+00-3.49999E-01
 -1      2886 2.46526E+00 5.70015E-01-3.49999E-01
 -1      2887 2.32410E+00-3.16051E-01-3.49999E-01
 -1      2888 1.57557E+00-2.43021E+00-3.49999E-01
 -1      2889 1.61092E+00-1.32973E+00 3.49999E-01
 -1      2890-1.31395E+00-2.08611E+00-3.49999E-01
 -1      2891-2.71282E+00-1.71789E+00-3.49999E-01
 -1      2892 2.55540E+00-6.21902E-01-3.49999E-01
 -1      2893 2.91958E+00 1.98806E+00-3.49999E-01
 -1      2894 2.91956E+00 6.73206E-01-3.49999E-01
 -1      2895-5.63037E-01 2.36484E+00-3.49999E-01
 -1      2896-6.35426E-01 2.86519E+00-3.49999E-01
 -1      2897 2.04494E+00 1.01196E-01 3.49999E-01
 -1      2898 1.43763E+00 2.52213E+00-3.49999E-01
 -1      2899 1.30028E+00 1.94600E+00 3.49999E-01
 -1      2900 1.65196E-01 3.26269E+00-3.49999E-01
 -1      2901-1.61583E+00 1.30120E+00 3.49999E-01
 -1      2902-3.68248E-01-2.22665E+00 3.49999E-01
 -1      2903-2.36542E+00 1.82296E+00-3.49999E-01
 -1      2904-1.94828E+00 1.30181E+00 3.49999E-01
 -1      2905-1.91625E+00-1.19232E+00 3.49999E-01
 -1      2906 1.37420E+00-2.05663E+00 3.49999E-01
 -1      2907-2.80631E+00-1.67655E+00 9.16972E-01
 -1      2908 2.13810E+00-3.89449E-01 3.49999E-01
 -1      2909 2.19081E+00 5.01507E-01 3.49999E-01
 -1      2910-1.33649E+00-2.00019E+00 3.49999E-01
 -1      2911 2.49513E+00-1.55329E+00-3.49999E-01
 -1      2912-3.08067E+00 5.71847E-01-3.49999E-01
 -1      2913 1.83024E+00 1.23531E+00 3.49999E-01
 -1      2914 2.63720E+00 1.63745E+00-3.49999E-01
 -1      2915-1.77647E+00 2.36143E+00-3.49999E-01
 -1      2916 4.86243E-01 2.44449E+00 3.49999E-01
 -1      2917-2.91634E-02-2.75089E+00-3.49999E-01
 -1      2918 3.25946E+00 4.74999E-01 9.48279E-01
 -1      2919 3.20278E-01-2.26464E+00 3.49999E-01
 -1      2920-6.96055E-01-2.30104E+00 3.49999E-01
 -1      2921 6.27019E-01-2.30769E+00 3.49999E-01
 -1      2922-2.39673E+00-4.76745E-01 3.49999E-01
 -1      2923 1.97912E+00-1.11423E+00 3.49999E-01
 -1      2924 2.03083E+00 1.35697E+00 3.49999E-01
 -1      2925 7.45743E-01 3.21334E+00-3.49999E-01
 -1      2926-2.43022E+00-1.00580E+00 8.54088E-01
 -1      2927-3.23428E+00-4.74999E-01 9.16972E-01
 -1      2928-2.40512E+00 4.78413E-01 3.49999E-01
 -1      2929-1.39432E+00 2.08674E+00 3.49999E-01
 -1      2930-2.63013E+00 7.67997E-04 8.54088E-01
 -1      2931-2.08791E+00 1.39510E+00 3.49999E-01
 -1      2932-2.56565E+00-1.57686E+00 6.92750E-01
 -1      2933-3.19313E+00-8.08500E-01 9.48278E-01
 -1      2934-4.74999E-01 3.23428E+00 9.16972E-01
 -1      2935 1.39473E-01 2.82578E+00-3.49999E-01
 -1      2936-8.08500E-01 3.19313E+00 9.48278E-01
 -1      2937-3.23428E+00 4.74999E-01 9.16972E-01
 -1      2938-5.00758E-01-2.40219E+00 3.49999E-01
 -1      2939 2.82958E+00 1.68618E+00 9.48278E-01
 -1      2940 2.43022E+00 1.00580E+00 8.54088E-01
 -1      2941 2.83856E+00 1.17295E+00-3.49999E-01
 -1      2942-4.74999E-01-3.32118E+00 1.02500E+00
 -1      2943 7.67997E-04-2.63013E+00 8.54088E-01
 -1      2944 2.62286E+00 1.95111E+00 9.16969E-01
 -1      2945-2.64067E+00-1.96891E+00 9.48279E-01
 -1      2946 2.63013E+00-7.67997E-04 8.54088E-01
 -1      2947-1.86033E+00-1.85924E+00 8.54088E-01
 -1      2948-2.00434E+00 1.84070E+00-3.49999E-01
 -1      2949-2.97379E+00-4.74999E-01 6.92750E-01
 -1      2950 1.68618E+00-2.82958E+00 9.48278E-01
 -1      2951 4.74999E-01-3.23428E+00 9.16972E-01
 -1      2952-1.96891E+00-2.64067E+00 9.48279E-01
 -1      2953 3.00990E+00-1.14507E+00-3.49999E-01
 -1      2954 2.88660E+00-1.70980E+00 1.02500E+00
 -1      2955 1.00651E+00-2.42992E+00 8.54629E-01
 -1      2956-1.67655E+00-2.80631E+00 9.16972E-01
 -1      2957-4.82557E-01 2.42595E+00 3.49999E-01
 -1      2958-2.97379E+00 4.74999E-01 6.92750E-01
 -1      2959-1.85952E+00-1.52364E+00 3.49999E-01
 -1      2960-2.94505E+00-7.05744E-01 7.06511E-01
 -1      2961 4.74999E-01-2.97379E+00 6.92750E-01
 -1      2962-1.00651E+00-2.42992E+00 8.53008E-01
 -1      2963-1.34104E+00 2.58736E+00-3.49999E-01
 -1      2964-8.08500E-01-3.19313E+00 9.48278E-01
 -1      2965 1.67655E+00 2.80631E+00 9.16972E-01
 -1      2966 1.85924E+00 1.86033E+00 8.54088E-01
 -1      2967 2.43866E+00 1.76691E+00 6.92749E-01
 -1      2968 7.67997E-04 2.63013E+00 8.54088E-01
 -1      2969 1.00180E+00 2.81039E+00-3.49999E-01
 -1      2970-2.02770E+00-1.38192E+00 3.49999E-01
 -1      2971-1.77905E+00-2.45080E+00 7.06511E-01
 -1      2972-3.19313E+00 8.08500E-01 9.48278E-01
 -1      2973-1.57686E+00-2.56565E+00 6.92750E-01
 -1      2974 2.99095E+00 4.74999E-01 7.06512E-01
 -1      2975-4.74999E-01-3.02705E+00 7.51012E-01
 -1      2976-3.18658E+00 1.33620E+00-3.49999E-01
 -1      2977 2.58150E+00 1.58343E+00 7.06511E-01
 -1      2978 3.16986E+00 7.98862E-01 9.16969E-01
 -1      2979 4.54391E-01-2.42336E+00 3.49999E-01
 -1      2980-1.00722E+00 2.42963E+00 8.54088E-01
 -1      2981 2.42963E+00-1.00722E+00 8.54088E-01
 -1      2982 2.40993E+00 4.79371E-01 3.49999E-01
 -1      2983 1.95111E+00-2.62286E+00 9.16969E-01
 -1      2984 2.92920E+00 6.99178E-01 6.92748E-01
 -1      2985-4.74999E-01 2.97379E+00 6.92750E-01
 -1      2986-1.11242E+00-2.89510E+00-3.49999E-01
 -1      2987 3.23428E+00-4.74999E-01 9.16972E-01
 -1      2988 2.37705E+00-4.72831E-01 3.49999E-01
 -1      2989 1.58343E+00-2.58150E+00 7.06511E-01
 -1      2990-2.45080E+00-1.77905E+00 7.06511E-01
 -1      2991-7.05744E-01-2.94505E+00 7.06511E-01
 -1      2992 8.08500E-01-3.19313E+00 9.48278E-01
 -1      2993 1.90750E+00-1.41415E+00 3.49999E-01
 -1      2994-2.62286E+00 1.95111E+00 9.16969E-01
 -1      2995-2.42992E+00 1.00651E+00 8.53008E-01
 -1      2996 1.96891E+00 2.64067E+00 9.48279E-01
 -1      2997 4.74999E-01 3.23428E+00 9.16972E-01
 -1      2998 1.00580E+00 2.43022E+00 8.54088E-01
 -1      2999 1.77905E+00 2.45080E+00 7.06511E-01
 -1      3000 4.74999E-01 2.97379E+00 6.92750E-01
 -1      3001-7.05744E-01 2.94505E+00 7.06511E-01
 -1      3002 4.47646E-01 3.01168E+00-3.49999E-01
 -1      3003 1.39432E+00 2.08675E+00 3.49999E-01
 -1      3004 2.54435E+00-1.87260E+00 8.56249E-01
 -1      3005 1.85978E+00-1.85978E+00 8.53007E-01
 -1      3006 2.08978E+00-1.29917E+00 3.49999E-01
 -1      3007 2.56737E+00-1.57758E+00 7.71874E-01
 -1      3008 3.19313E+00-8.08500E-01 9.48278E-01
 -1      3009 2.94505E+00-7.05744E-01 7.06511E-01
 -1      3010-1.67655E+00 2.80631E+00 9.16972E-01
 -1      3011 1.98615E+00-1.73342E+00 6.01503E-01
 -1      3012 1.76691E+00-2.43866E+00 6.92749E-01
 -1      3013 2.97379E+00-4.74999E-01 6.92750E-01
 -1      3014-1.85978E+00 1.85978E+00 8.53007E-01
 -1      3015-2.82958E+00 1.68618E+00 9.48278E-01
 -1      3016 7.05744E-01-2.94505E+00 7.06511E-01
 -1      3017-2.94505E+00 7.05744E-01 7.06511E-01
 -1      3018-2.58150E+00 1.58343E+00 7.06511E-01
 -1      3019 1.57686E+00 2.56565E+00 6.92750E-01
 -1      3020 8.08500E-01 3.19313E+00 9.48278E-01
 -1      3021-1.57686E+00 2.56565E+00 6.92750E-01
 -1      3022-2.43866E+00 1.76691E+00 6.92749E-01
 -1      3023-1.96891E+00 2.64067E+00 9.48279E-01
 -1      3024-1.77905E+00 2.45080E+00 7.06511E-01
 -1      3025 7.05744E-01 2.94505E+00 7.06511E-01
 -1      3026-2.81334E+00-5.59603E-01-4.35033E-03
 -1      3027 5.42022E-01-2.72494E+00-4.89618E-02
 -1      3028-1.59441E+00-2.38621E+00 2.36438E-02
 -1      3029-2.38621E+00-1.59441E+00-2.56244E-02
 -1      3030 1.37420E+00-2.05663E+00 2.13831E-02
 -1      3031 1.58335E+00-2.36965E+00 2.14842E-02
 -1      3032-5.59878E-01-2.81472E+00 2.90177E-02
 -1      3033-2.39673E+00-4.76745E-01-4.89947E-03
 -1      3034-1.33649E+00-2.00019E+00 4.67455E-02
 -1      3035-4.81692E-01-2.42161E+00 7.05689E-03
 -1      3036-2.08791E+00 1.39510E+00 1.61864E-02
 -1      3037 2.81473E+00 5.59878E-01 1.24627E-02
 -1      3038-2.60489E+00-5.18145E-01 1.12611E-01
 -1      3039-2.81472E+00 5.59878E-01-1.95605E-02
 -1      3040-2.43619E+00 4.84592E-01 1.47002E-02
 -1      3041 2.03083E+00 1.35697E+00 4.22863E-03
 -1      3042-5.19623E-01-2.61232E+00 1.26766E-01
 -1      3043 2.35977E+00 1.57674E+00-6.21068E-03
 -1      3044-2.61668E+00-1.26716E+00 8.57915E-02
 -1      3045 2.73096E+00-5.43219E-01-1.58527E-02
 -1      3046 5.40605E-01-2.71782E+00 1.65483E-01
 -1      3047-1.39432E+00 2.08674E+00 1.22714E-02
 -1      3048 4.86243E-01 2.44449E+00 3.97108E-03
 -1      3049-1.41289E+00-2.11453E+00 1.98372E-01
 -1      3050 1.47876E+00-2.21311E+00 1.35363E-01
 -1      3051 2.44201E+00 4.85750E-01 1.99030E-02
 -1      3052-5.59878E-01 2.81472E+00 2.35892E-02
 -1      3053-4.82557E-01 2.42595E+00 2.25234E-02
 -1      3054-5.21161E-01 2.62006E+00 1.29869E-01
 -1      3055-1.53952E+00-2.30406E+00 1.90241E-01
 -1      3056 2.19802E+00 1.46867E+00 1.23070E-01
 -1      3057 1.65652E-01-2.90716E+00 6.19502E-02
 -1      3058-1.97986E+00-2.18471E+00 8.08411E-02
 -1      3059-2.71782E+00 5.40605E-01 1.68239E-01
 -1      3060 2.38621E+00-1.59441E+00 1.98049E-02
 -1      3061-2.38621E+00 1.59441E+00 5.21445E-02
 -1      3062 1.59441E+00 2.38621E+00-1.26789E-03
 -1      3063 5.04997E-01 2.53878E+00 1.76985E-01
 -1      3064-2.04561E+00-1.36684E+00 1.63737E-03
 -1      3065-2.90241E+00-1.69344E-01 9.18021E-02
 -1      3066-2.52719E+00 5.02691E-01 1.86458E-01
 -1      3067-1.44329E+00 2.16003E+00 1.81135E-01
 -1      3068-1.69344E-01 2.90241E+00 9.88820E-02
 -1      3069 4.84902E-01-2.43774E+00 1.37332E-01
 -1      3070-2.22790E+00 1.48864E+00 1.44056E-01
 -1      3071 2.74628E+00 9.54248E-01 9.62064E-02
 -1      3072 2.17206E+00 1.93257E+00 8.90326E-02
 -1      3073-1.20690E+00-2.40638E+00 1.85089E-02
 -1      3074 2.37705E+00-4.72831E-01 7.66614E-02
 -1      3075 2.90241E+00-1.69344E-01 7.63779E-02
 -1      3076-2.30406E+00-1.53952E+00 1.65158E-01
 -1      3077 1.26075E+00-2.66520E+00 7.70391E-02
 -1      3078 2.71782E+00 5.40605E-01 1.84537E-01
 -1      3079 2.06335E+00-1.37869E+00 1.50305E-02
 -1      3080-2.17206E+00 1.93257E+00 1.04721E-01
 -1      3081-9.93097E-01 2.77607E+00 8.08303E-02
 -1      3082 1.39432E+00 2.08675E+00 3.05183E-02
 -1      3083 1.53952E+00 2.30406E+00 1.77542E-01
 -1      3084 2.22362E+00-1.48578E+00 1.30389E-01
 -1      3085-1.29657E+00 2.50958E+00 1.07957E-01
 -1      3086 1.93257E+00-2.17206E+00 9.71855E-02
 -1      3087 2.52051E+00 5.01363E-01 1.94501E-01
 -1      3088-9.93097E-01-2.77607E+00 9.01518E-02
 -1      3089 2.71782E+00-5.40605E-01 1.83219E-01
 -1      3090 2.77607E+00-9.93097E-01 5.16888E-02
 -1      3091-2.66520E+00 1.26075E+00 8.49619E-02
 -1      3092-2.13433E+00-1.42612E+00 1.80913E-01
 -1      3093-1.81233E+00 2.11367E+00-1.31977E-02
 -1      3094 1.26716E+00 2.61668E+00 9.26725E-02
 -1      3095 2.32678E-01 2.90241E+00 3.82499E-02
 -1      3096 2.52969E+00-5.03189E-01 1.88933E-01
 -1      3097 8.66446E-01 2.60905E+00-1.37122E-02
 -3
    3C                          9370                                     1
 -1         1    3    0    1
 -2       241       404      1842      2154
 -1         2    3    0    1
 -2      1366       295      1645      1670
 -1         3    3    0    1
 -2      2052      1625      2162      2520
 -1         4    3    0    1
 -2       920       509       927      1184
 -1         5    3    0    1
 -2       485       488       910       914
 -1         6    3    0    1
 -2       932      1200       532       937
 -1         7    3    0    1
 -2      1640      1528      1947      2299
 -1         8    3    0    1
 -2      2915      3085      1509      3093
 -1         9    3    0    1
 -2       323      2357      2440      2696
 -1        10    3    0    1
 -2       184       182       699      1274
 -1        11    3    0    1
 -2      1463      3043      3056      3072
 -1        12    3    0    1
 -2      1942      1842      1959      1973
 -1        13    3    0    1
 -2      1630      1380      1632      1824
 -1        14    3    0    1
 -2       509       511       921       925
 -1        15    3    0    1
 -2       110       604       609       967
 -1        16    3    0    1
 -2      1412      1290      1423      2973
 -1        17    3    0    1
 -2       110       614       604      1233
 -1        18    3    0    1
 -2        19        22       484      1168
 -1        19    3    0    1
 -2      1703      1526      2151      2324
 -1        20    3    0    1
 -2       815      1090       819       826
 -1        21    3    0    1
 -2       343       653      1002      1005
 -1        22    3    0    1
 -2      2851      2179      2890      3034
 -1        23    3    0    1
 -2        71       566       556      1202
 -1        24    3    0    1
 -2       617      1512      2995      3018
 -1        25    3    0    1
 -2       799       798      1079      1538
 -1        26    3    0    1
 -2       703      1776      2070      2312
 -1        27    3    0    1
 -2      2358      1247      2976      3091
 -1        28    3    0    1
 -2      1499      3063      3095      3097
 -1        29    3    0    1
 -2       625       988      1238      1240
 -1        30    3    0    1
 -2       335      2435      2515      2571
 -1        31    3    0    1
 -2       760       783      1057      1731
 -1        32    3    0    1
 -2        93       585       589       956
 -1        33    3    0    1
 -2      1764      1798      1939      2231
 -1        34    3    0    1
 -2       645       646       664      1005
 -1        35    3    0    1
 -2      1161      1413      1440      3013
 -1        36    3    0    1
 -2       935       537       942      1191
 -1        37    3    0    1
 -2      1700      1744      1825      1958
 -1        38    3    0    1
 -2       532       366       537       942
 -1        39    3    0    1
 -2        37       508       513      1183
 -1        40    3    0    1
 -2       478       477       496       917
 -1        41    3    0    1
 -2       840      1349      1903      2134
 -1        42    3    0    1
 -2      1603      1633      2147      2270
 -1        43    3    0    1
 -2      1593      1526      1611      1856
 -1        44    3    0    1
 -2      1123      1392      1756      1774
 -1        45    3    0    1
 -2        95       580       585       956
 -1        46    3    0    1
 -2       711      1030      1033      2400
 -1        47    3    0    1
 -2       123       126       604       972
 -1        48    3    0    1
 -2      1434      2642      3043      3072
 -1        49    3    0    1
 -2       118       601       971       975
 -1        50    3    0    1
 -2       131       628       633      1243
 -1        51    3    0    1
 -2       153       650       649      1249
 -1        52    3    0    1
 -2       411       222      1301      1646
 -1        53    3    0    1
 -2       567       955       547       568
 -1        54    3    0    1
 -2       389      1541      1686      1701
 -1        55    3    0    1
 -2      1664      1857      1995      2322
 -1        56    3    0    1
 -2      1363      1143      1912      2261
 -1        57    3    0    1
 -2       487      1176      1837      2424
 -1        58    3    0    1
 -2      2613      3031      3050      3077
 -1        59    3    0    1
 -2      1462       375      1463      3056
 -1        60    3    0    1
 -2        63       540        70       931
 -1        61    3    0    1
 -2      1632      1688      1779      2211
 -1        62    3    0    1
 -2       476      1177       912       483
 -1        63    3    0    1
 -2        43       509       511       927
 -1        64    3    0    1
 -2       580        95       585      1221
 -1        65    3    0    1
 -2       956       580       964       965
 -1        66    3    0    1
 -2      1139      1382      1872      2479
 -1        67    3    0    1
 -2       114       613       124       967
 -1        68    3    0    1
 -2      1349       294      1346      1670
 -1        69    3    0    1
 -2      1394      1128      1673      1779
 -1        70    3    0    1
 -2        58        63       533      1197
 -1        71    3    0    1
 -2        87        71       561       947
 -1        72    3    0    1
 -2       652       157       998      1259
 -1        73    3    0    1
 -2      1679      1617      1924      2321
 -1        74    3    0    1
 -2       362       360      3063      1500
 -1        75    3    0    1
 -2      1612       321      1673      2479
 -1        76    3    0    1
 -2      1095      1610      2034      2088
 -1        77    3    0    1
 -2        57       532       932      1193
 -1        78    3    0    1
 -2       719      1291      1038       730
 -1        79    3    0    1
 -2       508        37       919      1183
 -1        80    3    0    1
 -2      1151      1567      1616      1619
 -1        81    3    0    1
 -2       264      1079      1322      1718
 -1        82    3    0    1
 -2       568      2476      2624      2731
 -1        83    3    0    1
 -2      1169       485       918       488
 -1        84    3    0    1
 -2      1681      2163      2219      2327
 -1        85    3    0    1
 -2      1397       861      1117      2265
 -1        86    3    0    1
 -2      1724      1915      1946      2198
 -1        87    3    0    1
 -2      1102      1611      1856      2000
 -1        88    3    0    1
 -2      1349       839       840      1903
 -1        89    3    0    1
 -2      1559      1588      1629      2456
 -1        90    3    0    1
 -2      3050      3031      1468      3077
 -1        91    3    0    1
 -2      1876      2018      2104      2112
 -1        92    3    0    1
 -2       634      2284      2594      2734
 -1        93    3    0    1
 -2      1566      1825      1861      1958
 -1        94    3    0    1
 -2      1536      1586      1998      2030
 -1        95    3    0    1
 -2      1996      1835      2071      2118
 -1        96    3    0    1
 -2       808      1636      2072      2368
 -1        97    3    0    1
 -2      1600      1936      2354      2533
 -1        98    3    0    1
 -2      1050       746      1051      1295
 -1        99    3    0    1
 -2      1658      1617      1679      2220
 -1       100    3    0    1
 -2       482        20       481      1164
 -1       101    3    0    1
 -2       860       894      1150      1770
 -1       102    3    0    1
 -2      1812      1598      1828      1880
 -1       103    3    0    1
 -2      3070      3061      1495      3080
 -1       104    3    0    1
 -2      1976      2006      2386      1846
 -1       105    3    0    1
 -2      1312      2164      2473      2723
 -1       106    3    0    1
 -2       773      1068      1059       776
 -1       107    3    0    1
 -2       499      1190      1180       923
 -1       108    3    0    1
 -2      1846      1857      1976      2006
 -1       109    3    0    1
 -2      1105       298      2186      2563
 -1       110    3    0    1
 -2      1104      1400      1744      2149
 -1       111    3    0    1
 -2      1008       669      1018      1262
 -1       112    3    0    1
 -2       233       771       777      1063
 -1       113    3    0    1
 -2      2126      1775      2555      2576
 -1       114    3    0    1
 -2      2488      1591      2517      2766
 -1       115    3    0    1
 -2      1571      1738      2244      2682
 -1       116    3    0    1
 -2       283      1978      1980      2316
 -1       117    3    0    1
 -2       849       887      1737      1777
 -1       118    3    0    1
 -2        27        31       488      1169
 -1       119    3    0    1
 -2        35        33       484       916
 -1       120    3    0    1
 -2      1672      1301      1841      1897
 -1       121    3    0    1
 -2       798       799      1323      1538
 -1       122    3    0    1
 -2       614       110       127      1233
 -1       123    3    0    1
 -2      1728      1915      2017      2198
 -1       124    3    0    1
 -2      1065      1312      1419      3077
 -1       125    3    0    1
 -2      1685      2059      2232      2359
 -1       126    3    0    1
 -2       317      2170      2240      2262
 -1       127    3    0    1
 -2      1690      1689      1925      2182
 -1       128    3    0    1
 -2        48       509       516       920
 -1       129    3    0    1
 -2       484        33       489       916
 -1       130    3    0    1
 -2      2435      2608      2612      2760
 -1       131    3    0    1
 -2      2203      2888      3031      3086
 -1       132    3    0    1
 -2       390      2126      2177      2576
 -1       133    3    0    1
 -2       271       261      1082      2683
 -1       134    3    0    1
 -2      2927       999      2937      2949
 -1       135    3    0    1
 -2       354      1455      3076      3092
 -1       136    3    0    1
 -2       409      1052      1646      1795
 -1       137    3    0    1
 -2       705       709      1023      1031
 -1       138    3    0    1
 -2      1178       478       918      1169
 -1       139    3    0    1
 -2       123       604       609      1237
 -1       140    3    0    1
 -2       720      1045       736       715
 -1       141    3    0    1
 -2       185      2041      2279      2382
 -1       142    3    0    1
 -2      1440      2856      3045      3075
 -1       143    3    0    1
 -2       916       484       917      1171
 -1       144    3    0    1
 -2       647      1000       655       654
 -1       145    3    0    1
 -2      1546      2132      2237      2272
 -1       146    3    0    1
 -2       755       216       224      1292
 -1       147    3    0    1
 -2      1024       695      1025      1029
 -1       148    3    0    1
 -2       961       584      2247      2514
 -1       149    3    0    1
 -2       348       104       581       961
 -1       150    3    0    1
 -2       621       990       639       640
 -1       151    3    0    1
 -2      1801      1866      2124      2552
 -1       152    3    0    1
 -2      1622      1051      1765      2109
 -1       153    3    0    1
 -2       696      1029       706       695
 -1       154    3    0    1
 -2       484       489       912      1166
 -1       155    3    0    1
 -2       285       820       825      1335
 -1       156    3    0    1
 -2        84        73       557       944
 -1       157    3    0    1
 -2       248       773      1068      1071
 -1       158    3    0    1
 -2      1780      1577      2093      2373
 -1       159    3    0    1
 -2      1562      1602      1869      2478
 -1       160    3    0    1
 -2       911       480      1172      2939
 -1       161    3    0    1
 -2      2107      1575      2487      2556
 -1       162    3    0    1
 -2       599       974       608       606
 -1       163    3    0    1
 -2       652       657       993      1003
 -1       164    3    0    1
 -2      1336       282      1907      1980
 -1       165    3    0    1
 -2       616       978      2584      2754
 -1       166    3    0    1
 -2       318       157       652      1004
 -1       167    3    0    1
 -2       282       373       821      1096
 -1       168    3    0    1
 -2       485        27      1169      1170
 -1       169    3    0    1
 -2      1839      1212      2900      2925
 -1       170    3    0    1
 -2      1632      1552      1824      2386
 -1       171    3    0    1
 -2       623       987       631       630
 -1       172    3    0    1
 -2       601       971      1227      1230
 -1       173    3    0    1
 -2       349      1474      3067      3085
 -1       174    3    0    1
 -2       595      1229       972      1228
 -1       175    3    0    1
 -2       361      3046      3057      3069
 -1       176    3    0    1
 -2       777      1064      1304      1307
 -1       177    3    0    1
 -2       337      2406      2551      2828
 -1       178    3    0    1
 -2      2939      2940      2977      2978
 -1       179    3    0    1
 -2       472       908      2445      2834
 -1       180    3    0    1
 -2       102       964       965      2176
 -1       181    3    0    1
 -2       620      1245      1240       988
 -1       182    3    0    1
 -2      1426      1425      3026      1441
 -1       183    3    0    1
 -2       424       366      1200      2652
 -1       184    3    0    1
 -2       268       264       797      1322
 -1       185    3    0    1
 -2      1030       693       711      1033
 -1       186    3    0    1
 -2      1569      1807      2264      2564
 -1       187    3    0    1
 -2       600      1235      1234       599
 -1       188    3    0    1
 -2       362      1476      1500      3095
 -1       189    3    0    1
 -2       484       916      1168      1171
 -1       190    3    0    1
 -2      1058       245      1068      1894
 -1       191    3    0    1
 -2      1715      1913      2036      2065
 -1       192    3    0    1
 -2       238       251      1064      1975
 -1       193    3    0    1
 -2        85       365       559       950
 -1       194    3    0    1
 -2      1423      1412      2973      3088
 -1       195    3    0    1
 -2      1689      1586      2029      2123
 -1       196    3    0    1
 -2      1290      1039      2275      2986
 -1       197    3    0    1
 -2       414       412      1038      1535
 -1       198    3    0    1
 -2      1400      1700      1744      2149
 -1       199    3    0    1
 -2       609       613       967       977
 -1       200    3    0    1
 -2       637       131       633       981
 -1       201    3    0    1
 -2      2119      2894      3037      3071
 -1       202    3    0    1
 -2       133       629       632      1244
 -1       203    3    0    1
 -2      1961      1949      2304      2390
 -1       204    3    0    1
 -2      1056      1826      1863      1868
 -1       205    3    0    1
 -2       999      2937      2949      2958
 -1       206    3    0    1
 -2      1288      1840      1899      2058
 -1       207    3    0    1
 -2      1907       831      2072      2172
 -1       208    3    0    1
 -2       621       622       640       992
 -1       209    3    0    1
 -2      2943       737      2951      2961
 -1       210    3    0    1
 -2       531       524       538       940
 -1       211    3    0    1
 -2       997       643      1001      1249
 -1       212    3    0    1
 -2       463       822      1883      2098
 -1       213    3    0    1
 -2      1634      1613      1682      2566
 -1       214    3    0    1
 -2      1596      1721      1822      1862
 -1       215    3    0    1
 -2      1126      2153      2394      2507
 -1       216    3    0    1
 -2       833      1339      1097      1828
 -1       217    3    0    1
 -2       653       656       995      1000
 -1       218    3    0    1
 -2       711       693       712      1033
 -1       219    3    0    1
 -2       155      1442      1443      3065
 -1       220    3    0    1
 -2       135      1680      2206      2272
 -1       221    3    0    1
 -2      1904       855      1969      2379
 -1       222    3    0    1
 -2       638       143       144      1243
 -1       223    3    0    1
 -2      1567      1524      1594      1966
 -1       224    3    0    1
 -2       515        47        52      1184
 -1       225    3    0    1
 -2      2200      1040      2239      2402
 -1       226    3    0    1
 -2       353       355      1940      2824
 -1       227    3    0    1
 -2       519       501       520       930
 -1       228    3    0    1
 -2       678       679      1269      1935
 -1       229    3    0    1
 -2      1945      1082      1950      2072
 -1       230    3    0    1
 -2      2120      1592      2140      2262
 -1       231    3    0    1
 -2      1610       832      2034      2172
 -1       232    3    0    1
 -2       980      1248       985       619
 -1       233    3    0    1
 -2      1443       341      1467      1480
 -1       234    3    0    1
 -2       585       589       956       964
 -1       235    3    0    1
 -2      1560      1890      2152      2371
 -1       236    3    0    1
 -2       823       822      1979      2157
 -1       237    3    0    1
 -2      1919      1668      2022      2109
 -1       238    3    0    1
 -2      1656       120      2567      2801
 -1       239    3    0    1
 -2       972       603      1858      2362
 -1       240    3    0    1
 -2       605       119       607       974
 -1       241    3    0    1
 -2      3002      1499      3095      3097
 -1       242    3    0    1
 -2       575      1223      1222       574
 -1       243    3    0    1
 -2       477       916       917      1171
 -1       244    3    0    1
 -2      1724      1915      2017      2566
 -1       245    3    0    1
 -2      1557      2488      2517      2582
 -1       246    3    0    1
 -2      1544      1684      2303      2659
 -1       247    3    0    1
 -2      1123      1392      1693      1756
 -1       248    3    0    1
 -2       163       677       680      1007
 -1       249    3    0    1
 -2       580       102       964       965
 -1       250    3    0    1
 -2       807       789      1081      1082
 -1       251    3    0    1
 -2       182      1273       184       699
 -1       252    3    0    1
 -2       485        27       488      1169
 -1       253    3    0    1
 -2      2115      2547      2593      2700
 -1       254    3    0    1
 -2       583       581       961      1215
 -1       255    3    0    1
 -2      1867      1659      1924      1962
 -1       256    3    0    1
 -2       601       971       975      1227
 -1       257    3    0    1
 -2      2100      1188      2671      2792
 -1       258    3    0    1
 -2      1038      1535      1955      2307
 -1       259    3    0    1
 -2       334      1876      1970      2018
 -1       260    3    0    1
 -2       112       605       607       969
 -1       261    3    0    1
 -2      1624      1884      2087      2331
 -1       262    3    0    1
 -2       576       965       571       592
 -1       263    3    0    1
 -2      1010      1267       674      1014
 -1       264    3    0    1
 -2        27       492        36      1170
 -1       265    3    0    1
 -2       505       926      1179      1182
 -1       266    3    0    1
 -2       595       603       971       975
 -1       267    3    0    1
 -2      1985      1786      2125      2556
 -1       268    3    0    1
 -2      3084      3079      2993      3006
 -1       269    3    0    1
 -2       529       936      1192      1194
 -1       270    3    0    1
 -2      1247      1427      1435      3091
 -1       271    3    0    1
 -2      1247       631      2972      3015
 -1       272    3    0    1
 -2       516        43       423       930
 -1       273    3    0    1
 -2      1640      1657      1674      2447
 -1       274    3    0    1
 -2        95       590       580       957
 -1       275    3    0    1
 -2       920       501       927       930
 -1       276    3    0    1
 -2       977       965      2406      2415
 -1       277    3    0    1
 -2       636       629       992      1242
 -1       278    3    0    1
 -2       669       687       688      1017
 -1       279    3    0    1
 -2      1188      1881      2100      2671
 -1       280    3    0    1
 -2      1479      1409      1509      3093
 -1       281    3    0    1
 -2       231      1453      1459      1516
 -1       282    3    0    1
 -2       559       563       952      1209
 -1       283    3    0    1
 -2      1593      1526      1870      2199
 -1       284    3    0    1
 -2       643       651       997      1001
 -1       285    3    0    1
 -2       323       674       329      1014
 -1       286    3    0    1
 -2      1507       618      2995      3017
 -1       287    3    0    1
 -2       494        22        24      1171
 -1       288    3    0    1
 -2      1313       778      1542      2675
 -1       289    3    0    1
 -2       701      1022      1033      1272
 -1       290    3    0    1
 -2      2955       762      1516      3016
 -1       291    3    0    1
 -2      2930      1443      2949      2958
 -1       292    3    0    1
 -2       528       941       543       523
 -1       293    3    0    1
 -2       197      1457      3055      3073
 -1       294    3    0    1
 -2      2882      2839      2883      3048
 -1       295    3    0    1
 -2       531      2650      2653      2717
 -1       296    3    0    1
 -2      1724      1569      2121      2564
 -1       297    3    0    1
 -2       619      1248       985       634
 -1       298    3    0    1
 -2      2080      1278      1421      2891
 -1       299    3    0    1
 -2       652       662      1004      1255
 -1       300    3    0    1
 -2      1643      2453      2583      2665
 -1       301    3    0    1
 -2      1199       938      2282      2380
 -1       302    3    0    1
 -2       615       597       616       979
 -1       303    3    0    1
 -2       509       511       927      1184
 -1       304    3    0    1
 -2       645      1255      1004       646
 -1       305    3    0    1
 -2       330       177      1017      2433
 -1       306    3    0    1
 -2       450      2946      2987      3013
 -1       307    3    0    1
 -2       551       550       946      2934
 -1       308    3    0    1
 -2      1581      1534      1695      1838
 -1       309    3    0    1
 -2       147      1256       152       653
 -1       310    3    0    1
 -2       131       633       981      1243
 -1       311    3    0    1
 -2      2945       689      2947      2990
 -1       312    3    0    1
 -2      1350      1101      2075      2493
 -1       313    3    0    1
 -2      1651      1810      2285      2629
 -1       314    3    0    1
 -2      1300      2740      1424      3057
 -1       315    3    0    1
 -2      1478       346      1494      1512
 -1       316    3    0    1
 -2       376       374      3089      3096
 -1       317    3    0    1
 -2       620       985       619       980
 -1       318    3    0    1
 -2      1567      1524      1616      2090
 -1       319    3    0    1
 -2       110       604       967      1233
 -1       320    3    0    1
 -2       186       697      1024      1275
 -1       321    3    0    1
 -2      1808      1806      1865      2032
 -1       322    3    0    1
 -2      1736      1790      1937      2027
 -1       323    3    0    1
 -2       257       805       270      1317
 -1       324    3    0    1
 -2       695      1276      1274      1026
 -1       325    3    0    1
 -2       353      1940      2598      2824
 -1       326    3    0    1
 -2      1408       863      1119      2049
 -1       327    3    0    1
 -2      1972      1713      2232      2410
 -1       328    3    0    1
 -2       843      1353       844      1655
 -1       329    3    0    1
 -2      1725      1597      1765      2215
 -1       330    3    0    1
 -2       727       726      1040      2239
 -1       331    3    0    1
 -2      1119       435      1408      2401
 -1       332    3    0    1
 -2      2642      1434      3043      2914
 -1       333    3    0    1
 -2      1620      1723      1840      1899
 -1       334    3    0    1
 -2      2287      2621      2622      2626
 -1       335    3    0    1
 -2       547       567       568       954
 -1       336    3    0    1
 -2       930       370      1201      1531
 -1       337    3    0    1
 -2      1420      1419      3027      3046
 -1       338    3    0    1
 -2       697       186       698      1275
 -1       339    3    0    1
 -2       398      1895      1926      2114
 -1       340    3    0    1
 -2       989       629       137       632
 -1       341    3    0    1
 -2      1631      1581      1817      1878
 -1       342    3    0    1
 -2      1869      1872      2478      2479
 -1       343    3    0    1
 -2      2084      1819      2091      2345
 -1       344    3    0    1
 -2       608       599       606      3023
 -1       345    3    0    1
 -2       963       581       958       966
 -1       346    3    0    1
 -2      1007      1268      1013       668
 -1       347    3    0    1
 -2      1900      1854      2005      2314
 -1       348    3    0    1
 -2      1651      1810      2629      2779
 -1       349    3    0    1
 -2       308      1353      1781      1997
 -1       350    3    0    1
 -2      1341       291      1631      1849
 -1       351    3    0    1
 -2       821       824      1084      1333
 -1       352    3    0    1
 -2      1412      3028      1457      3073
 -1       353    3    0    1
 -2       661       149       657       993
 -1       354    3    0    1
 -2       140       137       629      1246
 -1       355    3    0    1
 -2        28       473      2939      2940
 -1       356    3    0    1
 -2       484        19       489      1166
 -1       357    3    0    1
 -2      1888      1571      2244      2360
 -1       358    3    0    1
 -2       268       266      1636      1978
 -1       359    3    0    1
 -2       622       990       640       991
 -1       360    3    0    1
 -2      1478      1427      3091      3018
 -1       361    3    0    1
 -2       796      1317       801       256
 -1       362    3    0    1
 -2      1888      1761      1942      1959
 -1       363    3    0    1
 -2      1429      1434      1464      3072
 -1       364    3    0    1
 -2       489       912      1165      1177
 -1       365    3    0    1
 -2       384      1859      2363      2590
 -1       366    3    0    1
 -2       365        85       559       952
 -1       367    3    0    1
 -2       628       138       633       991
 -1       368    3    0    1
 -2      1864      1553      1882      1929
 -1       369    3    0    1
 -2      1385       858      1113      2630
 -1       370    3    0    1
 -2       149       661       158       993
 -1       371    3    0    1
 -2       590        95        99       957
 -1       372    3    0    1
 -2      1245       136      2431      2464
 -1       373    3    0    1
 -2       760       783      1731      1922
 -1       374    3    0    1
 -2      1549      1602      2139      2160
 -1       375    3    0    1
 -2      1177       476       912      1165
 -1       376    3    0    1
 -2       587        92       105      1214
 -1       377    3    0    1
 -2       829       825      1094      1328
 -1       378    3    0    1
 -2       879       871      2091      2345
 -1       379    3    0    1
 -2       532       542       942      1191
 -1       380    3    0    1
 -2      1048      1299       749      1054
 -1       381    3    0    1
 -2       730       724      1041      1816
 -1       382    3    0    1
 -2      1995      1857      2006      2322
 -1       383    3    0    1
 -2       470        13       460       908
 -1       384    3    0    1
 -2       476      1174       475       483
 -1       385    3    0    1
 -2       989       621       992      1242
 -1       386    3    0    1
 -2      2985       949      2997      3000
 -1       387    3    0    1
 -2      2921      2919      3069      2979
 -1       388    3    0    1
 -2       485        29       914      1175
 -1       389    3    0    1
 -2       384       954      2363      2511
 -1       390    3    0    1
 -2       460         4       465      1158
 -1       391    3    0    1
 -2       547       947       954      1202
 -1       392    3    0    1
 -2      2285      2577      2630      2631
 -1       393    3    0    1
 -2       866      1392       880      2243
 -1       394    3    0    1
 -2       275       829       286      1328
 -1       395    3    0    1
 -2       598       597       616       978
 -1       396    3    0    1
 -2      2966      2944      2967      2999
 -1       397    3    0    1
 -2       655       647      2927      2937
 -1       398    3    0    1
 -2      2887      2438      2892      3074
 -1       399    3    0    1
 -2      1040      1289      2200      2239
 -1       400    3    0    1
 -2       941       543      2502      2761
 -1       401    3    0    1
 -2      1924      1867      1962      2118
 -1       402    3    0    1
 -2         4       469         7      1155
 -1       403    3    0    1
 -2       798      1078      2983      3004
 -1       404    3    0    1
 -2      1626      1864      1882      1929
 -1       405    3    0    1
 -2        71        87       561      1204
 -1       406    3    0    1
 -2      1438      1486      1498      3086
 -1       407    3    0    1
 -2        37        38       508       919
 -1       408    3    0    1
 -2       923       508      1180      1181
 -1       409    3    0    1
 -2       813      1096       832       831
 -1       410    3    0    1
 -2       456      1162      1158       455
 -1       411    3    0    1
 -2       814      1096      1087       813
 -1       412    3    0    1
 -2      1581      1534      1631      1695
 -1       413    3    0    1
 -2      1470      1415      1474      3001
 -1       414    3    0    1
 -2        31        27       488       910
 -1       415    3    0    1
 -2      1559      1629      2020      2530
 -1       416    3    0    1
 -2       460        13       907       908
 -1       417    3    0    1
 -2       557        82       564       955
 -1       418    3    0    1
 -2      1758       329      1976      2667
 -1       419    3    0    1
 -2      1645      1623      1991      2185
 -1       420    3    0    1
 -2       798       787       799      1079
 -1       421    3    0    1
 -2       109      3067      1509      1510
 -1       422    3    0    1
 -2       504      1188      1186       503
 -1       423    3    0    1
 -2       363       223      2389      2525
 -1       424    3    0    1
 -2       476       912      1165      1166
 -1       425    3    0    1
 -2       736       735      2077      2546
 -1       426    3    0    1
 -2      1729      1029      2133      2355
 -1       427    3    0    1
 -2      1859       106      2363      2727
 -1       428    3    0    1
 -2      2593      1591      2702      2692
 -1       429    3    0    1
 -2       461      1156         6       464
 -1       430    3    0    1
 -2      1905      2128      2181      2229
 -1       431    3    0    1
 -2       861      1397       885      2265
 -1       432    3    0    1
 -2        47      1186        49       509
 -1       433    3    0    1
 -2      1689      1359      1708      1954
 -1       434    3    0    1
 -2        67       364      2681      2751
 -1       435    3    0    1
 -2      3047      1479      3067      3093
 -1       436    3    0    1
 -2       461        14       905      1160
 -1       437    3    0    1
 -2       391      2062      2093      2138
 -1       438    3    0    1
 -2       390       915      1775      1805
 -1       439    3    0    1
 -2      1752      1984      1989      2031
 -1       440    3    0    1
 -2      1695      1534      2189      2506
 -1       441    3    0    1
 -2      1542      1668      1873      2505
 -1       442    3    0    1
 -2      2024      2858      3028      3073
 -1       443    3    0    1
 -2      2453       531      2583      2653
 -1       444    3    0    1
 -2      1817      1849      1878      2044
 -1       445    3    0    1
 -2       317       174      1270      2240
 -1       446    3    0    1
 -2      1876       334      1970      2184
 -1       447    3    0    1
 -2       408      1595      1622      1985
 -1       448    3    0    1
 -2       293      1386       313      1831
 -1       449    3    0    1
 -2      1611      1593      1665      2323
 -1       450    3    0    1
 -2        73       557       559       945
 -1       451    3    0    1
 -2       502       930       520       501
 -1       452    3    0    1
 -2       464         8       467      1156
 -1       453    3    0    1
 -2       506        40       505      1179
 -1       454    3    0    1
 -2      1009       676      1016      1017
 -1       455    3    0    1
 -2      1730      1861      2268      2277
 -1       456    3    0    1
 -2      2178      2126      2555      2576
 -1       457    3    0    1
 -2      1176       486       487      1837
 -1       458    3    0    1
 -2      2253      1117      2265      2814
 -1       459    3    0    1
 -2       676       177      1016      1017
 -1       460    3    0    1
 -2       909       472      2560      2806
 -1       461    3    0    1
 -2      1984      1637      2031      2242
 -1       462    3    0    1
 -2       778       772      2190      2768
 -1       463    3    0    1
 -2        14       461       464      1163
 -1       464    3    0    1
 -2       410      1404      2315      2331
 -1       465    3    0    1
 -2       453       454       471       907
 -1       466    3    0    1
 -2       167       676      1009      1263
 -1       467    3    0    1
 -2      1072       253      3004      3005
 -1       468    3    0    1
 -2        66       529       936       940
 -1       469    3    0    1
 -2       171       175      1013      1532
 -1       470    3    0    1
 -2       353       701       704      1030
 -1       471    3    0    1
 -2      3032      3042      1450      3057
 -1       472    3    0    1
 -2      1104       399      1400      2149
 -1       473    3    0    1
 -2      1404       857      1111      2259
 -1       474    3    0    1
 -2      2196      1902      2408      2524
 -1       475    3    0    1
 -2      1354       843       844      2000
 -1       476    3    0    1
 -2      1959      1761      1973      2107
 -1       477    3    0    1
 -2      1631      1817      1849      1878
 -1       478    3    0    1
 -2       948       556      1204      1205
 -1       479    3    0    1
 -2       918      1178      2441      2510
 -1       480    3    0    1
 -2      2593      2647      2692      2702
 -1       481    3    0    1
 -2       580       585       956       964
 -1       482    3    0    1
 -2      1414      1449      1465      3071
 -1       483    3    0    1
 -2       222       411      1056      1863
 -1       484    3    0    1
 -2      1416      1415      3052      1470
 -1       485    3    0    1
 -2      1128      1612      1673      1779
 -1       486    3    0    1
 -2      1430      2380      3062      3094
 -1       487    3    0    1
 -2      1576      1762      2238      2320
 -1       488    3    0    1
 -2      1037       728      1042      1280
 -1       489    3    0    1
 -2       967       604       977       978
 -1       490    3    0    1
 -2       835      1342      1098      1778
 -1       491    3    0    1
 -2      2841      2781      3062      3072
 -1       492    3    0    1
 -2      1462       375      1465      1487
 -1       493    3    0    1
 -2       488       918      1169      1178
 -1       494    3    0    1
 -2      3043      3041      3056      3072
 -1       495    3    0    1
 -2       269       371      2611      2796
 -1       496    3    0    1
 -2       456       906       466       455
 -1       497    3    0    1
 -2       557        85       559       950
 -1       498    3    0    1
 -2       960      1236      2061      1409
 -1       499    3    0    1
 -2       843      1352      1655      1856
 -1       500    3    0    1
 -2       532        55       542      1191
 -1       501    3    0    1
 -2      1639       263      1715      1785
 -1       502    3    0    1
 -2       803       262       272      1318
 -1       503    3    0    1
 -2       414      1044      2009      2210
 -1       504    3    0    1
 -2       465       460      1158      1162
 -1       505    3    0    1
 -2      1011       177      2045      2240
 -1       506    3    0    1
 -2       461        14       909      1163
 -1       507    3    0    1
 -2        27       485       910      1173
 -1       508    3    0    1
 -2       562      1606      1827      2654
 -1       509    3    0    1
 -2       347       137      2442      2829
 -1       510    3    0    1
 -2      1580      1070      1948      2103
 -1       511    3    0    1
 -2       962       101      2097      2765
 -1       512    3    0    1
 -2       775      1066      2086      2459
 -1       513    3    0    1
 -2       426        43       511       927
 -1       514    3    0    1
 -2       174       177      1011      2240
 -1       515    3    0    1
 -2       803       264       800      1325
 -1       516    3    0    1
 -2      1617      1659      1678      1679
 -1       517    3    0    1
 -2      1189      1429      1434      2967
 -1       518    3    0    1
 -2      1503      1475      1504      3019
 -1       519    3    0    1
 -2      2049      1539      2426      2574
 -1       520    3    0    1
 -2      1143      1363      1737      2261
 -1       521    3    0    1
 -2        25       390      2025      2127
 -1       522    3    0    1
 -2      1643      1606      1827      2076
 -1       523    3    0    1
 -2       629       989       992      1242
 -1       524    3    0    1
 -2       936       525      1192      1194
 -1       525    3    0    1
 -2      2077       204      2102      2200
 -1       526    3    0    1
 -2       592      2176      2509      2543
 -1       527    3    0    1
 -2       532        56       537      1193
 -1       528    3    0    1
 -2       931      1201       943       528
 -1       529    3    0    1
 -2      1428      1427      3061      1494
 -1       530    3    0    1
 -2      1594       413      1720      2023
 -1       531    3    0    1
 -2       171       677      1015      1018
 -1       532    3    0    1
 -2      1582      1787      2471      2767
 -1       533    3    0    1
 -2      1617      1658      1912      2220
 -1       534    3    0    1
 -2      2222        79      2532      2596
 -1       535    3    0    1
 -2        35       916       917      2825
 -1       536    3    0    1
 -2       553      1206        72       554
 -1       537    3    0    1
 -2       622       990       981       621
 -1       538    3    0    1
 -2      1363       849      1737      1777
 -1       539    3    0    1
 -2      2944       924       512      1189
 -1       540    3    0    1
 -2      2284       988      2558      2670
 -1       541    3    0    1
 -2      1734      1578      1787      2206
 -1       542    3    0    1
 -2       585        96      1220      1221
 -1       543    3    0    1
 -2      1348       840      2114      2369
 -1       544    3    0    1
 -2      2060      2257      2294      2436
 -1       545    3    0    1
 -2      1659      1617      1678      1924
 -1       546    3    0    1
 -2      1539      2227      2426      2574
 -1       547    3    0    1
 -2      1076      1321      1080       791
 -1       548    3    0    1
 -2      1707      1635      1997      2166
 -1       549    3    0    1
 -2       793       794      1076      1080
 -1       550    3    0    1
 -2        17        13       465      1162
 -1       551    3    0    1
 -2       674       673      1010      1014
 -1       552    3    0    1
 -2       489       484       916      1168
 -1       553    3    0    1
 -2      1978      1092      1979      2255
 -1       554    3    0    1
 -2       652       157      1003      1004
 -1       555    3    0    1
 -2       813      1094      1327      1328
 -1       556    3    0    1
 -2      1692      1693      2150      2187
 -1       557    3    0    1
 -2       769       232       770      1306
 -1       558    3    0    1
 -2       765      1310       778       764
 -1       559    3    0    1
 -2        12       458       457       906
 -1       560    3    0    1
 -2        67       369      1983      2527
 -1       561    3    0    1
 -2       329      1014      1267      2440
 -1       562    3    0    1
 -2       331      1961      2144      2304
 -1       563    3    0    1
 -2      1446      1422      3044      3076
 -1       564    3    0    1
 -2        37      1181      1180       508
 -1       565    3    0    1
 -2      2903      2358      3061      3080
 -1       566    3    0    1
 -2       577        98       578      1219
 -1       567    3    0    1
 -2      1949      1757      2304      2500
 -1       568    3    0    1
 -2       899       461       464       905
 -1       569    3    0    1
 -2       906      1836      2071      2504
 -1       570    3    0    1
 -2       407       238       777      1064
 -1       571    3    0    1
 -2       499      1182      1179       926
 -1       572    3    0    1
 -2      1172        30      2939      2940
 -1       573    3    0    1
 -2      1960       101      2299      2765
 -1       574    3    0    1
 -2       112      1234       115       605
 -1       575    3    0    1
 -2      1119      2049      2191      2384
 -1       576    3    0    1
 -2       557       564       944       955
 -1       577    3    0    1
 -2       508        37       513      1180
 -1       578    3    0    1
 -2      1719      1555      2286      2628
 -1       579    3    0    1
 -2       769       770      1067      1306
 -1       580    3    0    1
 -2      3030      2613      3050      3077
 -1       581    3    0    1
 -2      1059       776       239       773
 -1       582    3    0    1
 -2       262       252       800      1073
 -1       583    3    0    1
 -2       218      1296       225       753
 -1       584    3    0    1
 -2        29       918      1178      2441
 -1       585    3    0    1
 -2        98       578      1219      1222
 -1       586    3    0    1
 -2       487       914      1889      2424
 -1       587    3    0    1
 -2        13       470       377       908
 -1       588    3    0    1
 -2      1323      2203      1417      1418
 -1       589    3    0    1
 -2       622       981       991      1243
 -1       590    3    0    1
 -2       558      1211      2326      2514
 -1       591    3    0    1
 -2       223       749       752      1302
 -1       592    3    0    1
 -2       135       136      1874      2616
 -1       593    3    0    1
 -2      2405      2873      2969      3097
 -1       594    3    0    1
 -2       397      1996      2071      2118
 -1       595    3    0    1
 -2       233       777      1304      1307
 -1       596    3    0    1
 -2       115       612       121      1232
 -1       597    3    0    1
 -2      2013      1641      2018      2047
 -1       598    3    0    1
 -2       453       471       472       908
 -1       599    3    0    1
 -2       789      1317      1081      1316
 -1       600    3    0    1
 -2       143       638       628      1243
 -1       601    3    0    1
 -2      1526      1666      1703      1891
 -1       602    3    0    1
 -2      1732      1677      1994      2162
 -1       603    3    0    1
 -2       820       830      1095      1327
 -1       604    3    0    1
 -2      1850      1768      1556      2174
 -1       605    3    0    1
 -2       289      1783      2088      2735
 -1       606    3    0    1
 -2       629      1241       133       632
 -1       607    3    0    1
 -2      1288      1041       724      1816
 -1       608    3    0    1
 -2      1073      1322       797      1079
 -1       609    3    0    1
 -2       263      1715      1913      2597
 -1       610    3    0    1
 -2       746      1055       745      1050
 -1       611    3    0    1
 -2      1201       943       543      2374
 -1       612    3    0    1
 -2       262       803       800      1318
 -1       613    3    0    1
 -2       411      1056      1863      1868
 -1       614    3    0    1
 -2       765      1313      1307       764
 -1       615    3    0    1
 -2       282       821       824      1096
 -1       616    3    0    1
 -2      2613      2888      3031      3077
 -1       617    3    0    1
 -2       741      1054       751       740
 -1       618    3    0    1
 -2      2872      2782      3041      1465
 -1       619    3    0    1
 -2         9       458        11       902
 -1       620    3    0    1
 -2      1055      1051      2057      2521
 -1       621    3    0    1
 -2      1610      1094      2172      2269
 -1       622    3    0    1
 -2      1546      2051      2084      2542
 -1       623    3    0    1
 -2       601       602       971      1230
 -1       624    3    0    1
 -2      1299      1048       749      1293
 -1       625    3    0    1
 -2      1412      1458      2973      3088
 -1       626    3    0    1
 -2      2131      1871      2350      2481
 -1       627    3    0    1
 -2       869      1379      2052      2520
 -1       628    3    0    1
 -2       668      1268       679       667
 -1       629    3    0    1
 -2       111       601      1227      1230
 -1       630    3    0    1
 -2       315       138       628       991
 -1       631    3    0    1
 -2       612       115       605      1232
 -1       632    3    0    1
 -2       411      1646      1814      1863
 -1       633    3    0    1
 -2      1806      1808      1936      2354
 -1       634    3    0    1
 -2       150       662       652      1255
 -1       635    3    0    1
 -2       643      1251       998      1250
 -1       636    3    0    1
 -2      3026      1968       999      3065
 -1       637    3    0    1
 -2      1692      1693      1702      1762
 -1       638    3    0    1
 -2        49        47       509       920
 -1       639    3    0    1
 -2      1631      1581      1695      1817
 -1       640    3    0    1
 -2       807       784      1820      1948
 -1       641    3    0    1
 -2       763       783       784      1070
 -1       642    3    0    1
 -2       888      1400      1700      1744
 -1       643    3    0    1
 -2       748       742       754      1055
 -1       644    3    0    1
 -2       190       335      1031      2048
 -1       645    3    0    1
 -2      1399       849      1103      1777
 -1       646    3    0    1
 -2      1707      1635      1732      1754
 -1       647    3    0    1
 -2      1547      1602      1794      2254
 -1       648    3    0    1
 -2      1127      2052      2162      2520
 -1       649    3    0    1
 -2        10         4       460       901
 -1       650    3    0    1
 -2       444      1123      1756      1774
 -1       651    3    0    1
 -2      1338      1812      1828      1880
 -1       652    3    0    1
 -2       556        80       953       954
 -1       653    3    0    1
 -2       919       508       928       929
 -1       654    3    0    1
 -2       501       919       928       929
 -1       655    3    0    1
 -2      2844      2851      2890      3034
 -1       656    3    0    1
 -2       663       645       664      1005
 -1       657    3    0    1
 -2       701      1022      1030      1033
 -1       658    3    0    1
 -2      1636       808      1749      2368
 -1       659    3    0    1
 -2      1572      1639      1992      2192
 -1       660    3    0    1
 -2      1680      1734      2108      2726
 -1       661    3    0    1
 -2      1037       715      1042      1045
 -1       662    3    0    1
 -2      1734      1680      2108      2206
 -1       663    3    0    1
 -2       725      1037      1042      1045
 -1       664    3    0    1
 -2       831       832      1610      2172
 -1       665    3    0    1
 -2       648      1257      1256       647
 -1       666    3    0    1
 -2      1676      1671      2160      2309
 -1       667    3    0    1
 -2       109      1479      1509      3093
 -1       668    3    0    1
 -2      1135      1129      1819      2091
 -1       669    3    0    1
 -2      1629      2020      2530      2532
 -1       670    3    0    1
 -2      1957      1534      2064      2506
 -1       671    3    0    1
 -2      1910       424      2652      2769
 -1       672    3    0    1
 -2       660       152       653      1254
 -1       673    3    0    1
 -2        79      1588      1629      2020
 -1       674    3    0    1
 -2       558       961      1211      2514
 -1       675    3    0    1
 -2       656       659      1002      1253
 -1       676    3    0    1
 -2      3048      2405      3063      3097
 -1       677    3    0    1
 -2       783      1068      2293      2720
 -1       678    3    0    1
 -2       525       937       524       932
 -1       679    3    0    1
 -2       252       797       800      1073
 -1       680    3    0    1
 -2      2386      2006      1630      1846
 -1       681    3    0    1
 -2      1728      1613      1887      2019
 -1       682    3    0    1
 -2      2046       579      2334      2529
 -1       683    3    0    1
 -2       973      1247      2358      1427
 -1       684    3    0    1
 -2      2928       340      1478      3066
 -1       685    3    0    1
 -2       653       343       656      1000
 -1       686    3    0    1
 -2       917       496      2510      2825
 -1       687    3    0    1
 -2       524      1200       937       538
 -1       688    3    0    1
 -2       808       831      1082      2072
 -1       689    3    0    1
 -2       190       416       699      1026
 -1       690    3    0    1
 -2      1990      2370      2610      2679
 -1       691    3    0    1
 -2      1632      1380      1688      1824
 -1       692    3    0    1
 -2       489        19      1165      1166
 -1       693    3    0    1
 -2       231      1453      3046      1459
 -1       694    3    0    1
 -2       605       607       969       974
 -1       695    3    0    1
 -2      1128       870      1688      1779
 -1       696    3    0    1
 -2      1857      1995      2006      2142
 -1       697    3    0    1
 -2      1267      1010       674      1265
 -1       698    3    0    1
 -2       469       465       907      1155
 -1       699    3    0    1
 -2       238      1965      1975      2361
 -1       700    3    0    1
 -2       627      2105      2647      2664
 -1       701    3    0    1
 -2       265       264      1325      1800
 -1       702    3    0    1
 -2      2313      2285      2630      2631
 -1       703    3    0    1
 -2       436       321      1128      1673
 -1       704    3    0    1
 -2       329      1758      2440      2709
 -1       705    3    0    1
 -2      1425      2342      3026      3044
 -1       706    3    0    1
 -2       676       681      1011      1264
 -1       707    3    0    1
 -2       185       331       697      1029
 -1       708    3    0    1
 -2       447       410      2315      2331
 -1       709    3    0    1
 -2       246       265      1325      1706
 -1       710    3    0    1
 -2       369        67       535       943
 -1       711    3    0    1
 -2       591       592      2176      2509
 -1       712    3    0    1
 -2       166       681      1264      1266
 -1       713    3    0    1
 -2       166       167       676      1009
 -1       714    3    0    1
 -2       165       163       680      1007
 -1       715    3    0    1
 -2      1591      2280      2570      2692
 -1       716    3    0    1
 -2      1599      1835      1882      1934
 -1       717    3    0    1
 -2      1670      1628      1726      2492
 -1       718    3    0    1
 -2       585       959      1220      1226
 -1       719    3    0    1
 -2      1052      1301      1646      1795
 -1       720    3    0    1
 -2        95        96       585      1221
 -1       721    3    0    1
 -2       456       906       455       902
 -1       722    3    0    1
 -2         9       457       902      1157
 -1       723    3    0    1
 -2      1576      1702      1762      1766
 -1       724    3    0    1
 -2      1392       866      1123      2243
 -1       725    3    0    1
 -2      1634      1145      1682      2149
 -1       726    3    0    1
 -2       129       626       625      1240
 -1       727    3    0    1
 -2      2917      1450      3057      3069
 -1       728    3    0    1
 -2       580       585       959      1221
 -1       729    3    0    1
 -2      2541      2095      2701      2805
 -1       730    3    0    1
 -2      1439      2953      2856      1883
 -1       731    3    0    1
 -2      1031       711       693      1032
 -1       732    3    0    1
 -2        93        96       585       956
 -1       733    3    0    1
 -2       112      1232       605       115
 -1       734    3    0    1
 -2      1459      1419      3077      3016
 -1       735    3    0    1
 -2      1832      1930      2010      2223
 -1       736    3    0    1
 -2       595      1237      1228       972
 -1       737    3    0    1
 -2       626       129       130      1240
 -1       738    3    0    1
 -2       613       114       609       967
 -1       739    3    0    1
 -2       807      1325      1749      1820
 -1       740    3    0    1
 -2        94       581      1215      1218
 -1       741    3    0    1
 -2       143       131       628      1239
 -1       742    3    0    1
 -2      1373       441       443      2289
 -1       743    3    0    1
 -2        43       426       511       925
 -1       744    3    0    1
 -2       100        98       577      1219
 -1       745    3    0    1
 -2       348       107       581       966
 -1       746    3    0    1
 -2        73      1208        84       557
 -1       747    3    0    1
 -2       897       461       905      1160
 -1       748    3    0    1
 -2      1667      1792      2175      2249
 -1       749    3    0    1
 -2       573      1224      1218       572
 -1       750    3    0    1
 -2       455      1159       906       459
 -1       751    3    0    1
 -2      1301       754      1672      1841
 -1       752    3    0    1
 -2       576       965       957       571
 -1       753    3    0    1
 -2       714      1493      2962      2973
 -1       754    3    0    1
 -2      1435      3039      2976      3091
 -1       755    3    0    1
 -2       712      1032      2288      2344
 -1       756    3    0    1
 -2       629       989       137       992
 -1       757    3    0    1
 -2       133       632       983      1244
 -1       758    3    0    1
 -2      1386       858       875      2313
 -1       759    3    0    1
 -2      1944      1947      2010      2223
 -1       760    3    0    1
 -2       692      1028       703       691
 -1       761    3    0    1
 -2      2349      1901      2370      2610
 -1       762    3    0    1
 -2      1045       351       725       204
 -1       763    3    0    1
 -2       537       366       941       942
 -1       764    3    0    1
 -2       983      1246       987       624
 -1       765    3    0    1
 -2       624      1246       987       630
 -1       766    3    0    1
 -2      1248       980       628      1239
 -1       767    3    0    1
 -2      2548       992      2733      2815
 -1       768    3    0    1
 -2       478       477       917      1171
 -1       769    3    0    1
 -2      1015       677      1008      1018
 -1       770    3    0    1
 -2       408       415       745      1055
 -1       771    3    0    1
 -2       492        27       485      1170
 -1       772    3    0    1
 -2       404       241      1842      1942
 -1       773    3    0    1
 -2       825       820      1095      1327
 -1       774    3    0    1
 -2       119       122       605       979
 -1       775    3    0    1
 -2      1737      1363      1777      2110
 -1       776    3    0    1
 -2      2318      2204      2850      2851
 -1       777    3    0    1
 -2       585       385       959      1226
 -1       778    3    0    1
 -2        95       580       956       957
 -1       779    3    0    1
 -2       736      1045      2340      2546
 -1       780    3    0    1
 -2       612       605       979      1232
 -1       781    3    0    1
 -2      1453      1419      1459      3016
 -1       782    3    0    1
 -2      1578      1734      2108      2206
 -1       783    3    0    1
 -2      1871      1677      2166      2266
 -1       784    3    0    1
 -2      1626      1553      1864      1929
 -1       785    3    0    1
 -2       604       110       609      1228
 -1       786    3    0    1
 -2      1715      1605      1913      2065
 -1       787    3    0    1
 -2       936       525       940      1192
 -1       788    3    0    1
 -2      2010      1944      2223      2348
 -1       789    3    0    1
 -2       578       962      1219      1222
 -1       790    3    0    1
 -2       553      1206      1203        72
 -1       791    3    0    1
 -2       836      1722      1778      2745
 -1       792    3    0    1
 -2      2642      3041      3043      3072
 -1       793    3    0    1
 -2       653       161       660      1005
 -1       794    3    0    1
 -2      1001       650      1249       649
 -1       795    3    0    1
 -2      1091      1334      3008      3009
 -1       796    3    0    1
 -2       357       161       653      1005
 -1       797    3    0    1
 -2       943      2527      1201       369
 -1       798    3    0    1
 -2      1065      1312      2992      3016
 -1       799    3    0    1
 -2       671      1267       682       675
 -1       800    3    0    1
 -2      2342      1269      1425      3026
 -1       801    3    0    1
 -2      1584      1544      1740      2011
 -1       802    3    0    1
 -2      2642      1189      1434      2893
 -1       803    3    0    1
 -2       748      1704      2022      2109
 -1       804    3    0    1
 -2       167       166       676      1264
 -1       805    3    0    1
 -2       509       920       927       930
 -1       806    3    0    1
 -2       628       131       633      1239
 -1       807    3    0    1
 -2        85        82       557       955
 -1       808    3    0    1
 -2      1161      1883      2040      2098
 -1       809    3    0    1
 -2       947       556       954      1202
 -1       810    3    0    1
 -2       556       561       947       953
 -1       811    3    0    1
 -2       580       102       585       964
 -1       812    3    0    1
 -2      1464      3041      3056      2924
 -1       813    3    0    1
 -2      1022       693      1033      1272
 -1       814    3    0    1
 -2      2174      1885      2672      2794
 -1       815    3    0    1
 -2       747      1296       218       753
 -1       816    3    0    1
 -2       718       719      1041      1283
 -1       817    3    0    1
 -2       871       879      1878      2345
 -1       818    3    0    1
 -2      1058       749      1292      1297
 -1       819    3    0    1
 -2      1302       227      1908      2340
 -1       820    3    0    1
 -2      1376      1140      2401      2669
 -1       821    3    0    1
 -2       719       718      1038      1284
 -1       822    3    0    1
 -2      1151      1374      1567      1619
 -1       823    3    0    1
 -2       735       715       736      1045
 -1       824    3    0    1
 -2       553        75       951      1210
 -1       825    3    0    1
 -2      1999      1522      2005      2082
 -1       826    3    0    1
 -2       216      1293       221       749
 -1       827    3    0    1
 -2      3071      3051      3078      3087
 -1       828    3    0    1
 -2      1523      1620      1898      2007
 -1       829    3    0    1
 -2      1268      1007       677      1260
 -1       830    3    0    1
 -2      1599      1626      1864      1882
 -1       831    3    0    1
 -2       557       944       952       955
 -1       832    3    0    1
 -2      1574      1653      1712      1767
 -1       833    3    0    1
 -2       725       351       728      1289
 -1       834    3    0    1
 -2      1879      1780      2062      2093
 -1       835    3    0    1
 -2      1639      1080      1785      2192
 -1       836    3    0    1
 -2      3051      2909      2982      3087
 -1       837    3    0    1
 -2       403      1094      1610      2269
 -1       838    3    0    1
 -2       173       354      3076      3092
 -1       839    3    0    1
 -2      2207      1017      2281      2433
 -1       840    3    0    1
 -2       485        29       488       914
 -1       841    3    0    1
 -2      1568      1604      1798      1939
 -1       842    3    0    1
 -2       674       169       170      1010
 -1       843    3    0    1
 -2      1339      1828      2220      2618
 -1       844    3    0    1
 -2      2945      2947      2952      2971
 -1       845    3    0    1
 -2       677       680      1007      1013
 -1       846    3    0    1
 -2       731       200       206      1280
 -1       847    3    0    1
 -2      1395       292       325      2730
 -1       848    3    0    1
 -2       181       701       708      1272
 -1       849    3    0    1
 -2       694      1031       711       693
 -1       850    3    0    1
 -2      2061       960      1409      1410
 -1       851    3    0    1
 -2       683       680      1008      1015
 -1       852    3    0    1
 -2       959       585      1220      1221
 -1       853    3    0    1
 -2       222       409      1646      1893
 -1       854    3    0    1
 -2       283      1092      1978      2255
 -1       855    3    0    1
 -2      1702      1576      1751      1766
 -1       856    3    0    1
 -2       399      1365      1145      2562
 -1       857    3    0    1
 -2      2867      2848      2905      3064
 -1       858    3    0    1
 -2        47       509       920      1184
 -1       859    3    0    1
 -2      1553      1544      1864      2011
 -1       860    3    0    1
 -2       110       114       609      1228
 -1       861    3    0    1
 -2      1540      1717      1993      2158
 -1       862    3    0    1
 -2       967       604       978      1233
 -1       863    3    0    1
 -2       529       936       940      1192
 -1       864    3    0    1
 -2      1223       336      2499      2737
 -1       865    3    0    1
 -2       143       628       980      1239
 -1       866    3    0    1
 -2      2946      2974      2987      3013
 -1       867    3    0    1
 -2      2170       174      2240      2281
 -1       868    3    0    1
 -2       469         4       465      1155
 -1       869    3    0    1
 -2       771       777      1063      1069
 -1       870    3    0    1
 -2       529        60       530      1194
 -1       871    3    0    1
 -2       481       915      1167      1174
 -1       872    3    0    1
 -2       703       702      1028      1776
 -1       873    3    0    1
 -2       544       523       941       942
 -1       874    3    0    1
 -2       119       605       607       976
 -1       875    3    0    1
 -2       281       824      1087      1329
 -1       876    3    0    1
 -2       527       526       939      1195
 -1       877    3    0    1
 -2      3039      1467      1466      1436
 -1       878    3    0    1
 -2      1013      1268      1532      2423
 -1       879    3    0    1
 -2      1783      1090      2014      2026
 -1       880    3    0    1
 -2       829       275       825      1328
 -1       881    3    0    1
 -2       137       140       629       992
 -1       882    3    0    1
 -2      1762      2238      2320      2337
 -1       883    3    0    1
 -2      1813      1711      2075      2535
 -1       884    3    0    1
 -2      1816       724      1840      2307
 -1       885    3    0    1
 -2       173      1446      3044      3076
 -1       886    3    0    1
 -2      1479      2451      2948      3093
 -1       887    3    0    1
 -2      1321      1076       793      1319
 -1       888    3    0    1
 -2      1119      1408      2049      2401
 -1       889    3    0    1
 -2        80       382       556       948
 -1       890    3    0    1
 -2       216       749       752      1048
 -1       891    3    0    1
 -2       207       204      1289      2102
 -1       892    3    0    1
 -2       608       606      2099      2452
 -1       893    3    0    1
 -2       453       907       908      1154
 -1       894    3    0    1
 -2       548      1205       549       948
 -1       895    3    0    1
 -2       369       939      1983      2100
 -1       896    3    0    1
 -2      1501      3004      3005      3011
 -1       897    3    0    1
 -2      1563      1521      1742      1805
 -1       898    3    0    1
 -2       812      1092       811      1086
 -1       899    3    0    1
 -2      1475      1431      3094      3097
 -1       900    3    0    1
 -2      2115       328      2547      2700
 -1       901    3    0    1
 -2       971       595       975      1227
 -1       902    3    0    1
 -2      1574      1604      1767      1822
 -1       903    3    0    1
 -2      1775       390      1805      2576
 -1       904    3    0    1
 -2         4       460       465      1155
 -1       905    3    0    1
 -2       465       460       907      1155
 -1       906    3    0    1
 -2       508        41       928       929
 -1       907    3    0    1
 -2      1602      1562      2457      2478
 -1       908    3    0    1
 -2      1780      1875      1879      2062
 -1       909    3    0    1
 -2      1325      1636      1749      1800
 -1       910    3    0    1
 -2      2174      1768      2688      2800
 -1       911    3    0    1
 -2       905        18      2078      2101
 -1       912    3    0    1
 -2       396      1730      2268      2277
 -1       913    3    0    1
 -2      2887      2892      3045      3074
 -1       914    3    0    1
 -2       830       279       287      1327
 -1       915    3    0    1
 -2      1142       306      1120      1665
 -1       916    3    0    1
 -2       720      1045       715      1037
 -1       917    3    0    1
 -2       610      1237      1847      2415
 -1       918    3    0    1
 -2        33        35       484       912
 -1       919    3    0    1
 -2       990       640       991      2728
 -1       920    3    0    1
 -2      1437      1447      3007      3009
 -1       921    3    0    1
 -2       989       629      1241      1242
 -1       922    3    0    1
 -2      1199      3062      1429      1430
 -1       923    3    0    1
 -2       972       604      1228      1229
 -1       924    3    0    1
 -2       351       204      2077      2200
 -1       925    3    0    1
 -2       590       580       957       965
 -1       926    3    0    1
 -2       557       559       945       950
 -1       927    3    0    1
 -2        58       535       931       934
 -1       928    3    0    1
 -2      2934      2968      2985      2997
 -1       929    3    0    1
 -2        13        17       465       907
 -1       930    3    0    1
 -2       102       590       337       965
 -1       931    3    0    1
 -2      1787       135      2206      2558
 -1       932    3    0    1
 -2      1760      1911      1975      2416
 -1       933    3    0    1
 -2        37      1181       508        38
 -1       934    3    0    1
 -2      1094       831      1610      2172
 -1       935    3    0    1
 -2       333       414      1535      2184
 -1       936    3    0    1
 -2       552       953       567       547
 -1       937    3    0    1
 -2      1717      1993      2158      2393
 -1       938    3    0    1
 -2        40       505      1179      1182
 -1       939    3    0    1
 -2      1625      1663      1743      2012
 -1       940    3    0    1
 -2       571       591       592       965
 -1       941    3    0    1
 -2      1747      1784      2246      2335
 -1       942    3    0    1
 -2       528      1201       943       543
 -1       943    3    0    1
 -2      1901      1530      1990      2252
 -1       944    3    0    1
 -2      1475      3048      3063      3097
 -1       945    3    0    1
 -2      1642      1588      1681      2295
 -1       946    3    0    1
 -2       139       133       629      1242
 -1       947    3    0    1
 -2      2782      3043      3071      2874
 -1       948    3    0    1
 -2       490      1177      2216      2595
 -1       949    3    0    1
 -2       612       122       345       979
 -1       950    3    0    1
 -2        73       557       944      1209
 -1       951    3    0    1
 -2      2859      2092      2863      3053
 -1       952    3    0    1
 -2      1501      1438      3004      3011
 -1       953    3    0    1
 -2       502       929       919       501
 -1       954    3    0    1
 -2      1577      1780      2267      2568
 -1       955    3    0    1
 -2      1237       603       610      1858
 -1       956    3    0    1
 -2      1680      2108      2206      2272
 -1       957    3    0    1
 -2       246       248      1311      1706
 -1       958    3    0    1
 -2       832       813      1094      1095
 -1       959    3    0    1
 -2      1622      1765      1985      2215
 -1       960    3    0    1
 -2      1816      1288      2037      2058
 -1       961    3    0    1
 -2      2236      1267      2440      2709
 -1       962    3    0    1
 -2      2613      3027      1459      3069
 -1       963    3    0    1
 -2      1913      1605      2030      2065
 -1       964    3    0    1
 -2       509       516       920       930
 -1       965    3    0    1
 -2       126       123       604       978
 -1       966    3    0    1
 -2       509        43       511       925
 -1       967    3    0    1
 -2       912       489      1165      1166
 -1       968    3    0    1
 -2        32        29       488      1178
 -1       969    3    0    1
 -2      1427      1247      3017      3018
 -1       970    3    0    1
 -2      1039       726       727      2275
 -1       971    3    0    1
 -2       157      1003      1004      1696
 -1       972    3    0    1
 -2      1604       415      1687      1844
 -1       973    3    0    1
 -2      2898      2873      3082      3094
 -1       974    3    0    1
 -2      1684      1584      1740      2028
 -1       975    3    0    1
 -2      1806      1321      1808      2354
 -1       976    3    0    1
 -2       604       123       609       977
 -1       977    3    0    1
 -2      1416       949      1432      3068
 -1       978    3    0    1
 -2      1000       655       654      1852
 -1       979    3    0    1
 -2       477      1178       496       495
 -1       980    3    0    1
 -2       581       107       588       966
 -1       981    3    0    1
 -2      1587      1677      1871      2266
 -1       982    3    0    1
 -2      1041      2039      2314      2366
 -1       983    3    0    1
 -2      3041      1464      3056      3072
 -1       984    3    0    1
 -2       348       581       963       966
 -1       985    3    0    1
 -2       259      1080      1321      1675
 -1       986    3    0    1
 -2       645       663       664      1004
 -1       987    3    0    1
 -2      1669      1981      2321      2494
 -1       988    3    0    1
 -2        96        95       585       956
 -1       989    3    0    1
 -2      1241       629       133      1242
 -1       990    3    0    1
 -2       525       937       531       524
 -1       991    3    0    1
 -2       556        80       561       953
 -1       992    3    0    1
 -2       299      1829      1921      1952
 -1       993    3    0    1
 -2      2247      1224      2649      2651
 -1       994    3    0    1
 -2      2152      2068      2311      2371
 -1       995    3    0    1
 -2       518        38        51       919
 -1       996    3    0    1
 -2       534       526       536       939
 -1       997    3    0    1
 -2      1758       329      2421      2709
 -1       998    3    0    1
 -2       749       752      1048      1054
 -1       999    3    0    1
 -2       932      1200       937       524
 -1      1000    3    0    1
 -2        43       509       927       930
 -1      1001    3    0    1
 -2       763       768      1070      1303
 -1      1002    3    0    1
 -2       507      1187      2526      2746
 -1      1003    3    0    1
 -2       281       274       824      1084
 -1      1004    3    0    1
 -2      1096      1818      2201      2372
 -1      1005    3    0    1
 -2      2858      2024      3028      3058
 -1      1006    3    0    1
 -2      1214        94       583        92
 -1      1007    3    0    1
 -2       556        71       561      1204
 -1      1008    3    0    1
 -2        83       557       564       944
 -1      1009    3    0    1
 -2       328      2115      2547      2593
 -1      1010    3    0    1
 -2       174       317      2170      2240
 -1      1011    3    0    1
 -2       581       588       958       966
 -1      1012    3    0    1
 -2      1778      1722      2523      2745
 -1      1013    3    0    1
 -2       821       828      1087      1096
 -1      1014    3    0    1
 -2        63        58       533       931
 -1      1015    3    0    1
 -2        83        84       557       944
 -1      1016    3    0    1
 -2      2438      2869      2880      2923
 -1      1017    3    0    1
 -2       376      3089      3090      3096
 -1      1018    3    0    1
 -2       595      1230      1227       971
 -1      1019    3    0    1
 -2      1746      2196      2408      2524
 -1      1020    3    0    1
 -2      1824      1603      2211      2386
 -1      1021    3    0    1
 -2        61        60       529      1194
 -1      1022    3    0    1
 -2       548      1206      1203       951
 -1      1023    3    0    1
 -2       385       102       585       959
 -1      1024    3    0    1
 -2      2614      1450      2917      3069
 -1      1025    3    0    1
 -2       835       836      1778      2745
 -1      1026    3    0    1
 -2      1403      1109      2329      2379
 -1      1027    3    0    1
 -2       557        73       559      1209
 -1      1028    3    0    1
 -2       269      2378      2683      2796
 -1      1029    3    0    1
 -2      1756      1697      2187      2446
 -1      1030    3    0    1
 -2       336       101      1533      1570
 -1      1031    3    0    1
 -2       831       832      1094      1610
 -1      1032    3    0    1
 -2      1101      1829      2075      2493
 -1      1033    3    0    1
 -2       476      1174      1167       475
 -1      1034    3    0    1
 -2      1112      1386      2285      2313
 -1      1035    3    0    1
 -2       461        14       464       905
 -1      1036    3    0    1
 -2      1794      1537      2146      2260
 -1      1037    3    0    1
 -2       459       455       466       906
 -1      1038    3    0    1
 -2       366       532       537      1200
 -1      1039    3    0    1
 -2        22       484      1168      1171
 -1      1040    3    0    1
 -2       123       972      1237      2603
 -1      1041    3    0    1
 -2       504      1188       503       510
 -1      1042    3    0    1
 -2       655       999       654      2298
 -1      1043    3    0    1
 -2      1594      1720      1966      2023
 -1      1044    3    0    1
 -2       581       104       583       961
 -1      1045    3    0    1
 -2       480      1175      1173       479
 -1      1046    3    0    1
 -2      1065      2203      2248      2723
 -1      1047    3    0    1
 -2       991      2432      2691      2732
 -1      1048    3    0    1
 -2      1644      1604      1687      1844
 -1      1049    3    0    1
 -2       597       598       616       979
 -1      1050    3    0    1
 -2      1042       725       351       728
 -1      1051    3    0    1
 -2       796       261      1081      1082
 -1      1052    3    0    1
 -2        38       518       508       919
 -1      1053    3    0    1
 -2      1094       403      1950      2056
 -1      1054    3    0    1
 -2      2397      1885      2437      2490
 -1      1055    3    0    1
 -2      1334       823      2035      2157
 -1      1056    3    0    1
 -2      1279       335      2435      2612
 -1      1057    3    0    1
 -2       600      1235       599       606
 -1      1058    3    0    1
 -2      2040       462      2098      2545
 -1      1059    3    0    1
 -2       104       348       581       963
 -1      1060    3    0    1
 -2      1900      1041      2314      2366
 -1      1061    3    0    1
 -2      1486       368      3084      2993
 -1      1062    3    0    1
 -2      3050       428      1469      3086
 -1      1063    3    0    1
 -2      1392      1123      1693      2243
 -1      1064    3    0    1
 -2      1544      1553      1740      2011
 -1      1065    3    0    1
 -2       805       257       801      1317
 -1      1066    3    0    1
 -2       915       475      1164      1167
 -1      1067    3    0    1
 -2       930      1201      2502      2721
 -1      1068    3    0    1
 -2      1929      1626      1962      1996
 -1      1069    3    0    1
 -2      2258      2294      2839      2840
 -1      1070    3    0    1
 -2       750       740       751      1054
 -1      1071    3    0    1
 -2       981       633       991      1243
 -1      1072    3    0    1
 -2      3046       231      1459      3069
 -1      1073    3    0    1
 -2       773       246       780      1071
 -1      1074    3    0    1
 -2       823      1078      1334      2035
 -1      1075    3    0    1
 -2      2370      2286      2610      2679
 -1      1076    3    0    1
 -2       518       508       919       929
 -1      1077    3    0    1
 -2      2708      2847      3060      3086
 -1      1078    3    0    1
 -2       633       628      1239      1248
 -1      1079    3    0    1
 -2       256      1320       257       801
 -1      1080    3    0    1
 -2       796       806      1082      1316
 -1      1081    3    0    1
 -2       943       544      2374      2742
 -1      1082    3    0    1
 -2       965       592      2050      2543
 -1      1083    3    0    1
 -2      1717      1540      1966      2158
 -1      1084    3    0    1
 -2       461       468       900       909
 -1      1085    3    0    1
 -2       264       268      1083      1636
 -1      1086    3    0    1
 -2      1581      1660      1838      2084
 -1      1087    3    0    1
 -2        17        13      1162      2448
 -1      1088    3    0    1
 -2      1649      1672      1723      1814
 -1      1089    3    0    1
 -2      1224       348      2463      2649
 -1      1090    3    0    1
 -2       780       239       773      1059
 -1      1091    3    0    1
 -2       848      1627      1690      2563
 -1      1092    3    0    1
 -2      1001       650       320       997
 -1      1093    3    0    1
 -2      1552      1630      1632      1824
 -1      1094    3    0    1
 -2      1617      1981      2321      2391
 -1      1095    3    0    1
 -2       771       238      1069      1070
 -1      1096    3    0    1
 -2       525       524       940      1192
 -1      1097    3    0    1
 -2      1041       718      1283      1285
 -1      1098    3    0    1
 -2      1638      1551      1763      2376
 -1      1099    3    0    1
 -2       813       814      1094      1328
 -1      1100    3    0    1
 -2       748      1052      1704      1795
 -1      1101    3    0    1
 -2       820       275       825      1331
 -1      1102    3    0    1
 -2       825       275      1327      1328
 -1      1103    3    0    1
 -2       773       243       776      1066
 -1      1104    3    0    1
 -2      1567      1524      1966      2462
 -1      1105    3    0    1
 -2      1574      1644      1653      1767
 -1      1106    3    0    1
 -2      1657      1640      1759      2447
 -1      1107    3    0    1
 -2       508        41       513       928
 -1      1108    3    0    1
 -2       275       820       825      1327
 -1      1109    3    0    1
 -2      1413      1161      2974      3013
 -1      1110    3    0    1
 -2       136      1245      2431      2616
 -1      1111    3    0    1
 -2       760      1745      1922      1953
 -1      1112    3    0    1
 -2       138       628       633      1248
 -1      1113    3    0    1
 -2      1325       264      1636      1800
 -1      1114    3    0    1
 -2       986      1247      1435      3091
 -1      1115    3    0    1
 -2       960      2936      3001      1225
 -1      1116    3    0    1
 -2       195      1032      2104      2112
 -1      1117    3    0    1
 -2       458        12       397       906
 -1      1118    3    0    1
 -2        71       556       947      1202
 -1      1119    3    0    1
 -2       887      1399      1737      1777
 -1      1120    3    0    1
 -2      1736      2059      2067      2359
 -1      1121    3    0    1
 -2      1906      1960      2096      2607
 -1      1122    3    0    1
 -2      1657      2145      2273      2338
 -1      1123    3    0    1
 -2       601       111       602      1230
 -1      1124    3    0    1
 -2       653       147       656      1253
 -1      1125    3    0    1
 -2      1094       831      2172      2269
 -1      1126    3    0    1
 -2      1521      1710      1801      1802
 -1      1127    3    0    1
 -2       681      1011      1266      1270
 -1      1128    3    0    1
 -2       693      1023      1032      1273
 -1      1129    3    0    1
 -2       149      1251       652       150
 -1      1130    3    0    1
 -2       203       350      3042      2938
 -1      1131    3    0    1
 -2       174       177       676      1011
 -1      1132    3    0    1
 -2       268      1636      1718      1978
 -1      1133    3    0    1
 -2      2194      2054      2421      2709
 -1      1134    3    0    1
 -2       751      1039      1300      2275
 -1      1135    3    0    1
 -2      2676      3039      3040      3091
 -1      1136    3    0    1
 -2      1087       824      1336      1329
 -1      1137    3    0    1
 -2       814      1336      1096       831
 -1      1138    3    0    1
 -2       425      1463      1464      1488
 -1      1139    3    0    1
 -2      1623      1793      1903      2134
 -1      1140    3    0    1
 -2      1540       413      1720      2058
 -1      1141    3    0    1
 -2      1818       373      1980      2372
 -1      1142    3    0    1
 -2       816      1093       826       815
 -1      1143    3    0    1
 -2      2038       568      2470       567
 -1      1144    3    0    1
 -2      1425      1012      2932      2960
 -1      1145    3    0    1
 -2      3064      2959      2970      3092
 -1      1146    3    0    1
 -2      1082       271      1945      1950
 -1      1147    3    0    1
 -2       548      1213      1204       948
 -1      1148    3    0    1
 -2       902      1159       906       455
 -1      1149    3    0    1
 -2      1499      3063      1500      3095
 -1      1150    3    0    1
 -2       931       535      1201       934
 -1      1151    3    0    1
 -2      3032      2328      3035      2917
 -1      1152    3    0    1
 -2       586       579      1223      2499
 -1      1153    3    0    1
 -2       770       232      1305      1306
 -1      1154    3    0    1
 -2       461       899       464         6
 -1      1155    3    0    1
 -2       749       223       752      1054
 -1      1156    3    0    1
 -2       739       744       760      1058
 -1      1157    3    0    1
 -2       222      1052      1301      1646
 -1      1158    3    0    1
 -2       643      1259      1250       998
 -1      1159    3    0    1
 -2      1132      1654      2136      2628
 -1      1160    3    0    1
 -2       104       581       583       963
 -1      1161    3    0    1
 -2       102       580       585       959
 -1      1162    3    0    1
 -2       633       628       991      1243
 -1      1163    3    0    1
 -2      2159      2287      2622      2626
 -1      1164    3    0    1
 -2      1701      1666      1703      1982
 -1      1165    3    0    1
 -2       353       701      1030      1033
 -1      1166    3    0    1
 -2       185       697      1025      1029
 -1      1167    3    0    1
 -2       701       179      1019      1021
 -1      1168    3    0    1
 -2       682       675      2236      2240
 -1      1169    3    0    1
 -2       854      1387      1368      2286
 -1      1170    3    0    1
 -2      2059      1685      2232      2410
 -1      1171    3    0    1
 -2      2839      2840      2861      3048
 -1      1172    3    0    1
 -2      1960      1906      2096      2712
 -1      1173    3    0    1
 -2      2257      1554      2294      2436
 -1      1174    3    0    1
 -2      1399      1684      1737      1777
 -1      1175    3    0    1
 -2       491       488      1169      1178
 -1      1176    3    0    1
 -2      1807      2156      2186      2563
 -1      1177    3    0    1
 -2      1548      1655      1891      1967
 -1      1178    3    0    1
 -2       624       987       983       623
 -1      1179    3    0    1
 -2      2517      1557      2582      2741
 -1      1180    3    0    1
 -2       718      1288      1285      1041
 -1      1181    3    0    1
 -2      2226        82      2722      2731
 -1      1182    3    0    1
 -2       261       269       801      1081
 -1      1183    3    0    1
 -2      2013      1641      2047      2082
 -1      1184    3    0    1
 -2       681       685      1009      1016
 -1      1185    3    0    1
 -2       630       631       986      1699
 -1      1186    3    0    1
 -2       834      1338      1812      1828
 -1      1187    3    0    1
 -2      1224      2649      2651      2788
 -1      1188    3    0    1
 -2        47       509       511       921
 -1      1189    3    0    1
 -2       905        18      1333      2078
 -1      1190    3    0    1
 -2       787      1322      1079       798
 -1      1191    3    0    1
 -2       703       702      1776      2312
 -1      1192    3    0    1
 -2      1679      1598      1981      2321
 -1      1193    3    0    1
 -2       840      1793      2114      2369
 -1      1194    3    0    1
 -2       746      1055      1050      1051
 -1      1195    3    0    1
 -2      1720      1594      1899      2058
 -1      1196    3    0    1
 -2      1289      1036       728      1281
 -1      1197    3    0    1
 -2      1415      3052      1470      3081
 -1      1198    3    0    1
 -2      1639      1785      1992      2192
 -1      1199    3    0    1
 -2       792      1324       791       802
 -1      1200    3    0    1
 -2      1526      1666      1891      1967
 -1      1201    3    0    1
 -2      1752      1989      2036      2065
 -1      1202    3    0    1
 -2      3026      3033      3065      3038
 -1      1203    3    0    1
 -2       774      1974      2164      2248
 -1      1204    3    0    1
 -2      3040      3039      3059      1478
 -1      1205    3    0    1
 -2       639       621       640       992
 -1      1206    3    0    1
 -2      1689      1536      1708      1925
 -1      1207    3    0    1
 -2      1796      1614      1797      2481
 -1      1208    3    0    1
 -2      1410      1409      2915      1509
 -1      1209    3    0    1
 -2       581       961      1215      1218
 -1      1210    3    0    1
 -2       153      1252       650      1249
 -1      1211    3    0    1
 -2       269       261       801      1324
 -1      1212    3    0    1
 -2       819       815       826      1093
 -1      1213    3    0    1
 -2      1634      1825      2019      2149
 -1      1214    3    0    1
 -2      1530      1623      1991      2138
 -1      1215    3    0    1
 -2      1550      1614      2300      2350
 -1      1216    3    0    1
 -2       758       218       230      1298
 -1      1217    3    0    1
 -2      1675       263      1715      2113
 -1      1218    3    0    1
 -2       315       138      2732      2820
 -1      1219    3    0    1
 -2        35        33      2209      2689
 -1      1220    3    0    1
 -2       511       515       927      1184
 -1      1221    3    0    1
 -2      2848      2905      3064      2959
 -1      1222    3    0    1
 -2       660       653      1005      1254
 -1      1223    3    0    1
 -2      1840      1620      1899      2058
 -1      1224    3    0    1
 -2      1043      2210      2422      2429
 -1      1225    3    0    1
 -2      1638      1995      2142      2167
 -1      1226    3    0    1
 -2      1626      1527      1867      1962
 -1      1227    3    0    1
 -2       367      1447      3084      3006
 -1      1228    3    0    1
 -2       551      1211      1208       550
 -1      1229    3    0    1
 -2      3034      2850      1458      2920
 -1      1230    3    0    1
 -2      1087      1336      1096       814
 -1      1231    3    0    1
 -2      1620      1523      1720      1771
 -1      1232    3    0    1
 -2       276       818       277      1330
 -1      1233    3    0    1
 -2      1083       807      1325      1749
 -1      1234    3    0    1
 -2      1200       932       532      1193
 -1      1235    3    0    1
 -2      3046      3027      1459      3077
 -1      1236    3    0    1
 -2       423       370       930      1531
 -1      1237    3    0    1
 -2      1747      1717      2158      1918
 -1      1238    3    0    1
 -2       340       341      1467      3059
 -1      1239    3    0    1
 -2       768      1068      1062       763
 -1      1240    3    0    1
 -2      2715       514      2798      2813
 -1      1241    3    0    1
 -2      1142       388      1665      2468
 -1      1242    3    0    1
 -2      1757      1576      1762      2238
 -1      1243    3    0    1
 -2        20       481      1164      1167
 -1      1244    3    0    1
 -2       507       499       514       926
 -1      1245    3    0    1
 -2       484       494       917      1171
 -1      1246    3    0    1
 -2      1585      1781      1997      2166
 -1      1247    3    0    1
 -2      1524      1705      1909      2090
 -1      1248    3    0    1
 -2       362      3063      1476      3095
 -1      1249    3    0    1
 -2      1847      1237      2403      2415
 -1      1250    3    0    1
 -2      1623      1530      1793      2135
 -1      1251    3    0    1
 -2       854      2202      1387      2286
 -1      1252    3    0    1
 -2       878       867      1754      1994
 -1      1253    3    0    1
 -2        29        32       488       914
 -1      1254    3    0    1
 -2       492       485       918      1170
 -1      1255    3    0    1
 -2       503       925       512       510
 -1      1256    3    0    1
 -2      2914      1433      3043      2941
 -1      1257    3    0    1
 -2      2501       289      2674      2735
 -1      1258    3    0    1
 -2       823       798      2035      2255
 -1      1259    3    0    1
 -2      1068      1058      1894      1922
 -1      1260    3    0    1
 -2      1611      2199      2323      2468
 -1      1261    3    0    1
 -2       633       637       981       990
 -1      1262    3    0    1
 -2      3046      3027      3057      3069
 -1      1263    3    0    1
 -2      1246       983       632      1244
 -1      1264    3    0    1
 -2       421       422      3078      3087
 -1      1265    3    0    1
 -2      1450       361      3057      3069
 -1      1266    3    0    1
 -2      1715      1605      2065      2113
 -1      1267    3    0    1
 -2      2427      2561      2590      2705
 -1      1268    3    0    1
 -2       163       677      1007      1260
 -1      1269    3    0    1
 -2      1679      1598      1828      2391
 -1      1270    3    0    1
 -2      1046       747      1057      1298
 -1      1271    3    0    1
 -2       736      1044      1826      1868
 -1      1272    3    0    1
 -2       958       583        94       581
 -1      1273    3    0    1
 -2       461       899         6       897
 -1      1274    3    0    1
 -2      1162        17      2448      2711
 -1      1275    3    0    1
 -2      1739      2258      2863      2875
 -1      1276    3    0    1
 -2       235       761      2950      2955
 -1      1277    3    0    1
 -2       749      1058      1292      1302
 -1      1278    3    0    1
 -2      3001      2980      3010      3021
 -1      1279    3    0    1
 -2       699       710      1032      1273
 -1      1280    3    0    1
 -2      1615      1595      1644      1653
 -1      1281    3    0    1
 -2      2635       990      2728      2756
 -1      1282    3    0    1
 -2       725       351      1289       204
 -1      1283    3    0    1
 -2       551      1211       550       558
 -1      1284    3    0    1
 -2       553      1206       951      1203
 -1      1285    3    0    1
 -2      1666      1686      1703      1891
 -1      1286    3    0    1
 -2       297      1103      1584      1684
 -1      1287    3    0    1
 -2       739      1302      1058       759
 -1      1288    3    0    1
 -2       382        80       556       954
 -1      1289    3    0    1
 -2      2024      1027      2080      2312
 -1      1290    3    0    1
 -2       971       118       975      2233
 -1      1291    3    0    1
 -2       573      1216      1217      2936
 -1      1292    3    0    1
 -2      1614      1796      2300      2350
 -1      1293    3    0    1
 -2      1159       902       457      1157
 -1      1294    3    0    1
 -2       583        94       581      1215
 -1      1295    3    0    1
 -2      2613      3030      1459      3077
 -1      1296    3    0    1
 -2      1078      1334      2035      3060
 -1      1297    3    0    1
 -2      1668      1542      1873      1919
 -1      1298    3    0    1
 -2      1701      1541      1982      2079
 -1      1299    3    0    1
 -2       655      1258      2298      2486
 -1      1300    3    0    1
 -2      3031      1417      1468      3077
 -1      1301    3    0    1
 -2      1050       742      1051      1055
 -1      1302    3    0    1
 -2      1557      1789      2004      2280
 -1      1303    3    0    1
 -2       708       701      1033      1272
 -1      1304    3    0    1
 -2      1034       729      1044      1287
 -1      1305    3    0    1
 -2      1536      1689      1708      1998
 -1      1306    3    0    1
 -2        62      2688      2791      2800
 -1      1307    3    0    1
 -2       310      1135      1129      1819
 -1      1308    3    0    1
 -2       959       579      1941      2529
 -1      1309    3    0    1
 -2      1712      1822      1855      2033
 -1      1310    3    0    1
 -2      1325      1071      1706      1820
 -1      1311    3    0    1
 -2       648      1257       647       654
 -1      1312    3    0    1
 -2       724       718       730      1041
 -1      1313    3    0    1
 -2       699       182       705      1276
 -1      1314    3    0    1
 -2       720      1034      1044      1287
 -1      1315    3    0    1
 -2       182       699      1274      1276
 -1      1316    3    0    1
 -2       555      2427      2561      2590
 -1      1317    3    0    1
 -2       442       304      1151      1619
 -1      1318    3    0    1
 -2       509        47       511      1184
 -1      1319    3    0    1
 -2      1826       736      2340      2546
 -1      1320    3    0    1
 -2      1224       961      2247      2649
 -1      1321    3    0    1
 -2      1758      1846      1976      2696
 -1      1322    3    0    1
 -2       128       618      2972      2995
 -1      1323    3    0    1
 -2       581       963       958       583
 -1      1324    3    0    1
 -2       343       357      1005      1714
 -1      1325    3    0    1
 -2      1724      2017      2564      2566
 -1      1326    3    0    1
 -2       575       959      1220      1221
 -1      1327    3    0    1
 -2      2337       331      1729      2377
 -1      1328    3    0    1
 -2      1015       171      1018      2658
 -1      1329    3    0    1
 -2      2488       658      2646      2766
 -1      1330    3    0    1
 -2       321       436      1612      1673
 -1      1331    3    0    1
 -2       795       791       802      1080
 -1      1332    3    0    1
 -2       586      1226      2727      2807
 -1      1333    3    0    1
 -2      1595      1615      1624      1830
 -1      1334    3    0    1
 -2       381       366       532       942
 -1      1335    3    0    1
 -2      1697      1995      2142      2394
 -1      1336    3    0    1
 -2       593      1515      3014      3024
 -1      1337    3    0    1
 -2      1792      1683      2175      2249
 -1      1338    3    0    1
 -2      1023       699      1032      1273
 -1      1339    3    0    1
 -2       391      1579      1901      1990
 -1      1340    3    0    1
 -2      1444      3044      3064      3092
 -1      1341    3    0    1
 -2      1835      1626      1929      1996
 -1      1342    3    0    1
 -2       669       670      1017      1263
 -1      1343    3    0    1
 -2      2943      1450      2961      2975
 -1      1344    3    0    1
 -2      1851      1772      2199      2311
 -1      1345    3    0    1
 -2       486       487      1837      2424
 -1      1346    3    0    1
 -2      2045      1011      2236      2608
 -1      1347    3    0    1
 -2       533       540       931       943
 -1      1348    3    0    1
 -2       907       400      2347      2711
 -1      1349    3    0    1
 -2      1764      1771      1798      2231
 -1      1350    3    0    1
 -2       461      1156       900         6
 -1      1351    3    0    1
 -2       902      1159       457       906
 -1      1352    3    0    1
 -2      2249      1683      2318      2319
 -1      1353    3    0    1
 -2       457        12       906      1159
 -1      1354    3    0    1
 -2      2328      1039      3032      2986
 -1      1355    3    0    1
 -2       171      1013      1268      1532
 -1      1356    3    0    1
 -2       776      1059       239      1062
 -1      1357    3    0    1
 -2      1067       770      1305      1306
 -1      1358    3    0    1
 -2       442      1151      1616      1619
 -1      1359    3    0    1
 -2       485      1169       918      1170
 -1      1360    3    0    1
 -2      1623      1903      1991      2185
 -1      1361    3    0    1
 -2      1614       118      1796      1797
 -1      1362    3    0    1
 -2       275       279       820      1327
 -1      1363    3    0    1
 -2       268       264      1718      1800
 -1      1364    3    0    1
 -2        20       482        26      1164
 -1      1365    3    0    1
 -2       528       943       931       523
 -1      1366    3    0    1
 -2       807       784      1071      1820
 -1      1367    3    0    1
 -2       501       920       927      1184
 -1      1368    3    0    1
 -2       341      1443      3059      3066
 -1      1369    3    0    1
 -2       560      1211       558       550
 -1      1370    3    0    1
 -2       555       548       562       951
 -1      1371    3    0    1
 -2       243       773       776      1068
 -1      1372    3    0    1
 -2        14      2710       909      2810
 -1      1373    3    0    1
 -2       238       407       777      1069
 -1      1374    3    0    1
 -2      2228      1650      2320      2337
 -1      1375    3    0    1
 -2        57        55       532      1191
 -1      1376    3    0    1
 -2      1065       774      2164      2248
 -1      1377    3    0    1
 -2      1625      1663      2052      2053
 -1      1378    3    0    1
 -2      1564      1829      1921      2493
 -1      1379    3    0    1
 -2       971       118      2233      2569
 -1      1380    3    0    1
 -2      1792      1683      2249      2319
 -1      1381    3    0    1
 -2      1623      1530      1735      2138
 -1      1382    3    0    1
 -2      2898      2841      3062      3082
 -1      1383    3    0    1
 -2      2010      1772      2223      2468
 -1      1384    3    0    1
 -2       335      2472      2515      2612
 -1      1385    3    0    1
 -2       983      1246       632       987
 -1      1386    3    0    1
 -2       617      2995      3015      3018
 -1      1387    3    0    1
 -2      1949      1757      2377      2404
 -1      1388    3    0    1
 -2      2069      1162      2353      2666
 -1      1389    3    0    1
 -2      1683      2003      2175      2249
 -1      1390    3    0    1
 -2      1568      1596      1604      1939
 -1      1391    3    0    1
 -2       256      1317       801       257
 -1      1392    3    0    1
 -2       131       637       145       981
 -1      1393    3    0    1
 -2      1780      1577      2373      2568
 -1      1394    3    0    1
 -2      1620      1649      1723      1899
 -1      1395    3    0    1
 -2       676       686      1017      1263
 -1      1396    3    0    1
 -2      1380      1630      1632      1691
 -1      1397    3    0    1
 -2       723       734      1044      1287
 -1      1398    3    0    1
 -2      1580       807      1820      1948
 -1      1399    3    0    1
 -2       385       106      2485      2727
 -1      1400    3    0    1
 -2       237       782       771      1303
 -1      1401    3    0    1
 -2       149      1251      1250       652
 -1      1402    3    0    1
 -2       157       652       657      1259
 -1      1403    3    0    1
 -2      1161       463      1883      2098
 -1      1404    3    0    1
 -2       557       559       952      1209
 -1      1405    3    0    1
 -2       797       264       800      1079
 -1      1406    3    0    1
 -2        85       557       559       952
 -1      1407    3    0    1
 -2       505        39       926      1187
 -1      1408    3    0    1
 -2      1672       754      1897      1898
 -1      1409    3    0    1
 -2       338       977      2403      2684
 -1      1410    3    0    1
 -2       248       246      1071      1706
 -1      1411    3    0    1
 -2      1637      1736      1790      2359
 -1      1412    3    0    1
 -2       670      1015      1008       669
 -1      1413    3    0    1
 -2       926       514      2715      2813
 -1      1414    3    0    1
 -2       147      1254       653       152
 -1      1415    3    0    1
 -2      1854      1522      1900      2005
 -1      1416    3    0    1
 -2      2286      1555      2587      2628
 -1      1417    3    0    1
 -2      1430      1475      1503      3019
 -1      1418    3    0    1
 -2       147       653       656       995
 -1      1419    3    0    1
 -2      1866      1669      2124      2538
 -1      1420    3    0    1
 -2       674       323       673      1014
 -1      1421    3    0    1
 -2      1598      1981      2308      2391
 -1      1422    3    0    1
 -2      3047      2451      1479      3093
 -1      1423    3    0    1
 -2      1080      1321      1675      2398
 -1      1424    3    0    1
 -2      1161       463      2918      2987
 -1      1425    3    0    1
 -2       993       652      1004      1255
 -1      1426    3    0    1
 -2      1001       658      2488      2517
 -1      1427    3    0    1
 -2      2018      1648      2104      2251
 -1      1428    3    0    1
 -2       152       660       159      1254
 -1      1429    3    0    1
 -2       155       339      3038      2922
 -1      1430    3    0    1
 -2      2276      2094      2427      2428
 -1      1431    3    0    1
 -2       348       107       966      2482
 -1      1432    3    0    1
 -2       657       661       993      1003
 -1      1433    3    0    1
 -2      1465      3051      3071      3087
 -1      1434    3    0    1
 -2       126       125       972      1716
 -1      1435    3    0    1
 -2      1712      1653      1830      2289
 -1      1436    3    0    1
 -2       676       166       681      1264
 -1      1437    3    0    1
 -2      1799      1067      2190      2283
 -1      1438    3    0    1
 -2       324       446      1691      2153
 -1      1439    3    0    1
 -2      2158      1860      2385      2393
 -1      1440    3    0    1
 -2       650      1001       320       649
 -1      1441    3    0    1
 -2       701       353       704      1028
 -1      1442    3    0    1
 -2       483      1174      1561      1727
 -1      1443    3    0    1
 -2       652       157       657      1003
 -1      1444    3    0    1
 -2       699       190      1031      1032
 -1      1445    3    0    1
 -2       670      1015       669       687
 -1      1446    3    0    1
 -2      1015      1008       669      1018
 -1      1447    3    0    1
 -2       672      1270      1266       671
 -1      1448    3    0    1
 -2       629       632       989      1241
 -1      1449    3    0    1
 -2       670      1009      1017      1263
 -1      1450    3    0    1
 -2       179       701       704      1021
 -1      1451    3    0    1
 -2       710       184       194      1273
 -1      1452    3    0    1
 -2       344      1479      1495      1514
 -1      1453    3    0    1
 -2       726       751      1289      1583
 -1      1454    3    0    1
 -2       676       174       681      1016
 -1      1455    3    0    1
 -2      1647      1055      2143      2341
 -1      1456    3    0    1
 -2       333       723       729      1291
 -1      1457    3    0    1
 -2      1291       333      1535      2184
 -1      1458    3    0    1
 -2       684       171       356      1018
 -1      1459    3    0    1
 -2      1052      1704      1795      2022
 -1      1460    3    0    1
 -2      1843      1564      2126      2178
 -1      1461    3    0    1
 -2      2114      1793      2135      2369
 -1      1462    3    0    1
 -2      1359      1689      1708      1925
 -1      1463    3    0    1
 -2      2155       584      2326      2364
 -1      1464    3    0    1
 -2      1009       676      1017      1263
 -1      1465    3    0    1
 -2       163       165       680      1008
 -1      1466    3    0    1
 -2      1695      1631      1817      1849
 -1      1467    3    0    1
 -2      2850      2851      2902      3035
 -1      1468    3    0    1
 -2       157       318       652       998
 -1      1469    3    0    1
 -2      1052       409      1733      1795
 -1      1470    3    0    1
 -2      1007      1268       677      1013
 -1      1471    3    0    1
 -2       687       669       688      1015
 -1      1472    3    0    1
 -2      1962      1835      1996      2118
 -1      1473    3    0    1
 -2      1810      1386       293      1831
 -1      1474    3    0    1
 -2       343       357       653      1005
 -1      1475    3    0    1
 -2       169       674       673      1010
 -1      1476    3    0    1
 -2       632       635       989      1241
 -1      1477    3    0    1
 -2       700       695       706      1029
 -1      1478    3    0    1
 -2       166       676       681      1009
 -1      1479    3    0    1
 -2      1443      3040      3059      3066
 -1      1480    3    0    1
 -2       669       670       687      1017
 -1      1481    3    0    1
 -2      1817      1581      1838      2051
 -1      1482    3    0    1
 -2       676       681      1009      1016
 -1      1483    3    0    1
 -2      1856      1593      1891      1967
 -1      1484    3    0    1
 -2       353       193       701      1033
 -1      1485    3    0    1
 -2       627      1245      2431      2702
 -1      1486    3    0    1
 -2       696      1279      1276       695
 -1      1487    3    0    1
 -2      1211       961      2226      2514
 -1      1488    3    0    1
 -2      1334      2035      2911      2953
 -1      1489    3    0    1
 -2      2645      2769      2786      2787
 -1      1490    3    0    1
 -2       707       704      1022      1030
 -1      1491    3    0    1
 -2       697       698      1025      1275
 -1      1492    3    0    1
 -2      1024       697      1025      1275
 -1      1493    3    0    1
 -2       692      1028       691      1021
 -1      1494    3    0    1
 -2       181       192       701      1272
 -1      1495    3    0    1
 -2      3054       359      1474      2957
 -1      1496    3    0    1
 -2      3053      3054      1474      2957
 -1      1497    3    0    1
 -2      1686      1548      1891      1967
 -1      1498    3    0    1
 -2      1995      1697      2142      2167
 -1      1499    3    0    1
 -2       190       699       705      1279
 -1      1500    3    0    1
 -2       119       605       976       979
 -1      1501    3    0    1
 -2       669       688      1015      1018
 -1      1502    3    0    1
 -2       175       171       680      1015
 -1      1503    3    0    1
 -2       697      1024      1025      1029
 -1      1504    3    0    1
 -2       200       209       725      1281
 -1      1505    3    0    1
 -2      2202      1719      2286      2370
 -1      1506    3    0    1
 -2       701       704      1021      1028
 -1      1507    3    0    1
 -2      1883      1091      1439      2953
 -1      1508    3    0    1
 -2      1819       310      1988      2542
 -1      1509    3    0    1
 -2       209       200       725      1037
 -1      1510    3    0    1
 -2       694      1031       693      1023
 -1      1511    3    0    1
 -2      1990      1530      2135      2252
 -1      1512    3    0    1
 -2       694      1030      1022       693
 -1      1513    3    0    1
 -2      1594      1524      1705      2231
 -1      1514    3    0    1
 -2      1078       798      1323      1538
 -1      1515    3    0    1
 -2       355       353       704      1030
 -1      1516    3    0    1
 -2       715      1043       735       736
 -1      1517    3    0    1
 -2       695      1024      1025      1275
 -1      1518    3    0    1
 -2      1137       444      1378      1774
 -1      1519    3    0    1
 -2      1992      1760      2192      2336
 -1      1520    3    0    1
 -2       616      2442      2754      2823
 -1      1521    3    0    1
 -2      2222      2296      2539      2599
 -1      1522    3    0    1
 -2       704       701      1022      1030
 -1      1523    3    0    1
 -2      1666      1686      1701      1703
 -1      1524    3    0    1
 -2       182       699       705      1023
 -1      1525    3    0    1
 -2        34       912      2388      2522
 -1      1526    3    0    1
 -2       189       186       697      1024
 -1      1527    3    0    1
 -2      1467      1443      1480      2958
 -1      1528    3    0    1
 -2      1547      1673      1709      2211
 -1      1529    3    0    1
 -2       717      1040       727       716
 -1      1530    3    0    1
 -2      1043       720      1034      1044
 -1      1531    3    0    1
 -2       218       747      1046      1298
 -1      1532    3    0    1
 -2       699       705      1023      1031
 -1      1533    3    0    1
 -2       699       190       705      1031
 -1      1534    3    0    1
 -2       693       711       712      1032
 -1      1535    3    0    1
 -2      1226      2094      2727      2807
 -1      1536    3    0    1
 -2       389       975      1541      2079
 -1      1537    3    0    1
 -2      2070      1278      2080      2891
 -1      1538    3    0    1
 -2      1873      1542      2190      2283
 -1      1539    3    0    1
 -2      1406       442      1616      1619
 -1      1540    3    0    1
 -2      2049      2384      2401      2574
 -1      1541    3    0    1
 -2       403      1610      2056      2269
 -1      1542    3    0    1
 -2       725       732      1037      1045
 -1      1543    3    0    1
 -2      1030      1022       693      1033
 -1      1544    3    0    1
 -2      3054      3053      1476      2957
 -1      1545    3    0    1
 -2       718       724       730      1038
 -1      1546    3    0    1
 -2       721       201       722      1285
 -1      1547    3    0    1
 -2      1002       343      1005      1714
 -1      1548    3    0    1
 -2       923      2526      2780      2822
 -1      1549    3    0    1
 -2      2306      1004      2627      2774
 -1      1550    3    0    1
 -2      1530      1618      2135      2252
 -1      1551    3    0    1
 -2       741      1054       740      1048
 -1      1552    3    0    1
 -2       223       363       749      1058
 -1      1553    3    0    1
 -2       400      2347      2711      2735
 -1      1554    3    0    1
 -2       723       198       729      1286
 -1      1555    3    0    1
 -2       729       733      1034      1043
 -1      1556    3    0    1
 -2      1537      1698      1794      2270
 -1      1557    3    0    1
 -2       743      1301      1296       742
 -1      1558    3    0    1
 -2       718       719       730      1041
 -1      1559    3    0    1
 -2       417      1747      1784      2297
 -1      1560    3    0    1
 -2      1635      1585      1997      2166
 -1      1561    3    0    1
 -2      1636       268      1718      1800
 -1      1562    3    0    1
 -2      3053      2859      1476      2957
 -1      1563    3    0    1
 -2      1300      1053      1424      2975
 -1      1564    3    0    1
 -2      1225       582       584      2364
 -1      1565    3    0    1
 -2      1080       802      1785      2192
 -1      1566    3    0    1
 -2      1036      1289      1040       716
 -1      1567    3    0    1
 -2      1543      1639      1715      1785
 -1      1568    3    0    1
 -2      1600      1902      1943      2524
 -1      1569    3    0    1
 -2      2586      2060      2861      2899
 -1      1570    3    0    1
 -2      2303      1144      2339      2659
 -1      1571    3    0    1
 -2      2155      2896      3052      3081
 -1      1572    3    0    1
 -2       200       731       728      1280
 -1      1573    3    0    1
 -2       179      1272       701       192
 -1      1574    3    0    1
 -2      1045      2102      2340      2546
 -1      1575    3    0    1
 -2       621       622       992      1242
 -1      1576    3    0    1
 -2        13        17      2445      2448
 -1      1577    3    0    1
 -2      1434      3043      1463      3072
 -1      1578    3    0    1
 -2      1538      1078      2035      2847
 -1      1579    3    0    1
 -2       747      1296      1049       218
 -1      1580    3    0    1
 -2      1791       322      2550      2582
 -1      1581    3    0    1
 -2      1425      3026      1441      3044
 -1      1582    3    0    1
 -2      1065       774      1312      2164
 -1      1583    3    0    1
 -2       720      1043       736      1044
 -1      1584    3    0    1
 -2       723       333       729      1044
 -1      1585    3    0    1
 -2      1547      1537      1709      2254
 -1      1586    3    0    1
 -2       725      1042       351      1045
 -1      1587    3    0    1
 -2       215       225       753      1046
 -1      1588    3    0    1
 -2      3037      1449      1448      1414
 -1      1589    3    0    1
 -2       742      1050      1051      1295
 -1      1590    3    0    1
 -2      1978      1322       283      2255
 -1      1591    3    0    1
 -2      1842      1888      1942      1959
 -1      1592    3    0    1
 -2      1048      1299      1054       740
 -1      1593    3    0    1
 -2      2646      1259      2648      2783
 -1      1594    3    0    1
 -2       578       336       962      1223
 -1      1595    3    0    1
 -2      1804       466      1836      2195
 -1      1596    3    0    1
 -2        33       418       916      2209
 -1      1597    3    0    1
 -2       219      1295       220       746
 -1      1598    3    0    1
 -2       752       749      1292      1302
 -1      1599    3    0    1
 -2       747       753      1046      1056
 -1      1600    3    0    1
 -2       222       409       747      1052
 -1      1601    3    0    1
 -2      1550      2725      2726      2817
 -1      1602    3    0    1
 -2       770      1067      1305      1310
 -1      1603    3    0    1
 -2       472      2445      2560      2806
 -1      1604    3    0    1
 -2       749       223      1058      1302
 -1      1605    3    0    1
 -2      2959       354      2970      3092
 -1      1606    3    0    1
 -2       300      1107      2027      2117
 -1      1607    3    0    1
 -2      1584       297      1684      2659
 -1      1608    3    0    1
 -2      1092       282      1978      1980
 -1      1609    3    0    1
 -2       743      1055       754       742
 -1      1610    3    0    1
 -2       320       322      1001      1791
 -1      1611    3    0    1
 -2       219       746       745      1050
 -1      1612    3    0    1
 -2      1412      1457      1458      3073
 -1      1613    3    0    1
 -2      2381      1972      2434      2601
 -1      1614    3    0    1
 -2       777      1064      1307      1313
 -1      1615    3    0    1
 -2      1645      1670      2134      2185
 -1      1616    3    0    1
 -2       747       222       753      1056
 -1      1617    3    0    1
 -2       222       747       753      1301
 -1      1618    3    0    1
 -2      2020      1662      2797      2805
 -1      1619    3    0    1
 -2      1443      2930      1480      2958
 -1      1620    3    0    1
 -2       813      1094      1095      1327
 -1      1621    3    0    1
 -2       580       956       957       965
 -1      1622    3    0    1
 -2      1580       807      1749      1820
 -1      1623    3    0    1
 -2      1358      1355      2145      2273
 -1      1624    3    0    1
 -2       237       233       771      1304
 -1      1625    3    0    1
 -2      1572      1911      1992      2325
 -1      1626    3    0    1
 -2      1312      2723      2857      3077
 -1      1627    3    0    1
 -2      1873      1668      1919      2109
 -1      1628    3    0    1
 -2       777       781      1063      1069
 -1      1629    3    0    1
 -2       771       233       777      1304
 -1      1630    3    0    1
 -2      1486      3060      1498      3086
 -1      1631    3    0    1
 -2      2161      3033      1444      2922
 -1      1632    3    0    1
 -2       776       239       773      1061
 -1      1633    3    0    1
 -2      1920      1572      2325      2434
 -1      1634    3    0    1
 -2       242       232       769      1306
 -1      1635    3    0    1
 -2      1090       819       826      2026
 -1      1636    3    0    1
 -2       747       222      1056      1057
 -1      1637    3    0    1
 -2       768      1063      1070      1303
 -1      1638    3    0    1
 -2       759       739       760      1058
 -1      1639    3    0    1
 -2       239       780       247      1059
 -1      1640    3    0    1
 -2      3027      2613      1459      3077
 -1      1641    3    0    1
 -2       248       246       773      1071
 -1      1642    3    0    1
 -2       291      1631      1849      1878
 -1      1643    3    0    1
 -2      1437      1447      1497      3007
 -1      1644    3    0    1
 -2      1575      1573      2487      2556
 -1      1645    3    0    1
 -2       770       404      1067      1310
 -1      1646    3    0    1
 -2       102       337      2551      2828
 -1      1647    3    0    1
 -2       773       780      1059      1071
 -1      1648    3    0    1
 -2       233       781       236      1063
 -1      1649    3    0    1
 -2      1289      1583      2200      2239
 -1      1650    3    0    1
 -2      1700      1565      1958      2212
 -1      1651    3    0    1
 -2      1453      3046      1459      3077
 -1      1652    3    0    1
 -2      1310       765      1067      1305
 -1      1653    3    0    1
 -2       773       248      1066      1311
 -1      1654    3    0    1
 -2       771       777      1064      1304
 -1      1655    3    0    1
 -2      1311      1061       773      1308
 -1      1656    3    0    1
 -2       233       237       771      1063
 -1      1657    3    0    1
 -2      1539      1601      2191      2426
 -1      1658    3    0    1
 -2       771       782      1070      1303
 -1      1659    3    0    1
 -2      2855      2553      2887      2897
 -1      1660    3    0    1
 -2       363       228      1058      2008
 -1      1661    3    0    1
 -2      1758       323      2440      2696
 -1      1662    3    0    1
 -2       540        63       533       931
 -1      1663    3    0    1
 -2      1062       239       776       234
 -1      1664    3    0    1
 -2      1795       748      1841      2521
 -1      1665    3    0    1
 -2      2029      1689      2123      2182
 -1      1666    3    0    1
 -2       535       369       943      1201
 -1      1667    3    0    1
 -2       789      1083       808       807
 -1      1668    3    0    1
 -2       428      3050      1486      3086
 -1      1669    3    0    1
 -2      1061      1311       773      1066
 -1      1670    3    0    1
 -2       566        71        90      1202
 -1      1671    3    0    1
 -2      1486      2708      3084      3086
 -1      1672    3    0    1
 -2       142      2115      2593      2691
 -1      1673    3    0    1
 -2      1073      1322      1079       787
 -1      1674    3    0    1
 -2      3060      1438      1498      3086
 -1      1675    3    0    1
 -2      1990      1901      2252      2610
 -1      1676    3    0    1
 -2       185      2238      2337      2382
 -1      1677    3    0    1
 -2       779       776      1062      1068
 -1      1678    3    0    1
 -2       799       774      1323      2248
 -1      1679    3    0    1
 -2      1718       268      1978      2255
 -1      1680    3    0    1
 -2      1542       778      1873      2190
 -1      1681    3    0    1
 -2       941       523       935       942
 -1      1682    3    0    1
 -2       238       771       777      1064
 -1      1683    3    0    1
 -2       788      1079       799       787
 -1      1684    3    0    1
 -2        56       532       537      1191
 -1      1685    3    0    1
 -2      2227      1650      2395      2669
 -1      1686    3    0    1
 -2       461      1156       464      1163
 -1      1687    3    0    1
 -2       509        43       925      1188
 -1      1688    3    0    1
 -2       763       768       783      1070
 -1      1689    3    0    1
 -2      1663      1680      2108      2818
 -1      1690    3    0    1
 -2      1804      1599      1934      1996
 -1      1691    3    0    1
 -2      1056       759      1057      1745
 -1      1692    3    0    1
 -2       408      1622      1765      1985
 -1      1693    3    0    1
 -2       793       259      1080      1321
 -1      1694    3    0    1
 -2       797      1318       252       800
 -1      1695    3    0    1
 -2       654       679      2083      2661
 -1      1696    3    0    1
 -2       739      1297       744      1058
 -1      1697    3    0    1
 -2      1068       773      1059      1071
 -1      1698    3    0    1
 -2      1667      1554      1792      2249
 -1      1699    3    0    1
 -2      2139      1602      2254      2256
 -1      1700    3    0    1
 -2      1447      1492      2981      3009
 -1      1701    3    0    1
 -2        67       533       535       943
 -1      1702    3    0    1
 -2       839      1349      1346      1903
 -1      1703    3    0    1
 -2       796      1320       256       801
 -1      1704    3    0    1
 -2       964       591       965      2176
 -1      1705    3    0    1
 -2       797       264      1079      1322
 -1      1706    3    0    1
 -2      2213      1621      2580      2767
 -1      1707    3    0    1
 -2       818       276       817      1330
 -1      1708    3    0    1
 -2      1402      1107      2117      2407
 -1      1709    3    0    1
 -2      1245       627      2431      2664
 -1      1710    3    0    1
 -2       797       800      1073      1079
 -1      1711    3    0    1
 -2       797      1318      1074       252
 -1      1712    3    0    1
 -2      1437      1439      1447      3009
 -1      1713    3    0    1
 -2      3051      2897      1496      2982
 -1      1714    3    0    1
 -2       258       793       794      1076
 -1      1715    3    0    1
 -2       792      1080       802       791
 -1      1716    3    0    1
 -2       796      1320       801      1324
 -1      1717    3    0    1
 -2      2431      2464      2474      2570
 -1      1718    3    0    1
 -2        56       537       935      1191
 -1      1719    3    0    1
 -2      1530      1618      2114      2135
 -1      1720    3    0    1
 -2      1881      1188      2497      2671
 -1      1721    3    0    1
 -2       294       295      1366      1670
 -1      1722    3    0    1
 -2       789       790       807      1081
 -1      1723    3    0    1
 -2       623       624       630      2972
 -1      1724    3    0    1
 -2      1637      1736      1984      2055
 -1      1725    3    0    1
 -2       567       952      2470      2554
 -1      1726    3    0    1
 -2      1132       874      2136      2234
 -1      1727    3    0    1
 -2       820       285       825      1095
 -1      1728    3    0    1
 -2       796      1320      1075       256
 -1      1729    3    0    1
 -2       274       821       824      1084
 -1      1730    3    0    1
 -2      1648       334      1970      2018
 -1      1731    3    0    1
 -2      1776      1277      1940      2598
 -1      1732    3    0    1
 -2       279       830       820      1327
 -1      1733    3    0    1
 -2      1721      1568      1822      1855
 -1      1734    3    0    1
 -2       789       807       808      1082
 -1      1735    3    0    1
 -2      1427      2358      3061      3091
 -1      1736    3    0    1
 -2      1176       913       486      1837
 -1      1737    3    0    1
 -2      2294      2257      2839      2840
 -1      1738    3    0    1
 -2      2903      2676      3061      3091
 -1      1739    3    0    1
 -2       812      1092       823       811
 -1      1740    3    0    1
 -2      1835      1626      1882      1929
 -1      1741    3    0    1
 -2      3042      3035      1450      2917
 -1      1742    3    0    1
 -2      1655       843      1856      2000
 -1      1743    3    0    1
 -2      1357       845      1356      1834
 -1      1744    3    0    1
 -2      1411      1027      1421      3058
 -1      1745    3    0    1
 -2        75      2530      2532      2541
 -1      1746    3    0    1
 -2      1599      1626      1835      1996
 -1      1747    3    0    1
 -2      1352      1353      1655      1781
 -1      1748    3    0    1
 -2      1961       331      2144      2245
 -1      1749    3    0    1
 -2      1595      1574      1653      1830
 -1      1750    3    0    1
 -2       373       282       821      1333
 -1      1751    3    0    1
 -2      1630      1552      1632      1691
 -1      1752    3    0    1
 -2      1567      1594      1705      1720
 -1      1753    3    0    1
 -2      2577      1651      2629      2747
 -1      1754    3    0    1
 -2       870      1138      1380      1632
 -1      1755    3    0    1
 -2       457       458       902       906
 -1      1756    3    0    1
 -2      1067      1799      1811      2283
 -1      1757    3    0    1
 -2      1031       711      2048      2513
 -1      1758    3    0    1
 -2      1527      1659      1867      1962
 -1      1759    3    0    1
 -2      2358      2903      3061      3091
 -1      1760    3    0    1
 -2      1817      1581      2051      2091
 -1      1761    3    0    1
 -2      1084       824      1086      1092
 -1      1762    3    0    1
 -2      1801      1710      1963      2552
 -1      1763    3    0    1
 -2       824       281      1084      1086
 -1      1764    3    0    1
 -2      1757      2150      2304      2500
 -1      1765    3    0    1
 -2      2105       315      2732      2820
 -1      1766    3    0    1
 -2      2132      2474      2724      2759
 -1      1767    3    0    1
 -2       792      1324      1320       791
 -1      1768    3    0    1
 -2       813       814       831      1094
 -1      1769    3    0    1
 -2      1540       205      1993      2023
 -1      1770    3    0    1
 -2      1548      1585      1635      2131
 -1      1771    3    0    1
 -2       797       804      1074      1083
 -1      1772    3    0    1
 -2      1094       825      1327      1328
 -1      1773    3    0    1
 -2      1199       536      1881      2380
 -1      1774    3    0    1
 -2      1332      1089       818      1330
 -1      1775    3    0    1
 -2      1542      1753      2505      2675
 -1      1776    3    0    1
 -2      1854      1522      2005      2141
 -1      1777    3    0    1
 -2      1544      1773      2011      2212
 -1      1778    3    0    1
 -2      1640      1528      1759      1947
 -1      1779    3    0    1
 -2       816      1090      1088       815
 -1      1780    3    0    1
 -2      1904       855      1937      1969
 -1      1781    3    0    1
 -2      1850      2688      2791      2832
 -1      1782    3    0    1
 -2       288       285       820      1095
 -1      1783    3    0    1
 -2       825       285      1094      1095
 -1      1784    3    0    1
 -2      1396      1769      2171      2180
 -1      1785    3    0    1
 -2       853       890      1146      1971
 -1      1786    3    0    1
 -2      1611      1593      1856      2000
 -1      1787    3    0    1
 -2      1041       730      1816      2392
 -1      1788    3    0    1
 -2       517       513       928      1183
 -1      1789    3    0    1
 -2       815      1332      1093       819
 -1      1790    3    0    1
 -2      1717      1594      1966      2023
 -1      1791    3    0    1
 -2      1719      1555      2202      2286
 -1      1792    3    0    1
 -2      1561      1174      2025      2225
 -1      1793    3    0    1
 -2      1372       410       447      2331
 -1      1794    3    0    1
 -2       484        35       916       917
 -1      1795    3    0    1
 -2      1729       331      1949      2377
 -1      1796    3    0    1
 -2       195       416      1032      2112
 -1      1797    3    0    1
 -2       604       609       967       977
 -1      1798    3    0    1
 -2      1425      1422      1444      2932
 -1      1799    3    0    1
 -2      1644      1574      1687      1767
 -1      1800    3    0    1
 -2      2875      2451      2901      3047
 -1      1801    3    0    1
 -2      1742      2178      2555      2576
 -1      1802    3    0    1
 -2       501       519       520       929
 -1      1803    3    0    1
 -2      2203      1417      3031      3077
 -1      1804    3    0    1
 -2      1604      1568      1644      1767
 -1      1805    3    0    1
 -2       907       460      1154      1155
 -1      1806    3    0    1
 -2       658       651      1001      2235
 -1      1807    3    0    1
 -2        57        56       532      1193
 -1      1808    3    0    1
 -2      1753       249      1956      2505
 -1      1809    3    0    1
 -2      1555      2349      2370      2610
 -1      1810    3    0    1
 -2       584       582      2247      2364
 -1      1811    3    0    1
 -2       367      1497      1498      3084
 -1      1812    3    0    1
 -2       471       453       907       908
 -1      1813    3    0    1
 -2      1567      1594      1720      1966
 -1      1814    3    0    1
 -2      1642      1681      1853      2163
 -1      1815    3    0    1
 -2      2060      2257      2586      2861
 -1      1816    3    0    1
 -2      1580       784      1820      2103
 -1      1817    3    0    1
 -2       489        33       912      1177
 -1      1818    3    0    1
 -2       794       259       263      1080
 -1      1819    3    0    1
 -2      1444      1422      1446      2932
 -1      1820    3    0    1
 -2      1813      1711      1829      2075
 -1      1821    3    0    1
 -2       824       282      1096      1336
 -1      1822    3    0    1
 -2      3048      2852      1475      3063
 -1      1823    3    0    1
 -2      2155       949      1416      3068
 -1      1824    3    0    1
 -2       583       958        94      1214
 -1      1825    3    0    1
 -2       125      1716      2589      2677
 -1      1826    3    0    1
 -2      1056      1826      1868      2660
 -1      1827    3    0    1
 -2      1567      1524      2246      2297
 -1      1828    3    0    1
 -2       953       567       547       954
 -1      1829    3    0    1
 -2      1551      1763      2150      2187
 -1      1830    3    0    1
 -2       691      1277      1028       702
 -1      1831    3    0    1
 -2      1576      1693      1757      1762
 -1      1832    3    0    1
 -2      1247       986      1435      3017
 -1      1833    3    0    1
 -2      1569      1724      1946      2198
 -1      1834    3    0    1
 -2       499      1181       500       923
 -1      1835    3    0    1
 -2       102       385       585       964
 -1      1836    3    0    1
 -2       533        58       535       931
 -1      1837    3    0    1
 -2      1857      1976      2006      2322
 -1      1838    3    0    1
 -2      1550      1587      1677      1871
 -1      1839    3    0    1
 -2      1683      2662      2860      2862
 -1      1840    3    0    1
 -2      1207       946      2934      2968
 -1      1841    3    0    1
 -2      1552      1630      2006      2142
 -1      1842    3    0    1
 -2       556        80       948      1213
 -1      1843    3    0    1
 -2       498        45      2944      2966
 -1      1844    3    0    1
 -2      1523      1764      1771      2007
 -1      1845    3    0    1
 -2      1001      2517      2582      2741
 -1      1846    3    0    1
 -2      1424      1450      1473      2975
 -1      1847    3    0    1
 -2      1860      1918      2385      2393
 -1      1848    3    0    1
 -2       421      1496      2982      3087
 -1      1849    3    0    1
 -2      1647       415      1764      1798
 -1      1850    3    0    1
 -2      1362      1689      1690      2182
 -1      1851    3    0    1
 -2      2159      2600      2621      2626
 -1      1852    3    0    1
 -2      1267       682       675      2236
 -1      1853    3    0    1
 -2      1575      1761      1959      2107
 -1      1854    3    0    1
 -2       460         4      1154      1155
 -1      1855    3    0    1
 -2       848      1362      1690      2182
 -1      1856    3    0    1
 -2      1578      1582      1734      1787
 -1      1857    3    0    1
 -2        27       485       488       910
 -1      1858    3    0    1
 -2      1380       870      1632      1688
 -1      1859    3    0    1
 -2       808       807      1749      2368
 -1      1860    3    0    1
 -2      1901      1990      2370      2610
 -1      1861    3    0    1
 -2       185       331      1029      1729
 -1      1862    3    0    1
 -2       751       750      1054      2389
 -1      1863    3    0    1
 -2       500      1187       499       507
 -1      1864    3    0    1
 -2      1544      1773      1833      2011
 -1      1865    3    0    1
 -2      1705      1596      1721      1939
 -1      1866    3    0    1
 -2       747       222      1052      1301
 -1      1867    3    0    1
 -2        72      1206        74       554
 -1      1868    3    0    1
 -2      1612      1673      1688      2211
 -1      1869    3    0    1
 -2      1551      2304      2376      2418
 -1      1870    3    0    1
 -2       237       771      1063      1303
 -1      1871    3    0    1
 -2       259       263      1080      1675
 -1      1872    3    0    1
 -2       992       640      2728      2729
 -1      1873    3    0    1
 -2      1384      1370      1809      1927
 -1      1874    3    0    1
 -2      1074       797      1083      1325
 -1      1875    3    0    1
 -2      1569      2121      2264      2617
 -1      1876    3    0    1
 -2      1548      1655      1781      1891
 -1      1877    3    0    1
 -2       773       776      1061      1066
 -1      1878    3    0    1
 -2       682      1270      2148      2439
 -1      1879    3    0    1
 -2      1078      1323      1418      3086
 -1      1880    3    0    1
 -2      1585      1635      2131      2166
 -1      1881    3    0    1
 -2       788      1079       787      1073
 -1      1882    3    0    1
 -2       300      1369      1790      2027
 -1      1883    3    0    1
 -2       414       333       723      1044
 -1      1884    3    0    1
 -2       416       190       699      1032
 -1      1885    3    0    1
 -2       971      2193      2302      2569
 -1      1886    3    0    1
 -2      1999      1652      2279      2382
 -1      1887    3    0    1
 -2       796      1317       256      1316
 -1      1888    3    0    1
 -2       785      1501      3004      3005
 -1      1889    3    0    1
 -2      1102      1354      1665      2000
 -1      1890    3    0    1
 -2       403       285      2014      2056
 -1      1891    3    0    1
 -2       317      2120      2170      2262
 -1      1892    3    0    1
 -2      1576      1751      1766      1769
 -1      1893    3    0    1
 -2      1317       796      1081      1316
 -1      1894    3    0    1
 -2      1613      1634      1682      1825
 -1      1895    3    0    1
 -2       658      1001      2488      2550
 -1      1896    3    0    1
 -2      1063       771      1070      1303
 -1      1897    3    0    1
 -2       215       753       757      1046
 -1      1898    3    0    1
 -2      1527      2028      2110      2317
 -1      1899    3    0    1
 -2       435      1376      1140      2401
 -1      1900    3    0    1
 -2       389      1797      2130      2233
 -1      1901    3    0    1
 -2       363       223      1908      2008
 -1      1902    3    0    1
 -2      2357       323      2450      2698
 -1      1903    3    0    1
 -2      1301      1646      1795      1841
 -1      1904    3    0    1
 -2       739      1302      1292      1058
 -1      1905    3    0    1
 -2      1384       379      1809      1892
 -1      1906    3    0    1
 -2      1920      1543      2230      2325
 -1      1907    3    0    1
 -2      1128       321      1394      1673
 -1      1908    3    0    1
 -2       748       754      1841      2521
 -1      1909    3    0    1
 -2      1942      2360      2410      2601
 -1      1910    3    0    1
 -2      1589      2159      2622      2626
 -1      1911    3    0    1
 -2       914       487      1175      2804
 -1      1912    3    0    1
 -2       717      1040       716      1036
 -1      1913    3    0    1
 -2       198       733       213      1034
 -1      1914    3    0    1
 -2      1979       823      2035      2255
 -1      1915    3    0    1
 -2       720      1043      1034       715
 -1      1916    3    0    1
 -2       867      1390      1124      1994
 -1      1917    3    0    1
 -2      1999      1522      2082      2279
 -1      1918    3    0    1
 -2      1067      1873      2190      2283
 -1      1919    3    0    1
 -2      1526      1870      2151      2324
 -1      1920    3    0    1
 -2       245       243      1894      2106
 -1      1921    3    0    1
 -2       379      1809      1892      1927
 -1      1922    3    0    1
 -2      1697      1638      2142      2167
 -1      1923    3    0    1
 -2      2176       385      2727      2828
 -1      1924    3    0    1
 -2       650       997      1249      1252
 -1      1925    3    0    1
 -2       627       619       634       988
 -1      1926    3    0    1
 -2       536       534       939      2282
 -1      1927    3    0    1
 -2       681      1011      1264      1266
 -1      1928    3    0    1
 -2      1141       861       885      2762
 -1      1929    3    0    1
 -2      1596      1721      1862      1909
 -1      1930    3    0    1
 -2      2097      1960      2712      2765
 -1      1931    3    0    1
 -2      2016      2715      2798      2813
 -1      1932    3    0    1
 -2      1915      1724      2017      2198
 -1      1933    3    0    1
 -2       677       163       680      1008
 -1      1934    3    0    1
 -2      1387      1368      2286      2587
 -1      1935    3    0    1
 -2      1571      1761      1888      2491
 -1      1936    3    0    1
 -2       677       163      1008      1262
 -1      1937    3    0    1
 -2      1634      1682      1825      2149
 -1      1938    3    0    1
 -2       444      1392      1123      1774
 -1      1939    3    0    1
 -2      1576      1693      1702      1751
 -1      1940    3    0    1
 -2      1534      1931      2004      2064
 -1      1941    3    0    1
 -2      2769      2645      2778      2787
 -1      1942    3    0    1
 -2      1708      1536      1998      2221
 -1      1943    3    0    1
 -2       306       388      1102      1665
 -1      1944    3    0    1
 -2       438       399      2149      2562
 -1      1945    3    0    1
 -2      1550      1587      2300      2475
 -1      1946    3    0    1
 -2        53       426       927      2831
 -1      1947    3    0    1
 -2      1723      1955      1986      2307
 -1      1948    3    0    1
 -2      1439      1490      3089      3090
 -1      1949    3    0    1
 -2      3029      1445      1422      1421
 -1      1950    3    0    1
 -2       452       905       463       451
 -1      1951    3    0    1
 -2       700       706      2137      2355
 -1      1952    3    0    1
 -2       452       905       451       899
 -1      1953    3    0    1
 -2       481        25       915      1174
 -1      1954    3    0    1
 -2         6       899       464        15
 -1      1955    3    0    1
 -2       460       470       908      1154
 -1      1956    3    0    1
 -2       907       460       908      1154
 -1      1957    3    0    1
 -2        15         8       464      1156
 -1      1958    3    0    1
 -2         4        10       460      1154
 -1      1959    3    0    1
 -2       453       909       472       471
 -1      1960    3    0    1
 -2         6      1156        15       464
 -1      1961    3    0    1
 -2       482       481       915      1164
 -1      1962    3    0    1
 -2         5       461       468       900
 -1      1963    3    0    1
 -2         5         6       461       900
 -1      1964    3    0    1
 -2       458         9       457       902
 -1      1965    3    0    1
 -2         4       460       901      1158
 -1      1966    3    0    1
 -2       663       664      1004      2443
 -1      1967    3    0    1
 -2       191       355      1848      1940
 -1      1968    3    0    1
 -2       453       909       471      1163
 -1      1969    3    0    1
 -2       475      1177       483       490
 -1      1970    3    0    1
 -2        16        14       464      1163
 -1      1971    3    0    1
 -2      1456       352      1457      3055
 -1      1972    3    0    1
 -2      1725      1542      1873      2283
 -1      1973    3    0    1
 -2        14        16       464       905
 -1      1974    3    0    1
 -2      1968      1258      1436      2912
 -1      1975    3    0    1
 -2       487       479       486      2939
 -1      1976    3    0    1
 -2       462       451       463       905
 -1      1977    3    0    1
 -2       461       899       897       905
 -1      1978    3    0    1
 -2       463       905      1333      2078
 -1      1979    3    0    1
 -2       240       235      2950      2955
 -1      1980    3    0    1
 -2      1447       376      3090      3096
 -1      1981    3    0    1
 -2       451      1160       905       462
 -1      1982    3    0    1
 -2       899       451       897       905
 -1      1983    3    0    1
 -2       451      1160       897       905
 -1      1984    3    0    1
 -2       460        13       465       907
 -1      1985    3    0    1
 -2       469        17       400       907
 -1      1986    3    0    1
 -2        17       469       465       907
 -1      1987    3    0    1
 -2       454      1163       453       471
 -1      1988    3    0    1
 -2       468        14       419       909
 -1      1989    3    0    1
 -2        14       468       461       909
 -1      1990    3    0    1
 -2       481       915      1164      1167
 -1      1991    3    0    1
 -2        33       484       489       912
 -1      1992    3    0    1
 -2      1768      2800      1850      2747
 -1      1993    3    0    1
 -2      1611      1102      1665      2000
 -1      1994    3    0    1
 -2       523       935       942      1191
 -1      1995    3    0    1
 -2        56        57       532      1191
 -1      1996    3    0    1
 -2        22        19       484      1166
 -1      1997    3    0    1
 -2      1900      1522      1916      2005
 -1      1998    3    0    1
 -2       393        41       513      1190
 -1      1999    3    0    1
 -2      2077      1042      2694      2802
 -1      2000    3    0    1
 -2      1530      1623      1793      1903
 -1      2001    3    0    1
 -2       682      1014      2148      2236
 -1      2002    3    0    1
 -2       992      2548      2729      2815
 -1      2003    3    0    1
 -2       482        25       390       915
 -1      2004    3    0    1
 -2        25       482       481       915
 -1      2005    3    0    1
 -2      1597      1725      1765      2109
 -1      2006    3    0    1
 -2       493       489       916      1168
 -1      2007    3    0    1
 -2      1776      1028      1886      1940
 -1      2008    3    0    1
 -2        41       393       513       928
 -1      2009    3    0    1
 -2       870      1632      1688      1779
 -1      2010    3    0    1
 -2       493        33       418       916
 -1      2011    3    0    1
 -2        33       493       489       916
 -1      2012    3    0    1
 -2       477       495       496       917
 -1      2013    3    0    1
 -2        34        35       484       917
 -1      2014    3    0    1
 -2        34       484       494       917
 -1      2015    3    0    1
 -2      1653      1823      1830      2469
 -1      2016    3    0    1
 -2       495       477       916       917
 -1      2017    3    0    1
 -2       478       918      1169      1170
 -1      2018    3    0    1
 -2       492        29       427       918
 -1      2019    3    0    1
 -2        29       492       485       918
 -1      2020    3    0    1
 -2        48        49       509       920
 -1      2021    3    0    1
 -2       546      2968      2997      3000
 -1      2022    3    0    1
 -2       507      1190       514       499
 -1      2023    3    0    1
 -2       537       532       942      1191
 -1      2024    3    0    1
 -2      1591      2280      2488      2517
 -1      2025    3    0    1
 -2       579      1223      2046      2334
 -1      2026    3    0    1
 -2       499      1181       923      1180
 -1      2027    3    0    1
 -2       499       500       507       923
 -1      2028    3    0    1
 -2      1332       396      2346      2495
 -1      2029    3    0    1
 -2      1990      1901      2370      2748
 -1      2030    3    0    1
 -2      1562      1612      1709      2478
 -1      2031    3    0    1
 -2       539       535       934      1201
 -1      2032    3    0    1
 -2       413      1594      1720      2058
 -1      2033    3    0    1
 -2       537       532      1193      1200
 -1      2034    3    0    1
 -2      2954       810      2981      3007
 -1      2035    3    0    1
 -2      1829      1843      1921      1952
 -1      2036    3    0    1
 -2      1450       361      3069      2979
 -1      2037    3    0    1
 -2      1683      2003      2161      2866
 -1      2038    3    0    1
 -2        47      1186       509       921
 -1      2039    3    0    1
 -2       506        39       391       926
 -1      2040    3    0    1
 -2        39       506       505       926
 -1      2041    3    0    1
 -2      1753      1731      1956      2205
 -1      2042    3    0    1
 -2       500      1187      1182       499
 -1      2043    3    0    1
 -2       523       943       544       543
 -1      2044    3    0    1
 -2      1051       748      1704      2521
 -1      2045    3    0    1
 -2       502       930       501       920
 -1      2046    3    0    1
 -2        53       426       511       927
 -1      2047    3    0    1
 -2        53       511       515       927
 -1      2048    3    0    1
 -2      1190      2687      2764      2780
 -1      2049    3    0    1
 -2       502       929       501       520
 -1      2050    3    0    1
 -2       393       392       513       928
 -1      2051    3    0    1
 -2       513       392       517       928
 -1      2052    3    0    1
 -2        41       518        54       929
 -1      2053    3    0    1
 -2       518        41       508       929
 -1      2054    3    0    1
 -2       519       501       928       929
 -1      2055    3    0    1
 -2        43       516       509       930
 -1      2056    3    0    1
 -2       501       519       927       930
 -1      2057    3    0    1
 -2       527      1198      1197       939
 -1      2058    3    0    1
 -2       939       527      1195      1197
 -1      2059    3    0    1
 -2      1431      2969      3094      3097
 -1      2060    3    0    1
 -2       539        58        68       934
 -1      2061    3    0    1
 -2        58       539       535       934
 -1      2062    3    0    1
 -2      1961      1949      2144      2304
 -1      2063    3    0    1
 -2       528       941       523       935
 -1      2064    3    0    1
 -2        56       541        69       935
 -1      2065    3    0    1
 -2       541        56       537       935
 -1      2066    3    0    1
 -2      1574      1595      1644      1687
 -1      2067    3    0    1
 -2      2902      3035      1450      2938
 -1      2068    3    0    1
 -2      1685      1842      1888      1942
 -1      2069    3    0    1
 -2        62        66       529       936
 -1      2070    3    0    1
 -2        62       529       530       936
 -1      2071    3    0    1
 -2       537       541       935       941
 -1      2072    3    0    1
 -2      2629      1558      2644      2779
 -1      2073    3    0    1
 -2       524       531       538       937
 -1      2074    3    0    1
 -2      1596      1568      1721      1939
 -1      2075    3    0    1
 -2       529       530       936      1194
 -1      2076    3    0    1
 -2      1431      1499      3002      3097
 -1      2077    3    0    1
 -2      1476       362      1500      1517
 -1      2078    3    0    1
 -2       534       527       526       939
 -1      2079    3    0    1
 -2       497      2966      1518      2999
 -1      2080    3    0    1
 -2      2642      1189      2781      3072
 -1      2081    3    0    1
 -2      2257      2839      2840      2861
 -1      2082    3    0    1
 -2       531       525       524       940
 -1      2083    3    0    1
 -2       525       531       936       940
 -1      2084    3    0    1
 -2       561       565       947       953
 -1      2085    3    0    1
 -2       326       308      1352      1781
 -1      2086    3    0    1
 -2      1700      1566      1825      2149
 -1      2087    3    0    1
 -2       523       543       544       941
 -1      2088    3    0    1
 -2       241      1842      1942      1973
 -1      2089    3    0    1
 -2        85       557       952       955
 -1      2090    3    0    1
 -2       541       366       424       941
 -1      2091    3    0    1
 -2       366       541       537       941
 -1      2092    3    0    1
 -2      1631      1341      1849      2745
 -1      2093    3    0    1
 -2      1322      1073       797      1314
 -1      2094    3    0    1
 -2       935       537       941       942
 -1      2095    3    0    1
 -2       380       381       532       942
 -1      2096    3    0    1
 -2       380       532       542       942
 -1      2097    3    0    1
 -2       540        67       364       943
 -1      2098    3    0    1
 -2        67       540       533       943
 -1      2099    3    0    1
 -2       528       943       523       543
 -1      2100    3    0    1
 -2        71       556       561       947
 -1      2101    3    0    1
 -2       552       953       547       947
 -1      2102    3    0    1
 -2        87       565        88       947
 -1      2103    3    0    1
 -2       565        87       561       947
 -1      2104    3    0    1
 -2       571       576       963      1214
 -1      2105    3    0    1
 -2       595      1230       971       596
 -1      2106    3    0    1
 -2       605       112       607      1231
 -1      2107    3    0    1
 -2       548       549       555       948
 -1      2108    3    0    1
 -2       555      1213       562       548
 -1      2109    3    0    1
 -2      1622      1985      2208      2215
 -1      2110    3    0    1
 -2      1378       444      1756      1774
 -1      2111    3    0    1
 -2       963       576       958      1214
 -1      2112    3    0    1
 -2       556        71      1204      1205
 -1      2113    3    0    1
 -2        80       556       561      1213
 -1      2114    3    0    1
 -2      2405      2882      3048      2935
 -1      2115    3    0    1
 -2      1837       486      2424      2425
 -1      2116    3    0    1
 -2      2068      2224      2311      2371
 -1      2117    3    0    1
 -2      1829      1813      2075      2493
 -1      2118    3    0    1
 -2        42      1464      1502      1518
 -1      2119    3    0    1
 -2        73      1208       557       945
 -1      2120    3    0    1
 -2      1712      1574      1767      1855
 -1      2121    3    0    1
 -2       549      1210       548       555
 -1      2122    3    0    1
 -2        75        79       553       951
 -1      2123    3    0    1
 -2       549      1210      1206       548
 -1      2124    3    0    1
 -2       604       123       977       978
 -1      2125    3    0    1
 -2       547      1209       952       552
 -1      2126    3    0    1
 -2       552       547       567       952
 -1      2127    3    0    1
 -2       547       955       952       944
 -1      2128    3    0    1
 -2       567       955       952       547
 -1      2129    3    0    1
 -2        81       365       559       952
 -1      2130    3    0    1
 -2        81       559       563       952
 -1      2131    3    0    1
 -2       547      1209       944       952
 -1      2132    3    0    1
 -2       565        80        86       953
 -1      2133    3    0    1
 -2        80       565       561       953
 -1      2134    3    0    1
 -2       947       556       953       954
 -1      2135    3    0    1
 -2       953       547       947       954
 -1      2136    3    0    1
 -2       382       566       384       954
 -1      2137    3    0    1
 -2       566       382       556       954
 -1      2138    3    0    1
 -2      1340       291      1341      1849
 -1      2139    3    0    1
 -2      1067      1782      2154      2190
 -1      2140    3    0    1
 -2        94       588        97       958
 -1      2141    3    0    1
 -2       588        94       581       958
 -1      2142    3    0    1
 -2       200       728      1037      1280
 -1      2143    3    0    1
 -2      1645      1628      1991      2271
 -1      2144    3    0    1
 -2      2140      1592      2260      2262
 -1      2145    3    0    1
 -2       595      1229       596       972
 -1      2146    3    0    1
 -2       361       231      3046      3069
 -1      2147    3    0    1
 -2      1767      1574      1822      1855
 -1      2148    3    0    1
 -2       604       123       972      1237
 -1      2149    3    0    1
 -2      2436      2257      2553      2872
 -1      2150    3    0    1
 -2      1739      2863      2864      2901
 -1      2151    3    0    1
 -2      1633      1603      2147      2292
 -1      2152    3    0    1
 -2      1498      1438      1501      3011
 -1      2153    3    0    1
 -2      2873      2861      1475      3097
 -1      2154    3    0    1
 -2      1475      1431      1499      3025
 -1      2155    3    0    1
 -2       577       578       962      1219
 -1      2156    3    0    1
 -2       101       578       336       962
 -1      2157    3    0    1
 -2       578       101       577       962
 -1      2158    3    0    1
 -2       581       961      1218      1224
 -1      2159    3    0    1
 -2      2994      3014      3022      3024
 -1      2160    3    0    1
 -2        14      1889      2101      2545
 -1      2161    3    0    1
 -2       114       110       609       967
 -1      2162    3    0    1
 -2       591       571       592       963
 -1      2163    3    0    1
 -2       990       622       981       991
 -1      2164    3    0    1
 -2       576       966       963       958
 -1      2165    3    0    1
 -2       571       576       592       963
 -1      2166    3    0    1
 -2       104       587       383       963
 -1      2167    3    0    1
 -2       587       104       583       963
 -1      2168    3    0    1
 -2       576       966       592       963
 -1      2169    3    0    1
 -2       334      1876      2018      2104
 -1      2170    3    0    1
 -2       385       106       585       964
 -1      2171    3    0    1
 -2       585       106       589       964
 -1      2172    3    0    1
 -2      1976      1846      2386      2696
 -1      2173    3    0    1
 -2       847      1362      1359      1690
 -1      2174    3    0    1
 -2       590       102       580       965
 -1      2175    3    0    1
 -2       956       571       957       965
 -1      2176    3    0    1
 -2       571       964       591       965
 -1      2177    3    0    1
 -2       964       571       956       965
 -1      2178    3    0    1
 -2       607       611       976      1231
 -1      2179    3    0    1
 -2       149      1255       150       652
 -1      2180    3    0    1
 -2       924      1199      1881      2380
 -1      2181    3    0    1
 -2      2453      1643      2540      2665
 -1      2182    3    0    1
 -2       596       595       603       971
 -1      2183    3    0    1
 -2       118       601       602       971
 -1      2184    3    0    1
 -2       976      1232       597       979
 -1      2185    3    0    1
 -2       153      1252       154       650
 -1      2186    3    0    1
 -2       595       596       603       972
 -1      2187    3    0    1
 -2       603      1237       610       595
 -1      2188    3    0    1
 -2       841      1350      2075      2493
 -1      2189    3    0    1
 -2       381       942      2197      2743
 -1      2190    3    0    1
 -2       980      1248       628       985
 -1      2191    3    0    1
 -2       604       110      1228      1229
 -1      2192    3    0    1
 -2       831      1336      1907      2072
 -1      2193    3    0    1
 -2      2950      1065      2992      3016
 -1      2194    3    0    1
 -2      1247      3015      3017      3018
 -1      2195    3    0    1
 -2       241      1799      1842      1959
 -1      2196    3    0    1
 -2      1422      1421      2891      3029
 -1      2197    3    0    1
 -2      1146      1708      1954      1971
 -1      2198    3    0    1
 -2       112      1234       605       969
 -1      2199    3    0    1
 -2      2115      2593      2691      2700
 -1      2200    3    0    1
 -2       603       595       610       975
 -1      2201    3    0    1
 -2       118       389       601       975
 -1      2202    3    0    1
 -2       133       139       629      1244
 -1      2203    3    0    1
 -2       620       985       627       619
 -1      2204    3    0    1
 -2      1451      1413      1496      2974
 -1      2205    3    0    1
 -2       988       620      1238      1240
 -1      2206    3    0    1
 -2       119       611       120       976
 -1      2207    3    0    1
 -2       611       119       607       976
 -1      2208    3    0    1
 -2       604       614       978      1233
 -1      2209    3    0    1
 -2       613       123       338       977
 -1      2210    3    0    1
 -2       123       613       609       977
 -1      2211    3    0    1
 -2      1602      1794      2254      2256
 -1      2212    3    0    1
 -2       597      1233       978       598
 -1      2213    3    0    1
 -2       597       615       616       978
 -1      2214    3    0    1
 -2       261       269      2378      2683
 -1      2215    3    0    1
 -2       264      1083      1325      1636
 -1      2216    3    0    1
 -2      2115      1591      2593      2766
 -1      2217    3    0    1
 -2       125       604       614       978
 -1      2218    3    0    1
 -2       125       126       604       978
 -1      2219    3    0    1
 -2      1799      1575      1959      2107
 -1      2220    3    0    1
 -2       597       977       615       978
 -1      2221    3    0    1
 -2       977       597       967       978
 -1      2222    3    0    1
 -2       597      1233       967       978
 -1      2223    3    0    1
 -2       122       612       605       979
 -1      2224    3    0    1
 -2       597       615       976       979
 -1      2225    3    0    1
 -2      1722      2189      2523      2745
 -1      2226    3    0    1
 -2      1578      1787      2206      2558
 -1      2227    3    0    1
 -2       271      1082      1945      2683
 -1      2228    3    0    1
 -2      1620      1720      1899      2058
 -1      2229    3    0    1
 -2      1810      1681      2295      2531
 -1      2230    3    0    1
 -2       619       627       634       985
 -1      2231    3    0    1
 -2      1001       650       997      1249
 -1      2232    3    0    1
 -2      1571      2244      2360      2682
 -1      2233    3    0    1
 -2      1780      2568      2626      2773
 -1      2234    3    0    1
 -2       643      1252       997       644
 -1      2235    3    0    1
 -2      1409      2915      1509      3093
 -1      2236    3    0    1
 -2       138       315       628      1248
 -1      2237    3    0    1
 -2      1493      1458      2962      2973
 -1      2238    3    0    1
 -2      1896      1661      2467      2501
 -1      2239    3    0    1
 -2       843      1102      1856      2000
 -1      2240    3    0    1
 -2      1704       748      1795      2521
 -1      2241    3    0    1
 -2      2950      2955      2989      3016
 -1      2242    3    0    1
 -2       624       987       623       630
 -1      2243    3    0    1
 -2      1426       999      1436      3065
 -1      2244    3    0    1
 -2      1085       811      2954      3008
 -1      2245    3    0    1
 -2       627       620       619       988
 -1      2246    3    0    1
 -2       620      1245       988       627
 -1      2247    3    0    1
 -2       706       700      1029      2133
 -1      2248    3    0    1
 -2       177       174       676      1016
 -1      2249    3    0    1
 -2       996       151      2927      2930
 -1      2250    3    0    1
 -2       149       652       657       993
 -1      2251    3    0    1
 -2       137       635       347       989
 -1      2252    3    0    1
 -2       635       137       632       989
 -1      2253    3    0    1
 -2       637       138       146       990
 -1      2254    3    0    1
 -2       138       637       633       990
 -1      2255    3    0    1
 -2       622       990       621       640
 -1      2256    3    0    1
 -2      2498       941      2502      2761
 -1      2257    3    0    1
 -2      1815      2427      2604      2701
 -1      2258    3    0    1
 -2       633       138       990       991
 -1      2259    3    0    1
 -2       981       633       990       991
 -1      2260    3    0    1
 -2       142       315       628       991
 -1      2261    3    0    1
 -2       142       628       638       991
 -1      2262    3    0    1
 -2       636       140       327       992
 -1      2263    3    0    1
 -2       140       636       629       992
 -1      2264    3    0    1
 -2       621       639       989       992
 -1      2265    3    0    1
 -2       305      1398      1121      1930
 -1      2266    3    0    1
 -2       643      1251       644       998
 -1      2267    3    0    1
 -2       644       643       651       997
 -1      2268    3    0    1
 -2       343       653       656      1002
 -1      2269    3    0    1
 -2       652       149       657      1250
 -1      2270    3    0    1
 -2      1002      1254       645      1005
 -1      2271    3    0    1
 -2       643       644       651       998
 -1      2272    3    0    1
 -2       998       652      1250      1251
 -1      2273    3    0    1
 -2       651      1259       658       643
 -1      2274    3    0    1
 -2      2901      2884      3047      1479
 -1      2275    3    0    1
 -2      1442       155      3038      3065
 -1      2276    3    0    1
 -2      1684       437      2303      2659
 -1      2277    3    0    1
 -2      1442       155      1443      1477
 -1      2278    3    0    1
 -2       147      1256       653       995
 -1      2279    3    0    1
 -2      1549      1676      1722      2739
 -1      2280    3    0    1
 -2       651       643       658      1001
 -1      2281    3    0    1
 -2       320       322       649      1001
 -1      2282    3    0    1
 -2      1008      1018       677      1262
 -1      2283    3    0    1
 -2       677       171       680      1013
 -1      2284    3    0    1
 -2       677      1015      1008       680
 -1      2285    3    0    1
 -2       684       677      1018      1262
 -1      2286    3    0    1
 -2       342       343       656      1002
 -1      2287    3    0    1
 -2       342       656       659      1002
 -1      2288    3    0    1
 -2      1740      1684      2028      2317
 -1      2289    3    0    1
 -2       661       157       328      1003
 -1      2290    3    0    1
 -2       157       661       657      1003
 -1      2291    3    0    1
 -2      1857      1758      1976      2667
 -1      2292    3    0    1
 -2       373      1333      1818      2129
 -1      2293    3    0    1
 -2       646       645       664      1004
 -1      2294    3    0    1
 -2       993       652      1003      1004
 -1      2295    3    0    1
 -2       149      1255       652       993
 -1      2296    3    0    1
 -2       318       662       319      1004
 -1      2297    3    0    1
 -2       662       318       652      1004
 -1      2298    3    0    1
 -2       645      1003       663      1004
 -1      2299    3    0    1
 -2      1003       645       993      1004
 -1      2300    3    0    1
 -2       645      1255       993      1004
 -1      2301    3    0    1
 -2       645       663      1002      1005
 -1      2302    3    0    1
 -2       680       164       683      1008
 -1      2303    3    0    1
 -2       165       164       680      1008
 -1      2304    3    0    1
 -2       166       685       168      1009
 -1      2305    3    0    1
 -2       685       166       681      1009
 -1      2306    3    0    1
 -2       715      1037      1042      1280
 -1      2307    3    0    1
 -2       174       676       681      1011
 -1      2308    3    0    1
 -2       643      1252      1249       997
 -1      2309    3    0    1
 -2       200       725       728      1281
 -1      2310    3    0    1
 -2       728      1037      1042       725
 -1      2311    3    0    1
 -2       170       674      1010      1265
 -1      2312    3    0    1
 -2       674       329      1014      1267
 -1      2313    3    0    1
 -2      1597      1811      2125      2283
 -1      2314    3    0    1
 -2      1677      1635      1707      2166
 -1      2315    3    0    1
 -2       184       710       699      1273
 -1      2316    3    0    1
 -2       204      1045      2077      2102
 -1      2317    3    0    1
 -2       695      1276      1026      1279
 -1      2318    3    0    1
 -2       171       175       680      1013
 -1      2319    3    0    1
 -2      1556      1892      2577      2631
 -1      2320    3    0    1
 -2      1528      1832      1947      2223
 -1      2321    3    0    1
 -2      1420      1053      1424      3057
 -1      2322    3    0    1
 -2      2870      2676      3036      3061
 -1      2323    3    0    1
 -2       681       174      1011      1270
 -1      2324    3    0    1
 -2       171       677       680      1015
 -1      2325    3    0    1
 -2       179       192       701      1019
 -1      2326    3    0    1
 -2       175       683       358      1015
 -1      2327    3    0    1
 -2       683       175       680      1015
 -1      2328    3    0    1
 -2       685       174       317      1016
 -1      2329    3    0    1
 -2       174       685       681      1016
 -1      2330    3    0    1
 -2      1595      1574      1644      1653
 -1      2331    3    0    1
 -2       177       686       330      1017
 -1      2332    3    0    1
 -2       686       177       676      1017
 -1      2333    3    0    1
 -2       670      1016       687      1017
 -1      2334    3    0    1
 -2      1016       670      1009      1017
 -1      2335    3    0    1
 -2       171       684       677      1018
 -1      2336    3    0    1
 -2       701       179       704      1022
 -1      2337    3    0    1
 -2       179      1272      1022       701
 -1      2338    3    0    1
 -2       819      1090      1783      2026
 -1      2339    3    0    1
 -2       939      1188      1881      2100
 -1      2340    3    0    1
 -2       694      1030       693       711
 -1      2341    3    0    1
 -2       707       179       180      1022
 -1      2342    3    0    1
 -2       179       707       704      1022
 -1      2343    3    0    1
 -2       182       709       183      1023
 -1      2344    3    0    1
 -2       709       182       705      1023
 -1      2345    3    0    1
 -2      1902       271      2408      2414
 -1      2346    3    0    1
 -2      1731      1057      1733      1956
 -1      2347    3    0    1
 -2      1036      1289       728      1040
 -1      2348    3    0    1
 -2      1568      1596      1721      1822
 -1      2349    3    0    1
 -2      1613      1634      1825      2019
 -1      2350    3    0    1
 -2       696      1029       695      1024
 -1      2351    3    0    1
 -2       185       697       698      1025
 -1      2352    3    0    1
 -2      1236      2061      1409      2915
 -1      2353    3    0    1
 -2       696      1279       695       706
 -1      2354    3    0    1
 -2       924       512      2781       510
 -1      2355    3    0    1
 -2       620       619       988      1238
 -1      2356    3    0    1
 -2       459      2420      2632      2757
 -1      2357    3    0    1
 -2       200       728      1036      1281
 -1      2358    3    0    1
 -2       701       353      1028      1277
 -1      2359    3    0    1
 -2      1814      1649      1897      2021
 -1      2360    3    0    1
 -2      1641      1648      1970      2018
 -1      2361    3    0    1
 -2       353       355       704      1028
 -1      2362    3    0    1
 -2       723      1038      1286      1291
 -1      2363    3    0    1
 -2       702       691       703      1028
 -1      2364    3    0    1
 -2      1019       701      1021      1028
 -1      2365    3    0    1
 -2       938      1431      2925      2969
 -1      2366    3    0    1
 -2      1451      1440      1491      3075
 -1      2367    3    0    1
 -2       986      1258      2486      2912
 -1      2368    3    0    1
 -2      1021       691      1019      1028
 -1      2369    3    0    1
 -2       691      1277      1019      1028
 -1      2370    3    0    1
 -2       695       700      1025      1029
 -1      2371    3    0    1
 -2       409       222       747      1057
 -1      2372    3    0    1
 -2       191       355       704      1030
 -1      2373    3    0    1
 -2       191       704       707      1030
 -1      2374    3    0    1
 -2      1120      1142      2468      2641
 -1      2375    3    0    1
 -2      1988      1663      2012      2237
 -1      2376    3    0    1
 -2       709       190       335      1031
 -1      2377    3    0    1
 -2       190       709       705      1031
 -1      2378    3    0    1
 -2       182      1273       699      1023
 -1      2379    3    0    1
 -2      1023       699      1031      1032
 -1      2380    3    0    1
 -2      1031       693      1023      1032
 -1      2381    3    0    1
 -2       195       699       710      1032
 -1      2382    3    0    1
 -2       195       416       699      1032
 -1      2383    3    0    1
 -2       701       193       708      1033
 -1      2384    3    0    1
 -2       733       198       729      1034
 -1      2385    3    0    1
 -2      1443      3065      2949      2958
 -1      2386    3    0    1
 -2      2930       641      1480      2958
 -1      2387    3    0    1
 -2       725       200       728      1037
 -1      2388    3    0    1
 -2      2953      1439      2856      3090
 -1      2389    3    0    1
 -2       301       398      1926      2369
 -1      2390    3    0    1
 -2      1000       343      2043      2516
 -1      2391    3    0    1
 -2       208       725       732      1037
 -1      2392    3    0    1
 -2       208       209       725      1037
 -1      2393    3    0    1
 -2       323      1758      1976      2696
 -1      2394    3    0    1
 -2      1759      1528      1832      1947
 -1      2395    3    0    1
 -2       739      1297      1058      1292
 -1      2396    3    0    1
 -2       536      1199      2282      2380
 -1      2397    3    0    1
 -2       749       216       752      1292
 -1      2398    3    0    1
 -2       719       718       730      1038
 -1      2399    3    0    1
 -2       333       414      1291      1535
 -1      2400    3    0    1
 -2       747      1296       753      1301
 -1      2401    3    0    1
 -2       411       222      1646      1863
 -1      2402    3    0    1
 -2       726       716       727      1040
 -1      2403    3    0    1
 -2      2723      1065      1417      3077
 -1      2404    3    0    1
 -2      3065      1426      2949      2958
 -1      2405    3    0    1
 -2      1447      3060      3084      3090
 -1      2406    3    0    1
 -2      1700      1565      1744      1958
 -1      2407    3    0    1
 -2       999      1426      1436      2958
 -1      2408    3    0    1
 -2       407      1069      1965      2205
 -1      2409    3    0    1
 -2       216      1297      1292       749
 -1      2410    3    0    1
 -2        85       955      2470      2731
 -1      2411    3    0    1
 -2       218       747       753      1046
 -1      2412    3    0    1
 -2       225       218       753      1046
 -1      2413    3    0    1
 -2      1063       771      1069      1070
 -1      2414    3    0    1
 -2       212       728       731      1042
 -1      2415    3    0    1
 -2       212       351       728      1042
 -1      2416    3    0    1
 -2       733       333       334      1043
 -1      2417    3    0    1
 -2       333       733       729      1043
 -1      2418    3    0    1
 -2       720      1043       715       736
 -1      2419    3    0    1
 -2      1598      1828      1880      1917
 -1      2420    3    0    1
 -2       883      1139      1872      2479
 -1      2421    3    0    1
 -2       729       333      1043      1044
 -1      2422    3    0    1
 -2      1034       729      1043      1044
 -1      2423    3    0    1
 -2       412       414       723      1044
 -1      2424    3    0    1
 -2       412       723       734      1044
 -1      2425    3    0    1
 -2      1058       228      1894      2008
 -1      2426    3    0    1
 -2       732       204       207      1045
 -1      2427    3    0    1
 -2       204       732       725      1045
 -1      2428    3    0    1
 -2       715       735      1042      1045
 -1      2429    3    0    1
 -2       870      1394       882      1779
 -1      2430    3    0    1
 -2       221       756       229      1297
 -1      2431    3    0    1
 -2       756       749      1058      1297
 -1      2432    3    0    1
 -2       755       752      1292      1302
 -1      2433    3    0    1
 -2       294      1366      1383      1670
 -1      2434    3    0    1
 -2       748      1052      1795      1841
 -1      2435    3    0    1
 -2       243       248       773      1068
 -1      2436    3    0    1
 -2      1869       883      1872      2479
 -1      2437    3    0    1
 -2       219      1295       746      1050
 -1      2438    3    0    1
 -2       753       757      1046      1056
 -1      2439    3    0    1
 -2       963       955      2484      2731
 -1      2440    3    0    1
 -2       743      1055       742      1050
 -1      2441    3    0    1
 -2      1054       227      1289      1583
 -1      2442    3    0    1
 -2       746      1055       408       745
 -1      2443    3    0    1
 -2       782       237       250      1303
 -1      2444    3    0    1
 -2      1225       960       582      2364
 -1      2445    3    0    1
 -2       958       583       963      1214
 -1      2446    3    0    1
 -2       838       837      2219      2327
 -1      2447    3    0    1
 -2       743      1301       742       754
 -1      2448    3    0    1
 -2      1528      1759      1832      1930
 -1      2449    3    0    1
 -2       973      1409      1428      3080
 -1      2450    3    0    1
 -2      1574      1712      1822      1855
 -1      2451    3    0    1
 -2      1655      1352      1781      1856
 -1      2452    3    0    1
 -2      1436      1443      1467      2958
 -1      2453    3    0    1
 -2      2034      1096      2201      2372
 -1      2454    3    0    1
 -2      1344      1343      1853      2163
 -1      2455    3    0    1
 -2       216      1293       749      1048
 -1      2456    3    0    1
 -2       742       748      1051      1055
 -1      2457    3    0    1
 -2      1055       746       408      1051
 -1      2458    3    0    1
 -2       771       238       777      1069
 -1      2459    3    0    1
 -2       757       222       411      1056
 -1      2460    3    0    1
 -2       222       757       753      1056
 -1      2461    3    0    1
 -2       747       758      1057      1298
 -1      2462    3    0    1
 -2       744       739       760      1057
 -1      2463    3    0    1
 -2      1046       747      1056      1057
 -1      2464    3    0    1
 -2       739      1298      1057       744
 -1      2465    3    0    1
 -2       739       759       760      1057
 -1      2466    3    0    1
 -2       226       747       758      1057
 -1      2467    3    0    1
 -2       226       409       747      1057
 -1      2468    3    0    1
 -2       739      1056       759      1057
 -1      2469    3    0    1
 -2      1056       739      1046      1057
 -1      2470    3    0    1
 -2       739      1298      1046      1057
 -1      2471    3    0    1
 -2       363       228       749      1058
 -1      2472    3    0    1
 -2       749       228       756      1058
 -1      2473    3    0    1
 -2       348       104      2463      2482
 -1      2474    3    0    1
 -2       779       234       244      1062
 -1      2475    3    0    1
 -2       234       779       776      1062
 -1      2476    3    0    1
 -2       768      1068       763       783
 -1      2477    3    0    1
 -2       781       233       777      1063
 -1      2478    3    0    1
 -2       797      1318       800      1325
 -1      2479    3    0    1
 -2      1593      1611      1665      2000
 -1      2480    3    0    1
 -2       796      1317      1081       801
 -1      2481    3    0    1
 -2       239       773      1061      1308
 -1      2482    3    0    1
 -2       789      1081      1082      1316
 -1      2483    3    0    1
 -2      1560      1890      1982      2152
 -1      2484    3    0    1
 -2      2051      1546      2132      2237
 -1      2485    3    0    1
 -2       248       243       773      1066
 -1      2486    3    0    1
 -2        25       390      2127      2177
 -1      2487    3    0    1
 -2      1417      1459      1468      3077
 -1      2488    3    0    1
 -2       777       407      1064      1313
 -1      2489    3    0    1
 -2      1823       859      2074      2469
 -1      2490    3    0    1
 -2      3051      3037      3071      3078
 -1      2491    3    0    1
 -2      1145      1682      2149      2562
 -1      2492    3    0    1
 -2      1419      2857      3027      3077
 -1      2493    3    0    1
 -2      1093       826      1746      2081
 -1      2494    3    0    1
 -2      1052      1301      1795      1841
 -1      2495    3    0    1
 -2       241       770       404      1067
 -1      2496    3    0    1
 -2       770       241       769      1067
 -1      2497    3    0    1
 -2       765      1067      1305      1306
 -1      2498    3    0    1
 -2      2983      1072      3004      3005
 -1      2499    3    0    1
 -2       783       763       784      1068
 -1      2500    3    0    1
 -2       776      1059      1062      1068
 -1      2501    3    0    1
 -2      2708      3060      3084      3086
 -1      2502    3    0    1
 -2       763      1071      1068      1059
 -1      2503    3    0    1
 -2       243       779       245      1068
 -1      2504    3    0    1
 -2       779       243       776      1068
 -1      2505    3    0    1
 -2      1059       763      1062      1068
 -1      2506    3    0    1
 -2       763      1071       784      1068
 -1      2507    3    0    1
 -2       387       432      1116      2330
 -1      2508    3    0    1
 -2       407       249       777      1069
 -1      2509    3    0    1
 -2       777       249       781      1069
 -1      2510    3    0    1
 -2       389      1541      1701      2079
 -1      2511    3    0    1
 -2       238       782       251      1070
 -1      2512    3    0    1
 -2       782       238       771      1070
 -1      2513    3    0    1
 -2       768      1069       783      1070
 -1      2514    3    0    1
 -2      1069       768      1063      1070
 -1      2515    3    0    1
 -2      1356      1357      1834      1930
 -1      2516    3    0    1
 -2      1076      1321       793      1080
 -1      2517    3    0    1
 -2       252      1318       262       800
 -1      2518    3    0    1
 -2      3040      3039      1478      3091
 -1      2519    3    0    1
 -2       252       804       267      1074
 -1      2520    3    0    1
 -2       804       252       797      1074
 -1      2521    3    0    1
 -2       258      1319       260       793
 -1      2522    3    0    1
 -2       792      1080       791      1076
 -1      2523    3    0    1
 -2       803       800      1318      1325
 -1      2524    3    0    1
 -2      1321       259      1675      1806
 -1      2525    3    0    1
 -2       730       724      1816      2392
 -1      2526    3    0    1
 -2      1793      1530      2114      2135
 -1      2527    3    0    1
 -2       264       797       800      1325
 -1      2528    3    0    1
 -2       264       803       265      1325
 -1      2529    3    0    1
 -2       797       264      1083      1325
 -1      2530    3    0    1
 -2       822      1091      1883      2157
 -1      2531    3    0    1
 -2       827       824      1329      1336
 -1      2532    3    0    1
 -2      2170      1016      2518      2627
 -1      2533    3    0    1
 -2      1318       797      1074      1325
 -1      2534    3    0    1
 -2       302      1132      1110      2628
 -1      2535    3    0    1
 -2      1094       832      1095      1610
 -1      2536    3    0    1
 -2       261       796       801      1324
 -1      2537    3    0    1
 -2       253       785      3004      3005
 -1      2538    3    0    1
 -2      2358       606      2452      2619
 -1      2539    3    0    1
 -2       825       820      1331      1335
 -1      2540    3    0    1
 -2      1039      1290      1423      3088
 -1      2541    3    0    1
 -2      3036      2676      1478      3091
 -1      2542    3    0    1
 -2      2857      2613      3027      3077
 -1      2543    3    0    1
 -2      2476       963      2484      2731
 -1      2544    3    0    1
 -2      1693      1576      1702      1762
 -1      2545    3    0    1
 -2      1662      2095      2685      2805
 -1      2546    3    0    1
 -2       259       794       793      1080
 -1      2547    3    0    1
 -2       928       392      2811      2835
 -1      2548    3    0    1
 -2       258      1319       793      1076
 -1      2549    3    0    1
 -2      1596      1568      1604      1822
 -1      2550    3    0    1
 -2       264       268       797      1083
 -1      2551    3    0    1
 -2       796       261       801      1081
 -1      2552    3    0    1
 -2       805       801      1081      1317
 -1      2553    3    0    1
 -2       135       988      1245      2616
 -1      2554    3    0    1
 -2      2087      1884      2315      2331
 -1      2555    3    0    1
 -2       805       269       371      1081
 -1      2556    3    0    1
 -2       269       805       801      1081
 -1      2557    3    0    1
 -2       261       806       271      1082
 -1      2558    3    0    1
 -2       806       261       796      1082
 -1      2559    3    0    1
 -2       790      1325       789       807
 -1      2560    3    0    1
 -2       268       266       797      1083
 -1      2561    3    0    1
 -2       797       266       804      1083
 -1      2562    3    0    1
 -2       821       274       824      1087
 -1      2563    3    0    1
 -2      1089      1332      1093       815
 -1      2564    3    0    1
 -2       274       281       824      1087
 -1      2565    3    0    1
 -2       274       828       290      1087
 -1      2566    3    0    1
 -2       828       274       821      1087
 -1      2567    3    0    1
 -2      1335      1088       820      1331
 -1      2568    3    0    1
 -2      1744      1700      1825      2149
 -1      2569    3    0    1
 -2      1088      1335      1090       816
 -1      2570    3    0    1
 -2       816      1093       815      1089
 -1      2571    3    0    1
 -2       816      1335      1090       826
 -1      2572    3    0    1
 -2       839      1793      1903      2114
 -1      2573    3    0    1
 -2      1094       403      2056      2269
 -1      2574    3    0    1
 -2       700      2013      2133      2137
 -1      2575    3    0    1
 -2      1652      1650      2227      2228
 -1      2576    3    0    1
 -2      2204      2318      2458      2851
 -1      2577    3    0    1
 -2      1533       336      1570      2224
 -1      2578    3    0    1
 -2       816      1090       815       826
 -1      2579    3    0    1
 -2      2148       682      2439      2450
 -1      2580    3    0    1
 -2       227      1908      2102      2389
 -1      2581    3    0    1
 -2       822       811       823      1092
 -1      2582    3    0    1
 -2      1928      1932      1971      2221
 -1      2583    3    0    1
 -2      1711      1564      1843      2178
 -1      2584    3    0    1
 -2      1927      2313      2631      1892
 -1      2585    3    0    1
 -2       226      1733      1956      2505
 -1      2586    3    0    1
 -2      2387      1933      2878      2879
 -1      2587    3    0    1
 -2       833      1338       834      1828
 -1      2588    3    0    1
 -2       811      1084      1086      1092
 -1      2589    3    0    1
 -2       811      1333      1084      1092
 -1      2590    3    0    1
 -2       316      1819      1988      2012
 -1      2591    3    0    1
 -2       462      1889      2040      2424
 -1      2592    3    0    1
 -2       263      1080      1675      1785
 -1      2593    3    0    1
 -2       813       831       832      1094
 -1      2594    3    0    1
 -2       387      1116      1141      2330
 -1      2595    3    0    1
 -2      1310       778       772      2190
 -1      2596    3    0    1
 -2       829       285       403      1094
 -1      2597    3    0    1
 -2       285       829       825      1094
 -1      2598    3    0    1
 -2      1764      1523      1771      2231
 -1      2599    3    0    1
 -2       288       830       289      1095
 -1      2600    3    0    1
 -2       830       288       820      1095
 -1      2601    3    0    1
 -2      1028       703      1776      2070
 -1      2602    3    0    1
 -2       373       372       821      1096
 -1      2603    3    0    1
 -2       821       372       828      1096
 -1      2604    3    0    1
 -2       814      1096       813       831
 -1      2605    3    0    1
 -2      1555      2349      2678      2790
 -1      2606    3    0    1
 -2       123      1237      2403      2603
 -1      2607    3    0    1
 -2      1701      1560      1982      2151
 -1      2608    3    0    1
 -2      1649      1723      1899      1955
 -1      2609    3    0    1
 -2      1056       222      1863      1893
 -1      2610    3    0    1
 -2       567       943       952      2554
 -1      2611    3    0    1
 -2      2386      1630      1552      1824
 -1      2612    3    0    1
 -2       867      1134       878      1754
 -1      2613    3    0    1
 -2      2233       118      2489      2569
 -1      2614    3    0    1
 -2      1592      1537      1698      1794
 -1      2615    3    0    1
 -2      1925      1689      2029      2182
 -1      2616    3    0    1
 -2      1640      1528      1674      1834
 -1      2617    3    0    1
 -2      1267       329      2440      2709
 -1      2618    3    0    1
 -2      1924      1659      2321      2494
 -1      2619    3    0    1
 -2      1730      1566      1861      1958
 -1      2620    3    0    1
 -2       976       119       979      2823
 -1      2621    3    0    1
 -2      2420       459      2666      2757
 -1      2622    3    0    1
 -2       789      1083       807      1325
 -1      2623    3    0    1
 -2        40       506        46      1179
 -1      2624    3    0    1
 -2       919       501       928      1183
 -1      2625    3    0    1
 -2       506       505       926      1179
 -1      2626    3    0    1
 -2      1090      1783      2014      2165
 -1      2627    3    0    1
 -2      1604      1596      1764      1939
 -1      2628    3    0    1
 -2      1145      1365      1682      2562
 -1      2629    3    0    1
 -2      1434      2642      2893      2914
 -1      2630    3    0    1
 -2      1692      1123      1693      1756
 -1      2631    3    0    1
 -2       223       363      1058      2008
 -1      2632    3    0    1
 -2      1083       283      1336      2316
 -1      2633    3    0    1
 -2      1639      1543      1715      2036
 -1      2634    3    0    1
 -2      1399       297       437      1684
 -1      2635    3    0    1
 -2        43       426      2496      2634
 -1      2636    3    0    1
 -2      1613      1728      2017      2019
 -1      2637    3    0    1
 -2       467       464      1156      1163
 -1      2638    3    0    1
 -2      2397      2437      2477      2490
 -1      2639    3    0    1
 -2       997       320      1791      2146
 -1      2640    3    0    1
 -2      1410       960      3081      3085
 -1      2641    3    0    1
 -2       811      1333      1092       822
 -1      2642    3    0    1
 -2      3039      2976      2676      2912
 -1      2643    3    0    1
 -2      1717      1747      2158      1966
 -1      2644    3    0    1
 -2      1567      1616      1619      2090
 -1      2645    3    0    1
 -2       291       311      1381      2044
 -1      2646    3    0    1
 -2      1602       320      2139      2160
 -1      2647    3    0    1
 -2      2976      3039      2676      3091
 -1      2648    3    0    1
 -2       413      1540      1720      2023
 -1      2649    3    0    1
 -2      1795      1893       409      1733
 -1      2650    3    0    1
 -2       584       558      2326      2514
 -1      2651    3    0    1
 -2       268       266      1083      1636
 -1      2652    3    0    1
 -2      1524      1567      2335      2462
 -1      2653    3    0    1
 -2       832       831      1907      2172
 -1      2654    3    0    1
 -2       791      1321      1080       795
 -1      2655    3    0    1
 -2      1664      2418      2508      2667
 -1      2656    3    0    1
 -2      1539      2227      2395      2426
 -1      2657    3    0    1
 -2      1269      1935      2298      2342
 -1      2658    3    0    1
 -2      1605      1586      2030      2065
 -1      2659    3    0    1
 -2      1819      1135      2091      2345
 -1      2660    3    0    1
 -2      1845      2013      2018      2251
 -1      2661    3    0    1
 -2      1436      1426      3065      2958
 -1      2662    3    0    1
 -2      1736      1637      1790      2073
 -1      2663    3    0    1
 -2      1094       825      1095      1327
 -1      2664    3    0    1
 -2      1258      1435      1436      2912
 -1      2665    3    0    1
 -2      1134       867      1125      1754
 -1      2666    3    0    1
 -2      1103      1584      1684      1777
 -1      2667    3    0    1
 -2      1585      1548      1781      1891
 -1      2668    3    0    1
 -2      1612      1547      1673      1709
 -1      2669    3    0    1
 -2      2148      1014      2357      2440
 -1      2670    3    0    1
 -2       764      1310       778       772
 -1      2671    3    0    1
 -2      1800      1820      1325      1706
 -1      2672    3    0    1
 -2       904      1176      2119      1413
 -1      2673    3    0    1
 -2      1043       334      1876      2422
 -1      2674    3    0    1
 -2       766      1311       775       774
 -1      2675    3    0    1
 -2       415      1604      1798      1844
 -1      2676    3    0    1
 -2       495       496       917      2825
 -1      2677    3    0    1
 -2       190      1026      1279      1845
 -1      2678    3    0    1
 -2      1667      1739      2294      2430
 -1      2679    3    0    1
 -2      1981      1679      2321      2391
 -1      2680    3    0    1
 -2      1657      1674      2447      2607
 -1      2681    3    0    1
 -2      1530      1735      1901      1990
 -1      2682    3    0    1
 -2      2781       924      3062      3072
 -1      2683    3    0    1
 -2      1659      1678      1867      1924
 -1      2684    3    0    1
 -2      1375       417       440      2385
 -1      2685    3    0    1
 -2        18       372      1333      2078
 -1      2686    3    0    1
 -2      1884       447      2315      2331
 -1      2687    3    0    1
 -2      1016      2207      2281      2518
 -1      2688    3    0    1
 -2      1615      1624      1884      2089
 -1      2689    3    0    1
 -2      1847       337      2399      2415
 -1      2690    3    0    1
 -2       759       760      1057      1745
 -1      2691    3    0    1
 -2       173      1444      1446      1452
 -1      2692    3    0    1
 -2      1131       299       312      1952
 -1      2693    3    0    1
 -2      1335      1746      2196      2408
 -1      2694    3    0    1
 -2      1983       369      2100      2527
 -1      2695    3    0    1
 -2       365        81      2356      2470
 -1      2696    3    0    1
 -2       724      1288      1816      1840
 -1      2697    3    0    1
 -2      1541       389      1686      2130
 -1      2698    3    0    1
 -2       556       566       954      1202
 -1      2699    3    0    1
 -2      1564      1589      1628      1726
 -1      2700    3    0    1
 -2      2412       943      2681      2742
 -1      2701    3    0    1
 -2      1825      1566      2019      2149
 -1      2702    3    0    1
 -2      1268       679       678      2423
 -1      2703    3    0    1
 -2       123      2403      2584      2603
 -1      2704    3    0    1
 -2      2051      1581      2084      2091
 -1      2705    3    0    1
 -2      2144      2245      2435      2608
 -1      2706    3    0    1
 -2       760       759      1058      1745
 -1      2707    3    0    1
 -2       283       266      1978      2316
 -1      2708    3    0    1
 -2      2213       603      2580      2677
 -1      2709    3    0    1
 -2      2063       802      2336      2398
 -1      2710    3    0    1
 -2       799      1538      1974      2248
 -1      2711    3    0    1
 -2       943       544       543      2374
 -1      2712    3    0    1
 -2       583       587       963      1214
 -1      2713    3    0    1
 -2       445       444      1137      1774
 -1      2714    3    0    1
 -2      1854      1694      2141      2241
 -1      2715    3    0    1
 -2       527      1198       939       534
 -1      2716    3    0    1
 -2        45      1185      2944      2966
 -1      2717    3    0    1
 -2      3043      1433      1462      3071
 -1      2718    3    0    1
 -2      2367      1711      2535      2578
 -1      2719    3    0    1
 -2      2300      1550      2475      2636
 -1      2720    3    0    1
 -2      3026      1426      1441      1442
 -1      2721    3    0    1
 -2      2769      2778      2786      2787
 -1      2722    3    0    1
 -2      1772      2010      2323      2468
 -1      2723    3    0    1
 -2      1666      1686      1891      1967
 -1      2724    3    0    1
 -2      1367      1146      1954      1971
 -1      2725    3    0    1
 -2      1267      1014      2236      2440
 -1      2726    3    0    1
 -2      1721      1619      1862      1909
 -1      2727    3    0    1
 -2      1599      1661      1804      1934
 -1      2728    3    0    1
 -2      1561       483      1727      2706
 -1      2729    3    0    1
 -2       740      1299      1054       750
 -1      2730    3    0    1
 -2      1563      1521      1805      1963
 -1      2731    3    0    1
 -2      1531       930      2502      2721
 -1      2732    3    0    1
 -2       870       882      1632      1779
 -1      2733    3    0    1
 -2       718      1288      1041       724
 -1      2734    3    0    1
 -2      1693      1756      1774      2187
 -1      2735    3    0    1
 -2       914       420      1889      2697
 -1      2736    3    0    1
 -2      1000       654      1257      1852
 -1      2737    3    0    1
 -2       716      1289      1040       726
 -1      2738    3    0    1
 -2      1426       999      2949      2958
 -1      2739    3    0    1
 -2       574      1226       579       586
 -1      2740    3    0    1
 -2      1147      1790      1937      1969
 -1      2741    3    0    1
 -2      1626      1867      1929      1962
 -1      2742    3    0    1
 -2       117       111       601      1227
 -1      2743    3    0    1
 -2       289       288      2088      2165
 -1      2744    3    0    1
 -2      1362       847       848      1690
 -1      2745    3    0    1
 -2       863      1408       896      2049
 -1      2746    3    0    1
 -2       304      1406      1115      1619
 -1      2747    3    0    1
 -2       784      1580      1820      1948
 -1      2748    3    0    1
 -2      1152      1860      1918      2385
 -1      2749    3    0    1
 -2      1028       355      1886      1940
 -1      2750    3    0    1
 -2      2146       997      2168      2460
 -1      2751    3    0    1
 -2       807      1071      1325      1820
 -1      2752    3    0    1
 -2      1248      2105      2655      2820
 -1      2753    3    0    1
 -2      2112      1032      2288      2528
 -1      2754    3    0    1
 -2      1571      1738      1755      2181
 -1      2755    3    0    1
 -2      1713      2230      2232      2410
 -1      2756    3    0    1
 -2      1323      1065      2203      2248
 -1      2757    3    0    1
 -2       126       978      1716      2584
 -1      2758    3    0    1
 -2      2069      2195      2353      2501
 -1      2759    3    0    1
 -2        66      2174      2688      2800
 -1      2760    3    0    1
 -2       974      1656      2788      2801
 -1      2761    3    0    1
 -2      1069      1057      1731      1956
 -1      2762    3    0    1
 -2      1123      1692      1693      1702
 -1      2763    3    0    1
 -2       410      1372      1149      2331
 -1      2764    3    0    1
 -2      1605       263      1715      1913
 -1      2765    3    0    1
 -2      2227      2395      2426      2669
 -1      2766    3    0    1
 -2       703      1028      1886      2070
 -1      2767    3    0    1
 -2      1853      1642      2163      2219
 -1      2768    3    0    1
 -2      1769      1766      2171      2180
 -1      2769    3    0    1
 -2       413       205      1288      2037
 -1      2770    3    0    1
 -2      2120       317      2170      2306
 -1      2771    3    0    1
 -2       291      1391      1878      2044
 -1      2772    3    0    1
 -2      1803      1865      2032      2617
 -1      2773    3    0    1
 -2      1987      1890      2371      2534
 -1      2774    3    0    1
 -2      1712      1150      1770      2289
 -1      2775    3    0    1
 -2       131       143       628      1243
 -1      2776    3    0    1
 -2      2202      1555      2370      2610
 -1      2777    3    0    1
 -2      1404      2087      2315      2331
 -1      2778    3    0    1
 -2      2963      2565      3081      3085
 -1      2779    3    0    1
 -2       414      1038      1291      1535
 -1      2780    3    0    1
 -2      2849      2614      2917      3069
 -1      2781    3    0    1
 -2      1812      1339      1828      2220
 -1      2782    3    0    1
 -2      2013      1025      2041      2047
 -1      2783    3    0    1
 -2      2193       971      2233      2569
 -1      2784    3    0    1
 -2       977      2050      2403      2684
 -1      2785    3    0    1
 -2       384       948      2561      2590
 -1      2786    3    0    1
 -2      1029       706      2133      2355
 -1      2787    3    0    1
 -2      2384      1376      2401      2669
 -1      2788    3    0    1
 -2      1652      1650      2228      2337
 -1      2789    3    0    1
 -2      2127        25      2177      2600
 -1      2790    3    0    1
 -2      2313      1927      2631      2630
 -1      2791    3    0    1
 -2      1715      1639      2036      2597
 -1      2792    3    0    1
 -2      2153      2142      2394      2507
 -1      2793    3    0    1
 -2       610       975      2066      2193
 -1      2794    3    0    1
 -2      1760      1572      1992      2192
 -1      2795    3    0    1
 -2      1540      1717      1966      2023
 -1      2796    3    0    1
 -2       387      2273      2330      2623
 -1      2797    3    0    1
 -2      1876      1043      2288      2344
 -1      2798    3    0    1
 -2       974       120      1224      1656
 -1      2799    3    0    1
 -2      1542      1725      1873      1919
 -1      2800    3    0    1
 -2      1911      1572      2214      2325
 -1      2801    3    0    1
 -2       667      1268       679       678
 -1      2802    3    0    1
 -2      1151       304      1374      1619
 -1      2803    3    0    1
 -2      1405      1830      2074      2469
 -1      2804    3    0    1
 -2      1685      1951      2359      2360
 -1      2805    3    0    1
 -2       822       463      1333      2078
 -1      2806    3    0    1
 -2      2222        79      2296      2532
 -1      2807    3    0    1
 -2       310       316      1819      1988
 -1      2808    3    0    1
 -2       416       195      1026      1845
 -1      2809    3    0    1
 -2      2955      1459      2989      3016
 -1      2810    3    0    1
 -2      1708      1689      1928      1998
 -1      2811    3    0    1
 -2      1724      1569      2017      2198
 -1      2812    3    0    1
 -2      1523      1594      1720      1771
 -1      2813    3    0    1
 -2      1920      1713      1972      2230
 -1      2814    3    0    1
 -2       560      2326      1211      2409
 -1      2815    3    0    1
 -2      1975      1064      2361      2602
 -1      2816    3    0    1
 -2      1703      1870      1982      2324
 -1      2817    3    0    1
 -2       871      1391      1381      2044
 -1      2818    3    0    1
 -2      1981      1924      2321      2494
 -1      2819    3    0    1
 -2       831      1094      2072      2269
 -1      2820    3    0    1
 -2       724       730      1038      2392
 -1      2821    3    0    1
 -2      2140      2120      2262      2291
 -1      2822    3    0    1
 -2      2884      3047      1479      3067
 -1      2823    3    0    1
 -2      1339       834      1812      1828
 -1      2824    3    0    1
 -2      1818      1333      2078      2129
 -1      2825    3    0    1
 -2       699       190      1026      1279
 -1      2826    3    0    1
 -2       337       102       965      2406
 -1      2827    3    0    1
 -2       263      1675      1715      1785
 -1      2828    3    0    1
 -2      1746      1748      2081      2524
 -1      2829    3    0    1
 -2       700      1025      2013      2047
 -1      2830    3    0    1
 -2       783      1731      1922      2466
 -1      2831    3    0    1
 -2      1550      1734      2475      2636
 -1      2832    3    0    1
 -2      2029      1586      2032      2123
 -1      2833    3    0    1
 -2        18        16      1163      2201
 -1      2834    3    0    1
 -2      1850      2688      2747      2800
 -1      2835    3    0    1
 -2      1711      1813      2367      2535
 -1      2836    3    0    1
 -2      1159      2124      2538      2552
 -1      2837    3    0    1
 -2       678      1012      1278      2070
 -1      2838    3    0    1
 -2      1569      1724      2017      2564
 -1      2839    3    0    1
 -2      1847      1237      1858      2403
 -1      2840    3    0    1
 -2      1709      1547      2254      2457
 -1      2841    3    0    1
 -2       380       937      2653      2703
 -1      2842    3    0    1
 -2      1526      1666      1967      2324
 -1      2843    3    0    1
 -2      1595       408      1622      1644
 -1      2844    3    0    1
 -2       675      1011      2236      2240
 -1      2845    3    0    1
 -2      2855      2872      2897      2909
 -1      2846    3    0    1
 -2      1082       808      2072      2368
 -1      2847    3    0    1
 -2      2333      2173      2746      2822
 -1      2848    3    0    1
 -2      2650      1200      2652      2795
 -1      2849    3    0    1
 -2      2218        80      2633      2699
 -1      2850    3    0    1
 -2      1534      1631      1695      2189
 -1      2851    3    0    1
 -2       197       352      2910      3049
 -1      2852    3    0    1
 -2       514      1190      2687      2798
 -1      2853    3    0    1
 -2        32        29      2441      2697
 -1      2854    3    0    1
 -2       342       343      1002      1714
 -1      2855    3    0    1
 -2      2645       424      2769      2778
 -1      2856    3    0    1
 -2      1635      1677      1707      1732
 -1      2857    3    0    1
 -2      1670      1645      1991      2185
 -1      2858    3    0    1
 -2       778      2190      2675      2768
 -1      2859    3    0    1
 -2      1555      1719      2202      2370
 -1      2860    3    0    1
 -2      1543      1639      1785      1992
 -1      2861    3    0    1
 -2      1338       833      1337      1828
 -1      2862    3    0    1
 -2      3036      1479      2948      3080
 -1      2863    3    0    1
 -2      1334      1437      1439      3090
 -1      2864    3    0    1
 -2       453      1155       907      1154
 -1      2865    3    0    1
 -2       476      1177       483       475
 -1      2866    3    0    1
 -2       453      1155       454       907
 -1      2867    3    0    1
 -2       460         3       470      1154
 -1      2868    3    0    1
 -2        10         3       460      1154
 -1      2869    3    0    1
 -2       454      1163      1156       453
 -1      2870    3    0    1
 -2      2017      1807      2156      2186
 -1      2871    3    0    1
 -2       456      1162       455       466
 -1      2872    3    0    1
 -2      1057       783      1069      1731
 -1      2873    3    0    1
 -2       902      1159       455      1157
 -1      2874    3    0    1
 -2       118      1796      1797      2233
 -1      2875    3    0    1
 -2       408      1622      1644      1844
 -1      2876    3    0    1
 -2      2438      2869      2923      3074
 -1      2877    3    0    1
 -2      2061      1410      2915      3085
 -1      2878    3    0    1
 -2      2886      2116      3037      3051
 -1      2879    3    0    1
 -2      3074      3045      3075      3096
 -1      2880    3    0    1
 -2      1447      2438      2923      3074
 -1      2881    3    0    1
 -2      1447      2438      3074      3090
 -1      2882    3    0    1
 -2        13       460       465      1162
 -1      2883    3    0    1
 -2       455       459       466      1162
 -1      2884    3    0    1
 -2       460       901      1158      1162
 -1      2885    3    0    1
 -2       460        13       903      1162
 -1      2886    3    0    1
 -2       455       903       459      1162
 -1      2887    3    0    1
 -2       903       455       901      1162
 -1      2888    3    0    1
 -2       455      1158       901      1162
 -1      2889    3    0    1
 -2       901       460       903      1162
 -1      2890    3    0    1
 -2       900       461       909      1163
 -1      2891    3    0    1
 -2      1156       461       900      1163
 -1      2892    3    0    1
 -2        16       467        18      1163
 -1      2893    3    0    1
 -2       467        16       464      1163
 -1      2894    3    0    1
 -2        19       484       489      1168
 -1      2895    3    0    1
 -2       453      1156       900      1163
 -1      2896    3    0    1
 -2       909       453       900      1163
 -1      2897    3    0    1
 -2      2061       960      1410      3085
 -1      2898    3    0    1
 -2      1685      1942      2360      2410
 -1      2899    3    0    1
 -2        19       493        21      1168
 -1      2900    3    0    1
 -2       493        19       489      1168
 -1      2901    3    0    1
 -2       478      1178       496       477
 -1      2902    3    0    1
 -2       488        23       491      1169
 -1      2903    3    0    1
 -2        31        23       488      1169
 -1      2904    3    0    1
 -2       478      1178       918       496
 -1      2905    3    0    1
 -2        22       494       484      1171
 -1      2906    3    0    1
 -2       916       477      1168      1171
 -1      2907    3    0    1
 -2       374      3075      3089      3096
 -1      2908    3    0    1
 -2       480      1175       479       486
 -1      2909    3    0    1
 -2      1119      2049      2384      2401
 -1      2910    3    0    1
 -2      1586      1536      1605      2030
 -1      2911    3    0    1
 -2       483       475       490      1174
 -1      2912    3    0    1
 -2       915       475      1167      1174
 -1      2913    3    0    1
 -2       490       475       915      1174
 -1      2914    3    0    1
 -2      3073      2024      2986      3088
 -1      2915    3    0    1
 -2       485       910      1173      1175
 -1      2916    3    0    1
 -2       910       485       914      1175
 -1      2917    3    0    1
 -2        80       948      1213      2218
 -1      2918    3    0    1
 -2       479       487       486      1175
 -1      2919    3    0    1
 -2       724      1288      1840      1899
 -1      2920    3    0    1
 -2       479       914       487      1175
 -1      2921    3    0    1
 -2       910       479      1173      1175
 -1      2922    3    0    1
 -2       914       479       910      1175
 -1      2923    3    0    1
 -2      1588        79      1629      2296
 -1      2924    3    0    1
 -2       476      1177       475      1165
 -1      2925    3    0    1
 -2      1136       307      1377      2180
 -1      2926    3    0    1
 -2      1988      1546      2012      2542
 -1      2927    3    0    1
 -2       560       949      2900      1212
 -1      2928    3    0    1
 -2       488       918        29       485
 -1      2929    3    0    1
 -2       918       488        29      1178
 -1      2930    3    0    1
 -2        32       491       420      1178
 -1      2931    3    0    1
 -2       491        32       488      1178
 -1      2932    3    0    1
 -2       478      1178       477      1169
 -1      2933    3    0    1
 -2       508       919       928      1183
 -1      2934    3    0    1
 -2       513       508       928      1183
 -1      2935    3    0    1
 -2        37       517        50      1183
 -1      2936    3    0    1
 -2       517        37       513      1183
 -1      2937    3    0    1
 -2        47       515       511      1184
 -1      2938    3    0    1
 -2      1102       388      1611      1665
 -1      2939    3    0    1
 -2       634       988      2284      2670
 -1      2940    3    0    1
 -2      1247       973      2358      2619
 -1      2941    3    0    1
 -2       505       926      1182      1187
 -1      2942    3    0    1
 -2       927       426      2634      2831
 -1      2943    3    0    1
 -2      2387      1933      2656      2868
 -1      2944    3    0    1
 -2       499      1182       926      1187
 -1      2945    3    0    1
 -2       507       499       926      1187
 -1      2946    3    0    1
 -2      1528      1944      1947      2299
 -1      2947    3    0    1
 -2       289      1090      1783      1896
 -1      2948    3    0    1
 -2       503       925       510      1188
 -1      2949    3    0    1
 -2      1186       509       921      1188
 -1      2950    3    0    1
 -2       921       509       925      1188
 -1      2951    3    0    1
 -2      1943      1902      2196      2524
 -1      2952    3    0    1
 -2       925       503       921      1188
 -1      2953    3    0    1
 -2       503      1186       921      1188
 -1      2954    3    0    1
 -2      1189      2642      1434      3072
 -1      2955    3    0    1
 -2      2568      2225      2626      2773
 -1      2956    3    0    1
 -2      1555      1719      2111      2628
 -1      2957    3    0    1
 -2       508       923      1180      1190
 -1      2958    3    0    1
 -2       513       508      1180      1190
 -1      2959    3    0    1
 -2        41       508       513      1190
 -1      2960    3    0    1
 -2      2131      1585      2166      2481
 -1      2961    3    0    1
 -2       844       843      1655      2000
 -1      2962    3    0    1
 -2      1357      1759      1834      1930
 -1      2963    3    0    1
 -2       507      1190       499       923
 -1      2964    3    0    1
 -2       508        41       923      1190
 -1      2965    3    0    1
 -2        61       529      1192      1194
 -1      2966    3    0    1
 -2      2934      1207      2968      2997
 -1      2967    3    0    1
 -2      2934       560       949       558
 -1      2968    3    0    1
 -2        78       546      2968      2997
 -1      2969    3    0    1
 -2        58       533       535      1197
 -1      2970    3    0    1
 -2       535       939      1195      1197
 -1      2971    3    0    1
 -2        58       535      1195      1197
 -1      2972    3    0    1
 -2       533        67       535      1198
 -1      2973    3    0    1
 -2       784      1580      1948      2103
 -1      2974    3    0    1
 -2       915       390      1775      2025
 -1      2975    3    0    1
 -2       535       939      1197      1198
 -1      2976    3    0    1
 -2       533       535      1197      1198
 -1      2977    3    0    1
 -2        67       369       535      1198
 -1      2978    3    0    1
 -2      2068      1851      2224      2411
 -1      2979    3    0    1
 -2      1814       411      1986      2021
 -1      2980    3    0    1
 -2       679      1013      2083      2661
 -1      2981    3    0    1
 -2       535       369       939      1198
 -1      2982    3    0    1
 -2       366       381       532      1200
 -1      2983    3    0    1
 -2       932      1200       524      1193
 -1      2984    3    0    1
 -2       532       381       937      1200
 -1      2985    3    0    1
 -2       943       535       931       533
 -1      2986    3    0    1
 -2       535       943       931      1201
 -1      2987    3    0    1
 -2       369       539       370      1201
 -1      2988    3    0    1
 -2       539       369       535      1201
 -1      2989    3    0    1
 -2       931      1201       528       934
 -1      2990    3    0    1
 -2      1071       246      1325      1706
 -1      2991    3    0    1
 -2       548      1205       948      1204
 -1      2992    3    0    1
 -2      1410      1474      3081      3021
 -1      2993    3    0    1
 -2       944       557       952      1209
 -1      2994    3    0    1
 -2       563        73        89      1209
 -1      2995    3    0    1
 -2        73       563       559      1209
 -1      2996    3    0    1
 -2       391      1735      1990      2138
 -1      2997    3    0    1
 -2      1917      1598      1923      2308
 -1      2998    3    0    1
 -2       205      1854      2037      2609
 -1      2999    3    0    1
 -2      1822      1721      1855      1862
 -1      3000    3    0    1
 -2       548      1206       951      1210
 -1      3001    3    0    1
 -2       555       548       951      1210
 -1      3002    3    0    1
 -2       553      1206       554      1210
 -1      3003    3    0    1
 -2      1206       553       951      1210
 -1      3004    3    0    1
 -2        75       553       554      1210
 -1      3005    3    0    1
 -2       557        85       950      1211
 -1      3006    3    0    1
 -2      1208       557       945      1211
 -1      3007    3    0    1
 -2       945       557       950      1211
 -1      3008    3    0    1
 -2      2063       802      2398      2575
 -1      3009    3    0    1
 -2       379      1384      1809      1927
 -1      3010    3    0    1
 -2       950       550       945      1211
 -1      3011    3    0    1
 -2       550      1208       945      1211
 -1      3012    3    0    1
 -2      1376       439      2384      2401
 -1      3013    3    0    1
 -2       556       948      1204      1213
 -1      3014    3    0    1
 -2       561       556      1204      1213
 -1      3015    3    0    1
 -2       555      1213       548       948
 -1      3016    3    0    1
 -2      1690      1627      1807      2563
 -1      3017    3    0    1
 -2        92       587       583      1214
 -1      3018    3    0    1
 -2      1334      1091      1439      3009
 -1      3019    3    0    1
 -2       573       582      2936      3010
 -1      3020    3    0    1
 -2      1615      1595      1653      1830
 -1      3021    3    0    1
 -2      1739      2258      2430      2863
 -1      3022    3    0    1
 -2       961       572      1215      1218
 -1      3023    3    0    1
 -2       573      1224       572       582
 -1      3024    3    0    1
 -2       381       937      1200      2650
 -1      3025    3    0    1
 -2       575      1226       579       574
 -1      3026    3    0    1
 -2      1226       575       959      1220
 -1      3027    3    0    1
 -2       575      1226       959       579
 -1      3028    3    0    1
 -2       575      1223       574       579
 -1      3029    3    0    1
 -2       962       574      1219      1222
 -1      3030    3    0    1
 -2       581       348       961      1224
 -1      3031    3    0    1
 -2       578       962      1222      1223
 -1      3032    3    0    1
 -2       962       574      1222      1223
 -1      3033    3    0    1
 -2       579       574       586      1223
 -1      3034    3    0    1
 -2       586       574       962      1223
 -1      3035    3    0    1
 -2       331      2337      1729       185
 -1      3036    3    0    1
 -2        86      1213      2572      2699
 -1      3037    3    0    1
 -2      1736      2027      2055      2073
 -1      3038    3    0    1
 -2       582       572       584      1224
 -1      3039    3    0    1
 -2       961       572      1218      1224
 -1      3040    3    0    1
 -2       584       572       961      1224
 -1      3041    3    0    1
 -2       867      1732      1754      1994
 -1      3042    3    0    1
 -2      1623      1645      2134      2185
 -1      3043    3    0    1
 -2      1162      2448      2666      2711
 -1      3044    3    0    1
 -2      1761      2181      2229      2491
 -1      3045    3    0    1
 -2       991       640      2432      2729
 -1      3046    3    0    1
 -2       575      1226       574      1220
 -1      3047    3    0    1
 -2      1553      1544      1740      1864
 -1      3048    3    0    1
 -2       605       607       976      1231
 -1      3049    3    0    1
 -2       112      1232      1231       605
 -1      3050    3    0    1
 -2      1232       976       605       979
 -1      3051    3    0    1
 -2       597      1232       598       979
 -1      3052    3    0    1
 -2       976      1232      1231       597
 -1      3053    3    0    1
 -2       976      1232       605      1231
 -1      3054    3    0    1
 -2       611       112       113      1231
 -1      3055    3    0    1
 -2       112       611       607      1231
 -1      3056    3    0    1
 -2      1704      1622      1725      2109
 -1      3057    3    0    1
 -2       122       119       605      1235
 -1      3058    3    0    1
 -2       605       119       974      1235
 -1      3059    3    0    1
 -2       288      1095      2088      2165
 -1      3060    3    0    1
 -2       599       974       606      1235
 -1      3061    3    0    1
 -2      1234       605       969      1235
 -1      3062    3    0    1
 -2       969       605       974      1235
 -1      3063    3    0    1
 -2      1649      1620      1898      1899
 -1      3064    3    0    1
 -2       974       599       969      1235
 -1      3065    3    0    1
 -2       599      1234       969      1235
 -1      3066    3    0    1
 -2      1710      1801      1802      2290
 -1      3067    3    0    1
 -2       604       972      1228      1237
 -1      3068    3    0    1
 -2       609       604      1228      1237
 -1      3069    3    0    1
 -2       351      1040      2200      2402
 -1      3070    3    0    1
 -2       603      1237       595       972
 -1      3071    3    0    1
 -2       129       625      1238      1240
 -1      3072    3    0    1
 -2       628       638       991      1243
 -1      3073    3    0    1
 -2       632       132       635      1241
 -1      3074    3    0    1
 -2       133       132       632      1241
 -1      3075    3    0    1
 -2       139       636       141      1242
 -1      3076    3    0    1
 -2       636       139       629      1242
 -1      3077    3    0    1
 -2       621       989      1241      1242
 -1      3078    3    0    1
 -2      1982      1541      2066      2079
 -1      3079    3    0    1
 -2       625       988      1240      1245
 -1      3080    3    0    1
 -2       626       625      1240      1245
 -1      3081    3    0    1
 -2       135       626       136      1245
 -1      3082    3    0    1
 -2       625       135       988      1245
 -1      3083    3    0    1
 -2       626       135       625      1245
 -1      3084    3    0    1
 -2       678       703      1886      2423
 -1      3085    3    0    1
 -2      1626      1553      1929      2028
 -1      3086    3    0    1
 -2       629       632      1244      1246
 -1      3087    3    0    1
 -2       629       137       632      1246
 -1      3088    3    0    1
 -2       912       483      2216      2549
 -1      3089    3    0    1
 -2       983      1246       624      1244
 -1      3090    3    0    1
 -2       632       137       987      1246
 -1      3091    3    0    1
 -2       243       245      1066      2106
 -1      3092    3    0    1
 -2       762      2955      2992      3016
 -1      3093    3    0    1
 -2      1617      1678      1867      2110
 -1      3094    3    0    1
 -2      1765      1597      1985      2215
 -1      3095    3    0    1
 -2       980      1248       619      1239
 -1      3096    3    0    1
 -2       628       315       985      1248
 -1      3097    3    0    1
 -2       662       150       160      1255
 -1      3098    3    0    1
 -2       653       656      1002      1253
 -1      3099    3    0    1
 -2       147      1254      1253       653
 -1      3100    3    0    1
 -2      1254      1002       653      1005
 -1      3101    3    0    1
 -2       645      1254       646      1005
 -1      3102    3    0    1
 -2      1002      1254      1253       645
 -1      3103    3    0    1
 -2      1002      1254       653      1253
 -1      3104    3    0    1
 -2       659       147       148      1253
 -1      3105    3    0    1
 -2       147       659       656      1253
 -1      3106    3    0    1
 -2      1804      1661      1896      2195
 -1      3107    3    0    1
 -2       954       568      2476      2624
 -1      3108    3    0    1
 -2       118       389       975      2233
 -1      3109    3    0    1
 -2       357       343       653      1257
 -1      3110    3    0    1
 -2       653       343      1000      1257
 -1      3111    3    0    1
 -2       843      1354      1102      2000
 -1      3112    3    0    1
 -2      1746       826      2196      2524
 -1      3113    3    0    1
 -2      1599      1835      1934      1996
 -1      3114    3    0    1
 -2       647      1000       654      1257
 -1      3115    3    0    1
 -2      1256       653       995      1257
 -1      3116    3    0    1
 -2       995       653      1000      1257
 -1      3117    3    0    1
 -2      1764      1647      1798      2341
 -1      3118    3    0    1
 -2      1000       647       995      1257
 -1      3119    3    0    1
 -2       647      1256       995      1257
 -1      3120    3    0    1
 -2       652       998      1250      1259
 -1      3121    3    0    1
 -2       657       652      1250      1259
 -1      3122    3    0    1
 -2      1302      1045      2102      2340
 -1      3123    3    0    1
 -2       651      1259       643       998
 -1      3124    3    0    1
 -2       668      1268      1013       679
 -1      3125    3    0    1
 -2      2864      2175      2871      3040
 -1      3126    3    0    1
 -2       324      1380      1138      1691
 -1      3127    3    0    1
 -2       163       684       176      1262
 -1      3128    3    0    1
 -2       684       163       677      1262
 -1      3129    3    0    1
 -2       686       167       178      1263
 -1      3130    3    0    1
 -2       167       686       676      1263
 -1      3131    3    0    1
 -2      1581      1695      1817      1838
 -1      3132    3    0    1
 -2       677       171      1013      1268
 -1      3133    3    0    1
 -2       672      1267       682       671
 -1      3134    3    0    1
 -2      1010      1267      1014       672
 -1      3135    3    0    1
 -2       672      1267      1014       682
 -1      3136    3    0    1
 -2      1491       374      3075      3089
 -1      3137    3    0    1
 -2      1011       671      1264      1266
 -1      3138    3    0    1
 -2       672      1270       671       682
 -1      3139    3    0    1
 -2        86      1827      2544      2572
 -1      3140    3    0    1
 -2      1391       871       879      2044
 -1      3141    3    0    1
 -2       971       975      2193      2233
 -1      3142    3    0    1
 -2      1625      1663      2012      2052
 -1      3143    3    0    1
 -2      2086      1299      2389      2525
 -1      3144    3    0    1
 -2      1353      1655      1781      1997
 -1      3145    3    0    1
 -2       672      1267       671      1265
 -1      3146    3    0    1
 -2      1010      1267       672      1265
 -1      3147    3    0    1
 -2       748       754      1301      1841
 -1      3148    3    0    1
 -2       668      1268       667      1260
 -1      3149    3    0    1
 -2      1007      1268       668      1260
 -1      3150    3    0    1
 -2      1797      1585      2131      2481
 -1      3151    3    0    1
 -2      1445      1421      1455      2990
 -1      3152    3    0    1
 -2       374       376      2988      3096
 -1      3153    3    0    1
 -2      1424      1420      1450      2961
 -1      3154    3    0    1
 -2       682       671       675      1270
 -1      3155    3    0    1
 -2      1011       671      1266      1270
 -1      3156    3    0    1
 -2       675       671      1011      1270
 -1      3157    3    0    1
 -2      2066      1890      2079      2419
 -1      3158    3    0    1
 -2       699      1026      1274      1276
 -1      3159    3    0    1
 -2       728       731      1042      1280
 -1      3160    3    0    1
 -2      1388      1127      2162      2520
 -1      3161    3    0    1
 -2       251       238      1070      1975
 -1      3162    3    0    1
 -2      1043       735       736      2210
 -1      3163    3    0    1
 -2      1019       701      1028      1277
 -1      3164    3    0    1
 -2       700       706      1279      2137
 -1      3165    3    0    1
 -2      1092       823      1979      2255
 -1      3166    3    0    1
 -2      2908      2897      1451      3074
 -1      3167    3    0    1
 -2      2892      2856      3045      3090
 -1      3168    3    0    1
 -2       738       214      2942      2943
 -1      3169    3    0    1
 -2      2614      2771      2851      2876
 -1      3170    3    0    1
 -2      3061      1428      1495      3080
 -1      3171    3    0    1
 -2      2942      2943      2951      2975
 -1      3172    3    0    1
 -2      1153         1      2918      2946
 -1      3173    3    0    1
 -2       699      1026      1276      1279
 -1      3174    3    0    1
 -2       705       699      1276      1279
 -1      3175    3    0    1
 -2        39       391      1579      1901
 -1      3176    3    0    1
 -2      1571      1888      1942      2360
 -1      3177    3    0    1
 -2       695       700       706      1279
 -1      3178    3    0    1
 -2       700       695      1026      1279
 -1      3179    3    0    1
 -2       719      1291      1286      1038
 -1      3180    3    0    1
 -2      1038       719      1284      1286
 -1      3181    3    0    1
 -2       729       723      1044      1287
 -1      3182    3    0    1
 -2       198       210       723      1287
 -1      3183    3    0    1
 -2       202       201       721      1285
 -1      3184    3    0    1
 -2       721      1041      1283      1285
 -1      3185    3    0    1
 -2       202       721      1283      1285
 -1      3186    3    0    1
 -2       210       198       723      1286
 -1      3187    3    0    1
 -2       723      1038      1284      1286
 -1      3188    3    0    1
 -2       210       723      1284      1286
 -1      3189    3    0    1
 -2       198       723       729      1287
 -1      3190    3    0    1
 -2       198       729      1034      1287
 -1      3191    3    0    1
 -2       734       210       211      1287
 -1      3192    3    0    1
 -2       210       734       723      1287
 -1      3193    3    0    1
 -2       721      1041      1285      1288
 -1      3194    3    0    1
 -2       722       721      1285      1288
 -1      3195    3    0    1
 -2       205       722       413      1288
 -1      3196    3    0    1
 -2       721       205      1041      1288
 -1      3197    3    0    1
 -2       722       205       721      1288
 -1      3198    3    0    1
 -2      2123      2029      2182      2264
 -1      3199    3    0    1
 -2       725       728      1281      1289
 -1      3200    3    0    1
 -2      1093       278      1748      2668
 -1      3201    3    0    1
 -2      1036      1289       716      1281
 -1      3202    3    0    1
 -2       728       351      1040      1289
 -1      3203    3    0    1
 -2       282       373      1096      2372
 -1      3204    3    0    1
 -2       729       723      1286      1291
 -1      3205    3    0    1
 -2       333       414       723      1291
 -1      3206    3    0    1
 -2       723       414      1038      1291
 -1      3207    3    0    1
 -2       216       755       752      1292
 -1      3208    3    0    1
 -2       756       221       749      1297
 -1      3209    3    0    1
 -2       216      1297       749       221
 -1      3210    3    0    1
 -2       218       758       747      1298
 -1      3211    3    0    1
 -2      1964       915      2025      2465
 -1      3212    3    0    1
 -2      1693      1702      1751      2243
 -1      3213    3    0    1
 -2       363       223       749      1299
 -1      3214    3    0    1
 -2       749       223      1054      1299
 -1      3215    3    0    1
 -2      1174        25      2025      2225
 -1      3216    3    0    1
 -2      1889       914      2697      2804
 -1      3217    3    0    1
 -2      2397      2437      2591      2750
 -1      3218    3    0    1
 -2      1048      1299       740      1293
 -1      3219    3    0    1
 -2      2015      2397      2537      2750
 -1      3220    3    0    1
 -2      1290      2024      1412      3088
 -1      3221    3    0    1
 -2      1412      2024      3028      3073
 -1      3222    3    0    1
 -2       344      1479      3070      3080
 -1      3223    3    0    1
 -2      2940      2977      2978      2984
 -1      3224    3    0    1
 -2       742       748       754      1301
 -1      3225    3    0    1
 -2      1296       747      1049      1301
 -1      3226    3    0    1
 -2       742      1052       748      1301
 -1      3227    3    0    1
 -2      1052       742      1049      1301
 -1      3228    3    0    1
 -2       742      1296      1049      1301
 -1      3229    3    0    1
 -2      1049       747      1052      1301
 -1      3230    3    0    1
 -2       223       755       227      1302
 -1      3231    3    0    1
 -2       755       223       752      1302
 -1      3232    3    0    1
 -2      1081       796      1082      1316
 -1      3233    3    0    1
 -2       765      1310      1067       778
 -1      3234    3    0    1
 -2       252       797      1073      1314
 -1      3235    3    0    1
 -2      2126      1564      2177      2178
 -1      3236    3    0    1
 -2      1064       764      1304      1307
 -1      3237    3    0    1
 -2       765      1313       764       778
 -1      3238    3    0    1
 -2       767      1311       775       766
 -1      3239    3    0    1
 -2      1061      1311      1066       767
 -1      3240    3    0    1
 -2       767      1311      1066       775
 -1      3241    3    0    1
 -2      2945      2947      2971      2990
 -1      3242    3    0    1
 -2      1712      1770      1855      2289
 -1      3243    3    0    1
 -2      1658      1617      1678      1679
 -1      3244    3    0    1
 -2      1795      1893      1646       409
 -1      3245    3    0    1
 -2      1028      1776      1886      2070
 -1      3246    3    0    1
 -2       288       285      1095      1610
 -1      3247    3    0    1
 -2       765      1310       764      1305
 -1      3248    3    0    1
 -2      1322       268      1718      2255
 -1      3249    3    0    1
 -2       767      1311       766      1308
 -1      3250    3    0    1
 -2      1061      1311       767      1308
 -1      3251    3    0    1
 -2      2195      1896      2353      2501
 -1      3252    3    0    1
 -2      1312      2857      1419      3077
 -1      3253    3    0    1
 -2      2203      2723      1417      3077
 -1      3254    3    0    1
 -2      2972      1247      3015      3017
 -1      3255    3    0    1
 -2       388      1611      1665      2468
 -1      3256    3    0    1
 -2      2087      1884      2263      2315
 -1      3257    3    0    1
 -2       318       319      2291      2774
 -1      3258    3    0    1
 -2       241      1799      1959      1973
 -1      3259    3    0    1
 -2       778       764       772      1313
 -1      3260    3    0    1
 -2      1064       764      1307      1313
 -1      3261    3    0    1
 -2       772       764      1064      1313
 -1      3262    3    0    1
 -2       789      1317       790      1081
 -1      3263    3    0    1
 -2       796       255       806      1316
 -1      3264    3    0    1
 -2       256       255       796      1316
 -1      3265    3    0    1
 -2      1445      1455      1505      2990
 -1      3266    3    0    1
 -2       790      1325      1318       789
 -1      3267    3    0    1
 -2      1998      1989      2030      2065
 -1      3268    3    0    1
 -2      1564      1813      1829      2493
 -1      3269    3    0    1
 -2      1623      2271      2287      2622
 -1      3270    3    0    1
 -2      1076      1321       791      1319
 -1      3271    3    0    1
 -2       222      1646      1863      1893
 -1      3272    3    0    1
 -2      1073      1322       787      1314
 -1      3273    3    0    1
 -2      3060      1486      3084      3086
 -1      3274    3    0    1
 -2      1469       428      1486      3086
 -1      3275    3    0    1
 -2       344      3070      1495      3080
 -1      3276    3    0    1
 -2      2250      1312      2857      1419
 -1      3277    3    0    1
 -2       376       374      1491      3089
 -1      3278    3    0    1
 -2      1451      1413      2974      3013
 -1      3279    3    0    1
 -2      1323      1078      2847      3086
 -1      3280    3    0    1
 -2      3031      3050      1469      3086
 -1      3281    3    0    1
 -2      1418      2203      3031      3086
 -1      3282    3    0    1
 -2      1698      2147      2270      2417
 -1      3283    3    0    1
 -2      1708      1928      1954      1971
 -1      3284    3    0    1
 -2       791       795       802      1324
 -1      3285    3    0    1
 -2      1320       796      1075      1324
 -1      3286    3    0    1
 -2       796       261      1077      1324
 -1      3287    3    0    1
 -2       791      1077       795      1324
 -1      3288    3    0    1
 -2      1077       791      1075      1324
 -1      3289    3    0    1
 -2       791      1320      1075      1324
 -1      3290    3    0    1
 -2      1075       796      1077      1324
 -1      3291    3    0    1
 -2       789      1318      1074      1325
 -1      3292    3    0    1
 -2      1083       789      1074      1325
 -1      3293    3    0    1
 -2       827       281       284      1329
 -1      3294    3    0    1
 -2       281       827       824      1329
 -1      3295    3    0    1
 -2      1089      1332       818      1093
 -1      3296    3    0    1
 -2       277       818      1089      1330
 -1      3297    3    0    1
 -2       279       275       820      1331
 -1      3298    3    0    1
 -2      1088      1335       820      1090
 -1      3299    3    0    1
 -2       279       820      1088      1331
 -1      3300    3    0    1
 -2       136       135      1245      2616
 -1      3301    3    0    1
 -2      2453       936      2540      2583
 -1      3302    3    0    1
 -2       817       818      1330      1332
 -1      3303    3    0    1
 -2       396       278       817      1332
 -1      3304    3    0    1
 -2      1089      1332       815      1330
 -1      3305    3    0    1
 -2       818       278      1093      1332
 -1      3306    3    0    1
 -2       817       278       818      1332
 -1      3307    3    0    1
 -2      1084       824      1092      1333
 -1      3308    3    0    1
 -2       821       282       824      1333
 -1      3309    3    0    1
 -2       802      1785      2336      2398
 -1      3310    3    0    1
 -2      1623      2287      1875      2622
 -1      3311    3    0    1
 -2       824       282      1092      1333
 -1      3312    3    0    1
 -2       285       288       820      1335
 -1      3313    3    0    1
 -2      1088      1335       816      1331
 -1      3314    3    0    1
 -2       820       288      1090      1335
 -1      3315    3    0    1
 -2       824      1096      1087      1336
 -1      3316    3    0    1
 -2      1096       824      1087       821
 -1      3317    3    0    1
 -2       282       827       283      1336
 -1      3318    3    0    1
 -2       827       282       824      1336
 -1      3319    3    0    1
 -2      1087      1336       814      1329
 -1      3320    3    0    1
 -2       440       417      1747      2385
 -1      3321    3    0    1
 -2      1530      1623      1735      2135
 -1      3322    3    0    1
 -2      2105       634      2655      2664
 -1      3323    3    0    1
 -2      1334       822       823      2157
 -1      3324    3    0    1
 -2      1722      2189      2506      2523
 -1      3325    3    0    1
 -2      1706       248      2106      2293
 -1      3326    3    0    1
 -2      1570      1533      2224      2411
 -1      3327    3    0    1
 -2       364      2412      2681      2751
 -1      3328    3    0    1
 -2      2018      2104      2112      2251
 -1      3329    3    0    1
 -2        12       397      1529      1659
 -1      3330    3    0    1
 -2      1560      1982      2151      2152
 -1      3331    3    0    1
 -2      1057      1733      1893      1953
 -1      3332    3    0    1
 -2      2173      2002      2333      2821
 -1      3333    3    0    1
 -2      1647       415      1798      1844
 -1      3334    3    0    1
 -2      2194      2054      2390      2421
 -1      3335    3    0    1
 -2      1773      1730      1958      2212
 -1      3336    3    0    1
 -2      1775      1805      2555      2576
 -1      3337    3    0    1
 -2      1698      2357      2450      2698
 -1      3338    3    0    1
 -2      1710      1802      1964      2595
 -1      3339    3    0    1
 -2       471       832      2034      2690
 -1      3340    3    0    1
 -2       839       840      1793      2114
 -1      3341    3    0    1
 -2      1523      1620      1720      1899
 -1      3342    3    0    1
 -2       191       355      1030      1848
 -1      3343    3    0    1
 -2       759       736      1826      1868
 -1      3344    3    0    1
 -2       857      1148      1371      2259
 -1      3345    3    0    1
 -2      1322      1079       798      1538
 -1      3346    3    0    1
 -2       917      2763      2777      2799
 -1      3347    3    0    1
 -2       832      2034      2172      2372
 -1      3348    3    0    1
 -2      1998      1536      2030      2221
 -1      3349    3    0    1
 -2      1672       754      1898      2143
 -1      3350    3    0    1
 -2      1177       912      2216      2689
 -1      3351    3    0    1
 -2      1788      1741      2253      2836
 -1      3352    3    0    1
 -2      1032      2104      2288      2344
 -1      3353    3    0    1
 -2      1851      1870      2199      2323
 -1      3354    3    0    1
 -2      1730      1544      1773      1833
 -1      3355    3    0    1
 -2       962      1941      2499      2588
 -1      3356    3    0    1
 -2       567       568       954      2038
 -1      3357    3    0    1
 -2      1071      1706      1820      2293
 -1      3358    3    0    1
 -2       937      2583      2653      2703
 -1      3359    3    0    1
 -2      1672      1898      2007      2143
 -1      3360    3    0    1
 -2      2151      1560      2152      2311
 -1      3361    3    0    1
 -2      1594      1567      1705      1524
 -1      3362    3    0    1
 -2      1033      1590      2400      2824
 -1      3363    3    0    1
 -2       751      1054      1289      1583
 -1      3364    3    0    1
 -2      2663        41      2780      2786
 -1      3365    3    0    1
 -2      1786      1985      2208      2620
 -1      3366    3    0    1
 -2      1706      1311      1974      2106
 -1      3367    3    0    1
 -2      1536      1586      1689      1998
 -1      3368    3    0    1
 -2      2236      2054      2581      2709
 -1      3369    3    0    1
 -2      1223      2046      2334      2534
 -1      3370    3    0    1
 -2      1602      1562      1869      2480
 -1      3371    3    0    1
 -2      1546      1988      2012      2237
 -1      3372    3    0    1
 -2       819       826      2026      2343
 -1      3373    3    0    1
 -2        43       423       930      1531
 -1      3374    3    0    1
 -2       868       881      2446      2507
 -1      3375    3    0    1
 -2      3091      1427      3017      3018
 -1      3376    3    0    1
 -2      1931      1838      2724      2759
 -1      3377    3    0    1
 -2      1684      1584      1737      1777
 -1      3378    3    0    1
 -2      1067      1811      1873      2283
 -1      3379    3    0    1
 -2      1359      1362      1689      1690
 -1      3380    3    0    1
 -2       122       345       979      2758
 -1      3381    3    0    1
 -2      1399      1103      1684      1777
 -1      3382    3    0    1
 -2      1870      1526      2151      2199
 -1      3383    3    0    1
 -2       285       403      1094      1610
 -1      3384    3    0    1
 -2      1394       870      1128      1779
 -1      3385    3    0    1
 -2      1226       579       586      1941
 -1      3386    3    0    1
 -2      1895      1926      2114      2369
 -1      3387    3    0    1
 -2       386       305      1356      1930
 -1      3388    3    0    1
 -2      1445      1455      3058      3076
 -1      3389    3    0    1
 -2      2260      2148      2262      2439
 -1      3390    3    0    1
 -2       439      1119      2384      2401
 -1      3391    3    0    1
 -2       610      1847      1858      2066
 -1      3392    3    0    1
 -2      2093       926      2812      2813
 -1      3393    3    0    1
 -2      1522      2047      2082      2279
 -1      3394    3    0    1
 -2      1594      1523      1720      1899
 -1      3395    3    0    1
 -2       248      1311      1706      2106
 -1      3396    3    0    1
 -2      1624      1615      1823      1830
 -1      3397    3    0    1
 -2       329      2194      2421      2709
 -1      3398    3    0    1
 -2      1095      1610      2088      2165
 -1      3399    3    0    1
 -2      2236       675      2581      2608
 -1      3400    3    0    1
 -2       761      2950      2955      2989
 -1      3401    3    0    1
 -2      1547      1612      1673      2478
 -1      3402    3    0    1
 -2       687      2396      2518      2775
 -1      3403    3    0    1
 -2       413      1288      1899      2058
 -1      3404    3    0    1
 -2      1697      1638      2167      2187
 -1      3405    3    0    1
 -2       608      1236      2452      2651
 -1      3406    3    0    1
 -2       334       333      2184      2422
 -1      3407    3    0    1
 -2      2872      2853      2913      3041
 -1      3408    3    0    1
 -2       137       347      2772      2829
 -1      3409    3    0    1
 -2       177      2045      2281      2433
 -1      3410    3    0    1
 -2       413       205      1540      2023
 -1      3411    3    0    1
 -2       560       938      1212      1839
 -1      3412    3    0    1
 -2      1025       185      2041      2279
 -1      3413    3    0    1
 -2       409       226      1052      1733
 -1      3414    3    0    1
 -2      1380       324       446      1691
 -1      3415    3    0    1
 -2      2003      1683      2161      2848
 -1      3416    3    0    1
 -2       610       975      2193      2302
 -1      3417    3    0    1
 -2      1945      1082      2072      2368
 -1      3418    3    0    1
 -2      1025       185      1029      1729
 -1      3419    3    0    1
 -2      2319      1977      2352      2707
 -1      3420    3    0    1
 -2      1541      1666      1686      1701
 -1      3421    3    0    1
 -2       436      1128      1612      1673
 -1      3422    3    0    1
 -2      1547      1562      1709      2478
 -1      3423    3    0    1
 -2      1581      1838      2051      2084
 -1      3424    3    0    1
 -2      1235       122      2801      2838
 -1      3425    3    0    1
 -2      2565      2895      3053      1474
 -1      3426    3    0    1
 -2      1052       748      1301      1841
 -1      3427    3    0    1
 -2      1406       304       442      1619
 -1      3428    3    0    1
 -2      1941       579      2499      2529
 -1      3429    3    0    1
 -2        17       907      2448      2711
 -1      3430    3    0    1
 -2      1342       835       836      1778
 -1      3431    3    0    1
 -2      1799       241      1811      1973
 -1      3432    3    0    1
 -2      2544        86      2699      2803
 -1      3433    3    0    1
 -2      1619      1616      1909      2090
 -1      3434    3    0    1
 -2      1571      1738      1888      2244
 -1      3435    3    0    1
 -2       248       243      2106      2293
 -1      3436    3    0    1
 -2      1761      1942      1959      1973
 -1      3437    3    0    1
 -2       303      1385      1113      1927
 -1      3438    3    0    1
 -2       860      1150      1373      1770
 -1      3439    3    0    1
 -2       333      1043      1044      2210
 -1      3440    3    0    1
 -2      1783       289      1896      2674
 -1      3441    3    0    1
 -2      1628      1645      1670      1726
 -1      3442    3    0    1
 -2       278      1748      1887      2455
 -1      3443    3    0    1
 -2       847       848      1690      2563
 -1      3444    3    0    1
 -2      1796      1614      2300      2489
 -1      3445    3    0    1
 -2      1790      2027      2073      2117
 -1      3446    3    0    1
 -2       190       416      1026      1845
 -1      3447    3    0    1
 -2      1979      1092      1980      2129
 -1      3448    3    0    1
 -2      2204      2249      2319      2352
 -1      3449    3    0    1
 -2      1553      1833      1864      1882
 -1      3450    3    0    1
 -2       417       440      1747      2297
 -1      3451    3    0    1
 -2      1635      2131      2166      2266
 -1      3452    3    0    1
 -2      1353       843      1352      1655
 -1      3453    3    0    1
 -2      1601      1539      1694      1750
 -1      3454    3    0    1
 -2      1603      1688      1824      2211
 -1      3455    3    0    1
 -2      1051       408      1622      1765
 -1      3456    3    0    1
 -2      1267      1014       682      2236
 -1      3457    3    0    1
 -2      1642      1681      2327      2531
 -1      3458    3    0    1
 -2      1805      1742      2555      2576
 -1      3459    3    0    1
 -2      1667      1554      1739      1792
 -1      3460    3    0    1
 -2      1333       372      1818      2078
 -1      3461    3    0    1
 -2       212       351      1042      2694
 -1      3462    3    0    1
 -2      1553      1584      1740      2011
 -1      3463    3    0    1
 -2      1544      1833      1864      2011
 -1      3464    3    0    1
 -2      1358      1355      2273      2330
 -1      3465    3    0    1
 -2      1627      1690      1807      2264
 -1      3466    3    0    1
 -2       527       534       526      3020
 -1      3467    3    0    1
 -2      1593      1526      1856      1891
 -1      3468    3    0    1
 -2      1821      1525      1865      1936
 -1      3469    3    0    1
 -2       462       487      1889      2424
 -1      3470    3    0    1
 -2      1870      1851      2199      2311
 -1      3471    3    0    1
 -2       268      1322      1978      2255
 -1      3472    3    0    1
 -2      1677      1707      1732      1994
 -1      3473    3    0    1
 -2       894      1150      1770      2033
 -1      3474    3    0    1
 -2      1568      1767      1822      1855
 -1      3475    3    0    1
 -2      1674      1609      2607      2640
 -1      3476    3    0    1
 -2       679       654      2298      2661
 -1      3477    3    0    1
 -2       855      1147      1369      1969
 -1      3478    3    0    1
 -2      1902      1600      1943      2354
 -1      3479    3    0    1
 -2       404      2381      2434      2601
 -1      3480    3    0    1
 -2      1596      1705      1909      2231
 -1      3481    3    0    1
 -2      1757      1762      2377      2404
 -1      3482    3    0    1
 -2       798      1538      2035      2255
 -1      3483    3    0    1
 -2      1815      2276      2427      2428
 -1      3484    3    0    1
 -2      1138      1380      1632      1691
 -1      3485    3    0    1
 -2      2176       964      2476      2485
 -1      3486    3    0    1
 -2      1584      1544      1684      1740
 -1      3487    3    0    1
 -2       560      1839      2326      2409
 -1      3488    3    0    1
 -2      1692      1763      2150      2500
 -1      3489    3    0    1
 -2      1905      2128      2259      2329
 -1      3490    3    0    1
 -2      1652      2337      2382      2395
 -1      3491    3    0    1
 -2       227       207      1289      1583
 -1      3492    3    0    1
 -2       908       377      2449      2809
 -1      3493    3    0    1
 -2       866      1136      1377      2243
 -1      3494    3    0    1
 -2      1657      1640      1674      1834
 -1      3495    3    0    1
 -2      1648      1641      1916      2047
 -1      3496    3    0    1
 -2      1705      1721      1909      2090
 -1      3497    3    0    1
 -2      1693      1123      1702      2243
 -1      3498    3    0    1
 -2         2       449      2918      2946
 -1      3499    3    0    1
 -2      1335      1090       826      2026
 -1      3500    3    0    1
 -2       264       265      1718      1800
 -1      3501    3    0    1
 -2       939       423      1188      2100
 -1      3502    3    0    1
 -2      1002       342      1714      2733
 -1      3503    3    0    1
 -2      1783      1896      2467      2501
 -1      3504    3    0    1
 -2      1646      1301      1814      1841
 -1      3505    3    0    1
 -2       288      1090      1335      2014
 -1      3506    3    0    1
 -2      1067      1310      1782      2190
 -1      3507    3    0    1
 -2      1247       986       631      1699
 -1      3508    3    0    1
 -2       331      1029      2144      2245
 -1      3509    3    0    1
 -2      1877       819      2026      2343
 -1      3510    3    0    1
 -2      1970       730      2039      2392
 -1      3511    3    0    1
 -2      2428       586      2588      2807
 -1      3512    3    0    1
 -2       759      1826      2340      2660
 -1      3513    3    0    1
 -2       849      1399       887      1777
 -1      3514    3    0    1
 -2      1772      1851      2224      2311
 -1      3515    3    0    1
 -2      1144      1364      2339      2659
 -1      3516    3    0    1
 -2      2406       977      2415      2684
 -1      3517    3    0    1
 -2       311       291      1849      2044
 -1      3518    3    0    1
 -2       318       998      2278      2291
 -1      3519    3    0    1
 -2      1949      1757      2500      2736
 -1      3520    3    0    1
 -2      1612      1128      1688      1779
 -1      3521    3    0    1
 -2       107       348      1656      2482
 -1      3522    3    0    1
 -2      1609      1960      2097      2299
 -1      3523    3    0    1
 -2       851       889      1145      1682
 -1      3524    3    0    1
 -2      1045       207      1302      2102
 -1      3525    3    0    1
 -2      2144      2054      2245      2608
 -1      3526    3    0    1
 -2      2069      2501      2674      2735
 -1      3527    3    0    1
 -2       826      1746      2026      2343
 -1      3528    3    0    1
 -2      3026      1426      1442      3065
 -1      3529    3    0    1
 -2       288       289      1783      2165
 -1      3530    3    0    1
 -2       655      2298      2310      2486
 -1      3531    3    0    1
 -2      1369      1147      1937      1969
 -1      3532    3    0    1
 -2      2616      1245      2664      2670
 -1      3533    3    0    1
 -2      1620      1649      1672      1723
 -1      3534    3    0    1
 -2      1607       396      2268      2277
 -1      3535    3    0    1
 -2      1064       238      1975      2361
 -1      3536    3    0    1
 -2      1860       896      2191      2385
 -1      3537    3    0    1
 -2      3044      3029      3064      3076
 -1      3538    3    0    1
 -2      1525      1865      1806      2557
 -1      3539    3    0    1
 -2      1875      1780      1879      2622
 -1      3540    3    0    1
 -2       923       507      2526      2822
 -1      3541    3    0    1
 -2      2397      2015      2437      2750
 -1      3542    3    0    1
 -2      1448      1460      1496      2974
 -1      3543    3    0    1
 -2      1223       579      2046      2499
 -1      3544    3    0    1
 -2      2222      2076      2596      2637
 -1      3545    3    0    1
 -2      1332      1877      1938      2495
 -1      3546    3    0    1
 -2       735       736      2210      2546
 -1      3547    3    0    1
 -2       222       409      1052      1646
 -1      3548    3    0    1
 -2       310       316      1988      2012
 -1      3549    3    0    1
 -2      2213      1621      2589      2677
 -1      3550    3    0    1
 -2       265      1325      1706      1800
 -1      3551    3    0    1
 -2      2068       336      2224      2371
 -1      3552    3    0    1
 -2      1731      1069      1956      2205
 -1      3553    3    0    1
 -2      1038       412      1955      1986
 -1      3554    3    0    1
 -2      2226       383      2463      2514
 -1      3555    3    0    1
 -2       712      1032      1590      2288
 -1      3556    3    0    1
 -2      1586      1536      1689      1925
 -1      3557    3    0    1
 -2      1637      1984      2232      2242
 -1      3558    3    0    1
 -2      2147      1537      2270      2417
 -1      3559    3    0    1
 -2       925      2351      2425      2496
 -1      3560    3    0    1
 -2      1550      1677      2725      2817
 -1      3561    3    0    1
 -2       351      1040      1289      2200
 -1      3562    3    0    1
 -2       423      1188      2100      2792
 -1      3563    3    0    1
 -2       851      1145      1365      1682
 -1      3564    3    0    1
 -2      1012       678      1935      2070
 -1      3565    3    0    1
 -2      1979      1333      2129      2157
 -1      3566    3    0    1
 -2      1741      1788      2253      2585
 -1      3567    3    0    1
 -2      1619      1616      1862      1909
 -1      3568    3    0    1
 -2      1661      1896      2195      2501
 -1      3569    3    0    1
 -2      1691      1630      2142      2153
 -1      3570    3    0    1
 -2       826      1746      2081      2524
 -1      3571    3    0    1
 -2      1355      1358      1657      1834
 -1      3572    3    0    1
 -2      1796      1797      2131      2481
 -1      3573    3    0    1
 -2      1392      1693      1756      1774
 -1      3574    3    0    1
 -2       634      2284      2664      2670
 -1      3575    3    0    1
 -2      1547      1537      1794      2270
 -1      3576    3    0    1
 -2       414       333      1044      2210
 -1      3577    3    0    1
 -2      2181      1905      2229      2491
 -1      3578    3    0    1
 -2      2025        25      2127      2225
 -1      3579    3    0    1
 -2      2532        75      2541      2686
 -1      3580    3    0    1
 -2      1339      1097      1828      2618
 -1      3581    3    0    1
 -2      1746      1335      2014      2408
 -1      3582    3    0    1
 -2      1647      1055      2057      2143
 -1      3583    3    0    1
 -2      2214       772      2602      2826
 -1      3584    3    0    1
 -2       783      1069      1731      2466
 -1      3585    3    0    1
 -2      1041       730      2039      2366
 -1      3586    3    0    1
 -2       483       490      2216      2465
 -1      3587    3    0    1
 -2       120       107      1224      1656
 -1      3588    3    0    1
 -2      1310      1067       778      2190
 -1      3589    3    0    1
 -2      1662      2169      2530      2797
 -1      3590    3    0    1
 -2      1620      1523      1898      1899
 -1      3591    3    0    1
 -2       412      1955      1986      2021
 -1      3592    3    0    1
 -2      1867      1527      2028      2110
 -1      3593    3    0    1
 -2      2383      2305      2454      2638
 -1      3594    3    0    1
 -2      1671      1549      1676      2160
 -1      3595    3    0    1
 -2      1267      2236      2581      2709
 -1      3596    3    0    1
 -2       259      1675      1806      2113
 -1      3597    3    0    1
 -2      1268      1013       679      2423
 -1      3598    3    0    1
 -2        85      1211      2226      2365
 -1      3599    3    0    1
 -2      1618      1530      2114      2252
 -1      3600    3    0    1
 -2      2041       185      2337      2382
 -1      3601    3    0    1
 -2       954      2476      2485      2624
 -1      3602    3    0    1
 -2      1301       411      1646      1814
 -1      3603    3    0    1
 -2      1596      1705      1721      1909
 -1      3604    3    0    1
 -2       879       871      1878      2044
 -1      3605    3    0    1
 -2      1733      1052      1795      2022
 -1      3606    3    0    1
 -2      1626      1553      1740      1864
 -1      3607    3    0    1
 -2      1658      1679      1812      2220
 -1      3608    3    0    1
 -2      1524      1151      1567      1616
 -1      3609    3    0    1
 -2       849      1143      1363      1737
 -1      3610    3    0    1
 -2      2240      1270      2262      2439
 -1      3611    3    0    1
 -2        18      1818      2078      2101
 -1      3612    3    0    1
 -2      1995      1691      2142      2394
 -1      3613    3    0    1
 -2      1628      1564      1726      2492
 -1      3614    3    0    1
 -2      1617      1679      2220      2391
 -1      3615    3    0    1
 -2      1560      1701      1982      2079
 -1      3616    3    0    1
 -2      1655      1593      1856      1967
 -1      3617    3    0    1
 -2       925       510      1188      2497
 -1      3618    3    0    1
 -2      1589      1628      1726      2271
 -1      3619    3    0    1
 -2      1237       610      1847      1858
 -1      3620    3    0    1
 -2      1643      1827      2544      2703
 -1      3621    3    0    1
 -2      1417      1418      3031      1468
 -1      3622    3    0    1
 -2      2284      2558      2594      2615
 -1      3623    3    0    1
 -2       409       222      1057      1893
 -1      3624    3    0    1
 -2       799      1323      1538      2248
 -1      3625    3    0    1
 -2      1860       896      2049      2191
 -1      3626    3    0    1
 -2      1829       299      1921      2493
 -1      3627    3    0    1
 -2      1159      1801      2124      2552
 -1      3628    3    0    1
 -2      1577      1780      2062      2267
 -1      3629    3    0    1
 -2      1534      1671      1957      2004
 -1      3630    3    0    1
 -2      1892      1385      1927      2313
 -1      3631    3    0    1
 -2        75       951      1210      2686
 -1      3632    3    0    1
 -2      1835      1929      1962      1996
 -1      3633    3    0    1
 -2      1663      1680      1743      2108
 -1      3634    3    0    1
 -2      1237      1858      2403      2603
 -1      3635    3    0    1
 -2      1302      1058       759      1745
 -1      3636    3    0    1
 -2      1533       336      2068      2737
 -1      3637    3    0    1
 -2      2413       592      2509      2543
 -1      3638    3    0    1
 -2      2332      2188      2644      2832
 -1      3639    3    0    1
 -2      1270      2120      2262      2439
 -1      3640    3    0    1
 -2      2858      2179      2877      3058
 -1      3641    3    0    1
 -2      1598      1981      2085      2308
 -1      3642    3    0    1
 -2       415      1647      1764      2341
 -1      3643    3    0    1
 -2      1884      1624      2087      2089
 -1      3644    3    0    1
 -2       404       241      1067      2154
 -1      3645    3    0    1
 -2      2145      1358      2273      2330
 -1      3646    3    0    1
 -2      1809      2136      2579      2833
 -1      3647    3    0    1
 -2      1793      1530      1903      2114
 -1      3648    3    0    1
 -2       306      1142       388      1665
 -1      3649    3    0    1
 -2      1735       391      2093      2138
 -1      3650    3    0    1
 -2       961       584      1224      2247
 -1      3651    3    0    1
 -2       320      1001       997      1791
 -1      3652    3    0    1
 -2       306      1102      1354      1665
 -1      3653    3    0    1
 -2       951      1210      2686      2789
 -1      3654    3    0    1
 -2      1857      1638      1995      2142
 -1      3655    3    0    1
 -2      1567      1966      2335      2462
 -1      3656    3    0    1
 -2      1785      1992      2192      2336
 -1      3657    3    0    1
 -2      1681      1810      2327      2531
 -1      3658    3    0    1
 -2      1987      2046      2334      2399
 -1      3659    3    0    1
 -2      1564      1589      1726      1843
 -1      3660    3    0    1
 -2      1719      1555      2111      2437
 -1      3661    3    0    1
 -2      2188      2332      2791      2832
 -1      3662    3    0    1
 -2      1523      1594      1771      2231
 -1      3663    3    0    1
 -2      2128      1905      2259      2315
 -1      3664    3    0    1
 -2      1612      1547      1709      2478
 -1      3665    3    0    1
 -2       371       269      1324      2063
 -1      3666    3    0    1
 -2      1554      1739      2257      2294
 -1      3667    3    0    1
 -2      2594      1621      2615      2767
 -1      3668    3    0    1
 -2        25       915      1174      2025
 -1      3669    3    0    1
 -2      1781      1655      1856      1891
 -1      3670    3    0    1
 -2      1211      2226      2365      2514
 -1      3671    3    0    1
 -2       416       195      1845      2112
 -1      3672    3    0    1
 -2       823      1979      2035      2157
 -1      3673    3    0    1
 -2      2300      1582      2489      2605
 -1      3674    3    0    1
 -2      1257      1000      1852      2516
 -1      3675    3    0    1
 -2      2164      1065      2248      2723
 -1      3676    3    0    1
 -2      2656      2868      2869      2889
 -1      3677    3    0    1
 -2       312       299      1921      1952
 -1      3678    3    0    1
 -2      1705      1524      1909      2231
 -1      3679    3    0    1
 -2      1640      1657      1759      1834
 -1      3680    3    0    1
 -2      1564      1843      2126      2177
 -1      3681    3    0    1
 -2      1593      1526      1891      1967
 -1      3682    3    0    1
 -2       878      1134      1707      1754
 -1      3683    3    0    1
 -2      2374       941      2498      2743
 -1      3684    3    0    1
 -2      1604      1764      1798      1939
 -1      3685    3    0    1
 -2       413      1540      2037      2058
 -1      3686    3    0    1
 -2      1614      1550      1871      2350
 -1      3687    3    0    1
 -2       125       126       978      1716
 -1      3688    3    0    1
 -2      1678      1617      1867      1924
 -1      3689    3    0    1
 -2      1575      1761      2229      2491
 -1      3690    3    0    1
 -2      1291       730      1970      2392
 -1      3691    3    0    1
 -2      1800      1820      1749      1325
 -1      3692    3    0    1
 -2       520       929      2673      2761
 -1      3693    3    0    1
 -2       136      2431      2464      2474
 -1      3694    3    0    1
 -2      2184       333      2210      2422
 -1      3695    3    0    1
 -2      1854      1900      2037      2314
 -1      3696    3    0    1
 -2       268       264      1322      1718
 -1      3697    3    0    1
 -2       784       783      2293      2720
 -1      3698    3    0    1
 -2       371      2416      2611      2796
 -1      3699    3    0    1
 -2       241      1067      1799      1811
 -1      3700    3    0    1
 -2      2351      1175      2425      2804
 -1      3701    3    0    1
 -2       259      1806      1808      2032
 -1      3702    3    0    1
 -2      2519      2554      2744      2803
 -1      3703    3    0    1
 -2      1914      1677      2162      2725
 -1      3704    3    0    1
 -2       259       263      1675      2113
 -1      3705    3    0    1
 -2       431      1397      2716      2814
 -1      3706    3    0    1
 -2      1849       291      1878      2044
 -1      3707    3    0    1
 -2       265      1706      1718      1800
 -1      3708    3    0    1
 -2      2381      1942      2410      2601
 -1      3709    3    0    1
 -2       407      1064      1313      2361
 -1      3710    3    0    1
 -2       446      1380      1691      2153
 -1      3711    3    0    1
 -2      2076      1606      2596      2637
 -1      3712    3    0    1
 -2      1725      1622      1765      2109
 -1      3713    3    0    1
 -2       248       243      1066      2106
 -1      3714    3    0    1
 -2       772      1310      2768      2826
 -1      3715    3    0    1
 -2      1763      1551      2150      2500
 -1      3716    3    0    1
 -2      2436      2060      2586      2853
 -1      3717    3    0    1
 -2       495      2441      2719      2834
 -1      3718    3    0    1
 -2       711       688      1018      2513
 -1      3719    3    0    1
 -2      2136      1654      2234      2579
 -1      3720    3    0    1
 -2      1575      1573      2263      2487
 -1      3721    3    0    1
 -2      1653      1574      1712      1830
 -1      3722    3    0    1
 -2      1609      2096      2607      2640
 -1      3723    3    0    1
 -2      1392       444       445      1774
 -1      3724    3    0    1
 -2      1345       837       838      2327
 -1      3725    3    0    1
 -2      1579      1901      1990      2748
 -1      3726    3    0    1
 -2       512       925      2425      2497
 -1      3727    3    0    1
 -2      1888      1685      1942      2360
 -1      3728    3    0    1
 -2      2041      2013      2047      2082
 -1      3729    3    0    1
 -2      2104      1876      2288      2344
 -1      3730    3    0    1
 -2      1842       241      1959      1973
 -1      3731    3    0    1
 -2       924      3062      1199      2380
 -1      3732    3    0    1
 -2      1614      1796      2350      2481
 -1      3733    3    0    1
 -2       205       413      1540      2037
 -1      3734    3    0    1
 -2      2095      2541      2685      2805
 -1      3735    3    0    1
 -2      1756      1697      1774      2187
 -1      3736    3    0    1
 -2      1542       778      2190      2675
 -1      3737    3    0    1
 -2      1678      1527      1867      2110
 -1      3738    3    0    1
 -2       226      1052      1733      2022
 -1      3739    3    0    1
 -2      1053      1312      2250      1419
 -1      3740    3    0    1
 -2       560       534       938      1839
 -1      3741    3    0    1
 -2      1043      1876      2104      2344
 -1      3742    3    0    1
 -2      1339       833       834      1828
 -1      3743    3    0    1
 -2       285      1094      1095      1610
 -1      3744    3    0    1
 -2       870       882      1138      1632
 -1      3745    3    0    1
 -2      1658      1812      1828      2220
 -1      3746    3    0    1
 -2      1386      1810       293      1112
 -1      3747    3    0    1
 -2      2029      1690      2182      2264
 -1      3748    3    0    1
 -2      1584      1684      1737      2317
 -1      3749    3    0    1
 -2      1352       308      1353      1781
 -1      3750    3    0    1
 -2      1698      2147      2417      2698
 -1      3751    3    0    1
 -2      1623      1875      1991      2138
 -1      3752    3    0    1
 -2      1730      1566      1958      2212
 -1      3753    3    0    1
 -2      1875      1879      2062      2138
 -1      3754    3    0    1
 -2       754      1672      1841      2143
 -1      3755    3    0    1
 -2      1083       808       807      1749
 -1      3756    3    0    1
 -2      1016      2170      2306      2639
 -1      3757    3    0    1
 -2      1881       536      2282      2380
 -1      3758    3    0    1
 -2      1649      1672      1897      1898
 -1      3759    3    0    1
 -2      1752      1989      2030      2031
 -1      3760    3    0    1
 -2      1366      1383      1670      2492
 -1      3761    3    0    1
 -2      1594       413      1899      2058
 -1      3762    3    0    1
 -2      1112      1386      1810      2285
 -1      3763    3    0    1
 -2       610       603       975      2302
 -1      3764    3    0    1
 -2      1586      1536      1925      2029
 -1      3765    3    0    1
 -2       989       992      2728      2729
 -1      3766    3    0    1
 -2      1602       320      1794      2256
 -1      3767    3    0    1
 -2      1117       861      2253      2265
 -1      3768    3    0    1
 -2      1398       305       386      1930
 -1      3769    3    0    1
 -2      1606       562      1827      2076
 -1      3770    3    0    1
 -2       808      1083      1636      1749
 -1      3771    3    0    1
 -2      1589      2159      2271      2287
 -1      3772    3    0    1
 -2      2232      1685      2359      2360
 -1      3773    3    0    1
 -2       663      1002      1005      2443
 -1      3774    3    0    1
 -2      1803      1586      2032      2113
 -1      3775    3    0    1
 -2       297       437      1684      2659
 -1      3776    3    0    1
 -2      1720      1540      1966      2023
 -1      3777    3    0    1
 -2       735      2077      2210      2429
 -1      3778    3    0    1
 -2      2347       907      2560      2690
 -1      3779    3    0    1
 -2       955       963      2476      2731
 -1      3780    3    0    1
 -2      1391       879      1878      2044
 -1      3781    3    0    1
 -2      2356        81      2412      2470
 -1      3782    3    0    1
 -2      1175       486      2425      2804
 -1      3783    3    0    1
 -2       875      1385      2313      2630
 -1      3784    3    0    1
 -2      1595       408      1644      1687
 -1      3785    3    0    1
 -2      2194      2390      2418      2421
 -1      3786    3    0    1
 -2      1083       808      1636      2072
 -1      3787    3    0    1
 -2      1562      1547      1709      2457
 -1      3788    3    0    1
 -2      2046      1847      2399      2419
 -1      3789    3    0    1
 -2      3041      2782      3056      1465
 -1      3790    3    0    1
 -2      2292      1633      2696      2698
 -1      3791    3    0    1
 -2       231      2921      3069      2979
 -1      3792    3    0    1
 -2      1806      1803      1865      2032
 -1      3793    3    0    1
 -2      1649      1672      1814      1897
 -1      3794    3    0    1
 -2      2140       651      2235      2460
 -1      3795    3    0    1
 -2      1429      1430      3062      1502
 -1      3796    3    0    1
 -2       896       863      2049      2191
 -1      3797    3    0    1
 -2       390      1775      2025      2127
 -1      3798    3    0    1
 -2      1649      1620      1672      1898
 -1      3799    3    0    1
 -2       988      1245      2616      2670
 -1      3800    3    0    1
 -2      1277      1028       702      1776
 -1      3801    3    0    1
 -2      1565      1544      2011      2212
 -1      3802    3    0    1
 -2      1807      2017      2156      2564
 -1      3803    3    0    1
 -2      1861      2268      2277      2483
 -1      3804    3    0    1
 -2      1301       411      1814      1897
 -1      3805    3    0    1
 -2       965      2050      2406      2543
 -1      3806    3    0    1
 -2       850      1400       888      1744
 -1      3807    3    0    1
 -2      1843      1726      1921      1952
 -1      3808    3    0    1
 -2      1711      1564      1829      1843
 -1      3809    3    0    1
 -2       369       370       939      2100
 -1      3810    3    0    1
 -2      1541      1666      1701      1982
 -1      3811    3    0    1
 -2       203      1458      1472      1485
 -1      3812    3    0    1
 -2      1949       331      2144      2304
 -1      3813    3    0    1
 -2      2761        54      2769      2778
 -1      3814    3    0    1
 -2      1526      1593      1611      2199
 -1      3815    3    0    1
 -2      1923      1598      2085      2308
 -1      3816    3    0    1
 -2      1921      1131      1952      2492
 -1      3817    3    0    1
 -2       627       634      2105      2664
 -1      3818    3    0    1
 -2       798      1322      1538      2255
 -1      3819    3    0    1
 -2      1538      1322      1718      2255
 -1      3820    3    0    1
 -2      1012       678      1269      1935
 -1      3821    3    0    1
 -2      1991      1623      2271      2287
 -1      3822    3    0    1
 -2      1479      1428      1495      3022
 -1      3823    3    0    1
 -2      1811      1799      1973      2107
 -1      3824    3    0    1
 -2      2031      1932      2055      2221
 -1      3825    3    0    1
 -2      1258      1968      2486      2912
 -1      3826    3    0    1
 -2      1972      1713      2434      2601
 -1      3827    3    0    1
 -2       531       538      2650      2717
 -1      3828    3    0    1
 -2       531       936      2453      2583
 -1      3829    3    0    1
 -2       972       126      1716      2362
 -1      3830    3    0    1
 -2      2059      1685      2067      2359
 -1      3831    3    0    1
 -2      1057      1731      1733      1953
 -1      3832    3    0    1
 -2      1847      2066      2399      2419
 -1      3833    3    0    1
 -2       123       338       977      2403
 -1      3834    3    0    1
 -2      1200       937       538      2650
 -1      3835    3    0    1
 -2       264       268      1636      1800
 -1      3836    3    0    1
 -2       463      2078      2098      2545
 -1      3837    3    0    1
 -2       331      1949      2377      2404
 -1      3838    3    0    1
 -2      2425       512      2497      2893
 -1      3839    3    0    1
 -2       342       327      2043      2733
 -1      3840    3    0    1
 -2      2104       195      2112      2251
 -1      3841    3    0    1
 -2      3045      1440      3075      3089
 -1      3842    3    0    1
 -2      1726      1564      1921      2492
 -1      3843    3    0    1
 -2       866       880      1136      2243
 -1      3844    3    0    1
 -2      1733      1753      1956      2505
 -1      3845    3    0    1
 -2      1568      1604      1644      1844
 -1      3846    3    0    1
 -2      1544      1730      1773      2212
 -1      3847    3    0    1
 -2      2843      2676      2912      3039
 -1      3848    3    0    1
 -2      1041      1816      2039      2392
 -1      3849    3    0    1
 -2      1826      1056      1863      2660
 -1      3850    3    0    1
 -2       297      1399      1103      1684
 -1      3851    3    0    1
 -2      2238       331      2337      2377
 -1      3852    3    0    1
 -2      1615      1653      1823      1830
 -1      3853    3    0    1
 -2       389      1541      2193      2233
 -1      3854    3    0    1
 -2      1775      2126      2127      2576
 -1      3855    3    0    1
 -2      1593      1655      1856      2000
 -1      3856    3    0    1
 -2      1613      1728      1887      1915
 -1      3857    3    0    1
 -2      1145       889      1634      1682
 -1      3858    3    0    1
 -2       408      1644      1687      1844
 -1      3859    3    0    1
 -2      1566      1700      1958      2212
 -1      3860    3    0    1
 -2       294      1349       295      1670
 -1      3861    3    0    1
 -2      1400       850      1104      1744
 -1      3862    3    0    1
 -2      1814       411      1863      1986
 -1      3863    3    0    1
 -2      1890      2068      2371      2534
 -1      3864    3    0    1
 -2      1551      1763      2376      2500
 -1      3865    3    0    1
 -2       426        53      2496      2831
 -1      3866    3    0    1
 -2      1083      1325      1636      1749
 -1      3867    3    0    1
 -2      1627       848      1690      2182
 -1      3868    3    0    1
 -2      1653      1712      1767      1855
 -1      3869    3    0    1
 -2       840       839      1793      1903
 -1      3870    3    0    1
 -2      1762      1576      1766      2320
 -1      3871    3    0    1
 -2      2674       400      2735      2793
 -1      3872    3    0    1
 -2       120       119      2567      2801
 -1      3873    3    0    1
 -2      1065      1323      2203      1417
 -1      3874    3    0    1
 -2      2213       603      2302      2580
 -1      3875    3    0    1
 -2      1322      1079      1538      1718
 -1      3876    3    0    1
 -2      1528      1640      1759      1834
 -1      3877    3    0    1
 -2       584       582      1224      2247
 -1      3878    3    0    1
 -2       318       157      1004      1696
 -1      3879    3    0    1
 -2       849       887      1143      1737
 -1      3880    3    0    1
 -2      1321       259      1806      1808
 -1      3881    3    0    1
 -2      1014      2148      2236      2440
 -1      3882    3    0    1
 -2      1666      1548      1686      1967
 -1      3883    3    0    1
 -2      1333      2078      2129      2157
 -1      3884    3    0    1
 -2       377      2449      2606      2632
 -1      3885    3    0    1
 -2      1604      1568      1767      1822
 -1      3886    3    0    1
 -2      1666      1703      1982      2324
 -1      3887    3    0    1
 -2      1960      2096      2097      2712
 -1      3888    3    0    1
 -2      1673      1612      1688      1779
 -1      3889    3    0    1
 -2      1679      1658      1812      1828
 -1      3890    3    0    1
 -2      1093      1746      1748      2081
 -1      3891    3    0    1
 -2      1604      1644      1687      1767
 -1      3892    3    0    1
 -2      1806      1808      1865      1936
 -1      3893    3    0    1
 -2      1811      1799      2125      2283
 -1      3894    3    0    1
 -2      1574      1604      1687      1767
 -1      3895    3    0    1
 -2      2268      1607      2277      2483
 -1      3896    3    0    1
 -2       291      1381      1391      2044
 -1      3897    3    0    1
 -2       687       688      1017      2207
 -1      3898    3    0    1
 -2      1411      1455      1456      3058
 -1      3899    3    0    1
 -2      1591      2488      2692      2766
 -1      3900    3    0    1
 -2      1393      1126      2394      2507
 -1      3901    3    0    1
 -2       930      1531      2502      2673
 -1      3902    3    0    1
 -2       928       917      2777      2799
 -1      3903    3    0    1
 -2       953       567       954      2038
 -1      3904    3    0    1
 -2      2454      2453      2540      2665
 -1      3905    3    0    1
 -2       915      1775      1964      2025
 -1      3906    3    0    1
 -2       191      1848      1886      1940
 -1      3907    3    0    1
 -2       313       293      1831      2531
 -1      3908    3    0    1
 -2      1654      1555      1885      2111
 -1      3909    3    0    1
 -2      1725      1597      1873      2109
 -1      3910    3    0    1
 -2        29       427       918      2351
 -1      3911    3    0    1
 -2      1660      1838      2051      2132
 -1      3912    3    0    1
 -2       390      2126      2127      2177
 -1      3913    3    0    1
 -2      1885      2111      2437      2672
 -1      3914    3    0    1
 -2      2161      2003      2848      2905
 -1      3915    3    0    1
 -2      1937      1790      1951      1969
 -1      3916    3    0    1
 -2      1114       441      1405      2469
 -1      3917    3    0    1
 -2       355      1030      1848      1940
 -1      3918    3    0    1
 -2      1773      1553      1833      2011
 -1      3919    3    0    1
 -2       285       403      1610      2056
 -1      3920    3    0    1
 -2      1150      1712      1770      2033
 -1      3921    3    0    1
 -2      1358       846      1657      1834
 -1      3922    3    0    1
 -2      1787      1578      2471      2558
 -1      3923    3    0    1
 -2      1569      1865      2557      2617
 -1      3924    3    0    1
 -2       243      1894      2106      2293
 -1      3925    3    0    1
 -2      2420      1162       459       903
 -1      3926    3    0    1
 -2      1288      1816      1840      2058
 -1      3927    3    0    1
 -2      1521      1801      1866      2124
 -1      3928    3    0    1
 -2      1944      1528      1947      2348
 -1      3929    3    0    1
 -2      2360      2232      2410      2601
 -1      3930    3    0    1
 -2       355       191      1886      1940
 -1      3931    3    0    1
 -2      1376       435       439      2401
 -1      3932    3    0    1
 -2      1539      1860      2049      2191
 -1      3933    3    0    1
 -2      1833      1553      1864      2011
 -1      3934    3    0    1
 -2      1790      1369      1937      2027
 -1      3935    3    0    1
 -2      1880      1598      1917      2308
 -1      3936    3    0    1
 -2      2296      1588      2539      2599
 -1      3937    3    0    1
 -2       831      2072      2172      2269
 -1      3938    3    0    1
 -2      1674      1640      2447      2607
 -1      3939    3    0    1
 -2       890      1932      1971      2407
 -1      3940    3    0    1
 -2      1928       853      1971      2407
 -1      3941    3    0    1
 -2      1042       351      2077      2694
 -1      3942    3    0    1
 -2      1069       783      1965      2466
 -1      3943    3    0    1
 -2      1011      2045      2236      2240
 -1      3944    3    0    1
 -2      2059      1637      2232      2359
 -1      3945    3    0    1
 -2       138       990       991      2732
 -1      3946    3    0    1
 -2      1335      1746      2014      2026
 -1      3947    3    0    1
 -2      1588      1559      1629      2020
 -1      3948    3    0    1
 -2      1377      1136      2180      2243
 -1      3949    3    0    1
 -2      1993      1860      2158      2393
 -1      3950    3    0    1
 -2       907      2445      2448      2560
 -1      3951    3    0    1
 -2      1524      1784      2246      2297
 -1      3952    3    0    1
 -2      1622      1725      1765      2215
 -1      3953    3    0    1
 -2      2156      1105      2186      2563
 -1      3954    3    0    1
 -2      1851      1772      2010      2323
 -1      3955    3    0    1
 -2      1907       832      2172      2372
 -1      3956    3    0    1
 -2      1984      1713      2232      2242
 -1      3957    3    0    1
 -2      1135       310       316      1819
 -1      3958    3    0    1
 -2       288       289      1090      1783
 -1      3959    3    0    1
 -2       278      1093      1748      2081
 -1      3960    3    0    1
 -2       703       678      1278      2070
 -1      3961    3    0    1
 -2       332       307      1136      2180
 -1      3962    3    0    1
 -2      1080       263      1639      1785
 -1      3963    3    0    1
 -2       490      2216      2465      2595
 -1      3964    3    0    1
 -2      1628      1645      1726      2271
 -1      3965    3    0    1
 -2      2627       664      2639      2775
 -1      3966    3    0    1
 -2      2146      1794      2168      2254
 -1      3967    3    0    1
 -2      2046      2334      2399      2529
 -1      3968    3    0    1
 -2      1810      1681      2217      2295
 -1      3969    3    0    1
 -2       798      1092      1322      2255
 -1      3970    3    0    1
 -2      1681      1588      2217      2295
 -1      3971    3    0    1
 -2      1710      1521      1801      1963
 -1      3972    3    0    1
 -2      1277      1028      1776      1940
 -1      3973    3    0    1
 -2      1536      1586      1605      2029
 -1      3974    3    0    1
 -2       405       300      1147      1790
 -1      3975    3    0    1
 -2      1584      1553      1740      2028
 -1      3976    3    0    1
 -2      1867      1929      1962      2118
 -1      3977    3    0    1
 -2       397      1529      1659      2118
 -1      3978    3    0    1
 -2      1147       300      1369      1790
 -1      3979    3    0    1
 -2      1592      1537      1794      2260
 -1      3980    3    0    1
 -2      2454      1606      2540      2637
 -1      3981    3    0    1
 -2      1766      1576      1769      2320
 -1      3982    3    0    1
 -2       884      1396      1769      2171
 -1      3983    3    0    1
 -2      1870      1703      1982      2151
 -1      3984    3    0    1
 -2      1001      2517      2550      2582
 -1      3985    3    0    1
 -2      1813       841      2075      2493
 -1      3986    3    0    1
 -2      1575      1905      2229      2263
 -1      3987    3    0    1
 -2       350      3042      1450      1473
 -1      3988    3    0    1
 -2      1797      1585      2130      2131
 -1      3989    3    0    1
 -2      1796      1797      2130      2131
 -1      3990    3    0    1
 -2      1058      1894      1922      2008
 -1      3991    3    0    1
 -2      1333      1092       822      1979
 -1      3992    3    0    1
 -2      1358      1355      1657      2145
 -1      3993    3    0    1
 -2       560      1211       550       950
 -1      3994    3    0    1
 -2      1572      1760      1911      2214
 -1      3995    3    0    1
 -2      1695      1631      1849      2523
 -1      3996    3    0    1
 -2       415      1604      1764      1798
 -1      3997    3    0    1
 -2      1799      1575      2107      2556
 -1      3998    3    0    1
 -2      1081      1580      2611      2695
 -1      3999    3    0    1
 -2      1000      2043      2310      2516
 -1      4000    3    0    1
 -2      2244      1951      2360      2682
 -1      4001    3    0    1
 -2       266      1083      1636      2316
 -1      4002    3    0    1
 -2       487       486      1175      2804
 -1      4003    3    0    1
 -2      1589      2159      2287      2622
 -1      4004    3    0    1
 -2      1759      1528      1834      1930
 -1      4005    3    0    1
 -2      1586      1803      2032      2123
 -1      4006    3    0    1
 -2      1278      2070      2080      2312
 -1      4007    3    0    1
 -2      2257      2436      2586      2872
 -1      4008    3    0    1
 -2      1683      1792      2175      2183
 -1      4009    3    0    1
 -2      1586      1605      2029      2032
 -1      4010    3    0    1
 -2      2390      2376      2418      2421
 -1      4011    3    0    1
 -2      1689      1359      1690      1925
 -1      4012    3    0    1
 -2      1524      1567      1784      2335
 -1      4013    3    0    1
 -2       754      1301      1672      1897
 -1      4014    3    0    1
 -2      1301      1814      1841      1897
 -1      4015    3    0    1
 -2      1814      1672      1841      1897
 -1      4016    3    0    1
 -2      1700       888      1744      2339
 -1      4017    3    0    1
 -2      2437      1555      2591      2750
 -1      4018    3    0    1
 -2      2663       393      2764      2780
 -1      4019    3    0    1
 -2      1530      1735      1990      2135
 -1      4020    3    0    1
 -2      1081      1580      2378      2611
 -1      4021    3    0    1
 -2       293       313      1099      2531
 -1      4022    3    0    1
 -2      1199      3062      1430      2380
 -1      4023    3    0    1
 -2      2078       822      2098      2157
 -1      4024    3    0    1
 -2      1551      1638      1763      2187
 -1      4025    3    0    1
 -2      1627      1807      2563      2564
 -1      4026    3    0    1
 -2       822      1883      2098      2157
 -1      4027    3    0    1
 -2      1333       822      2078      2157
 -1      4028    3    0    1
 -2      1807      1627      2264      2564
 -1      4029    3    0    1
 -2      2121      1569      2264      2564
 -1      4030    3    0    1
 -2       353      1028      1277      1940
 -1      4031    3    0    1
 -2      1731      1069      2205      2466
 -1      4032    3    0    1
 -2       226       409      1057      1893
 -1      4033    3    0    1
 -2       226      1057      1733      1893
 -1      4034    3    0    1
 -2      1745      1056      1863      1893
 -1      4035    3    0    1
 -2       409       226      1733      1893
 -1      4036    3    0    1
 -2      1904      1937      1951      1969
 -1      4037    3    0    1
 -2      1347       301      1348      2369
 -1      4038    3    0    1
 -2       285       288      1335      2014
 -1      4039    3    0    1
 -2       370       423       939      2100
 -1      4040    3    0    1
 -2      2866      2860      3033      1443
 -1      4041    3    0    1
 -2       398      1347      2114      2369
 -1      4042    3    0    1
 -2      1639      1543      2036      2597
 -1      4043    3    0    1
 -2      1711      1564      1813      1829
 -1      4044    3    0    1
 -2       760      1057      1745      1953
 -1      4045    3    0    1
 -2      1689      1708      1928      1954
 -1      4046    3    0    1
 -2      2120      2170      2262      2291
 -1      4047    3    0    1
 -2      1902      1600      2354      2524
 -1      4048    3    0    1
 -2       953       567      2038      2554
 -1      4049    3    0    1
 -2      1975      1760      2416      2695
 -1      4050    3    0    1
 -2       583        94      1215        92
 -1      4051    3    0    1
 -2      1390       867       878      1994
 -1      4052    3    0    1
 -2       823       822      1092      1979
 -1      4053    3    0    1
 -2       867      1124      1732      1994
 -1      4054    3    0    1
 -2       736      1044      2210      2546
 -1      4055    3    0    1
 -2      1632      1824      2211      2386
 -1      4056    3    0    1
 -2      1732      1707      1754      1994
 -1      4057    3    0    1
 -2      1545      1906      2095      2096
 -1      4058    3    0    1
 -2      1721      1619      1770      1862
 -1      4059    3    0    1
 -2       320      2146      2168      2256
 -1      4060    3    0    1
 -2      1546      1660      2132      2272
 -1      4061    3    0    1
 -2      1655      1856      1891      1967
 -1      4062    3    0    1
 -2       283       282      1336      1980
 -1      4063    3    0    1
 -2      2076      1608      2540      2637
 -1      4064    3    0    1
 -2      1690      1627      2182      2264
 -1      4065    3    0    1
 -2       207      1289      1583      2102
 -1      4066    3    0    1
 -2      1042      2077      2429      2802
 -1      4067    3    0    1
 -2      1616      1524      1909      2090
 -1      4068    3    0    1
 -2      1523      1764      2007      2341
 -1      4069    3    0    1
 -2       406      1403      2329      2379
 -1      4070    3    0    1
 -2      1679      1812      2220      2391
 -1      4071    3    0    1
 -2        35        34      2689      2825
 -1      4072    3    0    1
 -2       397      1659      1962      2118
 -1      4073    3    0    1
 -2      1654      1132      2136      2234
 -1      4074    3    0    1
 -2      1807      1569      2017      2564
 -1      4075    3    0    1
 -2      1092      1978      1979      1980
 -1      4076    3    0    1
 -2       330      2435      2045      2515
 -1      4077    3    0    1
 -2       383       104      2463      2514
 -1      4078    3    0    1
 -2       227       223      1302      1908
 -1      4079    3    0    1
 -2      1521      1563      1742      1923
 -1      4080    3    0    1
 -2      1898      2007      2143      2341
 -1      4081    3    0    1
 -2      1837      1176      2119      2424
 -1      4082    3    0    1
 -2       396       278      1607      2268
 -1      4083    3    0    1
 -2      1845      1026      2013      2251
 -1      4084    3    0    1
 -2       908      2449      2704      2809
 -1      4085    3    0    1
 -2      2305       936      2453      2717
 -1      4086    3    0    1
 -2       823       798      1078      2035
 -1      4087    3    0    1
 -2      1663      1988      2012      2052
 -1      4088    3    0    1
 -2      2158      1860      2241      2385
 -1      4089    3    0    1
 -2      2167      1551      2376      2418
 -1      4090    3    0    1
 -2       289       288      1095      2088
 -1      4091    3    0    1
 -2      2291      2306      2627      2774
 -1      4092    3    0    1
 -2      1563      1923      2085      2308
 -1      4093    3    0    1
 -2       774       799      1974      2248
 -1      4094    3    0    1
 -2       245       243      1068      1894
 -1      4095    3    0    1
 -2      2435       330      2045      2760
 -1      4096    3    0    1
 -2       102       385       964      2176
 -1      4097    3    0    1
 -2      1943      1077      2414      2575
 -1      4098    3    0    1
 -2       372       373      1333      1818
 -1      4099    3    0    1
 -2       990       639       640      2728
 -1      4100    3    0    1
 -2      2438      2892      3045      3090
 -1      4101    3    0    1
 -2      2027      1932      2073      2117
 -1      4102    3    0    1
 -2      1560      1890      1987      2079
 -1      4103    3    0    1
 -2      3062       924      1199      1429
 -1      4104    3    0    1
 -2      1984      1752      1989      2036
 -1      4105    3    0    1
 -2      1550      1587      1871      2350
 -1      4106    3    0    1
 -2      2018      2013      2047      2251
 -1      4107    3    0    1
 -2      1661      1804      1896      1938
 -1      4108    3    0    1
 -2       187      2945      2947      2952
 -1      4109    3    0    1
 -2      1039      1300      2328      3032
 -1      4110    3    0    1
 -2      1660      1581      1838      1931
 -1      4111    3    0    1
 -2       212       193      2402      2694
 -1      4112    3    0    1
 -2      1867      1626      1929      2028
 -1      4113    3    0    1
 -2       371      1081      2611      2695
 -1      4114    3    0    1
 -2      2139      2160      2256      2309
 -1      4115    3    0    1
 -2      1581      1534      1838      1931
 -1      4116    3    0    1
 -2       846      1357      1759      1834
 -1      4117    3    0    1
 -2       845      1357       846      1834
 -1      4118    3    0    1
 -2      1358       845       846      1834
 -1      4119    3    0    1
 -2       845      1358      1355      1834
 -1      4120    3    0    1
 -2      1585      1548      1635      1997
 -1      4121    3    0    1
 -2      1655      1548      1781      1997
 -1      4122    3    0    1
 -2       174      1011      1270      2240
 -1      4123    3    0    1
 -2      1057      1056      1745      1893
 -1      4124    3    0    1
 -2      1618      1895      2114      2369
 -1      4125    3    0    1
 -2       317      1016      2170      2306
 -1      4126    3    0    1
 -2      2384      2049      2426      2574
 -1      4127    3    0    1
 -2       135       988      2616      2670
 -1      4128    3    0    1
 -2       293      1810      1831      2531
 -1      4129    3    0    1
 -2       466       906      1804      1836
 -1      4130    3    0    1
 -2      1721      1619      1909      2090
 -1      4131    3    0    1
 -2      1633      2147      2270      2698
 -1      4132    3    0    1
 -2      1626      1599      1835      1882
 -1      4133    3    0    1
 -2      1700      1565      2212      2303
 -1      4134    3    0    1
 -2       336      1533      2499      2737
 -1      4135    3    0    1
 -2      1741      1559      2169      2530
 -1      4136    3    0    1
 -2      1615      1624      1823      1884
 -1      4137    3    0    1
 -2       191       356      1268      1886
 -1      4138    3    0    1
 -2      2384      2401      2574      2669
 -1      4139    3    0    1
 -2       703      1028      1268      1886
 -1      4140    3    0    1
 -2      2024      1290      2239      2275
 -1      4141    3    0    1
 -2      1028       191      1268      1886
 -1      4142    3    0    1
 -2       320      1791      2256      2309
 -1      4143    3    0    1
 -2      1522      1694      1854      1900
 -1      4144    3    0    1
 -2       415       408      1687      1844
 -1      4145    3    0    1
 -2      1288       413      2037      2058
 -1      4146    3    0    1
 -2       311       291      1340      1849
 -1      4147    3    0    1
 -2      1748      1821      1887      2455
 -1      4148    3    0    1
 -2       678       703      1268      1886
 -1      4149    3    0    1
 -2      2214      1911      2325      2826
 -1      4150    3    0    1
 -2       759      1056      1868      2660
 -1      4151    3    0    1
 -2      1038      1535      2307      2392
 -1      4152    3    0    1
 -2      1833      1599      1864      1882
 -1      4153    3    0    1
 -2      1694       205      1854      1900
 -1      4154    3    0    1
 -2      1671      1676      1957      2309
 -1      4155    3    0    1
 -2      1604      1568      1798      1844
 -1      4156    3    0    1
 -2      1627      2121      2264      2564
 -1      4157    3    0    1
 -2      1137       881      1697      2446
 -1      4158    3    0    1
 -2      1458      1472      1485      2991
 -1      4159    3    0    1
 -2      2213      1621      2615      2643
 -1      4160    3    0    1
 -2      1667      1739      2430      2864
 -1      4161    3    0    1
 -2      1902      1943      2196      2408
 -1      4162    3    0    1
 -2      1402       300       405      2117
 -1      4163    3    0    1
 -2      2464      1591      2570      2692
 -1      4164    3    0    1
 -2      1651      2285      2313      2631
 -1      4165    3    0    1
 -2      2245      2144      2435      2657
 -1      4166    3    0    1
 -2       416      1032      2112      2528
 -1      4167    3    0    1
 -2      1931      1789      2064      2759
 -1      4168    3    0    1
 -2      2305      2383      2454      2540
 -1      4169    3    0    1
 -2      1988      1379      2012      2052
 -1      4170    3    0    1
 -2      2160       320      2256      2309
 -1      4171    3    0    1
 -2       222      1056      1057      1893
 -1      4172    3    0    1
 -2       355       191      1028      1886
 -1      4173    3    0    1
 -2      1937      1904      1951      2067
 -1      4174    3    0    1
 -2      1475        65      1503      1504
 -1      4175    3    0    1
 -2      1553      1773      1833      1882
 -1      4176    3    0    1
 -2       855       891      1147      1969
 -1      4177    3    0    1
 -2      1960      1609      2096      2607
 -1      4178    3    0    1
 -2      1905      2229      2263      2315
 -1      4179    3    0    1
 -2      1819      1546      2084      2542
 -1      4180    3    0    1
 -2      2435      2045      2608      2760
 -1      4181    3    0    1
 -2      1662      2095      2444      2685
 -1      4182    3    0    1
 -2      1537      1794      2146      2254
 -1      4183    3    0    1
 -2      1621      2213      2615      2767
 -1      4184    3    0    1
 -2       438       399      1104      2149
 -1      4185    3    0    1
 -2      1548      1585      1686      1891
 -1      4186    3    0    1
 -2      2247       584      2326      2514
 -1      4187    3    0    1
 -2      1018       356      1030      1848
 -1      4188    3    0    1
 -2       356       191      1030      1848
 -1      4189    3    0    1
 -2       323      2357      2696      2698
 -1      4190    3    0    1
 -2      1369      1147      1790      1937
 -1      4191    3    0    1
 -2       382       384      2218      2511
 -1      4192    3    0    1
 -2       819      1332      1877      1938
 -1      4193    3    0    1
 -2       299      1350       312      2493
 -1      4194    3    0    1
 -2      1716      2362      2589      2677
 -1      4195    3    0    1
 -2       353       355      1028      1940
 -1      4196    3    0    1
 -2      1901       391      1990      2138
 -1      4197    3    0    1
 -2      1674      1640      1960      2299
 -1      4198    3    0    1
 -2      1845       416      2112      2528
 -1      4199    3    0    1
 -2      1661      1599      1804      1938
 -1      4200    3    0    1
 -2       663      1003      2432      2443
 -1      4201    3    0    1
 -2      1851      2068      2224      2311
 -1      4202    3    0    1
 -2       330      1011      2045      2760
 -1      4203    3    0    1
 -2      1848      1018      2001      2658
 -1      4204    3    0    1
 -2      2199      1772      2323      2468
 -1      4205    3    0    1
 -2       603      1237       972      1858
 -1      4206    3    0    1
 -2      1699       630      2310      2486
 -1      4207    3    0    1
 -2       584       558      2155      2326
 -1      4208    3    0    1
 -2      2554       953      2744      2803
 -1      4209    3    0    1
 -2      1949       331      2304      2404
 -1      4210    3    0    1
 -2       748      1051      1055      2521
 -1      4211    3    0    1
 -2      1735      1901      1990      2138
 -1      4212    3    0    1
 -2      1692      1693      1762      2736
 -1      4213    3    0    1
 -2      1985      1597      2125      2215
 -1      4214    3    0    1
 -2      1177       912       483      2216
 -1      4215    3    0    1
 -2      1762      1757      2238      2404
 -1      4216    3    0    1
 -2       841      1813      2075      2535
 -1      4217    3    0    1
 -2       299      1131      1106      1952
 -1      4218    3    0    1
 -2      1761      1571      1888      1942
 -1      4219    3    0    1
 -2      1631      1695      2189      2523
 -1      4220    3    0    1
 -2      1579       391      1735      1990
 -1      4221    3    0    1
 -2       146       125      2589      2677
 -1      4222    3    0    1
 -2      1809      1892      1927      2577
 -1      4223    3    0    1
 -2       865      1396       884      2171
 -1      4224    3    0    1
 -2      1790       300      2027      2117
 -1      4225    3    0    1
 -2      1642      1681      2163      2219
 -1      4226    3    0    1
 -2       227       223      1908      2389
 -1      4227    3    0    1
 -2      1794      2168      2254      2256
 -1      4228    3    0    1
 -2       837      1344       838      2219
 -1      4229    3    0    1
 -2       412      1038      1535      1986
 -1      4230    3    0    1
 -2      1641      1648      2018      2047
 -1      4231    3    0    1
 -2      1535      1038      1955      1986
 -1      4232    3    0    1
 -2      1843      1589      2126      2177
 -1      4233    3    0    1
 -2       948       555      2561      2590
 -1      4234    3    0    1
 -2       584      2247      2326      2364
 -1      4235    3    0    1
 -2        13       907       908      2445
 -1      4236    3    0    1
 -2      1345      1099      2327      2531
 -1      4237    3    0    1
 -2      1148      1371      2259      2329
 -1      4238    3    0    1
 -2      1014       682      2148      2450
 -1      4239    3    0    1
 -2      1541       389      2130      2233
 -1      4240    3    0    1
 -2      2121      1569      2557      2617
 -1      4241    3    0    1
 -2      1710      1802      1963      1964
 -1      4242    3    0    1
 -2      2396      1015      2718      2775
 -1      4243    3    0    1
 -2       726       751      1583      2512
 -1      4244    3    0    1
 -2        32        29      1178      2441
 -1      4245    3    0    1
 -2       278      1607      2483      2668
 -1      4246    3    0    1
 -2      1592      2260      2439      2450
 -1      4247    3    0    1
 -2      1525      1821      1865      2557
 -1      4248    3    0    1
 -2       783       784      1965      2466
 -1      4249    3    0    1
 -2      1043       736      1044      2210
 -1      4250    3    0    1
 -2      1527      1659      1678      1867
 -1      4251    3    0    1
 -2      1521      1710      1802      1963
 -1      4252    3    0    1
 -2       872      1395       883      1869
 -1      4253    3    0    1
 -2       778      1313      1542      1873
 -1      4254    3    0    1
 -2       872      1869      1872      2480
 -1      4255    3    0    1
 -2      1395       872      1130      1869
 -1      4256    3    0    1
 -2       863      1119      2049      2191
 -1      4257    3    0    1
 -2      1796      2131      2350      2481
 -1      4258    3    0    1
 -2       883       872      1869      1872
 -1      4259    3    0    1
 -2       872      1139      1382      1872
 -1      4260    3    0    1
 -2       872       883      1139      1872
 -1      4261    3    0    1
 -2      1549      1676      2139      2480
 -1      4262    3    0    1
 -2      1602      2139      2457      2480
 -1      4263    3    0    1
 -2      2386      2006      2322      1552
 -1      4264    3    0    1
 -2      1564      1711      1813      2178
 -1      4265    3    0    1
 -2       560       534      1839      2409
 -1      4266    3    0    1
 -2      1704      1725      1919      2109
 -1      4267    3    0    1
 -2      2159      1628      2271      2287
 -1      4268    3    0    1
 -2       961       383      2226      2514
 -1      4269    3    0    1
 -2      1704      1919      2022      2109
 -1      4270    3    0    1
 -2      3042      3032      2917      3057
 -1      4271    3    0    1
 -2       748      1051      1704      2109
 -1      4272    3    0    1
 -2      2257      1739      2258      2294
 -1      4273    3    0    1
 -2       248      1066      1311      2106
 -1      4274    3    0    1
 -2      1372      1884      2074      2331
 -1      4275    3    0    1
 -2       568      2038      2470      2624
 -1      4276    3    0    1
 -2       832      1907      1096      2372
 -1      4277    3    0    1
 -2      1605      1586      2065      2113
 -1      4278    3    0    1
 -2      1312      1065      2164      2723
 -1      4279    3    0    1
 -2      1562      1612      2478      2479
 -1      4280    3    0    1
 -2      2594      2284      2643      2734
 -1      4281    3    0    1
 -2      2383      1608      2454      2540
 -1      4282    3    0    1
 -2       751       726      1039      2275
 -1      4283    3    0    1
 -2      1634      1613      2017      2019
 -1      4284    3    0    1
 -2      1985      1786      2208      2215
 -1      4285    3    0    1
 -2       952        85       955      2470
 -1      4286    3    0    1
 -2      2002      2015      2397      2537
 -1      4287    3    0    1
 -2      1151      1524      1567      2297
 -1      4288    3    0    1
 -2      1951      1904      1969      2379
 -1      4289    3    0    1
 -2      1707       878      1754      1994
 -1      4290    3    0    1
 -2      1947      1832      2010      2223
 -1      4291    3    0    1
 -2       330      2433      2472      2515
 -1      4292    3    0    1
 -2      1747       417      1784      1918
 -1      4293    3    0    1
 -2      1717      1540      1993      2023
 -1      4294    3    0    1
 -2        67      2527       943       369
 -1      4295    3    0    1
 -2      1542      1668      1753      1919
 -1      4296    3    0    1
 -2      1052       748      1704      2022
 -1      4297    3    0    1
 -2      1826      1863      1868      1986
 -1      4298    3    0    1
 -2       349      1474      1510      1519
 -1      4299    3    0    1
 -2      2629      1850      2644      2832
 -1      4300    3    0    1
 -2       536       510       924      1881
 -1      4301    3    0    1
 -2       510       536       939      1881
 -1      4302    3    0    1
 -2       510       939      1188      1881
 -1      4303    3    0    1
 -2      1693      1692      1756      2187
 -1      4304    3    0    1
 -2       536       924      1199      1881
 -1      4305    3    0    1
 -2       538      2680      2784      2795
 -1      4306    3    0    1
 -2      2249      1554      2319      2352
 -1      4307    3    0    1
 -2      1977      2204      2319      2352
 -1      4308    3    0    1
 -2      1987      2046      2419      2534
 -1      4309    3    0    1
 -2       228       245      1058      1894
 -1      4310    3    0    1
 -2       855      1369      1937      1969
 -1      4311    3    0    1
 -2      1607       396      2277      2346
 -1      4312    3    0    1
 -2       205      1854      1900      2037
 -1      4313    3    0    1
 -2      1983        67      2681      2751
 -1      4314    3    0    1
 -2      1537      1698      2270      2417
 -1      4315    3    0    1
 -2       463       822      1091      1883
 -1      4316    3    0    1
 -2       463      1091      1161      1883
 -1      4317    3    0    1
 -2      2473      1312      2723      2857
 -1      4318    3    0    1
 -2       975       610      2066      2079
 -1      4319    3    0    1
 -2      1890      1560      1982      2079
 -1      4320    3    0    1
 -2      1177       483       490      2216
 -1      4321    3    0    1
 -2       675      1267      2236      2581
 -1      4322    3    0    1
 -2      1643      1606      2540      2665
 -1      4323    3    0    1
 -2       101      1960      2097      2765
 -1      4324    3    0    1
 -2      1078       798      1538      2035
 -1      4325    3    0    1
 -2      1908       363      2008      2525
 -1      4326    3    0    1
 -2      1808      1600      1936      2354
 -1      4327    3    0    1
 -2       538       940      2680      2717
 -1      4328    3    0    1
 -2      1781      1707      1997      2166
 -1      4329    3    0    1
 -2       884      2171      2227      2669
 -1      4330    3    0    1
 -2      1041       205      1900      2037
 -1      4331    3    0    1
 -2        18       372      1818      2201
 -1      4332    3    0    1
 -2      1321       795      1943      2354
 -1      4333    3    0    1
 -2      1915      1887      1946      2198
 -1      4334    3    0    1
 -2      1762      1757      2377      2736
 -1      4335    3    0    1
 -2       405       300      1790      2117
 -1      4336    3    0    1
 -2      2083      2516      2042      1257
 -1      4337    3    0    1
 -2       227       207      1583      2102
 -1      4338    3    0    1
 -2      1056      1745      1863      2660
 -1      4339    3    0    1
 -2      1957      1671      2582      2741
 -1      4340    3    0    1
 -2      1761      1575      2229      2487
 -1      4341    3    0    1
 -2       630       655      2043      2310
 -1      4342    3    0    1
 -2      2120      1592      2262      2439
 -1      4343    3    0    1
 -2        16        18      2101      2201
 -1      4344    3    0    1
 -2      1554      1667      2294      2352
 -1      4345    3    0    1
 -2      1176       913      1433      2977
 -1      4346    3    0    1
 -2      2197       380      2544      2803
 -1      4347    3    0    1
 -2       333       414      2184      2210
 -1      4348    3    0    1
 -2      1890      2068      2152      2371
 -1      4349    3    0    1
 -2      1898      1523      2007      2341
 -1      4350    3    0    1
 -2       495       916      2209      2825
 -1      4351    3    0    1
 -2      1175       925      2351      2425
 -1      4352    3    0    1
 -2      1773      1958      2011      2212
 -1      4353    3    0    1
 -2      1744      1104      2149      2562
 -1      4354    3    0    1
 -2       988       634      2284      2594
 -1      4355    3    0    1
 -2      1163      2201      2560      2690
 -1      4356    3    0    1
 -2       420       419       914      1889
 -1      4357    3    0    1
 -2      1591      2280      2464      2570
 -1      4358    3    0    1
 -2       914       419      1160      1889
 -1      4359    3    0    1
 -2       419        14      1160      1889
 -1      4360    3    0    1
 -2       462       914      1160      1889
 -1      4361    3    0    1
 -2       462       487       914      1889
 -1      4362    3    0    1
 -2      1871      1614      2350      2481
 -1      4363    3    0    1
 -2      1530      1623      1903      1991
 -1      4364    3    0    1
 -2      1871      2131      2166      2481
 -1      4365    3    0    1
 -2       328      1259      2646      2783
 -1      4366    3    0    1
 -2      1708      1928      1971      2221
 -1      4367    3    0    1
 -2      1064      2361      2602      2768
 -1      4368    3    0    1
 -2      1433      3043      2941      3071
 -1      4369    3    0    1
 -2      1534      1695      1838      2064
 -1      4370    3    0    1
 -2      1029      2144      2245      2355
 -1      4371    3    0    1
 -2       706       700      2133      2355
 -1      4372    3    0    1
 -2      2133       700      2137      2355
 -1      4373    3    0    1
 -2      2177      2126      2178      2576
 -1      4374    3    0    1
 -2      1977      1933      2204      2656
 -1      4375    3    0    1
 -2      1928      1708      1998      2221
 -1      4376    3    0    1
 -2      1162       466      2353      2666
 -1      4377    3    0    1
 -2       380       381       942      2197
 -1      4378    3    0    1
 -2      1889        14      2101      2810
 -1      4379    3    0    1
 -2       881      1697      2446      2507
 -1      4380    3    0    1
 -2      1915      1613      2017      2566
 -1      4381    3    0    1
 -2      1821      1748      1887      1946
 -1      4382    3    0    1
 -2       859      1405       893      2469
 -1      4383    3    0    1
 -2      1405       441      1830      2469
 -1      4384    3    0    1
 -2      1081       807      1580      1948
 -1      4385    3    0    1
 -2      2170      2291      2306      2627
 -1      4386    3    0    1
 -2      1906      1815      2095      2096
 -1      4387    3    0    1
 -2      1946      1821      2198      2455
 -1      4388    3    0    1
 -2      1031       190      2048      2528
 -1      4389    3    0    1
 -2      1573      1786      1985      2556
 -1      4390    3    0    1
 -2      1949      1961      2144      2390
 -1      4391    3    0    1
 -2      1092       282      1980      2129
 -1      4392    3    0    1
 -2      1670      1346      2134      2185
 -1      4393    3    0    1
 -2      1890      1982      2066      2079
 -1      4394    3    0    1
 -2       784      1070      1965      2103
 -1      4395    3    0    1
 -2       372        18      1818      2078
 -1      4396    3    0    1
 -2      1890      1987      2079      2419
 -1      4397    3    0    1
 -2      2304      1949      2376      2390
 -1      4398    3    0    1
 -2      1965      1070      1975      2103
 -1      4399    3    0    1
 -2      1861      1730      1958      2277
 -1      4400    3    0    1
 -2      1017      2048      2433      2513
 -1      4401    3    0    1
 -2       593      3014      3023      3024
 -1      4402    3    0    1
 -2      1685      1888      2244      2360
 -1      4403    3    0    1
 -2      1335       826      1746      2026
 -1      4404    3    0    1
 -2      1951      1685      2244      2360
 -1      4405    3    0    1
 -2        25       390       915      2025
 -1      4406    3    0    1
 -2      2383      2305      2638      2791
 -1      4407    3    0    1
 -2      1606       562      2596      2654
 -1      4408    3    0    1
 -2      2499       962      2588      2765
 -1      4409    3    0    1
 -2      1225       584      2155      2364
 -1      4410    3    0    1
 -2       336       101       962      2499
 -1      4411    3    0    1
 -2      2771      2902      3035      1450
 -1      4412    3    0    1
 -2      1907       832      1096       831
 -1      4413    3    0    1
 -2      1961      2054      2194      2581
 -1      4414    3    0    1
 -2      1870      1703      2151      2324
 -1      4415    3    0    1
 -2      1929      1835      1962      2118
 -1      4416    3    0    1
 -2       370       369      1201      2527
 -1      4417    3    0    1
 -2      1337      1338      1828      1917
 -1      4418    3    0    1
 -2      1828      1338      1880      1917
 -1      4419    3    0    1
 -2      1529        12      2494      2538
 -1      4420    3    0    1
 -2       394       296      1337      1917
 -1      4421    3    0    1
 -2       615      2050      2567      2823
 -1      4422    3    0    1
 -2      1338       296      1880      1917
 -1      4423    3    0    1
 -2      1337       296      1338      1917
 -1      4424    3    0    1
 -2       904       462      1161      2040
 -1      4425    3    0    1
 -2      1981      1669      2085      2494
 -1      4426    3    0    1
 -2      1564      1829      1843      1921
 -1      4427    3    0    1
 -2      1726      1564      1843      1921
 -1      4428    3    0    1
 -2      1745      1057      1893      1953
 -1      4429    3    0    1
 -2       299       312      1921      2493
 -1      4430    3    0    1
 -2      1101       299      1829      2493
 -1      4431    3    0    1
 -2      1669      1866      2085      2494
 -1      4432    3    0    1
 -2      1529        12      1659      2494
 -1      4433    3    0    1
 -2      1350       299      1101      2493
 -1      4434    3    0    1
 -2      1731       760      1922      1953
 -1      4435    3    0    1
 -2      1367       402       434      1954
 -1      4436    3    0    1
 -2      1057       760      1731      1953
 -1      4437    3    0    1
 -2      1362      1359      1689      1954
 -1      4438    3    0    1
 -2       760      1058      1068      1922
 -1      4439    3    0    1
 -2       783       760      1068      1922
 -1      4440    3    0    1
 -2       997       320      2146      2168
 -1      4441    3    0    1
 -2      1812      1679      1828      2391
 -1      4442    3    0    1
 -2      1690      1925      2029      2182
 -1      4443    3    0    1
 -2      1801      1521      1866      1963
 -1      4444    3    0    1
 -2       750      1053      2942      2951
 -1      4445    3    0    1
 -2      1982      1870      2151      2152
 -1      4446    3    0    1
 -2      1736      1937      1951      2067
 -1      4447    3    0    1
 -2      1933      1977      2204      2614
 -1      4448    3    0    1
 -2      1617      1659      1679      1924
 -1      4449    3    0    1
 -2       916      2209      2704      2719
 -1      4450    3    0    1
 -2      1711      1813      2178      2367
 -1      4451    3    0    1
 -2      1783       289      2501      2735
 -1      4452    3    0    1
 -2      2038       567      2470      2554
 -1      4453    3    0    1
 -2      2845      2865      3026      3033
 -1      4454    3    0    1
 -2       301      1133      1108      1926
 -1      4455    3    0    1
 -2      1133       301       398      1926
 -1      4456    3    0    1
 -2      1133       398      1895      1926
 -1      4457    3    0    1
 -2      2583      2453      2653      2703
 -1      4458    3    0    1
 -2       373       372      1096      2372
 -1      4459    3    0    1
 -2      1890      1560      1987      2371
 -1      4460    3    0    1
 -2      1385       303       379      1927
 -1      4461    3    0    1
 -2      1384       303      1370      1927
 -1      4462    3    0    1
 -2      1385       379      1892      1927
 -1      4463    3    0    1
 -2       303      1384       379      1927
 -1      4464    3    0    1
 -2      1633      1603      2292      2386
 -1      4465    3    0    1
 -2       462      1889      2545      2040
 -1      4466    3    0    1
 -2      1378      1137      1774      2446
 -1      4467    3    0    1
 -2      2432       640      2548      2729
 -1      4468    3    0    1
 -2      1958      1565      2011      2212
 -1      4469    3    0    1
 -2       305      1121      1832      1930
 -1      4470    3    0    1
 -2      1196      2965      2998      3020
 -1      4471    3    0    1
 -2      1356       305      1357      1930
 -1      4472    3    0    1
 -2      1759      1357      1832      1930
 -1      4473    3    0    1
 -2      1357       305      1832      1930
 -1      4474    3    0    1
 -2      1259       998      2278      2783
 -1      4475    3    0    1
 -2       223      1908      2389      2525
 -1      4476    3    0    1
 -2      1553      1626      1740      2028
 -1      4477    3    0    1
 -2       986       630      1699      2486
 -1      4478    3    0    1
 -2       675      2581      2608      2760
 -1      4479    3    0    1
 -2      1603      1633      2211      2386
 -1      4480    3    0    1
 -2      2289      1830       441      2469
 -1      4481    3    0    1
 -2      2126       390      2127      2576
 -1      4482    3    0    1
 -2       288       285      1610      2165
 -1      4483    3    0    1
 -2       282      1092      1333      2129
 -1      4484    3    0    1
 -2      1090       288      1783      2165
 -1      4485    3    0    1
 -2      1070       238      1965      1975
 -1      4486    3    0    1
 -2      1527      1626      1867      2317
 -1      4487    3    0    1
 -2       868       881      1137      2446
 -1      4488    3    0    1
 -2      1736      1637      1984      2059
 -1      4489    3    0    1
 -2      1288      1041      1816      2037
 -1      4490    3    0    1
 -2       586      1226      1941      2727
 -1      4491    3    0    1
 -2      1816       724      2307      2392
 -1      4492    3    0    1
 -2      1751      1702      2180      2243
 -1      4493    3    0    1
 -2       205      1041      1288      2037
 -1      4494    3    0    1
 -2      1638      1664      1857      2167
 -1      4495    3    0    1
 -2      1888      1761      1959      2491
 -1      4496    3    0    1
 -2      1737      1527      2110      2317
 -1      4497    3    0    1
 -2      1867      1626      2028      2317
 -1      4498    3    0    1
 -2       282       283      1978      1980
 -1      4499    3    0    1
 -2      1882      1599      1934      2495
 -1      4500    3    0    1
 -2      1291      1038       730      2392
 -1      4501    3    0    1
 -2      1626      1740      2028      2317
 -1      4502    3    0    1
 -2      1629        79      2020      2532
 -1      4503    3    0    1
 -2      2168      2146      2254      2256
 -1      4504    3    0    1
 -2      1772      1851      2199      2323
 -1      4505    3    0    1
 -2      1668      1753      2022      2505
 -1      4506    3    0    1
 -2      1226       959       579      1941
 -1      4507    3    0    1
 -2      2687      2016      2798      2811
 -1      4508    3    0    1
 -2      1525      1821      1946      2533
 -1      4509    3    0    1
 -2      1589      1564      2159      2177
 -1      4510    3    0    1
 -2      1546      1819      2012      2542
 -1      4511    3    0    1
 -2       582      2247      2364      2651
 -1      4512    3    0    1
 -2      1918      1717      2158      2393
 -1      4513    3    0    1
 -2      1592      2260      2262      2439
 -1      4514    3    0    1
 -2       365        85       952      2470
 -1      4515    3    0    1
 -2      1736      1790      2027      2073
 -1      4516    3    0    1
 -2      1384      1809      2234      2579
 -1      4517    3    0    1
 -2      1698      1537      2357      2417
 -1      4518    3    0    1
 -2      1797      1796      2130      2233
 -1      4519    3    0    1
 -2      1637      1736      2055      2073
 -1      4520    3    0    1
 -2      1759      1657       846      1834
 -1      4521    3    0    1
 -2       711      1031      2048      2400
 -1      4522    3    0    1
 -2      1926       398      2114      2369
 -1      4523    3    0    1
 -2      2608      2245      2612      2760
 -1      4524    3    0    1
 -2      1679      1617      2321      2391
 -1      4525    3    0    1
 -2      1664      1857      1976      2667
 -1      4526    3    0    1
 -2      1913      1752      2036      2065
 -1      4527    3    0    1
 -2      1789      1557      2004      2064
 -1      4528    3    0    1
 -2      1752      1913      2030      2065
 -1      4529    3    0    1
 -2      1551      1638      2167      2376
 -1      4530    3    0    1
 -2      1347      1348      2114      2369
 -1      4531    3    0    1
 -2      1586      1998      2030      2065
 -1      4532    3    0    1
 -2      1884      1615      2089      2263
 -1      4533    3    0    1
 -2       397      1962      1996      2118
 -1      4534    3    0    1
 -2      2027      1932      2055      2073
 -1      4535    3    0    1
 -2      1790      1736      1937      1951
 -1      4536    3    0    1
 -2      2031      1637      2055      2073
 -1      4537    3    0    1
 -2      1918      2158      2385      2393
 -1      4538    3    0    1
 -2       724      1038      1955      2307
 -1      4539    3    0    1
 -2       261       269      1081      2378
 -1      4540    3    0    1
 -2      1884      1624      2074      2331
 -1      4541    3    0    1
 -2      1548      1585      1781      1997
 -1      4542    3    0    1
 -2      1707      1635      1754      1997
 -1      4543    3    0    1
 -2      1521      1802      1805      1963
 -1      4544    3    0    1
 -2      1259      2278      2648      2783
 -1      4545    3    0    1
 -2      2107      1985      2125      2556
 -1      4546    3    0    1
 -2      1684      1584      2028      2317
 -1      4547    3    0    1
 -2      1131       312      1921      1952
 -1      4548    3    0    1
 -2       402      1146      1708      1954
 -1      4549    3    0    1
 -2       402      1367      1146      1954
 -1      4550    3    0    1
 -2       402      1362       434      1954
 -1      4551    3    0    1
 -2      1359       402      1708      1954
 -1      4552    3    0    1
 -2      1362       402      1359      1954
 -1      4553    3    0    1
 -2      1840       724      1899      1955
 -1      4554    3    0    1
 -2      1723      1840      1899      1955
 -1      4555    3    0    1
 -2      1057       226      1733      1956
 -1      4556    3    0    1
 -2        33       418      2209      2738
 -1      4557    3    0    1
 -2      1534      1695      2064      2506
 -1      4558    3    0    1
 -2      1731      1733      1753      1956
 -1      4559    3    0    1
 -2      2394      2142      2446      2507
 -1      4560    3    0    1
 -2      1799      1067      2154      2190
 -1      4561    3    0    1
 -2       846      1358      1657      2447
 -1      4562    3    0    1
 -2      1697      2394      2446      2507
 -1      4563    3    0    1
 -2      1393       868      1126      2507
 -1      4564    3    0    1
 -2      1561      1727      2568      2706
 -1      4565    3    0    1
 -2      1757      1949      2304      2404
 -1      4566    3    0    1
 -2      1566      1700      1825      1958
 -1      4567    3    0    1
 -2      1725      1873      1919      2109
 -1      4568    3    0    1
 -2      1651      1810      1831      2285
 -1      4569    3    0    1
 -2      1570      1944      2224      2348
 -1      4570    3    0    1
 -2      1787       988      2558      2594
 -1      4571    3    0    1
 -2       106      1859      2363      2485
 -1      4572    3    0    1
 -2       925       512       510      2497
 -1      4573    3    0    1
 -2      1640      1609      1674      1960
 -1      4574    3    0    1
 -2       630       655      2310      2486
 -1      4575    3    0    1
 -2      1984      1752      2036      2242
 -1      4576    3    0    1
 -2      1609      1960      2096      2097
 -1      4577    3    0    1
 -2       463      1161      2040      2098
 -1      4578    3    0    1
 -2       335      1031      2048      2472
 -1      4579    3    0    1
 -2       822       463      2078      2098
 -1      4580    3    0    1
 -2      1011       675      1270      2240
 -1      4581    3    0    1
 -2      1624      1823      1884      2074
 -1      4582    3    0    1
 -2       826       819      1093      2343
 -1      4583    3    0    1
 -2       999      1258      1968      2298
 -1      4584    3    0    1
 -2      1567      1524      1784      2246
 -1      4585    3    0    1
 -2      2304      1551      2376      2500
 -1      4586    3    0    1
 -2      1805      1775      1963      1964
 -1      4587    3    0    1
 -2      1802      1805      1963      1964
 -1      4588    3    0    1
 -2      1268       678      1886      2423
 -1      4589    3    0    1
 -2      1810      1386      1831      2285
 -1      4590    3    0    1
 -2       915      1775      1805      1964
 -1      4591    3    0    1
 -2       490       915      1802      1964
 -1      4592    3    0    1
 -2      1653      1712      1855      2289
 -1      4593    3    0    1
 -2      1802       915      1805      1964
 -1      4594    3    0    1
 -2       977       965      2050      2406
 -1      4595    3    0    1
 -2      1758      1846      1857      1976
 -1      4596    3    0    1
 -2      1713      1920      1972      2434
 -1      4597    3    0    1
 -2       238       407      1069      1965
 -1      4598    3    0    1
 -2       238      1069      1070      1965
 -1      4599    3    0    1
 -2       459       466      1162      2666
 -1      4600    3    0    1
 -2      1093      1748      2343      2668
 -1      4601    3    0    1
 -2      1593      1611      2199      2323
 -1      4602    3    0    1
 -2      1752      1984      2031      2242
 -1      4603    3    0    1
 -2       329       323      1758      1976
 -1      4604    3    0    1
 -2       466      1836      2195      2666
 -1      4605    3    0    1
 -2      1877       819      1938      2467
 -1      4606    3    0    1
 -2      1069       783      1070      1965
 -1      4607    3    0    1
 -2       334      1043      1876      2104
 -1      4608    3    0    1
 -2       783       784      1070      1965
 -1      4609    3    0    1
 -2      1150      1373      1770      2289
 -1      4610    3    0    1
 -2      1972      1920      2325      2434
 -1      4611    3    0    1
 -2      2197       942      2519      2743
 -1      4612    3    0    1
 -2      1528      1570      1944      2299
 -1      4613    3    0    1
 -2      1960       101      2097      2299
 -1      4614    3    0    1
 -2       101      1533      1570      2299
 -1      4615    3    0    1
 -2      1609      1674      1960      2299
 -1      4616    3    0    1
 -2       328      1003      2547      2700
 -1      4617    3    0    1
 -2      1575      1761      2107      2487
 -1      4618    3    0    1
 -2       334      1291      1648      1970
 -1      4619    3    0    1
 -2      1346      1903      2134      2185
 -1      4620    3    0    1
 -2      1928      1367      1954      1971
 -1      4621    3    0    1
 -2       853      1367      1928      1971
 -1      4622    3    0    1
 -2       853      1146      1367      1971
 -1      4623    3    0    1
 -2      1258       986      1435      2912
 -1      4624    3    0    1
 -2        85       950      1211      2365
 -1      4625    3    0    1
 -2      1122      1396      2171      2180
 -1      4626    3    0    1
 -2      1985      1573      2089      2620
 -1      4627    3    0    1
 -2      1225       960      1415      3001
 -1      4628    3    0    1
 -2      2537      2397      2591      2750
 -1      4629    3    0    1
 -2      1079      1538      1718      1974
 -1      4630    3    0    1
 -2      2171      1650      2227      2669
 -1      4631    3    0    1
 -2      1135       871      1129      2091
 -1      4632    3    0    1
 -2      1333      1092      1979      2129
 -1      4633    3    0    1
 -2       936      2305      2503      2717
 -1      4634    3    0    1
 -2      1783       289      2088      2165
 -1      4635    3    0    1
 -2      1780      1875      2062      2267
 -1      4636    3    0    1
 -2      2305       936      2383      2540
 -1      4637    3    0    1
 -2      1706       265      1718      1974
 -1      4638    3    0    1
 -2      1079       799      1538      1974
 -1      4639    3    0    1
 -2       264      1079      1718      1974
 -1      4640    3    0    1
 -2       265       264      1718      1974
 -1      4641    3    0    1
 -2       246       265      1706      1974
 -1      4642    3    0    1
 -2      1311       246      1706      1974
 -1      4643    3    0    1
 -2       774       799      1311      1974
 -1      4644    3    0    1
 -2      1079       265      1311      1974
 -1      4645    3    0    1
 -2       799      1079      1311      1974
 -1      4646    3    0    1
 -2       264       265      1079      1974
 -1      4647    3    0    1
 -2       265       246      1311      1974
 -1      4648    3    0    1
 -2      1069      1965      2205      2466
 -1      4649    3    0    1
 -2      1885      2397      2437      2591
 -1      4650    3    0    1
 -2      2238       331      2377      2404
 -1      4651    3    0    1
 -2      1016       174      2170      2281
 -1      4652    3    0    1
 -2      2280      1557      2517      2741
 -1      4653    3    0    1
 -2      1885      2111      2672      2794
 -1      4654    3    0    1
 -2      2015        66      2477      2503
 -1      4655    3    0    1
 -2      1949      2304      2376      2500
 -1      4656    3    0    1
 -2       282       283      1092      1978
 -1      4657    3    0    1
 -2       320      2139      2160      2256
 -1      4658    3    0    1
 -2       266       268      1322      1978
 -1      4659    3    0    1
 -2       320      1791      2146      2256
 -1      4660    3    0    1
 -2       320      1602      2139      2256
 -1      4661    3    0    1
 -2      1666      1541      1686      2130
 -1      4662    3    0    1
 -2      1548      1666      1686      2130
 -1      4663    3    0    1
 -2       730      1041      2039      2392
 -1      4664    3    0    1
 -2      2906       428      3050      1486
 -1      4665    3    0    1
 -2      1857      1664      1976      2322
 -1      4666    3    0    1
 -2      1799      1959      1973      2107
 -1      4667    3    0    1
 -2       987      2772      2827      2830
 -1      4668    3    0    1
 -2      2006      1976      2386      2322
 -1      4669    3    0    1
 -2      1552      1995      2006      2322
 -1      4670    3    0    1
 -2       390      1775      2127      2576
 -1      4671    3    0    1
 -2      2188      2332      2638      2791
 -1      4672    3    0    1
 -2       369       939      1198      1983
 -1      4673    3    0    1
 -2        67       369      1198      1983
 -1      4674    3    0    1
 -2      1725      1597      2125      2283
 -1      4675    3    0    1
 -2      1597      1725      1873      2283
 -1      4676    3    0    1
 -2      1541       975      2066      2079
 -1      4677    3    0    1
 -2      1889       462      2545      1160
 -1      4678    3    0    1
 -2      2142      1691      2153      2394
 -1      4679    3    0    1
 -2      2083      2516      1257      1852
 -1      4680    3    0    1
 -2      1957      1534      2004      2375
 -1      4681    3    0    1
 -2       634      1248      2105      2655
 -1      4682    3    0    1
 -2      1557      2004      2064      2375
 -1      4683    3    0    1
 -2      1905      2128      2229      2315
 -1      4684    3    0    1
 -2      1041      1816      2037      2039
 -1      4685    3    0    1
 -2      2004      1534      2064      2375
 -1      4686    3    0    1
 -2       384       382       954      2511
 -1      4687    3    0    1
 -2      2229      2087      2263      2315
 -1      4688    3    0    1
 -2       342       343      1714      2733
 -1      4689    3    0    1
 -2      1529       397      2071      2118
 -1      4690    3    0    1
 -2       462       463      1161      2040
 -1      4691    3    0    1
 -2      1664      2167      2376      2418
 -1      4692    3    0    1
 -2      1789      1931      2724      2759
 -1      4693    3    0    1
 -2      1573      2229      2263      2487
 -1      4694    3    0    1
 -2      1645      1628      1670      1991
 -1      4695    3    0    1
 -2       136       135      1874      2272
 -1      4696    3    0    1
 -2      1587      1677      2266      2725
 -1      4697    3    0    1
 -2      1543      1572      1639      1992
 -1      4698    3    0    1
 -2      1572      1543      1639      1920
 -1      4699    3    0    1
 -2      1760      1572      1911      1992
 -1      4700    3    0    1
 -2      1931      1789      2004      2064
 -1      4701    3    0    1
 -2       603       971       975      2302
 -1      4702    3    0    1
 -2      1989      1752      2030      2065
 -1      4703    3    0    1
 -2       975      1541      2066      2193
 -1      4704    3    0    1
 -2      1534      1838      1931      2064
 -1      4705    3    0    1
 -2      2537      2349      2748      2790
 -1      4706    3    0    1
 -2      1589      1564      1628      2159
 -1      4707    3    0    1
 -2      1874       135      2206      2272
 -1      4708    3    0    1
 -2      1681      1853      2163      2456
 -1      4709    3    0    1
 -2      2232      1972      2410      2601
 -1      4710    3    0    1
 -2      2471      1787      2558      2615
 -1      4711    3    0    1
 -2      1620      1672      1898      2007
 -1      4712    3    0    1
 -2      1618      2114      2135      2369
 -1      4713    3    0    1
 -2       369       370      2100      2527
 -1      4714    3    0    1
 -2      1895      1618      1926      2369
 -1      4715    3    0    1
 -2       282      1907      1980      2372
 -1      4716    3    0    1
 -2      1125      1134      1754      1997
 -1      4717    3    0    1
 -2      1134      1707      1754      1997
 -1      4718    3    0    1
 -2       326       308      1781      1997
 -1      4719    3    0    1
 -2       308      1134      1125      1997
 -1      4720    3    0    1
 -2      1707      1134      1781      1997
 -1      4721    3    0    1
 -2      1134       308       326      1997
 -1      4722    3    0    1
 -2      1134       326      1781      1997
 -1      4723    3    0    1
 -2      2139      1676      2160      2309
 -1      4724    3    0    1
 -2       408      1622      1844      2057
 -1      4725    3    0    1
 -2      1341      1340      1849      2523
 -1      4726    3    0    1
 -2       228      1894      2008      2525
 -1      4727    3    0    1
 -2       754      1055      1898      2143
 -1      4728    3    0    1
 -2       802       795      1080      2398
 -1      4729    3    0    1
 -2      1622      1595      1644      2208
 -1      4730    3    0    1
 -2      1558      2188      2539      2599
 -1      4731    3    0    1
 -2      1043      1876      2288      2422
 -1      4732    3    0    1
 -2       603       610      1858      2302
 -1      4733    3    0    1
 -2      1858       610      2193      2302
 -1      4734    3    0    1
 -2      1268      1532      1886      2001
 -1      4735    3    0    1
 -2      1268       171      1532      2001
 -1      4736    3    0    1
 -2      1004      2461      2627      2774
 -1      4737    3    0    1
 -2       802       795      2398      2575
 -1      4738    3    0    1
 -2       356      1268      1886      2001
 -1      4739    3    0    1
 -2       171       356      1018      2001
 -1      4740    3    0    1
 -2      1018       356      1848      2001
 -1      4741    3    0    1
 -2      1080      1675      1785      2398
 -1      4742    3    0    1
 -2       191       356      1886      2001
 -1      4743    3    0    1
 -2       356       191      1848      2001
 -1      4744    3    0    1
 -2      1848       191      1886      2001
 -1      4745    3    0    1
 -2      2144      2245      2355      2657
 -1      4746    3    0    1
 -2       171       175      1532      2001
 -1      4747    3    0    1
 -2       356       171      1268      2001
 -1      4748    3    0    1
 -2      1107      2027      2117      2407
 -1      4749    3    0    1
 -2       591       592       965      2176
 -1      4750    3    0    1
 -2      1090      1335      2014      2026
 -1      4751    3    0    1
 -2      1751      1766      1769      2180
 -1      4752    3    0    1
 -2       407       249      1069      2205
 -1      4753    3    0    1
 -2      1677      1732      1914      2162
 -1      4754    3    0    1
 -2       890      1402      1932      2407
 -1      4755    3    0    1
 -2      1594      1705      1720      2231
 -1      4756    3    0    1
 -2      1620      1523      1771      2007
 -1      4757    3    0    1
 -2      1771      1764      1798      2007
 -1      4758    3    0    1
 -2       760      1058      1922      2008
 -1      4759    3    0    1
 -2      1058       760      1745      2008
 -1      4760    3    0    1
 -2      1745       760      1922      2008
 -1      4761    3    0    1
 -2      1302      1745      1908      2008
 -1      4762    3    0    1
 -2      1302      1058      1745      2008
 -1      4763    3    0    1
 -2       223      1058      1302      2008
 -1      4764    3    0    1
 -2       223      1302      1908      2008
 -1      4765    3    0    1
 -2      1747      1717      1918      2462
 -1      4766    3    0    1
 -2      1903      1623      2134      2185
 -1      4767    3    0    1
 -2      1044      1826      1868      2009
 -1      4768    3    0    1
 -2      1868      1826      1986      2009
 -1      4769    3    0    1
 -2      1044      1868      1986      2009
 -1      4770    3    0    1
 -2       412      1044      1986      2009
 -1      4771    3    0    1
 -2      1535       412      1986      2009
 -1      4772    3    0    1
 -2       414       412      1535      2009
 -1      4773    3    0    1
 -2       412       414      1044      2009
 -1      4774    3    0    1
 -2      1310       772      2434      2826
 -1      4775    3    0    1
 -2      1593      1526      1967      2324
 -1      4776    3    0    1
 -2      2126      1711      2178      2555
 -1      4777    3    0    1
 -2      1917      1880      2367      2535
 -1      4778    3    0    1
 -2      1666      1526      1703      2324
 -1      4779    3    0    1
 -2      1526      1593      1870      2324
 -1      4780    3    0    1
 -2      1841       754      2143      2521
 -1      4781    3    0    1
 -2       310      1389       316      2012
 -1      4782    3    0    1
 -2      1379       310      1988      2012
 -1      4783    3    0    1
 -2      1389       310      1379      2012
 -1      4784    3    0    1
 -2      1583      1054      2389      2512
 -1      4785    3    0    1
 -2      1051      1622      2057      2521
 -1      4786    3    0    1
 -2      1027      3028      1290      2024
 -1      4787    3    0    1
 -2      2428      2276      2588      2712
 -1      4788    3    0    1
 -2      1595      1622      1985      2208
 -1      4789    3    0    1
 -2      2188      1558      2217      2599
 -1      4790    3    0    1
 -2      1757      1693      2150      2736
 -1      4791    3    0    1
 -2        53      2351      2496      2831
 -1      4792    3    0    1
 -2      1696       318      2291      2774
 -1      4793    3    0    1
 -2       408      1051      1622      2057
 -1      4794    3    0    1
 -2       285      1610      2014      2056
 -1      4795    3    0    1
 -2      1160       905       462      2545
 -1      4796    3    0    1
 -2       403       285      1335      2014
 -1      4797    3    0    1
 -2       319      2120      2291      2306
 -1      4798    3    0    1
 -2      1237       338      2403      2415
 -1      4799    3    0    1
 -2      1730      1773      1958      2277
 -1      4800    3    0    1
 -2      1613      1728      1915      2017
 -1      4801    3    0    1
 -2      1334      3008       822      1091
 -1      4802    3    0    1
 -2      1091      1334      2035      2157
 -1      4803    3    0    1
 -2       822      1333      1979      2157
 -1      4804    3    0    1
 -2      1713      1984      2230      2242
 -1      4805    3    0    1
 -2      1277      1776      2402      2598
 -1      4806    3    0    1
 -2      1895      1618      2114      2252
 -1      4807    3    0    1
 -2      1618      1990      2135      2252
 -1      4808    3    0    1
 -2      1825      1566      1861      2019
 -1      4809    3    0    1
 -2      1613      1861      1887      2019
 -1      4810    3    0    1
 -2      1613      1825      1861      2019
 -1      4811    3    0    1
 -2      1099       837      2327      2531
 -1      4812    3    0    1
 -2       293      1345      2327      2531
 -1      4813    3    0    1
 -2       411      1814      1897      2021
 -1      4814    3    0    1
 -2      1723      1649      1814      2021
 -1      4815    3    0    1
 -2      1649      1723      1955      2021
 -1      4816    3    0    1
 -2      1955      1723      1986      2021
 -1      4817    3    0    1
 -2      1044       412      1986      2021
 -1      4818    3    0    1
 -2      1868      1044      1986      2021
 -1      4819    3    0    1
 -2      1863      1868      1986      2021
 -1      4820    3    0    1
 -2       411      1863      1986      2021
 -1      4821    3    0    1
 -2      1863       411      1868      2021
 -1      4822    3    0    1
 -2      1723      1814      1986      2021
 -1      4823    3    0    1
 -2      2081      1600      2196      2524
 -1      4824    3    0    1
 -2      1668      1753      1919      2022
 -1      4825    3    0    1
 -2      1704      1733      1795      2022
 -1      4826    3    0    1
 -2      1733      1704      1753      2022
 -1      4827    3    0    1
 -2      1753      1704      1919      2022
 -1      4828    3    0    1
 -2       675       682      1270      2240
 -1      4829    3    0    1
 -2       307      1396      1122      2180
 -1      4830    3    0    1
 -2       687       688      2207      2658
 -1      4831    3    0    1
 -2      1578      1582      2471      2636
 -1      4832    3    0    1
 -2      1890      1987      2419      2534
 -1      4833    3    0    1
 -2      1413      1448      3075      1496
 -1      4834    3    0    1
 -2      2206       135      2616      2670
 -1      4835    3    0    1
 -2       373      1818      1980      2129
 -1      4836    3    0    1
 -2      1524      1567      1705      2090
 -1      4837    3    0    1
 -2      1871      1587      2131      2350
 -1      4838    3    0    1
 -2      1336       283      1980      2316
 -1      4839    3    0    1
 -2      1499      1431      3002      3095
 -1      4840    3    0    1
 -2      1270       682      2148      2240
 -1      4841    3    0    1
 -2       101      1533      2299      2765
 -1      4842    3    0    1
 -2      1650      1766      1769      2320
 -1      4843    3    0    1
 -2       850      1144      1364      2339
 -1      4844    3    0    1
 -2      1689      1586      1925      2029
 -1      4845    3    0    1
 -2      1762      2238      2337      2377
 -1      4846    3    0    1
 -2      1043       735      2210      2429
 -1      4847    3    0    1
 -2       320       322      1791      2309
 -1      4848    3    0    1
 -2      1770      1712      1855      2033
 -1      4849    3    0    1
 -2      1855      1822      1862      2033
 -1      4850    3    0    1
 -2       860       894      1770      2033
 -1      4851    3    0    1
 -2      1862      1770      1855      2033
 -1      4852    3    0    1
 -2      1619      1770      1862      2033
 -1      4853    3    0    1
 -2      1616      1619      1862      2033
 -1      4854    3    0    1
 -2      1616      1406      1619      2033
 -1      4855    3    0    1
 -2      1406      1115      1619      2033
 -1      4856    3    0    1
 -2       860      1406       894      2033
 -1      4857    3    0    1
 -2      1406       860      1115      2033
 -1      4858    3    0    1
 -2      1770      1862      1855      1721
 -1      4859    3    0    1
 -2      1115       860      1770      2033
 -1      4860    3    0    1
 -2      1619      1115      1770      2033
 -1      4861    3    0    1
 -2       831       808      1336      2072
 -1      4862    3    0    1
 -2        25      2159      2600      2621
 -1      4863    3    0    1
 -2       906       397      1996      2071
 -1      4864    3    0    1
 -2      2015      2002      2592      2749
 -1      4865    3    0    1
 -2      1827      1606      2572      2654
 -1      4866    3    0    1
 -2       204       207      1045      2102
 -1      4867    3    0    1
 -2      2148       682      2236      2240
 -1      4868    3    0    1
 -2       832      1095      1610      2034
 -1      4869    3    0    1
 -2       724      1038      2307      2392
 -1      4870    3    0    1
 -2      1054       227      1583      2389
 -1      4871    3    0    1
 -2       471      1096      1163      2034
 -1      4872    3    0    1
 -2      1570      1528      1944      2348
 -1      4873    3    0    1
 -2       471       832      1096      2034
 -1      4874    3    0    1
 -2      1705      1596      1939      2231
 -1      4875    3    0    1
 -2       519       496      2776      2777
 -1      4876    3    0    1
 -2      2020        75      2530      2532
 -1      4877    3    0    1
 -2      1761      1575      1959      2491
 -1      4878    3    0    1
 -2      1543      1572      1992      2325
 -1      4879    3    0    1
 -2      1594      1720      1771      2231
 -1      4880    3    0    1
 -2      1588      1558      2539      2599
 -1      4881    3    0    1
 -2      1596      1764      1939      2231
 -1      4882    3    0    1
 -2      1711      1843      2126      2178
 -1      4883    3    0    1
 -2      1343      1853      2163      2219
 -1      4884    3    0    1
 -2       916       495      2719      2834
 -1      4885    3    0    1
 -2      1344      1343      2163      2219
 -1      4886    3    0    1
 -2       838      1344      2163      2219
 -1      4887    3    0    1
 -2       358       175      2396      2559
 -1      4888    3    0    1
 -2      1344       837      1343      2219
 -1      4889    3    0    1
 -2      1860      2191      2241      2385
 -1      4890    3    0    1
 -2      2015        66      2397      2490
 -1      4891    3    0    1
 -2      1803      1806      1865      2557
 -1      4892    3    0    1
 -2       462       463      2098      2545
 -1      4893    3    0    1
 -2      1728      1887      1915      2198
 -1      4894    3    0    1
 -2      1747      1918      2158      2385
 -1      4895    3    0    1
 -2      1564      1589      1843      2177
 -1      4896    3    0    1
 -2       161       357      1257      2042
 -1      4897    3    0    1
 -2      1838      1660      2051      2084
 -1      4898    3    0    1
 -2      1561      1174      2225      2773
 -1      4899    3    0    1
 -2      2352      1977      2656      2707
 -1      4900    3    0    1
 -2       427        53      2776      2831
 -1      4901    3    0    1
 -2      1870      2151      2152      2311
 -1      4902    3    0    1
 -2       544       943      2412      2742
 -1      4903    3    0    1
 -2       327       140      1246      2043
 -1      4904    3    0    1
 -2       655      1000      1246      2043
 -1      4905    3    0    1
 -2      1000       342      1246      2043
 -1      4906    3    0    1
 -2       342       327      1246      2043
 -1      4907    3    0    1
 -2       630       655      1246      2043
 -1      4908    3    0    1
 -2       343       342      1000      2043
 -1      4909    3    0    1
 -2       918        29      2351      2510
 -1      4910    3    0    1
 -2      1587      1550      2300      2350
 -1      4911    3    0    1
 -2      2050       592      2413      2543
 -1      4912    3    0    1
 -2      1396       865      1122      2171
 -1      4913    3    0    1
 -2       592       965      2176      2543
 -1      4914    3    0    1
 -2      1932      2031      2055      2073
 -1      4915    3    0    1
 -2      1942      1685      2381      2410
 -1      4916    3    0    1
 -2      2020      2797        75      2805
 -1      4917    3    0    1
 -2      1629      1588      2296      2599
 -1      4918    3    0    1
 -2       896       863      2191      2385
 -1      4919    3    0    1
 -2      1116      1141      2330      2623
 -1      4920    3    0    1
 -2      1984      1989      2031      2055
 -1      4921    3    0    1
 -2      1823      1624      1830      2074
 -1      4922    3    0    1
 -2      1650      1769      2227      2228
 -1      4923    3    0    1
 -2       177       330      1011      2045
 -1      4924    3    0    1
 -2      1637      1984      2031      2055
 -1      4925    3    0    1
 -2      1004       318      1696      2774
 -1      4926    3    0    1
 -2      1839       534      2282      2693
 -1      4927    3    0    1
 -2      1163       471      2034      2690
 -1      4928    3    0    1
 -2       592       615       977      2050
 -1      4929    3    0    1
 -2       271      1945      2408      2414
 -1      4930    3    0    1
 -2       965       592       977      2050
 -1      4931    3    0    1
 -2       199      1035      1282      2964
 -1      4932    3    0    1
 -2      1735      1530      1901      2138
 -1      4933    3    0    1
 -2       298       401      2186      2563
 -1      4934    3    0    1
 -2      1821      1525      1936      2533
 -1      4935    3    0    1
 -2      1668      1542      1753      2505
 -1      4936    3    0    1
 -2      1665      1611      2323      2468
 -1      4937    3    0    1
 -2      2260      2148      2439      2450
 -1      4938    3    0    1
 -2      1056       759      1745      2660
 -1      4939    3    0    1
 -2        17       907      2445      2448
 -1      4940    3    0    1
 -2      1537      1547      1794      2254
 -1      4941    3    0    1
 -2      1055       415      1647      2057
 -1      4942    3    0    1
 -2      1647       415      1844      2057
 -1      4943    3    0    1
 -2       408      1055      1051      2057
 -1      4944    3    0    1
 -2       415       408      1844      2057
 -1      4945    3    0    1
 -2       408       415      1055      2057
 -1      4946    3    0    1
 -2       975       389      2193      2233
 -1      4947    3    0    1
 -2       892      1404      2128      2259
 -1      4948    3    0    1
 -2       300      1402      1107      2117
 -1      4949    3    0    1
 -2      1842       404      1942      2381
 -1      4950    3    0    1
 -2       424      2498      2652      2769
 -1      4951    3    0    1
 -2       404      1842      2154      2381
 -1      4952    3    0    1
 -2      1659      1924      1962      2118
 -1      4953    3    0    1
 -2      1659      1529      1924      2118
 -1      4954    3    0    1
 -2      3028      3034      3049      3073
 -1      4955    3    0    1
 -2      1852      1000      2310      2516
 -1      4956    3    0    1
 -2       336      2068      2224      2411
 -1      4957    3    0    1
 -2      1588      1558      2217      2295
 -1      4958    3    0    1
 -2        29       914      1175      2697
 -1      4959    3    0    1
 -2      1791       997      2235      2550
 -1      4960    3    0    1
 -2       857      1404       892      2259
 -1      4961    3    0    1
 -2      1336      1907      2072      2316
 -1      4962    3    0    1
 -2       857       892      1148      2259
 -1      4963    3    0    1
 -2      1782       404      2154      2381
 -1      4964    3    0    1
 -2      2919      2879      2921      3069
 -1      4965    3    0    1
 -2      2078       905      2101      2545
 -1      4966    3    0    1
 -2      1788      2253      2585      2762
 -1      4967    3    0    1
 -2      1547      1602      2457      2478
 -1      4968    3    0    1
 -2      1728      1887      2198      2455
 -1      4969    3    0    1
 -2      1685      1951      2244      2067
 -1      4970    3    0    1
 -2      1685      1951      2067      2359
 -1      4971    3    0    1
 -2      1784      1567      2246      2335
 -1      4972    3    0    1
 -2       424       941      2498      2769
 -1      4973    3    0    1
 -2       373       282      1980      2372
 -1      4974    3    0    1
 -2      1710      2122      2595      2606
 -1      4975    3    0    1
 -2       404      1942      2381      2601
 -1      4976    3    0    1
 -2      1031      2048      2400      2528
 -1      4977    3    0    1
 -2      1764      1798      2007      2341
 -1      4978    3    0    1
 -2      1055      1898      2143      2341
 -1      4979    3    0    1
 -2      1947      1528      2223      2348
 -1      4980    3    0    1
 -2      1941       586      2727      2807
 -1      4981    3    0    1
 -2       420        32      1178      2441
 -1      4982    3    0    1
 -2      2855      2897      1451      3051
 -1      4983    3    0    1
 -2      2115      2593      2646      2766
 -1      4984    3    0    1
 -2      1615      1595      1624      2089
 -1      4985    3    0    1
 -2       703       678      2070      2423
 -1      4986    3    0    1
 -2      1029      1729      2144      2355
 -1      4987    3    0    1
 -2       826      1335      1746      2196
 -1      4988    3    0    1
 -2      1082       831      1094      2072
 -1      4989    3    0    1
 -2       808      1083      1336      2072
 -1      4990    3    0    1
 -2      1082      1094      1950      2072
 -1      4991    3    0    1
 -2       859       893      1149      2074
 -1      4992    3    0    1
 -2      1612      1673      2478      2479
 -1      4993    3    0    1
 -2      1823      1372      1884      2074
 -1      4994    3    0    1
 -2       859      1372      1823      2074
 -1      4995    3    0    1
 -2       859      1149      1372      2074
 -1      4996    3    0    1
 -2        67       364       943      2681
 -1      4997    3    0    1
 -2       842       841      1101      2075
 -1      4998    3    0    1
 -2       855       891      1969      2379
 -1      4999    3    0    1
 -2       380       381      2197      2653
 -1      5000    3    0    1
 -2      1529      1659      1924      2494
 -1      5001    3    0    1
 -2      1101       841      1350      2075
 -1      5002    3    0    1
 -2      1163        16      2101      2201
 -1      5003    3    0    1
 -2      1554      1667      1739      2294
 -1      5004    3    0    1
 -2      1042       351      1045      2077
 -1      5005    3    0    1
 -2       735      1042      1045      2077
 -1      5006    3    0    1
 -2      2376      1664      2418      2508
 -1      5007    3    0    1
 -2       414      2009      2184      2210
 -1      5008    3    0    1
 -2       459       466      2666      2757
 -1      5009    3    0    1
 -2        18      1818      2101      2201
 -1      5010    3    0    1
 -2       351       204      1045      2077
 -1      5011    3    0    1
 -2       415      1055      1647      2341
 -1      5012    3    0    1
 -2       736       735      1045      2077
 -1      5013    3    0    1
 -2       466      2195      2353      2666
 -1      5014    3    0    1
 -2      1804       466      2195      2353
 -1      5015    3    0    1
 -2      1070      1580      1975      2103
 -1      5016    3    0    1
 -2      2092      2258      2839      2840
 -1      5017    3    0    1
 -2      1673      1612      1709      2211
 -1      5018    3    0    1
 -2      1603      1547      1709      2211
 -1      5019    3    0    1
 -2      1096      1163      2034      2201
 -1      5020    3    0    1
 -2       372      1096      1818      2201
 -1      5021    3    0    1
 -2      2332      1850      2791      2832
 -1      5022    3    0    1
 -2      1565      1544      2212      2303
 -1      5023    3    0    1
 -2      1641      1916      2047      2082
 -1      5024    3    0    1
 -2      1916      1641      2005      2082
 -1      5025    3    0    1
 -2      1522      1916      2005      2082
 -1      5026    3    0    1
 -2      1916      1522      2047      2082
 -1      5027    3    0    1
 -2       161       358      2042      2083
 -1      5028    3    0    1
 -2        75      2541      2686      2701
 -1      5029    3    0    1
 -2      1570      1533      1944      2299
 -1      5030    3    0    1
 -2      1257       161      2042      2083
 -1      5031    3    0    1
 -2       654      1257      1852      2083
 -1      5032    3    0    1
 -2       358       161      1013      2083
 -1      5033    3    0    1
 -2      2388      2763      2799      2811
 -1      5034    3    0    1
 -2       654       679      1013      2083
 -1      5035    3    0    1
 -2      1013       161      1257      2083
 -1      5036    3    0    1
 -2       654      1013      1257      2083
 -1      5037    3    0    1
 -2      1669      1598      1981      2085
 -1      5038    3    0    1
 -2      1521      1563      1923      2085
 -1      5039    3    0    1
 -2      1521      1669      1866      2085
 -1      5040    3    0    1
 -2      1521      1866      1963      2085
 -1      5041    3    0    1
 -2      1563      1521      1963      2085
 -1      5042    3    0    1
 -2      1598      1669      1923      2085
 -1      5043    3    0    1
 -2      1669      1521      1923      2085
 -1      5044    3    0    1
 -2      2092      2258      2294      2839
 -1      5045    3    0    1
 -2      1610       285      2014      2165
 -1      5046    3    0    1
 -2      1961      2054      2144      2390
 -1      5047    3    0    1
 -2      2054      1961      2194      2390
 -1      5048    3    0    1
 -2      1739      2258      2294      2430
 -1      5049    3    0    1
 -2      1598      1812      1828      2391
 -1      5050    3    0    1
 -2      1004      1696      2443      2774
 -1      5051    3    0    1
 -2      1857      1664      1995      2167
 -1      5052    3    0    1
 -2      1638      1857      1995      2167
 -1      5053    3    0    1
 -2      1592      2120      2140      2460
 -1      5054    3    0    1
 -2      1598      1679      1981      2391
 -1      5055    3    0    1
 -2       943       364      2412      2681
 -1      5056    3    0    1
 -2      1547      1602      2254      2457
 -1      5057    3    0    1
 -2       140       137      2772      2815
 -1      5058    3    0    1
 -2       288      1090      2014      2165
 -1      5059    3    0    1
 -2      1104       438      2149      2562
 -1      5060    3    0    1
 -2       195      1845      2112      2251
 -1      5061    3    0    1
 -2      1732      1677      1914      2266
 -1      5062    3    0    1
 -2      2013       700      2047      2251
 -1      5063    3    0    1
 -2      1095       288      1610      2165
 -1      5064    3    0    1
 -2       190      2048      2528      2571
 -1      5065    3    0    1
 -2       750       775      1066      2086
 -1      5066    3    0    1
 -2       750      1066      1299      2086
 -1      5067    3    0    1
 -2       285       288      2014      2165
 -1      5068    3    0    1
 -2      1592      2146      2168      2460
 -1      5069    3    0    1
 -2       871      1135       879      2091
 -1      5070    3    0    1
 -2      1983        67      2527      2681
 -1      5071    3    0    1
 -2      2415      1847      2551      2684
 -1      5072    3    0    1
 -2       330      2435      2612      2760
 -1      5073    3    0    1
 -2      1907      1336      1980      2316
 -1      5074    3    0    1
 -2       913      1176       486      2939
 -1      5075    3    0    1
 -2      1636      1083      2072      2316
 -1      5076    3    0    1
 -2      3052      1416      1470      1471
 -1      5077    3    0    1
 -2      1761      1571      2181      2491
 -1      5078    3    0    1
 -2       962       586      1223      2499
 -1      5079    3    0    1
 -2       874       856      2136      2234
 -1      5080    3    0    1
 -2       784      2103      2466      2720
 -1      5081    3    0    1
 -2      1780      1577      2062      2093
 -1      5082    3    0    1
 -2      1198      1983      2282      2693
 -1      5083    3    0    1
 -2       391      1579      1735      2093
 -1      5084    3    0    1
 -2      2189      1722      2506      2739
 -1      5085    3    0    1
 -2      1543      1639      1920      2597
 -1      5086    3    0    1
 -2       926       391      2062      2093
 -1      5087    3    0    1
 -2      1044       736      1826      2546
 -1      5088    3    0    1
 -2       462       463      2040      2098
 -1      5089    3    0    1
 -2      1045      2077      2102      2546
 -1      5090    3    0    1
 -2      2077       735      2210      2546
 -1      5091    3    0    1
 -2      1045       736      2077      2546
 -1      5092    3    0    1
 -2       974       608       606      2099
 -1      5093    3    0    1
 -2       974       606      1235      2099
 -1      5094    3    0    1
 -2      1736      1637      2059      2359
 -1      5095    3    0    1
 -2      1790      1736      1951      2359
 -1      5096    3    0    1
 -2      1972      2325      2381      2434
 -1      5097    3    0    1
 -2      1786      1573      1985      2620
 -1      5098    3    0    1
 -2      1951      1736      2067      2359
 -1      5099    3    0    1
 -2      1005      1002      1714      2443
 -1      5100    3    0    1
 -2      1545      1662      2095      2444
 -1      5101    3    0    1
 -2      1747      1784      2335      2462
 -1      5102    3    0    1
 -2      1838      1931      2064      2759
 -1      5103    3    0    1
 -2      1789      1557      2064      2759
 -1      5104    3    0    1
 -2       640       991      2728      2729
 -1      5105    3    0    1
 -2      1002      1714      2443      2548
 -1      5106    3    0    1
 -2       912      2388      2522      2549
 -1      5107    3    0    1
 -2      2219      1642      2327      2531
 -1      5108    3    0    1
 -2       832      1095      2034      2690
 -1      5109    3    0    1
 -2      1615      2089      2263      2620
 -1      5110    3    0    1
 -2      1575      1573      2556      2620
 -1      5111    3    0    1
 -2      2474      2570      2724      2759
 -1      5112    3    0    1
 -2       664       663      1005      2443
 -1      5113    3    0    1
 -2       964       954      2476      2485
 -1      5114    3    0    1
 -2       929        54      2663      2761
 -1      5115    3    0    1
 -2        16        18       905      2101
 -1      5116    3    0    1
 -2       207       227      1302      2102
 -1      5117    3    0    1
 -2       345      2827      2829      2838
 -1      5118    3    0    1
 -2      1070       784      1948      2103
 -1      5119    3    0    1
 -2      1648       334      2018      2104
 -1      5120    3    0    1
 -2      2325      1782      2381      2434
 -1      5121    3    0    1
 -2      1782       404      2381      2434
 -1      5122    3    0    1
 -2      1827      1606      2544      2572
 -1      5123    3    0    1
 -2       952      2412      2470      2554
 -1      5124    3    0    1
 -2        39      2349      2748      2821
 -1      5125    3    0    1
 -2      1003       991      2432      2700
 -1      5126    3    0    1
 -2       322      1791      2309      2582
 -1      5127    3    0    1
 -2      1310       404      1782      2434
 -1      5128    3    0    1
 -2       627       634       985      2105
 -1      5129    3    0    1
 -2      1248       985       634      2105
 -1      5130    3    0    1
 -2       439       435      1119      2401
 -1      5131    3    0    1
 -2      1880      2367      2535      2578
 -1      5132    3    0    1
 -2       837      2219      2327      2531
 -1      5133    3    0    1
 -2       177       330      2045      2433
 -1      5134    3    0    1
 -2      1017       177      2281      2433
 -1      5135    3    0    1
 -2       251      1760      1975      2695
 -1      5136    3    0    1
 -2       534       938      1839      2282
 -1      5137    3    0    1
 -2       772      1064      2602      2768
 -1      5138    3    0    1
 -2      1786      1985      2125      2215
 -1      5139    3    0    1
 -2      1563      1923      2367      2578
 -1      5140    3    0    1
 -2      1734      2300      2475      2636
 -1      5141    3    0    1
 -2      1734      1578      2300      2636
 -1      5142    3    0    1
 -2       858       875      2313      2630
 -1      5143    3    0    1
 -2      1563      1742      1923      2578
 -1      5144    3    0    1
 -2      1806      1803      2032      2113
 -1      5145    3    0    1
 -2       259      1806      2032      2113
 -1      5146    3    0    1
 -2      1586      1605      2032      2113
 -1      5147    3    0    1
 -2       263      1605      1715      2113
 -1      5148    3    0    1
 -2      1605       259      2032      2113
 -1      5149    3    0    1
 -2       263       259      1605      2113
 -1      5150    3    0    1
 -2      1348       839      1347      2114
 -1      5151    3    0    1
 -2      2537      2591      2678      2750
 -1      5152    3    0    1
 -2       839      1348       840      2114
 -1      5153    3    0    1
 -2      2526       514      2687      2715
 -1      5154    3    0    1
 -2      2250      1312      2473      2857
 -1      5155    3    0    1
 -2       972       603      2362      2677
 -1      5156    3    0    1
 -2      2148      2240      2262      2439
 -1      5157    3    0    1
 -2      2860      2175      2862      2871
 -1      5158    3    0    1
 -2      1176      2119      1413      1414
 -1      5159    3    0    1
 -2      1545      2338      2607      2640
 -1      5160    3    0    1
 -2      1694      1522      1854      2141
 -1      5161    3    0    1
 -2      2869      2438      2887      3074
 -1      5162    3    0    1
 -2      1014       323      2357      2440
 -1      5163    3    0    1
 -2      1657      2145      2338      2447
 -1      5164    3    0    1
 -2      1995      1552      2006      2142
 -1      5165    3    0    1
 -2      1522      1999      2005      2141
 -1      5166    3    0    1
 -2      1522      1750      1999      2141
 -1      5167    3    0    1
 -2       404      1067      1310      2154
 -1      5168    3    0    1
 -2      1522      1694      1750      2141
 -1      5169    3    0    1
 -2      1794      1592      2146      2168
 -1      5170    3    0    1
 -2      1630      1552      1691      2142
 -1      5171    3    0    1
 -2       989       137       992      2815
 -1      5172    3    0    1
 -2       382        80       954      2633
 -1      5173    3    0    1
 -2      1669      1521      1866      2124
 -1      5174    3    0    1
 -2      1859       384      2511      2590
 -1      5175    3    0    1
 -2      1821      1525      1946      2557
 -1      5176    3    0    1
 -2      1811      1799      2107      2125
 -1      5177    3    0    1
 -2       175      2001      2396      2559
 -1      5178    3    0    1
 -2      2036      2230      2242      2597
 -1      5179    3    0    1
 -2      1865      1525      1806      1936
 -1      5180    3    0    1
 -2      1597      1811      2107      2125
 -1      5181    3    0    1
 -2      1985      1597      2107      2125
 -1      5182    3    0    1
 -2       664      1004      2443      2461
 -1      5183    3    0    1
 -2      1716       972      2677       125
 -1      5184    3    0    1
 -2      1738      1755      2329      2379
 -1      5185    3    0    1
 -2      1573      2107      2487      2556
 -1      5186    3    0    1
 -2      1004      2443      2461      2774
 -1      5187    3    0    1
 -2      1799      2107      2125      2556
 -1      5188    3    0    1
 -2      2274       555      2561      2789
 -1      5189    3    0    1
 -2      2229      1575      2263      2487
 -1      5190    3    0    1
 -2      1592      1794      2146      2260
 -1      5191    3    0    1
 -2       282       373      1980      2129
 -1      5192    3    0    1
 -2       373       282      1333      2129
 -1      5193    3    0    1
 -2      1585      1548      1686      2130
 -1      5194    3    0    1
 -2       418      2704      2808      2809
 -1      5195    3    0    1
 -2      1370      1384      1809      2234
 -1      5196    3    0    1
 -2      1686       389      1797      2130
 -1      5197    3    0    1
 -2      1585      1686      1797      2130
 -1      5198    3    0    1
 -2      2397      2002      2537      2678
 -1      5199    3    0    1
 -2      1585      1548      2130      2131
 -1      5200    3    0    1
 -2      2034      1095      2347      2690
 -1      5201    3    0    1
 -2      2051      1660      1546      2084
 -1      5202    3    0    1
 -2        13        17       907      2445
 -1      5203    3    0    1
 -2      1660      2051      1546      2132
 -1      5204    3    0    1
 -2      1025       700      2013      2133
 -1      5205    3    0    1
 -2      1025      2013      2041      2133
 -1      5206    3    0    1
 -2       700      1025      1029      2133
 -1      5207    3    0    1
 -2      1029      1025      1729      2133
 -1      5208    3    0    1
 -2       185      1025      2041      2133
 -1      5209    3    0    1
 -2      1025       185      1729      2133
 -1      5210    3    0    1
 -2      1729       185      2041      2133
 -1      5211    3    0    1
 -2      1793       840      1903      2134
 -1      5212    3    0    1
 -2       295      1645      1670      2134
 -1      5213    3    0    1
 -2      1349       295      1670      2134
 -1      5214    3    0    1
 -2      1349      1346      1903      2134
 -1      5215    3    0    1
 -2      1346      1349      1670      2134
 -1      5216    3    0    1
 -2      2041      1999      2082      2279
 -1      5217    3    0    1
 -2      1132       856      1110      2136
 -1      5218    3    0    1
 -2       177      2045      2240      2281
 -1      5219    3    0    1
 -2       856      1132       874      2136
 -1      5220    3    0    1
 -2       174       177      2240      2281
 -1      5221    3    0    1
 -2      1159       906       459      2573
 -1      5222    3    0    1
 -2       399      1145      2149      2562
 -1      5223    3    0    1
 -2      1026      1845      2013      2137
 -1      5224    3    0    1
 -2       700      1026      2013      2137
 -1      5225    3    0    1
 -2      1026      1279      1845      2137
 -1      5226    3    0    1
 -2      1026       700      1279      2137
 -1      5227    3    0    1
 -2      1532      1013      2423      2661
 -1      5228    3    0    1
 -2      1875      1623      1879      2138
 -1      5229    3    0    1
 -2      2062      1879      2093      2138
 -1      5230    3    0    1
 -2      1623      1735      1879      2138
 -1      5231    3    0    1
 -2      1879      1735      2093      2138
 -1      5232    3    0    1
 -2      1738      1905      2181      2491
 -1      5233    3    0    1
 -2      1751      1702      1766      2180
 -1      5234    3    0    1
 -2       289      1783      2501      2674
 -1      5235    3    0    1
 -2      1743      1663      2108      2237
 -1      5236    3    0    1
 -2      1766      1650      1769      2171
 -1      5237    3    0    1
 -2       366       381      2498      2743
 -1      5238    3    0    1
 -2      2713       519      2777      2835
 -1      5239    3    0    1
 -2      1750      1652      1999      2395
 -1      5240    3    0    1
 -2      1067       241      1799      2154
 -1      5241    3    0    1
 -2      1799       241      1842      2154
 -1      5242    3    0    1
 -2      2337      1999      2382      2395
 -1      5243    3    0    1
 -2      1691      1552      1995      2142
 -1      5244    3    0    1
 -2      2431      1245      2464      2702
 -1      5245    3    0    1
 -2      2544        86      2572      2699
 -1      5246    3    0    1
 -2      1887      1821      1946      2455
 -1      5247    3    0    1
 -2       331      1729      1949      2144
 -1      5248    3    0    1
 -2       331      1029      1729      2144
 -1      5249    3    0    1
 -2      1746      1093      1748      2343
 -1      5250    3    0    1
 -2      1374      1151      1567      2246
 -1      5251    3    0    1
 -2       802      1785      2192      2336
 -1      5252    3    0    1
 -2      1831      1810      2295      2531
 -1      5253    3    0    1
 -2      1700      1565      2303      2339
 -1      5254    3    0    1
 -2      1013      1532      2083      2661
 -1      5255    3    0    1
 -2       293      1099      1345      2531
 -1      5256    3    0    1
 -2       366       381      2650      2652
 -1      5257    3    0    1
 -2      1621      2213      2580      2677
 -1      5258    3    0    1
 -2      1703      1701      1982      2151
 -1      5259    3    0    1
 -2      1380      1630      1691      2153
 -1      5260    3    0    1
 -2      1652      1650      2337      2395
 -1      5261    3    0    1
 -2      1682      1825      2149      2562
 -1      5262    3    0    1
 -2       278       396      1607      2668
 -1      5263    3    0    1
 -2       446       324      1126      2153
 -1      5264    3    0    1
 -2      1393       324      1691      2153
 -1      5265    3    0    1
 -2      1126       324      1393      2153
 -1      5266    3    0    1
 -2      1650      1652      2227      2395
 -1      5267    3    0    1
 -2      1310      1067      1782      2154
 -1      5268    3    0    1
 -2       404      1310      1782      2154
 -1      5269    3    0    1
 -2      1747       417      1918      2385
 -1      5270    3    0    1
 -2       863      1152      1375      2385
 -1      5271    3    0    1
 -2      1600      2354      2524      2533
 -1      5272    3    0    1
 -2       271      1902      1943      2414
 -1      5273    3    0    1
 -2      1613      1634      2017      2566
 -1      5274    3    0    1
 -2       740       750      2942      2951
 -1      5275    3    0    1
 -2       340       341      3059      3066
 -1      5276    3    0    1
 -2      1634      1682      2156      2566
 -1      5277    3    0    1
 -2      2017      2156      2564      2566
 -1      5278    3    0    1
 -2      3059      3040      1478      3066
 -1      5279    3    0    1
 -2      1529        12      2538      2573
 -1      5280    3    0    1
 -2      1650      1769      2171      2227
 -1      5281    3    0    1
 -2      1245       988      2664      2670
 -1      5282    3    0    1
 -2       417      1375      1152      2385
 -1      5283    3    0    1
 -2       584       558      1225      2155
 -1      5284    3    0    1
 -2       558       949      1225      2155
 -1      5285    3    0    1
 -2      3028      1457      1456      1412
 -1      5286    3    0    1
 -2      1807      2156      2563      2564
 -1      5287    3    0    1
 -2      1638      1551      2167      2187
 -1      5288    3    0    1
 -2      1676      1549      2139      2160
 -1      5289    3    0    1
 -2      1000       655      1852      2310
 -1      5290    3    0    1
 -2       655      1000      2043      2310
 -1      5291    3    0    1
 -2       190       335      2048      2571
 -1      5292    3    0    1
 -2      1734      1550      2475      2726
 -1      5293    3    0    1
 -2      2108      1680      2726      2818
 -1      5294    3    0    1
 -2      2052      1625      2053      2162
 -1      5295    3    0    1
 -2      1390      1124      1994      2162
 -1      5296    3    0    1
 -2      1124      1732      1994      2162
 -1      5297    3    0    1
 -2      1388       309       314      2162
 -1      5298    3    0    1
 -2       309      1390       314      2162
 -1      5299    3    0    1
 -2       309      1388      1127      2162
 -1      5300    3    0    1
 -2      1732       309      1914      2162
 -1      5301    3    0    1
 -2      1914      2052      2053      2162
 -1      5302    3    0    1
 -2      1914      1127      2052      2162
 -1      5303    3    0    1
 -2       309      1127      1914      2162
 -1      5304    3    0    1
 -2      1390       309      1124      2162
 -1      5305    3    0    1
 -2      1124       309      1732      2162
 -1      5306    3    0    1
 -2       774       775      1312      2164
 -1      5307    3    0    1
 -2      1311      1066       775      2459
 -1      5308    3    0    1
 -2      1162       400      2069      2353
 -1      5309    3    0    1
 -2      2453       531      2653      2717
 -1      5310    3    0    1
 -2      1648      2018      2047      2251
 -1      5311    3    0    1
 -2      1635      1677      1732      2266
 -1      5312    3    0    1
 -2      1311      1974      2106      2164
 -1      5313    3    0    1
 -2      1311       774      1974      2164
 -1      5314    3    0    1
 -2      1845      2018      2112      2251
 -1      5315    3    0    1
 -2      2146      1592      2260      2460
 -1      5316    3    0    1
 -2      1592      2140      2260      2460
 -1      5317    3    0    1
 -2       651       997      2235      2460
 -1      5318    3    0    1
 -2      1977      2204      2318      2319
 -1      5319    3    0    1
 -2      1602      2139      2254      2457
 -1      5320    3    0    1
 -2       195      1026      1845      2251
 -1      5321    3    0    1
 -2      1026       700      2013      2251
 -1      5322    3    0    1
 -2       392      2764      2811      2835
 -1      5323    3    0    1
 -2      1068       783      1922      2720
 -1      5324    3    0    1
 -2      1110      1132      2136      2628
 -1      5325    3    0    1
 -2      2225        25      2600      2621
 -1      5326    3    0    1
 -2      1615      1595      2089      2208
 -1      5327    3    0    1
 -2       174       317      1016      2170
 -1      5328    3    0    1
 -2       872      1130      1869      2480
 -1      5329    3    0    1
 -2      2015      2002      2397      2592
 -1      5330    3    0    1
 -2      1539      1601      1694      2241
 -1      5331    3    0    1
 -2       266      1636      1978      2316
 -1      5332    3    0    1
 -2      2602       772      2768      2826
 -1      5333    3    0    1
 -2      1595      1985      2089      2208
 -1      5334    3    0    1
 -2      1201       930      1531      2721
 -1      5335    3    0    1
 -2      1595      1615      1644      2208
 -1      5336    3    0    1
 -2      1860      1993      2158      2241
 -1      5337    3    0    1
 -2      1524      1594      1966      2462
 -1      5338    3    0    1
 -2      1601      1539      2191      2241
 -1      5339    3    0    1
 -2      2772       347      2827      2829
 -1      5340    3    0    1
 -2      2087      1884      2089      2263
 -1      5341    3    0    1
 -2      1723      1840      1955      2307
 -1      5342    3    0    1
 -2       953       567      2554      2744
 -1      5343    3    0    1
 -2      1840       724      1955      2307
 -1      5344    3    0    1
 -2       567       544      2554      2744
 -1      5345    3    0    1
 -2      2067      1951      2244      2682
 -1      5346    3    0    1
 -2      1590       712      2400      2528
 -1      5347    3    0    1
 -2       370      1201      1531      2527
 -1      5348    3    0    1
 -2      2068       336      2371      2737
 -1      5349    3    0    1
 -2      1738      1571      1755      2682
 -1      5350    3    0    1
 -2      1032       712      1590      2528
 -1      5351    3    0    1
 -2       832      1096      2034      2372
 -1      5352    3    0    1
 -2      2850      2881      3034      2910
 -1      5353    3    0    1
 -2       370       423      2100      2792
 -1      5354    3    0    1
 -2      2120      2140      2460      2714
 -1      5355    3    0    1
 -2      1291      1535      1970      2184
 -1      5356    3    0    1
 -2      1535       414      2009      2184
 -1      5357    3    0    1
 -2       334      1291      1970      2184
 -1      5358    3    0    1
 -2        66      2174      2477      2688
 -1      5359    3    0    1
 -2        54        41       929      2663
 -1      5360    3    0    1
 -2       603      2213      2362      2677
 -1      5361    3    0    1
 -2      2362      2213      2589      2677
 -1      5362    3    0    1
 -2      2347       907      2448      2560
 -1      5363    3    0    1
 -2      1936      1525      2354      2533
 -1      5364    3    0    1
 -2      1402       853      1107      2407
 -1      5365    3    0    1
 -2       853       890      1971      2407
 -1      5366    3    0    1
 -2      1928      1932      2055      2407
 -1      5367    3    0    1
 -2      1932      2027      2055      2407
 -1      5368    3    0    1
 -2      1769       884      2171      2227
 -1      5369    3    0    1
 -2      2015      2397      2437      2477
 -1      5370    3    0    1
 -2       249      1753      1956      2205
 -1      5371    3    0    1
 -2       712       711      2400      2528
 -1      5372    3    0    1
 -2       819      1877      2026      2467
 -1      5373    3    0    1
 -2       332      1136      1751      2180
 -1      5374    3    0    1
 -2      1396       307       332      2180
 -1      5375    3    0    1
 -2      1396       332      1751      2180
 -1      5376    3    0    1
 -2      1396      1751      1769      2180
 -1      5377    3    0    1
 -2      1726      1921      1952      2492
 -1      5378    3    0    1
 -2      1645      1670      1726      2492
 -1      5379    3    0    1
 -2      2032      2029      2123      2617
 -1      5380    3    0    1
 -2      1739      1667      1792      2183
 -1      5381    3    0    1
 -2      1792      1667      2175      2183
 -1      5382    3    0    1
 -2      1693      1757      1762      2736
 -1      5383    3    0    1
 -2      1453      3027      3046      3077
 -1      5384    3    0    1
 -2       678      1935      2070      2423
 -1      5385    3    0    1
 -2      2003      1683      2175      2662
 -1      5386    3    0    1
 -2      1612      1603      1709      2211
 -1      5387    3    0    1
 -2      1603      1612      1688      2211
 -1      5388    3    0    1
 -2      1661      1804      1934      2504
 -1      5389    3    0    1
 -2      1688      1673      1779      2211
 -1      5390    3    0    1
 -2      1688      1632      1824      2211
 -1      5391    3    0    1
 -2      2218       382      2511      2633
 -1      5392    3    0    1
 -2       334       333      1291      2184
 -1      5393    3    0    1
 -2       889      1634      1682      2186
 -1      5394    3    0    1
 -2      1682      1634      2156      2186
 -1      5395    3    0    1
 -2       851       889      1682      2186
 -1      5396    3    0    1
 -2      1401       298       401      2186
 -1      5397    3    0    1
 -2       851      1401       889      2186
 -1      5398    3    0    1
 -2       298      1401      1105      2186
 -1      5399    3    0    1
 -2       851      1682      2156      2186
 -1      5400    3    0    1
 -2      1105       851      2156      2186
 -1      5401    3    0    1
 -2      1401       851      1105      2186
 -1      5402    3    0    1
 -2      1763      1692      2150      2187
 -1      5403    3    0    1
 -2      1638      1756      1763      2187
 -1      5404    3    0    1
 -2      1756      1692      1763      2187
 -1      5405    3    0    1
 -2      1832      1528      1930      2223
 -1      5406    3    0    1
 -2      2120      2170      2291      2306
 -1      5407    3    0    1
 -2      1555      2202      2286      2587
 -1      5408    3    0    1
 -2      1972      2381      2410      2601
 -1      5409    3    0    1
 -2      1385      1113      1927      2630
 -1      5410    3    0    1
 -2       923      2780      2786      2822
 -1      5411    3    0    1
 -2      1859      2094      2363      2590
 -1      5412    3    0    1
 -2      2285      1651      2577      2631
 -1      5413    3    0    1
 -2      1762      2238      2377      2404
 -1      5414    3    0    1
 -2      2276      1815      2427      2604
 -1      5415    3    0    1
 -2       483      1561      2549      2706
 -1      5416    3    0    1
 -2      2048      1017      2433      2472
 -1      5417    3    0    1
 -2      2121      2123      2264      2617
 -1      5418    3    0    1
 -2      1385      1927      2313      2630
 -1      5419    3    0    1
 -2       778      1067      1873      2190
 -1      5420    3    0    1
 -2      1858       610      2066      2193
 -1      5421    3    0    1
 -2      1597      1725      2125      2215
 -1      5422    3    0    1
 -2       603       971      2302      2580
 -1      5423    3    0    1
 -2       975       389      1541      2193
 -1      5424    3    0    1
 -2       558       560      1839      2326
 -1      5425    3    0    1
 -2       363       228      2008      2525
 -1      5426    3    0    1
 -2       950      1211      2365      2409
 -1      5427    3    0    1
 -2      2077       351      2200      2694
 -1      5428    3    0    1
 -2      2402       193      2598      2694
 -1      5429    3    0    1
 -2      2356       950      2365      2409
 -1      5430    3    0    1
 -2      2326       560      1211       558
 -1      5431    3    0    1
 -2      2409      1211       560       950
 -1      5432    3    0    1
 -2      1389       869       877      2520
 -1      5433    3    0    1
 -2      1379      1389      2012      2520
 -1      5434    3    0    1
 -2      1544      1584      1684      2659
 -1      5435    3    0    1
 -2      2258      2092      2294      2430
 -1      5436    3    0    1
 -2       579       586      1941      2499
 -1      5437    3    0    1
 -2      2004      1557      2280      2375
 -1      5438    3    0    1
 -2      1534      1957      2064      2375
 -1      5439    3    0    1
 -2      2561      1859      2590      2705
 -1      5440    3    0    1
 -2      2608       675      1011      2236
 -1      5441    3    0    1
 -2      2012      1625      2052      2520
 -1      5442    3    0    1
 -2       463       905      2078      2545
 -1      5443    3    0    1
 -2      2306      2170      2627      2639
 -1      5444    3    0    1
 -2      1379      2012      2052      2520
 -1      5445    3    0    1
 -2      2332      2383      2638      2791
 -1      5446    3    0    1
 -2       204       351      1289      2200
 -1      5447    3    0    1
 -2      1289      1583      2102      2200
 -1      5448    3    0    1
 -2       204      1289      2102      2200
 -1      5449    3    0    1
 -2       330      2435      2515      2612
 -1      5450    3    0    1
 -2      2142      1697      2394      2446
 -1      5451    3    0    1
 -2      1772      2010      2223      2348
 -1      5452    3    0    1
 -2      1944      1947      2223      2348
 -1      5453    3    0    1
 -2       372        18      1163      2201
 -1      5454    3    0    1
 -2      1096       372      1163      2201
 -1      5455    3    0    1
 -2      1628      1991      2271      2287
 -1      5456    3    0    1
 -2      1623      1875      1879      2622
 -1      5457    3    0    1
 -2       606       973      2358      2452
 -1      5458    3    0    1
 -2       381       937      2650      2653
 -1      5459    3    0    1
 -2       393      1190      2687      2764
 -1      5460    3    0    1
 -2       273      1085      2954      3008
 -1      5461    3    0    1
 -2      1066      1311      2106      2459
 -1      5462    3    0    1
 -2      1053      1300      1424      3057
 -1      5463    3    0    1
 -2      1769      1576      2228      2320
 -1      5464    3    0    1
 -2      2228      1576      2238      2320
 -1      5465    3    0    1
 -2      1554      1792      2249      2319
 -1      5466    3    0    1
 -2      1677      1914      2266      2725
 -1      5467    3    0    1
 -2       329      1758      2421      2667
 -1      5468    3    0    1
 -2      1858       603      2302      2362
 -1      5469    3    0    1
 -2       603      2213      2302      2362
 -1      5470    3    0    1
 -2      1069       249      1956      2205
 -1      5471    3    0    1
 -2      2763      2799      2811      2835
 -1      5472    3    0    1
 -2       135      1734      1787      2206
 -1      5473    3    0    1
 -2       135      1680      1734      2206
 -1      5474    3    0    1
 -2      1685      1842      1942      2381
 -1      5475    3    0    1
 -2       775      1312      2164      2473
 -1      5476    3    0    1
 -2      1016       687      1017      2207
 -1      5477    3    0    1
 -2      1321       795      1675      2398
 -1      5478    3    0    1
 -2       802      1080      1785      2398
 -1      5479    3    0    1
 -2      1321      1080       795      2398
 -1      5480    3    0    1
 -2       104       961      2463      2514
 -1      5481    3    0    1
 -2      2326      1211      2365      2514
 -1      5482    3    0    1
 -2      2041      1999      2279      2382
 -1      5483    3    0    1
 -2       534       536       938      2282
 -1      5484    3    0    1
 -2       726      1583      2239      2275
 -1      5485    3    0    1
 -2      2126      2127      2177      2600
 -1      5486    3    0    1
 -2      2656      2553      2707      2869
 -1      5487    3    0    1
 -2       861      1141      1116      2762
 -1      5488    3    0    1
 -2       336       962      1223      2499
 -1      5489    3    0    1
 -2      1560      2152      2311      2371
 -1      5490    3    0    1
 -2      1621      2594      2643      2734
 -1      5491    3    0    1
 -2      1532      1268      1886      2423
 -1      5492    3    0    1
 -2        25      2127      2225      2600
 -1      5493    3    0    1
 -2      2076      1608      2222      2296
 -1      5494    3    0    1
 -2      1667      1554      2249      2352
 -1      5495    3    0    1
 -2      1808      1321      1943      2354
 -1      5496    3    0    1
 -2       706      1029      2245      2355
 -1      5497    3    0    1
 -2       372       373      1818      2372
 -1      5498    3    0    1
 -2       269       371      1081      2611
 -1      5499    3    0    1
 -2       146      2643      2655      2734
 -1      5500    3    0    1
 -2      2593      1591      2692      2766
 -1      5501    3    0    1
 -2      1748      2081      2524      2533
 -1      5502    3    0    1
 -2      1211      2326      2365      2409
 -1      5503    3    0    1
 -2      1413      1161      1440      3075
 -1      5504    3    0    1
 -2      1600      1808      1943      2354
 -1      5505    3    0    1
 -2      2449       377      2606      2809
 -1      5506    3    0    1
 -2      1279      2435      2571      2657
 -1      5507    3    0    1
 -2       615       616      2584      2754
 -1      5508    3    0    1
 -2      1756      1378      1774      2446
 -1      5509    3    0    1
 -2       483      1561      2465      2549
 -1      5510    3    0    1
 -2      1299       750      2086      2389
 -1      5511    3    0    1
 -2      1299      1054       750      2389
 -1      5512    3    0    1
 -2        39      1187      2746      2812
 -1      5513    3    0    1
 -2        41       923      2780      2786
 -1      5514    3    0    1
 -2      2222      1608      2454      2638
 -1      5515    3    0    1
 -2      2202       854      1387       876
 -1      5516    3    0    1
 -2       223       227      1054      2389
 -1      5517    3    0    1
 -2      1032      1590      2288      2528
 -1      5518    3    0    1
 -2       363       223      1299      2389
 -1      5519    3    0    1
 -2      1525      1806      1936      2354
 -1      5520    3    0    1
 -2      2776       519      2625       927
 -1      5521    3    0    1
 -2        80       382       948      2218
 -1      5522    3    0    1
 -2       322      1001      2582      2741
 -1      5523    3    0    1
 -2       520       930      2502      2673
 -1      5524    3    0    1
 -2      1865      1803      2557      2617
 -1      5525    3    0    1
 -2      1300       751      2275      2512
 -1      5526    3    0    1
 -2      1258      1968      2298      2486
 -1      5527    3    0    1
 -2       382       384       948      2218
 -1      5528    3    0    1
 -2      2538      1159      2552      2573
 -1      5529    3    0    1
 -2       606      2099      2452      2619
 -1      5530    3    0    1
 -2      1465      1462      1487      2977
 -1      5531    3    0    1
 -2      1932      1928      2055      2221
 -1      5532    3    0    1
 -2      1989      2030      2031      2221
 -1      5533    3    0    1
 -2      1989      1998      2030      2221
 -1      5534    3    0    1
 -2      1989      2031      2055      2221
 -1      5535    3    0    1
 -2      1989      1928      1998      2221
 -1      5536    3    0    1
 -2      1928      1989      2055      2221
 -1      5537    3    0    1
 -2      2207      1017      2433      2513
 -1      5538    3    0    1
 -2      1905      1738      2181      2329
 -1      5539    3    0    1
 -2       735      1042      2077      2429
 -1      5540    3    0    1
 -2       727       726      2239      2275
 -1      5541    3    0    1
 -2      1290       727      2239      2275
 -1      5542    3    0    1
 -2      1290      1039       727      2275
 -1      5543    3    0    1
 -2      1784      1747      2246      2297
 -1      5544    3    0    1
 -2      1151      1567      2246      2297
 -1      5545    3    0    1
 -2      1955      1535      1986      2307
 -1      5546    3    0    1
 -2      1776       702      2239      2312
 -1      5547    3    0    1
 -2      2437      1885      2477      2490
 -1      5548    3    0    1
 -2      1543      1920      2230      2597
 -1      5549    3    0    1
 -2      1592      1537      2260      2357
 -1      5550    3    0    1
 -2      1985      2089      2208      2620
 -1      5551    3    0    1
 -2      1469      1418      1486      3012
 -1      5552    3    0    1
 -2       337      2415      2551      2684
 -1      5553    3    0    1
 -2      1650      1769      2228      2320
 -1      5554    3    0    1
 -2      2123      2029      2264      2617
 -1      5555    3    0    1
 -2       972      1716      2677      2362
 -1      5556    3    0    1
 -2      2163       838      2219      2327
 -1      5557    3    0    1
 -2      1578      1582      1787      2471
 -1      5558    3    0    1
 -2      2010      2323      2468      2641
 -1      5559    3    0    1
 -2      1178       918       496      2510
 -1      5560    3    0    1
 -2        82        85      1211      2226
 -1      5561    3    0    1
 -2       591      2176      2476      2509
 -1      5562    3    0    1
 -2       383        82       961      2226
 -1      5563    3    0    1
 -2       961        82      1211      2226
 -1      5564    3    0    1
 -2      2433      2048      2472      2515
 -1      5565    3    0    1
 -2      2464       136      2474      2724
 -1      5566    3    0    1
 -2       774      1065      1323      2248
 -1      5567    3    0    1
 -2       651      2140      2278      2714
 -1      5568    3    0    1
 -2      1720      1705      1771      2231
 -1      5569    3    0    1
 -2      1771      1705      1798      2231
 -1      5570    3    0    1
 -2      1798      1705      1939      2231
 -1      5571    3    0    1
 -2      1136      1751      2180      2243
 -1      5572    3    0    1
 -2      1637      1984      2059      2232
 -1      5573    3    0    1
 -2      1984      1713      2230      2232
 -1      5574    3    0    1
 -2       336      1533      2068      2411
 -1      5575    3    0    1
 -2      1533       336      2224      2411
 -1      5576    3    0    1
 -2      2238      2228      2337      2382
 -1      5577    3    0    1
 -2       389       118      1797      2233
 -1      5578    3    0    1
 -2      1370      1809      2136      2234
 -1      5579    3    0    1
 -2      1384       856       874      2234
 -1      5580    3    0    1
 -2       856      1370      2136      2234
 -1      5581    3    0    1
 -2       856      1384      1370      2234
 -1      5582    3    0    1
 -2      1791       997      2146      2235
 -1      5583    3    0    1
 -2      1025      2041      2047      2279
 -1      5584    3    0    1
 -2       177       174      1016      2281
 -1      5585    3    0    1
 -2       463       462       905      2545
 -1      5586    3    0    1
 -2      1571      1738      2181      2491
 -1      5587    3    0    1
 -2      2047      2041      2082      2279
 -1      5588    3    0    1
 -2       651       997      1001      2235
 -1      5589    3    0    1
 -2       640       639       992      2728
 -1      5590    3    0    1
 -2      1652      1750      1999      2279
 -1      5591    3    0    1
 -2       118      1796      2233      2489
 -1      5592    3    0    1
 -2      1750      1522      1999      2279
 -1      5593    3    0    1
 -2      1663      1743      2012      2237
 -1      5594    3    0    1
 -2      1565      1700      1744      2339
 -1      5595    3    0    1
 -2      1355      1657      2145      2273
 -1      5596    3    0    1
 -2      1743      1546      2012      2237
 -1      5597    3    0    1
 -2       888       850      1744      2339
 -1      5598    3    0    1
 -2      1659      1679      1924      2321
 -1      5599    3    0    1
 -2      1598      1669      1981      2321
 -1      5600    3    0    1
 -2      2027      1932      2117      2407
 -1      5601    3    0    1
 -2      1289      1040       726      2239
 -1      5602    3    0    1
 -2      1289       726      1583      2239
 -1      5603    3    0    1
 -2      1608      2222      2454      2637
 -1      5604    3    0    1
 -2       702       727      1040      2239
 -1      5605    3    0    1
 -2      1386      1651      2285      2313
 -1      5606    3    0    1
 -2       702      1040      1277      2239
 -1      5607    3    0    1
 -2      1694      1601      1750      2241
 -1      5608    3    0    1
 -2      1750      1601      2141      2241
 -1      5609    3    0    1
 -2      1694      1750      2141      2241
 -1      5610    3    0    1
 -2      1539      1860      2191      2241
 -1      5611    3    0    1
 -2      1860      1694      1993      2241
 -1      5612    3    0    1
 -2      1539      1694      1860      2241
 -1      5613    3    0    1
 -2      1760       371      2416      2695
 -1      5614    3    0    1
 -2      1277       353      1940      2598
 -1      5615    3    0    1
 -2       193      1277      2402      2598
 -1      5616    3    0    1
 -2      1984      2036      2230      2242
 -1      5617    3    0    1
 -2      2689        34      2763      2825
 -1      5618    3    0    1
 -2      1123       866      1702      2243
 -1      5619    3    0    1
 -2       866      1377      1702      2243
 -1      5620    3    0    1
 -2      1702      1377      2180      2243
 -1      5621    3    0    1
 -2      2054      1961      2144      2245
 -1      5622    3    0    1
 -2      1621      2594      2615      2643
 -1      5623    3    0    1
 -2      2148      1270      2240      2439
 -1      5624    3    0    1
 -2      1030      1018      1848      2513
 -1      5625    3    0    1
 -2      2519       544      2554      2742
 -1      5626    3    0    1
 -2       322      1001      2550      2582
 -1      5627    3    0    1
 -2      1671       322      2309      2582
 -1      5628    3    0    1
 -2      2517      2488      2550      2582
 -1      5629    3    0    1
 -2      2294      1554      2352      2436
 -1      5630    3    0    1
 -2      2170      1016      2627      2639
 -1      5631    3    0    1
 -2       146      2589      2635      2643
 -1      5632    3    0    1
 -2       826      1093      1746      2343
 -1      5633    3    0    1
 -2      1279       190      1845      2571
 -1      5634    3    0    1
 -2      2232      1685      2360      2410
 -1      5635    3    0    1
 -2        54       923      2786      2787
 -1      5636    3    0    1
 -2       960       582      2364      2651
 -1      5637    3    0    1
 -2      2015      2397      2477      2490
 -1      5638    3    0    1
 -2       357      1005      1714      2718
 -1      5639    3    0    1
 -2      1210       555      2274      2789
 -1      5640    3    0    1
 -2      1642      1681      2219      2327
 -1      5641    3    0    1
 -2       343       342      2043      2733
 -1      5642    3    0    1
 -2      1738      1755      2181      2329
 -1      5643    3    0    1
 -2      1550      1587      2475      2725
 -1      5644    3    0    1
 -2      1409      2061      1410      2915
 -1      5645    3    0    1
 -2      1177       418      2738      2808
 -1      5646    3    0    1
 -2      2259      1148      2128       892
 -1      5647    3    0    1
 -2      2128      1905      2181      2329
 -1      5648    3    0    1
 -2      2397      2537      2591      2678
 -1      5649    3    0    1
 -2      2891      1422      3029      3044
 -1      5650    3    0    1
 -2       416       190      2528      2571
 -1      5651    3    0    1
 -2      1185      2944      2966      2996
 -1      5652    3    0    1
 -2       429      1459      1468      1506
 -1      5653    3    0    1
 -2      2131      1871      2166      2266
 -1      5654    3    0    1
 -2      1713      1972      2232      2601
 -1      5655    3    0    1
 -2      1677      1635      2166      2266
 -1      5656    3    0    1
 -2      1587      1871      2131      2266
 -1      5657    3    0    1
 -2      1322      1978       283       266
 -1      5658    3    0    1
 -2       798       823      1092      2255
 -1      5659    3    0    1
 -2       283      2255      1322      1092
 -1      5660    3    0    1
 -2      1794       320      2168      2256
 -1      5661    3    0    1
 -2        33        35       912      2689
 -1      5662    3    0    1
 -2      2853      2586      2913      3041
 -1      5663    3    0    1
 -2      2258      2257      2294      2840
 -1      5664    3    0    1
 -2      1554      2352      2436      2553
 -1      5665    3    0    1
 -2      1083      1336      2072      2316
 -1      5666    3    0    1
 -2      1621      2213      2589      2643
 -1      5667    3    0    1
 -2      1654      1555      2111      2587
 -1      5668    3    0    1
 -2      1562      1547      2457      2478
 -1      5669    3    0    1
 -2       952       943      2412      2554
 -1      5670    3    0    1
 -2      1805      1563      1963      2555
 -1      5671    3    0    1
 -2       567       544       943      2554
 -1      5672    3    0    1
 -2      1902      1943      2414      2575
 -1      5673    3    0    1
 -2      1896      1804      2195      2353
 -1      5674    3    0    1
 -2      1748      1821      2081      2533
 -1      5675    3    0    1
 -2      2175      1683      2860      2862
 -1      5676    3    0    1
 -2       973       606      2358      2619
 -1      5677    3    0    1
 -2      1737      1363      2110      2261
 -1      5678    3    0    1
 -2      1527      1737      2110      2261
 -1      5679    3    0    1
 -2      1678      1527      2110      2261
 -1      5680    3    0    1
 -2      1658      1617      1912      2261
 -1      5681    3    0    1
 -2      1617      1658      1678      2261
 -1      5682    3    0    1
 -2      1617      1678      2110      2261
 -1      5683    3    0    1
 -2      1363      1912      2110      2261
 -1      5684    3    0    1
 -2      1912      1617      2110      2261
 -1      5685    3    0    1
 -2      2276      2094      2428      2807
 -1      5686    3    0    1
 -2      1270       317      2240      2262
 -1      5687    3    0    1
 -2      2541        75      2797      2805
 -1      5688    3    0    1
 -2       317      1270      2120      2262
 -1      5689    3    0    1
 -2      1859      2094      2705      2807
 -1      5690    3    0    1
 -2      1573      2087      2089      2263
 -1      5691    3    0    1
 -2      2087      1573      2229      2263
 -1      5692    3    0    1
 -2      1912      1658      2261      2618
 -1      5693    3    0    1
 -2      1143      1363      1912      2618
 -1      5694    3    0    1
 -2      1143      1912      2261      2618
 -1      5695    3    0    1
 -2      1627      2121      2123      2264
 -1      5696    3    0    1
 -2      1627      2123      2182      2264
 -1      5697    3    0    1
 -2      1658      1912      2220      2618
 -1      5698    3    0    1
 -2       140      2043      2733      2815
 -1      5699    3    0    1
 -2       936       531      2453      2717
 -1      5700    3    0    1
 -2      2287      1623      1875      1991
 -1      5701    3    0    1
 -2       651      2140      2235      2278
 -1      5702    3    0    1
 -2      1887      1728      2019      2268
 -1      5703    3    0    1
 -2      2432       991      2728      2732
 -1      5704    3    0    1
 -2      1566      1861      2019      2268
 -1      5705    3    0    1
 -2      1566      1730      1861      2268
 -1      5706    3    0    1
 -2      2173      1187      2746      2821
 -1      5707    3    0    1
 -2      1950      1945      2072      2269
 -1      5708    3    0    1
 -2      1094      1950      2072      2269
 -1      5709    3    0    1
 -2      1950      1094      2056      2269
 -1      5710    3    0    1
 -2      1945      1950      2056      2269
 -1      5711    3    0    1
 -2      1603      1547      2211      2270
 -1      5712    3    0    1
 -2      1633      1603      2211      2270
 -1      5713    3    0    1
 -2      1537      1547      1709      2270
 -1      5714    3    0    1
 -2      1547      1603      1709      2270
 -1      5715    3    0    1
 -2      1537      1709      2147      2270
 -1      5716    3    0    1
 -2      1709      1603      2147      2270
 -1      5717    3    0    1
 -2      1623      1645      1991      2271
 -1      5718    3    0    1
 -2      2104      1876      2112      2288
 -1      5719    3    0    1
 -2      1628      1589      2159      2271
 -1      5720    3    0    1
 -2      1419      2250      1420      3027
 -1      5721    3    0    1
 -2      1032      2104      2112      2288
 -1      5722    3    0    1
 -2       606      1236       973      2452
 -1      5723    3    0    1
 -2      1743      1546      2237      2272
 -1      5724    3    0    1
 -2      1680      1743      2108      2272
 -1      5725    3    0    1
 -2      2108      1743      2237      2272
 -1      5726    3    0    1
 -2      2108      1874      2206      2272
 -1      5727    3    0    1
 -2      2132      1874      2237      2272
 -1      5728    3    0    1
 -2      1874      2108      2237      2272
 -1      5729    3    0    1
 -2      1372       447      1884      2331
 -1      5730    3    0    1
 -2      1149      1372      2074      2331
 -1      5731    3    0    1
 -2      2547       328      2593      2646
 -1      5732    3    0    1
 -2      2051      1546      2237      2542
 -1      5733    3    0    1
 -2      1819      2084      2091      2542
 -1      5734    3    0    1
 -2      1913      1715      2036      2597
 -1      5735    3    0    1
 -2      1365       399       438      2562
 -1      5736    3    0    1
 -2      1582      2300      2471      2636
 -1      5737    3    0    1
 -2       961      1224      2463      2649
 -1      5738    3    0    1
 -2        54        41      2663      2786
 -1      5739    3    0    1
 -2      1130      1869      2480      2730
 -1      5740    3    0    1
 -2      1645      1366      1670      2492
 -1      5741    3    0    1
 -2      1738      1571      1888      2491
 -1      5742    3    0    1
 -2      1905      1575      2229      2491
 -1      5743    3    0    1
 -2        29      1175      2351      2697
 -1      5744    3    0    1
 -2      1941       959      2529      2816
 -1      5745    3    0    1
 -2      2054      1961      2245      2581
 -1      5746    3    0    1
 -2      2300      1582      2471      2489
 -1      5747    3    0    1
 -2       140      2043      2815      2830
 -1      5748    3    0    1
 -2       177      1016      1017      2281
 -1      5749    3    0    1
 -2      1017      1016      2207      2281
 -1      5750    3    0    1
 -2      1572      2214      2325      2434
 -1      5751    3    0    1
 -2      1199       938       536      2282
 -1      5752    3    0    1
 -2      1851      1772      2224      2411
 -1      5753    3    0    1
 -2       939      1983      2100      2282
 -1      5754    3    0    1
 -2       536       939      1881      2282
 -1      5755    3    0    1
 -2      1881       939      2100      2282
 -1      5756    3    0    1
 -2       939      1198      1983      2282
 -1      5757    3    0    1
 -2      1198       939       534      2282
 -1      5758    3    0    1
 -2      1811      1597      1873      2283
 -1      5759    3    0    1
 -2       483       912      2522      2549
 -1      5760    3    0    1
 -2      2352      2436      2553      2656
 -1      5761    3    0    1
 -2      2553      2352      2656      2707
 -1      5762    3    0    1
 -2      2656      2387      2868      2889
 -1      5763    3    0    1
 -2      1549      1671      1676      2739
 -1      5764    3    0    1
 -2      1964       490      2465      2595
 -1      5765    3    0    1
 -2      1609      1640      1674      2607
 -1      5766    3    0    1
 -2      1017       330      2433      2472
 -1      5767    3    0    1
 -2      1641      1916      2005      2314
 -1      5768    3    0    1
 -2      1742      1563      2555      2578
 -1      5769    3    0    1
 -2      1916      1900      2005      2314
 -1      5770    3    0    1
 -2      1386      1651      1831      2285
 -1      5771    3    0    1
 -2       658      1259      2646      2766
 -1      5772    3    0    1
 -2       658      2488      2517      2766
 -1      5773    3    0    1
 -2       962       586      1941      2588
 -1      5774    3    0    1
 -2      1135       879      2091      2345
 -1      5775    3    0    1
 -2       441      1150      1712      2289
 -1      5776    3    0    1
 -2       441      1373      1150      2289
 -1      5777    3    0    1
 -2      1809      1384      1892      2579
 -1      5778    3    0    1
 -2      1696       318      2278      2291
 -1      5779    3    0    1
 -2      1005      2461      2718      2775
 -1      5780    3    0    1
 -2       318       319       998      2291
 -1      5781    3    0    1
 -2      1071       248      1706      2293
 -1      5782    3    0    1
 -2       243      1068      1894      2293
 -1      5783    3    0    1
 -2       243       248      1068      2293
 -1      5784    3    0    1
 -2      1068       248      1071      2293
 -1      5785    3    0    1
 -2      1896      1661      1938      2467
 -1      5786    3    0    1
 -2       784      1820      2103      2293
 -1      5787    3    0    1
 -2      1661      1877      1938      2467
 -1      5788    3    0    1
 -2      1090       819      1783      2467
 -1      5789    3    0    1
 -2      1783       819      2026      2467
 -1      5790    3    0    1
 -2       784      1071      1820      2293
 -1      5791    3    0    1
 -2      1071       784      1068      2293
 -1      5792    3    0    1
 -2       784       783      1068      2293
 -1      5793    3    0    1
 -2      1090      1783      1896      2467
 -1      5794    3    0    1
 -2      2592       538      2680      2784
 -1      5795    3    0    1
 -2      1752      2036      2242      2597
 -1      5796    3    0    1
 -2      1374      1151      2246      2297
 -1      5797    3    0    1
 -2       862      1407       895      2297
 -1      5798    3    0    1
 -2       862       895      1151      2297
 -1      5799    3    0    1
 -2      1118       417      1407      2297
 -1      5800    3    0    1
 -2      1407       862      1118      2297
 -1      5801    3    0    1
 -2      1118       862      2246      2297
 -1      5802    3    0    1
 -2       862      1151      1374      2297
 -1      5803    3    0    1
 -2       440       417      1118      2297
 -1      5804    3    0    1
 -2       440      1118      2246      2297
 -1      5805    3    0    1
 -2      1747       440      2246      2297
 -1      5806    3    0    1
 -2       862      1374      2246      2297
 -1      5807    3    0    1
 -2      1247      2358      1427      3091
 -1      5808    3    0    1
 -2       654       999      1269      2298
 -1      5809    3    0    1
 -2       679       654      1269      2298
 -1      5810    3    0    1
 -2      1528      1640      1674      2299
 -1      5811    3    0    1
 -2       101      1570      2097      2299
 -1      5812    3    0    1
 -2      1609      1570      1674      2299
 -1      5813    3    0    1
 -2      1570      1609      2097      2299
 -1      5814    3    0    1
 -2      1570      1528      1674      2299
 -1      5815    3    0    1
 -2       726      1583      2275      2512
 -1      5816    3    0    1
 -2      1178       496       495      2510
 -1      5817    3    0    1
 -2       319       998      2291      2714
 -1      5818    3    0    1
 -2      1031      1017      2048      2472
 -1      5819    3    0    1
 -2      1608      2076      2222      2637
 -1      5820    3    0    1
 -2      2174        66      2477      2490
 -1      5821    3    0    1
 -2      1332       819      1877      2343
 -1      5822    3    0    1
 -2      1332      1093       819      2343
 -1      5823    3    0    1
 -2       975       971      2193      2302
 -1      5824    3    0    1
 -2        66      2015      2477      2490
 -1      5825    3    0    1
 -2       227      1302      2102      2340
 -1      5826    3    0    1
 -2      1826       759      1868      2660
 -1      5827    3    0    1
 -2      1745      1302      1908      2340
 -1      5828    3    0    1
 -2      1745       759      2340      2660
 -1      5829    3    0    1
 -2       759      1302      1745      2340
 -1      5830    3    0    1
 -2      1908       227      2102      2340
 -1      5831    3    0    1
 -2       906      1804      1836      2504
 -1      5832    3    0    1
 -2      1562      1869      1872      2478
 -1      5833    3    0    1
 -2      1836      1804      2195      2504
 -1      5834    3    0    1
 -2      1835      1934      1996      2504
 -1      5835    3    0    1
 -2      2216       912      2549      2689
 -1      5836    3    0    1
 -2      1927      2631      2630      2577
 -1      5837    3    0    1
 -2      1835      1996      2071      2504
 -1      5838    3    0    1
 -2      1804      1661      2195      2504
 -1      5839    3    0    1
 -2       555      1210      2274      2427
 -1      5840    3    0    1
 -2       322       320      2160      2309
 -1      5841    3    0    1
 -2      1671       322      2160      2309
 -1      5842    3    0    1
 -2      2420      2552      2632      2757
 -1      5843    3    0    1
 -2       654       655      2298      2310
 -1      5844    3    0    1
 -2       655       654      1852      2310
 -1      5845    3    0    1
 -2      1852       654      2298      2310
 -1      5846    3    0    1
 -2      2151      1870      2199      2311
 -1      5847    3    0    1
 -2      1851      1870      2152      2311
 -1      5848    3    0    1
 -2      2068      1851      2152      2311
 -1      5849    3    0    1
 -2      1027      1278      2080      2312
 -1      5850    3    0    1
 -2      1027       702      1278      2312
 -1      5851    3    0    1
 -2      1290      2024      2239      2312
 -1      5852    3    0    1
 -2      1290      1027      2024      2312
 -1      5853    3    0    1
 -2       702       727      2239      2312
 -1      5854    3    0    1
 -2       702       703      1278      2312
 -1      5855    3    0    1
 -2      1278       703      2070      2312
 -1      5856    3    0    1
 -2       727      1290      2239      2312
 -1      5857    3    0    1
 -2       727       702      1027      2312
 -1      5858    3    0    1
 -2       727      1027      1290      2312
 -1      5859    3    0    1
 -2       858      1112      2285      2313
 -1      5860    3    0    1
 -2       858      1386      1112      2313
 -1      5861    3    0    1
 -2      1900      1041      2037      2314
 -1      5862    3    0    1
 -2      2037      1041      2039      2314
 -1      5863    3    0    1
 -2      1404      2128      2259      2315
 -1      5864    3    0    1
 -2      1111      1404      2259      2315
 -1      5865    3    0    1
 -2      2285       858      2313      2630
 -1      5866    3    0    1
 -2      2128      2087      2229      2315
 -1      5867    3    0    1
 -2      1404      2087      2128      2315
 -1      5868    3    0    1
 -2      2290      2122      2606      2632
 -1      5869    3    0    1
 -2      1111       410      1404      2315
 -1      5870    3    0    1
 -2       447       410      1111      2315
 -1      5871    3    0    1
 -2       266       283      1083      2316
 -1      5872    3    0    1
 -2      1527      1867      2028      2317
 -1      5873    3    0    1
 -2      1777      1737      2110      2317
 -1      5874    3    0    1
 -2      1584      1737      1777      2317
 -1      5875    3    0    1
 -2      2028      1777      2110      2317
 -1      5876    3    0    1
 -2      1584      1777      2028      2317
 -1      5877    3    0    1
 -2      2442       137      2772      2829
 -1      5878    3    0    1
 -2      1226      1941      2727      2816
 -1      5879    3    0    1
 -2      1447      1490      1492      3009
 -1      5880    3    0    1
 -2      1431      1432      3002      3095
 -1      5881    3    0    1
 -2      2995      1478      3017      3018
 -1      5882    3    0    1
 -2      2106      1311      2164      2459
 -1      5883    3    0    1
 -2      1030       353      1033      2824
 -1      5884    3    0    1
 -2       396      1833      2346      2495
 -1      5885    3    0    1
 -2      1924      1617      1981      2321
 -1      5886    3    0    1
 -2      1661      1599      1938      2495
 -1      5887    3    0    1
 -2      1877      1332      2346      2495
 -1      5888    3    0    1
 -2      1870      1593      2199      2323
 -1      5889    3    0    1
 -2      2936       570      2980      3001
 -1      5890    3    0    1
 -2       441       443      2289      2469
 -1      5891    3    0    1
 -2      1830      1823      2074      2469
 -1      5892    3    0    1
 -2       443       441      1114      2469
 -1      5893    3    0    1
 -2      1405       859      1114      2469
 -1      5894    3    0    1
 -2      1653      1830      2289      2469
 -1      5895    3    0    1
 -2       859       893      2074      2469
 -1      5896    3    0    1
 -2      1972      1920      2230      2325
 -1      5897    3    0    1
 -2      1572      1543      1920      2325
 -1      5898    3    0    1
 -2      2228      1652      2337      2382
 -1      5899    3    0    1
 -2       205      1540      1993      2609
 -1      5900    3    0    1
 -2      1694      1993      2241      2609
 -1      5901    3    0    1
 -2      2704       908      2809      2834
 -1      5902    3    0    1
 -2      2589      1621      2643      2734
 -1      5903    3    0    1
 -2      2207       688      2513      2658
 -1      5904    3    0    1
 -2      1993      2158      2241      2609
 -1      5905    3    0    1
 -2      1018      1848      2513      2658
 -1      5906    3    0    1
 -2      1474      2980      3001      3021
 -1      5907    3    0    1
 -2      3004      3005      3011      3012
 -1      5908    3    0    1
 -2       263      1639      1715      2597
 -1      5909    3    0    1
 -2       837      1345      1099      2327
 -1      5910    3    0    1
 -2        79      1629      2296      2532
 -1      5911    3    0    1
 -2      2558      1787      2594      2615
 -1      5912    3    0    1
 -2      3042      3032      1450      1473
 -1      5913    3    0    1
 -2       631      1699      2619      2976
 -1      5914    3    0    1
 -2      1371       406       448      2329
 -1      5915    3    0    1
 -2       448       406      1109      2329
 -1      5916    3    0    1
 -2       406      1371      1148      2329
 -1      5917    3    0    1
 -2       406      1148      1755      2329
 -1      5918    3    0    1
 -2      1109       406      1403      2329
 -1      5919    3    0    1
 -2      1471      1416      1476      3068
 -1      5920    3    0    1
 -2      1755      2128      2181      2329
 -1      5921    3    0    1
 -2      1755      1148      2128      2329
 -1      5922    3    0    1
 -2      1148      2259      2128      2329
 -1      5923    3    0    1
 -2      2060      2257      2436      2586
 -1      5924    3    0    1
 -2       387      1358       432      2330
 -1      5925    3    0    1
 -2      1355       387      2273      2330
 -1      5926    3    0    1
 -2      1358       387      1355      2330
 -1      5927    3    0    1
 -2      2173      2333      2752      2822
 -1      5928    3    0    1
 -2       531       937      2583      2653
 -1      5929    3    0    1
 -2      1787      2594      2615      2767
 -1      5930    3    0    1
 -2       328      2115      2593      2646
 -1      5931    3    0    1
 -2      2428      2097      2712      2765
 -1      5932    3    0    1
 -2      2019      1887      2268      2483
 -1      5933    3    0    1
 -2      2432       991      2691      2700
 -1      5934    3    0    1
 -2      2048       335      2472      2515
 -1      5935    3    0    1
 -2      1911      1760      1992      2336
 -1      5936    3    0    1
 -2      1614      2300      2605      2636
 -1      5937    3    0    1
 -2       802      1324      2063      2336
 -1      5938    3    0    1
 -2      1324      1760      2063      2336
 -1      5939    3    0    1
 -2      1324       802      2192      2336
 -1      5940    3    0    1
 -2      1760      1324      2192      2336
 -1      5941    3    0    1
 -2      2238      2228      2320      2337
 -1      5942    3    0    1
 -2       185      1729      2041      2337
 -1      5943    3    0    1
 -2       338      2403      2415      2684
 -1      5944    3    0    1
 -2       383      2226      2463      2484
 -1      5945    3    0    1
 -2       936        62      2305      2383
 -1      5946    3    0    1
 -2      2567       119      2758      2801
 -1      5947    3    0    1
 -2       331       185      2238      2337
 -1      5948    3    0    1
 -2      1144       888      2303      2339
 -1      5949    3    0    1
 -2       850       888      1144      2339
 -1      5950    3    0    1
 -2       888      1700      2303      2339
 -1      5951    3    0    1
 -2       988      2284      2558      2594
 -1      5952    3    0    1
 -2      1874       136      2474      2616
 -1      5953    3    0    1
 -2       736       759      1826      2340
 -1      5954    3    0    1
 -2      1013       679      2423      2661
 -1      5955    3    0    1
 -2       759      1045      1302      2340
 -1      5956    3    0    1
 -2       759       736      1045      2340
 -1      5957    3    0    1
 -2      2007      1647      2143      2341
 -1      5958    3    0    1
 -2      1798      1647      2007      2341
 -1      5959    3    0    1
 -2      1662      1741      2444      2753
 -1      5960    3    0    1
 -2      2145      1545      2444      2753
 -1      5961    3    0    1
 -2        62        66      2503      2688
 -1      5962    3    0    1
 -2      3052      2565      3054      3081
 -1      5963    3    0    1
 -2      1444      1446      1452      2932
 -1      5964    3    0    1
 -2      1443      1436      3065      2958
 -1      5965    3    0    1
 -2       999      1269      2298      2342
 -1      5966    3    0    1
 -2      1968       999      2298      2342
 -1      5967    3    0    1
 -2      2179      2877      1455      3064
 -1      5968    3    0    1
 -2      2438      1447      3079      3084
 -1      5969    3    0    1
 -2      2227      2426      2574      2669
 -1      5970    3    0    1
 -2      1581      2084      2091      2345
 -1      5971    3    0    1
 -2      1817      1581      2091      2345
 -1      5972    3    0    1
 -2      1581      1817      1878      2345
 -1      5973    3    0    1
 -2       871      1878      2044      2345
 -1      5974    3    0    1
 -2      1878      1817      2044      2345
 -1      5975    3    0    1
 -2       871      2044      2091      2345
 -1      5976    3    0    1
 -2      2044      1817      2091      2345
 -1      5977    3    0    1
 -2      1773      1833      1882      2346
 -1      5978    3    0    1
 -2       978       125      1716      2635
 -1      5979    3    0    1
 -2      1332       396      1877      2346
 -1      5980    3    0    1
 -2       396      1730      2277      2346
 -1      5981    3    0    1
 -2      1730      1773      2277      2346
 -1      5982    3    0    1
 -2      1773      1730      1833      2346
 -1      5983    3    0    1
 -2      2621      2267      2622      2626
 -1      5984    3    0    1
 -2       925        53      2351      2496
 -1      5985    3    0    1
 -2      2267      1780      2622      2626
 -1      5986    3    0    1
 -2      1730       396      1833      2346
 -1      5987    3    0    1
 -2      2274       555      2427      2561
 -1      5988    3    0    1
 -2      1886       703      2070      2423
 -1      5989    3    0    1
 -2      1697      1756      1774      2446
 -1      5990    3    0    1
 -2      2034      1095      2088      2347
 -1      5991    3    0    1
 -2      2388      2522      2549      2706
 -1      5992    3    0    1
 -2      1783      1896      2501      2674
 -1      5993    3    0    1
 -2       985       142      2593      2691
 -1      5994    3    0    1
 -2      1313      1542      2505      2675
 -1      5995    3    0    1
 -2       101       336      1533      2499
 -1      5996    3    0    1
 -2      1535      1291      1970      2392
 -1      5997    3    0    1
 -2       289      2674      2735      2793
 -1      5998    3    0    1
 -2      1885      2437      2477      2672
 -1      5999    3    0    1
 -2      2663       393      2713      2764
 -1      6000    3    0    1
 -2       675      2608      1011      2760
 -1      6001    3    0    1
 -2      2147      1698      2270      2698
 -1      6002    3    0    1
 -2      2147      1633      2292      2698
 -1      6003    3    0    1
 -2      2089      1573      2263      2620
 -1      6004    3    0    1
 -2      1976       323      2696      2698
 -1      6005    3    0    1
 -2        75      2541      2701      2805
 -1      6006    3    0    1
 -2      2049      1539      2191      2426
 -1      6007    3    0    1
 -2      2049      2191      2384      2426
 -1      6008    3    0    1
 -2       347       137       989      2442
 -1      6009    3    0    1
 -2      1601      1539      2395      2426
 -1      6010    3    0    1
 -2      1741      1559      2456      2836
 -1      6011    3    0    1
 -2      1896      2353      2501      2674
 -1      6012    3    0    1
 -2       519      2625      2713      2777
 -1      6013    3    0    1
 -2        53       427      1175      2351
 -1      6014    3    0    1
 -2      1859      2363      2485      2511
 -1      6015    3    0    1
 -2       925        53      1175      2351
 -1      6016    3    0    1
 -2      2425       925      2496      2497
 -1      6017    3    0    1
 -2       427        29      1175      2351
 -1      6018    3    0    1
 -2       135      2206      2558      2670
 -1      6019    3    0    1
 -2       988       135      2558      2670
 -1      6020    3    0    1
 -2      2625       927      2634      2831
 -1      6021    3    0    1
 -2      2271      1589      2287      2622
 -1      6022    3    0    1
 -2      1713      1972      2230      2410
 -1      6023    3    0    1
 -2      1984      2059      2232      2410
 -1      6024    3    0    1
 -2       424      1910      2645      2769
 -1      6025    3    0    1
 -2       365        81       950      2356
 -1      6026    3    0    1
 -2      1788      2585      2623      2762
 -1      6027    3    0    1
 -2      1033       193      2802      2824
 -1      6028    3    0    1
 -2      1116      1141      2623      2762
 -1      6029    3    0    1
 -2      2287      2159      2621      2626
 -1      6030    3    0    1
 -2      2230      1984      2232      2410
 -1      6031    3    0    1
 -2       486      1176       487      2939
 -1      6032    3    0    1
 -2      1573      1575      2263      2620
 -1      6033    3    0    1
 -2      1858       972      2362      2603
 -1      6034    3    0    1
 -2       463       452       451      2918
 -1      6035    3    0    1
 -2      1237       972      1858      2603
 -1      6036    3    0    1
 -2      1716       126      2584      2603
 -1      6037    3    0    1
 -2       126       123      2584      2603
 -1      6038    3    0    1
 -2       407       238      1064      2361
 -1      6039    3    0    1
 -2      2645      1910      2752      2769
 -1      6040    3    0    1
 -2      3043      1462      3056      1465
 -1      6041    3    0    1
 -2       238       407      1965      2361
 -1      6042    3    0    1
 -2      1965       407      2205      2361
 -1      6043    3    0    1
 -2       126      1716      2362      2603
 -1      6044    3    0    1
 -2      1934      1804      1996      2504
 -1      6045    3    0    1
 -2      1300      1053      2740      3057
 -1      6046    3    0    1
 -2        85       365       950      2365
 -1      6047    3    0    1
 -2       950       365      2356      2365
 -1      6048    3    0    1
 -2      1916      1900      2314      2366
 -1      6049    3    0    1
 -2      1641      1648      1916      2366
 -1      6050    3    0    1
 -2       730      1970      2039      2366
 -1      6051    3    0    1
 -2      1641      1916      2314      2366
 -1      6052    3    0    1
 -2      1648      1641      1970      2366
 -1      6053    3    0    1
 -2      1291      1648      1970      2366
 -1      6054    3    0    1
 -2       730      1291      1970      2366
 -1      6055    3    0    1
 -2      2039      1641      2314      2366
 -1      6056    3    0    1
 -2      1970      1641      2039      2366
 -1      6057    3    0    1
 -2      2488       658      2550      2648
 -1      6058    3    0    1
 -2      2280      1557      2570      2692
 -1      6059    3    0    1
 -2      1563      1923      2308      2367
 -1      6060    3    0    1
 -2      1923      1917      2308      2367
 -1      6061    3    0    1
 -2      1917      1880      2308      2367
 -1      6062    3    0    1
 -2      1259       651       658      2648
 -1      6063    3    0    1
 -2      1555      1719      2678      2750
 -1      6064    3    0    1
 -2      1582      2471      2580      2767
 -1      6065    3    0    1
 -2      1556      1809      1892      2579
 -1      6066    3    0    1
 -2      1755       406      2329      2379
 -1      6067    3    0    1
 -2       398       301      1347      2369
 -1      6068    3    0    1
 -2      2536      2015      2592      2749
 -1      6069    3    0    1
 -2      2002      2015      2537      2749
 -1      6070    3    0    1
 -2      2169      1741      2530      2797
 -1      6071    3    0    1
 -2      2403      1847      2415      2684
 -1      6072    3    0    1
 -2      2002      2173      2333      2749
 -1      6073    3    0    1
 -2       269      1081      2378      2611
 -1      6074    3    0    1
 -2      1741      1662      2444      2797
 -1      6075    3    0    1
 -2      1096       372      1818      2372
 -1      6076    3    0    1
 -2      1096      1907       831      1336
 -1      6077    3    0    1
 -2       282      1096      1336      2372
 -1      6078    3    0    1
 -2       282      1336      1907      2372
 -1      6079    3    0    1
 -2       137       140       992      2815
 -1      6080    3    0    1
 -2      1880      1598      2308      2391
 -1      6081    3    0    1
 -2      1812      1598      1880      2391
 -1      6082    3    0    1
 -2       688      1017      2207      2513
 -1      6083    3    0    1
 -2       370      1531      2100      2527
 -1      6084    3    0    1
 -2      1904      1951      2067      2682
 -1      6085    3    0    1
 -2      1853      2163      2456      2716
 -1      6086    3    0    1
 -2      1017      1031      2048      2513
 -1      6087    3    0    1
 -2       190      1031      1032      2528
 -1      6088    3    0    1
 -2      1654      2111      2136      2628
 -1      6089    3    0    1
 -2      1583       227      2102      2389
 -1      6090    3    0    1
 -2      1901      2349      2370      2748
 -1      6091    3    0    1
 -2       223      1054      1299      2389
 -1      6092    3    0    1
 -2        39      1579      2746      2748
 -1      6093    3    0    1
 -2      1137      1697      1774      2446
 -1      6094    3    0    1
 -2      1987      2046      2399      2419
 -1      6095    3    0    1
 -2      2079      1987      2399      2419
 -1      6096    3    0    1
 -2      2066      2079      2399      2419
 -1      6097    3    0    1
 -2      1443       155      3038      2922
 -1      6098    3    0    1
 -2       807      1749      2368      2378
 -1      6099    3    0    1
 -2       807      1580      1749      2378
 -1      6100    3    0    1
 -2       807      1081      1580      2378
 -1      6101    3    0    1
 -2       261      1081      1082      2378
 -1      6102    3    0    1
 -2      1081       807      1082      2378
 -1      6103    3    0    1
 -2       808       807      2368      2378
 -1      6104    3    0    1
 -2       807       808      1082      2378
 -1      6105    3    0    1
 -2      1082       808      2368      2378
 -1      6106    3    0    1
 -2       261       271      2414      2683
 -1      6107    3    0    1
 -2      1904      1738      2329      2379
 -1      6108    3    0    1
 -2      1109      1904      2329      2379
 -1      6109    3    0    1
 -2       271      1945      2414      2683
 -1      6110    3    0    1
 -2      1109       855      1904      2379
 -1      6111    3    0    1
 -2      1403       855      1109      2379
 -1      6112    3    0    1
 -2       855      1403       891      2379
 -1      6113    3    0    1
 -2      1629      1559      2456      2530
 -1      6114    3    0    1
 -2      2594      2284      2615      2643
 -1      6115    3    0    1
 -2      1999      2041      2337      2382
 -1      6116    3    0    1
 -2       998      2278      2291      2714
 -1      6117    3    0    1
 -2       988       634      2664      2670
 -1      6118    3    0    1
 -2      1825      1744      2149      2562
 -1      6119    3    0    1
 -2      2431      2464      2692      2702
 -1      6120    3    0    1
 -2      1558      1588      2217      2599
 -1      6121    3    0    1
 -2      1588      1629      1681      2599
 -1      6122    3    0    1
 -2      1580      1070      1975      2695
 -1      6123    3    0    1
 -2      2416       371      2611      2695
 -1      6124    3    0    1
 -2      1588      1681      2217      2599
 -1      6125    3    0    1
 -2      1152       896      1860      2385
 -1      6126    3    0    1
 -2       863       896      1152      2385
 -1      6127    3    0    1
 -2       417      1152      1918      2385
 -1      6128    3    0    1
 -2      1603      1824      1846      2386
 -1      6129    3    0    1
 -2      1603      1846      2292      2386
 -1      6130    3    0    1
 -2       486      2424      2425      2804
 -1      6131    3    0    1
 -2       943       544      2412      2554
 -1      6132    3    0    1
 -2      1742      1563      1805      2555
 -1      6133    3    0    1
 -2      1555      1885      2111      2437
 -1      6134    3    0    1
 -2      1768      1556      2794      2833
 -1      6135    3    0    1
 -2        62        66       936      2503
 -1      6136    3    0    1
 -2       471      1163      2560      2690
 -1      6137    3    0    1
 -2       586       962      1941      2499
 -1      6138    3    0    1
 -2      1996       906      2071      2504
 -1      6139    3    0    1
 -2       582      1224      2247      2651
 -1      6140    3    0    1
 -2       990       639      2728      2756
 -1      6141    3    0    1
 -2      2189      1695      2506      2523
 -1      6142    3    0    1
 -2       322      1001      1791      2550
 -1      6143    3    0    1
 -2      1001       997      1791      2550
 -1      6144    3    0    1
 -2       123       977       978      2584
 -1      6145    3    0    1
 -2      1859       384      2363      2511
 -1      6146    3    0    1
 -2       907       471      2560      2690
 -1      6147    3    0    1
 -2      1778      1722      2506      2523
 -1      6148    3    0    1
 -2      1038      1291      1535      2392
 -1      6149    3    0    1
 -2      1691      1393      2153      2394
 -1      6150    3    0    1
 -2      1657      1358      2145      2447
 -1      6151    3    0    1
 -2      1393      1126      2153      2394
 -1      6152    3    0    1
 -2      1664      1638      1857      2508
 -1      6153    3    0    1
 -2      1999      1652      2382      2395
 -1      6154    3    0    1
 -2      1601      1539      1750      2395
 -1      6155    3    0    1
 -2      1750      1999      2141      2395
 -1      6156    3    0    1
 -2      1601      1750      2141      2395
 -1      6157    3    0    1
 -2      1652      1539      2227      2395
 -1      6158    3    0    1
 -2      1539      1652      1750      2395
 -1      6159    3    0    1
 -2      1544      1565      2011      2659
 -1      6160    3    0    1
 -2      1717      1747      1966      2462
 -1      6161    3    0    1
 -2       175      2658      2001       171
 -1      6162    3    0    1
 -2      1565      2303      2339      2659
 -1      6163    3    0    1
 -2       358       175      1015      2396
 -1      6164    3    0    1
 -2      1594      1717      1966      2462
 -1      6165    3    0    1
 -2      1784      1747      1918      2462
 -1      6166    3    0    1
 -2      2613      2888      3030      3031
 -1      6167    3    0    1
 -2      1906      1545      2095      2444
 -1      6168    3    0    1
 -2      1966      1747      2335      2462
 -1      6169    3    0    1
 -2      1681      1642      2295      2531
 -1      6170    3    0    1
 -2      2642      2874      2914      3043
 -1      6171    3    0    1
 -2      1784      1524      2335      2462
 -1      6172    3    0    1
 -2       610      1847      2399      2415
 -1      6173    3    0    1
 -2      1657      1759       846      2447
 -1      6174    3    0    1
 -2       610      1847      2066      2399
 -1      6175    3    0    1
 -2      1821      1748      1946      2533
 -1      6176    3    0    1
 -2      1129       310      1819      2542
 -1      6177    3    0    1
 -2      1559      1741      2456      2530
 -1      6178    3    0    1
 -2        80       953      2633      2699
 -1      6179    3    0    1
 -2       610      2066      2079      2399
 -1      6180    3    0    1
 -2      1847      2046      2399      2529
 -1      6181    3    0    1
 -2       496       495      2510      2825
 -1      6182    3    0    1
 -2       712      1033      1590      2400
 -1      6183    3    0    1
 -2       712       711      1033      2400
 -1      6184    3    0    1
 -2      2510       495      2719      2825
 -1      6185    3    0    1
 -2        34        35       917      2825
 -1      6186    3    0    1
 -2       579      2046      2499      2529
 -1      6187    3    0    1
 -2      1629      2296      2532      2599
 -1      6188    3    0    1
 -2      1040      1277      2239      2402
 -1      6189    3    0    1
 -2      2239      1277      1776      2402
 -1      6190    3    0    1
 -2      1277      2239      1776       702
 -1      6191    3    0    1
 -2       212       193      1040      2402
 -1      6192    3    0    1
 -2      2296      2222      2532      2599
 -1      6193    3    0    1
 -2       351       212      1040      2402
 -1      6194    3    0    1
 -2      1040       193      1277      2402
 -1      6195    3    0    1
 -2      1932      1928      1971      2407
 -1      6196    3    0    1
 -2       338       123      1237      2403
 -1      6197    3    0    1
 -2      2863      1739      2875      2901
 -1      6198    3    0    1
 -2      2183      1739      2864      2901
 -1      6199    3    0    1
 -2      2119      2116      1413      3037
 -1      6200    3    0    1
 -2      2864      2676      3040      1478
 -1      6201    3    0    1
 -2       479       480       486      2939
 -1      6202    3    0    1
 -2      2451      2863      2875      2901
 -1      6203    3    0    1
 -2       368       367      1498      3084
 -1      6204    3    0    1
 -2      1819      1988      2012      2542
 -1      6205    3    0    1
 -2      2435       335      2515      2612
 -1      6206    3    0    1
 -2       853      1402       890      2407
 -1      6207    3    0    1
 -2      1932      1402      2117      2407
 -1      6208    3    0    1
 -2      1299       363      2389      2525
 -1      6209    3    0    1
 -2      1950      1945      2056      2408
 -1      6210    3    0    1
 -2      1335       403      2014      2408
 -1      6211    3    0    1
 -2      2014       403      2056      2408
 -1      6212    3    0    1
 -2       403      1950      2056      2408
 -1      6213    3    0    1
 -2      1902       271      1943      2408
 -1      6214    3    0    1
 -2       271      1945      1950      2408
 -1      6215    3    0    1
 -2       965       337      2406      2415
 -1      6216    3    0    1
 -2      1943      1950      2196      2408
 -1      6217    3    0    1
 -2       403      1335      2196      2408
 -1      6218    3    0    1
 -2      1950       403      2196      2408
 -1      6219    3    0    1
 -2      1943       271      1950      2408
 -1      6220    3    0    1
 -2      1533      1570      1944      2411
 -1      6221    3    0    1
 -2      1944      1570      2224      2411
 -1      6222    3    0    1
 -2      1944      2224      2348      2411
 -1      6223    3    0    1
 -2      1772      1851      2010      2411
 -1      6224    3    0    1
 -2      2010      1944      2348      2411
 -1      6225    3    0    1
 -2      1772      2010      2348      2411
 -1      6226    3    0    1
 -2      2224      1772      2348      2411
 -1      6227    3    0    1
 -2      1951      1904      2379      2682
 -1      6228    3    0    1
 -2       869      1388       877      2520
 -1      6229    3    0    1
 -2      1738      1755      2379      2682
 -1      6230    3    0    1
 -2       943       364       952      2412
 -1      6231    3    0    1
 -2       520       519      2625      2673
 -1      6232    3    0    1
 -2       364        81       952      2412
 -1      6233    3    0    1
 -2      2048       335      2515      2571
 -1      6234    3    0    1
 -2      1861      1887      2019      2483
 -1      6235    3    0    1
 -2      1861      2019      2268      2483
 -1      6236    3    0    1
 -2      2268      1887      2455      2483
 -1      6237    3    0    1
 -2      2050       977      2406      2684
 -1      6238    3    0    1
 -2       261       271      1077      2414
 -1      6239    3    0    1
 -2      1077       271      1943      2414
 -1      6240    3    0    1
 -2      1190       392      2687      2798
 -1      6241    3    0    1
 -2      1324       371      2063      2416
 -1      6242    3    0    1
 -2      1760      1324      2063      2416
 -1      6243    3    0    1
 -2      1760      2063      2336      2416
 -1      6244    3    0    1
 -2      1911      1760      2336      2416
 -1      6245    3    0    1
 -2       486       487      2424      2804
 -1      6246    3    0    1
 -2      1846      2292      2386      2696
 -1      6247    3    0    1
 -2       371      1324      1760      2416
 -1      6248    3    0    1
 -2        29      2351      2441      2697
 -1      6249    3    0    1
 -2      1961      2194      2390      2418
 -1      6250    3    0    1
 -2      2376      2304      2390      2418
 -1      6251    3    0    1
 -2      2304      1961      2390      2418
 -1      6252    3    0    1
 -2       333      1043      2210      2422
 -1      6253    3    0    1
 -2      1876       334      2184      2422
 -1      6254    3    0    1
 -2       333       334      1043      2422
 -1      6255    3    0    1
 -2      1638      1697      2142      2446
 -1      6256    3    0    1
 -2      1697      1638      2187      2446
 -1      6257    3    0    1
 -2      1977      2352      2656      2204
 -1      6258    3    0    1
 -2      1016       687      2518      2639
 -1      6259    3    0    1
 -2      1857      1664      2508      2667
 -1      6260    3    0    1
 -2        79       951      2532      2596
 -1      6261    3    0    1
 -2      1640      1609      1960      2607
 -1      6262    3    0    1
 -2       647       994      2927      2937
 -1      6263    3    0    1
 -2      2351       918      2510      2776
 -1      6264    3    0    1
 -2       687      1015      2396      2775
 -1      6265    3    0    1
 -2      2194       329      2421      2667
 -1      6266    3    0    1
 -2      2418      2421      2508      2667
 -1      6267    3    0    1
 -2      2145      2338      2447      2607
 -1      6268    3    0    1
 -2      1016      2518      2627      2639
 -1      6269    3    0    1
 -2      1592      1537      2357      2450
 -1      6270    3    0    1
 -2      2260      1592      2357      2450
 -1      6271    3    0    1
 -2       904       462      2040      2424
 -1      6272    3    0    1
 -2       904      2040      2119      2424
 -1      6273    3    0    1
 -2      1176       904      2119      2424
 -1      6274    3    0    1
 -2       487       462      1176      2424
 -1      6275    3    0    1
 -2       462       904      1176      2424
 -1      6276    3    0    1
 -2       512       925      1175      2425
 -1      6277    3    0    1
 -2       486       512      1175      2425
 -1      6278    3    0    1
 -2       795      1675      2398      2575
 -1      6279    3    0    1
 -2      1077      2063      2414      2575
 -1      6280    3    0    1
 -2      1129      1819      2091      2542
 -1      6281    3    0    1
 -2      2300      1582      2605      2636
 -1      6282    3    0    1
 -2       136      2431      2474      2616
 -1      6283    3    0    1
 -2      1608      2454      2540      2637
 -1      6284    3    0    1
 -2      1582      1578      1734      2636
 -1      6285    3    0    1
 -2      2288       712      2344      2429
 -1      6286    3    0    1
 -2      2288      1043      2422      2429
 -1      6287    3    0    1
 -2      1043      2288      2344      2429
 -1      6288    3    0    1
 -2       953      2633      2699      2803
 -1      6289    3    0    1
 -2       712       735      2344      2429
 -1      6290    3    0    1
 -2       735      1043      2344      2429
 -1      6291    3    0    1
 -2      2708      2889      3030      1486
 -1      6292    3    0    1
 -2       783       784      2466      2720
 -1      6293    3    0    1
 -2      2089      1615      2208      2620
 -1      6294    3    0    1
 -2      1236       606       608      2452
 -1      6295    3    0    1
 -2      1803      2032      2123      2617
 -1      6296    3    0    1
 -2       118      1614      1796      2489
 -1      6297    3    0    1
 -2      2176       385      2485      2727
 -1      6298    3    0    1
 -2       106      1859      2485      2727
 -1      6299    3    0    1
 -2       175      1532      2001      2559
 -1      6300    3    0    1
 -2       426      2496      2634      2831
 -1      6301    3    0    1
 -2      2103       784      2293      2720
 -1      6302    3    0    1
 -2      1606      1643      1827      2665
 -1      6303    3    0    1
 -2      1606      2454      2540      2665
 -1      6304    3    0    1
 -2      1827      1643      2544      2665
 -1      6305    3    0    1
 -2       490       915      1964      2465
 -1      6306    3    0    1
 -2      1001       658      2235      2550
 -1      6307    3    0    1
 -2      2216       483      2465      2549
 -1      6308    3    0    1
 -2      2432       663      2443      2548
 -1      6309    3    0    1
 -2      1003       663      1004      2443
 -1      6310    3    0    1
 -2      1003      1004      1696      2443
 -1      6311    3    0    1
 -2       991       640      1003      2432
 -1      6312    3    0    1
 -2      1977      2387      2656      2707
 -1      6313    3    0    1
 -2       640       663      1003      2432
 -1      6314    3    0    1
 -2      1248       146      2655      2734
 -1      6315    3    0    1
 -2      1312      1053      2250      2473
 -1      6316    3    0    1
 -2      1775      1805      1963      2555
 -1      6317    3    0    1
 -2      2977      1176      2978      2984
 -1      6318    3    0    1
 -2      1096      1907      1336      2372
 -1      6319    3    0    1
 -2      3045      1439      3089      3090
 -1      6320    3    0    1
 -2      2003      2458      2848      2867
 -1      6321    3    0    1
 -2       381      2197      2498      2743
 -1      6322    3    0    1
 -2       323       329      1758      2440
 -1      6323    3    0    1
 -2       329       323      1014      2440
 -1      6324    3    0    1
 -2      2016      2687      2755      2811
 -1      6325    3    0    1
 -2        29        32       914      2697
 -1      6326    3    0    1
 -2      1662      2685      2797      2805
 -1      6327    3    0    1
 -2      2376      2418      2421      2508
 -1      6328    3    0    1
 -2       278      1093      1332      2668
 -1      6329    3    0    1
 -2      2363       954      2485      2511
 -1      6330    3    0    1
 -2        13       903      1162      2448
 -1      6331    3    0    1
 -2       323      1014      2357      2450
 -1      6332    3    0    1
 -2      2245      2054      2581      2608
 -1      6333    3    0    1
 -2       868      1137      1378      2446
 -1      6334    3    0    1
 -2      2054      2236      2581      2608
 -1      6335    3    0    1
 -2      1162       903      2420      2448
 -1      6336    3    0    1
 -2      2363      1859      2727      2807
 -1      6337    3    0    1
 -2      1757      1949      2377      2736
 -1      6338    3    0    1
 -2      2006      2386      1630      1552
 -1      6339    3    0    1
 -2      1638      1756      2187      2446
 -1      6340    3    0    1
 -2      1573      1786      2556      2620
 -1      6341    3    0    1
 -2      2581      2245      2608      2760
 -1      6342    3    0    1
 -2       534      1198      2282      2693
 -1      6343    3    0    1
 -2      1557      1789      2280      2570
 -1      6344    3    0    1
 -2      2045      1011      2608      2760
 -1      6345    3    0    1
 -2      1838      2132      2724      2759
 -1      6346    3    0    1
 -2       639       616       989      2442
 -1      6347    3    0    1
 -2       616       979       989      2442
 -1      6348    3    0    1
 -2      1614      1550      2300      2636
 -1      6349    3    0    1
 -2      2300      1578      2471      2636
 -1      6350    3    0    1
 -2      1246       140      2772      2830
 -1      6351    3    0    1
 -2      1174        25      2225      2773
 -1      6352    3    0    1
 -2      2094      2427      2590      2705
 -1      6353    3    0    1
 -2      2427      2276      2604      2705
 -1      6354    3    0    1
 -2      2148      2260      2357      2450
 -1      6355    3    0    1
 -2        17       400       907      2711
 -1      6356    3    0    1
 -2      2522       483      2549      2706
 -1      6357    3    0    1
 -2      1537      1698      2357      2450
 -1      6358    3    0    1
 -2      1014      2148      2357      2450
 -1      6359    3    0    1
 -2       384      2218      2511      2561
 -1      6360    3    0    1
 -2      1555      1885      2437      2591
 -1      6361    3    0    1
 -2       384       948      2218      2561
 -1      6362    3    0    1
 -2      2427      2274      2561      2705
 -1      6363    3    0    1
 -2      2274      2427      2604      2705
 -1      6364    3    0    1
 -2      1537      1592      1698      2450
 -1      6365    3    0    1
 -2      2445        13      2448      2449
 -1      6366    3    0    1
 -2      1577      2373      2568      2706
 -1      6367    3    0    1
 -2      1727      1577      2568      2706
 -1      6368    3    0    1
 -2       377        13       908      2449
 -1      6369    3    0    1
 -2       908        13      2445      2449
 -1      6370    3    0    1
 -2       903      2420      2448      2449
 -1      6371    3    0    1
 -2        13       903      2448      2449
 -1      6372    3    0    1
 -2      1859      2094      2590      2705
 -1      6373    3    0    1
 -2      1545      2145      2444      2607
 -1      6374    3    0    1
 -2      2094      2276      2427      2705
 -1      6375    3    0    1
 -2        13       377       903      2449
 -1      6376    3    0    1
 -2       217      1047      2942      2951
 -1      6377    3    0    1
 -2      1435      1436      2912      3039
 -1      6378    3    0    1
 -2       366       424      2498      2652
 -1      6379    3    0    1
 -2      1200       366      2650      2652
 -1      6380    3    0    1
 -2       948      2218      2561      2789
 -1      6381    3    0    1
 -2       951      2596      2654      2789
 -1      6382    3    0    1
 -2       126       123       978      2584
 -1      6383    3    0    1
 -2      1887      1728      2268      2455
 -1      6384    3    0    1
 -2      2593       985      2647      2702
 -1      6385    3    0    1
 -2      1004      2306      2627      2639
 -1      6386    3    0    1
 -2      2120       319      2291      2714
 -1      6387    3    0    1
 -2      1887      1946      2198      2455
 -1      6388    3    0    1
 -2      1821      1748      2081      2455
 -1      6389    3    0    1
 -2      1748       278      2081      2455
 -1      6390    3    0    1
 -2       940       936      2503      2717
 -1      6391    3    0    1
 -2       940      2503      2680      2717
 -1      6392    3    0    1
 -2       531       936       940      2717
 -1      6393    3    0    1
 -2       538       531       940      2717
 -1      6394    3    0    1
 -2      1629      1588      1681      2456
 -1      6395    3    0    1
 -2      1588      1642      1681      2456
 -1      6396    3    0    1
 -2      1681      1642      1853      2456
 -1      6397    3    0    1
 -2      1588      1559      1853      2456
 -1      6398    3    0    1
 -2      1642      1588      1853      2456
 -1      6399    3    0    1
 -2      2318      2249      2319      2458
 -1      6400    3    0    1
 -2      2204      2318      2319      2458
 -1      6401    3    0    1
 -2      2249      2204      2319      2458
 -1      6402    3    0    1
 -2      1683      2249      2318      2458
 -1      6403    3    0    1
 -2      1683      2003      2249      2458
 -1      6404    3    0    1
 -2       245      1066      2106      2459
 -1      6405    3    0    1
 -2      1894       245      2106      2459
 -1      6406    3    0    1
 -2      1311       775       774      2459
 -1      6407    3    0    1
 -2       774       775      2164      2459
 -1      6408    3    0    1
 -2      1311       774      2164      2459
 -1      6409    3    0    1
 -2      1162      2420       459      2666
 -1      6410    3    0    1
 -2       137      2442      2772      2815
 -1      6411    3    0    1
 -2      1066      1299      2086      2459
 -1      6412    3    0    1
 -2      2159      1589      2600      2626
 -1      6413    3    0    1
 -2      2496        43      2634      2792
 -1      6414    3    0    1
 -2       926       514      2526      2715
 -1      6415    3    0    1
 -2       997      2146      2235      2460
 -1      6416    3    0    1
 -2      2140      2146      2260      2460
 -1      6417    3    0    1
 -2      2146      2140      2235      2460
 -1      6418    3    0    1
 -2      2587       302      1132       378
 -1      6419    3    0    1
 -2       916       495      2209      2719
 -1      6420    3    0    1
 -2      1005       664      2443      2461
 -1      6421    3    0    1
 -2      1714      1005      2443      2461
 -1      6422    3    0    1
 -2      2094      1859      2363      2807
 -1      6423    3    0    1
 -2      2094      2363      2727      2807
 -1      6424    3    0    1
 -2      2688      1850      2747      2832
 -1      6425    3    0    1
 -2       937       531      2650      2653
 -1      6426    3    0    1
 -2       348       104       961      2463
 -1      6427    3    0    1
 -2      2325      1782      2434      2826
 -1      6428    3    0    1
 -2       348       961      1224      2463
 -1      6429    3    0    1
 -2       358      2042      2559      2718
 -1      6430    3    0    1
 -2      1174      1561      2025      2465
 -1      6431    3    0    1
 -2      1174       483      1561      2465
 -1      6432    3    0    1
 -2       490       483      1174      2465
 -1      6433    3    0    1
 -2       997      1001      2235      2550
 -1      6434    3    0    1
 -2      2016      2373      2706      2755
 -1      6435    3    0    1
 -2       915       490      1174      2465
 -1      6436    3    0    1
 -2       915      1174      2025      2465
 -1      6437    3    0    1
 -2      1965       784      2103      2466
 -1      6438    3    0    1
 -2      1201      1531      2527      2721
 -1      6439    3    0    1
 -2      2374      1201      2527      2721
 -1      6440    3    0    1
 -2      1031       711      1032      2528
 -1      6441    3    0    1
 -2       819      1090      1896      2467
 -1      6442    3    0    1
 -2       819      1896      1938      2467
 -1      6443    3    0    1
 -2      1120      1142      1665      2468
 -1      6444    3    0    1
 -2       157       998      1259      2783
 -1      6445    3    0    1
 -2      2676      3040      1478      3091
 -1      6446    3    0    1
 -2       157       328      2547      2783
 -1      6447    3    0    1
 -2      1696       157      2547      2783
 -1      6448    3    0    1
 -2       893      1405      2074      2469
 -1      6449    3    0    1
 -2      1830      2289       441      1712
 -1      6450    3    0    1
 -2       955       567       952      2470
 -1      6451    3    0    1
 -2      1809      2136      2234      2579
 -1      6452    3    0    1
 -2      2140      2120      2291      2714
 -1      6453    3    0    1
 -2       567       955       568      2470
 -1      6454    3    0    1
 -2      1872      1562      2478      2479
 -1      6455    3    0    1
 -2      1869      1562      1872      2480
 -1      6456    3    0    1
 -2        81       365       952      2470
 -1      6457    3    0    1
 -2        81       952      2412      2470
 -1      6458    3    0    1
 -2       750       775      2086      2473
 -1      6459    3    0    1
 -2       775      2164      2459      2473
 -1      6460    3    0    1
 -2      2086       775      2459      2473
 -1      6461    3    0    1
 -2      1977      2204      2771      2850
 -1      6462    3    0    1
 -2      1030      1848      2400      2513
 -1      6463    3    0    1
 -2      1565      1544      2303      2659
 -1      6464    3    0    1
 -2      1584      1544      2011      2659
 -1      6465    3    0    1
 -2      2048       711      2400      2513
 -1      6466    3    0    1
 -2       711      1030      2400      2513
 -1      6467    3    0    1
 -2       750      1053      1312      2473
 -1      6468    3    0    1
 -2       775       750      1312      2473
 -1      6469    3    0    1
 -2        14        16      2101      2810
 -1      6470    3    0    1
 -2      1587      1550      1677      2725
 -1      6471    3    0    1
 -2      1578      1734      2300      2475
 -1      6472    3    0    1
 -2      1734      1578      2108      2475
 -1      6473    3    0    1
 -2      2108      1734      2475      2726
 -1      6474    3    0    1
 -2      1676      2480      2730      2819
 -1      6475    3    0    1
 -2      2122      2595      2606      2808
 -1      6476    3    0    1
 -2      2704       916      2719      2834
 -1      6477    3    0    1
 -2       751      1054      1583      2512
 -1      6478    3    0    1
 -2       989       639      2442      2728
 -1      6479    3    0    1
 -2      1178       495      2441      2510
 -1      6480    3    0    1
 -2       385       964      2176      2485
 -1      6481    3    0    1
 -2      2351        29      2441      2510
 -1      6482    3    0    1
 -2       385       106       964      2485
 -1      6483    3    0    1
 -2       568       591       954      2476
 -1      6484    3    0    1
 -2       954       591       964      2476
 -1      6485    3    0    1
 -2       591       568       963      2476
 -1      6486    3    0    1
 -2       568       955       963      2476
 -1      6487    3    0    1
 -2       436       321      1612      2479
 -1      6488    3    0    1
 -2       321      1382      1139      2479
 -1      6489    3    0    1
 -2      1382      1612      1872      2479
 -1      6490    3    0    1
 -2      1382       321       436      2479
 -1      6491    3    0    1
 -2      1612      1562      1872      2479
 -1      6492    3    0    1
 -2      1382       436      1612      2479
 -1      6493    3    0    1
 -2      1562      1602      2457      2480
 -1      6494    3    0    1
 -2      1602      1549      2139      2480
 -1      6495    3    0    1
 -2        85      2470      2722      2731
 -1      6496    3    0    1
 -2      2470       568      2624      2731
 -1      6497    3    0    1
 -2       138       146      2635      2820
 -1      6498    3    0    1
 -2       955       568      2470      2731
 -1      6499    3    0    1
 -2      1549      1602      1869      2480
 -1      6500    3    0    1
 -2       568       955      2476      2731
 -1      6501    3    0    1
 -2        82      2226      2484      2731
 -1      6502    3    0    1
 -2      1554      2352      2553      2707
 -1      6503    3    0    1
 -2      1554      2319      2352      2707
 -1      6504    3    0    1
 -2      2426      2384      2574      2669
 -1      6505    3    0    1
 -2       278      1607      2268      2483
 -1      6506    3    0    1
 -2      1887       278      2455      2483
 -1      6507    3    0    1
 -2       278      2268      2455      2483
 -1      6508    3    0    1
 -2        29       918      2441      2510
 -1      6509    3    0    1
 -2      1904      1738      2379      2682
 -1      6510    3    0    1
 -2      1190      2526      2687      2780
 -1      6511    3    0    1
 -2       104       383      2463      2484
 -1      6512    3    0    1
 -2       383       104       963      2484
 -1      6513    3    0    1
 -2      1163      2034      2201      2690
 -1      6514    3    0    1
 -2      2105       315      2691      2732
 -1      6515    3    0    1
 -2       383        82      2226      2484
 -1      6516    3    0    1
 -2       955       383       963      2484
 -1      6517    3    0    1
 -2        82       383       955      2484
 -1      6518    3    0    1
 -2      1054       751      2389      2512
 -1      6519    3    0    1
 -2       751       726      2275      2512
 -1      6520    3    0    1
 -2       750      2086      2389      2512
 -1      6521    3    0    1
 -2      1226       959      1941      2816
 -1      6522    3    0    1
 -2      1130      1395      1869      2730
 -1      6523    3    0    1
 -2       954       964      2363      2485
 -1      6524    3    0    1
 -2       964       106      2363      2485
 -1      6525    3    0    1
 -2       751       750      2389      2512
 -1      6526    3    0    1
 -2       146      1248      2655      2820
 -1      6527    3    0    1
 -2       655       986      1258      2486
 -1      6528    3    0    1
 -2      1290      1039      2986      3088
 -1      6529    3    0    1
 -2       655       630       986      2486
 -1      6530    3    0    1
 -2         1         2      2918      2946
 -1      6531    3    0    1
 -2       135      1874      2206      2616
 -1      6532    3    0    1
 -2      1869      1549      2480      2730
 -1      6533    3    0    1
 -2      2589       146      2677      2734
 -1      6534    3    0    1
 -2       639       989       992      2728
 -1      6535    3    0    1
 -2      1782      1310      2434      2826
 -1      6536    3    0    1
 -2       663      1002      2443      2548
 -1      6537    3    0    1
 -2       640       663      2432      2548
 -1      6538    3    0    1
 -2      2471      1787      2615      2767
 -1      6539    3    0    1
 -2       928      2713      2764      2835
 -1      6540    3    0    1
 -2      1016       687      2207      2518
 -1      6541    3    0    1
 -2       345       979      2758      2823
 -1      6542    3    0    1
 -2      1131      1106      1952      2492
 -1      6543    3    0    1
 -2       852      1726      1952      2492
 -1      6544    3    0    1
 -2       852      1131       873      2492
 -1      6545    3    0    1
 -2      1383       852       873      2492
 -1      6546    3    0    1
 -2      1131       852      1106      2492
 -1      6547    3    0    1
 -2      1366      1645      1726      2492
 -1      6548    3    0    1
 -2       852      1366      1726      2492
 -1      6549    3    0    1
 -2       852      1383      1366      2492
 -1      6550    3    0    1
 -2      1106       852      1952      2492
 -1      6551    3    0    1
 -2      1558      2188      2332      2539
 -1      6552    3    0    1
 -2      1659        12      2321      2494
 -1      6553    3    0    1
 -2        12      1669      2321      2494
 -1      6554    3    0    1
 -2      1599      1661      1934      2495
 -1      6555    3    0    1
 -2      1833      1599      1882      2495
 -1      6556    3    0    1
 -2      1833      1882      2346      2495
 -1      6557    3    0    1
 -2      1877      1661      1938      2495
 -1      6558    3    0    1
 -2      1934      1661      2346      2495
 -1      6559    3    0    1
 -2      1882      1934      2346      2495
 -1      6560    3    0    1
 -2      1661      1877      2346      2495
 -1      6561    3    0    1
 -2      1804       906      1996      2504
 -1      6562    3    0    1
 -2        43       426       925      2496
 -1      6563    3    0    1
 -2      1313      1542      1873      2505
 -1      6564    3    0    1
 -2       936        66       940      2503
 -1      6565    3    0    1
 -2        43       925      1188      2496
 -1      6566    3    0    1
 -2       426        53       925      2496
 -1      6567    3    0    1
 -2      1188       510      1881      2497
 -1      6568    3    0    1
 -2       951       555      1210      2789
 -1      6569    3    0    1
 -2      1714      1005      2461      2718
 -1      6570    3    0    1
 -2        62       936      2305      2503
 -1      6571    3    0    1
 -2       119       976      2758      2823
 -1      6572    3    0    1
 -2       366       424       941      2498
 -1      6573    3    0    1
 -2      2197       381      2650      2653
 -1      6574    3    0    1
 -2       544      2519      2554      2744
 -1      6575    3    0    1
 -2       914      1889      2424      2804
 -1      6576    3    0    1
 -2       487       914      2424      2804
 -1      6577    3    0    1
 -2      2253      1788      2265      2762
 -1      6578    3    0    1
 -2      2596       951      2686      2789
 -1      6579    3    0    1
 -2      2330      1116      2623      2762
 -1      6580    3    0    1
 -2      2150      1551      2304      2500
 -1      6581    3    0    1
 -2      1693      1692      2150      2736
 -1      6582    3    0    1
 -2      1313       407      2361      2675
 -1      6583    3    0    1
 -2       249      1753      2205      2675
 -1      6584    3    0    1
 -2       407      2205      2361      2675
 -1      6585    3    0    1
 -2       416       190      1032      2528
 -1      6586    3    0    1
 -2       711      1031      2400      2528
 -1      6587    3    0    1
 -2       941      2374      2498      2502
 -1      6588    3    0    1
 -2       941       543      2374      2502
 -1      6589    3    0    1
 -2      1077       795      1324      2575
 -1      6590    3    0    1
 -2       711       712      1032      2528
 -1      6591    3    0    1
 -2      2124      1866      2538      2552
 -1      6592    3    0    1
 -2      1141       885      2623      2762
 -1      6593    3    0    1
 -2      2353      2069      2501      2674
 -1      6594    3    0    1
 -2       861      2253      2265      2762
 -1      6595    3    0    1
 -2       543       520      1201      2502
 -1      6596    3    0    1
 -2       520       930      1201      2502
 -1      6597    3    0    1
 -2      1753      1733      2022      2505
 -1      6598    3    0    1
 -2      1733       226      2022      2505
 -1      6599    3    0    1
 -2      1671      1534      1957      2506
 -1      6600    3    0    1
 -2      2676      2870      2903      3061
 -1      6601    3    0    1
 -2      2275      1300      2512      2740
 -1      6602    3    0    1
 -2       881      1393      2394      2507
 -1      6603    3    0    1
 -2       868      1393       881      2507
 -1      6604    3    0    1
 -2      1697       881      2394      2507
 -1      6605    3    0    1
 -2      1664      1638      2376      2167
 -1      6606    3    0    1
 -2      1638      1664      2376      2508
 -1      6607    3    0    1
 -2      2176       591      2476       964
 -1      6608    3    0    1
 -2       592       591       963      2509
 -1      6609    3    0    1
 -2       963      2476      2484      2509
 -1      6610    3    0    1
 -2       963       591      2476      2509
 -1      6611    3    0    1
 -2       592       966      2413      2509
 -1      6612    3    0    1
 -2       966       592       963      2509
 -1      6613    3    0    1
 -2      2413       966      2482      2509
 -1      6614    3    0    1
 -2       963       348       966      2509
 -1      6615    3    0    1
 -2       966       348      2482      2509
 -1      6616    3    0    1
 -2       104       963      2484      2509
 -1      6617    3    0    1
 -2      2463       104      2484      2509
 -1      6618    3    0    1
 -2       104      2463      2482      2509
 -1      6619    3    0    1
 -2       348       104      2482      2509
 -1      6620    3    0    1
 -2       104       348       963      2509
 -1      6621    3    0    1
 -2      2600      2225      2621      2626
 -1      6622    3    0    1
 -2      1654      1132      2587      2628
 -1      6623    3    0    1
 -2      2338      1674      2607      2640
 -1      6624    3    0    1
 -2       302      2587      1132      2628
 -1      6625    3    0    1
 -2      2111      1654      2587      2628
 -1      6626    3    0    1
 -2      2226        85      2365      2722
 -1      6627    3    0    1
 -2       392       393      2687      2764
 -1      6628    3    0    1
 -2       393       392       928      2764
 -1      6629    3    0    1
 -2      1671       322      2582      2741
 -1      6630    3    0    1
 -2      2280      2004      2375      2741
 -1      6631    3    0    1
 -2      1671      1957      2004      2741
 -1      6632    3    0    1
 -2       711      1018      1030      2513
 -1      6633    3    0    1
 -2       688       711      1031      2513
 -1      6634    3    0    1
 -2      1017       688      1031      2513
 -1      6635    3    0    1
 -2       558       584       961      2514
 -1      6636    3    0    1
 -2       104       383       961      2514
 -1      6637    3    0    1
 -2       330      2045      2433      2515
 -1      6638    3    0    1
 -2      1752      1913      2036      2597
 -1      6639    3    0    1
 -2       343      1000      1257      2516
 -1      6640    3    0    1
 -2       343       357      1714      2516
 -1      6641    3    0    1
 -2       357       343      1257      2516
 -1      6642    3    0    1
 -2       357      1257      2042      2516
 -1      6643    3    0    1
 -2      1714       357      2042      2516
 -1      6644    3    0    1
 -2      2218      1213      2572      2654
 -1      6645    3    0    1
 -2      2280      1557      2488      2517
 -1      6646    3    0    1
 -2      1643      2453      2540      2583
 -1      6647    3    0    1
 -2      1213      1827      2572      2654
 -1      6648    3    0    1
 -2      2170      1016      2281      2518
 -1      6649    3    0    1
 -2      1555      2111      2587      2628
 -1      6650    3    0    1
 -2       302      1368      2587      2628
 -1      6651    3    0    1
 -2      1368      2286      2587      2628
 -1      6652    3    0    1
 -2       538      2650      2717      2795
 -1      6653    3    0    1
 -2      1341      1340      2523      2745
 -1      6654    3    0    1
 -2      1849      1341      2523      2745
 -1      6655    3    0    1
 -2      1631      1849      2523      2745
 -1      6656    3    0    1
 -2       869      1389      1379      2520
 -1      6657    3    0    1
 -2      1127       869      2052      2520
 -1      6658    3    0    1
 -2      1388       869      1127      2520
 -1      6659    3    0    1
 -2      1704      1051      1622      2109
 -1      6660    3    0    1
 -2      1051      1704      1622      2521
 -1      6661    3    0    1
 -2       754       748      1055      2521
 -1      6662    3    0    1
 -2      1055      2057      2143      2521
 -1      6663    3    0    1
 -2       754      1055      2143      2521
 -1      6664    3    0    1
 -2      2062       926      2093      2813
 -1      6665    3    0    1
 -2      2002      2536      2592      2749
 -1      6666    3    0    1
 -2      1600      1943      2196      2524
 -1      6667    3    0    1
 -2       826      2081      2196      2524
 -1      6668    3    0    1
 -2       223       363      1908      2525
 -1      6669    3    0    1
 -2      1299      2086      2459      2525
 -1      6670    3    0    1
 -2       228       245      1894      2525
 -1      6671    3    0    1
 -2      1894       245      2459      2525
 -1      6672    3    0    1
 -2      1066      1299      2459      2525
 -1      6673    3    0    1
 -2       245      1066      2459      2525
 -1      6674    3    0    1
 -2       228       363      1299      2525
 -1      6675    3    0    1
 -2      1066       228      1299      2525
 -1      6676    3    0    1
 -2       245       228      1066      2525
 -1      6677    3    0    1
 -2       634       627       988      2664
 -1      6678    3    0    1
 -2      1531       370      2100      2792
 -1      6679    3    0    1
 -2      2174      1768      2477      2688
 -1      6680    3    0    1
 -2      2291       319      2306      2774
 -1      6681    3    0    1
 -2      2585      1788      2623      2753
 -1      6682    3    0    1
 -2       507      1190       923      2526
 -1      6683    3    0    1
 -2      1190       507       514      2526
 -1      6684    3    0    1
 -2       514       507       926      2526
 -1      6685    3    0    1
 -2      1188        43      2671      2792
 -1      6686    3    0    1
 -2       423        43      1188      2792
 -1      6687    3    0    1
 -2       926       507      1187      2526
 -1      6688    3    0    1
 -2        43       423      1531      2792
 -1      6689    3    0    1
 -2      1188        43      2496      2671
 -1      6690    3    0    1
 -2      2145      1545      2338      2607
 -1      6691    3    0    1
 -2       795      1321      1675      2575
 -1      6692    3    0    1
 -2       579       959      2399      2529
 -1      6693    3    0    1
 -2      2334       579      2399      2529
 -1      6694    3    0    1
 -2      1866      1801      1963      2552
 -1      6695    3    0    1
 -2      1546      1988      2237      2542
 -1      6696    3    0    1
 -2      2688      1850      2791      2800
 -1      6697    3    0    1
 -2      2020      1662      2169      2530
 -1      6698    3    0    1
 -2      1559      2020      2169      2530
 -1      6699    3    0    1
 -2      1810       293      2327      2531
 -1      6700    3    0    1
 -2      2084      2051      2091      2542
 -1      6701    3    0    1
 -2        79        75      2020      2532
 -1      6702    3    0    1
 -2      2081      1600      2524      2533
 -1      6703    3    0    1
 -2      1821      1936      2081      2533
 -1      6704    3    0    1
 -2      1936      1600      2081      2533
 -1      6705    3    0    1
 -2      2046      1987      2334      2534
 -1      6706    3    0    1
 -2      2606      2122      2808      2809
 -1      6707    3    0    1
 -2      1223      2334      2371      2534
 -1      6708    3    0    1
 -2      2334      1987      2371      2534
 -1      6709    3    0    1
 -2       842       841      2075      2535
 -1      6710    3    0    1
 -2       296      1880      1917      2535
 -1      6711    3    0    1
 -2       394       296      1917      2535
 -1      6712    3    0    1
 -2      1813       841      2367      2535
 -1      6713    3    0    1
 -2      1351       841       842      2535
 -1      6714    3    0    1
 -2       296      1100      1351      2535
 -1      6715    3    0    1
 -2      1100      1917      2367      2535
 -1      6716    3    0    1
 -2       841      1351      1100      2535
 -1      6717    3    0    1
 -2       841      1100      2367      2535
 -1      6718    3    0    1
 -2       296       394      1100      2535
 -1      6719    3    0    1
 -2      1100       394      1917      2535
 -1      6720    3    0    1
 -2      1651      1850      2629      2747
 -1      6721    3    0    1
 -2      2209        35      2689      2825
 -1      6722    3    0    1
 -2      1669      1866      2494      2538
 -1      6723    3    0    1
 -2        12      1669      2494      2538
 -1      6724    3    0    1
 -2        12      1159      2124      2538
 -1      6725    3    0    1
 -2      2257      1554      2436      2553
 -1      6726    3    0    1
 -2      1669        12      2124      2538
 -1      6727    3    0    1
 -2      1643      1606      2076      2540
 -1      6728    3    0    1
 -2       912      2388      2549      2689
 -1      6729    3    0    1
 -2       639      2442      2728      2756
 -1      6730    3    0    1
 -2       977       123      2403      2584
 -1      6731    3    0    1
 -2       936      2305      2453      2540
 -1      6732    3    0    1
 -2      2050       977      2403      2584
 -1      6733    3    0    1
 -2      2453      2305      2454      2540
 -1      6734    3    0    1
 -2      1591      2593      2702      2115
 -1      6735    3    0    1
 -2      2678      2537      2750      2790
 -1      6736    3    0    1
 -2       951      2532      2596      2686
 -1      6737    3    0    1
 -2      1606      2076      2540      2637
 -1      6738    3    0    1
 -2       118      1614      2489      2605
 -1      6739    3    0    1
 -2      2464      1591      2692      2702
 -1      6740    3    0    1
 -2      2647      2431      2692      2702
 -1      6741    3    0    1
 -2       627      2431      2647      2702
 -1      6742    3    0    1
 -2      2420      1162      2448      2666
 -1      6743    3    0    1
 -2      2195      2069      2353      2666
 -1      6744    3    0    1
 -2        12      1159      2538      2573
 -1      6745    3    0    1
 -2      2418      2194      2421      2667
 -1      6746    3    0    1
 -2      2122       418      2808      2809
 -1      6747    3    0    1
 -2        14      1160      1889      2545
 -1      6748    3    0    1
 -2        14       905      1160      2545
 -1      6749    3    0    1
 -2        16        14      2101      2545
 -1      6750    3    0    1
 -2        14        16       905      2545
 -1      6751    3    0    1
 -2       905        16      2101      2545
 -1      6752    3    0    1
 -2      1044      1826      2009      2546
 -1      6753    3    0    1
 -2      1044      2009      2210      2546
 -1      6754    3    0    1
 -2      1003      2432      2443      2547
 -1      6755    3    0    1
 -2      1696      1003      2443      2547
 -1      6756    3    0    1
 -2       985       627      2105      2647
 -1      6757    3    0    1
 -2       355       353      1030      2824
 -1      6758    3    0    1
 -2       157      1003      1696      2547
 -1      6759    3    0    1
 -2      1643      2544      2665      2703
 -1      6760    3    0    1
 -2       157       328      1003      2547
 -1      6761    3    0    1
 -2      2253      2716      2814      2836
 -1      6762    3    0    1
 -2      1850      1651      2629      2644
 -1      6763    3    0    1
 -2      1210        75      2686      2701
 -1      6764    3    0    1
 -2       392       928      2764      2835
 -1      6765    3    0    1
 -2       663       992      1002      2548
 -1      6766    3    0    1
 -2       634      1248      2655      2734
 -1      6767    3    0    1
 -2       663       640       992      2548
 -1      6768    3    0    1
 -2      2488      1001      2517      2550
 -1      6769    3    0    1
 -2        14      1889      2710      2810
 -1      6770    3    0    1
 -2      2095      1906      2444      2685
 -1      6771    3    0    1
 -2      1847       337      2415      2551
 -1      6772    3    0    1
 -2       343      2043      2516      2733
 -1      6773    3    0    1
 -2      1714       343      2516      2733
 -1      6774    3    0    1
 -2      2399      1847      2529      2551
 -1      6775    3    0    1
 -2       959      2399      2529      2551
 -1      6776    3    0    1
 -2       337      1847      2399      2551
 -1      6777    3    0    1
 -2       102       337       959      2551
 -1      6778    3    0    1
 -2       959       337      2399      2551
 -1      6779    3    0    1
 -2      1801      2757      1159       459
 -1      6780    3    0    1
 -2      1236      1409      2885      2915
 -1      6781    3    0    1
 -2      1444      3026      3038      3044
 -1      6782    3    0    1
 -2      3043      1462      1463      3056
 -1      6783    3    0    1
 -2      2202      1387      2286      2587
 -1      6784    3    0    1
 -2       706      2137      2355      2657
 -1      6785    3    0    1
 -2      2553      2887      2897      2908
 -1      6786    3    0    1
 -2       706      1279      2137      2657
 -1      6787    3    0    1
 -2      1809      1556      1892      2577
 -1      6788    3    0    1
 -2       858      1385       875      2630
 -1      6789    3    0    1
 -2      1556      1809      2579      2833
 -1      6790    3    0    1
 -2      1573      1985      2107      2556
 -1      6791    3    0    1
 -2      1828      1658      2220      2618
 -1      6792    3    0    1
 -2      1821      1946      2198      2557
 -1      6793    3    0    1
 -2      1569      1724      2121      2557
 -1      6794    3    0    1
 -2      1724      1569      1946      2557
 -1      6795    3    0    1
 -2      1946      1569      2198      2557
 -1      6796    3    0    1
 -2      1865      1821      2198      2557
 -1      6797    3    0    1
 -2      1569      1865      2198      2557
 -1      6798    3    0    1
 -2       988       135      1787      2558
 -1      6799    3    0    1
 -2       358      2042      2083      2559
 -1      6800    3    0    1
 -2       495      2441      2510      2719
 -1      6801    3    0    1
 -2       175      1013      1532      2559
 -1      6802    3    0    1
 -2      1532      1013      2083      2559
 -1      6803    3    0    1
 -2      1013       358      2083      2559
 -1      6804    3    0    1
 -2       175       358      1013      2559
 -1      6805    3    0    1
 -2       909       471      1163      2560
 -1      6806    3    0    1
 -2       907       471       908      2560
 -1      6807    3    0    1
 -2       907       908      2445      2560
 -1      6808    3    0    1
 -2       400        17      1162      2711
 -1      6809    3    0    1
 -2      2716      2456      2814      2836
 -1      6810    3    0    1
 -2       400      1162      2069      2711
 -1      6811    3    0    1
 -2      1815      1906      2604      2712
 -1      6812    3    0    1
 -2       909       472       471      2560
 -1      6813    3    0    1
 -2       471       472       908      2560
 -1      6814    3    0    1
 -2       908       472      2445      2560
 -1      6815    3    0    1
 -2      2276      1815      2604      2712
 -1      6816    3    0    1
 -2      2069      1162      2666      2711
 -1      6817    3    0    1
 -2       907      2347      2448      2711
 -1      6818    3    0    1
 -2      2687       392      2764      2811
 -1      6819    3    0    1
 -2      2094      2276      2705      2807
 -1      6820    3    0    1
 -2       847      1361       848      2563
 -1      6821    3    0    1
 -2      1360       298      1361      2563
 -1      6822    3    0    1
 -2       847      1690      1807      2563
 -1      6823    3    0    1
 -2      1360       847      1807      2563
 -1      6824    3    0    1
 -2      1361       847      1360      2563
 -1      6825    3    0    1
 -2       401      1807      2186      2563
 -1      6826    3    0    1
 -2       401      1360      1807      2563
 -1      6827    3    0    1
 -2       401       298      1360      2563
 -1      6828    3    0    1
 -2      2927       994      2930      2937
 -1      6829    3    0    1
 -2       339      1441      1444      1481
 -1      6830    3    0    1
 -2      2156      2017      2186      2566
 -1      6831    3    0    1
 -2      1634      2156      2186      2566
 -1      6832    3    0    1
 -2      2017      1634      2186      2566
 -1      6833    3    0    1
 -2       120       119       976      2567
 -1      6834    3    0    1
 -2       510       924      1881      2781
 -1      6835    3    0    1
 -2       193       353      2598      2824
 -1      6836    3    0    1
 -2       592      2050      2413      2567
 -1      6837    3    0    1
 -2       592       615      2050      2567
 -1      6838    3    0    1
 -2       966      2413      2482      2567
 -1      6839    3    0    1
 -2       120       107      1656      2567
 -1      6840    3    0    1
 -2      1656       107      2482      2567
 -1      6841    3    0    1
 -2       966       592      2413      2567
 -1      6842    3    0    1
 -2       107       966      2482      2567
 -1      6843    3    0    1
 -2       615       966       976      2567
 -1      6844    3    0    1
 -2       107       120       976      2567
 -1      6845    3    0    1
 -2       615       592       966      2567
 -1      6846    3    0    1
 -2       966       107       976      2567
 -1      6847    3    0    1
 -2      2280      1789      2464      2570
 -1      6848    3    0    1
 -2       190       416      1845      2571
 -1      6849    3    0    1
 -2      1845       416      2528      2571
 -1      6850    3    0    1
 -2       688      1018      2513      2658
 -1      6851    3    0    1
 -2      1018       171      2001      2658
 -1      6852    3    0    1
 -2       688      1015      1018      2658
 -1      6853    3    0    1
 -2       335      1279      2435      2571
 -1      6854    3    0    1
 -2       335       190      1279      2571
 -1      6855    3    0    1
 -2      1768      2174      2477      2672
 -1      6856    3    0    1
 -2      1885      1654      2111      2794
 -1      6857    3    0    1
 -2        86      1213      1827      2572
 -1      6858    3    0    1
 -2       991       142      2691      2700
 -1      6859    3    0    1
 -2      1836       906      2071      2573
 -1      6860    3    0    1
 -2       466       906      1836      2573
 -1      6861    3    0    1
 -2       466       459       906      2573
 -1      6862    3    0    1
 -2        12       906      1159      2573
 -1      6863    3    0    1
 -2       397      1529      2071      2573
 -1      6864    3    0    1
 -2       906       397      2071      2573
 -1      6865    3    0    1
 -2       397        12      1529      2573
 -1      6866    3    0    1
 -2        12       397       906      2573
 -1      6867    3    0    1
 -2      1077      1324      2063      2575
 -1      6868    3    0    1
 -2       795       802      1324      2575
 -1      6869    3    0    1
 -2      1324       802      2063      2575
 -1      6870    3    0    1
 -2      1943      1902      2354      2575
 -1      6871    3    0    1
 -2       795      1943      2354      2575
 -1      6872    3    0    1
 -2      1321       795      2354      2575
 -1      6873    3    0    1
 -2      1675      1321      1806      2575
 -1      6874    3    0    1
 -2      1806      1321      2354      2575
 -1      6875    3    0    1
 -2       795      1077      1943      2575
 -1      6876    3    0    1
 -2      1710      2290      2606      2632
 -1      6877    3    0    1
 -2       377       903      2449      2632
 -1      6878    3    0    1
 -2      1710      1801      2290      2632
 -1      6879    3    0    1
 -2      2178      1742      2555      2578
 -1      6880    3    0    1
 -2      1711      2178      2555      2578
 -1      6881    3    0    1
 -2      2308      1563      2367      2578
 -1      6882    3    0    1
 -2      1880      2308      2367      2578
 -1      6883    3    0    1
 -2      2178      1711      2367      2578
 -1      6884    3    0    1
 -2      1923      1742      2367      2578
 -1      6885    3    0    1
 -2      1742      2178      2367      2578
 -1      6886    3    0    1
 -2      2122      1710      2290      2606
 -1      6887    3    0    1
 -2      2302       971      2569      2580
 -1      6888    3    0    1
 -2      1177      2216      2595      2808
 -1      6889    3    0    1
 -2      2209       418      2704      2808
 -1      6890    3    0    1
 -2      2471      2213      2489      2580
 -1      6891    3    0    1
 -2      2213      2302      2489      2580
 -1      6892    3    0    1
 -2      2489      2302      2569      2580
 -1      6893    3    0    1
 -2      1993      1540      2158      2609
 -1      6894    3    0    1
 -2       205      1694      1854      2609
 -1      6895    3    0    1
 -2      1540       205      2037      2609
 -1      6896    3    0    1
 -2      1854      1694      2241      2609
 -1      6897    3    0    1
 -2      1957      1671      2309      2582
 -1      6898    3    0    1
 -2       544       942      2519      2744
 -1      6899    3    0    1
 -2       544      2412      2554      2742
 -1      6900    3    0    1
 -2       978       990      2635      2756
 -1      6901    3    0    1
 -2      2388      2522      2706      2755
 -1      6902    3    0    1
 -2       615       977      2050      2584
 -1      6903    3    0    1
 -2       977       615       978      2584
 -1      6904    3    0    1
 -2      2388      2016      2522      2755
 -1      6905    3    0    1
 -2       615       616       978      2584
 -1      6906    3    0    1
 -2      1590      1033      2802      2824
 -1      6907    3    0    1
 -2      2214      2325      2434      2826
 -1      6908    3    0    1
 -2       496       917      2510      2763
 -1      6909    3    0    1
 -2       315       138       991      2732
 -1      6910    3    0    1
 -2       568       954      2038      2624
 -1      6911    3    0    1
 -2       978      1716      2584      2754
 -1      6912    3    0    1
 -2       930        43      1531      2634
 -1      6913    3    0    1
 -2       954      2485      2511      2624
 -1      6914    3    0    1
 -2       302      1387       378      2587
 -1      6915    3    0    1
 -2      1651      2285      2577      2629
 -1      6916    3    0    1
 -2      1387       302      1368      2587
 -1      6917    3    0    1
 -2       664      1004      2627      2639
 -1      6918    3    0    1
 -2      1558      2188      2217      2629
 -1      6919    3    0    1
 -2        35        34       912      2689
 -1      6920    3    0    1
 -2        33       912      1177      2689
 -1      6921    3    0    1
 -2       586       962      2428      2588
 -1      6922    3    0    1
 -2       962      2428      2588      2765
 -1      6923    3    0    1
 -2      1618      1895      1926      2679
 -1      6924    3    0    1
 -2      2511       384      2561      2590
 -1      6925    3    0    1
 -2      1859      2511      2561      2590
 -1      6926    3    0    1
 -2        81      2356      2412      2751
 -1      6927    3    0    1
 -2      2463       348      2482      2649
 -1      6928    3    0    1
 -2        66      2015      2397      2592
 -1      6929    3    0    1
 -2        66       940      2015      2592
 -1      6930    3    0    1
 -2      2583      1643      2665      2703
 -1      6931    3    0    1
 -2       534      1839      2409      2693
 -1      6932    3    0    1
 -2       651      1259       998      2648
 -1      6933    3    0    1
 -2      1449      3037      1448      3078
 -1      6934    3    0    1
 -2       658      2488      2646      2648
 -1      6935    3    0    1
 -2      1259       658      2646      2648
 -1      6936    3    0    1
 -2       658      2235      2550      2648
 -1      6937    3    0    1
 -2       985       142      2115      2593
 -1      6938    3    0    1
 -2       560       534      2409      2693
 -1      6939    3    0    1
 -2      1827        86      2544      2703
 -1      6940    3    0    1
 -2      2235       651      2278      2648
 -1      6941    3    0    1
 -2      2536      2592      2680      2784
 -1      6942    3    0    1
 -2       658       651      2235      2648
 -1      6943    3    0    1
 -2      1802       490      1964      2595
 -1      6944    3    0    1
 -2      1710      2122      2290      2595
 -1      6945    3    0    1
 -2      1802      1710      2290      2595
 -1      6946    3    0    1
 -2      1671      1534      2506      2739
 -1      6947    3    0    1
 -2      1177       490      2122      2595
 -1      6948    3    0    1
 -2       490      1802      2122      2595
 -1      6949    3    0    1
 -2      2122      1802      2290      2595
 -1      6950    3    0    1
 -2      1606       562      2076      2596
 -1      6951    3    0    1
 -2      1187      2173      2333      2821
 -1      6952    3    0    1
 -2      1606      1827      2544      2665
 -1      6953    3    0    1
 -2      2222      2076      2296      2596
 -1      6954    3    0    1
 -2        79      2222      2296      2596
 -1      6955    3    0    1
 -2       562       951      2076      2596
 -1      6956    3    0    1
 -2      2076       951      2296      2596
 -1      6957    3    0    1
 -2       951        79      2296      2596
 -1      6958    3    0    1
 -2      1920      1713      2230      2597
 -1      6959    3    0    1
 -2      2230      1713      2242      2597
 -1      6960    3    0    1
 -2      2036      1543      2230      2597
 -1      6961    3    0    1
 -2      1070       251      1975      2695
 -1      6962    3    0    1
 -2      1580      1081      1948      2695
 -1      6963    3    0    1
 -2      1070      1580      1948      2695
 -1      6964    3    0    1
 -2       193       353      1277      2598
 -1      6965    3    0    1
 -2      2159      1589      2177      2600
 -1      6966    3    0    1
 -2      1589      2126      2177      2600
 -1      6967    3    0    1
 -2      1015      1005      2718      2775
 -1      6968    3    0    1
 -2       427       918      2351      2776
 -1      6969    3    0    1
 -2        25      2159      2177      2600
 -1      6970    3    0    1
 -2      1780      1875      2267      2622
 -1      6971    3    0    1
 -2      1911      1760      1975      2602
 -1      6972    3    0    1
 -2      1760      1911      2214      2602
 -1      6973    3    0    1
 -2       251      1064      1975      2602
 -1      6974    3    0    1
 -2      1760       251      1975      2602
 -1      6975    3    0    1
 -2       772      1064      2214      2602
 -1      6976    3    0    1
 -2      1064      1760      2214      2602
 -1      6977    3    0    1
 -2      1064       251      1760      2602
 -1      6978    3    0    1
 -2       123       126       972      2603
 -1      6979    3    0    1
 -2       972       126      2362      2603
 -1      6980    3    0    1
 -2      2115       985      2593      2702
 -1      6981    3    0    1
 -2       985       627      2647      2702
 -1      6982    3    0    1
 -2      1614      2300      2489      2605
 -1      6983    3    0    1
 -2      2471      1582      2580      2605
 -1      6984    3    0    1
 -2      1582      2471      2489      2605
 -1      6985    3    0    1
 -2      2489      2471      2580      2605
 -1      6986    3    0    1
 -2      2569      2489      2580      2605
 -1      6987    3    0    1
 -2       971      2569      2580      2605
 -1      6988    3    0    1
 -2       118      2489      2569      2605
 -1      6989    3    0    1
 -2       971       118      2569      2605
 -1      6990    3    0    1
 -2        80       382      2218      2633
 -1      6991    3    0    1
 -2       382       954      2511      2633
 -1      6992    3    0    1
 -2       954      2038      2624      2633
 -1      6993    3    0    1
 -2      1003      2432      2547      2700
 -1      6994    3    0    1
 -2        80       953       954      2633
 -1      6995    3    0    1
 -2       954       953      2038      2633
 -1      6996    3    0    1
 -2      2511       954      2624      2633
 -1      6997    3    0    1
 -2      2338      1657      2447      2607
 -1      6998    3    0    1
 -2      1930      1832      2010      2641
 -1      6999    3    0    1
 -2      1674      1657      2338      2607
 -1      7000    3    0    1
 -2      1694       205      1993      2609
 -1      7001    3    0    1
 -2      2286      2202      2370      2610
 -1      7002    3    0    1
 -2      2378       269      2611      2796
 -1      7003    3    0    1
 -2      2536      2002      2592      2785
 -1      7004    3    0    1
 -2      2645      2333      2752      2785
 -1      7005    3    0    1
 -2       371       269      2063      2796
 -1      7006    3    0    1
 -2       357      1714      2042      2718
 -1      7007    3    0    1
 -2      2015      2536      2592      2680
 -1      7008    3    0    1
 -2      2472       330      2515      2612
 -1      7009    3    0    1
 -2       854       876      2202      2770
 -1      7010    3    0    1
 -2       929      2663      2673      2761
 -1      7011    3    0    1
 -2      2245      2435      2608      2612
 -1      7012    3    0    1
 -2      2502       520      2673      2761
 -1      7013    3    0    1
 -2       854      2202      2286      2770
 -1      7014    3    0    1
 -2      1838      1660      1931      2724
 -1      7015    3    0    1
 -2      3036      2904      1479      2931
 -1      7016    3    0    1
 -2      2438      1447      2923      3079
 -1      7017    3    0    1
 -2      2857      2250      1419      3027
 -1      7018    3    0    1
 -2      2204      2614      2771      2851
 -1      7019    3    0    1
 -2      1450      1420      1454      2961
 -1      7020    3    0    1
 -2      1968      3026       999      2342
 -1      7021    3    0    1
 -2      2328      2876      3035      2917
 -1      7022    3    0    1
 -2       137       987      1246      2772
 -1      7023    3    0    1
 -2       385       959      1226      2816
 -1      7024    3    0    1
 -2       630      1699      2310      2830
 -1      7025    3    0    1
 -2       927      2625      2776      2831
 -1      7026    3    0    1
 -2      1803      2121      2557      2617
 -1      7027    3    0    1
 -2      2121      1803      2123      2617
 -1      7028    3    0    1
 -2       395      1363      1143      2618
 -1      7029    3    0    1
 -2      1339       395      1097      2618
 -1      7030    3    0    1
 -2      1912       433      2220      2618
 -1      7031    3    0    1
 -2      1363       395       433      2618
 -1      7032    3    0    1
 -2       395      1339       433      2618
 -1      7033    3    0    1
 -2       433      1339      2220      2618
 -1      7034    3    0    1
 -2      1363       433      1912      2618
 -1      7035    3    0    1
 -2      1557      1789      2570      2759
 -1      7036    3    0    1
 -2      2570      1789      2724      2759
 -1      7037    3    0    1
 -2      1005       664      2461      2775
 -1      7038    3    0    1
 -2      2461       664      2627      2775
 -1      7039    3    0    1
 -2       687      2518      2639      2775
 -1      7040    3    0    1
 -2       631       606       973      2619
 -1      7041    3    0    1
 -2       631       973      1247      2619
 -1      7042    3    0    1
 -2       102      2551      2816      2828
 -1      7043    3    0    1
 -2       319       318      1004      2774
 -1      7044    3    0    1
 -2      1141       387      2330      2623
 -1      7045    3    0    1
 -2       664      1004      2461      2627
 -1      7046    3    0    1
 -2      1875      2287      2621      2622
 -1      7047    3    0    1
 -2      2518      2627      2639      2775
 -1      7048    3    0    1
 -2      2267      1875      2621      2622
 -1      7049    3    0    1
 -2        34      2388      2689      2763
 -1      7050    3    0    1
 -2       929        54      2761      2778
 -1      7051    3    0    1
 -2      2800      1768      1850      2174
 -1      7052    3    0    1
 -2      1561      2225      2568      2773
 -1      7053    3    0    1
 -2      1245       988       627      2664
 -1      7054    3    0    1
 -2      1579        39      2746      2812
 -1      7055    3    0    1
 -2      2529       959      2551      2816
 -1      7056    3    0    1
 -2      1758      1857      2508      2667
 -1      7057    3    0    1
 -2      2421      1758      2508      2667
 -1      7058    3    0    1
 -2       634      2284      2655      2664
 -1      7059    3    0    1
 -2       519       927       930      2625
 -1      7060    3    0    1
 -2      1245      2431      2616      2664
 -1      7061    3    0    1
 -2       520       519       930      2625
 -1      7062    3    0    1
 -2       138       146       990      2635
 -1      7063    3    0    1
 -2       519      2776      2625      2777
 -1      7064    3    0    1
 -2      1187      2526      2746      2812
 -1      7065    3    0    1
 -2      2373      2016      2715      2755
 -1      7066    3    0    1
 -2      1224       974      1656      2788
 -1      7067    3    0    1
 -2      2522      2016      2706      2755
 -1      7068    3    0    1
 -2       496      2510      2776      2777
 -1      7069    3    0    1
 -2       393      1190      2764      2780
 -1      7070    3    0    1
 -2      2585      2330      2623      2762
 -1      7071    3    0    1
 -2      1190       923      2526      2780
 -1      7072    3    0    1
 -2      1801      1710      2552      2632
 -1      7073    3    0    1
 -2       903       459      2420      2632
 -1      7074    3    0    1
 -2       903      2420      2449      2632
 -1      7075    3    0    1
 -2      2267      1780      2626      2773
 -1      7076    3    0    1
 -2      1030      1033      2400      2824
 -1      7077    3    0    1
 -2      2552      1710      2606      2632
 -1      7078    3    0    1
 -2      2449      2420      2606      2632
 -1      7079    3    0    1
 -2      2420      2552      2606      2632
 -1      7080    3    0    1
 -2       142      2115      2691      2700
 -1      7081    3    0    1
 -2       927       930      2625      2634
 -1      7082    3    0    1
 -2       927        43       930      2634
 -1      7083    3    0    1
 -2       426        43       927      2634
 -1      7084    3    0    1
 -2      2510       496      2763      2777
 -1      7085    3    0    1
 -2      1850      2629      2747      2832
 -1      7086    3    0    1
 -2       917        34      2763      2799
 -1      7087    3    0    1
 -2      2553      2869      2887      2908
 -1      7088    3    0    1
 -2      1716       125      2589      2635
 -1      7089    3    0    1
 -2       125       146      2589      2635
 -1      7090    3    0    1
 -2      2188      1558      2332      2644
 -1      7091    3    0    1
 -2       640       992      2548      2729
 -1      7092    3    0    1
 -2      1002      1714      2548      2733
 -1      7093    3    0    1
 -2      1558      2188      2629      2644
 -1      7094    3    0    1
 -2       146      2589      2643      2734
 -1      7095    3    0    1
 -2      2758       345      2823      2829
 -1      7096    3    0    1
 -2      2588      2428      2712      2765
 -1      7097    3    0    1
 -2       125       978       990      2635
 -1      7098    3    0    1
 -2       146       125       990      2635
 -1      7099    3    0    1
 -2       912        34      2388      2689
 -1      7100    3    0    1
 -2      1608      2383      2454      2638
 -1      7101    3    0    1
 -2      2188      2332      2539      2638
 -1      7102    3    0    1
 -2      2539      2222      2599      2638
 -1      7103    3    0    1
 -2      2188      2539      2599      2638
 -1      7104    3    0    1
 -2      1608      2222      2296      2638
 -1      7105    3    0    1
 -2      2296      2222      2539      2638
 -1      7106    3    0    1
 -2      1608      2332      2383      2638
 -1      7107    3    0    1
 -2      2332      1608      2539      2638
 -1      7108    3    0    1
 -2      1608      2296      2539      2638
 -1      7109    3    0    1
 -2      1545      1906      2096      2640
 -1      7110    3    0    1
 -2      2096      1906      2607      2640
 -1      7111    3    0    1
 -2      1906      1545      2444      2640
 -1      7112    3    0    1
 -2      2444      1545      2607      2640
 -1      7113    3    0    1
 -2      1906      2444      2607      2640
 -1      7114    3    0    1
 -2      1665      1120      2468      2641
 -1      7115    3    0    1
 -2      2323      1665      2468      2641
 -1      7116    3    0    1
 -2      1930      2010      2223      2641
 -1      7117    3    0    1
 -2      2223      2010      2468      2641
 -1      7118    3    0    1
 -2      1121      1832      1930      2641
 -1      7119    3    0    1
 -2      1398      1121      1930      2641
 -1      7120    3    0    1
 -2       864      1142      1120      2641
 -1      7121    3    0    1
 -2      1930      2223      2468      2641
 -1      7122    3    0    1
 -2       886      1930      2468      2641
 -1      7123    3    0    1
 -2      1142       864       886      2641
 -1      7124    3    0    1
 -2      1398       864      1121      2641
 -1      7125    3    0    1
 -2      1142       886      2468      2641
 -1      7126    3    0    1
 -2       886      1398      1930      2641
 -1      7127    3    0    1
 -2       864      1398       886      2641
 -1      7128    3    0    1
 -2       318       157      1696      2783
 -1      7129    3    0    1
 -2       318      1696      2278      2783
 -1      7130    3    0    1
 -2      2547       328      2646      2783
 -1      7131    3    0    1
 -2      3054      3052      1470      1471
 -1      7132    3    0    1
 -2      2853      2841      1464      3072
 -1      7133    3    0    1
 -2      2061      1236      2452      2885
 -1      7134    3    0    1
 -2        54      2761      2769      2786
 -1      7135    3    0    1
 -2      2431       627      2647      2664
 -1      7136    3    0    1
 -2      2333      2002      2749      2785
 -1      7137    3    0    1
 -2      2002      2536      2749      2785
 -1      7138    3    0    1
 -2        54      2663      2761      2786
 -1      7139    3    0    1
 -2      1910      2536      2784      2785
 -1      7140    3    0    1
 -2      2333      2173      2752      2785
 -1      7141    3    0    1
 -2      2145      2273      2338      2753
 -1      7142    3    0    1
 -2      1910       424      2645      2784
 -1      7143    3    0    1
 -2      2752      2645      2769      2786
 -1      7144    3    0    1
 -2       998      1259      2278      2648
 -1      7145    3    0    1
 -2       651       998      2278      2648
 -1      7146    3    0    1
 -2       348      1656      2482      2649
 -1      7147    3    0    1
 -2       107      1224      1656      2649
 -1      7148    3    0    1
 -2       348       107      1656      2649
 -1      7149    3    0    1
 -2       961      2463      2514      2649
 -1      7150    3    0    1
 -2      2247       961      2514      2649
 -1      7151    3    0    1
 -2       418       916      2209      2704
 -1      7152    3    0    1
 -2       381       366      2498      2652
 -1      7153    3    0    1
 -2      1210      2274      2686      2789
 -1      7154    3    0    1
 -2       381       380       937      2653
 -1      7155    3    0    1
 -2      2445       908      2449      2704
 -1      7156    3    0    1
 -2      2197       381      2498      2652
 -1      7157    3    0    1
 -2       107       348      1224      2649
 -1      7158    3    0    1
 -2       381      2197      2650      2652
 -1      7159    3    0    1
 -2      2610      2252      2679      2770
 -1      7160    3    0    1
 -2       531       538       937      2650
 -1      7161    3    0    1
 -2       366       381      1200      2650
 -1      7162    3    0    1
 -2      2061       960      2364      2651
 -1      7163    3    0    1
 -2      1236       960      2061      2651
 -1      7164    3    0    1
 -2      1236      2061      2452      2651
 -1      7165    3    0    1
 -2       608       582      1236      2651
 -1      7166    3    0    1
 -2       582       960      1236      2651
 -1      7167    3    0    1
 -2      1894      1068      1922      2720
 -1      7168    3    0    1
 -2      2305        62      2688      2791
 -1      7169    3    0    1
 -2        62      2305      2383      2791
 -1      7170    3    0    1
 -2      1719      2678      2750      2790
 -1      7171    3    0    1
 -2      1343      1344      1853      2716
 -1      7172    3    0    1
 -2      1719      1555      2678      2790
 -1      7173    3    0    1
 -2       562       951      2596      2654
 -1      7174    3    0    1
 -2      2349      2370      2748      2790
 -1      7175    3    0    1
 -2      1555      1719      2370      2790
 -1      7176    3    0    1
 -2      2278      2140      2291      2714
 -1      7177    3    0    1
 -2      2349      1555      2370      2790
 -1      7178    3    0    1
 -2      1213       562      1827      2654
 -1      7179    3    0    1
 -2      1683      2003      2458      2848
 -1      7180    3    0    1
 -2      1933      1977      2387      2656
 -1      7181    3    0    1
 -2      2119      1413      1414      3037
 -1      7182    3    0    1
 -2      3028      1027      1290      1411
 -1      7183    3    0    1
 -2      2301      2891      3029      3044
 -1      7184    3    0    1
 -2      2245       706      2355      2657
 -1      7185    3    0    1
 -2      2435      1279      2612      2657
 -1      7186    3    0    1
 -2      1845      1279      2571      2657
 -1      7187    3    0    1
 -2      1279      1845      2137      2657
 -1      7188    3    0    1
 -2      2245      2435      2612      2657
 -1      7189    3    0    1
 -2      1279       706      2612      2657
 -1      7190    3    0    1
 -2       706      2245      2612      2657
 -1      7191    3    0    1
 -2       687      2207      2518      2658
 -1      7192    3    0    1
 -2      2396       687      2518      2658
 -1      7193    3    0    1
 -2       688       687      1015      2658
 -1      7194    3    0    1
 -2      1015       687      2396      2658
 -1      7195    3    0    1
 -2       175      1015      2396      2658
 -1      7196    3    0    1
 -2      2658       175      2001      2396
 -1      7197    3    0    1
 -2       175       171      1015      2658
 -1      7198    3    0    1
 -2      1144       297      1364      2659
 -1      7199    3    0    1
 -2       437      1144      2303      2659
 -1      7200    3    0    1
 -2       437       297      1144      2659
 -1      7201    3    0    1
 -2       654      1852      2298      2661
 -1      7202    3    0    1
 -2      1852       654      2083      2661
 -1      7203    3    0    1
 -2       678      1935      2423      2661
 -1      7204    3    0    1
 -2       679       678      2423      2661
 -1      7205    3    0    1
 -2       678       679      1935      2661
 -1      7206    3    0    1
 -2      1269       679      2298      2661
 -1      7207    3    0    1
 -2       679      1269      1935      2661
 -1      7208    3    0    1
 -2      1935      1269      2298      2661
 -1      7209    3    0    1
 -2      1515      1479      3014      3024
 -1      7210    3    0    1
 -2       350       203      3042      1473
 -1      7211    3    0    1
 -2       151       642      2927      2930
 -1      7212    3    0    1
 -2      1419      3027      1453      3077
 -1      7213    3    0    1
 -2      2844      2850      2851      3034
 -1      7214    3    0    1
 -2      3028      3049      3055      3073
 -1      7215    3    0    1
 -2      1065      2203      2723      1417
 -1      7216    3    0    1
 -2      2140       651      2460      2714
 -1      7217    3    0    1
 -2      2305        62      2503      2688
 -1      7218    3    0    1
 -2      2875      2863      3047      3053
 -1      7219    3    0    1
 -2      1881       924      2380      2781
 -1      7220    3    0    1
 -2       400      2069      2353      2674
 -1      7221    3    0    1
 -2      2265      1788      2623      2762
 -1      7222    3    0    1
 -2       885      2265      2623      2762
 -1      7223    3    0    1
 -2      1815      2276      2428      2712
 -1      7224    3    0    1
 -2       472      2445      2806      2834
 -1      7225    3    0    1
 -2       885       861      2265      2762
 -1      7226    3    0    1
 -2        66      2477      2503      2688
 -1      7227    3    0    1
 -2      1579        39      1901      2748
 -1      7228    3    0    1
 -2      1545      1662      2444      2753
 -1      7229    3    0    1
 -2      2330      2585      2623      2753
 -1      7230    3    0    1
 -2      2273      2330      2623      2753
 -1      7231    3    0    1
 -2      1545      2145      2338      2753
 -1      7232    3    0    1
 -2      2752      2645      2786      2787
 -1      7233    3    0    1
 -2      1332      1093      2343      2668
 -1      7234    3    0    1
 -2       396       278      1332      2668
 -1      7235    3    0    1
 -2      1748       278      1887      2668
 -1      7236    3    0    1
 -2      1887       278      2483      2668
 -1      7237    3    0    1
 -2       396      1877      2346      2668
 -1      7238    3    0    1
 -2      1607       396      2346      2668
 -1      7239    3    0    1
 -2       396      1332      1877      2668
 -1      7240    3    0    1
 -2      1877      1332      2343      2668
 -1      7241    3    0    1
 -2       884       865      2171      2669
 -1      7242    3    0    1
 -2      2401      2227      2574      2669
 -1      7243    3    0    1
 -2      1140      2227      2401      2669
 -1      7244    3    0    1
 -2       865      1140      1376      2669
 -1      7245    3    0    1
 -2      1140       884      2227      2669
 -1      7246    3    0    1
 -2       865       884      1140      2669
 -1      7247    3    0    1
 -2       925      2496      2497      2671
 -1      7248    3    0    1
 -2      1188       925      2497      2671
 -1      7249    3    0    1
 -2       925      1188      2496      2671
 -1      7250    3    0    1
 -2       832      1095      2690      2793
 -1      7251    3    0    1
 -2      2536      1910      2784      2795
 -1      7252    3    0    1
 -2      2477      2174      2490      2672
 -1      7253    3    0    1
 -2      1885      2477      2490      2672
 -1      7254    3    0    1
 -2      2680       538      2717      2795
 -1      7255    3    0    1
 -2      2680      2536      2784      2795
 -1      7256    3    0    1
 -2      1200      1910      2652      2795
 -1      7257    3    0    1
 -2      2174      1885      2490      2672
 -1      7258    3    0    1
 -2       538      1200      2650      2795
 -1      7259    3    0    1
 -2       930      2625      2634      2673
 -1      7260    3    0    1
 -2       930       520      2625      2673
 -1      7261    3    0    1
 -2      1531       930      2634      2673
 -1      7262    3    0    1
 -2      2150      1692      2500      2736
 -1      7263    3    0    1
 -2      1757      2150      2500      2736
 -1      7264    3    0    1
 -2      2068      2371      2534      2737
 -1      7265    3    0    1
 -2      1753       249      2505      2675
 -1      7266    3    0    1
 -2       407       249      2205      2675
 -1      7267    3    0    1
 -2       249      1313      2505      2675
 -1      7268    3    0    1
 -2       249       407      1313      2675
 -1      7269    3    0    1
 -2      3033      1443      3038      2922
 -1      7270    3    0    1
 -2      2358       973      1427      1428
 -1      7271    3    0    1
 -2      2451      2864      2901      3036
 -1      7272    3    0    1
 -2      2852      2840      2882      3048
 -1      7273    3    0    1
 -2      1433      1462      1465      2977
 -1      7274    3    0    1
 -2      1436      1968      2912      3039
 -1      7275    3    0    1
 -2       156       641      2930      2937
 -1      7276    3    0    1
 -2      2286      2202      2610      2679
 -1      7277    3    0    1
 -2      1618      1990      2252      2679
 -1      7278    3    0    1
 -2      2252      1990      2610      2679
 -1      7279    3    0    1
 -2      1895      1618      2252      2679
 -1      7280    3    0    1
 -2      1977      2204      2614      2771
 -1      7281    3    0    1
 -2      2878      1933      2889      3030
 -1      7282    3    0    1
 -2       940      2015      2592      2680
 -1      7283    3    0    1
 -2        66       940      2503      2680
 -1      7284    3    0    1
 -2       940        66      2015      2680
 -1      7285    3    0    1
 -2      2015        66      2503      2680
 -1      7286    3    0    1
 -2       538       940      2592      2680
 -1      7287    3    0    1
 -2      2527        67       943      2681
 -1      7288    3    0    1
 -2      2527       943      2374      2681
 -1      7289    3    0    1
 -2       943      2527      2374      1201
 -1      7290    3    0    1
 -2      1738      1904      2244      2682
 -1      7291    3    0    1
 -2      1904      2067      2244      2682
 -1      7292    3    0    1
 -2      1945      1082      2368      2683
 -1      7293    3    0    1
 -2      1082       261      2378      2683
 -1      7294    3    0    1
 -2      2368      1082      2378      2683
 -1      7295    3    0    1
 -2      2444      1662      2685      2797
 -1      7296    3    0    1
 -2        75      2530      2541      2797
 -1      7297    3    0    1
 -2      1662      1741      2169      2797
 -1      7298    3    0    1
 -2      2020      1662      2530      2797
 -1      7299    3    0    1
 -2      2406       337      2551      2684
 -1      7300    3    0    1
 -2       337      2406      2415      2684
 -1      7301    3    0    1
 -2       977       338      2415      2684
 -1      7302    3    0    1
 -2      2456      1853      2716      2814
 -1      7303    3    0    1
 -2       514      2687      2715      2798
 -1      7304    3    0    1
 -2      2349      2537      2678      2790
 -1      7305    3    0    1
 -2        79        75      2532      2686
 -1      7306    3    0    1
 -2        75        79       951      2686
 -1      7307    3    0    1
 -2       951        79      2532      2686
 -1      7308    3    0    1
 -2       962      2097      2428      2765
 -1      7309    3    0    1
 -2       101       962      2499      2765
 -1      7310    3    0    1
 -2       998       651      2278      2714
 -1      7311    3    0    1
 -2      2442       616      2754      2756
 -1      7312    3    0    1
 -2      1533       101      2499      2765
 -1      7313    3    0    1
 -2       514      1190      2526      2687
 -1      7314    3    0    1
 -2      1853      1344      2163      2716
 -1      7315    3    0    1
 -2       924       512      1189      2781
 -1      7316    3    0    1
 -2      2442       989      2728      2815
 -1      7317    3    0    1
 -2       393       928      2713      2764
 -1      7318    3    0    1
 -2       392       393      1190      2687
 -1      7319    3    0    1
 -2        62        66      2688      2800
 -1      7320    3    0    1
 -2       926       391      2093      2812
 -1      7321    3    0    1
 -2       974       120      1656      2801
 -1      7322    3    0    1
 -2       315       985      2105      2691
 -1      7323    3    0    1
 -2       985      2593      2647      2691
 -1      7324    3    0    1
 -2      2105       985      2647      2691
 -1      7325    3    0    1
 -2      2284       634      2655      2734
 -1      7326    3    0    1
 -2      2225      2621      2626      2773
 -1      7327    3    0    1
 -2       142       315       991      2691
 -1      7328    3    0    1
 -2       991      2432      2728      2729
 -1      7329    3    0    1
 -2       315       142       985      2691
 -1      7330    3    0    1
 -2      2280      1591      2488      2692
 -1      7331    3    0    1
 -2      1557      2280      2488      2692
 -1      7332    3    0    1
 -2      2189      1631      2523      2745
 -1      7333    3    0    1
 -2      2431      2464      2570      2692
 -1      7334    3    0    1
 -2      2536      2592      2784      2785
 -1      7335    3    0    1
 -2      2356       950      2409      2693
 -1      7336    3    0    1
 -2       950       560      2409      2693
 -1      7337    3    0    1
 -2       534       560      1198      2693
 -1      7338    3    0    1
 -2       560       950      1198      2693
 -1      7339    3    0    1
 -2       351       212      2402      2694
 -1      7340    3    0    1
 -2      2200       351      2402      2694
 -1      7341    3    0    1
 -2        86       953      2699      2803
 -1      7342    3    0    1
 -2       942      2197      2519      2803
 -1      7343    3    0    1
 -2      2038       953      2554      2803
 -1      7344    3    0    1
 -2       953      2038      2633      2803
 -1      7345    3    0    1
 -2      1580      1975      2416      2695
 -1      7346    3    0    1
 -2      1580      2416      2611      2695
 -1      7347    3    0    1
 -2      2797      2020        75      2530
 -1      7348    3    0    1
 -2      2292      1633      2386      2696
 -1      7349    3    0    1
 -2        80        86       953      2699
 -1      7350    3    0    1
 -2      1175      2351      2697      2804
 -1      7351    3    0    1
 -2        32       420       914      2697
 -1      7352    3    0    1
 -2      2357      1698      2417      2698
 -1      7353    3    0    1
 -2      2386      1976      2696      2698
 -1      7354    3    0    1
 -2      1633      2386      2696      2698
 -1      7355    3    0    1
 -2      2147      2292      2696      2698
 -1      7356    3    0    1
 -2      2417      2147      2696      2698
 -1      7357    3    0    1
 -2      2357      2417      2696      2698
 -1      7358    3    0    1
 -2      1213      2218      2572      2699
 -1      7359    3    0    1
 -2      1213        80      2218      2699
 -1      7360    3    0    1
 -2        86        80      1213      2699
 -1      7361    3    0    1
 -2      2547      2432      2691      2700
 -1      7362    3    0    1
 -2      2593      2547      2691      2700
 -1      7363    3    0    1
 -2      2274      1210      2686      2701
 -1      7364    3    0    1
 -2      1210      2274      2427      2701
 -1      7365    3    0    1
 -2      2427      2274      2604      2701
 -1      7366    3    0    1
 -2      2541      2095      2685      2701
 -1      7367    3    0    1
 -2      1906      1815      2604      2701
 -1      7368    3    0    1
 -2      1815      1906      2095      2701
 -1      7369    3    0    1
 -2      2095      1906      2685      2701
 -1      7370    3    0    1
 -2      2541      2274      2686      2701
 -1      7371    3    0    1
 -2      2274      2541      2604      2701
 -1      7372    3    0    1
 -2      2604      2541      2685      2701
 -1      7373    3    0    1
 -2      1906      2604      2685      2701
 -1      7374    3    0    1
 -2      2197       380      2653      2703
 -1      7375    3    0    1
 -2       380      2197      2544      2703
 -1      7376    3    0    1
 -2      2453      2583      2665      2703
 -1      7377    3    0    1
 -2      2453      2544      2653      2703
 -1      7378    3    0    1
 -2      2544      2197      2653      2703
 -1      7379    3    0    1
 -2      2544      2453      2665      2703
 -1      7380    3    0    1
 -2      1534      2189      2506      2739
 -1      7381    3    0    1
 -2      2710        14       909       419
 -1      7382    3    0    1
 -2      2560       909      2806      2810
 -1      7383    3    0    1
 -2      1068      1894      2293      2720
 -1      7384    3    0    1
 -2       418       916      2704      2809
 -1      7385    3    0    1
 -2      1577      2016      2373      2706
 -1      7386    3    0    1
 -2       639       616      2442      2756
 -1      7387    3    0    1
 -2      1727       483      2522      2706
 -1      7388    3    0    1
 -2      1577      1727      2016      2706
 -1      7389    3    0    1
 -2      2016      1727      2522      2706
 -1      7390    3    0    1
 -2      2926      2907      2933      2960
 -1      7391    3    0    1
 -2      2876      2771      2902      3035
 -1      7392    3    0    1
 -2      2054      2194      2581      2709
 -1      7393    3    0    1
 -2       329      1267      2194      2709
 -1      7394    3    0    1
 -2      2194      1267      2581      2709
 -1      7395    3    0    1
 -2       419        14      1889      2710
 -1      7396    3    0    1
 -2       392      2687      2798      2811
 -1      7397    3    0    1
 -2       420      1889      2697      2710
 -1      7398    3    0    1
 -2       420       419      1889      2710
 -1      7399    3    0    1
 -2      1178       420      2441      2710
 -1      7400    3    0    1
 -2       909      1178      2441      2710
 -1      7401    3    0    1
 -2        32       420      2697      2710
 -1      7402    3    0    1
 -2       420        32      2441      2710
 -1      7403    3    0    1
 -2      2441        32      2697      2710
 -1      7404    3    0    1
 -2       419       420       909      2710
 -1      7405    3    0    1
 -2       909       420      1178      2710
 -1      7406    3    0    1
 -2      1906      1815      2096      2712
 -1      7407    3    0    1
 -2      2097      1815      2428      2712
 -1      7408    3    0    1
 -2      2096      1815      2097      2712
 -1      7409    3    0    1
 -2      2663       929      2673      2713
 -1      7410    3    0    1
 -2       519      2625      2673      2713
 -1      7411    3    0    1
 -2       393        41      2663      2713
 -1      7412    3    0    1
 -2        41       393       928      2713
 -1      7413    3    0    1
 -2       928       519       929      2713
 -1      7414    3    0    1
 -2        41       929      2663      2713
 -1      7415    3    0    1
 -2        41       928       929      2713
 -1      7416    3    0    1
 -2       520       519      2673      2713
 -1      7417    3    0    1
 -2       519       520       929      2713
 -1      7418    3    0    1
 -2       929       520      2673      2713
 -1      7419    3    0    1
 -2      1853       431      2716      2814
 -1      7420    3    0    1
 -2      1788      2253      2265      2814
 -1      7421    3    0    1
 -2       430      1397      1117      2716
 -1      7422    3    0    1
 -2      2728       989      2729      2815
 -1      7423    3    0    1
 -2       431      1343      1853      2716
 -1      7424    3    0    1
 -2       431       430      1343      2716
 -1      7425    3    0    1
 -2       989       992      2729      2815
 -1      7426    3    0    1
 -2      1343       430      1344      2716
 -1      7427    3    0    1
 -2      1397       430       431      2716
 -1      7428    3    0    1
 -2       137       989      2442      2815
 -1      7429    3    0    1
 -2      1015       358      2396      2718
 -1      7430    3    0    1
 -2      2396       358      2559      2718
 -1      7431    3    0    1
 -2       161       357      2042      2718
 -1      7432    3    0    1
 -2       357       161      1005      2718
 -1      7433    3    0    1
 -2       358       161      2042      2718
 -1      7434    3    0    1
 -2      1005       358      1015      2718
 -1      7435    3    0    1
 -2       161       358      1005      2718
 -1      7436    3    0    1
 -2      1922       783      2466      2720
 -1      7437    3    0    1
 -2       543      2374      2502      2721
 -1      7438    3    0    1
 -2      1201       543      2502      2721
 -1      7439    3    0    1
 -2       543      1201      2374      2721
 -1      7440    3    0    1
 -2       990      2635      2728      2732
 -1      7441    3    0    1
 -2       990       138      2635      2732
 -1      7442    3    0    1
 -2      2746        39      2748      2821
 -1      7443    3    0    1
 -2        82        85      2226      2722
 -1      7444    3    0    1
 -2       315       991      2691      2732
 -1      7445    3    0    1
 -2       365        85      2470      2722
 -1      7446    3    0    1
 -2      2356       365      2470      2722
 -1      7447    3    0    1
 -2       365      2356      2365      2722
 -1      7448    3    0    1
 -2        85       365      2365      2722
 -1      7449    3    0    1
 -2      2855      2872      2909      3051
 -1      7450    3    0    1
 -2      1464      1429      3072      1502
 -1      7451    3    0    1
 -2      2947       690      2952      2971
 -1      7452    3    0    1
 -2      2464      2474      2570      2724
 -1      7453    3    0    1
 -2      1789      2464      2570      2724
 -1      7454    3    0    1
 -2      1660      1838      2132      2724
 -1      7455    3    0    1
 -2      1660      2132      2272      2724
 -1      7456    3    0    1
 -2       136      1874      2474      2724
 -1      7457    3    0    1
 -2      1874       136      2272      2724
 -1      7458    3    0    1
 -2      2132      1874      2272      2724
 -1      7459    3    0    1
 -2      1874      2132      2474      2724
 -1      7460    3    0    1
 -2      2725      2475      2726      2818
 -1      7461    3    0    1
 -2      2475      2108      2726      2818
 -1      7462    3    0    1
 -2      2475      1550      2725      2726
 -1      7463    3    0    1
 -2      1676      1722      1778      2819
 -1      7464    3    0    1
 -2       122      2758      2801      2838
 -1      7465    3    0    1
 -2      1130       292      2730      2819
 -1      7466    3    0    1
 -2      2122      1177      2595      2808
 -1      7467    3    0    1
 -2      1677      2162      2725      2817
 -1      7468    3    0    1
 -2      2216      1177      2738      2808
 -1      7469    3    0    1
 -2      1625      2053      2162      2817
 -1      7470    3    0    1
 -2       106       385      1226      2727
 -1      7471    3    0    1
 -2       106      1226      2363      2727
 -1      7472    3    0    1
 -2      1226      2094      2363      2727
 -1      7473    3    0    1
 -2       418      2209      2738      2808
 -1      7474    3    0    1
 -2      2099       974      2788      2838
 -1      7475    3    0    1
 -2      1549      1676      2480      2730
 -1      7476    3    0    1
 -2       974      1235      2801      2838
 -1      7477    3    0    1
 -2      1235       974      2099      2838
 -1      7478    3    0    1
 -2       292      1395      1130      2730
 -1      7479    3    0    1
 -2      2635       146      2643      2820
 -1      7480    3    0    1
 -2       138      2635      2732      2820
 -1      7481    3    0    1
 -2       138       315      1248      2820
 -1      7482    3    0    1
 -2      2643       146      2655      2820
 -1      7483    3    0    1
 -2       955        82      2484      2731
 -1      7484    3    0    1
 -2        82        85      2722      2731
 -1      7485    3    0    1
 -2        85        82       955      2731
 -1      7486    3    0    1
 -2       991       990      2728      2732
 -1      7487    3    0    1
 -2      1187        39      2746      2821
 -1      7488    3    0    1
 -2       327       140      2043      2733
 -1      7489    3    0    1
 -2      2621      2267      2626      2773
 -1      7490    3    0    1
 -2       992      1002      2548      2733
 -1      7491    3    0    1
 -2       347       345      2827      2829
 -1      7492    3    0    1
 -2      1780      2267      2568      2773
 -1      7493    3    0    1
 -2       319      1004      2306      2774
 -1      7494    3    0    1
 -2       327       342      1002      2733
 -1      7495    3    0    1
 -2       992       327      1002      2733
 -1      7496    3    0    1
 -2      1621      2589      2677      2734
 -1      7497    3    0    1
 -2      2643      2284      2655      2734
 -1      7498    3    0    1
 -2      2069       400      2711      2735
 -1      7499    3    0    1
 -2       400      2069      2674      2735
 -1      7500    3    0    1
 -2      1768      2174      2672      2794
 -1      7501    3    0    1
 -2      2445       908      2704      2834
 -1      7502    3    0    1
 -2      1768      1556      2174      2794
 -1      7503    3    0    1
 -2      1223      2046      2534      2737
 -1      7504    3    0    1
 -2      2046      1223      2499      2737
 -1      7505    3    0    1
 -2      2371      1223      2534      2737
 -1      7506    3    0    1
 -2       336      1223      2371      2737
 -1      7507    3    0    1
 -2        33      2209      2689      2738
 -1      7508    3    0    1
 -2      2216      1177      2689      2738
 -1      7509    3    0    1
 -2      1177        33      2689      2738
 -1      7510    3    0    1
 -2       418        33      1177      2738
 -1      7511    3    0    1
 -2      1671      2506      1676      2739
 -1      7512    3    0    1
 -2      2506      1671      1676      1957
 -1      7513    3    0    1
 -2      1722      1676      1778      2739
 -1      7514    3    0    1
 -2      1722      1778      2506      2739
 -1      7515    3    0    1
 -2      1778      1676      2506      2739
 -1      7516    3    0    1
 -2      1053      2250      2473      2740
 -1      7517    3    0    1
 -2      1053       750      1300      2740
 -1      7518    3    0    1
 -2      1039      2275      2328      2740
 -1      7519    3    0    1
 -2      1300      1039      2328      2740
 -1      7520    3    0    1
 -2      1039      1300      2275      2740
 -1      7521    3    0    1
 -2       750      1053      2473      2740
 -1      7522    3    0    1
 -2       750      2086      2512      2740
 -1      7523    3    0    1
 -2      2086       750      2473      2740
 -1      7524    3    0    1
 -2       751       750      2512      2740
 -1      7525    3    0    1
 -2       750       751      1300      2740
 -1      7526    3    0    1
 -2      1300       751      2512      2740
 -1      7527    3    0    1
 -2      2004      1957      2375      2741
 -1      7528    3    0    1
 -2      1557      2280      2375      2741
 -1      7529    3    0    1
 -2      2375      1957      2582      2741
 -1      7530    3    0    1
 -2      1557      2375      2582      2741
 -1      7531    3    0    1
 -2       943      2374      2681      2742
 -1      7532    3    0    1
 -2       381       366       942      2743
 -1      7533    3    0    1
 -2       941       366      2498      2743
 -1      7534    3    0    1
 -2       366       941       942      2743
 -1      7535    3    0    1
 -2       941       544       942      2743
 -1      7536    3    0    1
 -2       942       544      2519      2743
 -1      7537    3    0    1
 -2      2519       544      2742      2743
 -1      7538    3    0    1
 -2       544      2374      2742      2743
 -1      7539    3    0    1
 -2      2374       941       544       543
 -1      7540    3    0    1
 -2       941      2374       544      2743
 -1      7541    3    0    1
 -2       914      1175      2697      2804
 -1      7542    3    0    1
 -2       835      1341       836      2745
 -1      7543    3    0    1
 -2       835      1778      2523      2745
 -1      7544    3    0    1
 -2      1340       835      2523      2745
 -1      7545    3    0    1
 -2      1341       835      1340      2745
 -1      7546    3    0    1
 -2      1577      2062      2093      2813
 -1      7547    3    0    1
 -2       926      2715      2812      2813
 -1      7548    3    0    1
 -2      2173      1187      2333      2746
 -1      7549    3    0    1
 -2       140      1246      2043      2830
 -1      7550    3    0    1
 -2      1719      1555      2437      2750
 -1      7551    3    0    1
 -2      1246       630      2043      2830
 -1      7552    3    0    1
 -2      1768      1556      2577      2747
 -1      7553    3    0    1
 -2      1651      2577      2631      2747
 -1      7554    3    0    1
 -2        43      1531      2634      2792
 -1      7555    3    0    1
 -2       423       370      1531      2792
 -1      7556    3    0    1
 -2        43      2496      2671      2792
 -1      7557    3    0    1
 -2      2577      1556      2631      2747
 -1      7558    3    0    1
 -2      1850      1651      2631      2747
 -1      7559    3    0    1
 -2      1850      1768      2747      1556
 -1      7560    3    0    1
 -2      1556      1850      2631      2747
 -1      7561    3    0    1
 -2       923      2786      2787      2822
 -1      7562    3    0    1
 -2      2786      2752      2787      2822
 -1      7563    3    0    1
 -2      2526       507      2746      2822
 -1      7564    3    0    1
 -2      1901        39      2349      2748
 -1      7565    3    0    1
 -2      1187      2333      2746      2822
 -1      7566    3    0    1
 -2      2752      2333      2787      2822
 -1      7567    3    0    1
 -2      2672      1768      2794      2833
 -1      7568    3    0    1
 -2      2591      1555      2678      2750
 -1      7569    3    0    1
 -2       364        81      2412      2751
 -1      7570    3    0    1
 -2      1198        67      1983      2751
 -1      7571    3    0    1
 -2      1198      1983      2693      2751
 -1      7572    3    0    1
 -2       950      1198      2693      2751
 -1      7573    3    0    1
 -2      2356       950      2693      2751
 -1      7574    3    0    1
 -2        81       950      2356      2751
 -1      7575    3    0    1
 -2       364        67      1198      2751
 -1      7576    3    0    1
 -2        81       364      1198      2751
 -1      7577    3    0    1
 -2       950        81      1198      2751
 -1      7578    3    0    1
 -2       976       615      2567      2823
 -1      7579    3    0    1
 -2       974       608      2099      2788
 -1      7580    3    0    1
 -2      2273      2145      2330      2753
 -1      7581    3    0    1
 -2      1741      1788      2585      2753
 -1      7582    3    0    1
 -2      1788      1741      2169      2753
 -1      7583    3    0    1
 -2      1741      1662      2169      2753
 -1      7584    3    0    1
 -2      2145      2444      2585      2753
 -1      7585    3    0    1
 -2      2444      1741      2585      2753
 -1      7586    3    0    1
 -2      2330      2145      2585      2753
 -1      7587    3    0    1
 -2       459      1159      2573      2757
 -1      7588    3    0    1
 -2      1159      2552      2573      2757
 -1      7589    3    0    1
 -2       616       978      2754      2756
 -1      7590    3    0    1
 -2       978      1716      2754      2756
 -1      7591    3    0    1
 -2      1716       978      2635      2756
 -1      7592    3    0    1
 -2       978       639       990      2756
 -1      7593    3    0    1
 -2       616       639       978      2756
 -1      7594    3    0    1
 -2       466       459      2573      2757
 -1      7595    3    0    1
 -2      2757      1801      1159      2552
 -1      7596    3    0    1
 -2      2552      1801      2632      2757
 -1      7597    3    0    1
 -2       466      1836      2666      2757
 -1      7598    3    0    1
 -2      1836       466      2573      2757
 -1      7599    3    0    1
 -2      1801       459      2632      2757
 -1      7600    3    0    1
 -2      2288       712      2429      2802
 -1      7601    3    0    1
 -2      2772       140      2815      2830
 -1      7602    3    0    1
 -2       119       976      2567      2758
 -1      7603    3    0    1
 -2       353       193      1033      2824
 -1      7604    3    0    1
 -2       555       948      2561      2789
 -1      7605    3    0    1
 -2       495      2209      2719      2825
 -1      7606    3    0    1
 -2      2267      1577      2568      2773
 -1      7607    3    0    1
 -2      1727      1561      2568      2773
 -1      7608    3    0    1
 -2      1174      1561      1727      2773
 -1      7609    3    0    1
 -2      2225        25      2621      2773
 -1      7610    3    0    1
 -2       102       385      2176      2828
 -1      7611    3    0    1
 -2      1577      1727      2568      2773
 -1      7612    3    0    1
 -2      2252      1895      2679      2770
 -1      7613    3    0    1
 -2       543       520      2502      2761
 -1      7614    3    0    1
 -2      1133      1108      1926      2770
 -1      7615    3    0    1
 -2      1895      1133      1926      2770
 -1      7616    3    0    1
 -2      2286      2202      2679      2770
 -1      7617    3    0    1
 -2      2202      2610      2679      2770
 -1      7618    3    0    1
 -2       929       543       941      2761
 -1      7619    3    0    1
 -2       520       543       929      2761
 -1      7620    3    0    1
 -2      1895      1926      2679      2770
 -1      7621    3    0    1
 -2      1911      2214      2602      2826
 -1      7622    3    0    1
 -2       772      2214      2434      2826
 -1      7623    3    0    1
 -2       941      2761      2769      2778
 -1      7624    3    0    1
 -2       941       929      2761      2778
 -1      7625    3    0    1
 -2      1310      1782      2768      2826
 -1      7626    3    0    1
 -2      1850      2383      2791      2800
 -1      7627    3    0    1
 -2      1224      1656      2649      2788
 -1      7628    3    0    1
 -2      2688      1768      2747      2800
 -1      7629    3    0    1
 -2       424       941      2769      2778
 -1      7630    3    0    1
 -2      2383        62      2791      2800
 -1      7631    3    0    1
 -2       328      2115      2646      2766
 -1      7632    3    0    1
 -2      1259       328      2646      2766
 -1      7633    3    0    1
 -2      2593      2488      2646      2766
 -1      7634    3    0    1
 -2      2488      2593      2692      2766
 -1      7635    3    0    1
 -2      2471      2213      2580      2767
 -1      7636    3    0    1
 -2      2213      2471      2615      2767
 -1      7637    3    0    1
 -2      1064       772      1313      2768
 -1      7638    3    0    1
 -2      1064      1313      2361      2768
 -1      7639    3    0    1
 -2      1310      1782      2190      2768
 -1      7640    3    0    1
 -2       772      1310      2190      2768
 -1      7641    3    0    1
 -2       987      1246      2772      2830
 -1      7642    3    0    1
 -2       772       778      1313      2768
 -1      7643    3    0    1
 -2      1313       778      2675      2768
 -1      7644    3    0    1
 -2      2361      1313      2675      2768
 -1      7645    3    0    1
 -2      2498       941      2761      2769
 -1      7646    3    0    1
 -2      1651      2629      2644      2779
 -1      7647    3    0    1
 -2      1810      1831      2295      2779
 -1      7648    3    0    1
 -2      1810      1651      1831      2779
 -1      7649    3    0    1
 -2      1926      2286      2679      2770
 -1      7650    3    0    1
 -2      1926       854      2286      2770
 -1      7651    3    0    1
 -2       854      1133       876      2770
 -1      7652    3    0    1
 -2      1133       854      1108      2770
 -1      7653    3    0    1
 -2      1108       854      1926      2770
 -1      7654    3    0    1
 -2      2250      3027      2917      3057
 -1      7655    3    0    1
 -2       385      1226      2727      2816
 -1      7656    3    0    1
 -2        53       427      2351      2831
 -1      7657    3    0    1
 -2        53       927      2776      2831
 -1      7658    3    0    1
 -2      2351       427      2776      2831
 -1      7659    3    0    1
 -2       140       137      1246      2772
 -1      7660    3    0    1
 -2       959       102      2551      2816
 -1      7661    3    0    1
 -2       385       102       959      2816
 -1      7662    3    0    1
 -2      2053      1914      2162      2817
 -1      7663    3    0    1
 -2       965       102      2176      2828
 -1      7664    3    0    1
 -2       337       102      2406      2828
 -1      7665    3    0    1
 -2       385       102      2816      2828
 -1      7666    3    0    1
 -2       102       965      2406      2828
 -1      7667    3    0    1
 -2       137       347       987      2772
 -1      7668    3    0    1
 -2      2727       385      2816      2828
 -1      7669    3    0    1
 -2       687       664      1015      2775
 -1      7670    3    0    1
 -2       664      1005      1015      2775
 -1      7671    3    0    1
 -2       664       687      2639      2775
 -1      7672    3    0    1
 -2      2188      2629      2644      2832
 -1      7673    3    0    1
 -2       918       496      2510      2776
 -1      7674    3    0    1
 -2       918       427       927      2776
 -1      7675    3    0    1
 -2       519       918       927      2776
 -1      7676    3    0    1
 -2       427        53       927      2776
 -1      7677    3    0    1
 -2       519       496       918      2776
 -1      7678    3    0    1
 -2       496       917      2763      2777
 -1      7679    3    0    1
 -2       496       519       928      2777
 -1      7680    3    0    1
 -2       917       496       928      2777
 -1      7681    3    0    1
 -2      2217      1810      2295      2779
 -1      7682    3    0    1
 -2      2217      1558      2629      2779
 -1      7683    3    0    1
 -2      1558      2217      2295      2779
 -1      7684    3    0    1
 -2      1810      2217      2629      2779
 -1      7685    3    0    1
 -2      2778        54      2786      2787
 -1      7686    3    0    1
 -2        41       923      1190      2780
 -1      7687    3    0    1
 -2        41       393      2663      2780
 -1      7688    3    0    1
 -2       393        41      1190      2780
 -1      7689    3    0    1
 -2      2333      2645      2752      2787
 -1      7690    3    0    1
 -2       510      1881      2497      2781
 -1      7691    3    0    1
 -2       512       510      2497      2781
 -1      7692    3    0    1
 -2      3061      3036      2948      3080
 -1      7693    3    0    1
 -2      3043      2874      2941      3071
 -1      7694    3    0    1
 -2      2876      2614      1450      2917
 -1      7695    3    0    1
 -2      2867      2848      3064      2959
 -1      7696    3    0    1
 -2      1176      1414      1433      3071
 -1      7697    3    0    1
 -2      2872      2909      3051      1465
 -1      7698    3    0    1
 -2       938      2282      2380      2925
 -1      7699    3    0    1
 -2      1444      2161      2905      3064
 -1      7700    3    0    1
 -2       157       318       998      2783
 -1      7701    3    0    1
 -2       998       318      2278      2783
 -1      7702    3    0    1
 -2       328       157      1259      2783
 -1      7703    3    0    1
 -2      1910      1200      2652      2784
 -1      7704    3    0    1
 -2       424      1910      2652      2784
 -1      7705    3    0    1
 -2      1200       424      2652      2784
 -1      7706    3    0    1
 -2       976      2567      2758      2823
 -1      7707    3    0    1
 -2      2645      1910      2784      2785
 -1      7708    3    0    1
 -2      1910      2645      2752      2785
 -1      7709    3    0    1
 -2      2173      2333      2749      2785
 -1      7710    3    0    1
 -2      2173      2536      2752      2785
 -1      7711    3    0    1
 -2      2536      1910      2752      2785
 -1      7712    3    0    1
 -2      2536      2173      2749      2785
 -1      7713    3    0    1
 -2       616       979      2442      2823
 -1      7714    3    0    1
 -2        54      2769      2778      2786
 -1      7715    3    0    1
 -2        41        54       923      2786
 -1      7716    3    0    1
 -2       917      2510      2763      2825
 -1      7717    3    0    1
 -2        34       917      2763      2825
 -1      7718    3    0    1
 -2      1590       712      2288      2802
 -1      7719    3    0    1
 -2      1042       212      2694      2802
 -1      7720    3    0    1
 -2      1033       712      1590      2802
 -1      7721    3    0    1
 -2      2099       608      2452      2788
 -1      7722    3    0    1
 -2      2452       608      2651      2788
 -1      7723    3    0    1
 -2       582      1224      2651      2788
 -1      7724    3    0    1
 -2       608       582      2651      2788
 -1      7725    3    0    1
 -2       608       974      1224      2788
 -1      7726    3    0    1
 -2       582       608      1224      2788
 -1      7727    3    0    1
 -2       562       951      2654      2789
 -1      7728    3    0    1
 -2       562       555       951      2789
 -1      7729    3    0    1
 -2       555      1213       948      2789
 -1      7730    3    0    1
 -2       948      1213      2218      2789
 -1      7731    3    0    1
 -2      2218      1213      2654      2789
 -1      7732    3    0    1
 -2      1213       562      2654      2789
 -1      7733    3    0    1
 -2      1213       555       562      2789
 -1      7734    3    0    1
 -2      2111      2672      2794      2833
 -1      7735    3    0    1
 -2      2179      3034      1455      3058
 -1      7736    3    0    1
 -2      2332      1850      2383      2791
 -1      7737    3    0    1
 -2       400       907      2347      2793
 -1      7738    3    0    1
 -2       400      2347      2735      2793
 -1      7739    3    0    1
 -2      1095       289      2088      2793
 -1      7740    3    0    1
 -2      2088       289      2735      2793
 -1      7741    3    0    1
 -2      2347       907      2690      2793
 -1      7742    3    0    1
 -2      1095      2347      2690      2793
 -1      7743    3    0    1
 -2      1095      2088      2347      2793
 -1      7744    3    0    1
 -2       907       471      2690      2793
 -1      7745    3    0    1
 -2       471       832      2690      2793
 -1      7746    3    0    1
 -2      2347      2088      2735      2793
 -1      7747    3    0    1
 -2       495      1178      2441      2834
 -1      7748    3    0    1
 -2       909       472      2806      2834
 -1      7749    3    0    1
 -2      1910      1200      2784      2795
 -1      7750    3    0    1
 -2      1200       538      2784      2795
 -1      7751    3    0    1
 -2       371      2063      2416      2796
 -1      7752    3    0    1
 -2       269      1324      2063      2796
 -1      7753    3    0    1
 -2       261       269      2683      2796
 -1      7754    3    0    1
 -2      2414       261      2683      2796
 -1      7755    3    0    1
 -2       269       261      1324      2796
 -1      7756    3    0    1
 -2      1324      1077      2063      2796
 -1      7757    3    0    1
 -2      2063      1077      2414      2796
 -1      7758    3    0    1
 -2      1077       261      2414      2796
 -1      7759    3    0    1
 -2       261      1077      1324      2796
 -1      7760    3    0    1
 -2      2016      2715      2755      2798
 -1      7761    3    0    1
 -2      2687      2016      2755      2798
 -1      7762    3    0    1
 -2      2715      2687      2755      2798
 -1      7763    3    0    1
 -2      1187       926      2526      2812
 -1      7764    3    0    1
 -2        34      2388      2763      2799
 -1      7765    3    0    1
 -2       391        39      1579      2812
 -1      7766    3    0    1
 -2        39       926      1187      2812
 -1      7767    3    0    1
 -2      2526       926      2715      2812
 -1      7768    3    0    1
 -2      2388        34      2522      2799
 -1      7769    3    0    1
 -2      2016      2388      2522      2799
 -1      7770    3    0    1
 -2        39       391       926      2812
 -1      7771    3    0    1
 -2       391      1579      2093      2812
 -1      7772    3    0    1
 -2      1559      1853      2456      2814
 -1      7773    3    0    1
 -2       119       974      1235      2801
 -1      7774    3    0    1
 -2      2257      2060      2294      2839
 -1      7775    3    0    1
 -2       119       122      2758      2801
 -1      7776    3    0    1
 -2       122       119      1235      2801
 -1      7777    3    0    1
 -2       119       120       974      2801
 -1      7778    3    0    1
 -2       212       193      2694      2802
 -1      7779    3    0    1
 -2       735      1042      2429      2802
 -1      7780    3    0    1
 -2       712       735      2429      2802
 -1      7781    3    0    1
 -2      1033       212      1042      2802
 -1      7782    3    0    1
 -2       712      1033      1042      2802
 -1      7783    3    0    1
 -2       193       212      1033      2802
 -1      7784    3    0    1
 -2       735       712      1042      2802
 -1      7785    3    0    1
 -2       942       380      2197      2803
 -1      7786    3    0    1
 -2        86      2544      2703      2803
 -1      7787    3    0    1
 -2      2544       380      2703      2803
 -1      7788    3    0    1
 -2       942      2519      2744      2803
 -1      7789    3    0    1
 -2       953        86      2744      2803
 -1      7790    3    0    1
 -2        86      2703      2744      2803
 -1      7791    3    0    1
 -2      2703       380      2744      2803
 -1      7792    3    0    1
 -2       380       942      2744      2803
 -1      7793    3    0    1
 -2      2685      2541      2797      2805
 -1      7794    3    0    1
 -2      2763      2777      2799      2835
 -1      7795    3    0    1
 -2      2441       909      2710      2806
 -1      7796    3    0    1
 -2      1788      2253      2814      2836
 -1      7797    3    0    1
 -2      2777       928      2799      2835
 -1      7798    3    0    1
 -2       519       928      2777      2835
 -1      7799    3    0    1
 -2      2799       928      2811      2835
 -1      7800    3    0    1
 -2       928       519      2713      2835
 -1      7801    3    0    1
 -2      2276      2428      2588      2807
 -1      7802    3    0    1
 -2       586      1941      2588      2807
 -1      7803    3    0    1
 -2      2094       586      2428      2807
 -1      7804    3    0    1
 -2      1226       586      2094      2807
 -1      7805    3    0    1
 -2       418      1177      2122      2808
 -1      7806    3    0    1
 -2       909      2710      2806      2810
 -1      7807    3    0    1
 -2      2606       377      2632      2809
 -1      7808    3    0    1
 -2      2122      2606      2632      2809
 -1      7809    3    0    1
 -2      2704      2606      2808      2809
 -1      7810    3    0    1
 -2      2449      2606      2704      2809
 -1      7811    3    0    1
 -2      2101      1163      2201      2810
 -1      7812    3    0    1
 -2      2201      1163      2560      2810
 -1      7813    3    0    1
 -2        16      1163      2101      2810
 -1      7814    3    0    1
 -2        14       909      1163      2810
 -1      7815    3    0    1
 -2      1163       909      2560      2810
 -1      7816    3    0    1
 -2        16        14      1163      2810
 -1      7817    3    0    1
 -2      2456      1559      2814      2836
 -1      7818    3    0    1
 -2      2016      2388      2799      2811
 -1      7819    3    0    1
 -2      2388      2016      2755      2811
 -1      7820    3    0    1
 -2       392      2798      2799      2811
 -1      7821    3    0    1
 -2       928       392      2799      2811
 -1      7822    3    0    1
 -2      2798      2016      2799      2811
 -1      7823    3    0    1
 -2      1577      2093      2373      2813
 -1      7824    3    0    1
 -2      2016      1577      2373      2813
 -1      7825    3    0    1
 -2      2016      2373      2715      2813
 -1      7826    3    0    1
 -2      2715      2093      2812      2813
 -1      7827    3    0    1
 -2      2373      2093      2715      2813
 -1      7828    3    0    1
 -2      1397      1117      2716      2814
 -1      7829    3    0    1
 -2      1117      1397      2265      2814
 -1      7830    3    0    1
 -2      1722      1778      2819      2837
 -1      7831    3    0    1
 -2       325      2730      2819      2837
 -1      7832    3    0    1
 -2      1117      2253      2716      2814
 -1      7833    3    0    1
 -2      1676      1722      2819      2837
 -1      7834    3    0    1
 -2       327       140      2733      2815
 -1      7835    3    0    1
 -2       140       327       992      2815
 -1      7836    3    0    1
 -2       992       327      2733      2815
 -1      7837    3    0    1
 -2      2162      1914      2725      2817
 -1      7838    3    0    1
 -2      1914      2053      2725      2817
 -1      7839    3    0    1
 -2      1625      1663      2053      2818
 -1      7840    3    0    1
 -2      1680      1663      1743      2818
 -1      7841    3    0    1
 -2      2725      2726      2817      2818
 -1      7842    3    0    1
 -2      2053      2725      2817      2818
 -1      7843    3    0    1
 -2      1625      2053      2817      2818
 -1      7844    3    0    1
 -2      1663      1625      1743      2818
 -1      7845    3    0    1
 -2      1680      1743      2726      2818
 -1      7846    3    0    1
 -2      2726      1625      2817      2818
 -1      7847    3    0    1
 -2      1743      1625      2726      2818
 -1      7848    3    0    1
 -2      2480      1130      2730      2819
 -1      7849    3    0    1
 -2       292       325      2730      2819
 -1      7850    3    0    1
 -2      1235      2099      2827      2838
 -1      7851    3    0    1
 -2       345      1235      2827      2838
 -1      7852    3    0    1
 -2       985       315      2105      2820
 -1      7853    3    0    1
 -2       315       985      1248      2820
 -1      7854    3    0    1
 -2      1248       985      2105      2820
 -1      7855    3    0    1
 -2       146       138      1248      2820
 -1      7856    3    0    1
 -2      2002      2537      2678      2821
 -1      7857    3    0    1
 -2      2349      2537      2748      2821
 -1      7858    3    0    1
 -2      2537      2349      2678      2821
 -1      7859    3    0    1
 -2      2537      2002      2749      2821
 -1      7860    3    0    1
 -2      2002      2173      2749      2821
 -1      7861    3    0    1
 -2      2173      2746      2748      2821
 -1      7862    3    0    1
 -2      2537      2173      2748      2821
 -1      7863    3    0    1
 -2      2173      2537      2749      2821
 -1      7864    3    0    1
 -2       507      1187      2746      2822
 -1      7865    3    0    1
 -2       507       923      2787      2822
 -1      7866    3    0    1
 -2      2333       507      2787      2822
 -1      7867    3    0    1
 -2      1187       507      2333      2822
 -1      7868    3    0    1
 -2       615       976       979      2823
 -1      7869    3    0    1
 -2       616       615       979      2823
 -1      7870    3    0    1
 -2       615       616      2754      2823
 -1      7871    3    0    1
 -2      2050       615      2584      2823
 -1      7872    3    0    1
 -2      2584       615      2754      2823
 -1      7873    3    0    1
 -2       979      2758       119       122
 -1      7874    3    0    1
 -2      2758       979       119      2823
 -1      7875    3    0    1
 -2       355      1030      1940      2824
 -1      7876    3    0    1
 -2       193      2694      2802      2824
 -1      7877    3    0    1
 -2       193      2598      2694      2824
 -1      7878    3    0    1
 -2      1848      1030      2400      2824
 -1      7879    3    0    1
 -2      1030      1848      1940      2824
 -1      7880    3    0    1
 -2       916       495       917      2825
 -1      7881    3    0    1
 -2        33        35      2209      2825
 -1      7882    3    0    1
 -2        35        33       916      2825
 -1      7883    3    0    1
 -2       916        33      2209      2825
 -1      7884    3    0    1
 -2       347       987      2772      2827
 -1      7885    3    0    1
 -2       606      2099      2619      2827
 -1      7886    3    0    1
 -2       606      1235      2099      2827
 -1      7887    3    0    1
 -2       631       606      2619      2827
 -1      7888    3    0    1
 -2       987       631      2619      2827
 -1      7889    3    0    1
 -2       987       345      1235      2827
 -1      7890    3    0    1
 -2       347       345       987      2827
 -1      7891    3    0    1
 -2       606       987      1235      2827
 -1      7892    3    0    1
 -2       606       631       987      2827
 -1      7893    3    0    1
 -2       965      2176      2543      2828
 -1      7894    3    0    1
 -2      2406       965      2543      2828
 -1      7895    3    0    1
 -2       979      2442      2823      2829
 -1      7896    3    0    1
 -2       345       979      2823      2829
 -1      7897    3    0    1
 -2      2442       347       979       989
 -1      7898    3    0    1
 -2      1269      1012      1935      3044
 -1      7899    3    0    1
 -2       345       347       979      2829
 -1      7900    3    0    1
 -2       347      2442       979      2829
 -1      7901    3    0    1
 -2      2043       630      2310      2830
 -1      7902    3    0    1
 -2      1246       987       630      2830
 -1      7903    3    0    1
 -2      2619       987      2827      2830
 -1      7904    3    0    1
 -2       987       631       630      2830
 -1      7905    3    0    1
 -2       630       631      1699      2830
 -1      7906    3    0    1
 -2       631       987      2619      2830
 -1      7907    3    0    1
 -2      1699       631      2619      2830
 -1      7908    3    0    1
 -2      1850      2332      2644      2832
 -1      7909    3    0    1
 -2      1809      1556      2577      2833
 -1      7910    3    0    1
 -2      1556      1768      2577      2833
 -1      7911    3    0    1
 -2      1654      2111      2794      2833
 -1      7912    3    0    1
 -2      2111      1654      2136      2833
 -1      7913    3    0    1
 -2      2136      1654      2579      2833
 -1      7914    3    0    1
 -2      1556      2579      2794      2833
 -1      7915    3    0    1
 -2      2579      1654      2794      2833
 -1      7916    3    0    1
 -2       916      2704      2809      2834
 -1      7917    3    0    1
 -2      1178       909      2441      2834
 -1      7918    3    0    1
 -2      2441       909      2806      2834
 -1      7919    3    0    1
 -2       472       495       908      2834
 -1      7920    3    0    1
 -2       495       472      1178      2834
 -1      7921    3    0    1
 -2       908       495       916      2834
 -1      7922    3    0    1
 -2       472       909      1178      2834
 -1      7923    3    0    1
 -2       908       916      2809      2834
 -1      7924    3    0    1
 -2      1559      1741      2169      2836
 -1      7925    3    0    1
 -2      1741      1788      2169      2836
 -1      7926    3    0    1
 -2      1559      2169      2814      2836
 -1      7927    3    0    1
 -2      2169      1788      2814      2836
 -1      7928    3    0    1
 -2      1676      1549      1722      2837
 -1      7929    3    0    1
 -2      1549      1676      2730      2837
 -1      7930    3    0    1
 -2      2730      1676      2819      2837
 -1      7931    3    0    1
 -2       292       325      2819      2837
 -1      7932    3    0    1
 -2       836      1342      1778      2837
 -1      7933    3    0    1
 -2      1722       836      1778      2837
 -1      7934    3    0    1
 -2      1342      1098      1778      2837
 -1      7935    3    0    1
 -2       292      1342       325      2837
 -1      7936    3    0    1
 -2      1778      1098      2819      2837
 -1      7937    3    0    1
 -2      1098       292      2819      2837
 -1      7938    3    0    1
 -2      1342       292      1098      2837
 -1      7939    3    0    1
 -2      2788       974      2801      2838
 -1      7940    3    0    1
 -2       122       345      2758      2838
 -1      7941    3    0    1
 -2      2758       345      2829      2838
 -1      7942    3    0    1
 -2       345       122      1235      2838
 -1      7943    3    0    1
 -2      1450      3042      2917      3057
 -1      7944    3    0    1
 -2      3027      3046      1459      3069
 -1      7945    3    0    1
 -2      3026      1442      3038      3065
 -1      7946    3    0    1
 -2       172       666      2907      2926
 -1      7947    3    0    1
 -2      1683      2175      2662      2862
 -1      7948    3    0    1
 -2      2258      2092      2430      2863
 -1      7949    3    0    1
 -2       949      2155      2900      3068
 -1      7950    3    0    1
 -2       717       727      2956      2964
 -1      7951    3    0    1
 -2      1012      1269      1425      3044
 -1      7952    3    0    1
 -2      2155       949      1415      1416
 -1      7953    3    0    1
 -2      3027      2917      3057      3069
 -1      7954    3    0    1
 -2      1039      2956       727      2964
 -1      7955    3    0    1
 -2      2003      1683      2662      2860
 -1      7956    3    0    1
 -2      2175      1683      2183      2860
 -1      7957    3    0    1
 -2       999      1269      2342      3026
 -1      7958    3    0    1
 -2       679       678      1269      2933
 -1      7959    3    0    1
 -2       727       717       716      2964
 -1      7960    3    0    1
 -2      1464        42      1502      3083
 -1      7961    3    0    1
 -2       949      1225      2155      1415
 -1      7962    3    0    1
 -2      2116       904      2119      1413
 -1      7963    3    0    1
 -2      2061      1236      2885      2915
 -1      7964    3    0    1
 -2      2204      2771      2850      2851
 -1      7965    3    0    1
 -2      2155      1416      3052      3068
 -1      7966    3    0    1
 -2      2873      1475      3082      3094
 -1      7967    3    0    1
 -2      2955      2950      2992      3016
 -1      7968    3    0    1
 -2       560      2934       949      2997
 -1      7969    3    0    1
 -2      1455      3034      3049      3058
 -1      7970    3    0    1
 -2      2257      2060      2839      2861
 -1      7971    3    0    1
 -2      1455      2877      3058      3076
 -1      7972    3    0    1
 -2      1323      1078      1538      2847
 -1      7973    3    0    1
 -2      1410       960      1415      3081
 -1      7974    3    0    1
 -2      1417      1065      1419      3077
 -1      7975    3    0    1
 -2      1451      2116      3051      1496
 -1      7976    3    0    1
 -2      2203      1323      2248      2847
 -1      7977    3    0    1
 -2      1323      1538      2248      2847
 -1      7978    3    0    1
 -2      2318      1683      2458      2848
 -1      7979    3    0    1
 -2      2868      2869      2889      2923
 -1      7980    3    0    1
 -2      1451      2908      3074      2988
 -1      7981    3    0    1
 -2      2204      1977      2318      2850
 -1      7982    3    0    1
 -2       341       340      2928      3066
 -1      7983    3    0    1
 -2      2878      3030      2906      1459
 -1      7984    3    0    1
 -2      3034      2910      1455      3049
 -1      7985    3    0    1
 -2      3052      2565      3053      3054
 -1      7986    3    0    1
 -2      1419      1453      1459      3077
 -1      7987    3    0    1
 -2      2839      2092      2840      2882
 -1      7988    3    0    1
 -2      1837       913      2893      2914
 -1      7989    3    0    1
 -2      2060      2839      2861      2883
 -1      7990    3    0    1
 -2      1444      3033      3038      2922
 -1      7991    3    0    1
 -2       196      1282      2962      2964
 -1      7992    3    0    1
 -2      1667      2175      2183      2864
 -1      7993    3    0    1
 -2      1739      1667      2183      2864
 -1      7994    3    0    1
 -2      2430      1739      2863      2864
 -1      7995    3    0    1
 -2      2863      2451      2875      3047
 -1      7996    3    0    1
 -2      2161      2003      2845      3033
 -1      7997    3    0    1
 -2      2771      2850      2851      2902
 -1      7998    3    0    1
 -2      1422      3029      3044      3076
 -1      7999    3    0    1
 -2      1161      2856      1439      1440
 -1      8000    3    0    1
 -2      1440      1491      3075      3089
 -1      8001    3    0    1
 -2      1427      2358      1428      3061
 -1      8002    3    0    1
 -2      1426      1442      1443      2949
 -1      8003    3    0    1
 -2      1290      3028      1411      1412
 -1      8004    3    0    1
 -2      2907      1006      2926      2933
 -1      8005    3    0    1
 -2      3029      1445      3058      3076
 -1      8006    3    0    1
 -2       352       197      1457      3055
 -1      8007    3    0    1
 -2      1433      1434      3043      1462
 -1      8008    3    0    1
 -2      1933      2878      2879      3030
 -1      8009    3    0    1
 -2      3039      1435      1466      3091
 -1      8010    3    0    1
 -2      1935      1012      2070      2891
 -1      8011    3    0    1
 -2      3041      2913      1465      2924
 -1      8012    3    0    1
 -2      1039      1423      3032      3088
 -1      8013    3    0    1
 -2      1421      2080      2891      3029
 -1      8014    3    0    1
 -2      3034      3028      3049      3058
 -1      8015    3    0    1
 -2      2867      2301      2877      3064
 -1      8016    3    0    1
 -2      2024      1027      3028      3058
 -1      8017    3    0    1
 -2      1334      3007      3008      3009
 -1      8018    3    0    1
 -2      1427      1478      1494      3018
 -1      8019    3    0    1
 -2      1414      2119      3037      3071
 -1      8020    3    0    1
 -2      1176      2119      1414      3071
 -1      8021    3    0    1
 -2       655       647       654      2927
 -1      8022    3    0    1
 -2      3032      2740      2917      3057
 -1      8023    3    0    1
 -2       913      1433      2893      2914
 -1      8024    3    0    1
 -2      3049       197      3055      3073
 -1      8025    3    0    1
 -2      2175      2183      2864      2871
 -1      8026    3    0    1
 -2      1065      1417      1419      3016
 -1      8027    3    0    1
 -2      2995      2972      3015      3017
 -1      8028    3    0    1
 -2      1450      2614      2919      3069
 -1      8029    3    0    1
 -2      2956      1039       727      1290
 -1      8030    3    0    1
 -2      2881      2848      3034      2910
 -1      8031    3    0    1
 -2       716       717      1035      2964
 -1      8032    3    0    1
 -2      1455      2179      3064      2959
 -1      8033    3    0    1
 -2      3063      2405      3095      3097
 -1      8034    3    0    1
 -2      2203      1417      1418      3031
 -1      8035    3    0    1
 -2       938      1212      1839      2925
 -1      8036    3    0    1
 -2      3030      3050      1459      3077
 -1      8037    3    0    1
 -2      1434      1429      1464      2967
 -1      8038    3    0    1
 -2      2250      1053      1419      1420
 -1      8039    3    0    1
 -2      1429      1189      1434      3072
 -1      8040    3    0    1
 -2       994       156      2930      2937
 -1      8041    3    0    1
 -2      3042       350      1450      2938
 -1      8042    3    0    1
 -2      1479       109      1509      1515
 -1      8043    3    0    1
 -2       737       217      2943      2951
 -1      8044    3    0    1
 -2      2848      3034      2910      1455
 -1      8045    3    0    1
 -2      1462       375      3056      1465
 -1      8046    3    0    1
 -2      1078      2035      2847      3060
 -1      8047    3    0    1
 -2      2910       197      3049      1458
 -1      8048    3    0    1
 -2      1078      2847      1438      3060
 -1      8049    3    0    1
 -2      2926      1444      2932      2960
 -1      8050    3    0    1
 -2      2614      1977      2771      2879
 -1      8051    3    0    1
 -2      2848      2179      2881      3034
 -1      8052    3    0    1
 -2      3026      2845      3038      3044
 -1      8053    3    0    1
 -2      3027      1419      1453      3046
 -1      8054    3    0    1
 -2      2358      1428      3061      3080
 -1      8055    3    0    1
 -2      1039      3032      2986      3088
 -1      8056    3    0    1
 -2       703       692       691      2945
 -1      8057    3    0    1
 -2      1486       368      1498      3084
 -1      8058    3    0    1
 -2       188       187      2945      2947
 -1      8059    3    0    1
 -2      2913      2872      3041      1465
 -1      8060    3    0    1
 -2       155      1443      3038      3065
 -1      8061    3    0    1
 -2      2856      1439      1440      3045
 -1      8062    3    0    1
 -2      2458      2851      2881      3034
 -1      8063    3    0    1
 -2       375      3056      1465      2924
 -1      8064    3    0    1
 -2      1258       999      1436      2958
 -1      8065    3    0    1
 -2      1479       344      1495      3080
 -1      8066    3    0    1
 -2      2342      2845      3026      3044
 -1      8067    3    0    1
 -2       924      1189      1429      3072
 -1      8068    3    0    1
 -2       999      1258      2937      2958
 -1      8069    3    0    1
 -2       425      1464      3056      2924
 -1      8070    3    0    1
 -2      1448       421      1449      3078
 -1      8071    3    0    1
 -2      1459      3077      2989      3016
 -1      8072    3    0    1
 -2      2913      3041      1464      2924
 -1      8073    3    0    1
 -2       173       354      1446      3076
 -1      8074    3    0    1
 -2      1457      3028      1456      3055
 -1      8075    3    0    1
 -2      2497       512      2781      2893
 -1      8076    3    0    1
 -2      2890      2858      3028      3034
 -1      8077    3    0    1
 -2      2849      2250      3027      2917
 -1      8078    3    0    1
 -2      2458      2179      2848      2867
 -1      8079    3    0    1
 -2      3035      2876      1450      2917
 -1      8080    3    0    1
 -2      3051      3037      3078      1496
 -1      8081    3    0    1
 -2      2868      2438      2869      2880
 -1      8082    3    0    1
 -2      1047       740      2942      2951
 -1      8083    3    0    1
 -2       173      1444      2970      3092
 -1      8084    3    0    1
 -2      2845      2301      2867      3064
 -1      8085    3    0    1
 -2      2183      2175      2860      2871
 -1      8086    3    0    1
 -2      2179      2867      3064      2959
 -1      8087    3    0    1
 -2       994       996      2927      2930
 -1      8088    3    0    1
 -2      1471        76      1476      1482
 -1      8089    3    0    1
 -2      1443       341      2928      3066
 -1      8090    3    0    1
 -2      2116      3037      3051      1496
 -1      8091    3    0    1
 -2      1497      3060      1498      3084
 -1      8092    3    0    1
 -2      1199      1430      1431      3094
 -1      8093    3    0    1
 -2       340      3059      1478      3066
 -1      8094    3    0    1
 -2      3081      1474      3001      3021
 -1      8095    3    0    1
 -2       787       798      2983      3004
 -1      8096    3    0    1
 -2       996       647       994      2927
 -1      8097    3    0    1
 -2        30        28      2939      2940
 -1      8098    3    0    1
 -2      2839      2861      2883      3048
 -1      8099    3    0    1
 -2      1290      1423      2973      2991
 -1      8100    3    0    1
 -2      3044       173      3076      3092
 -1      8101    3    0    1
 -2      1935      1012      2891      3044
 -1      8102    3    0    1
 -2       360      1475      3063      3097
 -1      8103    3    0    1
 -2      2092      2258      2859      2863
 -1      8104    3    0    1
 -2      2358      1247      2619      2976
 -1      8105    3    0    1
 -2      1447      3060      1497      3084
 -1      8106    3    0    1
 -2       938      1839      2282      2925
 -1      8107    3    0    1
 -2      2942       738      2943      2975
 -1      8108    3    0    1
 -2      2951      2943      2961      2975
 -1      8109    3    0    1
 -2      1199       938      2380      2969
 -1      8110    3    0    1
 -2       203      3042      2920      2938
 -1      8111    3    0    1
 -2       572       573       582      2936
 -1      8112    3    0    1
 -2      1423      1424      3032      1472
 -1      8113    3    0    1
 -2       428      1469      1486      1511
 -1      8114    3    0    1
 -2       346       344      2931      3070
 -1      8115    3    0    1
 -2      1464        42      3082      3003
 -1      8116    3    0    1
 -2      2969      2873      3094      3097
 -1      8117    3    0    1
 -2      1434      3043      1462      1463
 -1      8118    3    0    1
 -2      3037      2886      3051      3071
 -1      8119    3    0    1
 -2      1172        30      2940      2978
 -1      8120    3    0    1
 -2      2003      1683      2860      2866
 -1      8121    3    0    1
 -2      2662      2003      2860      2866
 -1      8122    3    0    1
 -2       913      1433      2914      2941
 -1      8123    3    0    1
 -2      1441      3026      1444      3044
 -1      8124    3    0    1
 -2      1476      2882      3068      3095
 -1      8125    3    0    1
 -2      2614      2771      1450      2919
 -1      8126    3    0    1
 -2      1409      2885      2915      3093
 -1      8127    3    0    1
 -2      3047      2884      1474      3067
 -1      8128    3    0    1
 -2      2458      2179      2851      3034
 -1      8129    3    0    1
 -2      2179      2458      2881      3034
 -1      8130    3    0    1
 -2      1445      1422      1446      3076
 -1      8131    3    0    1
 -2      1968      2342      2865      3026
 -1      8132    3    0    1
 -2      2179      2858      2890      3034
 -1      8133    3    0    1
 -2      2342      2845      2865      3026
 -1      8134    3    0    1
 -2      1425       999      1426      3026
 -1      8135    3    0    1
 -2      2851      2850      2881      3034
 -1      8136    3    0    1
 -2      1269       999      1425      3026
 -1      8137    3    0    1
 -2      2874      2642      3041      3043
 -1      8138    3    0    1
 -2      2965       522      2998      3019
 -1      8139    3    0    1
 -2      2848      2003      2867      2905
 -1      8140    3    0    1
 -2      1414      3037      1449      3071
 -1      8141    3    0    1
 -2      2886      2116      2894      3037
 -1      8142    3    0    1
 -2      3036      2870      3061      2948
 -1      8143    3    0    1
 -2      2328      1300      2740      3032
 -1      8144    3    0    1
 -2      1271       187      1020      2945
 -1      8145    3    0    1
 -2      2740      1300      1424      3032
 -1      8146    3    0    1
 -2       512      1189      2781      2893
 -1      8147    3    0    1
 -2      1278      2080      1421      3058
 -1      8148    3    0    1
 -2      2845      1444      3038      3044
 -1      8149    3    0    1
 -2      2080      2024      2858      3058
 -1      8150    3    0    1
 -2      2855      2782      2872      3051
 -1      8151    3    0    1
 -2      2586      2436      2853      2872
 -1      8152    3    0    1
 -2      1436      1466      3039      1435
 -1      8153    3    0    1
 -2      2782      2853      2872      3041
 -1      8154    3    0    1
 -2      2782      2436      2855      2872
 -1      8155    3    0    1
 -2      2436      2782      2853      2872
 -1      8156    3    0    1
 -2      2708      3060      3079      3084
 -1      8157    3    0    1
 -2      1475      1430      1503      3094
 -1      8158    3    0    1
 -2      1486      2708      3079      3084
 -1      8159    3    0    1
 -2      1269      2342      1425      3044
 -1      8160    3    0    1
 -2      3042      3035      2920      2938
 -1      8161    3    0    1
 -2      2258      2859      2863      2875
 -1      8162    3    0    1
 -2      1212      1431      1432      2925
 -1      8163    3    0    1
 -2      3040      2928      1478      3066
 -1      8164    3    0    1
 -2      1161       904      1413      2974
 -1      8165    3    0    1
 -2      1290      1039      1423      2991
 -1      8166    3    0    1
 -2      2771      2851      2876      2902
 -1      8167    3    0    1
 -2      2003      2161      2866      3033
 -1      8168    3    0    1
 -2      1464      1502      1518      2999
 -1      8169    3    0    1
 -2      3060      1438      1497      1498
 -1      8170    3    0    1
 -2      2175      2862      2871      3040
 -1      8171    3    0    1
 -2      2035      1334      2911      3060
 -1      8172    3    0    1
 -2      2935      2900      3068      3095
 -1      8173    3    0    1
 -2      3039      1443      3040      3059
 -1      8174    3    0    1
 -2      1968      2843      2912      3039
 -1      8175    3    0    1
 -2      1431      1432      2925      3002
 -1      8176    3    0    1
 -2      2662      2003      2866      3033
 -1      8177    3    0    1
 -2      3026      2845      3033      3038
 -1      8178    3    0    1
 -2      1443      1442      1477      2949
 -1      8179    3    0    1
 -2      1933      2846      2889      3030
 -1      8180    3    0    1
 -2      2852      2916      3063      1476
 -1      8181    3    0    1
 -2      2850      2844      3035      2920
 -1      8182    3    0    1
 -2      2858      2890      3028      3073
 -1      8183    3    0    1
 -2      2937      2930      2949      2958
 -1      8184    3    0    1
 -2      2889      2868      2923      3079
 -1      8185    3    0    1
 -2      2451      2901      3047      1479
 -1      8186    3    0    1
 -2      2869      2868      2880      2923
 -1      8187    3    0    1
 -2      1933      1977      2614      2879
 -1      8188    3    0    1
 -2      1977      1933      2387      2879
 -1      8189    3    0    1
 -2      2849      2613      2879      2921
 -1      8190    3    0    1
 -2      1933      2614      2849      2879
 -1      8191    3    0    1
 -2      2849      2250      2857      3027
 -1      8192    3    0    1
 -2      2613      2849      2857      3027
 -1      8193    3    0    1
 -2       679       668       667      2933
 -1      8194    3    0    1
 -2      1415      2155      1416      3052
 -1      8195    3    0    1
 -2      2850      2318      2851      2881
 -1      8196    3    0    1
 -2      2458      2318      2848      2881
 -1      8197    3    0    1
 -2      2179      2458      2848      2881
 -1      8198    3    0    1
 -2      2318      2458      2851      2881
 -1      8199    3    0    1
 -2      1463      1434      1464      2967
 -1      8200    3    0    1
 -2       451       462       463      2918
 -1      8201    3    0    1
 -2      2258      2092      2859      2882
 -1      8202    3    0    1
 -2      2092      2258      2840      2882
 -1      8203    3    0    1
 -2      2910       352      1455      3049
 -1      8204    3    0    1
 -2       946       550      1207      2934
 -1      8205    3    0    1
 -2      2852      2840      2859      2882
 -1      8206    3    0    1
 -2      2840      2258      2859      2882
 -1      8207    3    0    1
 -2      2060      2861      2873      2883
 -1      8208    3    0    1
 -2       474      2940      2978      2984
 -1      8209    3    0    1
 -2      2906      3030      3050      1459
 -1      8210    3    0    1
 -2      2998      2965      3019      3025
 -1      8211    3    0    1
 -2      1444      1425      2932      2960
 -1      8212    3    0    1
 -2      2840      2839      2882      3048
 -1      8213    3    0    1
 -2      2861      2873      2883      3048
 -1      8214    3    0    1
 -2      2840      2852      2861      3048
 -1      8215    3    0    1
 -2      2405      2882      2883      3048
 -1      8216    3    0    1
 -2       973      2358      2452      2885
 -1      8217    3    0    1
 -2      1236       973      2452      2885
 -1      8218    3    0    1
 -2      2907      2926      2932      2960
 -1      8219    3    0    1
 -2      2865      1968      3026      3065
 -1      8220    3    0    1
 -2      2864      2183      2901      2904
 -1      8221    3    0    1
 -2      2116      2119      2894      3037
 -1      8222    3    0    1
 -2       994       151       996      2930
 -1      8223    3    0    1
 -2      1422      1444      1446      3044
 -1      8224    3    0    1
 -2      2438      2868      2869      2887
 -1      8225    3    0    1
 -2      1091      1161      1883      1439
 -1      8226    3    0    1
 -2      1883      1161      2856      1439
 -1      8227    3    0    1
 -2      2843      2676      3039      3040
 -1      8228    3    0    1
 -2      1269      1012      1425      2960
 -1      8229    3    0    1
 -2       422      1449      1465      1508
 -1      8230    3    0    1
 -2      2887      2116      1451      3075
 -1      8231    3    0    1
 -2       187      1020      2945      2952
 -1      8232    3    0    1
 -2      2897      2855      2909      3051
 -1      8233    3    0    1
 -2      2888      2846      3030      3031
 -1      8234    3    0    1
 -2      2868      2656      2869      2887
 -1      8235    3    0    1
 -2      2656      2553      2869      2887
 -1      8236    3    0    1
 -2      2553      2436      2855      2887
 -1      8237    3    0    1
 -2      2436      2553      2656      2887
 -1      8238    3    0    1
 -2      2387      2656      2707      2889
 -1      8239    3    0    1
 -2      2707      2656      2869      2889
 -1      8240    3    0    1
 -2       354      1445      1455      1505
 -1      8241    3    0    1
 -2      1933      2387      2878      2889
 -1      8242    3    0    1
 -2      2387      1933      2868      2889
 -1      8243    3    0    1
 -2      1189      2642      2781      2893
 -1      8244    3    0    1
 -2       913       486      1837      2893
 -1      8245    3    0    1
 -2      1837       486      2425      2893
 -1      8246    3    0    1
 -2      2944      2966      2996      2999
 -1      8247    3    0    1
 -2      1933      2708      2868      2889
 -1      8248    3    0    1
 -2      2708      1933      2846      2889
 -1      8249    3    0    1
 -2        76      3054      1476      2957
 -1      8250    3    0    1
 -2       187      1271       188      2945
 -1      8251    3    0    1
 -2       341      1443      1467      3059
 -1      8252    3    0    1
 -2      1012      1269      2907      2960
 -1      8253    3    0    1
 -2      1012      1278      2070      2891
 -1      8254    3    0    1
 -2      1421      1012      1422      2891
 -1      8255    3    0    1
 -2      1278      1012      1421      2891
 -1      8256    3    0    1
 -2      2851      2876      2902      3035
 -1      8257    3    0    1
 -2      2877      2301      2891      3029
 -1      8258    3    0    1
 -2      1445      3029      1422      3076
 -1      8259    3    0    1
 -2      2080      2877      2891      3029
 -1      8260    3    0    1
 -2      2846      2708      2889      3030
 -1      8261    3    0    1
 -2      2849      1933      2879      3030
 -1      8262    3    0    1
 -2      2613      2849      2879      3030
 -1      8263    3    0    1
 -2      1458      1412      3073      3088
 -1      8264    3    0    1
 -2       702      1027      2945      2952
 -1      8265    3    0    1
 -2      1933      2613      2846      3030
 -1      8266    3    0    1
 -2      3060      2438      3084      3090
 -1      8267    3    0    1
 -2      2846      2613      2888      3030
 -1      8268    3    0    1
 -2      2092      2842      2895      3053
 -1      8269    3    0    1
 -2      2613      1933      2849      3030
 -1      8270    3    0    1
 -2      3032      1423      1472      3088
 -1      8271    3    0    1
 -2      3047      2915      3067      3085
 -1      8272    3    0    1
 -2       486       512      2425      2893
 -1      8273    3    0    1
 -2       486       913      1189      2893
 -1      8274    3    0    1
 -2      1189       913      1433      2893
 -1      8275    3    0    1
 -2       512       486      1189      2893
 -1      8276    3    0    1
 -2       349      1474      3085      1510
 -1      8277    3    0    1
 -2      2937       999       655      1258
 -1      8278    3    0    1
 -2      2092      2859      2882      3053
 -1      8279    3    0    1
 -2      2863      2895      3047      3053
 -1      8280    3    0    1
 -2       339      1444      3038      2922
 -1      8281    3    0    1
 -2      2565      2895      3052      3053
 -1      8282    3    0    1
 -2      2436      2855      2872      2897
 -1      8283    3    0    1
 -2      2553      2436      2872      2897
 -1      8284    3    0    1
 -2      2436      2553      2855      2897
 -1      8285    3    0    1
 -2       822      2954      1334       823
 -1      8286    3    0    1
 -2       354      1445      1446      3076
 -1      8287    3    0    1
 -2      2845      2161      1444      3064
 -1      8288    3    0    1
 -2       655      2927       999      2937
 -1      8289    3    0    1
 -2      3031      3050      1468      1469
 -1      8290    3    0    1
 -2      2885      1409      3080      3093
 -1      8291    3    0    1
 -2      1409      1479      3080      3093
 -1      8292    3    0    1
 -2       217      2942      2943      2951
 -1      8293    3    0    1
 -2       422       421      2982      3087
 -1      8294    3    0    1
 -2      1413      1414      3037      1448
 -1      8295    3    0    1
 -2       203      3042      1458      2920
 -1      8296    3    0    1
 -2       197      3049      1458      3073
 -1      8297    3    0    1
 -2      3032      3042      1472      1473
 -1      8298    3    0    1
 -2      1300      1423      1424      3032
 -1      8299    3    0    1
 -2      1424      3032      1472      1473
 -1      8300    3    0    1
 -2      1300      1039      1423      3032
 -1      8301    3    0    1
 -2      2901      2864      2904      3036
 -1      8302    3    0    1
 -2       702      1027      1278      2945
 -1      8303    3    0    1
 -2      1212      2900      3002      3095
 -1      8304    3    0    1
 -2      3049      3034      1458      3073
 -1      8305    3    0    1
 -2      3056      3041      1465      2924
 -1      8306    3    0    1
 -2      1474      1410      1510      3021
 -1      8307    3    0    1
 -2       375       425      3056      2924
 -1      8308    3    0    1
 -2      1455      2877      3076      3092
 -1      8309    3    0    1
 -2      2879      2849      2921      3069
 -1      8310    3    0    1
 -2      1839       558      2326      2900
 -1      8311    3    0    1
 -2       560       949       558      2900
 -1      8312    3    0    1
 -2       560       558      1839      2900
 -1      8313    3    0    1
 -2      1212       560      1839      2900
 -1      8314    3    0    1
 -2       558      2155      2326      2900
 -1      8315    3    0    1
 -2       558       949      2155      2900
 -1      8316    3    0    1
 -2      2895      2842      3052      3053
 -1      8317    3    0    1
 -2      3063      3048      1476      3095
 -1      8318    3    0    1
 -2       560       550       558      2934
 -1      8319    3    0    1
 -2      2863      2451      2864      2901
 -1      8320    3    0    1
 -2      2860      2662      2866      3033
 -1      8321    3    0    1
 -2      2850      2844      2851      3035
 -1      8322    3    0    1
 -2      2845      2161      3033      1444
 -1      8323    3    0    1
 -2      1440      1413      1451      3013
 -1      8324    3    0    1
 -2      2845      2662      2865      3033
 -1      8325    3    0    1
 -2        42        65      3083      3003
 -1      8326    3    0    1
 -2      2003      2662      2845      3033
 -1      8327    3    0    1
 -2      3030      2613      3031      3050
 -1      8328    3    0    1
 -2       197       352      3049      3055
 -1      8329    3    0    1
 -2      3074      1451      2988      3096
 -1      8330    3    0    1
 -2      2301      2845      3044      3064
 -1      8331    3    0    1
 -2       550       551       558      2934
 -1      8332    3    0    1
 -2      2854      2451      2863      3047
 -1      8333    3    0    1
 -2       273      1085      1326      2954
 -1      8334    3    0    1
 -2      2904      2901      3036      1479
 -1      8335    3    0    1
 -2      1413      1440      1451      3075
 -1      8336    3    0    1
 -2      2003      2161      2845      3064
 -1      8337    3    0    1
 -2      2871      3040      2928      1478
 -1      8338    3    0    1
 -2      2853      2586      2872      2913
 -1      8339    3    0    1
 -2      2860      2662      3033      1443
 -1      8340    3    0    1
 -2      2662      2860      2862      1443
 -1      8341    3    0    1
 -2      2871      2864      3040      1478
 -1      8342    3    0    1
 -2      1334      1437      2911      3060
 -1      8343    3    0    1
 -2      1421      1445      1455      3058
 -1      8344    3    0    1
 -2      3030      2906      3050      1486
 -1      8345    3    0    1
 -2      2904      3036      1478      2931
 -1      8346    3    0    1
 -2       134       128       982      3015
 -1      8347    3    0    1
 -2      1443      2871      3040      2928
 -1      8348    3    0    1
 -2      3070      3061      1494      1495
 -1      8349    3    0    1
 -2      1449       422      3071      3078
 -1      8350    3    0    1
 -2      2676      2864      3036      1478
 -1      8351    3    0    1
 -2      2887      2855      2897      1451
 -1      8352    3    0    1
 -2       986      1247      2972      3017
 -1      8353    3    0    1
 -2      1422      1425      1444      3044
 -1      8354    3    0    1
 -2       647       996       648      2927
 -1      8355    3    0    1
 -2      3041      3043      2782      2874
 -1      8356    3    0    1
 -2       479      1172      2939      2978
 -1      8357    3    0    1
 -2      1450       350      1473      1484
 -1      8358    3    0    1
 -2      1433      1434      2914      3043
 -1      8359    3    0    1
 -2      2851      2844      2876      3035
 -1      8360    3    0    1
 -2       429      2906      3050      1459
 -1      8361    3    0    1
 -2      2708      2868      2889      3079
 -1      8362    3    0    1
 -2      2844      2328      2876      3035
 -1      8363    3    0    1
 -2      1425      1441      1444      3044
 -1      8364    3    0    1
 -2      2676      2864      2870      3036
 -1      8365    3    0    1
 -2      3067       349      3085      1510
 -1      8366    3    0    1
 -2      2956      2962      2964      2991
 -1      8367    3    0    1
 -2      2864      2451      2870      3036
 -1      8368    3    0    1
 -2      1457       197      1458      3073
 -1      8369    3    0    1
 -2       376      1447      1490      1492
 -1      8370    3    0    1
 -2      2930      2927      2937      2949
 -1      8371    3    0    1
 -2      3040      1443      2928      3066
 -1      8372    3    0    1
 -2       641      2930      2937      2958
 -1      8373    3    0    1
 -2      3064      1455      2959      3092
 -1      8374    3    0    1
 -2      2565      2854      2863      3047
 -1      8375    3    0    1
 -2      1027      2945      2971      2990
 -1      8376    3    0    1
 -2      3029      2877      3064      3076
 -1      8377    3    0    1
 -2      2161      2003      2905      3064
 -1      8378    3    0    1
 -2       463       452      2918      2987
 -1      8379    3    0    1
 -2      2877      3029      3058      3076
 -1      8380    3    0    1
 -2      1450      1454      1489      2961
 -1      8381    3    0    1
 -2      1455      1421      3058      2990
 -1      8382    3    0    1
 -2      2845      1444      3044      3064
 -1      8383    3    0    1
 -2      2861      2873      3048      3097
 -1      8384    3    0    1
 -2      1427      3061      1494      3091
 -1      8385    3    0    1
 -2      3029      2301      3044      3064
 -1      8386    3    0    1
 -2      2003      2867      2905      3064
 -1      8387    3    0    1
 -2      2877      2301      3029      3064
 -1      8388    3    0    1
 -2      2035      1091      2157      2953
 -1      8389    3    0    1
 -2      1247       986      1699      2976
 -1      8390    3    0    1
 -2      2380      2898      3062      3094
 -1      8391    3    0    1
 -2       422      1465      3071      3087
 -1      8392    3    0    1
 -2      2771      2614      2879      2919
 -1      8393    3    0    1
 -2      2878      2879      3030      1459
 -1      8394    3    0    1
 -2      3033      2845      1444      3038
 -1      8395    3    0    1
 -2      1441       339      1444      3038
 -1      8396    3    0    1
 -2      3026      1441      1444      3038
 -1      8397    3    0    1
 -2      2974      1161      2987      3013
 -1      8398    3    0    1
 -2      2919      1450      3069      2979
 -1      8399    3    0    1
 -2      3033      3026      3065      2865
 -1      8400    3    0    1
 -2      1441      3026      1442      3038
 -1      8401    3    0    1
 -2      2897      1451      3051      1496
 -1      8402    3    0    1
 -2       155       339      1442      3038
 -1      8403    3    0    1
 -2       339      1441      1442      3038
 -1      8404    3    0    1
 -2      3061      1428      1494      1495
 -1      8405    3    0    1
 -2      1492       809      2981      3009
 -1      8406    3    0    1
 -2       811       822       823      2954
 -1      8407    3    0    1
 -2      1410      2915      3085      1509
 -1      8408    3    0    1
 -2       280       273      1326      2954
 -1      8409    3    0    1
 -2      1212       949      1432      3000
 -1      8410    3    0    1
 -2      1453      1459      1516      3016
 -1      8411    3    0    1
 -2      3032      3035      3042      2917
 -1      8412    3    0    1
 -2      1466       340      3059      1478
 -1      8413    3    0    1
 -2      2860      2862      1443      3040
 -1      8414    3    0    1
 -2      2862      2860      2871      3040
 -1      8415    3    0    1
 -2      1436      1968      3039      3065
 -1      8416    3    0    1
 -2      2175      2676      2843      3040
 -1      8417    3    0    1
 -2      2175      2843      2862      3040
 -1      8418    3    0    1
 -2      2676      2175      2864      3040
 -1      8419    3    0    1
 -2       999      1426      3026      3065
 -1      8420    3    0    1
 -2      1442      1426      1443      3065
 -1      8421    3    0    1
 -2      2871      2860      1443      3040
 -1      8422    3    0    1
 -2      1411      1412      3028      1456
 -1      8423    3    0    1
 -2      2853      2782      2874      3041
 -1      8424    3    0    1
 -2      2889      1486      3079      2993
 -1      8425    3    0    1
 -2      2858      3028      3034      3058
 -1      8426    3    0    1
 -2      2642      2853      2874      3041
 -1      8427    3    0    1
 -2       352      3049      3055      3058
 -1      8428    3    0    1
 -2      3037      1449      3071      3078
 -1      8429    3    0    1
 -2      1027      1278      1421      3058
 -1      8430    3    0    1
 -2       375       425      1463      3056
 -1      8431    3    0    1
 -2      1039      2956      2964      2991
 -1      8432    3    0    1
 -2       960      2061      3081      3085
 -1      8433    3    0    1
 -2       487       479      2939      2978
 -1      8434    3    0    1
 -2      2116      1413      3037      3075
 -1      8435    3    0    1
 -2       823       812       811      2954
 -1      8436    3    0    1
 -2      1445       354      1455      3076
 -1      8437    3    0    1
 -2      1428      1479      1495      3080
 -1      8438    3    0    1
 -2      2856      2887      2892      3045
 -1      8439    3    0    1
 -2      2708      2889      1486      3079
 -1      8440    3    0    1
 -2      1422      1012      1425      3044
 -1      8441    3    0    1
 -2       361       231      3069      2979
 -1      8442    3    0    1
 -2      2080      2858      2877      3058
 -1      8443    3    0    1
 -2      1012      1422      2891      3044
 -1      8444    3    0    1
 -2      2902      2850      3035      2920
 -1      8445    3    0    1
 -2      2893      1434      1433      1189
 -1      8446    3    0    1
 -2      1444       173      1446      3044
 -1      8447    3    0    1
 -2      1434      2893      1433      2914
 -1      8448    3    0    1
 -2      1269      1935      2342      3044
 -1      8449    3    0    1
 -2      1474      1410      3081      3085
 -1      8450    3    0    1
 -2      1053      2250      2740      3057
 -1      8451    3    0    1
 -2      2614      2879      2919      3069
 -1      8452    3    0    1
 -2       352      1455      1456      1461
 -1      8453    3    0    1
 -2       463       462      1161      2918
 -1      8454    3    0    1
 -2       462       904      1161      2918
 -1      8455    3    0    1
 -2       582      1225       584      2936
 -1      8456    3    0    1
 -2      2614      2771      2876      1450
 -1      8457    3    0    1
 -2      2876      2771      3035      1450
 -1      8458    3    0    1
 -2      2565      2895      2896      3052
 -1      8459    3    0    1
 -2      2895      2842      2896      3052
 -1      8460    3    0    1
 -2      1420      1424      1450      3057
 -1      8461    3    0    1
 -2      2883      2405      3048      3097
 -1      8462    3    0    1
 -2      2859      2863      2875      3053
 -1      8463    3    0    1
 -2      1935      2301      2342      3044
 -1      8464    3    0    1
 -2      2342      2301      2845      3044
 -1      8465    3    0    1
 -2      2301      1935      2891      3044
 -1      8466    3    0    1
 -2      1459      1468      1506      2989
 -1      8467    3    0    1
 -2      1479      3036      3070      3080
 -1      8468    3    0    1
 -2      1441      1425      1444      2960
 -1      8469    3    0    1
 -2      1458      2962      2973      2991
 -1      8470    3    0    1
 -2      1473      1450      1484      2975
 -1      8471    3    0    1
 -2      2897      2887      1451      3074
 -1      8472    3    0    1
 -2      2918      1153      2946      2987
 -1      8473    3    0    1
 -2       666      2907      2926      2932
 -1      8474    3    0    1
 -2      1424      2740      3032      3057
 -1      8475    3    0    1
 -2      2740      2328      3032      2917
 -1      8476    3    0    1
 -2      2250      1420      3027      3057
 -1      8477    3    0    1
 -2       231      1453      1454      3046
 -1      8478    3    0    1
 -2      1453      1420      1454      3046
 -1      8479    3    0    1
 -2       361       231      1454      3046
 -1      8480    3    0    1
 -2      1419      1420      1453      3046
 -1      8481    3    0    1
 -2      2250      1053      1420      3057
 -1      8482    3    0    1
 -2      1467      3039      1466      3059
 -1      8483    3    0    1
 -2       716       726       727      2964
 -1      8484    3    0    1
 -2       156       151       994      2930
 -1      8485    3    0    1
 -2       703       702      1278      2945
 -1      8486    3    0    1
 -2      1444      2926      1481      2960
 -1      8487    3    0    1
 -2       647       648       654      2927
 -1      8488    3    0    1
 -2       691       702       703      2945
 -1      8489    3    0    1
 -2      1450      1424      2961      2975
 -1      8490    3    0    1
 -2       642      2927      2930      2949
 -1      8491    3    0    1
 -2      2884      2875      2901      3047
 -1      8492    3    0    1
 -2      2565      2863      2895      3047
 -1      8493    3    0    1
 -2      1452       666      2926      2932
 -1      8494    3    0    1
 -2      2880      2438      2923      3079
 -1      8495    3    0    1
 -2      2842      3052      3053      3054
 -1      8496    3    0    1
 -2       572       582       584      2936
 -1      8497    3    0    1
 -2      3048      2852      3063      1476
 -1      8498    3    0    1
 -2      1212       938      1431      2925
 -1      8499    3    0    1
 -2      1418      1469      1486      3086
 -1      8500    3    0    1
 -2        30        28       911      2939
 -1      8501    3    0    1
 -2       428       429      2906      3050
 -1      8502    3    0    1
 -2      1421      3029      1445      3058
 -1      8503    3    0    1
 -2      2887      2855      1451      3051
 -1      8504    3    0    1
 -2      2116      2887      1451      3051
 -1      8505    3    0    1
 -2      1020       691      2945      2952
 -1      8506    3    0    1
 -2      1423      1458      3088      2991
 -1      8507    3    0    1
 -2      1466       340      1467      3059
 -1      8508    3    0    1
 -2      2080      2877      3029      3058
 -1      8509    3    0    1
 -2      1421      2080      3029      3058
 -1      8510    3    0    1
 -2      2179      2858      3034      3058
 -1      8511    3    0    1
 -2      1323      2203      1418      3086
 -1      8512    3    0    1
 -2      2782      2855      2886      3051
 -1      8513    3    0    1
 -2      1474      1410      3085      1510
 -1      8514    3    0    1
 -2      2855      2116      2886      3051
 -1      8515    3    0    1
 -2      2116      2855      2887      3051
 -1      8516    3    0    1
 -2      1418      3031      1468      1469
 -1      8517    3    0    1
 -2      2438      3045      3074      3090
 -1      8518    3    0    1
 -2       449      2918      2946      2974
 -1      8519    3    0    1
 -2      2942      1053      2975      2951
 -1      8520    3    0    1
 -2      1413      1448      1496      2974
 -1      8521    3    0    1
 -2      1441      1444      1481      2960
 -1      8522    3    0    1
 -2      2877      2179      1455      3058
 -1      8523    3    0    1
 -2      1027      1411      3028      3058
 -1      8524    3    0    1
 -2      3034      2910      3049      1458
 -1      8525    3    0    1
 -2      3034      2850      2910      1458
 -1      8526    3    0    1
 -2       665      2926      2933      2960
 -1      8527    3    0    1
 -2        76       359      3054      2957
 -1      8528    3    0    1
 -2      1012      2907      2932      2960
 -1      8529    3    0    1
 -2      3028      1456      3055      3058
 -1      8530    3    0    1
 -2      3028      1411      1456      3058
 -1      8531    3    0    1
 -2       691      1271      1020      2945
 -1      8532    3    0    1
 -2      1271       691       692      2945
 -1      8533    3    0    1
 -2      1091      1883      2157      2953
 -1      8534    3    0    1
 -2      1479      3036      2931      3070
 -1      8535    3    0    1
 -2      2923      2889      3079      2993
 -1      8536    3    0    1
 -2      2842      2092      2882      3053
 -1      8537    3    0    1
 -2      2863      2092      2895      3053
 -1      8538    3    0    1
 -2      2161      2866      3033      2922
 -1      8539    3    0    1
 -2      1476      3068      2985      3000
 -1      8540    3    0    1
 -2       737      2943      1489      2961
 -1      8541    3    0    1
 -2       451      1153       898      2918
 -1      8542    3    0    1
 -2      2868      2880      2923      3079
 -1      8543    3    0    1
 -2         1         2       898      2918
 -1      8544    3    0    1
 -2         1       898      1153      2918
 -1      8545    3    0    1
 -2      2911      2438      3060      3090
 -1      8546    3    0    1
 -2      1153       451       452      2918
 -1      8547    3    0    1
 -2      2869      2887      2908      3074
 -1      8548    3    0    1
 -2      2887      2897      2908      3074
 -1      8549    3    0    1
 -2      2438      1447      3084      3090
 -1      8550    3    0    1
 -2      2892      2438      3045      3074
 -1      8551    3    0    1
 -2      1437      1334      2953      3090
 -1      8552    3    0    1
 -2      2895      3047      3053      1474
 -1      8553    3    0    1
 -2      2895      2565      3047      1474
 -1      8554    3    0    1
 -2      1027      2024      2080      3058
 -1      8555    3    0    1
 -2      3042      3035      1458      2920
 -1      8556    3    0    1
 -2      1455       352      1456      3058
 -1      8557    3    0    1
 -2      3049      3028      3055      3058
 -1      8558    3    0    1
 -2       352      1455      3049      3058
 -1      8559    3    0    1
 -2      1456       352      3055      3058
 -1      8560    3    0    1
 -2      1278      1027      2080      3058
 -1      8561    3    0    1
 -2      2061      2963      3081      3085
 -1      8562    3    0    1
 -2      1457      3028      3055      3073
 -1      8563    3    0    1
 -2       924      1429      3062      3072
 -1      8564    3    0    1
 -2      3043      3041      2782      3056
 -1      8565    3    0    1
 -2      1412      2024      3073      3088
 -1      8566    3    0    1
 -2       960      1225       582      2936
 -1      8567    3    0    1
 -2      2586      2913      3041      1464
 -1      8568    3    0    1
 -2      2853      2586      3041      1464
 -1      8569    3    0    1
 -2      2968      2985      2997      3000
 -1      8570    3    0    1
 -2      1434      1463      1464      3072
 -1      8571    3    0    1
 -2      1464      2841      3062      3072
 -1      8572    3    0    1
 -2       361      1450      1454      1489
 -1      8573    3    0    1
 -2        65      3082      3083      3003
 -1      8574    3    0    1
 -2       498      1488      2966      2967
 -1      8575    3    0    1
 -2      1488      1464      2966      2967
 -1      8576    3    0    1
 -2      3027      1420      3046      3057
 -1      8577    3    0    1
 -2      1420      1450      1454      3057
 -1      8578    3    0    1
 -2      1420      1454      3046      3057
 -1      8579    3    0    1
 -2      1450       361      1454      3057
 -1      8580    3    0    1
 -2      1454       361      3046      3057
 -1      8581    3    0    1
 -2      2740      2250      2917      3057
 -1      8582    3    0    1
 -2      2782      2872      3051      1465
 -1      8583    3    0    1
 -2       750      1053      1300      2942
 -1      8584    3    0    1
 -2       751       750      1300      2942
 -1      8585    3    0    1
 -2       631      1247      1699      2976
 -1      8586    3    0    1
 -2       740      1294      1047      2942
 -1      8587    3    0    1
 -2       740       750       751      2942
 -1      8588    3    0    1
 -2      2894      2886      3037      3071
 -1      8589    3    0    1
 -2      1294       740       741      2942
 -1      8590    3    0    1
 -2      2386      1630      1824      1846
 -1      8591    3    0    1
 -2      3051      2782      1465      3071
 -1      8592    3    0    1
 -2      2886      2782      3051      3071
 -1      8593    3    0    1
 -2       691       702      2945      2952
 -1      8594    3    0    1
 -2       913      1433      2941      3071
 -1      8595    3    0    1
 -2      1462      1433      1465      3071
 -1      8596    3    0    1
 -2      1247       631      2619      2976
 -1      8597    3    0    1
 -2      1416      1471      1476      2985
 -1      8598    3    0    1
 -2      2939      1172      2940      2978
 -1      8599    3    0    1
 -2      1449       422      1465      3071
 -1      8600    3    0    1
 -2      3043      1462      1465      3071
 -1      8601    3    0    1
 -2       913      1176      1433      3071
 -1      8602    3    0    1
 -2      2927       655       999       654
 -1      8603    3    0    1
 -2      2909      3051      1465      3087
 -1      8604    3    0    1
 -2      1409       973      1428      3022
 -1      8605    3    0    1
 -2       428       429      3050      1469
 -1      8606    3    0    1
 -2      3050       429      1468      1469
 -1      8607    3    0    1
 -2      2909      2897      3051      2982
 -1      8608    3    0    1
 -2      2847      1438      3060      3086
 -1      8609    3    0    1
 -2      3078      3051      1496      3087
 -1      8610    3    0    1
 -2        65      1475      3082      3003
 -1      8611    3    0    1
 -2      2708      2847      2911      3060
 -1      8612    3    0    1
 -2      1448       421      3078      1496
 -1      8613    3    0    1
 -2      2847      2035      2911      3060
 -1      8614    3    0    1
 -2      1437      1078      1438      3060
 -1      8615    3    0    1
 -2      1334      1078      1437      3060
 -1      8616    3    0    1
 -2       924      2380      2781      3062
 -1      8617    3    0    1
 -2      2849      2613      2921      3069
 -1      8618    3    0    1
 -2      3033      2866      1443      2922
 -1      8619    3    0    1
 -2       359        76      3054      1471
 -1      8620    3    0    1
 -2       359      3054      1470      1471
 -1      8621    3    0    1
 -2      1006       172      2907      2926
 -1      8622    3    0    1
 -2      2003      2845      2867      3064
 -1      8623    3    0    1
 -2      3042       203      1472      1473
 -1      8624    3    0    1
 -2      1450      3032      3057      1473
 -1      8625    3    0    1
 -2      1424      1450      3057      1473
 -1      8626    3    0    1
 -2      3032      1424      3057      1473
 -1      8627    3    0    1
 -2      1427      1247      1435      3017
 -1      8628    3    0    1
 -2      2879      2613      3030      2921
 -1      8629    3    0    1
 -2      3030      2613      1459      2921
 -1      8630    3    0    1
 -2      2879      3030      1459      2921
 -1      8631    3    0    1
 -2       214       217      2942      2943
 -1      8632    3    0    1
 -2      2859      3053      1474      2957
 -1      8633    3    0    1
 -2      3036      1478      2931      3070
 -1      8634    3    0    1
 -2       344      1479      2931      3070
 -1      8635    3    0    1
 -2       376      1447      2988      3096
 -1      8636    3    0    1
 -2       367      1447      1497      3084
 -1      8637    3    0    1
 -2      1282      2956      2962      2964
 -1      8638    3    0    1
 -2      2875      2859      3053      1474
 -1      8639    3    0    1
 -2      2884      2875      3047      1474
 -1      8640    3    0    1
 -2      3047      2875      3053      1474
 -1      8641    3    0    1
 -2      3060      1486      1498      3084
 -1      8642    3    0    1
 -2      2380      1199      2969      3094
 -1      8643    3    0    1
 -2      2983      1078      3012      3004
 -1      8644    3    0    1
 -2      2613      2849      3027      3069
 -1      8645    3    0    1
 -2      2613      1459      2921      3069
 -1      8646    3    0    1
 -2      1447       367      1497      2981
 -1      8647    3    0    1
 -2       280       273      2954      2981
 -1      8648    3    0    1
 -2       359      1470      1474      1483
 -1      8649    3    0    1
 -2      1415      1470      1474      3081
 -1      8650    3    0    1
 -2      2861      3048      1475      3097
 -1      8651    3    0    1
 -2      2841      2380      2898      3062
 -1      8652    3    0    1
 -2      2781      2380      2841      3062
 -1      8653    3    0    1
 -2      2925      1431      3002      3097
 -1      8654    3    0    1
 -2      3082        42      3083      3003
 -1      8655    3    0    1
 -2      2882      3048      2935      3095
 -1      8656    3    0    1
 -2      1430      3062      1502      3083
 -1      8657    3    0    1
 -2      1429      3062      3072      1502
 -1      8658    3    0    1
 -2      2916       362      3063      1476
 -1      8659    3    0    1
 -2      2852      2861      3048      1475
 -1      8660    3    0    1
 -2      3063       360      1499      1500
 -1      8661    3    0    1
 -2       924      1189      2944      2999
 -1      8662    3    0    1
 -2      1476      1432      1500      3095
 -1      8663    3    0    1
 -2       362       360      2916      3063
 -1      8664    3    0    1
 -2      2916       360      1475      3063
 -1      8665    3    0    1
 -2      2179      2867      2877      3064
 -1      8666    3    0    1
 -2      2852      2916      1475      3063
 -1      8667    3    0    1
 -2      2024      2844      3073      2986
 -1      8668    3    0    1
 -2      2859      2852      2882      1476
 -1      8669    3    0    1
 -2      2859      2882      3053      1476
 -1      8670    3    0    1
 -2      2882      2852      3048      1476
 -1      8671    3    0    1
 -2      2882      2842      3053      1476
 -1      8672    3    0    1
 -2      2275      1039      2328      2986
 -1      8673    3    0    1
 -2      1216       103      1217      2936
 -1      8674    3    0    1
 -2      1418      3031      1469      3086
 -1      8675    3    0    1
 -2      2882      2842      1476      3068
 -1      8676    3    0    1
 -2      3052      1416      1471      3068
 -1      8677    3    0    1
 -2      2842      3052      3054      3068
 -1      8678    3    0    1
 -2      1486      1418      3086      3012
 -1      8679    3    0    1
 -2      2380       938      2925      2969
 -1      8680    3    0    1
 -2      3054      3052      1471      3068
 -1      8681    3    0    1
 -2      1012      1422      1425      2932
 -1      8682    3    0    1
 -2      3035      2902      2920      2938
 -1      8683    3    0    1
 -2      1217      2936      2980      3010
 -1      8684    3    0    1
 -2      1837       913      2914      2941
 -1      8685    3    0    1
 -2      3064      3044      3076      3092
 -1      8686    3    0    1
 -2      3035      3042      1450      2938
 -1      8687    3    0    1
 -2      1443      3033      3038      3065
 -1      8688    3    0    1
 -2      1968      2843      3039      3065
 -1      8689    3    0    1
 -2      1258      1968      1436      3065
 -1      8690    3    0    1
 -2       999      1258      1436      3065
 -1      8691    3    0    1
 -2      1258       999      1968      3065
 -1      8692    3    0    1
 -2      1436      3039      1467      3065
 -1      8693    3    0    1
 -2      1443      1436      1467      3065
 -1      8694    3    0    1
 -2      2662      3033      1443      3065
 -1      8695    3    0    1
 -2      2662      2865      3033      3065
 -1      8696    3    0    1
 -2      3039      2843      3040      3065
 -1      8697    3    0    1
 -2      1443      3039      3040      3065
 -1      8698    3    0    1
 -2      1467      3039      3059      3065
 -1      8699    3    0    1
 -2      1443      1467      3059      3065
 -1      8700    3    0    1
 -2      3039      1443      3059      3065
 -1      8701    3    0    1
 -2      2862      1443      3040      3065
 -1      8702    3    0    1
 -2      2862      2662      1443      3065
 -1      8703    3    0    1
 -2      2843      2862      3040      3065
 -1      8704    3    0    1
 -2      2843      1968      2865      3065
 -1      8705    3    0    1
 -2      2662      2843      2865      3065
 -1      8706    3    0    1
 -2      2843      2662      2862      3065
 -1      8707    3    0    1
 -2      1466       340      1478      1507
 -1      8708    3    0    1
 -2      2877      1455      3064      3092
 -1      8709    3    0    1
 -2      2864      2904      3036      1478
 -1      8710    3    0    1
 -2      2864      2183      2904      1478
 -1      8711    3    0    1
 -2      2183      2864      2871      1478
 -1      8712    3    0    1
 -2       421      3078      1496      3087
 -1      8713    3    0    1
 -2      1457      1458      1493      2973
 -1      8714    3    0    1
 -2      1457      1412      1458      2973
 -1      8715    3    0    1
 -2      1478      3091      3017      3018
 -1      8716    3    0    1
 -2      2901      2451      3036      1479
 -1      8717    3    0    1
 -2       197      1457      1458      1493
 -1      8718    3    0    1
 -2      1479      1409      3080      3024
 -1      8719    3    0    1
 -2      3067      3085      1509      1510
 -1      8720    3    0    1
 -2       775       767       766      2992
 -1      8721    3    0    1
 -2       368       367      3084      3006
 -1      8722    3    0    1
 -2       726      1039       727      2964
 -1      8723    3    0    1
 -2       713       199      2962      2964
 -1      8724    3    0    1
 -2       109       349      3067      1510
 -1      8725    3    0    1
 -2       109       349      2929      3067
 -1      8726    3    0    1
 -2       349      1474      2929      3067
 -1      8727    3    0    1
 -2       109      2929      1479      3067
 -1      8728    3    0    1
 -2      1474      2884      2929      3067
 -1      8729    3    0    1
 -2      2929      2884      1479      3067
 -1      8730    3    0    1
 -2      1444      1452      2926      2932
 -1      8731    3    0    1
 -2       679       667       678      2933
 -1      8732    3    0    1
 -2      1269      2907       678      1012
 -1      8733    3    0    1
 -2      2907      1269       678      2933
 -1      8734    3    0    1
 -2      1006       172      2926      2933
 -1      8735    3    0    1
 -2       667       668      1261      2933
 -1      8736    3    0    1
 -2       162       665      2926      2933
 -1      8737    3    0    1
 -2       162      1006      1261      2933
 -1      8738    3    0    1
 -2       667      1006      2907      2933
 -1      8739    3    0    1
 -2      1006       667      1261      2933
 -1      8740    3    0    1
 -2       162       172      1006      2933
 -1      8741    3    0    1
 -2       172       162      2926      2933
 -1      8742    3    0    1
 -2       678       667      2907      2933
 -1      8743    3    0    1
 -2      1212      1432      3068      3095
 -1      8744    3    0    1
 -2       949      1212      2997      3000
 -1      8745    3    0    1
 -2      2614      2849      2879      3069
 -1      8746    3    0    1
 -2      1199      2380      1430      3094
 -1      8747    3    0    1
 -2      1432      1212      3002      3095
 -1      8748    3    0    1
 -2       960      1415      3001      3021
 -1      8749    3    0    1
 -2      1212       949      2900      3068
 -1      8750    3    0    1
 -2       949      1212      1432      3068
 -1      8751    3    0    1
 -2      1447      3079      3084      3006
 -1      8752    3    0    1
 -2      3053      3054      1476      3068
 -1      8753    3    0    1
 -2      2842      3053      1476      3068
 -1      8754    3    0    1
 -2      3053      2842      3054      3068
 -1      8755    3    0    1
 -2        76      1471      1476      3068
 -1      8756    3    0    1
 -2      3054        76      1476      3068
 -1      8757    3    0    1
 -2        76      3054      1471      3068
 -1      8758    3    0    1
 -2      2896      2155      3052      3068
 -1      8759    3    0    1
 -2      2842      2896      3052      3068
 -1      8760    3    0    1
 -2      2900      2842      2935      3068
 -1      8761    3    0    1
 -2      2842      2882      2935      3068
 -1      8762    3    0    1
 -2      2155      2842      2900      3068
 -1      8763    3    0    1
 -2      2842      2155      2896      3068
 -1      8764    3    0    1
 -2       573       572      1216      2936
 -1      8765    3    0    1
 -2      1438      1486      3086      3011
 -1      8766    3    0    1
 -2      3027      2849      2917      3069
 -1      8767    3    0    1
 -2        91      1217      2980      3010
 -1      8768    3    0    1
 -2       103        91      1217      2936
 -1      8769    3    0    1
 -2       811       822      2954      3008
 -1      8770    3    0    1
 -2      2565      1474      3081      3085
 -1      8771    3    0    1
 -2      1474      3047      3067      3085
 -1      8772    3    0    1
 -2      1459       231      2921      3069
 -1      8773    3    0    1
 -2      1478       346      2931      3070
 -1      8774    3    0    1
 -2      2889      2878      3030      1486
 -1      8775    3    0    1
 -2      3030      2878      2906      1486
 -1      8776    3    0    1
 -2      1479       109      3067      3093
 -1      8777    3    0    1
 -2      3085      3067      1509      3093
 -1      8778    3    0    1
 -2        91      1217      2936      2980
 -1      8779    3    0    1
 -2      1491      1451      1513      3013
 -1      8780    3    0    1
 -2      2861      2060      2873      3082
 -1      8781    3    0    1
 -2      2909      1465      2982      3087
 -1      8782    3    0    1
 -2      1465       422      2982      3087
 -1      8783    3    0    1
 -2      3067       109      1509      3093
 -1      8784    3    0    1
 -2      1449      1414      1465      2984
 -1      8785    3    0    1
 -2      2060      2861      2899      3082
 -1      8786    3    0    1
 -2       422      3071      3078      3087
 -1      8787    3    0    1
 -2      1449      1465      1508      2984
 -1      8788    3    0    1
 -2      1414      1176      1433      2984
 -1      8789    3    0    1
 -2      1465      1433      2977      2984
 -1      8790    3    0    1
 -2      1078      1418      1438      3086
 -1      8791    3    0    1
 -2      2847      1078      1438      3086
 -1      8792    3    0    1
 -2      2896      2565      3052      3081
 -1      8793    3    0    1
 -2      2861      2873      1475      3082
 -1      8794    3    0    1
 -2      2981       809      3008      3009
 -1      8795    3    0    1
 -2        30       911      1172      2939
 -1      8796    3    0    1
 -2       480       479      1172      2939
 -1      8797    3    0    1
 -2      2874      2914      3043      2941
 -1      8798    3    0    1
 -2      2940      1465      2977      2984
 -1      8799    3    0    1
 -2      1176       487      2939      2978
 -1      8800    3    0    1
 -2       473      2939      2940      2977
 -1      8801    3    0    1
 -2      1176      1837      2119      2941
 -1      8802    3    0    1
 -2      1409      1479      1509      3024
 -1      8803    3    0    1
 -2       751       741       740      2942
 -1      8804    3    0    1
 -2      1290      3028      1412      2024
 -1      8805    3    0    1
 -2       214      1047      1294      2942
 -1      8806    3    0    1
 -2      2119      1176      2941      3071
 -1      8807    3    0    1
 -2      1176       913      1837      3071
 -1      8808    3    0    1
 -2      1837       913      2941      3071
 -1      8809    3    0    1
 -2      1176      1837      2941      3071
 -1      8810    3    0    1
 -2       655       999      2298      1258
 -1      8811    3    0    1
 -2      2782      3043      3056      3071
 -1      8812    3    0    1
 -2      3056      3043      1465      3071
 -1      8813    3    0    1
 -2      2782      3056      1465      3071
 -1      8814    3    0    1
 -2      2886      2894      2941      3071
 -1      8815    3    0    1
 -2      2782      2886      2941      3071
 -1      8816    3    0    1
 -2      2874      2782      2941      3071
 -1      8817    3    0    1
 -2      2894      2119      2941      3071
 -1      8818    3    0    1
 -2       214       217      1047      2942
 -1      8819    3    0    1
 -2       421       422      1449      3078
 -1      8820    3    0    1
 -2      3036      3061      3070      3080
 -1      8821    3    0    1
 -2      2944       498      2966      2967
 -1      8822    3    0    1
 -2      1463      1464      1488      2967
 -1      8823    3    0    1
 -2       536       534       938      3020
 -1      8824    3    0    1
 -2       368      1486      1498      3011
 -1      8825    3    0    1
 -2      1432      1476      1500      3000
 -1      8826    3    0    1
 -2      2997       949       560      1212
 -1      8827    3    0    1
 -2      1474      1415      3081      3001
 -1      8828    3    0    1
 -2      1189       924      2781      3072
 -1      8829    3    0    1
 -2       425      1463      3056      3072
 -1      8830    3    0    1
 -2      1463       425      1464      3072
 -1      8831    3    0    1
 -2      1464       425      3056      3072
 -1      8832    3    0    1
 -2      2642      2853      3041      3072
 -1      8833    3    0    1
 -2      3041      2853      1464      3072
 -1      8834    3    0    1
 -2      2642      2781      2841      3072
 -1      8835    3    0    1
 -2      2642      2841      2853      3072
 -1      8836    3    0    1
 -2      2024      1290      2986      3088
 -1      8837    3    0    1
 -2      1290      1412      1423      3088
 -1      8838    3    0    1
 -2      1439      1437      1447      3090
 -1      8839    3    0    1
 -2       973      2994      3022      3024
 -1      8840    3    0    1
 -2      1451       374      1491      1513
 -1      8841    3    0    1
 -2      1451      3074      3075      3096
 -1      8842    3    0    1
 -2      3028      2890      3034      3073
 -1      8843    3    0    1
 -2      2890      2844      3034      3073
 -1      8844    3    0    1
 -2      1458      3034      2920      3073
 -1      8845    3    0    1
 -2      3035      1458      2920      3073
 -1      8846    3    0    1
 -2      2844      3035      2920      3073
 -1      8847    3    0    1
 -2      2850      2844      2920      3073
 -1      8848    3    0    1
 -2      2844      2850      3034      3073
 -1      8849    3    0    1
 -2      3034      2850      2920      3073
 -1      8850    3    0    1
 -2      2024      2844      2858      3073
 -1      8851    3    0    1
 -2      2858      2844      2890      3073
 -1      8852    3    0    1
 -2      2844      3073      2986      3088
 -1      8853    3    0    1
 -2      2451      3036      1479      2948
 -1      8854    3    0    1
 -2      2907      1269      2933      2960
 -1      8855    3    0    1
 -2      2451      2870      3036      2948
 -1      8856    3    0    1
 -2      2870      2903      3061      2948
 -1      8857    3    0    1
 -2      2869      1447      2923      3074
 -1      8858    3    0    1
 -2      1153         1      2946      2987
 -1      8859    3    0    1
 -2      1439      1440      3045      3089
 -1      8860    3    0    1
 -2      3037      1413      1448      3075
 -1      8861    3    0    1
 -2      2903      3061      2948      3080
 -1      8862    3    0    1
 -2      1161      2856      1440      3075
 -1      8863    3    0    1
 -2       904      1161      1413      3075
 -1      8864    3    0    1
 -2      2116       904      1413      3075
 -1      8865    3    0    1
 -2       374      1451      1491      3075
 -1      8866    3    0    1
 -2      3045      2887      3074      3075
 -1      8867    3    0    1
 -2      2887      1451      3074      3075
 -1      8868    3    0    1
 -2      2856      2887      3045      3075
 -1      8869    3    0    1
 -2       904      2116      2119      3075
 -1      8870    3    0    1
 -2       452      1153      2918      2987
 -1      8871    3    0    1
 -2      1409       973      3022      3024
 -1      8872    3    0    1
 -2      1161       904      2040      3075
 -1      8873    3    0    1
 -2      2040       904      2119      3075
 -1      8874    3    0    1
 -2      1161      1883      2856      3075
 -1      8875    3    0    1
 -2      1883      1161      2040      3075
 -1      8876    3    0    1
 -2      2856      2116      2887      3075
 -1      8877    3    0    1
 -2      2119      2116      2856      3075
 -1      8878    3    0    1
 -2      2040      2119      2856      3075
 -1      8879    3    0    1
 -2      1883      2040      2856      3075
 -1      8880    3    0    1
 -2      2947      1455      2971      2990
 -1      8881    3    0    1
 -2      2908      2869      3074      2988
 -1      8882    3    0    1
 -2       689       188      2945      2947
 -1      8883    3    0    1
 -2      1500      1476      1517      3000
 -1      8884    3    0    1
 -2      1426      1443      3065      2949
 -1      8885    3    0    1
 -2      1477       642      2930      2949
 -1      8886    3    0    1
 -2      1443      1477      2930      2949
 -1      8887    3    0    1
 -2      2946      1451      2974      3013
 -1      8888    3    0    1
 -2      1435      1478      3091      3017
 -1      8889    3    0    1
 -2      1427      1435      3091      3017
 -1      8890    3    0    1
 -2       240       235      1060      2950
 -1      8891    3    0    1
 -2       368      1498      1501      3011
 -1      8892    3    0    1
 -2      3036      1478      3070      3091
 -1      8893    3    0    1
 -2      2179      2848      2867      2959
 -1      8894    3    0    1
 -2      1247       986      2976      3091
 -1      8895    3    0    1
 -2      2856      1439      3045      3090
 -1      8896    3    0    1
 -2      3061      3070      1494      3091
 -1      8897    3    0    1
 -2       986      1435      2976      3091
 -1      8898    3    0    1
 -2      1312      1065      2723      3077
 -1      8899    3    0    1
 -2      2888      2203      3031      3077
 -1      8900    3    0    1
 -2       429      3050      1468      3077
 -1      8901    3    0    1
 -2      3050       429      1459      3077
 -1      8902    3    0    1
 -2      1459       429      1468      3077
 -1      8903    3    0    1
 -2      2723      2613      2857      3077
 -1      8904    3    0    1
 -2      2613      2723      2888      3077
 -1      8905    3    0    1
 -2      2723      2203      2888      3077
 -1      8906    3    0    1
 -2      2956       714      2962      2973
 -1      8907    3    0    1
 -2      1027      1278      2945      2990
 -1      8908    3    0    1
 -2       690       187      2947      2952
 -1      8909    3    0    1
 -2      1455      3058      2971      2990
 -1      8910    3    0    1
 -2      1458      2973      3088      2991
 -1      8911    3    0    1
 -2      1334      1091      2035      2953
 -1      8912    3    0    1
 -2      1437      1334      2911      2953
 -1      8913    3    0    1
 -2      2869      1447      3074      2988
 -1      8914    3    0    1
 -2      1459      1417      1468      2989
 -1      8915    3    0    1
 -2      1417      1459      3077      2989
 -1      8916    3    0    1
 -2       618      2972      2995      3017
 -1      8917    3    0    1
 -2      1475      1499      1520      3025
 -1      8918    3    0    1
 -2      1478      1466      1507      3017
 -1      8919    3    0    1
 -2      1085       812      1326      2954
 -1      8920    3    0    1
 -2      2950       240      2955      2992
 -1      8921    3    0    1
 -2       811       812      1085      2954
 -1      8922    3    0    1
 -2      1437      1334      1439      3009
 -1      8923    3    0    1
 -2      1447      1439      1490      3009
 -1      8924    3    0    1
 -2      1466      1435      1478      3091
 -1      8925    3    0    1
 -2      1217       573      2936      3010
 -1      8926    3    0    1
 -2      2980       569      3010      3021
 -1      8927    3    0    1
 -2       960      1225      1415      3081
 -1      8928    3    0    1
 -2       103        91      2936      2980
 -1      8929    3    0    1
 -2      2926       665      1481      2960
 -1      8930    3    0    1
 -2       346       344      3070      1495
 -1      8931    3    0    1
 -2       346      3070      1494      1495
 -1      8932    3    0    1
 -2      1431      1475      3019      3025
 -1      8933    3    0    1
 -2      2848      2179      3034      2959
 -1      8934    3    0    1
 -2      3034      2179      1455      2959
 -1      8935    3    0    1
 -2      2848      3034      1455      2959
 -1      8936    3    0    1
 -2      2994       970      3014      3023
 -1      8937    3    0    1
 -2      1509      1479      1515      3024
 -1      8938    3    0    1
 -2      2911      2708      3060      3079
 -1      8939    3    0    1
 -2      2905      3064      2959      2970
 -1      8940    3    0    1
 -2      2438      2911      3060      3079
 -1      8941    3    0    1
 -2      1444       173      3044      3092
 -1      8942    3    0    1
 -2      2905      1444      3064      3092
 -1      8943    3    0    1
 -2      2868      2708      2880      3079
 -1      8944    3    0    1
 -2      2905      3064      2970      3092
 -1      8945    3    0    1
 -2      2880      2708      2911      3079
 -1      8946    3    0    1
 -2      2438      2880      2911      3079
 -1      8947    3    0    1
 -2      1451      1413      3075      1496
 -1      8948    3    0    1
 -2      3037      1448      3078      1496
 -1      8949    3    0    1
 -2      1448      3037      3075      1496
 -1      8950    3    0    1
 -2      2116      1451      3075      1496
 -1      8951    3    0    1
 -2      3037      2116      3075      1496
 -1      8952    3    0    1
 -2       421      1448      1460      1496
 -1      8953    3    0    1
 -2      1236       973      2885      3080
 -1      8954    3    0    1
 -2       973      1236      1409      3080
 -1      8955    3    0    1
 -2      1409      1236      2885      3080
 -1      8956    3    0    1
 -2      2358       973      1428      3080
 -1      8957    3    0    1
 -2       973      2358      2885      3080
 -1      8958    3    0    1
 -2      2996       512       924       510
 -1      8959    3    0    1
 -2       503       504       510      2996
 -1      8960    3    0    1
 -2      2885      2903      2948      3080
 -1      8961    3    0    1
 -2      2885      2358      2903      3080
 -1      8962    3    0    1
 -2      2943      1450      1489      2961
 -1      8963    3    0    1
 -2      2877      3064      3076      3092
 -1      8964    3    0    1
 -2       775       774      1312      2992
 -1      8965    3    0    1
 -2      1439      1447      1490      3090
 -1      8966    3    0    1
 -2       714       196      2956      2962
 -1      8967    3    0    1
 -2      3074      1447      3090      3096
 -1      8968    3    0    1
 -2       196      1282      2956      2962
 -1      8969    3    0    1
 -2       273      2954      2981      3008
 -1      8970    3    0    1
 -2      1438      1437      3060      1497
 -1      8971    3    0    1
 -2      3060      2438      3079      3084
 -1      8972    3    0    1
 -2      3062      2898      3082      3094
 -1      8973    3    0    1
 -2       960      3001      3010      3021
 -1      8974    3    0    1
 -2      1282       717      2956      2964
 -1      8975    3    0    1
 -2      1035       717      1282      2964
 -1      8976    3    0    1
 -2       199       196      2962      2964
 -1      8977    3    0    1
 -2       196       199      1282      2964
 -1      8978    3    0    1
 -2      1415      2155      3052      3081
 -1      8979    3    0    1
 -2      1225      2155      1415      3081
 -1      8980    3    0    1
 -2      3053      2565      1474      3081
 -1      8981    3    0    1
 -2      2565      3053      3054      3081
 -1      8982    3    0    1
 -2      3054      3053      1474      3081
 -1      8983    3    0    1
 -2      3052      3054      1470      3081
 -1      8984    3    0    1
 -2       960      2061      2364      3081
 -1      8985    3    0    1
 -2      1225       960      2364      3081
 -1      8986    3    0    1
 -2      2155      1225      2364      3081
 -1      8987    3    0    1
 -2       359      3054      1474      3081
 -1      8988    3    0    1
 -2      3054       359      1470      3081
 -1      8989    3    0    1
 -2      1470       359      1474      3081
 -1      8990    3    0    1
 -2      2565      2896      2963      3081
 -1      8991    3    0    1
 -2      2896      2364      2963      3081
 -1      8992    3    0    1
 -2      2364      2061      2963      3081
 -1      8993    3    0    1
 -2      2155      2364      2896      3081
 -1      8994    3    0    1
 -2      1207        78      2968      2997
 -1      8995    3    0    1
 -2      2841      1464      3062      3082
 -1      8996    3    0    1
 -2      2586      2060      2899      3082
 -1      8997    3    0    1
 -2      2060      2586      2853      3082
 -1      8998    3    0    1
 -2      2841      2853      1464      3082
 -1      8999    3    0    1
 -2      2853      2586      1464      3082
 -1      9000    3    0    1
 -2      2060      2841      2873      3082
 -1      9001    3    0    1
 -2      1432      1476      3068      3095
 -1      9002    3    0    1
 -2      3063       362      1500      3095
 -1      9003    3    0    1
 -2      2841      2060      2853      3082
 -1      9004    3    0    1
 -2      2873      2841      2898      3082
 -1      9005    3    0    1
 -2      2899      2861      1475      3082
 -1      9006    3    0    1
 -2      2882      2935      3068      3095
 -1      9007    3    0    1
 -2      2586      2899      1464      3082
 -1      9008    3    0    1
 -2       924      2944      2996      2999
 -1      9009    3    0    1
 -2      1464      3062      3082      3083
 -1      9010    3    0    1
 -2        42      1464      3082      3083
 -1      9011    3    0    1
 -2      1464      3062      1502      3072
 -1      9012    3    0    1
 -2      3062      1464      1502      3083
 -1      9013    3    0    1
 -2        42        65      1503      3083
 -1      9014    3    0    1
 -2      1502        42      1503      3083
 -1      9015    3    0    1
 -2      1430      1502      1503      3083
 -1      9016    3    0    1
 -2      2968      1476      2985      3000
 -1      9017    3    0    1
 -2      2024      1290      2275      2986
 -1      9018    3    0    1
 -2      1464      2966      2967      2999
 -1      9019    3    0    1
 -2      1189      1429      2967      2999
 -1      9020    3    0    1
 -2      1429      1464      2967      2999
 -1      9021    3    0    1
 -2      1464      1429      1502      2999
 -1      9022    3    0    1
 -2      1189       924      1429      2999
 -1      9023    3    0    1
 -2      2873      1475      3094      3097
 -1      9024    3    0    1
 -2      1431      2925      2969      3097
 -1      9025    3    0    1
 -2      2966       497      2996      2999
 -1      9026    3    0    1
 -2      2966      1464      1518      2999
 -1      9027    3    0    1
 -2      1431      1475      1499      3097
 -1      9028    3    0    1
 -2      2405      3002      3095      3097
 -1      9029    3    0    1
 -2       360      3063      1499      3097
 -1      9030    3    0    1
 -2      1490       376      1491      3089
 -1      9031    3    0    1
 -2      1476      1432      3068      3000
 -1      9032    3    0    1
 -2       550      1207      2934      2997
 -1      9033    3    0    1
 -2        77       545      2934      2968
 -1      9034    3    0    1
 -2       521      2998      1520      3025
 -1      9035    3    0    1
 -2       560       550      2934      2997
 -1      9036    3    0    1
 -2       946        77      2934      2968
 -1      9037    3    0    1
 -2        77      1207        78      2968
 -1      9038    3    0    1
 -2      1432      1416      3068      3000
 -1      9039    3    0    1
 -2      1207        77       946      2968
 -1      9040    3    0    1
 -2      3048      2882      1476      3095
 -1      9041    3    0    1
 -2      1474      1510      1519      3021
 -1      9042    3    0    1
 -2      2899      1464      3082      3003
 -1      9043    3    0    1
 -2      1475      2899      3082      3003
 -1      9044    3    0    1
 -2      1415      1410      3081      3021
 -1      9045    3    0    1
 -2       970       108      3014      3023
 -1      9046    3    0    1
 -2      1455      1456      1461      2971
 -1      9047    3    0    1
 -2      1455      1411      1456      2971
 -1      9048    3    0    1
 -2      1027      2945      2952      2971
 -1      9049    3    0    1
 -2      2973      1423      3088      2991
 -1      9050    3    0    1
 -2      2962      2956      2973      2991
 -1      9051    3    0    1
 -2      2962       713      2964      2991
 -1      9052    3    0    1
 -2      1411      1455      3058      2971
 -1      9053    3    0    1
 -2      1461       690      2947      2971
 -1      9054    3    0    1
 -2      1455      1461      2947      2971
 -1      9055    3    0    1
 -2      1458      1423      1472      2991
 -1      9056    3    0    1
 -2       986      1247       631      2972
 -1      9057    3    0    1
 -2       631       623       630      2972
 -1      9058    3    0    1
 -2       631       630       986      2972
 -1      9059    3    0    1
 -2      2915      3067      3085      3093
 -1      9060    3    0    1
 -2      1496      3051      2982      3087
 -1      9061    3    0    1
 -2       623       982       984      2972
 -1      9062    3    0    1
 -2       982       128       984      2972
 -1      9063    3    0    1
 -2       624       623       984      2972
 -1      9064    3    0    1
 -2      2915      2854      3047      3093
 -1      9065    3    0    1
 -2      1419      1417      3077      3016
 -1      9066    3    0    1
 -2      3077      1417      2989      3016
 -1      9067    3    0    1
 -2      1479      2948      3080      3093
 -1      9068    3    0    1
 -2      1312      1065      1419      3016
 -1      9069    3    0    1
 -2      2948      2885      3080      3093
 -1      9070    3    0    1
 -2      2915      3047      3067      3093
 -1      9071    3    0    1
 -2      1460       449      2946      2974
 -1      9072    3    0    1
 -2      1460      2946      1496      2974
 -1      9073    3    0    1
 -2      2946      1451      1496      2974
 -1      9074    3    0    1
 -2      1053      2942      2975      1300
 -1      9075    3    0    1
 -2      1424      2961      1053      1420
 -1      9076    3    0    1
 -2      2961      1424      1053      2975
 -1      9077    3    0    1
 -2       738      1484      2943      2975
 -1      9078    3    0    1
 -2      1484      1450      2943      2975
 -1      9079    3    0    1
 -2      1053      2951      2961      2975
 -1      9080    3    0    1
 -2      1444      2905      2970      3092
 -1      9081    3    0    1
 -2      1455       354      2959      3092
 -1      9082    3    0    1
 -2      3014      1479      3022      3024
 -1      9083    3    0    1
 -2       986      1435      2912      2976
 -1      9084    3    0    1
 -2      1699       986      2486      2976
 -1      9085    3    0    1
 -2      2486       986      2912      2976
 -1      9086    3    0    1
 -2      2912      1435      3039      2976
 -1      9087    3    0    1
 -2      3079      1486      3084      2993
 -1      9088    3    0    1
 -2       354       173      2970      3092
 -1      9089    3    0    1
 -2      1487       473      2940      2977
 -1      9090    3    0    1
 -2      1465      1487      2940      2977
 -1      9091    3    0    1
 -2       545      2934      2968      2985
 -1      9092    3    0    1
 -2      1176      2939      2977      2978
 -1      9093    3    0    1
 -2      2939      1176      2977       913
 -1      9094    3    0    1
 -2        30       474      2940      2978
 -1      9095    3    0    1
 -2      1470      1474      1483      3001
 -1      9096    3    0    1
 -2      1476      1471      1482      2985
 -1      9097    3    0    1
 -2      3085      1410      1509      1510
 -1      9098    3    0    1
 -2      2565      3047      1474      3085
 -1      9099    3    0    1
 -2      2854      2915      3047      3085
 -1      9100    3    0    1
 -2      2565      2854      3047      3085
 -1      9101    3    0    1
 -2      2061      2915      2963      3085
 -1      9102    3    0    1
 -2      2915      2854      2963      3085
 -1      9103    3    0    1
 -2      2854      2565      2963      3085
 -1      9104    3    0    1
 -2       570       103      2936      2980
 -1      9105    3    0    1
 -2      3007      2981      3008      3009
 -1      9106    3    0    1
 -2      1447      2981      3007      3009
 -1      9107    3    0    1
 -2       810       280      2954      2981
 -1      9108    3    0    1
 -2      2203      1323      2847      3086
 -1      9109    3    0    1
 -2       799       788       787      2983
 -1      9110    3    0    1
 -2      2983       786      3005      3012
 -1      9111    3    0    1
 -2       798      1078      1323      2983
 -1      9112    3    0    1
 -2       787       798       799      2983
 -1      9113    3    0    1
 -2       799       798      1323      2983
 -1      9114    3    0    1
 -2       368      3084      2993      3006
 -1      9115    3    0    1
 -2      3004      2983      3005      3012
 -1      9116    3    0    1
 -2      3079      2923      2993      3006
 -1      9117    3    0    1
 -2       787      1315      1072      2983
 -1      9118    3    0    1
 -2      1315       787       788      2983
 -1      9119    3    0    1
 -2      2946       450      1513      3013
 -1      9120    3    0    1
 -2      1315      1072      2983      3005
 -1      9121    3    0    1
 -2      1440      1451      1491      3013
 -1      9122    3    0    1
 -2      2888      2846      3031      3086
 -1      9123    3    0    1
 -2      3030      2708      1486      3086
 -1      9124    3    0    1
 -2      3050      3030      1486      3086
 -1      9125    3    0    1
 -2      2846      2708      3030      3086
 -1      9126    3    0    1
 -2      2846      3030      3031      3086
 -1      9127    3    0    1
 -2      3031      3030      3050      3086
 -1      9128    3    0    1
 -2      2708      2203      2847      3086
 -1      9129    3    0    1
 -2      2203      2708      2888      3086
 -1      9130    3    0    1
 -2      2708      2846      2888      3086
 -1      9131    3    0    1
 -2      1433      1176      2977      2984
 -1      9132    3    0    1
 -2      1465      1414      3071      2984
 -1      9133    3    0    1
 -2      1433      1465      3071      2984
 -1      9134    3    0    1
 -2      1414      1433      3071      2984
 -1      9135    3    0    1
 -2      2940       474      1508      2984
 -1      9136    3    0    1
 -2      1465      2940      1508      2984
 -1      9137    3    0    1
 -2      1416      1476      3068      2985
 -1      9138    3    0    1
 -2      1486      1438      1498      3011
 -1      9139    3    0    1
 -2      1482       545      2968      2985
 -1      9140    3    0    1
 -2      1476      1482      2968      2985
 -1      9141    3    0    1
 -2      1440      1439      1490      3089
 -1      9142    3    0    1
 -2      2918      2946      2974      2987
 -1      9143    3    0    1
 -2      1440      1490      1491      3089
 -1      9144    3    0    1
 -2      3045      3074      3090      3096
 -1      9145    3    0    1
 -2      1423      1458      1472      3088
 -1      9146    3    0    1
 -2      3032      2328      2986      3088
 -1      9147    3    0    1
 -2      2328      3032      3035      3088
 -1      9148    3    0    1
 -2      2844      2328      3035      3088
 -1      9149    3    0    1
 -2      3035      3032      3042      3088
 -1      9150    3    0    1
 -2      2844      3035      3073      3088
 -1      9151    3    0    1
 -2      3042      3032      1472      3088
 -1      9152    3    0    1
 -2      3035      1458      3073      3088
 -1      9153    3    0    1
 -2      3035      3042      1458      3088
 -1      9154    3    0    1
 -2       203      3042      1472      3088
 -1      9155    3    0    1
 -2      3042       203      1458      3088
 -1      9156    3    0    1
 -2      1458       203      1472      3088
 -1      9157    3    0    1
 -2      2328      2844      2986      3088
 -1      9158    3    0    1
 -2      1447      3074      2988      3096
 -1      9159    3    0    1
 -2      3089      3045      3090      3096
 -1      9160    3    0    1
 -2      1161      2918      2974      2987
 -1      9161    3    0    1
 -2      2918      1161      2974       904
 -1      9162    3    0    1
 -2         1       450      2946      2987
 -1      9163    3    0    1
 -2      3075      3045      3089      3096
 -1      9164    3    0    1
 -2       374      1451      3075      3096
 -1      9165    3    0    1
 -2      1334       822      2157      1091
 -1      9166    3    0    1
 -2      1475      2998      3019      3025
 -1      9167    3    0    1
 -2      1091      1439      2953      3090
 -1      9168    3    0    1
 -2      1334      1091      2953      3090
 -1      9169    3    0    1
 -2      1091      1334      1439      3090
 -1      9170    3    0    1
 -2      3060      1447      1497      3090
 -1      9171    3    0    1
 -2      1437      3060      1497      3090
 -1      9172    3    0    1
 -2      1447      1437      1497      3090
 -1      9173    3    0    1
 -2      2911      1437      2953      3090
 -1      9174    3    0    1
 -2      1437      2911      3060      3090
 -1      9175    3    0    1
 -2      1447       376      1490      3090
 -1      9176    3    0    1
 -2      1490       376      3089      3090
 -1      9177    3    0    1
 -2      2892      2438      2953      3090
 -1      9178    3    0    1
 -2      2856      2892      2953      3090
 -1      9179    3    0    1
 -2      2438      2911      2953      3090
 -1      9180    3    0    1
 -2       761      2955      1506      2989
 -1      9181    3    0    1
 -2      2955      1459      1506      2989
 -1      9182    3    0    1
 -2      1278      1027      1421      2990
 -1      9183    3    0    1
 -2      1421      1411      3058      2990
 -1      9184    3    0    1
 -2      3058      1411      2971      2990
 -1      9185    3    0    1
 -2      1027      1411      1421      2990
 -1      9186    3    0    1
 -2      2947       689      1505      2990
 -1      9187    3    0    1
 -2      1455      2947      1505      2990
 -1      9188    3    0    1
 -2      1411      1027      2971      2990
 -1      9189    3    0    1
 -2      1039      1290      2956      2991
 -1      9190    3    0    1
 -2      1485       713      2962      2991
 -1      9191    3    0    1
 -2      1458      1485      2962      2991
 -1      9192    3    0    1
 -2      2956      1290      2973      2991
 -1      9193    3    0    1
 -2      1435      1466      1478      3017
 -1      9194    3    0    1
 -2      3015      2995      3017      3018
 -1      9195    3    0    1
 -2      1478      1427      1494      3091
 -1      9196    3    0    1
 -2      1060       240      2950      2992
 -1      9197    3    0    1
 -2       775       766       774      2992
 -1      9198    3    0    1
 -2       774      1065      1312      2992
 -1      9199    3    0    1
 -2       766       767      1309      2992
 -1      9200    3    0    1
 -2       240       762      2955      2992
 -1      9201    3    0    1
 -2       240      1060      1309      2992
 -1      9202    3    0    1
 -2       766      1060      2950      2992
 -1      9203    3    0    1
 -2      1060       766      1309      2992
 -1      9204    3    0    1
 -2       774       766      2950      2992
 -1      9205    3    0    1
 -2      1065       774      2950      2992
 -1      9206    3    0    1
 -2      2676      3036      3061      3091
 -1      9207    3    0    1
 -2      3061      3036      3070      3091
 -1      9208    3    0    1
 -2      3039      1466      3059      3091
 -1      9209    3    0    1
 -2      3059      1466      1478      3091
 -1      9210    3    0    1
 -2      3039      3059      1478      3091
 -1      9211    3    0    1
 -2       346      1478      1494      3091
 -1      9212    3    0    1
 -2      1478       346      3070      3091
 -1      9213    3    0    1
 -2      3070       346      1494      3091
 -1      9214    3    0    1
 -2      2676      2358      2976      3091
 -1      9215    3    0    1
 -2      1927      2631      2577      1892
 -1      9216    3    0    1
 -2      2358      2676      2903      3091
 -1      9217    3    0    1
 -2      1494      1478      1512      3018
 -1      9218    3    0    1
 -2      3014      2994      3023      3024
 -1      9219    3    0    1
 -2       623       982      2972      3015
 -1      9220    3    0    1
 -2       973      1236      2994      3024
 -1      9221    3    0    1
 -2      2965      1199      3019      3025
 -1      9222    3    0    1
 -2       982       128      2972      3015
 -1      9223    3    0    1
 -2       938      1199      2965      3025
 -1      9224    3    0    1
 -2       631       623      2972      3015
 -1      9225    3    0    1
 -2      2998      1475      1520      3025
 -1      9226    3    0    1
 -2      1430      1199      1431      3019
 -1      9227    3    0    1
 -2       134       617      2995      3015
 -1      9228    3    0    1
 -2      2972       128      2995      3015
 -1      9229    3    0    1
 -2      2994      1236      3023      3024
 -1      9230    3    0    1
 -2      2854      2451      3047      3093
 -1      9231    3    0    1
 -2      2854      2915      2948      3093
 -1      9232    3    0    1
 -2      2915      2885      2948      3093
 -1      9233    3    0    1
 -2      2451      2854      2948      3093
 -1      9234    3    0    1
 -2       924      2944       512      2996
 -1      9235    3    0    1
 -2       512       503       510      2996
 -1      9236    3    0    1
 -2        45      1185      2966      2996
 -1      9237    3    0    1
 -2       504       503       922      2996
 -1      9238    3    0    1
 -2       497        44      2966      2996
 -1      9239    3    0    1
 -2      1185        44       922      2996
 -1      9240    3    0    1
 -2      1185       503      2944      2996
 -1      9241    3    0    1
 -2       922       503      1185      2996
 -1      9242    3    0    1
 -2        44        45      2966      2996
 -1      9243    3    0    1
 -2        44      1185        45      2996
 -1      9244    3    0    1
 -2       776       239      1061       234
 -1      9245    3    0    1
 -2       503       512      2944      2996
 -1      9246    3    0    1
 -2       949      2934      2985      2997
 -1      9247    3    0    1
 -2       522        59      2965      2998
 -1      9248    3    0    1
 -2      1475       360      1499      3097
 -1      9249    3    0    1
 -2        59      1196      2965      2998
 -1      9250    3    0    1
 -2      2873      2883      3048      3097
 -1      9251    3    0    1
 -2       360      1475      1499      1520
 -1      9252    3    0    1
 -2      2944      1189      2967      2999
 -1      9253    3    0    1
 -2      3068      1416      2985      3000
 -1      9254    3    0    1
 -2       949      1416      1432      3000
 -1      9255    3    0    1
 -2      2968       546      1517      3000
 -1      9256    3    0    1
 -2      1476      2968      1517      3000
 -1      9257    3    0    1
 -2      1416       949      2985      3000
 -1      9258    3    0    1
 -2       570      1483      2980      3001
 -1      9259    3    0    1
 -2      1483      1474      2980      3001
 -1      9260    3    0    1
 -2      1212      2900      2925      3002
 -1      9261    3    0    1
 -2      1432      1212      2925      3002
 -1      9262    3    0    1
 -2      1072       787      2983      3004
 -1      9263    3    0    1
 -2       582       960      2936      3010
 -1      9264    3    0    1
 -2      1415      3081      3001      3021
 -1      9265    3    0    1
 -2      2980      1474      1519      3021
 -1      9266    3    0    1
 -2       960      1410      1415      3021
 -1      9267    3    0    1
 -2       569      2980      1519      3021
 -1      9268    3    0    1
 -2       938      1431      2969      3094
 -1      9269    3    0    1
 -2      1199       938      2969      3094
 -1      9270    3    0    1
 -2       938      1199      1431      3094
 -1      9271    3    0    1
 -2      1503      1430      3083      3094
 -1      9272    3    0    1
 -2      1430      3062      3083      3094
 -1      9273    3    0    1
 -2      3062      3082      3083      3094
 -1      9274    3    0    1
 -2        65      1503      3083      3094
 -1      9275    3    0    1
 -2        65      1475      1503      3094
 -1      9276    3    0    1
 -2      1475        65      3082      3094
 -1      9277    3    0    1
 -2      3082        65      3083      3094
 -1      9278    3    0    1
 -2      2873      2898      2969      3094
 -1      9279    3    0    1
 -2      2898      2380      2969      3094
 -1      9280    3    0    1
 -2      2900      1212      3068      3095
 -1      9281    3    0    1
 -2      3048      2405      2935      3095
 -1      9282    3    0    1
 -2      2405      3048      3063      3095
 -1      9283    3    0    1
 -2      1432      1499      1500      3095
 -1      9284    3    0    1
 -2      2900      2935      3002      3095
 -1      9285    3    0    1
 -2      1432      1431      1499      3095
 -1      9286    3    0    1
 -2      2935      2405      3002      3095
 -1      9287    3    0    1
 -2      1447      2923      3079      3006
 -1      9288    3    0    1
 -2      1497      1447      2981      3007
 -1      9289    3    0    1
 -2       367      1497      2981      3007
 -1      9290    3    0    1
 -2      1469      1486      1511      3012
 -1      9291    3    0    1
 -2      1451      2946      1513      3013
 -1      9292    3    0    1
 -2       786       254      2983      3005
 -1      9293    3    0    1
 -2      1315       253      1072      3005
 -1      9294    3    0    1
 -2       254      1315      2983      3005
 -1      9295    3    0    1
 -2       253      1315       254      3005
 -1      9296    3    0    1
 -2       810       367      2981      3007
 -1      9297    3    0    1
 -2      2981      2954      3007      3008
 -1      9298    3    0    1
 -2       594      2994      3014      3022
 -1      9299    3    0    1
 -2      3008      1334       822      2954
 -1      9300    3    0    1
 -2       809       273      2981      3008
 -1      9301    3    0    1
 -2      2980      2936      3001      3010
 -1      9302    3    0    1
 -2      2954      1334      3007      3008
 -1      9303    3    0    1
 -2      1334      1437      3007      3009
 -1      9304    3    0    1
 -2      2936       960      3001      3010
 -1      9305    3    0    1
 -2       569        91      2980      3010
 -1      9306    3    0    1
 -2      1479      1495      1514      3022
 -1      9307    3    0    1
 -2      2998       521      3020      3025
 -1      9308    3    0    1
 -2      1486      3086      3011      3012
 -1      9309    3    0    1
 -2      1438      3004      3011      3012
 -1      9310    3    0    1
 -2      1078      2983      3012      1323
 -1      9311    3    0    1
 -2      1323      1078      1418      3012
 -1      9312    3    0    1
 -2      1418      1438      3086      3012
 -1      9313    3    0    1
 -2      3086      1438      3011      3012
 -1      9314    3    0    1
 -2      1418      1078      1438      3012
 -1      9315    3    0    1
 -2       786      1511      3005      3012
 -1      9316    3    0    1
 -2      1511      1486      3005      3012
 -1      9317    3    0    1
 -2      3005      1486      3011      3012
 -1      9318    3    0    1
 -2      1438      1078      3004      3012
 -1      9319    3    0    1
 -2      1451       374      2988      3096
 -1      9320    3    0    1
 -2      1479      3080      3022      3024
 -1      9321    3    0    1
 -2      1199      1431      3019      3025
 -1      9322    3    0    1
 -2      1199       938      1431      3025
 -1      9323    3    0    1
 -2      1236       973      1409      3024
 -1      9324    3    0    1
 -2       599       600       606      3023
 -1      9325    3    0    1
 -2       108       594      2994      3014
 -1      9326    3    0    1
 -2       606      1236       608      3023
 -1      9327    3    0    1
 -2      3080      1409      3022      3024
 -1      9328    3    0    1
 -2       970       108      2994      3014
 -1      9329    3    0    1
 -2       128       134      2995      3015
 -1      9330    3    0    1
 -2      1459      2955      1516      3016
 -1      9331    3    0    1
 -2      1065      2950      2989      3016
 -1      9332    3    0    1
 -2      1417      1065      2989      3016
 -1      9333    3    0    1
 -2      1478      1507      2995      3017
 -1      9334    3    0    1
 -2      1512      1478      2995      3018
 -1      9335    3    0    1
 -2      1475      1430      3094      3019
 -1      9336    3    0    1
 -2      1431      1475      3094      3019
 -1      9337    3    0    1
 -2      1430      1431      3094      3019
 -1      9338    3    0    1
 -2       522      1504      2998      3019
 -1      9339    3    0    1
 -2      1504      1475      2998      3019
 -1      9340    3    0    1
 -2      2965       938       536      1199
 -1      9341    3    0    1
 -2       938      2965       536      3020
 -1      9342    3    0    1
 -2       526       534       536      3020
 -1      9343    3    0    1
 -2        59      1196      2998      3020
 -1      9344    3    0    1
 -2       527       526       933      3020
 -1      9345    3    0    1
 -2       521        64      2998      3020
 -1      9346    3    0    1
 -2        64       933      1196      3020
 -1      9347    3    0    1
 -2      1196       526      2965      3020
 -1      9348    3    0    1
 -2       933       526      1196      3020
 -1      9349    3    0    1
 -2        64        59      2998      3020
 -1      9350    3    0    1
 -2        59        64      1196      3020
 -1      9351    3    0    1
 -2       526       536      2965      3020
 -1      9352    3    0    1
 -2      2873      2405      2883      3097
 -1      9353    3    0    1
 -2      2405      2969      3002      3097
 -1      9354    3    0    1
 -2      2969      2925      3002      3097
 -1      9355    3    0    1
 -2      1428      1479      3080      3022
 -1      9356    3    0    1
 -2      1409      1428      3080      3022
 -1      9357    3    0    1
 -2      1514       594      3014      3022
 -1      9358    3    0    1
 -2      1479      1514      3014      3022
 -1      9359    3    0    1
 -2      1236      2994       606       973
 -1      9360    3    0    1
 -2      2994      1236       606      3023
 -1      9361    3    0    1
 -2       970       599       968      3023
 -1      9362    3    0    1
 -2       116       593      3014      3023
 -1      9363    3    0    1
 -2       116       108       968      3023
 -1      9364    3    0    1
 -2       600       970      2994      3023
 -1      9365    3    0    1
 -2       599       970       600      3023
 -1      9366    3    0    1
 -2       938      2965      3020      3025
 -1      9367    3    0    1
 -2      2965      2998      3020      3025
 -1      9368    3    0    1
 -2       968       108       970      3023
 -1      9369    3    0    1
 -2       108       116      3014      3023
 -1      9370    3    0    1
 -2       606       600      2994      3023
 -3
    1PSTEP                         1           1           1          
  100CL  101 1.000000000        3097                     0    1           1
 -4  DISP        4    1
 -5  D1          1    2    1    0
 -5  D2          1    2    2    0
 -5  D3          1    2    3    0
 -5  ALL         1    2    0    0    1ALL
 -1         1-2.54056E-01-3.32833E-03-1.99272E+00
 -1         2-2.54731E-01-2.96176E-03-1.99121E+00
 -1         3-2.74056E-01-2.05530E-03-9.37418E-01
 -1         4-2.75625E-01-1.78900E-03-9.39673E-01
 -1         5-2.69134E-01-2.59677E-03-1.47294E+00
 -1         6-2.66764E-01-1.75054E-03-1.47427E+00
 -1         7-2.75255E-01-1.89736E-03-9.40700E-01
 -1         8-2.69331E-01-7.87866E-04-1.47651E+00
 -1         9-2.74113E-01-3.48181E-05-3.74047E-01
 -1        10-2.75152E-01-1.81075E-03-9.38012E-01
 -1        11-2.75340E-01 2.46258E-04-3.73734E-01
 -1        12-4.71380E-02-6.98747E-05-3.74797E-01
 -1        13-4.98623E-02-5.43446E-04-9.39445E-01
 -1        14-4.84120E-02-4.86259E-04-1.47835E+00
 -1        15-2.66983E-01-1.61992E-03-1.47558E+00
 -1        16-4.81766E-02 4.18166E-03-1.47913E+00
 -1        17-5.04405E-02 1.81875E-03-9.40930E-01
 -1        18-4.79920E-02 8.25849E-03-1.47497E+00
 -1        19-2.51109E-01-1.05803E-01-9.36822E-01
 -1        20-2.47599E-01-1.06604E-01-3.80800E-01
 -1        21-2.51422E-01-1.06055E-01-9.37463E-01
 -1        22-2.50315E-01-1.05875E-01-9.35956E-01
 -1        23-2.49004E-01-1.00733E-01-1.46994E+00
 -1        24-2.50458E-01-1.05781E-01-9.36007E-01
 -1        25-4.21540E-02-2.04893E-02-3.81801E-01
 -1        26-2.48353E-01-1.06418E-01-3.81905E-01
 -1        27-2.46191E-01-1.00321E-01-1.47057E+00
 -1        28-2.35750E-01-9.41229E-02-1.99008E+00
 -1        29-4.39566E-02-1.92596E-02-1.47354E+00
 -1        30-2.35764E-01-9.45649E-02-1.98746E+00
 -1        31-2.46909E-01-1.00527E-01-1.47003E+00
 -1        32-4.58408E-02-1.47388E-02-1.47344E+00
 -1        33-4.57871E-02-1.84061E-02-9.37554E-01
 -1        34-4.36944E-02-2.29861E-02-9.34150E-01
 -1        35-4.45745E-02-2.05782E-02-9.37247E-01
 -1        36-2.47400E-01-1.01047E-01-1.47052E+00
 -1        37-1.90701E-01-2.00203E-01-9.26567E-01
 -1        38-1.90332E-01-2.00252E-01-9.22853E-01
 -1        39-3.11425E-02-3.67582E-02-3.60248E-01
 -1        40-1.88699E-01-1.98318E-01-3.59094E-01
 -1        41-3.35149E-02-3.73020E-02-9.24516E-01
 -1        42-2.43189E-02-3.40241E-02-1.98108E+00
 -1        43-3.18476E-02-3.60484E-02-1.46557E+00
 -1        44-1.77357E-01-1.84562E-01-1.98700E+00
 -1        45-1.77520E-01-1.85110E-01-1.98837E+00
 -1        46-1.89643E-01-1.98523E-01-3.61555E-01
 -1        47-1.85538E-01-1.94733E-01-1.46562E+00
 -1        48-1.86051E-01-1.96668E-01-1.46020E+00
 -1        49-1.85430E-01-1.94712E-01-1.46234E+00
 -1        50-1.90455E-01-2.00255E-01-9.28818E-01
 -1        51-1.90247E-01-2.00080E-01-9.21161E-01
 -1        52-1.86782E-01-1.95824E-01-1.46798E+00
 -1        53-3.87751E-02-3.02026E-02-1.46424E+00
 -1        54-3.29642E-02-3.93956E-02-9.19661E-01
 -1        55-1.06457E-01-2.56388E-01-9.18405E-01
 -1        56-1.06724E-01-2.56733E-01-9.17290E-01
 -1        57-1.06849E-01-2.57079E-01-9.17696E-01
 -1        58-1.03981E-01-2.49204E-01-1.45986E+00
 -1        59-9.39954E-02-2.37913E-01-1.98381E+00
 -1        60-1.05426E-01-2.57236E-01-3.47806E-01
 -1        61-1.05439E-01-2.56841E-01-3.48672E-01
 -1        62-1.71835E-02-4.62302E-02-3.47444E-01
 -1        63-1.03748E-01-2.49611E-01-1.45967E+00
 -1        64-9.46390E-02-2.38232E-01-1.98348E+00
 -1        65-2.08137E-02-3.62980E-02-1.98049E+00
 -1        66-1.88295E-02-4.64239E-02-3.49942E-01
 -1        67-1.68065E-02-4.55312E-02-1.46282E+00
 -1        68-1.04793E-01-2.50851E-01-1.46058E+00
 -1        69-1.06634E-01-2.56803E-01-9.17370E-01
 -1        70-1.04122E-01-2.50774E-01-1.45975E+00
 -1        71-1.39072E-03-2.75459E-01-9.20424E-01
 -1        72-9.13973E-03-2.73372E-01-3.52461E-01
 -1        73-4.00028E-04-2.67471E-01-1.45694E+00
 -1        74-8.58416E-03-2.74476E-01-3.57258E-01
 -1        75-1.36612E-03-4.60560E-02-3.58131E-01
 -1        76 6.43395E-03-4.23444E-02-1.97428E+00
 -1        77-1.53941E-03-2.55600E-01-1.98029E+00
 -1        78-3.36185E-04-2.55536E-01-1.97905E+00
 -1        79-5.24472E-03-4.80555E-02-3.54507E-01
 -1        80-1.58113E-03-5.00438E-02-9.21604E-01
 -1        81-5.04554E-03-4.78617E-02-1.45770E+00
 -1        82 5.86102E-03-4.73259E-02-1.45715E+00
 -1        83-2.14247E-04-2.69782E-01-1.45834E+00
 -1        84-7.52302E-04-2.67831E-01-1.45755E+00
 -1        85 2.23849E-03-4.78379E-02-1.46077E+00
 -1        86-5.29080E-03-5.04919E-02-9.17805E-01
 -1        87-1.84284E-03-2.75052E-01-9.19758E-01
 -1        88-1.69172E-03-2.74785E-01-9.19636E-01
 -1        89-5.03080E-04-2.68940E-01-1.45784E+00
 -1        90-1.39511E-03-2.74960E-01-9.21441E-01
 -1        91 8.93440E-02-2.36610E-01-1.98234E+00
 -1        92 9.53624E-02-2.47861E-01-1.46104E+00
 -1        93 9.77467E-02-2.52538E-01-9.28511E-01
 -1        94 9.54093E-02-2.47456E-01-1.46369E+00
 -1        95 9.83753E-02-2.52165E-01-9.33896E-01
 -1        96 9.79647E-02-2.52666E-01-9.30156E-01
 -1        97 9.60095E-02-2.48463E-01-1.46568E+00
 -1        98 9.90896E-02-2.50372E-01-3.76837E-01
 -1        99 9.81986E-02-2.51735E-01-9.36033E-01
 -1       100 9.92055E-02-2.51976E-01-3.74457E-01
 -1       101 1.53083E-02-4.33883E-02-3.74918E-01
 -1       102 2.03908E-02-4.46176E-02-9.36323E-01
 -1       103 8.93654E-02-2.35773E-01-1.97800E+00
 -1       104 1.39085E-02-4.58471E-02-1.46357E+00
 -1       105 9.57903E-02-2.49084E-01-1.45985E+00
 -1       106 1.34933E-02-4.76565E-02-9.24473E-01
 -1       107 2.08836E-02-4.30998E-02-1.46432E+00
 -1       108 1.71364E-01-1.82956E-01-1.98671E+00
 -1       109 2.45084E-02-3.56396E-02-1.97683E+00
 -1       110 1.86675E-01-1.95001E-01-9.43933E-01
 -1       111 1.87393E-01-1.91038E-01-3.93429E-01
 -1       112 1.82089E-01-1.90533E-01-1.46859E+00
 -1       113 1.83114E-01-1.91783E-01-1.46744E+00
 -1       114 1.86019E-01-1.95074E-01-9.40894E-01
 -1       115 1.81935E-01-1.90693E-01-1.47157E+00
 -1       116 1.72090E-01-1.83092E-01-1.98386E+00
 -1       117 1.87973E-01-1.92150E-01-3.91481E-01
 -1       118 3.57948E-02-3.22545E-02-3.94562E-01
 -1       119 3.03533E-02-3.62425E-02-1.47134E+00
 -1       120 2.82301E-02-3.98294E-02-1.46625E+00
 -1       121 1.82723E-01-1.91337E-01-1.47347E+00
 -1       122 3.35856E-02-3.34038E-02-1.47408E+00
 -1       123 3.17950E-02-3.69833E-02-9.42794E-01
 -1       124 1.85956E-01-1.94965E-01-9.39295E-01
 -1       125 3.74574E-02-3.16212E-02-9.43279E-01
 -1       126 3.39525E-02-3.53203E-02-9.46125E-01
 -1       127 1.86633E-01-1.95289E-01-9.46561E-01
 -1       128 2.33567E-01-9.18000E-02-1.98701E+00
 -1       129 2.53058E-01-1.02129E-01-3.83064E-01
 -1       130 2.53688E-01-1.02132E-01-3.80796E-01
 -1       131 2.51854E-01-1.01473E-01-9.43509E-01
 -1       132 2.46546E-01-1.00955E-01-1.47489E+00
 -1       133 2.44901E-01-9.93643E-02-1.47419E+00
 -1       134 2.33165E-01-9.15063E-02-1.99092E+00
 -1       135 4.40247E-02-1.89934E-02-3.83472E-01
 -1       136 4.47942E-02-1.55354E-02-3.80832E-01
 -1       137 4.18433E-02-2.08958E-02-1.47727E+00
 -1       138 4.53110E-02-2.05393E-02-9.45923E-01
 -1       139 2.45515E-01-9.92960E-02-1.47239E+00
 -1       140 4.46808E-02-1.50262E-02-1.47666E+00
 -1       141 2.46626E-01-9.95936E-02-1.47171E+00
 -1       142 4.69323E-02-1.24188E-02-9.35857E-01
 -1       143 2.52120E-01-1.01206E-01-9.41676E-01
 -1       144 2.51565E-01-1.01026E-01-9.40941E-01
 -1       145 2.51590E-01-1.01404E-01-9.44629E-01
 -1       146 4.32257E-02-2.31665E-02-9.43612E-01
 -1       147 2.65816E-01 5.04402E-03-1.46798E+00
 -1       148 2.67211E-01 4.91342E-03-1.46984E+00
 -1       149 2.73742E-01 3.69497E-03-9.31023E-01
 -1       150 2.74175E-01 3.73014E-03-9.29252E-01
 -1       151 2.52174E-01 5.88466E-03-1.98361E+00
 -1       152 2.66510E-01 4.69881E-03-1.46574E+00
 -1       153 2.73514E-01 4.51734E-03-3.67228E-01
 -1       154 2.72542E-01 4.84664E-03-3.65274E-01
 -1       155 4.17791E-02 6.85255E-03-1.97734E+00
 -1       156 2.52647E-01 7.00834E-03-1.98708E+00
 -1       157 4.93070E-02-1.68321E-03-9.33386E-01
 -1       158 2.73329E-01 3.73604E-03-9.32810E-01
 -1       159 2.68170E-01 4.79315E-03-1.46498E+00
 -1       160 2.73881E-01 3.61653E-03-9.28535E-01
 -1       161 4.72171E-02 8.18775E-03-1.46166E+00
 -1       162 2.33757E-01 9.95552E-02-1.98338E+00
 -1       163 2.45343E-01 1.05594E-01-1.46123E+00
 -1       164 2.46986E-01 1.05032E-01-1.46305E+00
 -1       165 2.45333E-01 1.05226E-01-1.46249E+00
 -1       166 2.51421E-01 1.05884E-01-9.27733E-01
 -1       167 2.51210E-01 1.06579E-01-9.27706E-01
 -1       168 2.51205E-01 1.05884E-01-9.28093E-01
 -1       169 2.49646E-01 1.04754E-01-3.70185E-01
 -1       170 2.48672E-01 1.04607E-01-3.70407E-01
 -1       171 4.34534E-02 2.09904E-02-1.46394E+00
 -1       172 2.33966E-01 9.92742E-02-1.98101E+00
 -1       173 3.55331E-02 2.34507E-02-1.97741E+00
 -1       174 4.59300E-02 1.87169E-02-9.29501E-01
 -1       175 4.43985E-02 1.77863E-02-1.46544E+00
 -1       176 2.46614E-01 1.06140E-01-1.46097E+00
 -1       177 4.45076E-02 2.19759E-02-9.29768E-01
 -1       178 2.51183E-01 1.06501E-01-9.27586E-01
 -1       179 1.89672E-01 1.89313E-01-1.46272E+00
 -1       180 1.90593E-01 1.89899E-01-1.46287E+00
 -1       181 1.91072E-01 1.90831E-01-1.46540E+00
 -1       182 1.94996E-01 1.92453E-01-9.26516E-01
 -1       183 1.94955E-01 1.92525E-01-9.26024E-01
 -1       184 1.94928E-01 1.92772E-01-9.28270E-01
 -1       185 3.37820E-02 3.51630E-02-3.73744E-01
 -1       186 1.94505E-01 1.89683E-01-3.72496E-01
 -1       187 1.79273E-01 1.79812E-01-1.98324E+00
 -1       188 1.78754E-01 1.79853E-01-1.98343E+00
 -1       189 1.94437E-01 1.88776E-01-3.70187E-01
 -1       190 3.64314E-02 3.48207E-02-9.28295E-01
 -1       191 3.79709E-02 2.98194E-02-1.46195E+00
 -1       192 1.89881E-01 1.88855E-01-1.46411E+00
 -1       193 2.88421E-02 3.99872E-02-1.46268E+00
 -1       194 1.95085E-01 1.92762E-01-9.29256E-01
 -1       195 3.32945E-02 3.77077E-02-9.25963E-01
 -1       196 9.36532E-02 2.37005E-01-1.98294E+00
 -1       197 2.14944E-02 3.81968E-02-1.97823E+00
 -1       198 1.03976E-01 2.56884E-01-9.23169E-01
 -1       199 9.41002E-02 2.36750E-01-1.98310E+00
 -1       200 1.01481E-01 2.49177E-01-1.46284E+00
 -1       201 1.02028E-01 2.56901E-01-3.53088E-01
 -1       202 1.01840E-01 2.56197E-01-3.55977E-01
 -1       203 1.00227E-02 4.29459E-02-1.97734E+00
 -1       204 1.64333E-02 4.61819E-02-1.46607E+00
 -1       205 1.81327E-02 4.39874E-02-3.55905E-01
 -1       206 1.02353E-01 2.51051E-01-1.46367E+00
 -1       207 1.15416E-02 4.73168E-02-1.45967E+00
 -1       208 1.01273E-01 2.51909E-01-1.46156E+00
 -1       209 1.01381E-01 2.49870E-01-1.46230E+00
 -1       210 1.04019E-01 2.57163E-01-9.22096E-01
 -1       211 1.04053E-01 2.56869E-01-9.21925E-01
 -1       212 2.48015E-02 4.32471E-02-1.45960E+00
 -1       213 1.03883E-01 2.56708E-01-9.24101E-01
 -1       214 7.17069E-03 2.53789E-01-1.98270E+00
 -1       215 1.32861E-02 2.73316E-01-9.27808E-01
 -1       216 9.07131E-03 2.66868E-01-1.46478E+00
 -1       217 7.40118E-03 2.54861E-01-1.98798E+00
 -1       218 1.28601E-02 2.75058E-01-9.37766E-01
 -1       219 1.23532E-02 2.72145E-01-3.73442E-01
 -1       220 1.18634E-02 2.71462E-01-3.81080E-01
 -1       221 9.57067E-03 2.67653E-01-1.47196E+00
 -1       222 5.49915E-03 5.11037E-02-9.32445E-01
 -1       223 2.78713E-03 4.92174E-02-1.46886E+00
 -1       224 9.19699E-03 2.67892E-01-1.46264E+00
 -1       225 1.30128E-02 2.74364E-01-9.31044E-01
 -1       226-5.20462E-04 5.20191E-02-9.39762E-01
 -1       227 5.53171E-03 4.86874E-02-1.46257E+00
 -1       228-6.28704E-03 4.90958E-02-1.47238E+00
 -1       229 9.58457E-03 2.69711E-01-1.47617E+00
 -1       230 1.30983E-02 2.75467E-01-9.42038E-01
 -1       231-1.05348E-02 4.31323E-02-1.98070E+00
 -1       232-1.01201E-01 2.59378E-01-3.92668E-01
 -1       233-9.63015E-02 2.56524E-01-9.53991E-01
 -1       234-9.14921E-02 2.48220E-01-1.48086E+00
 -1       235-8.37917E-02 2.34031E-01-1.99359E+00
 -1       236-9.60668E-02 2.55870E-01-9.51924E-01
 -1       237-9.60747E-02 2.55951E-01-9.59453E-01
 -1       238-1.86122E-02 4.80019E-02-9.61496E-01
 -1       239-9.11715E-02 2.48137E-01-1.48589E+00
 -1       240-8.41618E-02 2.34099E-01-1.98485E+00
 -1       241-1.62499E-02 4.81106E-02-3.90362E-01
 -1       242-1.01051E-01 2.59553E-01-3.90342E-01
 -1       243-1.35645E-02 4.73217E-02-1.48372E+00
 -1       244-9.21854E-02 2.50060E-01-1.47887E+00
 -1       245-1.15773E-02 4.92300E-02-1.47675E+00
 -1       246-2.38210E-02 4.29150E-02-1.48588E+00
 -1       247-9.19436E-02 2.49523E-01-1.48937E+00
 -1       248-1.83012E-02 4.60336E-02-1.49054E+00
 -1       249-1.34461E-02 4.97722E-02-9.49266E-01
 -1       250-9.56369E-02 2.55109E-01-9.62327E-01
 -1       251-2.05929E-02 4.73258E-02-9.59377E-01
 -1       252-1.86627E-01 1.86260E-01-1.48884E+00
 -1       253-1.71857E-01 1.77688E-01-1.99120E+00
 -1       254-1.73472E-01 1.77436E-01-1.99161E+00
 -1       255-1.93283E-01 1.90752E-01-9.62293E-01
 -1       256-1.94407E-01 1.92331E-01-9.62453E-01
 -1       257-1.94625E-01 1.92715E-01-9.63439E-01
 -1       258-1.97625E-01 1.96071E-01-3.96849E-01
 -1       259-3.64188E-02 3.69783E-02-3.95706E-01
 -1       260-1.97807E-01 1.96305E-01-3.96203E-01
 -1       261-3.72159E-02 3.43080E-02-9.64577E-01
 -1       262-1.86608E-01 1.85815E-01-1.48987E+00
 -1       263-3.54722E-02 3.78884E-02-3.97322E-01
 -1       264-3.28964E-02 3.71435E-02-1.49235E+00
 -1       265-3.06427E-02 3.81491E-02-1.48869E+00
 -1       266-3.77578E-02 3.11300E-02-1.48675E+00
 -1       267-1.88061E-01 1.87502E-01-1.48894E+00
 -1       268-3.65662E-02 3.37392E-02-1.49335E+00
 -1       269-3.50580E-02 3.71610E-02-9.65491E-01
 -1       270-1.94365E-01 1.92323E-01-9.64337E-01
 -1       271-3.98318E-02 3.15497E-02-9.61634E-01
 -1       272-1.87647E-01 1.86910E-01-1.49083E+00
 -1       273-2.32863E-01 9.21184E-02-1.98979E+00
 -1       274-2.48319E-01 9.25392E-02-1.47697E+00
 -1       275-2.56528E-01 9.49968E-02-9.55409E-01
 -1       276-2.58070E-01 9.64568E-02-3.87657E-01
 -1       277-2.57019E-01 9.62518E-02-3.94609E-01
 -1       278-4.59322E-02 2.03506E-02-3.95514E-01
 -1       279-2.56666E-01 9.47045E-02-9.48754E-01
 -1       280-2.34870E-01 9.24054E-02-1.99521E+00
 -1       281-2.49070E-01 9.28113E-02-1.48432E+00
 -1       282-4.47634E-02 2.05000E-02-1.48688E+00
 -1       283-4.31464E-02 2.40216E-02-1.48500E+00
 -1       284-2.50577E-01 9.34916E-02-1.48811E+00
 -1       285-4.72030E-02 1.99751E-02-9.57364E-01
 -1       286-2.56071E-01 9.47025E-02-9.59205E-01
 -1       287-2.56121E-01 9.45558E-02-9.45944E-01
 -1       288-4.83466E-02 1.62956E-02-9.50933E-01
 -1       289-4.92676E-02 1.51707E-02-9.44112E-01
 -1       290-2.49225E-01 9.27752E-02-1.47466E+00
 -1       291 0.00000E+00 0.00000E+00 0.00000E+00
 -1       292 0.00000E+00 0.00000E+00 0.00000E+00
 -1       293 0.00000E+00 0.00000E+00 0.00000E+00
 -1       294 0.00000E+00 0.00000E+00 0.00000E+00
 -1       295 0.00000E+00 0.00000E+00 0.00000E+00
 -1       296 0.00000E+00 0.00000E+00 0.00000E+00
 -1       297 0.00000E+00 0.00000E+00 0.00000E+00
 -1       298 0.00000E+00 0.00000E+00 0.00000E+00
 -1       299 0.00000E+00 0.00000E+00 0.00000E+00
 -1       300 0.00000E+00 0.00000E+00 0.00000E+00
 -1       301 0.00000E+00 0.00000E+00 0.00000E+00
 -1       302 0.00000E+00 0.00000E+00 0.00000E+00
 -1       303 0.00000E+00 0.00000E+00 0.00000E+00
 -1       304 0.00000E+00 0.00000E+00 0.00000E+00
 -1       305 0.00000E+00 0.00000E+00 0.00000E+00
 -1       306 0.00000E+00 0.00000E+00 0.00000E+00
 -1       307 0.00000E+00 0.00000E+00 0.00000E+00
 -1       308 0.00000E+00 0.00000E+00 0.00000E+00
 -1       309 0.00000E+00 0.00000E+00 0.00000E+00
 -1       310 0.00000E+00 0.00000E+00 0.00000E+00
 -1       311 0.00000E+00 0.00000E+00 0.00000E+00
 -1       312 0.00000E+00 0.00000E+00 0.00000E+00
 -1       313 0.00000E+00 0.00000E+00 0.00000E+00
 -1       314 0.00000E+00 0.00000E+00 0.00000E+00
 -1       315 4.60393E-02-1.66735E-02-9.44205E-01
 -1       316 0.00000E+00 0.00000E+00 0.00000E+00
 -1       317 4.57186E-02 1.65729E-02-9.25069E-01
 -1       318 4.90023E-02 2.24744E-03-9.30837E-01
 -1       319 4.91482E-02 4.04604E-03-9.24887E-01
 -1       320 4.65216E-02 2.02825E-03-3.66251E-01
 -1       321 0.00000E+00 0.00000E+00 0.00000E+00
 -1       322 4.81599E-02-3.73374E-04-3.69168E-01
 -1       323 4.28174E-02 1.72159E-02-3.72020E-01
 -1       324 0.00000E+00 0.00000E+00 0.00000E+00
 -1       325 0.00000E+00 0.00000E+00 0.00000E+00
 -1       326 0.00000E+00 0.00000E+00 0.00000E+00
 -1       327 4.48884E-02-1.32597E-02-1.46861E+00
 -1       328 4.79399E-02-4.63100E-03-9.31688E-01
 -1       329 4.22838E-02 2.01258E-02-3.71552E-01
 -1       330 4.38045E-02 2.39567E-02-9.23353E-01
 -1       331 3.37507E-02 3.07633E-02-3.71552E-01
 -1       332 0.00000E+00 0.00000E+00 0.00000E+00
 -1       333 1.98635E-02 4.67688E-02-9.25216E-01
 -1       334 2.21951E-02 4.60647E-02-9.24121E-01
 -1       335 3.78477E-02 3.29311E-02-9.23459E-01
 -1       336 1.74817E-02-3.92955E-02-3.77034E-01
 -1       337 2.22441E-02-4.36098E-02-9.32541E-01
 -1       338 3.06201E-02-3.90544E-02-9.35831E-01
 -1       339 4.08107E-02 1.10389E-02-1.97664E+00
 -1       340 4.07382E-02-9.53424E-03-1.98292E+00
 -1       341 4.14541E-02-5.48699E-03-1.98261E+00
 -1       342 4.69515E-02-4.13864E-03-1.46741E+00
 -1       343 4.70226E-02-1.25415E-03-1.47147E+00
 -1       344 3.27451E-02-2.57140E-02-1.98309E+00
 -1       345 3.57397E-02-3.08309E-02-1.47326E+00
 -1       346 3.56915E-02-2.07474E-02-1.98367E+00
 -1       347 4.12308E-02-2.36826E-02-1.47248E+00
 -1       348 1.78529E-02-4.40845E-02-1.46699E+00
 -1       349 2.08774E-02-3.77894E-02-1.97625E+00
 -1       350 5.71672E-03 4.29638E-02-1.97778E+00
 -1       351 2.02484E-02 4.48195E-02-1.46642E+00
 -1       352 2.53828E-02 3.57825E-02-1.97777E+00
 -1       353 3.22919E-02 3.66063E-02-1.46697E+00
 -1       354 3.37113E-02 2.72971E-02-1.97758E+00
 -1       355 3.59694E-02 3.18569E-02-1.46705E+00
 -1       356 4.04124E-02 2.64984E-02-1.45869E+00
 -1       357 4.73500E-02 3.93159E-03-1.46987E+00
 -1       358 4.56711E-02 1.39778E-02-1.46298E+00
 -1       359 1.05695E-02-4.12864E-02-1.97402E+00
 -1       360-9.49053E-03-4.23672E-02-1.97629E+00
 -1       361-6.79776E-03 4.31231E-02-1.98109E+00
 -1       362-5.32310E-03-4.29698E-02-1.97521E+00
 -1       363-8.24237E-04 4.98138E-02-1.47512E+00
 -1       364-1.28883E-02-4.63569E-02-1.45816E+00
 -1       365-2.28001E-03-4.79922E-02-1.46023E+00
 -1       366-1.94777E-02-4.69984E-02-9.18818E-01
 -1       367-3.77402E-02 2.24175E-02-1.98828E+00
 -1       368-3.49063E-02 2.66120E-02-1.98668E+00
 -1       369-2.15898E-02-4.35735E-02-1.46359E+00
 -1       370-2.47038E-02-4.16398E-02-1.45929E+00
 -1       371-3.42791E-02 3.81510E-02-9.60865E-01
 -1       372-4.68711E-02 1.25538E-02-1.47457E+00
 -1       373-4.58708E-02 1.64631E-02-1.48090E+00
 -1       374-4.23218E-02 6.84637E-03-1.98624E+00
 -1       375-3.73607E-02-2.15120E-02-1.98279E+00
 -1       376-4.13145E-02 1.18693E-02-1.98587E+00
 -1       377-4.89653E-02-4.23178E-03-9.35000E-01
 -1       378 0.00000E+00 0.00000E+00 0.00000E+00
 -1       379 0.00000E+00 0.00000E+00 0.00000E+00
 -1       380-1.47035E-02-4.82532E-02-9.15524E-01
 -1       381-1.90367E-02-4.74360E-02-9.19689E-01
 -1       382 2.15202E-03-5.01803E-02-9.22454E-01
 -1       383 1.29320E-02-4.65453E-02-1.45586E+00
 -1       384 4.55313E-03-4.91263E-02-9.20439E-01
 -1       385 1.64440E-02-4.64453E-02-9.32889E-01
 -1       386 0.00000E+00 0.00000E+00 0.00000E+00
 -1       387 0.00000E+00 0.00000E+00 0.00000E+00
 -1       388 0.00000E+00 0.00000E+00 0.00000E+00
 -1       389 3.38412E-02-3.63003E-02-3.93859E-01
 -1       390-4.19660E-02-1.69215E-02-3.83424E-01
 -1       391-3.13807E-02-3.25253E-02-3.62203E-01
 -1       392-3.69989E-02-3.45393E-02-9.25279E-01
 -1       393-3.51203E-02-3.56731E-02-9.28442E-01
 -1       394 0.00000E+00 0.00000E+00 0.00000E+00
 -1       395 0.00000E+00 0.00000E+00 0.00000E+00
 -1       396-4.76455E-02 1.73200E-02-3.89637E-01
 -1       397-4.83805E-02 2.21077E-03-3.74679E-01
 -1       398 0.00000E+00 0.00000E+00 0.00000E+00
 -1       399 0.00000E+00 0.00000E+00 0.00000E+00
 -1       400-5.04218E-02 4.96087E-03-9.38108E-01
 -1       401 0.00000E+00 0.00000E+00 0.00000E+00
 -1       402 0.00000E+00 0.00000E+00 0.00000E+00
 -1       403-4.68619E-02 2.07922E-02-9.55926E-01
 -1       404-1.88091E-02 4.82682E-02-3.92747E-01
 -1       405 0.00000E+00 0.00000E+00 0.00000E+00
 -1       406 0.00000E+00 0.00000E+00 0.00000E+00
 -1       407-1.63607E-02 4.91424E-02-9.56771E-01
 -1       408 1.59131E-03 4.70572E-02-3.81572E-01
 -1       409 1.67002E-03 5.10198E-02-9.39708E-01
 -1       410 0.00000E+00 0.00000E+00 0.00000E+00
 -1       411 7.58641E-03 5.02416E-02-9.25299E-01
 -1       412 1.69308E-02 4.77382E-02-9.19616E-01
 -1       413 1.53018E-02 4.38970E-02-3.55268E-01
 -1       414 1.90836E-02 4.71002E-02-9.23596E-01
 -1       415 4.45367E-03 4.86554E-02-3.75718E-01
 -1       416 3.49735E-02 3.67323E-02-9.30113E-01
 -1       417 0.00000E+00 0.00000E+00 0.00000E+00
 -1       418-4.70157E-02-1.62606E-02-9.35870E-01
 -1       419-4.77710E-02-5.26999E-03-1.46869E+00
 -1       420-4.63546E-02-1.28079E-02-1.46875E+00
 -1       421-4.32053E-02-6.23286E-03-1.98483E+00
 -1       422-4.28310E-02-1.01899E-02-1.98413E+00
 -1       423-2.89504E-02-3.93332E-02-1.45671E+00
 -1       424-2.23040E-02-4.63284E-02-9.16331E-01
 -1       425-3.45970E-02-2.52300E-02-1.98312E+00
 -1       426-3.52992E-02-3.27845E-02-1.46855E+00
 -1       427-4.12878E-02-2.60480E-02-1.46779E+00
 -1       428-2.48740E-02 3.60616E-02-1.98533E+00
 -1       429-2.01730E-02 3.85133E-02-1.98493E+00
 -1       430 0.00000E+00 0.00000E+00 0.00000E+00
 -1       431 0.00000E+00 0.00000E+00 0.00000E+00
 -1       432 0.00000E+00 0.00000E+00 0.00000E+00
 -1       433 0.00000E+00 0.00000E+00 0.00000E+00
 -1       434 0.00000E+00 0.00000E+00 0.00000E+00
 -1       435 0.00000E+00 0.00000E+00 0.00000E+00
 -1       436 0.00000E+00 0.00000E+00 0.00000E+00
 -1       437 0.00000E+00 0.00000E+00 0.00000E+00
 -1       438 0.00000E+00 0.00000E+00 0.00000E+00
 -1       439 0.00000E+00 0.00000E+00 0.00000E+00
 -1       440 0.00000E+00 0.00000E+00 0.00000E+00
 -1       441 0.00000E+00 0.00000E+00 0.00000E+00
 -1       442 0.00000E+00 0.00000E+00 0.00000E+00
 -1       443 0.00000E+00 0.00000E+00 0.00000E+00
 -1       444 0.00000E+00 0.00000E+00 0.00000E+00
 -1       445 0.00000E+00 0.00000E+00 0.00000E+00
 -1       446 0.00000E+00 0.00000E+00 0.00000E+00
 -1       447 0.00000E+00 0.00000E+00 0.00000E+00
 -1       448 0.00000E+00 0.00000E+00 0.00000E+00
 -1       449-1.50686E-01-1.35270E-03-1.99073E+00
 -1       450-1.50036E-01-1.65741E-03-1.99224E+00
 -1       451-2.57952E-01-1.82009E-03-1.73591E+00
 -1       452-2.57108E-01-2.21342E-03-1.73911E+00
 -1       453-2.71933E-01-2.01274E-03-1.20756E+00
 -1       454-2.72527E-01-1.93204E-03-1.21211E+00
 -1       455-2.76827E-01-3.07508E-04-6.53646E-01
 -1       456-2.76364E-01-1.89272E-04-6.54575E-01
 -1       457-1.60926E-01-3.07411E-04-3.74286E-01
 -1       458-1.62652E-01 1.91251E-04-3.73801E-01
 -1       459-5.11103E-02 3.13675E-04-6.54127E-01
 -1       460-1.62466E-01-8.79924E-04-9.38568E-01
 -1       461-1.58037E-01-5.29268E-04-1.47628E+00
 -1       462-4.78425E-02-2.83876E-03-1.74043E+00
 -1       463-4.77248E-02 2.92933E-03-1.74051E+00
 -1       464-1.58078E-01 3.86269E-04-1.47714E+00
 -1       465-1.62809E-01-2.60832E-04-9.40055E-01
 -1       466-5.05130E-02 1.57986E-03-6.53848E-01
 -1       467-1.58551E-01 9.07159E-04-1.47700E+00
 -1       468-1.57378E-01-1.28953E-03-1.47357E+00
 -1       469-1.62734E-01 1.11936E-04-9.40447E-01
 -1       470-1.62802E-01-1.30550E-03-9.37492E-01
 -1       471-4.94883E-02 4.19392E-03-1.21247E+00
 -1       472-4.90579E-02-2.88627E-03-1.21059E+00
 -1       473-1.39048E-01-5.55392E-02-1.98930E+00
 -1       474-1.38437E-01-5.55070E-02-1.98795E+00
 -1       475-2.50401E-01-1.06504E-01-6.57110E-01
 -1       476-2.49938E-01-1.07005E-01-6.55888E-01
 -1       477-2.51132E-01-1.02836E-01-1.20493E+00
 -1       478-2.48656E-01-1.04789E-01-1.20483E+00
 -1       479-2.39470E-01-9.55889E-02-1.73438E+00
 -1       480-2.38871E-01-9.48320E-02-1.73730E+00
 -1       481-1.44929E-01-6.30686E-02-3.81102E-01
 -1       482-1.45964E-01-6.28832E-02-3.82027E-01
 -1       483-4.47862E-02-2.10543E-02-6.56029E-01
 -1       484-1.47425E-01-6.27351E-02-9.36239E-01
 -1       485-1.45375E-01-5.95431E-02-1.47230E+00
 -1       486-4.27352E-02-1.99576E-02-1.73951E+00
 -1       487-4.54528E-02-1.50529E-02-1.73900E+00
 -1       488-1.46631E-01-5.90775E-02-1.47166E+00
 -1       489-1.48328E-01-6.24806E-02-9.37050E-01
 -1       490-4.59154E-02-1.87781E-02-6.57399E-01
 -1       491-1.46594E-01-5.84900E-02-1.47095E+00
 -1       492-1.45432E-01-6.03923E-02-1.47048E+00
 -1       493-1.48846E-01-6.24011E-02-9.37320E-01
 -1       494-1.47793E-01-6.28805E-02-9.36220E-01
 -1       495-4.60673E-02-1.67815E-02-1.20703E+00
 -1       496-4.30002E-02-2.12626E-02-1.20650E+00
 -1       497-1.04445E-01-1.09571E-01-1.98639E+00
 -1       498-1.03783E-01-1.09118E-01-1.98884E+00
 -1       499-1.91518E-01-1.99475E-01-6.39952E-01
 -1       500-1.91252E-01-1.99582E-01-6.37595E-01
 -1       501-1.89474E-01-1.97414E-01-1.20047E+00
 -1       502-1.88613E-01-1.98506E-01-1.19328E+00
 -1       503-1.80518E-01-1.86692E-01-1.73344E+00
 -1       504-1.80825E-01-1.86465E-01-1.73178E+00
 -1       505-1.10228E-01-1.17084E-01-3.59453E-01
 -1       506-1.11537E-01-1.17396E-01-3.61648E-01
 -1       507-3.37823E-02-3.80258E-02-6.37092E-01
 -1       508-1.12095E-01-1.18486E-01-9.23413E-01
 -1       509-1.09189E-01-1.15538E-01-1.46398E+00
 -1       510-3.21429E-02-3.51635E-02-1.73300E+00
 -1       511-1.10320E-01-1.14834E-01-1.46708E+00
 -1       512-3.64446E-02-3.07506E-02-1.73811E+00
 -1       513-1.12774E-01-1.18019E-01-9.27008E-01
 -1       514-3.66268E-02-3.54843E-02-6.41188E-01
 -1       515-1.10809E-01-1.15273E-01-1.46864E+00
 -1       516-1.08439E-01-1.15548E-01-1.46054E+00
 -1       517-1.12809E-01-1.18415E-01-9.28849E-01
 -1       518-1.11995E-01-1.18862E-01-9.21195E-01
 -1       519-3.50510E-02-3.40671E-02-1.20303E+00
 -1       520-3.13099E-02-3.79355E-02-1.19410E+00
 -1       521-5.50872E-02-1.40976E-01-1.98273E+00
 -1       522-5.42023E-02-1.39659E-01-1.98424E+00
 -1       523-1.04894E-01-2.54683E-01-1.19069E+00
 -1       524-1.07065E-01-2.58113E-01-6.29887E-01
 -1       525-1.06723E-01-2.58394E-01-6.30120E-01
 -1       526-9.73612E-02-2.39918E-01-1.72665E+00
 -1       527-9.81241E-02-2.42000E-01-1.72722E+00
 -1       528-1.06947E-01-2.53442E-01-1.19089E+00
 -1       529-6.20623E-02-1.51806E-01-3.48781E-01
 -1       530-6.17478E-02-1.51973E-01-3.48062E-01
 -1       531-1.90707E-02-4.82621E-02-6.30172E-01
 -1       532-6.28413E-02-1.52100E-01-9.18186E-01
 -1       533-6.14914E-02-1.47276E-01-1.46155E+00
 -1       534-1.22888E-02-4.59566E-02-1.73006E+00
 -1       535-6.26622E-02-1.46904E-01-1.46180E+00
 -1       536-1.97976E-02-4.39705E-02-1.73092E+00
 -1       537-6.29188E-02-1.51677E-01-9.17967E-01
 -1       538-2.10041E-02-4.77774E-02-6.29957E-01
 -1       539-6.34271E-02-1.47220E-01-1.46105E+00
 -1       540-6.09555E-02-1.47749E-01-1.46032E+00
 -1       541-6.33966E-02-1.51948E-01-9.17502E-01
 -1       542-6.28922E-02-1.51981E-01-9.18525E-01
 -1       543-2.24589E-02-4.43209E-02-1.19283E+00
 -1       544-1.68763E-02-4.64794E-02-1.19328E+00
 -1       545-2.39183E-06-1.50532E-01-1.97987E+00
 -1       546 3.38745E-04-1.49502E-01-1.97912E+00
 -1       547 7.52609E-04-2.72544E-01-1.19086E+00
 -1       548-6.37828E-03-2.75876E-01-6.32368E-01
 -1       549-6.10591E-03-2.76647E-01-6.36594E-01
 -1       550-2.52683E-03-2.58542E-01-1.72137E+00
 -1       551-2.86456E-03-2.58560E-01-1.72447E+00
 -1       552-2.47928E-04-2.72212E-01-1.19205E+00
 -1       553-6.12643E-03-1.60229E-01-3.52679E-01
 -1       554-5.25303E-03-1.61223E-01-3.57569E-01
 -1       555 1.09842E-04-5.05341E-02-6.36251E-01
 -1       556-1.48154E-04-1.62446E-01-9.21135E-01
 -1       557 3.13658E-04-1.58382E-01-1.45913E+00
 -1       558 2.37740E-03-4.67714E-02-1.72581E+00
 -1       559-8.76260E-04-1.58379E-01-1.45855E+00
 -1       560-2.71942E-03-4.71890E-02-1.72491E+00
 -1       561-1.18855E-03-1.62296E-01-9.20389E-01
 -1       562-3.26966E-03-5.03308E-02-6.32780E-01
 -1       563-1.00785E-03-1.58727E-01-1.45891E+00
 -1       564 3.66924E-04-1.58004E-01-1.45953E+00
 -1       565-1.65211E-03-1.62391E-01-9.19557E-01
 -1       566 2.48904E-04-1.62195E-01-9.21618E-01
 -1       567-2.95237E-03-4.88643E-02-1.19330E+00
 -1       568 2.31996E-03-4.89821E-02-1.19341E+00
 -1       569 5.28229E-02-1.38843E-01-1.98221E+00
 -1       570 5.29829E-02-1.38655E-01-1.97786E+00
 -1       571 9.63388E-02-2.51956E-01-1.19446E+00
 -1       572 9.00184E-02-2.40039E-01-1.72371E+00
 -1       573 8.95113E-02-2.39248E-01-1.72975E+00
 -1       574 9.72508E-02-2.54653E-01-6.49597E-01
 -1       575 9.78712E-02-2.53942E-01-6.53709E-01
 -1       576 9.80748E-02-2.49884E-01-1.20156E+00
 -1       577 5.80473E-02-1.48160E-01-3.74717E-01
 -1       578 5.81444E-02-1.46293E-01-3.77093E-01
 -1       579 1.87596E-02-4.60337E-02-6.54258E-01
 -1       580 5.89367E-02-1.48320E-01-9.34726E-01
 -1       581 5.60496E-02-1.46443E-01-1.46527E+00
 -1       582 1.84198E-02-4.29888E-02-1.73215E+00
 -1       583 5.49101E-02-1.46444E-01-1.46254E+00
 -1       584 1.09653E-02-4.51688E-02-1.72878E+00
 -1       585 5.77528E-02-1.49219E-01-9.30698E-01
 -1       586 1.60097E-02-4.73745E-02-6.50019E-01
 -1       587 5.45690E-02-1.46968E-01-1.46010E+00
 -1       588 5.62320E-02-1.46400E-01-1.46664E+00
 -1       589 5.81532E-02-1.49793E-01-9.28534E-01
 -1       590 5.93540E-02-1.48038E-01-9.35860E-01
 -1       591 1.47333E-02-4.62728E-02-1.19690E+00
 -1       592 2.05787E-02-4.30107E-02-1.20338E+00
 -1       593 1.01000E-01-1.08081E-01-1.98311E+00
 -1       594 1.00115E-01-1.07561E-01-1.98703E+00
 -1       595 1.87477E-01-1.95132E-01-6.62855E-01
 -1       596 1.87256E-01-1.94576E-01-6.65657E-01
 -1       597 1.84438E-01-1.94188E-01-1.20491E+00
 -1       598 1.85043E-01-1.93789E-01-1.21293E+00
 -1       599 1.75259E-01-1.84711E-01-1.73070E+00
 -1       600 1.74589E-01-1.84297E-01-1.73531E+00
 -1       601 1.11302E-01-1.13330E-01-3.91726E-01
 -1       602 1.10773E-01-1.11917E-01-3.93827E-01
 -1       603 3.48499E-02-3.60517E-02-6.64923E-01
 -1       604 1.10554E-01-1.14741E-01-9.44359E-01
 -1       605 1.07495E-01-1.12836E-01-1.47304E+00
 -1       606 3.31734E-02-3.21227E-02-1.73760E+00
 -1       607 1.07225E-01-1.13301E-01-1.47037E+00
 -1       608 2.86818E-02-3.67057E-02-1.73484E+00
 -1       609 1.09565E-01-1.15485E-01-9.41528E-01
 -1       610 3.25401E-02-3.78113E-02-6.63878E-01
 -1       611 1.07366E-01-1.14239E-01-1.46791E+00
 -1       612 1.07774E-01-1.12440E-01-1.47413E+00
 -1       613 1.09416E-01-1.16073E-01-9.39181E-01
 -1       614 1.10733E-01-1.15026E-01-9.46654E-01
 -1       615 3.16526E-02-3.63724E-02-1.20776E+00
 -1       616 3.51878E-02-3.22918E-02-1.21368E+00
 -1       617 1.36592E-01-5.42405E-02-1.99000E+00
 -1       618 1.36563E-01-5.45322E-02-1.98688E+00
 -1       619 2.53977E-01-1.02115E-01-6.61302E-01
 -1       620 2.54614E-01-1.02077E-01-6.59650E-01
 -1       621 2.48845E-01-1.02002E-01-1.21034E+00
 -1       622 2.50174E-01-9.92372E-02-1.20766E+00
 -1       623 2.35432E-01-9.42334E-02-1.73573E+00
 -1       624 2.36822E-01-9.48301E-02-1.73566E+00
 -1       625 1.48740E-01-6.05271E-02-3.83249E-01
 -1       626 1.49690E-01-6.03503E-02-3.80738E-01
 -1       627 4.68394E-02-1.74802E-02-6.59274E-01
 -1       628 1.48888E-01-5.93353E-02-9.42254E-01
 -1       629 1.44761E-01-5.86098E-02-1.47406E+00
 -1       630 4.38732E-02-1.28916E-02-1.73835E+00
 -1       631 4.22735E-02-1.99499E-02-1.74015E+00
 -1       632 1.44094E-01-5.91204E-02-1.47604E+00
 -1       633 1.48425E-01-6.01317E-02-9.44451E-01
 -1       634 4.57155E-02-1.91204E-02-6.61719E-01
 -1       635 1.44514E-01-5.98507E-02-1.47552E+00
 -1       636 1.45081E-01-5.79065E-02-1.47219E+00
 -1       637 1.48307E-01-6.06293E-02-9.44903E-01
 -1       638 1.48637E-01-5.93548E-02-9.41005E-01
 -1       639 4.28677E-02-2.20839E-02-1.21299E+00
 -1       640 4.57034E-02-1.41137E-02-1.20974E+00
 -1       641 1.47531E-01 4.53946E-03-1.98703E+00
 -1       642 1.48060E-01 4.15541E-03-1.98311E+00
 -1       643 2.75020E-01 3.62520E-03-6.46393E-01
 -1       644 2.74962E-01 3.81976E-03-6.44940E-01
 -1       645 2.70880E-01 2.53368E-03-1.20265E+00
 -1       646 2.72001E-01 3.52578E-03-1.19977E+00
 -1       647 2.55896E-01 5.56778E-03-1.73201E+00
 -1       648 2.56173E-01 4.90372E-03-1.73098E+00
 -1       649 1.61114E-01 2.86936E-03-3.67606E-01
 -1       650 1.59279E-01 3.43842E-03-3.65447E-01
 -1       651 4.96494E-02 2.40828E-03-6.43726E-01
 -1       652 1.61353E-01 2.80908E-03-9.29629E-01
 -1       653 1.57355E-01 3.39526E-03-1.46744E+00
 -1       654 4.54780E-02 4.23178E-03-1.73270E+00
 -1       655 4.61868E-02-4.77082E-04-1.73562E+00
 -1       656 1.56752E-01 2.74143E-03-1.47001E+00
 -1       657 1.61396E-01 1.90689E-03-9.32261E-01
 -1       658 4.91750E-02-5.79330E-04-6.46712E-01
 -1       659 1.57060E-01 2.71216E-03-1.47083E+00
 -1       660 1.57820E-01 3.42574E-03-1.46591E+00
 -1       661 1.61098E-01 1.37014E-03-9.33167E-01
 -1       662 1.61378E-01 3.19041E-03-9.28181E-01
 -1       663 4.76988E-02-2.75204E-03-1.20517E+00
 -1       664 4.82315E-02 4.14179E-03-1.20017E+00
 -1       665 1.38118E-01 5.86267E-02-1.98269E+00
 -1       666 1.37249E-01 5.80917E-02-1.98158E+00
 -1       667 2.35768E-01 1.02103E-01-1.72615E+00
 -1       668 2.36989E-01 1.02868E-01-1.72891E+00
 -1       669 2.48541E-01 1.07218E-01-1.19584E+00
 -1       670 2.50025E-01 1.05628E-01-1.19738E+00
 -1       671 2.51561E-01 1.05735E-01-6.45556E-01
 -1       672 2.51822E-01 1.05334E-01-6.45706E-01
 -1       673 1.46350E-01 6.14218E-02-3.71029E-01
 -1       674 1.45736E-01 6.21621E-02-3.70376E-01
 -1       675 4.56485E-02 2.16081E-02-6.46499E-01
 -1       676 1.47760E-01 6.39839E-02-9.28207E-01
 -1       677 1.44688E-01 6.36667E-02-1.46289E+00
 -1       678 4.15185E-02 2.30262E-02-1.73043E+00
 -1       679 4.35677E-02 1.65525E-02-1.73139E+00
 -1       680 1.44822E-01 6.23832E-02-1.46406E+00
 -1       681 1.48299E-01 6.30218E-02-9.28359E-01
 -1       682 4.56747E-02 1.88295E-02-6.45367E-01
 -1       683 1.44607E-01 6.18094E-02-1.46381E+00
 -1       684 1.44628E-01 6.42765E-02-1.46095E+00
 -1       685 1.48434E-01 6.25668E-02-9.28022E-01
 -1       686 1.47788E-01 6.45143E-02-9.27200E-01
 -1       687 4.53018E-02 1.79638E-02-1.19917E+00
 -1       688 4.33940E-02 2.21779E-02-1.19838E+00
 -1       689 1.04923E-01 1.06423E-01-1.98269E+00
 -1       690 1.05223E-01 1.06206E-01-1.98284E+00
 -1       691 1.81669E-01 1.82706E-01-1.72825E+00
 -1       692 1.81617E-01 1.83257E-01-1.73033E+00
 -1       693 1.92415E-01 1.93087E-01-1.19821E+00
 -1       694 1.93122E-01 1.91798E-01-1.19617E+00
 -1       695 1.95155E-01 1.92322E-01-6.46469E-01
 -1       696 1.95216E-01 1.91864E-01-6.45126E-01
 -1       697 1.14429E-01 1.11048E-01-3.70472E-01
 -1       698 1.14585E-01 1.12280E-01-3.72966E-01
 -1       699 1.14505E-01 1.14706E-01-9.28444E-01
 -1       700 3.66931E-02 3.66562E-02-6.46826E-01
 -1       701 1.11362E-01 1.12842E-01-1.46562E+00
 -1       702 3.08631E-02 3.62777E-02-1.73261E+00
 -1       703 3.56504E-02 3.13692E-02-1.73272E+00
 -1       704 1.11982E-01 1.11716E-01-1.46445E+00
 -1       705 1.15226E-01 1.14072E-01-9.27227E-01
 -1       706 3.72976E-02 3.53925E-02-6.44378E-01
 -1       707 1.12392E-01 1.11791E-01-1.46394E+00
 -1       708 1.11887E-01 1.13292E-01-1.46614E+00
 -1       709 1.15622E-01 1.13829E-01-9.25955E-01
 -1       710 1.15012E-01 1.14868E-01-9.29142E-01
 -1       711 3.59292E-02 3.36639E-02-1.19729E+00
 -1       712 3.11821E-02 3.85270E-02-1.20111E+00
 -1       713 5.48261E-02 1.40493E-01-1.98258E+00
 -1       714 5.41683E-02 1.39822E-01-1.98320E+00
 -1       715 1.03946E-01 2.53729E-01-1.19547E+00
 -1       716 9.62790E-02 2.41001E-01-1.72814E+00
 -1       717 9.56353E-02 2.39800E-01-1.73034E+00
 -1       718 1.02992E-01 2.58764E-01-6.34157E-01
 -1       719 1.03410E-01 2.58889E-01-6.36087E-01
 -1       720 1.01777E-01 2.55266E-01-1.19414E+00
 -1       721 6.01716E-02 1.50749E-01-3.56003E-01
 -1       722 5.99476E-02 1.51443E-01-3.53657E-01
 -1       723 6.09742E-02 1.52075E-01-9.22544E-01
 -1       724 1.79398E-02 4.82639E-02-6.34002E-01
 -1       725 5.96700E-02 1.48436E-01-1.46404E+00
 -1       726 1.28951E-02 4.59399E-02-1.73305E+00
 -1       727 2.00033E-02 4.47058E-02-1.73282E+00
 -1       728 6.02315E-02 1.47288E-01-1.46465E+00
 -1       729 6.13199E-02 1.51610E-01-9.23995E-01
 -1       730 1.95433E-02 4.78273E-02-6.36265E-01
 -1       731 6.05961E-02 1.48207E-01-1.46449E+00
 -1       732 5.88690E-02 1.48055E-01-1.46216E+00
 -1       733 6.17475E-02 1.51702E-01-9.24471E-01
 -1       734 6.12825E-02 1.52263E-01-9.22083E-01
 -1       735 2.04960E-02 4.56573E-02-1.19833E+00
 -1       736 1.48566E-02 4.74323E-02-1.19612E+00
 -1       737 3.49418E-03 1.50796E-01-1.98748E+00
 -1       738 3.27514E-03 1.50507E-01-1.98220E+00
 -1       739 1.21809E-02 2.71530E-01-1.19689E+00
 -1       740 7.45836E-03 2.58198E-01-1.73408E+00
 -1       741 7.40885E-03 2.57483E-01-1.73013E+00
 -1       742 1.22318E-02 2.74615E-01-6.55204E-01
 -1       743 1.25898E-02 2.74647E-01-6.48846E-01
 -1       744 1.18884E-02 2.73170E-01-1.21231E+00
 -1       745 7.04050E-03 1.61434E-01-3.73817E-01
 -1       746 6.44648E-03 1.59838E-01-3.81329E-01
 -1       747 7.55260E-03 1.62981E-01-9.38199E-01
 -1       748 1.64316E-03 5.20555E-02-6.56099E-01
 -1       749 3.43858E-03 1.58550E-01-1.47321E+00
 -1       750-1.93242E-03 4.87015E-02-1.73795E+00
 -1       751 3.31165E-03 4.80592E-02-1.73223E+00
 -1       752 4.89709E-03 1.58196E-01-1.46745E+00
 -1       753 8.28895E-03 1.62588E-01-9.31577E-01
 -1       754 3.82023E-03 5.20142E-02-6.48621E-01
 -1       755 5.59625E-03 1.58051E-01-1.46378E+00
 -1       756 3.64629E-03 1.59626E-01-1.47668E+00
 -1       757 8.66802E-03 1.62471E-01-9.27930E-01
 -1       758 7.68301E-03 1.63572E-01-9.42143E-01
 -1       759 6.23540E-03 4.92798E-02-1.20021E+00
 -1       760-2.36441E-03 5.03679E-02-1.21227E+00
 -1       761-5.03693E-02 1.38261E-01-1.99237E+00
 -1       762-5.08563E-02 1.38121E-01-1.98460E+00
 -1       763-9.41595E-02 2.52066E-01-1.22751E+00
 -1       764-9.96331E-02 2.59596E-01-6.76038E-01
 -1       765-1.00136E-01 2.60248E-01-6.72764E-01
 -1       766-8.61611E-02 2.37659E-01-1.74484E+00
 -1       767-8.71868E-02 2.38603E-01-1.73906E+00
 -1       768-9.39030E-02 2.53660E-01-1.21728E+00
 -1       769-5.91420E-02 1.54029E-01-3.90451E-01
 -1       770-5.95282E-02 1.53878E-01-3.92728E-01
 -1       771-5.73900E-02 1.51822E-01-9.60385E-01
 -1       772-1.93311E-02 4.91320E-02-6.77174E-01
 -1       773-5.44974E-02 1.47794E-01-1.48802E+00
 -1       774-1.99090E-02 4.49284E-02-1.74930E+00
 -1       775-1.41570E-02 4.62305E-02-1.74177E+00
 -1       776-5.32490E-02 1.47649E-01-1.48277E+00
 -1       777-5.69656E-02 1.52604E-01-9.55198E-01
 -1       778-1.75452E-02 5.03842E-02-6.72666E-01
 -1       779-5.30958E-02 1.48703E-01-1.47949E+00
 -1       780-5.45088E-02 1.47611E-01-1.49056E+00
 -1       781-5.68745E-02 1.52477E-01-9.52525E-01
 -1       782-5.76229E-02 1.51372E-01-9.62305E-01
 -1       783-1.49554E-02 4.84106E-02-1.21877E+00
 -1       784-1.91940E-02 4.58858E-02-1.23059E+00
 -1       785-1.00417E-01 1.05688E-01-1.99158E+00
 -1       786-1.01724E-01 1.06502E-01-1.99104E+00
 -1       787-1.78038E-01 1.77977E-01-1.74637E+00
 -1       788-1.78616E-01 1.78320E-01-1.74790E+00
 -1       789-1.90539E-01 1.89815E-01-1.22814E+00
 -1       790-1.91080E-01 1.90065E-01-1.23219E+00
 -1       791-1.98155E-01 1.95535E-01-6.78802E-01
 -1       792-1.98219E-01 1.95508E-01-6.80538E-01
 -1       793-1.17381E-01 1.16452E-01-3.96162E-01
 -1       794-1.17243E-01 1.16541E-01-3.97104E-01
 -1       795-3.76047E-02 3.58255E-02-6.79512E-01
 -1       796-1.14936E-01 1.13763E-01-9.63556E-01
 -1       797-1.11090E-01 1.11147E-01-1.49083E+00
 -1       798-3.70418E-02 3.11921E-02-1.75113E+00
 -1       799-3.16384E-02 3.70712E-02-1.74967E+00
 -1       800-1.10392E-01 1.11103E-01-1.49173E+00
 -1       801-1.14858E-01 1.14684E-01-9.64252E-01
 -1       802-3.66909E-02 3.78186E-02-6.80856E-01
 -1       803-1.10266E-01 1.11624E-01-1.49143E+00
 -1       804-1.11272E-01 1.11272E-01-1.49009E+00
 -1       805-1.14646E-01 1.15035E-01-9.64325E-01
 -1       806-1.15225E-01 1.13365E-01-9.62943E-01
 -1       807-3.18907E-02 3.87816E-02-1.23264E+00
 -1       808-3.58428E-02 3.49692E-02-1.23072E+00
 -1       809-1.36890E-01 5.57732E-02-1.98988E+00
 -1       810-1.39434E-01 5.62454E-02-1.99399E+00
 -1       811-2.38807E-01 9.03508E-02-1.73931E+00
 -1       812-2.39670E-01 9.01765E-02-1.74562E+00
 -1       813-2.54030E-01 9.33151E-02-1.21245E+00
 -1       814-2.52890E-01 9.46187E-02-1.22579E+00
 -1       815-2.59280E-01 9.54615E-02-6.66301E-01
 -1       816-2.58787E-01 9.57820E-02-6.73465E-01
 -1       817-1.52506E-01 5.74772E-02-3.87969E-01
 -1       818-1.51436E-01 5.76352E-02-3.94694E-01
 -1       819-4.92165E-02 1.75265E-02-6.66409E-01
 -1       820-1.52218E-01 5.63189E-02-9.49518E-01
 -1       821-1.47192E-01 5.53126E-02-1.47915E+00
 -1       822-4.55980E-02 1.44372E-02-1.74377E+00
 -1       823-4.31148E-02 2.09431E-02-1.74703E+00
 -1       824-1.47135E-01 5.67936E-02-1.48581E+00
 -1       825-1.51783E-01 5.72410E-02-9.56326E-01
 -1       826-4.78151E-02 1.99001E-02-6.74153E-01
 -1       827-1.47490E-01 5.75242E-02-1.48811E+00
 -1       828-1.47229E-01 5.50540E-02-1.47609E+00
 -1       829-1.51537E-01 5.75458E-02-9.59220E-01
 -1       830-1.52334E-01 5.58816E-02-9.46172E-01
 -1       831-4.58005E-02 1.95765E-02-1.22767E+00
 -1       832-4.72168E-02 1.57157E-02-1.21509E+00
 -1       833 0.00000E+00 0.00000E+00 0.00000E+00
 -1       834 0.00000E+00 0.00000E+00 0.00000E+00
 -1       835 0.00000E+00 0.00000E+00 0.00000E+00
 -1       836 0.00000E+00 0.00000E+00 0.00000E+00
 -1       837 0.00000E+00 0.00000E+00 0.00000E+00
 -1       838 0.00000E+00 0.00000E+00 0.00000E+00
 -1       839 0.00000E+00 0.00000E+00 0.00000E+00
 -1       840 0.00000E+00 0.00000E+00 0.00000E+00
 -1       841 0.00000E+00 0.00000E+00 0.00000E+00
 -1       842 0.00000E+00 0.00000E+00 0.00000E+00
 -1       843 0.00000E+00 0.00000E+00 0.00000E+00
 -1       844 0.00000E+00 0.00000E+00 0.00000E+00
 -1       845 0.00000E+00 0.00000E+00 0.00000E+00
 -1       846 0.00000E+00 0.00000E+00 0.00000E+00
 -1       847 0.00000E+00 0.00000E+00 0.00000E+00
 -1       848 0.00000E+00 0.00000E+00 0.00000E+00
 -1       849 0.00000E+00 0.00000E+00 0.00000E+00
 -1       850 0.00000E+00 0.00000E+00 0.00000E+00
 -1       851 0.00000E+00 0.00000E+00 0.00000E+00
 -1       852 0.00000E+00 0.00000E+00 0.00000E+00
 -1       853 0.00000E+00 0.00000E+00 0.00000E+00
 -1       854 0.00000E+00 0.00000E+00 0.00000E+00
 -1       855 0.00000E+00 0.00000E+00 0.00000E+00
 -1       856 0.00000E+00 0.00000E+00 0.00000E+00
 -1       857 0.00000E+00 0.00000E+00 0.00000E+00
 -1       858 0.00000E+00 0.00000E+00 0.00000E+00
 -1       859 0.00000E+00 0.00000E+00 0.00000E+00
 -1       860 0.00000E+00 0.00000E+00 0.00000E+00
 -1       861 0.00000E+00 0.00000E+00 0.00000E+00
 -1       862 0.00000E+00 0.00000E+00 0.00000E+00
 -1       863 0.00000E+00 0.00000E+00 0.00000E+00
 -1       864 0.00000E+00 0.00000E+00 0.00000E+00
 -1       865 0.00000E+00 0.00000E+00 0.00000E+00
 -1       866 0.00000E+00 0.00000E+00 0.00000E+00
 -1       867 0.00000E+00 0.00000E+00 0.00000E+00
 -1       868 0.00000E+00 0.00000E+00 0.00000E+00
 -1       869 0.00000E+00 0.00000E+00 0.00000E+00
 -1       870 0.00000E+00 0.00000E+00 0.00000E+00
 -1       871 0.00000E+00 0.00000E+00 0.00000E+00
 -1       872 0.00000E+00 0.00000E+00 0.00000E+00
 -1       873 0.00000E+00 0.00000E+00 0.00000E+00
 -1       874 0.00000E+00 0.00000E+00 0.00000E+00
 -1       875 0.00000E+00 0.00000E+00 0.00000E+00
 -1       876 0.00000E+00 0.00000E+00 0.00000E+00
 -1       877 0.00000E+00 0.00000E+00 0.00000E+00
 -1       878 0.00000E+00 0.00000E+00 0.00000E+00
 -1       879 0.00000E+00 0.00000E+00 0.00000E+00
 -1       880 0.00000E+00 0.00000E+00 0.00000E+00
 -1       881 0.00000E+00 0.00000E+00 0.00000E+00
 -1       882 0.00000E+00 0.00000E+00 0.00000E+00
 -1       883 0.00000E+00 0.00000E+00 0.00000E+00
 -1       884 0.00000E+00 0.00000E+00 0.00000E+00
 -1       885 0.00000E+00 0.00000E+00 0.00000E+00
 -1       886 0.00000E+00 0.00000E+00 0.00000E+00
 -1       887 0.00000E+00 0.00000E+00 0.00000E+00
 -1       888 0.00000E+00 0.00000E+00 0.00000E+00
 -1       889 0.00000E+00 0.00000E+00 0.00000E+00
 -1       890 0.00000E+00 0.00000E+00 0.00000E+00
 -1       891 0.00000E+00 0.00000E+00 0.00000E+00
 -1       892 0.00000E+00 0.00000E+00 0.00000E+00
 -1       893 0.00000E+00 0.00000E+00 0.00000E+00
 -1       894 0.00000E+00 0.00000E+00 0.00000E+00
 -1       895 0.00000E+00 0.00000E+00 0.00000E+00
 -1       896 0.00000E+00 0.00000E+00 0.00000E+00
 -1       897-2.61176E-01-1.52518E-03-1.60570E+00
 -1       898-2.55295E-01-2.45462E-03-1.86284E+00
 -1       899-2.61685E-01-1.91898E-03-1.60918E+00
 -1       900-2.70422E-01-2.16801E-03-1.34103E+00
 -1       901-2.76488E-01-1.10642E-03-7.95694E-01
 -1       902-2.75689E-01 1.26447E-03-5.13079E-01
 -1       903-5.09319E-02-3.00253E-04-7.96743E-01
 -1       904-4.58908E-02-4.57440E-03-1.86670E+00
 -1       905-4.87690E-02 2.95642E-03-1.61212E+00
 -1       906-5.02804E-02 2.10714E-03-5.12652E-01
 -1       907-5.02709E-02 2.37689E-03-1.07764E+00
 -1       908-4.97250E-02-3.02674E-03-1.07565E+00
 -1       909-4.81830E-02-4.56869E-03-1.34461E+00
 -1       910-2.42672E-01-9.75176E-02-1.60292E+00
 -1       911-2.36121E-01-9.39511E-02-1.86213E+00
 -1       912-4.49839E-02-2.10460E-02-7.97056E-01
 -1       913-4.14838E-02-2.12441E-02-1.86516E+00
 -1       914-4.53635E-02-1.69870E-02-1.60740E+00
 -1       915-4.47102E-02-1.86541E-02-5.17935E-01
 -1       916-4.64911E-02-1.64156E-02-1.07305E+00
 -1       917-4.35965E-02-2.19002E-02-1.07222E+00
 -1       918-4.34935E-02-1.92405E-02-1.34028E+00
 -1       919-1.88810E-01-2.00118E-01-1.05693E+00
 -1       920-1.86220E-01-1.98210E-01-1.32731E+00
 -1       921-1.82985E-01-1.90301E-01-1.60141E+00
 -1       922-1.78039E-01-1.84808E-01-1.85828E+00
 -1       923-3.38836E-02-3.80282E-02-7.80120E-01
 -1       924-2.77982E-02-3.83058E-02-1.86131E+00
 -1       925-3.56303E-02-3.24746E-02-1.60688E+00
 -1       926-3.51199E-02-3.59771E-02-4.99219E-01
 -1       927-3.51041E-02-3.39894E-02-1.33664E+00
 -1       928-3.59728E-02-3.40785E-02-1.06686E+00
 -1       929-3.27021E-02-3.78925E-02-1.05889E+00
 -1       930-2.99496E-02-3.80089E-02-1.32956E+00
 -1       931-1.03705E-01-2.52853E-01-1.32590E+00
 -1       932-1.06632E-01-2.58153E-01-7.73448E-01
 -1       933-9.59937E-02-2.38862E-01-1.85412E+00
 -1       934-1.05095E-01-2.52288E-01-1.32674E+00
 -1       935-1.07560E-01-2.55122E-01-1.05416E+00
 -1       936-1.83542E-02-4.80045E-02-4.87372E-01
 -1       937-1.95586E-02-4.78070E-02-7.74577E-01
 -1       938-1.53508E-02-4.44449E-02-1.85724E+00
 -1       939-1.96691E-02-4.39028E-02-1.59980E+00
 -1       940-1.96519E-02-4.72224E-02-4.87627E-01
 -1       941-2.17875E-02-4.58237E-02-1.05640E+00
 -1       942-1.65434E-02-4.72157E-02-1.05606E+00
 -1       943-1.69516E-02-4.53336E-02-1.32866E+00
 -1       944 6.50028E-04-2.71275E-01-1.32442E+00
 -1       945-1.84284E-03-2.62689E-01-1.59076E+00
 -1       946-2.07578E-03-2.55880E-01-1.85108E+00
 -1       947-2.04458E-03-2.73888E-01-1.05545E+00
 -1       948-1.87971E-04-5.04193E-02-7.79022E-01
 -1       949 3.29583E-03-4.65979E-02-1.85327E+00
 -1       950-2.96103E-03-4.74041E-02-1.59573E+00
 -1       951-2.24369E-03-4.92283E-02-4.89515E-01
 -1       952-3.77134E-03-4.81952E-02-1.32640E+00
 -1       953-2.70925E-03-4.97804E-02-1.05746E+00
 -1       954 2.57877E-03-4.94277E-02-1.05781E+00
 -1       955 4.73945E-03-4.78111E-02-1.32712E+00
 -1       956 9.67297E-02-2.52326E-01-1.06115E+00
 -1       957 9.83220E-02-2.50938E-01-1.06907E+00
 -1       958 9.69078E-02-2.49349E-01-1.33339E+00
 -1       959 1.87451E-02-4.63364E-02-7.96167E-01
 -1       960 2.18124E-02-4.04154E-02-1.85775E+00
 -1       961 1.50821E-02-4.51905E-02-1.59822E+00
 -1       962 1.59261E-02-4.69832E-02-5.09877E-01
 -1       963 1.24541E-02-4.63190E-02-1.32965E+00
 -1       964 1.44985E-02-4.66033E-02-1.06331E+00
 -1       965 2.08675E-02-4.37187E-02-1.07002E+00
 -1       966 1.92443E-02-4.35954E-02-1.33580E+00
 -1       967 1.84599E-01-1.95130E-01-1.07160E+00
 -1       968 1.73006E-01-1.83109E-01-1.85672E+00
 -1       969 1.78171E-01-1.87434E-01-1.60169E+00
 -1       970 1.72288E-01-1.82739E-01-1.86047E+00
 -1       971 3.41900E-02-3.52247E-02-5.26963E-01
 -1       972 3.40752E-02-3.63974E-02-8.05850E-01
 -1       973 3.44231E-02-2.98081E-02-1.86497E+00
 -1       974 2.98168E-02-3.59750E-02-1.60614E+00
 -1       975 3.37359E-02-3.72294E-02-5.25687E-01
 -1       976 3.14319E-02-3.62458E-02-1.33822E+00
 -1       977 3.00011E-02-3.79193E-02-1.07434E+00
 -1       978 3.64759E-02-3.26194E-02-1.08097E+00
 -1       979 3.46553E-02-3.18041E-02-1.34468E+00
 -1       980 2.53735E-01-1.01326E-01-8.01318E-01
 -1       981 2.50073E-01-1.02302E-01-1.07764E+00
 -1       982 2.33795E-01-9.27442E-02-1.86246E+00
 -1       983 2.39255E-01-9.69750E-02-1.60659E+00
 -1       984 2.33800E-01-9.28857E-02-1.86008E+00
 -1       985 4.70606E-02-1.66226E-02-8.03630E-01
 -1       986 4.32545E-02-1.29171E-02-1.86365E+00
 -1       987 4.30590E-02-1.89334E-02-1.61068E+00
 -1       988 4.54255E-02-1.94489E-02-5.21446E-01
 -1       989 4.30676E-02-1.97638E-02-1.34519E+00
 -1       990 4.41019E-02-2.13661E-02-1.07950E+00
 -1       991 4.57653E-02-1.61764E-02-1.07543E+00
 -1       992 4.45246E-02-1.47327E-02-1.34207E+00
 -1       993 2.72238E-01 2.91378E-03-1.06756E+00
 -1       994 2.53199E-01 6.23105E-03-1.85850E+00
 -1       995 2.60207E-01 5.54533E-03-1.60167E+00
 -1       996 2.52726E-01 5.85518E-03-1.85587E+00
 -1       997 4.77946E-02 8.40452E-04-5.03077E-01
 -1       998 4.95056E-02 2.13381E-03-7.86994E-01
 -1       999 4.57788E-02 5.17904E-03-1.85784E+00
 -1      1000 4.66742E-02 1.51481E-03-1.60595E+00
 -1      1001 4.91023E-02-9.86848E-04-5.05659E-01
 -1      1002 4.73674E-02-1.80456E-03-1.33866E+00
 -1      1003 4.86586E-02-1.37979E-03-1.06981E+00
 -1      1004 4.86130E-02 3.20163E-03-1.06545E+00
 -1      1005 4.75556E-02 4.09568E-03-1.33472E+00
 -1      1006 2.33908E-01 1.00267E-01-1.85362E+00
 -1      1007 2.40471E-01 1.04357E-01-1.59757E+00
 -1      1008 2.48777E-01 1.03998E-01-1.33072E+00
 -1      1009 2.50771E-01 1.05428E-01-1.06237E+00
 -1      1010 2.50284E-01 1.04403E-01-5.07081E-01
 -1      1011 4.47509E-02 2.23740E-02-7.88344E-01
 -1      1012 3.92285E-02 2.53788E-02-1.85911E+00
 -1      1013 4.44112E-02 1.82393E-02-1.60234E+00
 -1      1014 4.51856E-02 1.76962E-02-5.05808E-01
 -1      1015 4.49411E-02 1.65242E-02-1.33324E+00
 -1      1016 4.56170E-02 1.74958E-02-1.06397E+00
 -1      1017 4.39977E-02 2.27519E-02-1.06346E+00
 -1      1018 4.22701E-02 2.33336E-02-1.33062E+00
 -1      1019 1.85068E-01 1.85270E-01-1.59790E+00
 -1      1020 1.80204E-01 1.80509E-01-1.85525E+00
 -1      1021 1.85248E-01 1.86152E-01-1.59793E+00
 -1      1022 1.92663E-01 1.89906E-01-1.32911E+00
 -1      1023 1.95053E-01 1.91462E-01-1.06060E+00
 -1      1024 1.94594E-01 1.89824E-01-5.06660E-01
 -1      1025 3.45070E-02 3.69644E-02-5.07651E-01
 -1      1026 3.52379E-02 3.69490E-02-7.87470E-01
 -1      1027 2.82582E-02 3.83247E-02-1.85874E+00
 -1      1028 3.43650E-02 3.40806E-02-1.60131E+00
 -1      1029 3.64635E-02 3.50661E-02-5.05371E-01
 -1      1030 3.56315E-02 3.27795E-02-1.33121E+00
 -1      1031 3.66703E-02 3.40475E-02-1.06217E+00
 -1      1032 3.27585E-02 3.77580E-02-1.06480E+00
 -1      1033 3.24071E-02 3.71080E-02-1.33422E+00
 -1      1034 1.04750E-01 2.55086E-01-1.05986E+00
 -1      1035 9.44827E-02 2.37695E-01-1.85501E+00
 -1      1036 9.86243E-02 2.43667E-01-1.59703E+00
 -1      1037 1.00942E-01 2.53399E-01-1.32851E+00
 -1      1038 1.75938E-02 4.82039E-02-7.79080E-01
 -1      1039 1.11132E-02 4.61500E-02-1.85863E+00
 -1      1040 1.89098E-02 4.55172E-02-1.60099E+00
 -1      1041 1.97408E-02 4.77456E-02-4.93004E-01
 -1      1042 2.05874E-02 4.49260E-02-1.33132E+00
 -1      1043 2.10652E-02 4.59244E-02-1.06179E+00
 -1      1044 1.55783E-02 4.77204E-02-1.05919E+00
 -1      1045 1.40989E-02 4.67859E-02-1.33083E+00
 -1      1046 1.32383E-02 2.72707E-01-1.06200E+00
 -1      1047 7.93392E-03 2.55654E-01-1.86022E+00
 -1      1048 9.30174E-03 2.61799E-01-1.59827E+00
 -1      1049 1.26796E-02 2.75073E-01-7.96178E-01
 -1      1050 1.31099E-02 2.72802E-01-5.10043E-01
 -1      1051 6.34116E-04 5.14888E-02-5.15218E-01
 -1      1052 1.63974E-03 5.15277E-02-7.97345E-01
 -1      1053-5.64881E-03 4.75498E-02-1.86352E+00
 -1      1054 2.12425E-03 4.91029E-02-1.60325E+00
 -1      1055 3.30793E-03 5.11466E-02-5.08974E-01
 -1      1056 5.83786E-03 4.99841E-02-1.06453E+00
 -1      1057-4.36808E-04 5.11604E-02-1.07821E+00
 -1      1058-2.68090E-03 4.98101E-02-1.34570E+00
 -1      1059-9.33603E-02 2.50850E-01-1.35833E+00
 -1      1060-8.49308E-02 2.35115E-01-1.86829E+00
 -1      1061-8.80491E-02 2.42692E-01-1.61124E+00
 -1      1062-9.30395E-02 2.51682E-01-1.34889E+00
 -1      1063-9.47401E-02 2.54890E-01-1.08450E+00
 -1      1064-1.91707E-02 4.88223E-02-8.20768E-01
 -1      1065-2.26969E-02 4.27321E-02-1.87255E+00
 -1      1066-1.13917E-02 4.69272E-02-1.61656E+00
 -1      1067-1.75928E-02 4.94605E-02-5.30132E-01
 -1      1068-1.33587E-02 4.77523E-02-1.35014E+00
 -1      1069-1.53407E-02 4.90245E-02-1.08675E+00
 -1      1070-1.98966E-02 4.68894E-02-1.09687E+00
 -1      1071-2.13884E-02 4.43303E-02-1.36117E+00
 -1      1072-1.73775E-01 1.77598E-01-1.86868E+00
 -1      1073-1.81625E-01 1.81605E-01-1.62002E+00
 -1      1074-1.89647E-01 1.88640E-01-1.35858E+00
 -1      1075-1.96496E-01 1.94473E-01-8.21067E-01
 -1      1076-1.97714E-01 1.95922E-01-5.37739E-01
 -1      1077-3.67782E-02 3.70440E-02-8.23703E-01
 -1      1078-3.52087E-02 3.11073E-02-1.87258E+00
 -1      1079-3.42594E-02 3.58931E-02-1.62457E+00
 -1      1080-3.72651E-02 3.72364E-02-5.37473E-01
 -1      1081-3.34891E-02 3.84759E-02-1.09955E+00
 -1      1082-3.74899E-02 3.38368E-02-1.09868E+00
 -1      1083-3.68059E-02 3.31080E-02-1.36139E+00
 -1      1084-2.42951E-01 9.16423E-02-1.60994E+00
 -1      1085-2.34932E-01 9.11340E-02-1.86366E+00
 -1      1086-2.43561E-01 9.07892E-02-1.61709E+00
 -1      1087-2.52192E-01 9.14534E-02-1.34365E+00
 -1      1088-2.58515E-01 9.51007E-02-8.07847E-01
 -1      1089-2.57838E-01 9.62412E-02-5.33002E-01
 -1      1090-4.84623E-02 1.81039E-02-8.09538E-01
 -1      1091-4.45667E-02 1.56880E-02-1.86905E+00
 -1      1092-4.47768E-02 2.02373E-02-1.61952E+00
 -1      1093-4.75243E-02 2.00106E-02-5.32443E-01
 -1      1094-4.66766E-02 2.05650E-02-1.09410E+00
 -1      1095-4.83229E-02 1.49709E-02-1.08163E+00
 -1      1096-4.67292E-02 1.43949E-02-1.34626E+00
 -1      1097 0.00000E+00 0.00000E+00 0.00000E+00
 -1      1098 0.00000E+00 0.00000E+00 0.00000E+00
 -1      1099 0.00000E+00 0.00000E+00 0.00000E+00
 -1      1100 0.00000E+00 0.00000E+00 0.00000E+00
 -1      1101 0.00000E+00 0.00000E+00 0.00000E+00
 -1      1102 0.00000E+00 0.00000E+00 0.00000E+00
 -1      1103 0.00000E+00 0.00000E+00 0.00000E+00
 -1      1104 0.00000E+00 0.00000E+00 0.00000E+00
 -1      1105 0.00000E+00 0.00000E+00 0.00000E+00
 -1      1106 0.00000E+00 0.00000E+00 0.00000E+00
 -1      1107 0.00000E+00 0.00000E+00 0.00000E+00
 -1      1108 0.00000E+00 0.00000E+00 0.00000E+00
 -1      1109 0.00000E+00 0.00000E+00 0.00000E+00
 -1      1110 0.00000E+00 0.00000E+00 0.00000E+00
 -1      1111 0.00000E+00 0.00000E+00 0.00000E+00
 -1      1112 0.00000E+00 0.00000E+00 0.00000E+00
 -1      1113 0.00000E+00 0.00000E+00 0.00000E+00
 -1      1114 0.00000E+00 0.00000E+00 0.00000E+00
 -1      1115 0.00000E+00 0.00000E+00 0.00000E+00
 -1      1116 0.00000E+00 0.00000E+00 0.00000E+00
 -1      1117 0.00000E+00 0.00000E+00 0.00000E+00
 -1      1118 0.00000E+00 0.00000E+00 0.00000E+00
 -1      1119 0.00000E+00 0.00000E+00 0.00000E+00
 -1      1120 0.00000E+00 0.00000E+00 0.00000E+00
 -1      1121 0.00000E+00 0.00000E+00 0.00000E+00
 -1      1122 0.00000E+00 0.00000E+00 0.00000E+00
 -1      1123 0.00000E+00 0.00000E+00 0.00000E+00
 -1      1124 0.00000E+00 0.00000E+00 0.00000E+00
 -1      1125 0.00000E+00 0.00000E+00 0.00000E+00
 -1      1126 0.00000E+00 0.00000E+00 0.00000E+00
 -1      1127 0.00000E+00 0.00000E+00 0.00000E+00
 -1      1128 0.00000E+00 0.00000E+00 0.00000E+00
 -1      1129 0.00000E+00 0.00000E+00 0.00000E+00
 -1      1130 0.00000E+00 0.00000E+00 0.00000E+00
 -1      1131 0.00000E+00 0.00000E+00 0.00000E+00
 -1      1132 0.00000E+00 0.00000E+00 0.00000E+00
 -1      1133 0.00000E+00 0.00000E+00 0.00000E+00
 -1      1134 0.00000E+00 0.00000E+00 0.00000E+00
 -1      1135 0.00000E+00 0.00000E+00 0.00000E+00
 -1      1136 0.00000E+00 0.00000E+00 0.00000E+00
 -1      1137 0.00000E+00 0.00000E+00 0.00000E+00
 -1      1138 0.00000E+00 0.00000E+00 0.00000E+00
 -1      1139 0.00000E+00 0.00000E+00 0.00000E+00
 -1      1140 0.00000E+00 0.00000E+00 0.00000E+00
 -1      1141 0.00000E+00 0.00000E+00 0.00000E+00
 -1      1142 0.00000E+00 0.00000E+00 0.00000E+00
 -1      1143 0.00000E+00 0.00000E+00 0.00000E+00
 -1      1144 0.00000E+00 0.00000E+00 0.00000E+00
 -1      1145 0.00000E+00 0.00000E+00 0.00000E+00
 -1      1146 0.00000E+00 0.00000E+00 0.00000E+00
 -1      1147 0.00000E+00 0.00000E+00 0.00000E+00
 -1      1148 0.00000E+00 0.00000E+00 0.00000E+00
 -1      1149 0.00000E+00 0.00000E+00 0.00000E+00
 -1      1150 0.00000E+00 0.00000E+00 0.00000E+00
 -1      1151 0.00000E+00 0.00000E+00 0.00000E+00
 -1      1152 0.00000E+00 0.00000E+00 0.00000E+00
 -1      1153-2.54577E-01-2.84891E-03-1.86530E+00
 -1      1154-2.73286E-01-2.22456E-03-1.07270E+00
 -1      1155-2.74489E-01-1.68444E-03-1.07659E+00
 -1      1156-2.70324E-01-1.43511E-03-1.34476E+00
 -1      1157-2.75261E-01 5.75000E-04-5.13634E-01
 -1      1158-2.76408E-01-1.16011E-03-7.97205E-01
 -1      1159-4.99135E-02-9.86418E-04-5.12199E-01
 -1      1160-4.86433E-02-1.53603E-03-1.61056E+00
 -1      1161-4.65538E-02 4.08272E-03-1.86707E+00
 -1      1162-5.07056E-02 1.22099E-03-7.97806E-01
 -1      1163-4.86019E-02 3.19757E-03-1.34589E+00
 -1      1164-2.49086E-01-1.06304E-01-5.18851E-01
 -1      1165-2.50981E-01-1.06087E-01-7.96935E-01
 -1      1166-2.50403E-01-1.06320E-01-7.96370E-01
 -1      1167-2.48534E-01-1.06799E-01-5.17528E-01
 -1      1168-2.51337E-01-1.04907E-01-1.07186E+00
 -1      1169-2.50176E-01-1.01125E-01-1.33801E+00
 -1      1170-2.48241E-01-1.01914E-01-1.33881E+00
 -1      1171-2.49338E-01-1.06251E-01-1.07009E+00
 -1      1172-2.36460E-01-9.45978E-02-1.86005E+00
 -1      1173-2.42283E-01-9.67743E-02-1.60612E+00
 -1      1174-4.43137E-02-2.06889E-02-5.16331E-01
 -1      1175-4.37067E-02-2.11885E-02-1.60848E+00
 -1      1176-4.55340E-02-1.24550E-02-1.86412E+00
 -1      1177-4.60819E-02-1.89560E-02-7.98105E-01
 -1      1178-4.62766E-02-1.39282E-02-1.34024E+00
 -1      1179-1.90471E-01-1.98665E-01-5.00178E-01
 -1      1180-1.91297E-01-2.00043E-01-7.82954E-01
 -1      1181-1.91693E-01-2.00279E-01-7.80160E-01
 -1      1182-1.89601E-01-1.98919E-01-4.97342E-01
 -1      1183-1.90059E-01-1.99221E-01-1.06531E+00
 -1      1184-1.87375E-01-1.96992E-01-1.33494E+00
 -1      1185-1.78030E-01-1.85039E-01-1.86019E+00
 -1      1186-1.83179E-01-1.89393E-01-1.59910E+00
 -1      1187-3.34626E-02-3.81349E-02-4.96106E-01
 -1      1188-3.27450E-02-3.58283E-02-1.60201E+00
 -1      1189-3.54283E-02-3.01418E-02-1.86503E+00
 -1      1190-3.55199E-02-3.67569E-02-7.83916E-01
 -1      1191-1.06219E-01-2.55767E-01-1.05494E+00
 -1      1192-1.06341E-01-2.57286E-01-4.88448E-01
 -1      1193-1.06966E-01-2.58040E-01-7.74008E-01
 -1      1194-1.05837E-01-2.57373E-01-4.88346E-01
 -1      1195-9.96364E-02-2.43891E-01-1.59614E+00
 -1      1196-9.52703E-02-2.37992E-01-1.85527E+00
 -1      1197-1.00827E-01-2.45197E-01-1.59436E+00
 -1      1198-1.62367E-02-4.54887E-02-1.59866E+00
 -1      1199-2.11071E-02-4.16938E-02-1.86008E+00
 -1      1200-2.17431E-02-4.71030E-02-7.74890E-01
 -1      1201-2.28875E-02-4.34873E-02-1.32799E+00
 -1      1202-7.99976E-04-2.74053E-01-1.05675E+00
 -1      1203-7.59253E-03-2.74060E-01-4.91773E-01
 -1      1204-4.23786E-03-2.75822E-01-7.75949E-01
 -1      1205-4.52090E-03-2.77164E-01-7.78818E-01
 -1      1206-7.27869E-03-2.75077E-01-4.96247E-01
 -1      1207-1.88445E-03-2.56087E-01-1.84909E+00
 -1      1208-2.69711E-03-2.62137E-01-1.59280E+00
 -1      1209-6.48979E-04-2.70413E-01-1.32508E+00
 -1      1210-7.80921E-04-4.96405E-02-4.95031E-01
 -1      1211 1.16580E-03-4.79094E-02-1.59602E+00
 -1      1212-6.79761E-03-4.69354E-02-1.85369E+00
 -1      1213-2.29848E-03-5.09204E-02-7.77214E-01
 -1      1214 9.58486E-02-2.50664E-01-1.32823E+00
 -1      1215 9.38069E-02-2.43409E-01-1.59510E+00
 -1      1216 8.89612E-02-2.36776E-01-1.85006E+00
 -1      1217 8.92135E-02-2.36976E-01-1.85531E+00
 -1      1218 9.25209E-02-2.42611E-01-1.59734E+00
 -1      1219 9.80904E-02-2.53138E-01-5.11510E-01
 -1      1220 9.73804E-02-2.53885E-01-7.90366E-01
 -1      1221 9.77584E-02-2.53630E-01-7.94624E-01
 -1      1222 9.81223E-02-2.51739E-01-5.14712E-01
 -1      1223 1.87362E-02-4.49125E-02-5.14284E-01
 -1      1224 1.80076E-02-4.40648E-02-1.60169E+00
 -1      1225 1.30501E-02-4.42066E-02-1.85447E+00
 -1      1226 1.64989E-02-4.69858E-02-7.92280E-01
 -1      1227 1.87520E-01-1.93360E-01-5.26601E-01
 -1      1228 1.86858E-01-1.95443E-01-8.02080E-01
 -1      1229 1.86982E-01-1.95554E-01-8.05374E-01
 -1      1230 1.86905E-01-1.92518E-01-5.28304E-01
 -1      1231 1.84103E-01-1.92309E-01-1.33704E+00
 -1      1232 1.84741E-01-1.91585E-01-1.34294E+00
 -1      1233 1.86359E-01-1.94619E-01-1.08008E+00
 -1      1234 1.77302E-01-1.87573E-01-1.60538E+00
 -1      1235 3.23520E-02-3.48419E-02-1.60862E+00
 -1      1236 2.74012E-02-3.65761E-02-1.85984E+00
 -1      1237 3.20909E-02-3.82322E-02-8.04055E-01
 -1      1238 2.53494E-01-1.02047E-01-5.21995E-01
 -1      1239 2.53563E-01-1.01402E-01-8.03156E-01
 -1      1240 2.54029E-01-1.01938E-01-5.19923E-01
 -1      1241 2.47748E-01-1.00101E-01-1.34361E+00
 -1      1242 2.48628E-01-9.89800E-02-1.33997E+00
 -1      1243 2.50884E-01-1.00727E-01-1.07442E+00
 -1      1244 2.40513E-01-9.82900E-02-1.60650E+00
 -1      1245 4.63348E-02-1.85486E-02-5.19761E-01
 -1      1246 4.40385E-02-1.67072E-02-1.60986E+00
 -1      1247 4.03025E-02-2.22396E-02-1.86685E+00
 -1      1248 4.60788E-02-1.90595E-02-8.04291E-01
 -1      1249 2.74009E-01 3.56697E-03-5.06216E-01
 -1      1250 2.74906E-01 4.01112E-03-7.88968E-01
 -1      1251 2.75325E-01 3.77809E-03-7.87211E-01
 -1      1252 2.73228E-01 3.72352E-03-5.04421E-01
 -1      1253 2.68799E-01 4.29738E-03-1.33717E+00
 -1      1254 2.70035E-01 5.26654E-03-1.33246E+00
 -1      1255 2.73331E-01 3.59917E-03-1.06442E+00
 -1      1256 2.60387E-01 4.51923E-03-1.60009E+00
 -1      1257 4.75652E-02 3.55345E-03-1.60262E+00
 -1      1258 4.55370E-02-2.55993E-03-1.86305E+00
 -1      1259 4.96053E-02 6.05567E-04-7.90443E-01
 -1      1260 2.40004E-01 1.03483E-01-1.59633E+00
 -1      1261 2.34335E-01 1.00627E-01-1.85514E+00
 -1      1262 2.47763E-01 1.05966E-01-1.32949E+00
 -1      1263 2.50176E-01 1.07074E-01-1.06227E+00
 -1      1264 2.52004E-01 1.05811E-01-7.87320E-01
 -1      1265 2.49973E-01 1.04822E-01-5.07115E-01
 -1      1266 2.52115E-01 1.04948E-01-7.86406E-01
 -1      1267 4.45572E-02 1.97713E-02-5.05695E-01
 -1      1268 4.35541E-02 2.09000E-02-1.59930E+00
 -1      1269 4.30703E-02 1.49491E-02-1.85821E+00
 -1      1270 4.57322E-02 1.81912E-02-7.87858E-01
 -1      1271 1.79249E-01 1.80256E-01-1.85498E+00
 -1      1272 1.92479E-01 1.91014E-01-1.33284E+00
 -1      1273 1.94213E-01 1.92798E-01-1.06396E+00
 -1      1274 1.95532E-01 1.92674E-01-7.87557E-01
 -1      1275 1.94633E-01 1.90753E-01-5.08845E-01
 -1      1276 1.95450E-01 1.92357E-01-7.85793E-01
 -1      1277 3.13265E-02 3.69314E-02-1.60415E+00
 -1      1278 3.55910E-02 3.05317E-02-1.85884E+00
 -1      1279 3.66991E-02 3.57152E-02-7.86756E-01
 -1      1280 1.01968E-01 2.52722E-01-1.33026E+00
 -1      1281 1.00045E-01 2.45064E-01-1.59779E+00
 -1      1282 9.44485E-02 2.37207E-01-1.85601E+00
 -1      1283 1.02453E-01 2.57377E-01-4.94936E-01
 -1      1284 1.03803E-01 2.58552E-01-7.78752E-01
 -1      1285 1.01806E-01 2.57286E-01-4.92617E-01
 -1      1286 1.03723E-01 2.58550E-01-7.79855E-01
 -1      1287 1.03319E-01 2.56154E-01-1.05822E+00
 -1      1288 1.75605E-02 4.74525E-02-4.90894E-01
 -1      1289 1.60174E-02 4.64378E-02-1.60139E+00
 -1      1290 2.11763E-02 4.18433E-02-1.86129E+00
 -1      1291 1.92341E-02 4.82993E-02-7.81482E-01
 -1      1292 1.09539E-02 2.69827E-01-1.33038E+00
 -1      1293 9.56771E-03 2.62183E-01-1.60578E+00
 -1      1294 7.59556E-03 2.54483E-01-1.85491E+00
 -1      1295 1.25986E-02 2.72273E-01-5.17799E-01
 -1      1296 1.30318E-02 2.75263E-01-7.89617E-01
 -1      1297 1.06386E-02 2.71301E-01-1.34478E+00
 -1      1298 1.23514E-02 2.74744E-01-1.07736E+00
 -1      1299-3.71550E-03 4.88905E-02-1.60917E+00
 -1      1300 6.45996E-03 4.61979E-02-1.85887E+00
 -1      1301 4.27779E-03 5.16176E-02-7.89749E-01
 -1      1302 4.74964E-03 4.92307E-02-1.33440E+00
 -1      1303-9.52418E-02 2.53928E-01-1.09555E+00
 -1      1304-9.76073E-02 2.58315E-01-8.18919E-01
 -1      1305-1.00834E-01 2.59573E-01-5.33576E-01
 -1      1306-1.00910E-01 2.59826E-01-5.30870E-01
 -1      1307-9.81970E-02 2.58990E-01-8.13628E-01
 -1      1308-8.74847E-02 2.42569E-01-1.61860E+00
 -1      1309-8.50776E-02 2.34863E-01-1.86114E+00
 -1      1310-1.89347E-02 4.94674E-02-5.32843E-01
 -1      1311-1.76450E-02 4.69364E-02-1.62244E+00
 -1      1312-1.36513E-02 4.60045E-02-1.86541E+00
 -1      1313-1.74645E-02 4.95771E-02-8.15773E-01
 -1      1314-1.81084E-01 1.82345E-01-1.62068E+00
 -1      1315-1.74390E-01 1.77396E-01-1.86811E+00
 -1      1316-1.92049E-01 1.90512E-01-1.09543E+00
 -1      1317-1.92852E-01 1.92058E-01-1.09837E+00
 -1      1318-1.88576E-01 1.88589E-01-1.36178E+00
 -1      1319-1.97921E-01 1.96128E-01-5.37279E-01
 -1      1320-1.96908E-01 1.94401E-01-8.22853E-01
 -1      1321-3.83895E-02 3.64783E-02-5.36873E-01
 -1      1322-3.63859E-02 3.41747E-02-1.62430E+00
 -1      1323-2.96214E-02 3.79133E-02-1.87217E+00
 -1      1324-3.58527E-02 3.74296E-02-8.24469E-01
 -1      1325-3.14924E-02 3.81405E-02-1.36284E+00
 -1      1326-2.36168E-01 9.09318E-02-1.86920E+00
 -1      1327-2.55270E-01 9.35639E-02-1.07916E+00
 -1      1328-2.54881E-01 9.47086E-02-1.09287E+00
 -1      1329-2.51862E-01 9.31771E-02-1.35796E+00
 -1      1330-2.58516E-01 9.59318E-02-5.26668E-01
 -1      1331-2.58285E-01 9.51388E-02-8.15078E-01
 -1      1332-4.80034E-02 1.73003E-02-5.26220E-01
 -1      1333-4.57643E-02 1.74666E-02-1.61495E+00
 -1      1334-4.24768E-02 2.14790E-02-1.87101E+00
 -1      1335-4.77044E-02 1.99638E-02-8.16181E-01
 -1      1336-4.46795E-02 2.10454E-02-1.35929E+00
 -1      1337 0.00000E+00 0.00000E+00 0.00000E+00
 -1      1338 0.00000E+00 0.00000E+00 0.00000E+00
 -1      1339 0.00000E+00 0.00000E+00 0.00000E+00
 -1      1340 0.00000E+00 0.00000E+00 0.00000E+00
 -1      1341 0.00000E+00 0.00000E+00 0.00000E+00
 -1      1342 0.00000E+00 0.00000E+00 0.00000E+00
 -1      1343 0.00000E+00 0.00000E+00 0.00000E+00
 -1      1344 0.00000E+00 0.00000E+00 0.00000E+00
 -1      1345 0.00000E+00 0.00000E+00 0.00000E+00
 -1      1346 0.00000E+00 0.00000E+00 0.00000E+00
 -1      1347 0.00000E+00 0.00000E+00 0.00000E+00
 -1      1348 0.00000E+00 0.00000E+00 0.00000E+00
 -1      1349 0.00000E+00 0.00000E+00 0.00000E+00
 -1      1350 0.00000E+00 0.00000E+00 0.00000E+00
 -1      1351 0.00000E+00 0.00000E+00 0.00000E+00
 -1      1352 0.00000E+00 0.00000E+00 0.00000E+00
 -1      1353 0.00000E+00 0.00000E+00 0.00000E+00
 -1      1354 0.00000E+00 0.00000E+00 0.00000E+00
 -1      1355 0.00000E+00 0.00000E+00 0.00000E+00
 -1      1356 0.00000E+00 0.00000E+00 0.00000E+00
 -1      1357 0.00000E+00 0.00000E+00 0.00000E+00
 -1      1358 0.00000E+00 0.00000E+00 0.00000E+00
 -1      1359 0.00000E+00 0.00000E+00 0.00000E+00
 -1      1360 0.00000E+00 0.00000E+00 0.00000E+00
 -1      1361 0.00000E+00 0.00000E+00 0.00000E+00
 -1      1362 0.00000E+00 0.00000E+00 0.00000E+00
 -1      1363 0.00000E+00 0.00000E+00 0.00000E+00
 -1      1364 0.00000E+00 0.00000E+00 0.00000E+00
 -1      1365 0.00000E+00 0.00000E+00 0.00000E+00
 -1      1366 0.00000E+00 0.00000E+00 0.00000E+00
 -1      1367 0.00000E+00 0.00000E+00 0.00000E+00
 -1      1368 0.00000E+00 0.00000E+00 0.00000E+00
 -1      1369 0.00000E+00 0.00000E+00 0.00000E+00
 -1      1370 0.00000E+00 0.00000E+00 0.00000E+00
 -1      1371 0.00000E+00 0.00000E+00 0.00000E+00
 -1      1372 0.00000E+00 0.00000E+00 0.00000E+00
 -1      1373 0.00000E+00 0.00000E+00 0.00000E+00
 -1      1374 0.00000E+00 0.00000E+00 0.00000E+00
 -1      1375 0.00000E+00 0.00000E+00 0.00000E+00
 -1      1376 0.00000E+00 0.00000E+00 0.00000E+00
 -1      1377 0.00000E+00 0.00000E+00 0.00000E+00
 -1      1378 0.00000E+00 0.00000E+00 0.00000E+00
 -1      1379 0.00000E+00 0.00000E+00 0.00000E+00
 -1      1380 0.00000E+00 0.00000E+00 0.00000E+00
 -1      1381 0.00000E+00 0.00000E+00 0.00000E+00
 -1      1382 0.00000E+00 0.00000E+00 0.00000E+00
 -1      1383 0.00000E+00 0.00000E+00 0.00000E+00
 -1      1384 0.00000E+00 0.00000E+00 0.00000E+00
 -1      1385 0.00000E+00 0.00000E+00 0.00000E+00
 -1      1386 0.00000E+00 0.00000E+00 0.00000E+00
 -1      1387 0.00000E+00 0.00000E+00 0.00000E+00
 -1      1388 0.00000E+00 0.00000E+00 0.00000E+00
 -1      1389 0.00000E+00 0.00000E+00 0.00000E+00
 -1      1390 0.00000E+00 0.00000E+00 0.00000E+00
 -1      1391 0.00000E+00 0.00000E+00 0.00000E+00
 -1      1392 0.00000E+00 0.00000E+00 0.00000E+00
 -1      1393 0.00000E+00 0.00000E+00 0.00000E+00
 -1      1394 0.00000E+00 0.00000E+00 0.00000E+00
 -1      1395 0.00000E+00 0.00000E+00 0.00000E+00
 -1      1396 0.00000E+00 0.00000E+00 0.00000E+00
 -1      1397 0.00000E+00 0.00000E+00 0.00000E+00
 -1      1398 0.00000E+00 0.00000E+00 0.00000E+00
 -1      1399 0.00000E+00 0.00000E+00 0.00000E+00
 -1      1400 0.00000E+00 0.00000E+00 0.00000E+00
 -1      1401 0.00000E+00 0.00000E+00 0.00000E+00
 -1      1402 0.00000E+00 0.00000E+00 0.00000E+00
 -1      1403 0.00000E+00 0.00000E+00 0.00000E+00
 -1      1404 0.00000E+00 0.00000E+00 0.00000E+00
 -1      1405 0.00000E+00 0.00000E+00 0.00000E+00
 -1      1406 0.00000E+00 0.00000E+00 0.00000E+00
 -1      1407 0.00000E+00 0.00000E+00 0.00000E+00
 -1      1408 0.00000E+00 0.00000E+00 0.00000E+00
 -1      1409 2.68304E-02-3.66770E-02-1.92155E+00
 -1      1410 2.23581E-02-3.96474E-02-1.92759E+00
 -1      1411 2.90620E-02 3.72851E-02-1.92090E+00
 -1      1412 2.11037E-02 4.18665E-02-1.92868E+00
 -1      1413-4.53307E-02-5.32985E-03-1.92820E+00
 -1      1414-4.60784E-02-1.15058E-02-1.93466E+00
 -1      1415 1.24808E-02-4.46639E-02-1.91692E+00
 -1      1416 5.51566E-03-4.64844E-02-1.92428E+00
 -1      1417-2.20375E-02 4.26521E-02-1.93245E+00
 -1      1418-2.79467E-02 3.91794E-02-1.93875E+00
 -1      1419-1.29792E-02 4.59530E-02-1.92563E+00
 -1      1420-7.37379E-03 4.61554E-02-1.93263E+00
 -1      1421 3.50958E-02 3.02638E-02-1.92116E+00
 -1      1422 3.80238E-02 2.53301E-02-1.92840E+00
 -1      1423 1.26806E-02 4.66600E-02-1.92105E+00
 -1      1424 4.83768E-03 4.56261E-02-1.92775E+00
 -1      1425 4.33012E-02 1.33707E-02-1.92018E+00
 -1      1426 4.56564E-02 4.72288E-03-1.92811E+00
 -1      1427 3.94322E-02-2.26042E-02-1.92831E+00
 -1      1428 3.56061E-02-2.83002E-02-1.93353E+00
 -1      1429-2.81796E-02-3.63484E-02-1.92356E+00
 -1      1430-2.15484E-02-4.17119E-02-1.93013E+00
 -1      1431-1.17453E-02-4.52507E-02-1.91975E+00
 -1      1432-7.20797E-03-4.53601E-02-1.92514E+00
 -1      1433-4.03027E-02-2.22063E-02-1.92698E+00
 -1      1434-3.71215E-02-2.70281E-02-1.93497E+00
 -1      1435 4.32674E-02-1.22859E-02-1.92629E+00
 -1      1436 4.45018E-02-4.41278E-03-1.93287E+00
 -1      1437-4.12020E-02 2.13295E-02-1.93168E+00
 -1      1438-3.47293E-02 3.03382E-02-1.93879E+00
 -1      1439-4.51243E-02 1.24097E-02-1.93104E+00
 -1      1440-4.55510E-02 6.28642E-03-1.93724E+00
 -1      1441 4.15859E-02 1.24349E-02-1.94887E+00
 -1      1442 4.31634E-02 6.19076E-03-1.95439E+00
 -1      1443 3.92085E-02 8.34414E-04-1.98328E+00
 -1      1444 3.73098E-02 1.62794E-02-1.97983E+00
 -1      1445 3.35347E-02 2.91566E-02-1.94953E+00
 -1      1446 3.67367E-02 2.33311E-02-1.95426E+00
 -1      1447-3.73834E-02 1.77321E-02-1.98901E+00
 -1      1448-4.35999E-02-4.66717E-03-1.95695E+00
 -1      1449-4.38835E-02-1.08902E-02-1.96076E+00
 -1      1450-5.53972E-04 4.06329E-02-1.98427E+00
 -1      1451-3.99689E-02-4.57848E-04-1.99116E+00
 -1      1452 8.82811E-02 3.87956E-02-1.98102E+00
 -1      1453-1.23077E-02 4.38931E-02-1.95316E+00
 -1      1454-6.15959E-03 4.41969E-02-1.95831E+00
 -1      1455 2.85305E-02 3.00182E-02-1.98132E+00
 -1      1456 2.69711E-02 3.62852E-02-1.94954E+00
 -1      1457 2.10408E-02 3.98356E-02-1.95470E+00
 -1      1458 1.50511E-02 4.05679E-02-1.98041E+00
 -1      1459-1.52252E-02 4.00963E-02-1.98546E+00
 -1      1460-9.77804E-02-1.33363E-03-1.99015E+00
 -1      1461 6.66182E-02 6.99696E-02-1.98157E+00
 -1      1462-3.88314E-02-2.11247E-02-1.95530E+00
 -1      1463-3.53245E-02-2.59377E-02-1.96071E+00
 -1      1464-2.87241E-02-2.93861E-02-1.98603E+00
 -1      1465-3.87522E-02-1.58591E-02-1.98646E+00
 -1      1466 4.14252E-02-1.12901E-02-1.95484E+00
 -1      1467 4.24707E-02-4.29081E-03-1.95915E+00
 -1      1468-2.12857E-02 4.01624E-02-1.95878E+00
 -1      1469-2.60257E-02 3.72311E-02-1.96345E+00
 -1      1470 1.12341E-02-4.28275E-02-1.94566E+00
 -1      1471 6.10277E-03-4.39382E-02-1.95083E+00
 -1      1472 1.09787E-02 4.44819E-02-1.94940E+00
 -1      1473 4.32651E-03 4.37382E-02-1.95451E+00
 -1      1474 1.46497E-02-3.82897E-02-1.97869E+00
 -1      1475-1.38256E-02-3.81932E-02-1.98092E+00
 -1      1476 1.62571E-03-4.10184E-02-1.97844E+00
 -1      1477 9.53404E-02 4.29798E-03-1.98156E+00
 -1      1478 3.65188E-02-1.44741E-02-1.98757E+00
 -1      1479 2.74462E-02-2.97642E-02-1.98401E+00
 -1      1480 9.47615E-02 1.41578E-03-1.98623E+00
 -1      1481 8.99341E-02 3.68345E-02-1.98129E+00
 -1      1482 2.41617E-03-9.70003E-02-1.97864E+00
 -1      1483 3.31502E-02-9.00212E-02-1.97710E+00
 -1      1484 2.68414E-03 9.81273E-02-1.98184E+00
 -1      1485 3.37933E-02 9.17524E-02-1.98106E+00
 -1      1486-2.86579E-02 3.13055E-02-1.98933E+00
 -1      1487-9.02678E-02-3.72117E-02-1.98778E+00
 -1      1488-6.81452E-02-6.97959E-02-1.98815E+00
 -1      1489-1.20162E-04 9.81594E-02-1.98643E+00
 -1      1490-4.25692E-02 1.27823E-02-1.95849E+00
 -1      1491-4.35342E-02 5.53355E-03-1.96315E+00
 -1      1492-8.91353E-02 3.65898E-02-1.98917E+00
 -1      1493 3.57671E-02 9.02125E-02-1.98203E+00
 -1      1494 3.72019E-02-2.14614E-02-1.95622E+00
 -1      1495 3.37807E-02-2.67933E-02-1.95975E+00
 -1      1496-4.14600E-02-2.41847E-03-1.98843E+00
 -1      1497-3.89357E-02 2.15524E-02-1.95969E+00
 -1      1498-3.46022E-02 2.85994E-02-1.96480E+00
 -1      1499-1.01002E-02-4.41638E-02-1.94888E+00
 -1      1500-5.78908E-03-4.37054E-02-1.95138E+00
 -1      1501-6.45446E-02 6.84115E-02-1.99106E+00
 -1      1502-2.70314E-02-3.44089E-02-1.95276E+00
 -1      1503-2.03238E-02-3.89468E-02-1.95647E+00
 -1      1504-3.54129E-02-8.92570E-02-1.98337E+00
 -1      1505 6.86509E-02 6.82145E-02-1.98155E+00
 -1      1506-3.43385E-02 8.90084E-02-1.99009E+00
 -1      1507 8.83554E-02-3.41009E-02-1.98629E+00
 -1      1508-8.98941E-02-3.45488E-02-1.98706E+00
 -1      1509 2.50548E-02-3.69676E-02-1.94993E+00
 -1      1510 2.11237E-02-3.84072E-02-1.95285E+00
 -1      1511-6.49481E-02 7.12809E-02-1.98946E+00
 -1      1512 8.67679E-02-3.67473E-02-1.98826E+00
 -1      1513-9.75505E-02 7.43976E-04-1.99109E+00
 -1      1514 6.59110E-02-6.81998E-02-1.98632E+00
 -1      1515 6.33566E-02-7.09338E-02-1.98141E+00
 -1      1516-3.29079E-02 9.02618E-02-1.98376E+00
 -1      1517-1.12855E-03-9.65902E-02-1.97828E+00
 -1      1518-6.67656E-02-7.20699E-02-1.98510E+00
 -1      1519 3.58814E-02-8.88931E-02-1.98077E+00
 -1      1520-3.42466E-02-9.21119E-02-1.98114E+00
 -1      1521-4.82653E-02-8.82705E-03-4.07949E-01
 -1      1522 2.43763E-02 4.09018E-02-3.94306E-01
 -1      1523 1.09154E-02 4.76923E-02-3.87415E-01
 -1      1524 7.78628E-03 2.58660E-02-9.75057E-02
 -1      1525 4.61160E-02-3.19248E-02-3.71715E-01
 -1      1526 2.17784E-02-2.86371E-02-1.29355E-01
 -1      1527-2.40954E-02 4.00045E-03-1.02302E-01
 -1      1528 9.75298E-03-2.18694E-02-1.12734E-01
 -1      1529 5.56455E-02 1.89354E-04-3.49722E-01
 -1      1530-1.84331E-02-1.89794E-02-1.02983E-01
 -1      1531 3.74737E-02 5.28689E-02-1.37841E+00
 -1      1532-5.72857E-02-2.33098E-02-1.55489E+00
 -1      1533-1.96643E-02 4.64616E-02-3.54908E-01
 -1      1534 3.70161E-02-6.28076E-03-1.33578E-01
 -1      1535-2.18664E-02-6.47716E-02-8.60152E-01
 -1      1536-1.97143E-02 2.21198E-02-1.05769E-01
 -1      1537-5.49243E-02-1.19019E-02-3.39546E-01
 -1      1538 3.94753E-02-3.61259E-02-1.73227E+00
 -1      1539 1.35432E-02 2.32342E-02-1.06560E-01
 -1      1540-1.56884E-02-4.31646E-02-2.55077E-01
 -1      1541-3.46494E-02 3.97668E-02-3.62121E-01
 -1      1542 1.54797E-02-6.27939E-02-6.80802E-01
 -1      1543 3.49490E-02-4.85325E-02-4.24144E-01
 -1      1544-3.28775E-02 9.04653E-03-1.26323E-01
 -1      1545 6.08205E-03-3.41785E-02-1.34909E-01
 -1      1546 2.73197E-02-7.40553E-03-1.06470E-01
 -1      1547 2.97611E-02 5.60931E-03-1.45282E-01
 -1      1548-2.11055E-02 2.21031E-02-1.00829E-01
 -1      1549 3.03822E-02-6.51893E-06-9.73559E-02
 -1      1550 3.06603E-02-2.11657E-02-1.54604E-01
 -1      1551 2.85194E-02 1.84611E-02-1.47222E-01
 -1      1552 2.50683E-02 1.17545E-02-1.07210E-01
 -1      1553 4.02279E-02-6.98358E-03-1.66779E-01
 -1      1554-2.90413E-03-1.70050E-03-2.14047E+00
 -1      1555-1.39202E-02-2.08375E-02-1.40769E-01
 -1      1556-1.06213E-02-2.60065E-02-7.34668E-02
 -1      1557-5.37229E-02 8.65110E-03-3.50114E-01
 -1      1558-7.39766E-03-3.29490E-02-1.26901E-01
 -1      1559-8.30638E-04-3.08165E-02-8.71288E-02
 -1      1560 2.51080E-02-3.99187E-02-3.54402E-01
 -1      1561 5.53299E-02 3.00302E-02-5.80448E-01
 -1      1562-2.97181E-02-2.09143E-03-1.03232E-01
 -1      1563 4.18041E-02 9.64261E-03-1.84668E-01
 -1      1564-2.69657E-02-1.07081E-02-1.03469E-01
 -1      1565 1.95810E-02-4.68051E-03-5.23234E-02
 -1      1566-3.17714E-02 1.27285E-02-8.63116E-02
 -1      1567-7.02704E-03-1.72969E-02-8.41039E-02
 -1      1568-6.06860E-03-3.77259E-02-1.76851E-01
 -1      1569-3.22433E-02 2.16326E-02-1.55144E-01
 -1      1570 1.46874E-02-3.41428E-02-2.37911E-01
 -1      1571-1.32153E-02 3.64159E-02-9.56442E-02
 -1      1572-2.84082E-02 4.44741E-02-5.70616E-01
 -1      1573-1.09531E-02 4.00328E-02-1.53563E-01
 -1      1574 1.82643E-03 2.91415E-02-1.11336E-01
 -1      1575 1.16152E-02-4.15226E-02-1.96227E-01
 -1      1576 2.24792E-02 2.14006E-02-1.01315E-01
 -1      1577-3.78062E-02-2.92234E-02-5.40682E-01
 -1      1578-5.03209E-02 2.75174E-02-3.58595E-01
 -1      1579 3.43498E-02 3.65843E-02-3.35166E-01
 -1      1580 3.57736E-02-5.40117E-02-1.12276E+00
 -1      1581 2.48019E-02-5.77586E-03-5.58455E-02
 -1      1582 3.64755E-02-2.55135E-02-4.22397E-01
 -1      1583-1.49707E-02-5.70743E-02-1.64595E+00
 -1      1584 2.12285E-02-7.08602E-05-4.03444E-02
 -1      1585 2.33945E-02-2.21737E-02-1.01995E-01
 -1      1586 2.75336E-02-2.60509E-02-1.71034E-01
 -1      1587-3.20378E-02 2.38270E-02-1.23891E-01
 -1      1588-4.50037E-03-3.20008E-02-1.61037E-01
 -1      1589 3.54275E-02 1.78375E-02-1.69381E-01
 -1      1590-4.53031E-02-4.76866E-02-1.22812E+00
 -1      1591 4.89501E-02-8.60580E-03-5.43834E-01
 -1      1592 4.88268E-02 1.13871E-02-5.32688E-01
 -1      1593-1.80209E-02 2.28185E-02-7.28496E-02
 -1      1594 1.05451E-02 3.84226E-02-2.42073E-01
 -1      1595-4.25153E-03 3.74375E-02-1.95042E-01
 -1      1596 6.42159E-03 3.38422E-02-1.60015E-01
 -1      1597-9.84663E-03 5.00618E-02-4.29280E-01
 -1      1598-2.53065E-02-1.08845E-03-1.27043E-01
 -1      1599-4.64273E-02 9.44140E-03-4.04460E-01
 -1      1600-4.45054E-02 2.99857E-02-5.71224E-01
 -1      1601-2.07995E-02-3.60973E-02-1.53122E-01
 -1      1602 3.15010E-02 3.97161E-03-1.80985E-01
 -1      1603-3.69878E-02-8.14800E-03-1.16375E-01
 -1      1604 2.88280E-03 4.38368E-02-2.10223E-01
 -1      1605-3.27296E-02 3.43962E-02-2.34054E-01
 -1      1606 1.07296E-02 6.51056E-02-6.22527E-01
 -1      1607 4.85866E-02-1.85922E-02-3.35936E-01
 -1      1608-9.71660E-03-4.86922E-02-3.79937E-01
 -1      1609 6.70751E-03-3.22089E-02-2.17489E-01
 -1      1610 6.04473E-02-2.36627E-02-1.07892E+00
 -1      1611 1.14460E-02-1.75656E-02-3.79425E-02
 -1      1612-1.85222E-02-1.82936E-03-4.42766E-02
 -1      1613 3.11960E-02-1.56330E-02-9.86944E-02
 -1      1614 3.42841E-02-2.61841E-02-2.70473E-01
 -1      1615 4.57435E-03-3.28486E-02-1.08998E-01
 -1      1616 4.02174E-03 1.71792E-02-5.15335E-02
 -1      1617 3.57056E-02-2.99174E-03-9.27423E-02
 -1      1618 2.08037E-02 1.75225E-02-9.09526E-02
 -1      1619-3.51069E-03-1.39592E-02-4.65242E-02
 -1      1620-1.38488E-02-6.02511E-02-4.65113E-01
 -1      1621 4.12099E-02-2.85309E-02-6.94822E-01
 -1      1622 5.43247E-03-5.52958E-02-4.20181E-01
 -1      1623 2.81931E-02 2.08465E-02-1.09291E-01
 -1      1624-2.65116E-03 2.05136E-02-5.43271E-02
 -1      1625 1.88533E-02-1.01246E-02-6.52965E-02
 -1      1626-3.79556E-02 8.04181E-03-2.13767E-01
 -1      1627 1.88951E-02-1.38054E-02-7.60846E-02
 -1      1628-2.02054E-02-1.13665E-02-7.71712E-02
 -1      1629 2.89527E-03 4.30925E-02-1.69739E-01
 -1      1630-2.48120E-02-9.06336E-03-5.04513E-02
 -1      1631 1.67582E-02-4.83770E-03-2.41281E-02
 -1      1632 1.27920E-02 4.73753E-03-4.20195E-02
 -1      1633 3.53384E-02 1.12516E-02-1.92013E-01
 -1      1634-2.07058E-02 8.28068E-03-3.83696E-02
 -1      1635-1.62951E-02 1.33669E-02-4.19092E-02
 -1      1636 4.55233E-02-4.14950E-02-1.34072E+00
 -1      1637-1.74090E-02 2.81826E-02-1.42117E-01
 -1      1638-2.74113E-02-1.61297E-02-1.05313E-01
 -1      1639-3.13072E-02 4.08325E-02-4.51647E-01
 -1      1640-6.43456E-03 3.09143E-02-1.15655E-01
 -1      1641-3.30941E-02-5.50987E-02-5.71811E-01
 -1      1642 1.34022E-03-1.39953E-02-3.26554E-02
 -1      1643-1.08209E-02-5.11606E-02-6.66438E-01
 -1      1644-1.90280E-04-3.99003E-02-2.14425E-01
 -1      1645 2.03079E-02 9.87376E-03-3.52605E-02
 -1      1646-2.89556E-03-6.63536E-02-8.72746E-01
 -1      1647-7.31164E-03-5.48827E-02-4.16098E-01
 -1      1648 2.75151E-02 4.56964E-02-6.82021E-01
 -1      1649 9.94189E-03 5.05535E-02-6.85083E-01
 -1      1650-2.03814E-02-2.31541E-02-9.31273E-02
 -1      1651-7.43351E-03-1.98580E-02-3.55974E-02
 -1      1652 2.41494E-02 2.83607E-02-1.81489E-01
 -1      1653 7.96144E-04-2.84005E-02-6.06624E-02
 -1      1654-7.02162E-03-1.70260E-02-4.97287E-02
 -1      1655-9.71096E-03 1.17680E-02-2.91441E-02
 -1      1656-3.36965E-02 5.28213E-02-1.50493E+00
 -1      1657 4.36786E-03-1.73390E-02-5.56859E-02
 -1      1658-1.50233E-02 1.69821E-03-4.20529E-02
 -1      1659-3.66987E-02 2.23801E-03-2.00333E-01
 -1      1660 3.35995E-02-1.05571E-02-1.97522E-01
 -1      1661 6.13253E-02-1.01371E-02-5.52987E-01
 -1      1662 1.18123E-03-3.57857E-02-1.80904E-01
 -1      1663-3.07920E-02 1.73541E-02-1.05825E-01
 -1      1664 3.26948E-02 1.95537E-02-1.92048E-01
 -1      1665-6.07339E-03 8.06626E-03-2.51148E-02
 -1      1666-2.35571E-02 2.99577E-02-1.90821E-01
 -1      1667-1.12988E-02 8.55010E-03-2.12162E+00
 -1      1668-7.43629E-03 5.25710E-02-7.15691E-01
 -1      1669-3.99915E-02-3.13160E-03-2.74283E-01
 -1      1670-8.49849E-03-6.00100E-03-2.72081E-02
 -1      1671 3.55852E-02-2.53466E-03-1.81129E-01
 -1      1672-9.16845E-03-6.34742E-02-6.46631E-01
 -1      1673 1.11133E-02 2.83014E-03-4.03601E-02
 -1      1674 6.35263E-03-2.85202E-02-1.30340E-01
 -1      1675 4.64209E-02-4.31053E-02-5.23142E-01
 -1      1676-2.90494E-02 1.18569E-03-7.75071E-02
 -1      1677 1.60773E-02-1.21468E-02-4.48095E-02
 -1      1678-2.71606E-02 3.29447E-03-1.06264E-01
 -1      1679-2.99508E-02 3.69898E-04-1.13404E-01
 -1      1680 2.98432E-02-1.48146E-02-2.03154E-01
 -1      1681 2.70741E-03 1.73204E-02-3.56015E-02
 -1      1682 8.55580E-03-4.37678E-03-2.22772E-02
 -1      1683 2.09104E-02 4.83910E-03-2.09391E+00
 -1      1684-1.73650E-02 2.71599E-03-3.70595E-02
 -1      1685 2.43491E-02-3.96900E-02-1.58905E-01
 -1      1686 2.58947E-02-2.92444E-02-2.06518E-01
 -1      1687 4.45148E-03 4.15348E-02-2.43929E-01
 -1      1688-1.53369E-02-3.31882E-03-3.64825E-02
 -1      1689 1.35368E-02-1.16915E-02-4.03155E-02
 -1      1690-9.95264E-03 9.01753E-03-5.22844E-02
 -1      1691 9.64398E-03 4.16401E-03-2.35897E-02
 -1      1692-2.31695E-02-1.52836E-02-8.49613E-02
 -1      1693 1.32944E-02 1.24551E-02-5.90384E-02
 -1      1694 1.84375E-02 3.62771E-02-2.28935E-01
 -1      1695-2.70574E-02 4.39666E-03-8.25798E-02
 -1      1696-6.91167E-02-5.52145E-04-9.80643E-01
 -1      1697 1.65426E-02 9.31541E-03-4.70699E-02
 -1      1698 4.03967E-02 1.08957E-02-3.39316E-01
 -1      1699-5.46236E-02 1.84913E-02-1.76195E+00
 -1      1700-2.08350E-02 6.92813E-03-2.04107E-02
 -1      1701 2.77901E-02-3.49313E-02-3.03882E-01
 -1      1702-1.35426E-02-1.34736E-02-2.60364E-02
 -1      1703 2.42168E-02-3.34061E-02-2.07909E-01
 -1      1704 3.41724E-03-6.44078E-02-6.99778E-01
 -1      1705-9.13941E-03-3.69538E-02-1.64935E-01
 -1      1706 3.07678E-02-5.07179E-02-1.46975E+00
 -1      1707 1.40783E-02-9.85851E-03-1.18000E-02
 -1      1708-1.37525E-02 1.84226E-02-1.16254E-02
 -1      1709-2.82421E-02-4.68617E-03-1.33430E-01
 -1      1710 6.27833E-02 1.24058E-02-6.17102E-01
 -1      1711 3.05737E-02 1.09355E-02-8.09338E-02
 -1      1712-1.62704E-04 1.95004E-02-2.48143E-02
 -1      1713-2.35432E-02 3.99792E-02-3.40192E-01
 -1      1714-6.52683E-02 2.83406E-03-1.41537E+00
 -1      1715 3.75835E-02-4.17443E-02-3.39616E-01
 -1      1716-5.35838E-02 4.08305E-02-9.54794E-01
 -1      1717 1.15809E-02 3.35344E-02-1.49815E-01
 -1      1718 4.16350E-02-4.06346E-02-1.52739E+00
 -1      1719 2.26984E-02 2.84271E-02-1.54897E-01
 -1      1720-1.61893E-02-5.22335E-02-2.60887E-01
 -1      1721-4.33903E-03-3.10859E-02-9.51687E-02
 -1      1722 1.42526E-02-2.40054E-03-2.85962E-02
 -1      1723-1.60695E-02-6.59041E-02-6.98479E-01
 -1      1724 3.58970E-02-2.08233E-02-1.56687E-01
 -1      1725 1.00292E-02-6.04019E-02-5.30973E-01
 -1      1726 2.25028E-02 1.02531E-02-4.13200E-02
 -1      1727-4.18467E-02-2.53011E-02-5.69550E-01
 -1      1728-3.44272E-02 1.66017E-02-1.90256E-01
 -1      1729-4.44266E-02-3.88571E-02-4.38632E-01
 -1      1730-4.24535E-02 1.32617E-02-2.08627E-01
 -1      1731 1.17108E-02-6.41217E-02-1.07137E+00
 -1      1732-1.22129E-02 9.95354E-03-1.00737E-02
 -1      1733 4.48715E-03-6.58682E-02-9.17790E-01
 -1      1734 3.51031E-02-2.29569E-02-2.83104E-01
 -1      1735 3.01355E-02 2.89595E-02-2.05726E-01
 -1      1736 1.79096E-02-2.60672E-02-6.40386E-02
 -1      1737-1.50794E-02 2.46742E-03-2.96281E-02
 -1      1738 6.16401E-03-1.26011E-02-4.82832E-02
 -1      1739 1.12935E-02-1.50923E-02-2.09280E+00
 -1      1740-2.89527E-02 8.91405E-03-1.16940E-01
 -1      1741-1.27155E-03 3.55241E-02-8.53077E-02
 -1      1742-3.78539E-02-1.09815E-02-1.73798E-01
 -1      1743 2.81566E-02-1.30266E-02-1.14363E-01
 -1      1744 7.65520E-03-1.36399E-03-1.26788E-02
 -1      1745-2.22882E-03-6.55419E-02-1.16896E+00
 -1      1746 5.70259E-02-2.94674E-02-6.82474E-01
 -1      1747-3.95153E-03-1.82940E-02-5.21861E-02
 -1      1748 5.08519E-02-2.71883E-02-4.38777E-01
 -1      1749 4.47032E-02-4.35862E-02-1.29837E+00
 -1      1750 2.01576E-02 3.18599E-02-2.27890E-01
 -1      1751 1.67341E-02 1.75185E-02-1.72196E-02
 -1      1752-2.59466E-02 3.36283E-02-2.23890E-01
 -1      1753 1.19658E-02-6.42985E-02-8.72314E-01
 -1      1754 0.00000E+00 0.00000E+00 0.00000E+00
 -1      1755-8.10813E-03 2.20181E-02-1.45289E-02
 -1      1756-9.61170E-03-8.31073E-03-3.47366E-02
 -1      1757 3.15076E-02 2.52241E-02-1.87027E-01
 -1      1758-4.70789E-02-1.82333E-02-2.88638E-01
 -1      1759-6.82868E-03 1.92803E-02-4.10615E-02
 -1      1760-3.03992E-02 4.37957E-02-8.03848E-01
 -1      1761-1.36887E-02 4.11497E-02-1.89823E-01
 -1      1762-2.56499E-02-2.15395E-02-1.32506E-01
 -1      1763-2.74330E-02-1.79397E-02-9.98454E-02
 -1      1764 8.05485E-03 4.84417E-02-3.05617E-01
 -1      1765-5.30572E-03 5.11156E-02-4.38544E-01
 -1      1766-1.28044E-02-1.14619E-02-4.32799E-02
 -1      1767-1.82168E-03-3.17281E-02-1.25212E-01
 -1      1768 1.14671E-02 3.35261E-02-1.27437E-01
 -1      1769 1.37200E-02 1.18232E-02-3.36051E-02
 -1      1770-1.76508E-03-1.43758E-02-3.46648E-02
 -1      1771-1.36383E-02-5.05295E-02-3.01264E-01
 -1      1772 1.53983E-02-2.76325E-02-1.24668E-01
 -1      1773 3.97257E-02-8.44257E-03-2.02643E-01
 -1      1774 3.14595E-03 3.28757E-03-2.52579E-02
 -1      1775 5.43831E-02 2.00151E-02-3.82325E-01
 -1      1776-4.16352E-02-4.22624E-02-1.62067E+00
 -1      1777 1.08053E-02-9.08147E-04-1.71477E-02
 -1      1778-1.60655E-02 7.44146E-04-1.63825E-02
 -1      1779 1.20647E-02 1.94172E-03-2.37867E-02
 -1      1780 4.53700E-02 2.99065E-02-3.51255E-01
 -1      1781 9.65005E-03-9.66263E-03-2.65851E-02
 -1      1782 2.52212E-02-5.63586E-02-5.07094E-01
 -1      1783 6.42039E-02-1.47326E-02-8.18384E-01
 -1      1784 2.05667E-03 1.31944E-02-3.81272E-02
 -1      1785 4.18079E-02-4.74971E-02-5.29819E-01
 -1      1786 9.54738E-03-4.68998E-02-2.76811E-01
 -1      1787 4.18205E-02-2.37945E-02-4.40986E-01
 -1      1788 1.29588E-03-1.70689E-02-3.41044E-02
 -1      1789 4.41592E-02-9.66082E-03-3.38991E-01
 -1      1790-3.82823E-03 9.29764E-03-1.96189E-02
 -1      1791-5.85219E-02 2.63312E-04-3.91686E-01
 -1      1792 1.29633E-02-4.03025E-03-2.11614E+00
 -1      1793 1.30491E-02 1.19412E-02-4.49992E-02
 -1      1794 4.47717E-02 6.04454E-03-3.34983E-01
 -1      1795 8.77444E-04-6.51454E-02-8.02671E-01
 -1      1796-3.92084E-02 3.25670E-02-2.70200E-01
 -1      1797 3.05522E-02-2.82639E-02-2.37012E-01
 -1      1798-8.40495E-03-4.88461E-02-2.84244E-01
 -1      1799 1.71072E-02-5.44051E-02-4.24524E-01
 -1      1800 4.15921E-02-4.36947E-02-1.42950E+00
 -1      1801-4.90039E-02-6.72838E-03-5.67566E-01
 -1      1802-4.77935E-02-1.13567E-02-5.69120E-01
 -1      1803 3.95953E-02-2.92586E-02-2.43233E-01
 -1      1804-5.07820E-02 6.91546E-03-5.63809E-01
 -1      1805-4.34207E-02-1.17931E-02-4.15309E-01
 -1      1806 4.66235E-02-3.69906E-02-4.17520E-01
 -1      1807-1.66451E-02 1.09774E-02-4.09974E-02
 -1      1808-4.00561E-02 3.29777E-02-4.47471E-01
 -1      1809 2.15548E-03 3.98011E-03-1.40947E-02
 -1      1810 2.92965E-03 1.42838E-02-2.40810E-02
 -1      1811-1.28064E-02 4.91098E-02-4.44465E-01
 -1      1812 2.91633E-02 1.48976E-04-3.33156E-02
 -1      1813-1.53632E-02-4.11893E-03-3.43110E-02
 -1      1814-1.22253E-02-6.59694E-02-8.26941E-01
 -1      1815 7.48024E-03-4.79398E-02-4.27050E-01
 -1      1816-2.40934E-02-5.99793E-02-5.47524E-01
 -1      1817-1.62587E-02 2.55916E-03-3.26859E-02
 -1      1818 5.85371E-02-1.76567E-02-1.49754E+00
 -1      1819 1.04273E-02-4.13871E-03-3.33404E-02
 -1      1820 3.26419E-02-5.37688E-02-1.29093E+00
 -1      1821-4.16554E-02 2.32767E-02-3.44230E-01
 -1      1822 3.00485E-03 2.94321E-02-1.06313E-01
 -1      1823 5.65417E-03-2.10059E-02-3.10406E-02
 -1      1824-2.58998E-02-9.81973E-03-6.29179E-02
 -1      1825 2.14645E-02-9.40959E-03-4.09948E-02
 -1      1826-1.54374E-02-6.48624E-02-1.11717E+00
 -1      1827-6.51414E-03-5.20160E-02-6.91978E-01
 -1      1828-1.14817E-02-5.86466E-04-1.74773E-02
 -1      1829 2.39364E-02 7.09248E-03-1.66139E-02
 -1      1830-1.07326E-03 1.96184E-02-3.02637E-02
 -1      1831-1.93622E-03-8.98374E-03-2.35953E-02
 -1      1832-1.27559E-02 2.32807E-02-5.04684E-02
 -1      1833-4.00114E-02 9.17470E-03-2.68541E-01
 -1      1834 3.23947E-03-1.35082E-02-2.66271E-02
 -1      1835 5.16261E-02-6.67308E-03-3.40852E-01
 -1      1836 6.35314E-02-4.93360E-03-5.44554E-01
 -1      1837 4.91975E-02 2.19932E-02-1.85199E+00
 -1      1838-4.07196E-02 1.02447E-02-1.83547E-01
 -1      1839 5.45569E-03 5.58967E-02-1.80466E+00
 -1      1840-1.75748E-02-6.08425E-02-5.37708E-01
 -1      1841-4.77539E-03-6.45183E-02-7.22501E-01
 -1      1842 2.16201E-02-4.94160E-02-3.04515E-01
 -1      1843 3.42575E-02 1.53385E-02-9.92994E-02
 -1      1844-2.27520E-03-5.00177E-02-3.35910E-01
 -1      1845-4.62726E-02-4.77191E-02-8.26543E-01
 -1      1846-3.65462E-02-1.31564E-02-1.62348E-01
 -1      1847-3.64393E-02 5.50433E-02-7.90875E-01
 -1      1848-5.23374E-02-3.76668E-02-1.38112E+00
 -1      1849-7.82088E-03 4.91656E-04-1.48854E-02
 -1      1850-1.31039E-02-3.70910E-02-1.63561E-01
 -1      1851-1.84524E-02 3.72394E-02-1.79840E-01
 -1      1852-5.97389E-02-1.41365E-03-1.67994E+00
 -1      1853-2.49693E-03-1.00086E-02-1.49778E-02
 -1      1854-2.55635E-02-4.70767E-02-3.23065E-01
 -1      1855-2.07465E-03-2.59717E-02-9.39395E-02
 -1      1856 1.31548E-02-1.58274E-02-3.52020E-02
 -1      1857-3.46047E-02-1.73589E-02-1.59441E-01
 -1      1858-4.28096E-02 4.77501E-02-6.89151E-01
 -1      1859-1.35009E-02 6.64136E-02-8.16181E-01
 -1      1860 1.08248E-02 2.39490E-02-6.08607E-02
 -1      1861 3.95349E-02-1.59824E-02-1.71605E-01
 -1      1862 4.50583E-03 1.86472E-02-7.66561E-02
 -1      1863-1.21578E-02-6.70684E-02-1.01379E+00
 -1      1864-3.84212E-02 8.49674E-03-1.98455E-01
 -1      1865-3.62902E-02 2.78565E-02-2.83924E-01
 -1      1866 5.70094E-02 5.89284E-03-3.73035E-01
 -1      1867 3.85789E-02-2.12449E-03-1.55260E-01
 -1      1868 9.35342E-03 4.89086E-02-1.11244E+00
 -1      1869 1.39577E-02 1.49304E-03-4.63585E-02
 -1      1870-2.31292E-02 3.26991E-02-1.70557E-01
 -1      1871 2.51425E-02-2.00834E-02-1.40120E-01
 -1      1872-1.52552E-02-1.33565E-03-2.91438E-02
 -1      1873-1.20380E-02 5.23041E-02-6.09068E-01
 -1      1874-4.98307E-02 2.06157E-02-2.77787E-01
 -1      1875-3.43914E-02-2.58895E-02-2.47576E-01
 -1      1876-3.56349E-02-5.75399E-02-9.60557E-01
 -1      1877 5.95547E-02-1.49988E-02-5.58844E-01
 -1      1878 1.05387E-02-3.89671E-03-5.71258E-03
 -1      1879 3.66707E-02 2.69806E-02-2.37773E-01
 -1      1880 2.84004E-02 3.48986E-03-5.93494E-02
 -1      1881 3.37990E-02 4.73986E-02-1.71891E+00
 -1      1882 5.25588E-02-8.55898E-03-3.24199E-01
 -1      1883 5.11521E-02-9.50306E-03-1.84482E+00
 -1      1884 6.08107E-03-2.35517E-02-1.65320E-02
 -1      1885-1.77611E-02-3.93322E-02-1.83644E-01
 -1      1886-5.18061E-02-3.20597E-02-1.57569E+00
 -1      1887 4.34914E-02-2.23284E-02-2.49947E-01
 -1      1888 1.51484E-02-3.61192E-02-1.55668E-01
 -1      1889 5.93214E-02 9.34307E-03-1.57478E+00
 -1      1890-2.94937E-02 4.78419E-02-4.03379E-01
 -1      1891 1.86112E-02-2.34842E-02-9.43961E-02
 -1      1892-4.56359E-03-1.61687E-02-1.13380E-02
 -1      1893-1.86093E-03-6.63039E-02-1.01402E+00
 -1      1894 1.09038E-02-5.92795E-02-1.42205E+00
 -1      1895-1.27334E-02-1.39082E-02-4.82444E-02
 -1      1896-5.22541E-02 1.10371E-02-7.07651E-01
 -1      1897 6.04449E-03 5.22866E-02-7.81906E-01
 -1      1898 9.50307E-03 5.16052E-02-5.54199E-01
 -1      1899 1.43654E-02 4.93854E-02-5.23944E-01
 -1      1900 2.24873E-02 4.49371E-02-4.14478E-01
 -1      1901-2.43427E-02-2.85671E-02-1.95920E-01
 -1      1902 5.41804E-02-3.57744E-02-7.14541E-01
 -1      1903-7.61134E-03-5.64279E-03-3.50212E-02
 -1      1904 9.40262E-03-1.76534E-02-3.21152E-02
 -1      1905 5.21304E-03-1.85619E-02-3.92748E-02
 -1      1906-7.59124E-03 5.05400E-02-3.20473E-01
 -1      1907 5.86315E-02-2.19367E-02-1.33382E+00
 -1      1908-2.50854E-03-6.23571E-02-1.44226E+00
 -1      1909 6.45207E-03 2.53371E-02-1.12023E-01
 -1      1910 3.23002E-02 5.90842E-02-7.25129E-01
 -1      1911 3.45193E-02-5.54860E-02-7.45119E-01
 -1      1912 1.66626E-02 3.43450E-05-1.55661E-02
 -1      1913-3.07163E-02 3.54324E-02-2.75741E-01
 -1      1914-2.38684E-02 1.67794E-02-3.83737E-02
 -1      1915 3.69713E-02-1.99693E-02-1.68315E-01
 -1      1916 2.56181E-02 4.37664E-02-5.31692E-01
 -1      1917-1.14919E-02-2.81312E-03-3.89428E-02
 -1      1918 9.53152E-03 2.30975E-02-7.19651E-02
 -1      1919 1.04585E-02-6.31378E-02-6.75378E-01
 -1      1920-2.63167E-02 4.41267E-02-4.42083E-01
 -1      1921-1.33479E-02-4.98270E-03-2.01866E-02
 -1      1922 7.10902E-03-6.34513E-02-1.25136E+00
 -1      1923-3.43314E-02-8.24883E-03-1.93805E-01
 -1      1924 4.43542E-02-2.37629E-03-2.02612E-01
 -1      1925-1.96710E-02 2.20439E-02-5.31766E-02
 -1      1926 6.10524E-03 5.37523E-03-3.29227E-02
 -1      1927 0.00000E+00 0.00000E+00 0.00000E+00
 -1      1928 1.29459E-02-1.50780E-02-3.35986E-02
 -1      1929 4.74736E-02-4.03291E-03-2.20065E-01
 -1      1930 4.48827E-03-1.17744E-02-3.39952E-02
 -1      1931 4.13781E-02-8.73707E-03-2.01001E-01
 -1      1932-9.41340E-03 1.31602E-02-3.24638E-02
 -1      1933 1.44618E-02-1.95951E-02-2.05421E+00
 -1      1934 5.69347E-02-7.41332E-03-4.18246E-01
 -1      1935-5.10794E-02-2.14938E-02-1.85126E+00
 -1      1936-4.13559E-02 2.92780E-02-3.90258E-01
 -1      1937 6.93017E-03-9.03261E-03-1.70672E-02
 -1      1938-5.11208E-02 1.25975E-02-5.51582E-01
 -1      1939-8.44719E-03-4.43493E-02-1.86192E-01
 -1      1940-4.70784E-02-4.08344E-02-1.48551E+00
 -1      1941-2.23172E-02 6.08496E-02-6.78776E-01
 -1      1942-1.84370E-02 4.49714E-02-2.39343E-01
 -1      1943-4.18681E-02 3.32417E-02-7.31248E-01
 -1      1944-1.63916E-02 3.83435E-02-1.72612E-01
 -1      1945 5.34220E-02-3.89374E-02-1.03933E+00
 -1      1946 4.32298E-02-2.42879E-02-2.66045E-01
 -1      1947-1.53367E-02 3.30497E-02-1.12503E-01
 -1      1948-2.33222E-02 4.46804E-02-1.14866E+00
 -1      1949-4.23909E-02-3.11748E-02-2.84880E-01
 -1      1950-4.34089E-02 2.78460E-02-1.00582E+00
 -1      1951-1.08325E-02 2.24528E-02-7.58132E-02
 -1      1952 9.04703E-03 2.12413E-03-1.84314E-02
 -1      1953 3.88406E-03-6.48149E-02-1.11345E+00
 -1      1954 0.00000E+00 0.00000E+00 0.00000E+00
 -1      1955 1.56787E-02 4.98056E-02-6.94734E-01
 -1      1956-8.56985E-03 5.06167E-02-9.94776E-01
 -1      1957-4.85026E-02 5.01420E-03-2.05290E-01
 -1      1958 3.05790E-02-1.04129E-02-9.69253E-02
 -1      1959 1.54551E-02-4.59888E-02-2.33805E-01
 -1      1960-1.55938E-02 4.32915E-02-2.60022E-01
 -1      1961 3.86919E-02 2.82917E-02-4.12581E-01
 -1      1962-4.21659E-02 4.47750E-03-2.40330E-01
 -1      1963 5.76325E-02 1.09674E-02-4.28910E-01
 -1      1964 6.16083E-02 1.80261E-02-5.58657E-01
 -1      1965 2.30874E-02-6.01164E-02-1.06297E+00
 -1      1966-1.11734E-02-3.56512E-02-1.36661E-01
 -1      1967-1.92105E-02 2.40830E-02-9.72977E-02
 -1      1968-5.21425E-02-4.24140E-04-1.91488E+00
 -1      1969-3.63145E-03 6.90419E-03-1.39445E-02
 -1      1970-3.08834E-02-5.97782E-02-7.44728E-01
 -1      1971-4.20987E-03 5.36057E-03-1.62661E-02
 -1      1972 2.74443E-02-4.74995E-02-3.36514E-01
 -1      1973-1.68761E-02 4.81458E-02-2.77674E-01
 -1      1974 3.27791E-02-4.46807E-02-1.64076E+00
 -1      1975 3.08136E-02-5.78540E-02-9.45027E-01
 -1      1976 3.39582E-02 1.64815E-02-2.30394E-01
 -1      1977-7.59666E-03 2.17296E-02-2.09565E+00
 -1      1978 5.05611E-02-3.01411E-02-1.50393E+00
 -1      1979 5.31035E-02-2.03089E-02-1.67991E+00
 -1      1980 5.67323E-02-2.26723E-02-1.46811E+00
 -1      1981 4.11213E-02 4.00394E-03-1.88908E-01
 -1      1982-2.84349E-02 3.98784E-02-2.91028E-01
 -1      1983 2.14794E-02 5.85867E-02-1.53527E+00
 -1      1984 2.68356E-02-4.12190E-02-2.12526E-01
 -1      1985-8.42372E-03 4.32446E-02-2.96660E-01
 -1      1986-1.69640E-02-6.65467E-02-8.66449E-01
 -1      1987 2.55333E-02-4.42680E-02-5.64248E-01
 -1      1988-1.59921E-02 3.01822E-03-3.15204E-02
 -1      1989 2.55379E-02-3.34137E-02-1.58107E-01
 -1      1990 2.94925E-02 2.84221E-02-1.94448E-01
 -1      1991-2.34579E-02-1.50232E-02-1.06379E-01
 -1      1992 3.82765E-02-5.22868E-02-5.97543E-01
 -1      1993 1.56748E-02 3.56246E-02-2.07045E-01
 -1      1994 0.00000E+00 0.00000E+00 0.00000E+00
 -1      1995 2.88332E-02 1.60372E-02-8.95872E-02
 -1      1996-4.57510E-02 5.02551E-03-3.58087E-01
 -1      1997-1.12451E-02 8.32185E-03-2.23365E-02
 -1      1998 1.99540E-02-2.24812E-02-1.01485E-01
 -1      1999-2.89330E-02-4.08219E-02-3.45001E-01
 -1      2000-8.04078E-03 1.05374E-02-1.92104E-02
 -1      2001-5.68751E-02-2.84162E-02-1.45194E+00
 -1      2002-2.63811E-02-4.21031E-02-3.90919E-01
 -1      2003-2.63438E-02-9.85565E-03-2.05723E+00
 -1      2004 4.41175E-02-7.32153E-03-2.81215E-01
 -1      2005-2.99510E-02-4.89159E-02-4.09192E-01
 -1      2006-3.14321E-02-1.36823E-02-1.10450E-01
 -1      2007-1.08320E-02-5.90145E-02-4.92826E-01
 -1      2008 2.91100E-04-6.29238E-02-1.37990E+00
 -1      2009-1.90670E-02-6.52857E-02-9.99096E-01
 -1      2010-1.24258E-02 2.27189E-02-8.89176E-02
 -1      2011 3.45730E-02-6.27589E-03-1.27160E-01
 -1      2012 1.32605E-02-4.76794E-03-2.94250E-02
 -1      2013-4.10282E-02-4.74856E-02-5.77616E-01
 -1      2014 6.18561E-02-2.40732E-02-8.73967E-01
 -1      2015 2.71007E-02 4.90249E-02-3.66007E-01
 -1      2016-4.07922E-02-3.02358E-02-7.64678E-01
 -1      2017-2.42009E-02 1.26436E-02-9.02068E-02
 -1      2018-3.72531E-02-5.49165E-02-7.75955E-01
 -1      2019-3.37412E-02 1.50023E-02-1.05247E-01
 -1      2020-2.38909E-03-4.27837E-02-2.09377E-01
 -1      2021 9.37359E-03 5.12065E-02-8.35124E-01
 -1      2022-2.94418E-03 5.32852E-02-7.22121E-01
 -1      2023 1.19626E-02 4.05961E-02-2.47834E-01
 -1      2024-2.59639E-02-4.38875E-02-1.89703E+00
 -1      2025 5.59987E-02 2.26384E-02-4.97154E-01
 -1      2026 6.16083E-02-2.10271E-02-7.08799E-01
 -1      2027 1.10595E-02-1.39991E-02-1.20430E-02
 -1      2028 3.18055E-02-2.50436E-03-9.75393E-02
 -1      2029-2.13376E-02 2.22377E-02-1.32898E-01
 -1      2030-2.45144E-02 2.76458E-02-1.62439E-01
 -1      2031-2.03368E-02 2.73811E-02-1.12176E-01
 -1      2032-3.12944E-02 2.94473E-02-2.55045E-01
 -1      2033 3.54011E-03 9.75628E-03-3.43958E-02
 -1      2034 6.37628E-02-1.19688E-02-1.22433E+00
 -1      2035 4.55366E-02-2.27959E-02-1.84886E+00
 -1      2036 3.36167E-02-4.30025E-02-2.88652E-01
 -1      2037-2.34561E-02-5.27940E-02-3.96039E-01
 -1      2038 1.73389E-03 6.75114E-02-1.13910E+00
 -1      2039-2.91480E-02-5.82482E-02-5.65849E-01
 -1      2040 5.54158E-02 3.59466E-03-1.77448E+00
 -1      2041-3.63230E-02-4.33849E-02-4.07760E-01
 -1      2042-6.22319E-02-8.78941E-03-1.49203E+00
 -1      2043-5.98168E-02 1.03192E-02-1.59424E+00
 -1      2044 0.00000E+00 0.00000E+00 0.00000E+00
 -1      2045-5.96131E-02-3.15763E-02-8.36125E-01
 -1      2046-2.89868E-02 5.52851E-02-5.69643E-01
 -1      2047 3.05758E-02 4.38495E-02-5.42249E-01
 -1      2048-5.46623E-02-3.99188E-02-1.05062E+00
 -1      2049 2.87441E-03 6.27908E-03-2.97932E-02
 -1      2050-4.08384E-02 5.32917E-02-1.14689E+00
 -1      2051-3.14894E-02 8.95373E-03-1.01608E-01
 -1      2052-1.62382E-02 1.04376E-02-3.13283E-02
 -1      2053-2.56355E-02 1.84327E-02-7.61350E-02
 -1      2054-5.24295E-02-3.16551E-02-5.01997E-01
 -1      2055 1.87938E-02-2.67251E-02-7.03173E-02
 -1      2056 5.84259E-02-3.05273E-02-9.68425E-01
 -1      2057-1.50152E-03-5.83191E-02-4.75773E-01
 -1      2058-1.51775E-02-5.33411E-02-3.85223E-01
 -1      2059 2.30981E-02-3.78237E-02-1.52197E-01
 -1      2060 1.45773E-02 2.54498E-02-2.04083E+00
 -1      2061-2.70995E-02 4.49536E-02-1.89597E+00
 -1      2062-3.55867E-02-2.86886E-02-3.89192E-01
 -1      2063 4.40471E-02-4.96199E-02-8.23413E-01
 -1      2064-4.84676E-02 8.12643E-03-1.98830E-01
 -1      2065 3.21889E-02-3.53589E-02-2.19537E-01
 -1      2066-3.64569E-02 4.87570E-02-5.34472E-01
 -1      2067 1.75376E-02-2.83667E-02-8.76447E-02
 -1      2068-2.31685E-02 4.35734E-02-3.28887E-01
 -1      2069 6.76137E-02-6.79035E-03-8.32896E-01
 -1      2070-4.58511E-02-3.35629E-02-1.74169E+00
 -1      2071 5.79760E-02-3.22505E-03-4.03981E-01
 -1      2072 5.42322E-02-3.38335E-02-1.21294E+00
 -1      2073-1.28680E-02 2.05248E-02-6.98395E-02
 -1      2074-2.61548E-03 8.43705E-03-1.67807E-02
 -1      2075 9.04017E-03 4.94637E-03-9.99558E-03
 -1      2076-8.20201E-03-5.03675E-02-5.01607E-01
 -1      2077-2.60355E-02-5.97749E-02-1.34890E+00
 -1      2078 5.67477E-02-9.17155E-03-1.66497E+00
 -1      2079 2.85222E-02-3.94492E-02-4.98465E-01
 -1      2080-4.02776E-02-3.52751E-02-1.89116E+00
 -1      2081-4.71348E-02 2.35759E-02-4.85671E-01
 -1      2082-3.37732E-02-4.79448E-02-4.82021E-01
 -1      2083-5.96055E-02-1.25985E-02-1.62083E+00
 -1      2084 2.64695E-02-4.42142E-03-8.65972E-02
 -1      2085 4.53685E-02 7.32022E-03-2.50839E-01
 -1      2086 8.00003E-03-5.53291E-02-1.69900E+00
 -1      2087-6.46802E-03 1.85014E-02-2.35396E-02
 -1      2088 6.37981E-02-1.70310E-02-1.02653E+00
 -1      2089-6.82514E-03 3.17141E-02-1.28134E-01
 -1      2090-4.72838E-03-2.23139E-02-9.45466E-02
 -1      2091-1.04340E-02 1.97437E-03-1.53878E-02
 -1      2092-2.98970E-03 3.00964E-02-2.03757E+00
 -1      2093 4.33990E-02 3.69767E-02-3.99837E-01
 -1      2094 1.00798E-02-5.04973E-02-6.97273E-01
 -1      2095 3.57936E-03-4.35342E-02-2.72972E-01
 -1      2096 8.91755E-03-3.93455E-02-2.98168E-01
 -1      2097 1.22430E-02-4.33924E-02-3.24259E-01
 -1      2098 5.57747E-02-3.10486E-03-1.75511E+00
 -1      2099-4.28540E-02 4.04736E-02-1.68915E+00
 -1      2100 3.38226E-02 5.24222E-02-1.55350E+00
 -1      2101 6.07100E-02-2.02381E-03-1.50043E+00
 -1      2102-1.81158E-02-6.02502E-02-1.44655E+00
 -1      2103 2.83681E-02-5.69282E-02-1.14859E+00
 -1      2104 2.71317E-02 4.33906E-02-9.73312E-01
 -1      2105-6.30504E-02 2.32856E-02-7.94867E-01
 -1      2106 1.91483E-02-5.48533E-02-1.56793E+00
 -1      2107-1.33138E-02 4.56813E-02-2.93918E-01
 -1      2108-4.17954E-02 2.14850E-02-2.33503E-01
 -1      2109-4.26198E-03 5.28798E-02-5.78470E-01
 -1      2110 2.60523E-02-2.50228E-04-5.34566E-02
 -1      2111 1.27610E-02 2.49545E-02-7.92195E-02
 -1      2112-4.25419E-02-5.20461E-02-9.40096E-01
 -1      2113 4.04137E-02-3.68165E-02-3.21146E-01
 -1      2114-9.66490E-03-8.19639E-03-2.96266E-02
 -1      2115 5.08741E-02-7.75761E-03-7.69406E-01
 -1      2116 4.34431E-02 6.41806E-03-1.96476E+00
 -1      2117 0.00000E+00 0.00000E+00 0.00000E+00
 -1      2118 4.81862E-02-3.19603E-03-2.67186E-01
 -1      2119 5.01709E-02 1.25098E-02-1.87215E+00
 -1      2120 5.06651E-02 1.18890E-02-7.61770E-01
 -1      2121 3.35159E-02-2.41341E-02-1.62477E-01
 -1      2122-4.91900E-02-1.02861E-02-7.60287E-01
 -1      2123 3.01916E-02-2.40035E-02-1.37868E-01
 -1      2124-4.78968E-02-5.23814E-03-4.16085E-01
 -1      2125 1.18493E-02-5.35355E-02-3.86205E-01
 -1      2126 4.48059E-02 1.83884E-02-2.43440E-01
 -1      2127 4.93962E-02 2.06909E-02-3.64146E-01
 -1      2128-5.50863E-03 1.41596E-02-7.40545E-03
 -1      2129 5.62660E-02-1.77249E-02-1.60896E+00
 -1      2130-3.36852E-02 3.34762E-02-2.43840E-01
 -1      2131-2.99458E-02 2.54929E-02-1.35647E-01
 -1      2132-4.11848E-02 1.43461E-02-1.99238E-01
 -1      2133-4.32065E-02-4.21438E-02-5.12929E-01
 -1      2134 1.35474E-02 9.14870E-03-4.43558E-02
 -1      2135 2.33594E-02 2.00129E-02-1.10973E-01
 -1      2136 3.14566E-03 8.96002E-03-2.01055E-02
 -1      2137-4.60881E-02-4.46869E-02-6.70539E-01
 -1      2138-2.99028E-02-2.78992E-02-2.37808E-01
 -1      2139-4.66421E-02-2.13302E-03-2.03458E-01
 -1      2140-6.65798E-02-8.54882E-03-6.66743E-01
 -1      2141-2.52799E-02-4.17725E-02-2.68793E-01
 -1      2142-2.27977E-02-1.15377E-02-5.69150E-02
 -1      2143-7.72259E-03-6.04500E-02-5.44750E-01
 -1      2144-4.72899E-02-3.50357E-02-5.02019E-01
 -1      2145-3.86525E-03 1.61802E-02-4.89752E-02
 -1      2146-6.01243E-02-7.75081E-03-4.47301E-01
 -1      2147-4.76259E-02-1.27653E-02-2.36553E-01
 -1      2148-6.30297E-02-1.94637E-02-6.06438E-01
 -1      2149-1.20682E-02 3.90023E-03-5.90059E-03
 -1      2150 2.52646E-02 1.89771E-02-1.28280E-01
 -1      2151 2.32032E-02-3.32723E-02-2.15868E-01
 -1      2152-2.58153E-02 4.20989E-02-2.69114E-01
 -1      2153-7.78766E-03-3.46662E-03-1.81847E-02
 -1      2154 2.24248E-02-5.54763E-02-4.30053E-01
 -1      2155-7.86639E-03 5.34080E-02-1.88199E+00
 -1      2156 2.32698E-02-1.09937E-02-4.27343E-02
 -1      2157 5.24256E-02-1.60145E-02-1.74499E+00
 -1      2158-1.20281E-02-2.63392E-02-1.37361E-01
 -1      2159-3.18490E-02-1.83635E-02-1.99758E-01
 -1      2160 3.92215E-02 9.46332E-05-2.21421E-01
 -1      2161 2.82212E-02 1.31314E-02-2.03841E+00
 -1      2162 9.16614E-03-6.18697E-03-2.19100E-02
 -1      2163-5.89422E-05 9.51863E-03-9.22698E-03
 -1      2164 1.71929E-02-5.07083E-02-1.75485E+00
 -1      2165 6.25524E-02-2.13533E-02-9.74758E-01
 -1      2166 2.18532E-02-1.99354E-02-6.90106E-02
 -1      2167 2.91310E-02 1.50895E-02-1.12215E-01
 -1      2168 4.39807E-02 3.46324E-03-4.23346E-01
 -1      2169-1.81258E-06-3.04047E-02-9.25482E-02
 -1      2170-6.73692E-02-1.56442E-02-9.61170E-01
 -1      2171-8.26063E-03-1.10568E-02-2.13503E-02
 -1      2172 5.91701E-02-2.51994E-02-1.20267E+00
 -1      2173 3.61845E-02 5.10516E-02-4.90880E-01
 -1      2174-1.58716E-02-4.18976E-02-1.97070E-01
 -1      2175-2.49376E-02 6.98112E-03-2.05667E+00
 -1      2176-2.54281E-02 6.19180E-02-1.05451E+00
 -1      2177-3.24863E-02-1.50330E-02-2.44122E-01
 -1      2178-3.19508E-02-1.22109E-02-1.21214E-01
 -1      2179-2.41443E-02-2.35972E-02-2.01341E+00
 -1      2180 0.00000E+00 0.00000E+00 0.00000E+00
 -1      2181-9.78010E-03 2.53769E-02-5.71124E-02
 -1      2182 2.18747E-02-1.86954E-02-6.26767E-02
 -1      2183 1.61083E-02-8.34602E-03-2.06341E+00
 -1      2184-2.64841E-02-6.25922E-02-9.12581E-01
 -1      2185-1.27562E-02-1.05198E-02-4.86677E-02
 -1      2186-9.62571E-03 3.77373E-03-2.45012E-02
 -1      2187 1.90821E-02 1.19747E-02-6.68392E-02
 -1      2188 7.68433E-03 4.34712E-02-1.71660E-01
 -1      2189 2.42879E-02-3.38105E-03-5.73796E-02
 -1      2190 2.06617E-02-6.01998E-02-5.94252E-01
 -1      2191-9.43256E-03-1.84856E-02-4.14059E-02
 -1      2192-3.34773E-02 4.15697E-02-6.08306E-01
 -1      2193-4.10807E-02 4.19528E-02-5.14736E-01
 -1      2194 4.09521E-02 2.43056E-02-4.26449E-01
 -1      2195 6.55003E-02-7.54540E-03-6.63465E-01
 -1      2196-4.59104E-02 2.73419E-02-7.32011E-01
 -1      2197 1.89294E-02 6.60789E-02-9.17703E-01
 -1      2198-3.52190E-02 2.20790E-02-2.22603E-01
 -1      2199 1.72407E-02-2.80012E-02-1.11340E-01
 -1      2200-2.57271E-02-5.59451E-02-1.52956E+00
 -1      2201 6.29581E-02-8.61779E-03-1.37547E+00
 -1      2202-1.55977E-02-1.87990E-02-5.04626E-02
 -1      2203 2.89097E-02-3.72120E-02-1.90608E+00
 -1      2204-7.61024E-03-1.59028E-02-2.10633E+00
 -1      2205 1.74480E-02-6.26836E-02-9.87938E-01
 -1      2206-4.71560E-02 2.31759E-02-3.53885E-01
 -1      2207-6.20064E-02-2.55497E-02-1.14879E+00
 -1      2208 5.44921E-03-4.35979E-02-2.02697E-01
 -1      2209 6.29515E-02 2.51590E-02-1.02140E+00
 -1      2210-2.70324E-02-6.18153E-02-1.13008E+00
 -1      2211 1.97176E-02 4.61867E-03-8.02980E-02
 -1      2212-3.49919E-02 8.03217E-03-9.50685E-02
 -1      2213-5.29516E-02 3.82342E-02-5.98015E-01
 -1      2214-2.57206E-02 4.72091E-02-6.80428E-01
 -1      2215 7.05845E-03-5.69685E-02-3.96014E-01
 -1      2216 6.19528E-02 2.45335E-02-7.72685E-01
 -1      2217 4.28282E-03 2.88786E-02-7.86015E-02
 -1      2218 3.14282E-04 6.82859E-02-8.36587E-01
 -1      2219-1.00374E-03-8.46193E-03-4.63768E-03
 -1      2220 2.67304E-02-1.05111E-03-3.10065E-02
 -1      2221-1.78782E-02 2.13646E-02-6.15271E-02
 -1      2222 9.40165E-03 5.74283E-02-3.54438E-01
 -1      2223 8.38706E-03-2.07043E-02-8.89539E-02
 -1      2224 1.65215E-02-3.68848E-02-2.47982E-01
 -1      2225 5.30543E-02 2.54500E-02-4.38119E-01
 -1      2226-1.00302E-02 6.19135E-02-1.49827E+00
 -1      2227 1.37195E-02 1.75334E-02-3.43566E-02
 -1      2228 2.13844E-02 2.35807E-02-1.08231E-01
 -1      2229-9.91096E-03 3.07527E-02-5.48052E-02
 -1      2230 2.81197E-02-4.49119E-02-3.25702E-01
 -1      2231 1.19621E-02 4.35309E-02-2.32006E-01
 -1      2232-1.97875E-02 3.67372E-02-2.12564E-01
 -1      2233-4.03230E-02 3.74367E-02-3.85379E-01
 -1      2234-2.55979E-03-5.85311E-03-1.57792E-02
 -1      2235-6.50721E-02-1.95695E-03-5.72577E-01
 -1      2236-5.95480E-02-2.60786E-02-6.28486E-01
 -1      2237-2.67142E-02 1.30875E-02-9.33577E-02
 -1      2238 3.20010E-02 2.88248E-02-2.29531E-01
 -1      2239-2.98077E-02-4.92966E-02-1.71307E+00
 -1      2240-6.33559E-02-2.06679E-02-7.76942E-01
 -1      2241-2.00659E-02-3.33298E-02-1.98204E-01
 -1      2242-2.59550E-02 3.78739E-02-2.45059E-01
 -1      2243 3.69720E-03 6.23822E-03-1.35645E-02
 -1      2244 1.50718E-02-2.78182E-02-8.60631E-02
 -1      2245 4.21957E-02 3.27985E-02-5.53269E-01
 -1      2246-3.71470E-03-2.14854E-02-1.37487E-02
 -1      2247-2.26180E-02 5.49290E-02-1.67880E+00
 -1      2248 2.99994E-02-4.23795E-02-1.76887E+00
 -1      2249-1.21323E-02-5.84140E-03-2.11634E+00
 -1      2250 4.60880E-03-4.73002E-02-1.93092E+00
 -1      2251 3.33135E-02 3.99773E-02-7.87326E-01
 -1      2252-1.76058E-02-1.97791E-02-1.05984E-01
 -1      2253-2.50054E-03 1.57907E-02-9.49156E-03
 -1      2254-4.92260E-02-4.32084E-03-2.80692E-01
 -1      2255 4.79112E-02-2.92282E-02-1.63934E+00
 -1      2256-4.88726E-02-2.92669E-03-3.19133E-01
 -1      2257-9.51796E-03-1.80875E-02-2.09487E+00
 -1      2258 3.72347E-03-2.43241E-02-2.05418E+00
 -1      2259 0.00000E+00 0.00000E+00 0.00000E+00
 -1      2260-5.99656E-02-1.04252E-02-5.24890E-01
 -1      2261-1.50152E-02 1.66308E-03-2.98939E-02
 -1      2262-6.49723E-02-1.44477E-02-7.09887E-01
 -1      2263 6.90076E-03-3.22362E-02-9.92144E-02
 -1      2264-2.34656E-02 1.92115E-02-1.00455E-01
 -1      2265 0.00000E+00 0.00000E+00 0.00000E+00
 -1      2266-2.71947E-02 1.88067E-02-6.18556E-02
 -1      2267-3.93868E-02-2.51975E-02-3.78720E-01
 -1      2268-4.24058E-02 1.72983E-02-2.36585E-01
 -1      2269 5.74604E-02-3.02458E-02-1.09655E+00
 -1      2270 3.37794E-02 6.55870E-03-2.20988E-01
 -1      2271 3.34580E-02 1.78830E-02-1.11542E-01
 -1      2272 3.33471E-02-1.44774E-02-2.40066E-01
 -1      2273 2.80743E-03-9.44346E-03-3.36277E-02
 -1      2274-3.23786E-03 6.42207E-02-5.43724E-01
 -1      2275-1.76761E-02-5.19889E-02-1.80055E+00
 -1      2276-1.10851E-02 6.17844E-02-5.56515E-01
 -1      2277 4.50112E-02-1.55040E-02-2.34919E-01
 -1      2278-6.90387E-02-1.56541E-03-7.76776E-01
 -1      2279 2.86121E-02 4.00952E-02-3.84774E-01
 -1      2280 4.98969E-02-5.11844E-03-4.01917E-01
 -1      2281-6.33924E-02-2.44797E-02-9.76294E-01
 -1      2282 2.23746E-02 5.43579E-02-1.71351E+00
 -1      2283 1.53298E-02-5.85350E-02-5.43017E-01
 -1      2284-5.80442E-02 2.92835E-02-6.16510E-01
 -1      2285 4.93892E-04 7.71709E-03-2.20312E-02
 -1      2286 1.21324E-02 1.69310E-02-5.06278E-02
 -1      2287-3.03506E-02-1.77451E-02-1.76177E-01
 -1      2288-3.79596E-02-5.46188E-02-1.10158E+00
 -1      2289-7.05525E-04-1.32733E-02-1.66285E-02
 -1      2290-5.07925E-02-9.57941E-03-6.43817E-01
 -1      2291-6.87124E-02-7.02646E-03-8.77961E-01
 -1      2292-4.26083E-02-1.33000E-02-1.86514E-01
 -1      2293 2.16563E-02-5.76129E-02-1.38532E+00
 -1      2294 9.47169E-06 1.77245E-02-2.10358E+00
 -1      2295-3.15486E-03-2.08492E-02-5.79282E-02
 -1      2296-4.98763E-03-4.50866E-02-3.29035E-01
 -1      2297 0.00000E+00 0.00000E+00 0.00000E+00
 -1      2298-5.50783E-02-8.55316E-03-1.81040E+00
 -1      2299-1.44680E-02 4.30375E-02-2.34058E-01
 -1      2300-4.54381E-02 3.22516E-02-3.02160E-01
 -1      2301-3.94465E-02-1.94716E-02-1.96913E+00
 -1      2302-4.64804E-02 4.11958E-02-6.08145E-01
 -1      2303-1.84668E-02 8.83528E-03-2.02017E-02
 -1      2304 3.68413E-02 2.75982E-02-2.60594E-01
 -1      2305 1.64311E-02 5.84126E-02-4.09320E-01
 -1      2306 4.82361E-02 9.35803E-03-9.76625E-01
 -1      2307-2.24158E-02-6.34828E-02-6.86889E-01
 -1      2308 3.46453E-02 8.10114E-03-1.38286E-01
 -1      2309-5.03957E-02 6.10570E-04-2.47714E-01
 -1      2310-5.78046E-02 4.58559E-03-1.72474E+00
 -1      2311 1.98008E-02-3.33999E-02-1.91806E-01
 -1      2312-3.61210E-02-4.34531E-02-1.75835E+00
 -1      2313-1.76259E-03-6.90717E-03-9.69083E-03
 -1      2314-2.89724E-02-5.41202E-02-4.51968E-01
 -1      2315 2.65367E-03-1.21463E-02-1.55793E-02
 -1      2316 5.16054E-02-3.21257E-02-1.37843E+00
 -1      2317-2.12348E-02 2.67268E-03-7.71142E-02
 -1      2318 9.95186E-03 2.08527E-02-2.07926E+00
 -1      2319 3.45772E-03 1.28175E-02-2.12010E+00
 -1      2320-2.13265E-02-2.11596E-02-9.79429E-02
 -1      2321-3.00295E-02 2.37427E-03-2.08377E-01
 -1      2322 3.17410E-02 1.68355E-02-1.59900E-01
 -1      2323-1.40226E-02 2.35517E-02-8.04805E-02
 -1      2324-2.32785E-02 3.15691E-02-1.38623E-01
 -1      2325 3.19505E-02-5.47877E-02-5.64769E-01
 -1      2326-4.06211E-03 5.96860E-02-1.68975E+00
 -1      2327 0.00000E+00 0.00000E+00 0.00000E+00
 -1      2328-1.20483E-02-4.60344E-02-1.94676E+00
 -1      2329 0.00000E+00 0.00000E+00 0.00000E+00
 -1      2330-8.55907E-04 5.69014E-03-1.53144E-02
 -1      2331 0.00000E+00 0.00000E+00 0.00000E+00
 -1      2332-1.06488E-02-4.17098E-02-2.35309E-01
 -1      2333-3.05531E-02-4.12895E-02-5.42459E-01
 -1      2334 2.19798E-02-4.61056E-02-5.76462E-01
 -1      2335-8.13646E-03-2.40426E-02-6.43413E-02
 -1      2336 4.26082E-02-5.00227E-02-6.83287E-01
 -1      2337-2.93617E-02-3.23168E-02-2.38998E-01
 -1      2338 3.73672E-03-2.82303E-02-8.58590E-02
 -1      2339 0.00000E+00 0.00000E+00 0.00000E+00
 -1      2340-1.22693E-02-6.39217E-02-1.29244E+00
 -1      2341 8.00385E-03 4.74905E-02-4.26358E-01
 -1      2342-4.91419E-02-1.15683E-02-1.92904E+00
 -1      2343 5.79711E-02-2.27150E-02-5.65201E-01
 -1      2344 2.43179E-02 4.35005E-02-1.11234E+00
 -1      2345 1.30729E-02-1.02018E-03-1.80565E-02
 -1      2346 5.42024E-02-1.22566E-02-3.93861E-01
 -1      2347 6.69662E-02-7.90779E-03-1.05740E+00
 -1      2348 1.24841E-02-2.21129E-02-1.57841E-01
 -1      2349-2.39718E-02-3.31757E-02-2.49256E-01
 -1      2350-3.88881E-02 2.80463E-02-2.17002E-01
 -1      2351 5.39011E-02 3.24828E-02-1.48363E+00
 -1      2352 3.82517E-03-4.05569E-03-2.13643E+00
 -1      2353-5.21692E-02 7.14060E-03-7.37101E-01
 -1      2354 4.97864E-02-3.78171E-02-5.40537E-01
 -1      2355-4.68279E-02-4.16205E-02-5.74350E-01
 -1      2356 4.78603E-03 6.18075E-02-1.52516E+00
 -1      2357-5.76059E-02-1.32337E-02-4.33220E-01
 -1      2358-4.25570E-02 3.15881E-02-1.87830E+00
 -1      2359-1.53470E-02 2.80285E-02-1.25229E-01
 -1      2360-1.59962E-02 3.78233E-02-1.49252E-01
 -1      2361 2.38489E-02-6.06797E-02-8.66503E-01
 -1      2362-5.06811E-02 4.33886E-02-7.88358E-01
 -1      2363 9.40056E-03-5.00270E-02-8.60201E-01
 -1      2364-1.97612E-02 5.29495E-02-1.81157E+00
 -1      2365-1.67701E-03 6.14726E-02-1.57189E+00
 -1      2366 2.30366E-02 4.75494E-02-5.57072E-01
 -1      2367-2.41730E-02-5.91560E-03-5.86182E-02
 -1      2368 4.72338E-02-4.30658E-02-1.17968E+00
 -1      2369 7.16762E-03 8.30568E-03-2.56585E-02
 -1      2370 2.47629E-02 3.05747E-02-1.55007E-01
 -1      2371 2.19945E-02-4.21464E-02-3.75255E-01
 -1      2372 5.96540E-02-1.99229E-02-1.35677E+00
 -1      2373 5.26759E-02 3.72084E-02-5.88875E-01
 -1      2374 2.56817E-02 6.20954E-02-1.22063E+00
 -1      2375-5.11406E-02 7.81257E-03-2.66955E-01
 -1      2376-3.59666E-02-2.29561E-02-2.27754E-01
 -1      2377-3.54711E-02-2.93365E-02-2.67882E-01
 -1      2378 4.64144E-02-4.52364E-02-1.11896E+00
 -1      2379-4.19707E-03 1.15305E-02-1.64818E-02
 -1      2380 2.31648E-02 4.82311E-02-1.88900E+00
 -1      2381 2.56256E-02-5.05507E-02-3.68196E-01
 -1      2382 2.62120E-02 3.38030E-02-2.62463E-01
 -1      2383-1.38797E-02-4.80845E-02-3.54858E-01
 -1      2384-1.26590E-02-1.43883E-02-1.28976E-02
 -1      2385-6.11722E-03-1.52699E-02-5.15346E-02
 -1      2386 3.04389E-02 1.20731E-02-1.61589E-01
 -1      2387-1.60134E-02 2.28193E-02-2.05742E+00
 -1      2388 5.75146E-02 3.56723E-02-8.13636E-01
 -1      2389-5.31583E-03-5.81635E-02-1.61285E+00
 -1      2390-4.61360E-02-3.00085E-02-3.73558E-01
 -1      2391 3.09152E-02 1.45272E-03-1.02271E-01
 -1      2392-2.67920E-02-6.02691E-02-6.44924E-01
 -1      2393 1.13483E-02 2.62727E-02-1.34633E-01
 -1      2394 8.13221E-03 3.26661E-03-2.21383E-02
 -1      2395-2.41862E-02-3.39450E-02-1.86976E-01
 -1      2396-6.24008E-02-2.10505E-02-1.35177E+00
 -1      2397-1.93434E-02-3.89385E-02-3.22229E-01
 -1      2398 4.57917E-02-4.53993E-02-6.22078E-01
 -1      2399 2.53905E-02-4.33347E-02-7.33144E-01
 -1      2400-4.92004E-02-4.42629E-02-1.21936E+00
 -1      2401 0.00000E+00 0.00000E+00 0.00000E+00
 -1      2402-3.29646E-02-5.06537E-02-1.57788E+00
 -1      2403-4.13751E-02 5.33373E-02-9.06411E-01
 -1      2404 3.18648E-02 2.74662E-02-2.65188E-01
 -1      2405 6.80399E-03 4.44918E-02-1.96520E+00
 -1      2406-3.61082E-02 5.65255E-02-1.00855E+00
 -1      2407 5.15324E-03-7.60492E-03-2.08611E-02
 -1      2408 5.61720E-02-3.32186E-02-7.95637E-01
 -1      2409 6.31306E-03 5.84103E-02-1.66964E+00
 -1      2410 2.61830E-02-4.47644E-02-2.33904E-01
 -1      2411-1.56592E-02 3.81084E-02-2.20774E-01
 -1      2412 1.11568E-02 6.46804E-02-1.32577E+00
 -1      2413-2.95157E-02 5.85545E-02-1.27398E+00
 -1      2414 5.12580E-02-4.20177E-02-8.69280E-01
 -1      2415 2.68964E-02-4.31705E-02-8.63763E-01
 -1      2416 4.10696E-02-5.10776E-02-9.00311E-01
 -1      2417-5.13661E-02-1.13556E-02-3.32265E-01
 -1      2418 3.70200E-02 2.34233E-02-2.77096E-01
 -1      2419-3.33250E-02 4.98248E-02-5.57148E-01
 -1      2420 6.71408E-02 2.98585E-03-7.62247E-01
 -1      2421-4.83654E-02-2.46618E-02-3.22256E-01
 -1      2422-2.99127E-02-6.03730E-02-1.03589E+00
 -1      2423-5.25820E-02-2.51415E-02-1.68077E+00
 -1      2424 5.29655E-02 1.58738E-02-1.76808E+00
 -1      2425 5.01331E-02 3.14210E-02-1.68031E+00
 -1      2426-1.22070E-02-2.42586E-02-6.77915E-02
 -1      2427 5.38576E-03-5.02077E-02-5.54383E-01
 -1      2428 1.21049E-02-4.91516E-02-5.57798E-01
 -1      2429-3.41131E-02-5.70870E-02-1.17758E+00
 -1      2430-7.21435E-03 2.03589E-02-2.08759E+00
 -1      2431-6.15095E-02 1.84584E-02-5.09783E-01
 -1      2432-6.65146E-02 1.48447E-02-1.13402E+00
 -1      2433-5.82010E-02-3.51178E-02-1.00184E+00
 -1      2434-2.35556E-02 4.71761E-02-5.18729E-01
 -1      2435-5.55626E-02-3.75837E-02-7.77620E-01
 -1      2436 1.67337E-02 8.79897E-03-2.09543E+00
 -1      2437 2.02803E-02 3.61856E-02-2.02759E-01
 -1      2438 3.27913E-02-1.09976E-02-2.00347E+00
 -1      2439 4.82969E-02 1.45723E-02-6.43933E-01
 -1      2440-5.70428E-02-2.13157E-02-4.52504E-01
 -1      2441 6.11653E-02 2.19852E-02-1.32567E+00
 -1      2442-5.63985E-02 3.21217E-02-1.33340E+00
 -1      2443-6.80387E-02 1.84922E-03-1.19070E+00
 -1      2444-4.37636E-03 4.29957E-02-1.44764E-01
 -1      2445 6.72222E-02 4.21675E-03-1.09769E+00
 -1      2446-8.44333E-03-5.26529E-03-3.94209E-02
 -1      2447-6.61806E-03 2.81121E-02-6.15506E-02
 -1      2448 6.81223E-02 1.64356E-03-9.47226E-01
 -1      2449 6.74642E-02 8.46075E-03-9.21887E-01
 -1      2450 4.80485E-02 1.26984E-02-4.79697E-01
 -1      2451-2.29248E-02 2.55005E-02-2.01508E+00
 -1      2452-3.85748E-02 4.11326E-02-1.80610E+00
 -1      2453 1.69078E-02 6.42424E-02-6.55371E-01
 -1      2454 1.37753E-02 6.06147E-02-4.72803E-01
 -1      2455-4.33658E-02 2.14706E-02-2.85290E-01
 -1      2456 1.92237E-03 2.89899E-02-6.91146E-02
 -1      2457-3.84028E-02-4.87268E-03-1.81232E-01
 -1      2458-1.61913E-02-1.12139E-02-2.08532E+00
 -1      2459 1.26410E-02-5.50827E-02-1.66713E+00
 -1      2460 4.82039E-02 7.34133E-03-5.71386E-01
 -1      2461-6.71422E-02-5.45689E-03-1.24751E+00
 -1      2462 4.73572E-03 2.24300E-02-9.25778E-02
 -1      2463-2.32265E-02 5.85739E-02-1.47550E+00
 -1      2464 4.82038E-02-1.17182E-02-4.85231E-01
 -1      2465 5.96669E-02 2.44397E-02-6.35634E-01
 -1      2466 2.05054E-02-6.01926E-02-1.14454E+00
 -1      2467 6.29242E-02-1.46083E-02-6.63924E-01
 -1      2468 7.62958E-03-1.30457E-02-3.40948E-02
 -1      2469 8.24574E-04-7.63872E-03-1.50012E-02
 -1      2470-6.92262E-04 6.55796E-02-1.33632E+00
 -1      2471-5.09487E-02 3.32983E-02-4.49687E-01
 -1      2472 4.18451E-02 2.78539E-02-9.69567E-01
 -1      2473 8.98669E-03-5.12991E-02-1.81508E+00
 -1      2474-5.69496E-02 1.65421E-02-3.37583E-01
 -1      2475-4.09556E-02 2.58949E-02-2.04588E-01
 -1      2476-1.29442E-02 6.53053E-02-1.22004E+00
 -1      2477 2.01963E-02 4.15225E-02-2.46838E-01
 -1      2478 2.41583E-02 5.59957E-03-1.04223E-01
 -1      2479 1.27524E-02 2.72855E-03-2.86587E-02
 -1      2480-2.75843E-02 6.34426E-04-5.24750E-02
 -1      2481 2.97909E-02-2.60253E-02-1.56626E-01
 -1      2482-2.71964E-02 5.79502E-02-1.40949E+00
 -1      2483 4.29233E-02-2.05096E-02-2.54567E-01
 -1      2484-1.43626E-02 6.25520E-02-1.37144E+00
 -1      2485-1.47718E-02 6.63989E-02-1.01845E+00
 -1      2486-5.48673E-02 8.27946E-03-1.84025E+00
 -1      2487-9.03376E-03 3.94387E-02-1.85255E-01
 -1      2488-6.36261E-02 7.23632E-03-5.41069E-01
 -1      2489-4.61043E-02 3.31342E-02-4.30481E-01
 -1      2490-2.04599E-02-4.00472E-02-2.52230E-01
 -1      2491 9.94520E-03-3.04215E-02-9.97710E-02
 -1      2492-6.87069E-03-3.85926E-03-2.13132E-02
 -1      2493 0.00000E+00 0.00000E+00 0.00000E+00
 -1      2494 5.20177E-02 1.67220E-03-2.63107E-01
 -1      2495-4.87950E-02 1.26906E-02-4.35602E-01
 -1      2496 4.44261E-02 4.39966E-02-1.55206E+00
 -1      2497 4.17484E-02 4.20154E-02-1.68776E+00
 -1      2498 2.94346E-02 6.11699E-02-9.86298E-01
 -1      2499-2.30553E-02 5.71885E-02-5.15635E-01
 -1      2500-3.36133E-02-2.36488E-02-1.68646E-01
 -1      2501 6.55810E-02-1.21094E-02-7.92707E-01
 -1      2502 3.56515E-02 5.69366E-02-1.18161E+00
 -1      2503 2.29244E-02 5.42907E-02-3.99872E-01
 -1      2504 6.21126E-02-6.18394E-03-5.37351E-01
 -1      2505-9.34076E-03 5.22896E-02-8.56414E-01
 -1      2506-3.11087E-02 1.58194E-03-8.50754E-02
 -1      2507-9.84154E-03-6.56889E-03-1.68763E-02
 -1      2508-3.82213E-02-2.22592E-02-2.10764E-01
 -1      2509-2.36401E-02 6.09533E-02-1.23679E+00
 -1      2510 5.98041E-02 2.87482E-02-1.21910E+00
 -1      2511-7.85168E-03 6.72098E-02-9.70425E-01
 -1      2512-9.61849E-03-5.52704E-02-1.74269E+00
 -1      2513-5.60848E-02-3.65640E-02-1.21613E+00
 -1      2514-1.13589E-02 5.96786E-02-1.60744E+00
 -1      2515-5.59707E-02-3.80232E-02-9.21489E-01
 -1      2516-6.25068E-02 1.25451E-03-1.55372E+00
 -1      2517 4.69760E-02-4.27208E-03-4.87089E-01
 -1      2518-6.45507E-02-2.02592E-02-1.13422E+00
 -1      2519 1.49976E-02 6.65110E-02-1.10914E+00
 -1      2520 5.91567E-03-3.20603E-03-1.93160E-02
 -1      2521-1.45984E-03-6.31512E-02-6.19770E-01
 -1      2522-4.21184E-02-2.63445E-02-8.04511E-01
 -1      2523-1.47768E-02 3.04822E-03-2.16201E-02
 -1      2524 5.56330E-02-3.27179E-02-6.33895E-01
 -1      2525 2.35529E-03-5.91555E-02-1.52881E+00
 -1      2526 4.57681E-02 4.72184E-02-6.31837E-01
 -1      2527 2.59439E-02 5.96695E-02-1.41017E+00
 -1      2528-4.88621E-02-4.60515E-02-1.05143E+00
 -1      2529-2.88064E-02 5.88399E-02-7.30724E-01
 -1      2530-1.06537E-03 4.43060E-02-1.77505E-01
 -1      2531 0.00000E+00 0.00000E+00 0.00000E+00
 -1      2532 2.91426E-03 5.33396E-02-3.44568E-01
 -1      2533 5.16692E-02-3.32699E-02-4.81267E-01
 -1      2534-2.76307E-02 5.19237E-02-4.43460E-01
 -1      2535 1.28386E-02 3.96197E-03-4.13843E-02
 -1      2536 3.35583E-02 5.25037E-02-5.29519E-01
 -1      2537 2.90036E-02 4.34602E-02-3.10504E-01
 -1      2538 5.80095E-02 3.74259E-03-3.80963E-01
 -1      2539-5.99512E-03-4.23890E-02-2.28554E-01
 -1      2540-1.20683E-02-5.09223E-02-5.21923E-01
 -1      2541-3.02225E-03 5.14276E-02-3.26352E-01
 -1      2542-1.83060E-02 5.36285E-03-4.28584E-02
 -1      2543-2.91512E-02 6.02886E-02-1.12959E+00
 -1      2544 1.34817E-02 6.76537E-02-8.09379E-01
 -1      2545 5.86272E-02 4.50127E-04-1.63472E+00
 -1      2546-2.46410E-02-6.19672E-02-1.24269E+00
 -1      2547-6.83722E-02 9.58081E-03-1.00479E+00
 -1      2548-6.53377E-02 1.27903E-02-1.32691E+00
 -1      2549 5.93290E-02 3.10848E-02-7.24781E-01
 -1      2550-6.16964E-02 2.15532E-03-5.11264E-01
 -1      2551-3.36597E-02 5.66107E-02-8.79036E-01
 -1      2552 6.31709E-02 5.91817E-03-5.49012E-01
 -1      2553-1.76196E-02 3.74065E-03-2.09980E+00
 -1      2554 8.88762E-03 6.69689E-02-1.20609E+00
 -1      2555 4.69750E-02 1.31269E-02-2.17118E-01
 -1      2556 1.01687E-02-4.78682E-02-2.70370E-01
 -1      2557 4.40804E-02-2.74977E-02-2.65537E-01
 -1      2558-5.43132E-02 2.76389E-02-4.72986E-01
 -1      2559-6.04011E-02-1.97052E-02-1.47092E+00
 -1      2560 6.59215E-02 5.03385E-04-1.22560E+00
 -1      2561-5.37138E-03 6.61643E-02-7.33399E-01
 -1      2562 0.00000E+00 0.00000E+00 0.00000E+00
 -1      2563 7.14843E-03-7.21370E-03-2.62693E-02
 -1      2564 2.62796E-02-1.68115E-02-8.12537E-02
 -1      2565-1.49158E-02 4.27000E-02-1.96226E+00
 -1      2566 2.31784E-02-1.43319E-02-8.39221E-02
 -1      2567-3.92917E-02 5.04994E-02-1.33326E+00
 -1      2568 5.20429E-02 3.16491E-02-4.82252E-01
 -1      2569-4.52194E-02 3.74749E-02-4.87069E-01
 -1      2570-5.81062E-02 1.36070E-02-4.15846E-01
 -1      2571-5.01451E-02-4.50273E-02-9.12762E-01
 -1      2572 7.95633E-03 6.83782E-02-7.81284E-01
 -1      2573 6.27191E-02 1.42228E-03-5.04739E-01
 -1      2574 7.74037E-03 1.05227E-02-4.17557E-02
 -1      2575 4.95784E-02-4.26621E-02-6.94122E-01
 -1      2576-3.97591E-02-1.49232E-02-2.60987E-01
 -1      2577 7.68729E-03 2.02765E-02-5.88603E-02
 -1      2578 3.96743E-02 8.55607E-03-1.20917E-01
 -1      2579-5.49273E-03-1.80586E-02-2.45773E-02
 -1      2580 3.73121E-02-3.13828E-02-5.58136E-01
 -1      2581 4.39576E-02 2.42947E-02-5.64019E-01
 -1      2582-5.56999E-02 3.31964E-03-3.53483E-01
 -1      2583-1.47690E-02-5.12023E-02-6.89283E-01
 -1      2584-4.72397E-02 4.74762E-02-1.04709E+00
 -1      2585-1.67821E-03 1.80899E-02-4.61191E-02
 -1      2586-1.94825E-02-1.89687E-02-2.05081E+00
 -1      2587-7.09621E-03-1.42472E-02-3.74493E-02
 -1      2588-1.77227E-02 5.93772E-02-5.34041E-01
 -1      2589-5.65971E-02 3.60451E-02-7.90474E-01
 -1      2590 5.37618E-03-5.09685E-02-7.72312E-01
 -1      2591-1.87498E-02-3.33239E-02-2.26248E-01
 -1      2592-2.57641E-02-4.58271E-02-4.80521E-01
 -1      2593-6.60970E-02 1.37025E-02-7.54967E-01
 -1      2594 4.35572E-02-2.48272E-02-6.00722E-01
 -1      2595 6.39160E-02 1.69109E-02-7.21935E-01
 -1      2596 7.53273E-03 6.18677E-02-4.89449E-01
 -1      2597-2.99677E-02 4.01714E-02-3.30149E-01
 -1      2598-4.15774E-02-4.57429E-02-1.49822E+00
 -1      2599 6.85228E-03 4.53161E-02-2.14594E-01
 -1      2600 4.61863E-02 2.25347E-02-2.93378E-01
 -1      2601-2.05537E-02 4.42695E-02-3.37598E-01
 -1      2602 3.04224E-02-5.80979E-02-7.92305E-01
 -1      2603-4.53100E-02 4.80505E-02-8.25974E-01
 -1      2604-9.20809E-03 5.88505E-02-4.52743E-01
 -1      2605 3.81121E-02-2.98937E-02-4.50674E-01
 -1      2606 6.61522E-02 1.25692E-02-7.96660E-01
 -1      2607-8.58216E-03 3.40535E-02-1.50222E-01
 -1      2608-5.67718E-02-3.29074E-02-6.79748E-01
 -1      2609-1.84280E-02-3.88785E-02-2.21818E-01
 -1      2610-1.60662E-02-2.20131E-02-1.23356E-01
 -1      2611 4.10180E-02-4.97927E-02-1.02419E+00
 -1      2612 4.12882E-02 2.97922E-02-7.46690E-01
 -1      2613 1.23054E-02-3.53599E-02-1.97758E+00
 -1      2614 2.65393E-04-2.80957E-02-2.04517E+00
 -1      2615-5.49428E-02 3.33086E-02-5.83653E-01
 -1      2616-5.77151E-02 2.19532E-02-4.20494E-01
 -1      2617-3.13121E-02 2.35949E-02-1.82625E-01
 -1      2618 0.00000E+00 0.00000E+00 0.00000E+00
 -1      2619-4.92605E-02 2.93193E-02-1.75282E+00
 -1      2620 6.64689E-03-4.33303E-02-1.66180E-01
 -1      2621-3.84157E-02-2.11948E-02-3.20242E-01
 -1      2622 4.37571E-02 2.45828E-02-2.22059E-01
 -1      2623-4.39250E-04-1.40184E-02-1.21763E-02
 -1      2624-2.27714E-03 6.73932E-02-1.14874E+00
 -1      2625 4.69951E-02 4.66399E-02-1.28123E+00
 -1      2626 4.27379E-02 2.52681E-02-3.04922E-01
 -1      2627-6.71211E-02-1.09183E-02-1.10132E+00
 -1      2628 8.53222E-03 1.66251E-02-3.68555E-02
 -1      2629 9.59044E-03 3.26732E-02-8.58226E-02
 -1      2630 0.00000E+00 0.00000E+00 0.00000E+00
 -1      2631-4.92807E-03-1.53219E-02-4.25723E-02
 -1      2632-4.97251E-02-5.20842E-03-7.71659E-01
 -1      2633 1.89078E-04 6.82406E-02-1.00320E+00
 -1      2634 4.48975E-02 4.63086E-02-1.40106E+00
 -1      2635-5.80927E-02 3.39799E-02-1.00773E+00
 -1      2636 3.60147E-02-2.21117E-02-3.00285E-01
 -1      2637 1.09960E-02 6.16864E-02-4.84340E-01
 -1      2638 1.03059E-02 5.46479E-02-3.09710E-01
 -1      2639 4.63322E-02 1.38749E-02-1.09984E+00
 -1      2640 5.10054E-03-3.85123E-02-1.60944E-01
 -1      2641-6.67170E-03 1.21911E-02-2.83147E-02
 -1      2642 3.71602E-02 3.17031E-02-1.94197E+00
 -1      2643-5.75963E-02 3.33848E-02-7.28978E-01
 -1      2644-1.02708E-02-3.67444E-02-1.33717E-01
 -1      2645-2.98242E-02-4.40483E-02-7.45035E-01
 -1      2646-6.75721E-02 6.36535E-03-7.45464E-01
 -1      2647-6.43870E-02 1.67669E-02-6.74424E-01
 -1      2648-6.72580E-02 8.96785E-04-6.68069E-01
 -1      2649-2.78630E-02 5.44371E-02-1.57301E+00
 -1      2650 2.54321E-02 6.19891E-02-7.43547E-01
 -1      2651-3.02892E-02 4.85209E-02-1.74409E+00
 -1      2652 3.05921E-02 6.01895E-02-8.37278E-01
 -1      2653 2.09292E-02 6.50862E-02-7.78021E-01
 -1      2654 5.50707E-03 6.62836E-02-6.40464E-01
 -1      2655-6.06637E-02 2.82584E-02-7.59416E-01
 -1      2656 1.35224E-02-8.47265E-03-2.10442E+00
 -1      2657-5.22571E-02-4.02548E-02-7.23199E-01
 -1      2658-6.07630E-02-2.56270E-02-1.30558E+00
 -1      2659 1.04118E-02-1.25197E-03-2.11857E-02
 -1      2660-1.02041E-02-6.53951E-02-1.15434E+00
 -1      2661-5.51672E-02-1.73616E-02-1.71947E+00
 -1      2662-3.13152E-02-3.80094E-03-2.02078E+00
 -1      2663 4.59369E-02 5.07713E-02-9.69684E-01
 -1      2664-6.09069E-02 2.39884E-02-6.19684E-01
 -1      2665 1.45548E-02 6.57201E-02-6.73229E-01
 -1      2666 6.73486E-02-2.50371E-03-7.34466E-01
 -1      2667 3.61168E-02 2.01476E-02-2.91707E-01
 -1      2668 5.39648E-02-2.18447E-02-4.35211E-01
 -1      2669-7.12633E-03-1.12950E-02-2.68355E-02
 -1      2670-5.86365E-02 2.45843E-02-5.11119E-01
 -1      2671 3.93992E-02 4.72372E-02-1.59646E+00
 -1      2672 1.53959E-02 3.45211E-02-1.40575E-01
 -1      2673 4.55953E-02 4.92390E-02-1.19764E+00
 -1      2674-5.08214E-02 1.20750E-02-8.63816E-01
 -1      2675 1.74595E-02-6.28888E-02-8.37634E-01
 -1      2676-3.93993E-02 1.85704E-02-1.97432E+00
 -1      2677 3.74776E-02-3.37681E-02-8.01596E-01
 -1      2678-1.98641E-02-3.03673E-02-2.78023E-01
 -1      2679 1.82023E-02 2.03686E-02-7.60867E-02
 -1      2680 2.81748E-02 5.43936E-02-5.12207E-01
 -1      2681 2.10645E-02 6.18373E-02-1.38622E+00
 -1      2682-1.10283E-02 2.35406E-02-6.41746E-02
 -1      2683 4.75167E-02-4.52595E-02-1.04320E+00
 -1      2684-3.75694E-02 5.61797E-02-9.11831E-01
 -1      2685-3.08566E-03 4.95281E-02-2.46876E-01
 -1      2686-1.20818E-04 5.87504E-02-4.28884E-01
 -1      2687 5.21849E-02 4.30636E-02-8.09438E-01
 -1      2688 1.56594E-02 4.42284E-02-2.50568E-01
 -1      2689 6.24117E-02 2.73528E-02-9.04074E-01
 -1      2690 6.49345E-02-9.70169E-03-1.19410E+00
 -1      2691-6.66920E-02 1.51817E-02-9.31051E-01
 -1      2692-6.41919E-02 1.19797E-02-5.68551E-01
 -1      2693 1.12133E-02 5.82262E-02-1.64113E+00
 -1      2694-3.08191E-02-5.48337E-02-1.44785E+00
 -1      2695-2.88962E-02 4.29154E-02-9.52383E-01
 -1      2696-4.70858E-02-1.48584E-02-3.00003E-01
 -1      2697 5.76524E-02 2.10654E-02-1.51769E+00
 -1      2698 3.79140E-02 1.20007E-02-2.94315E-01
 -1      2699 4.57717E-03 6.83583E-02-9.13515E-01
 -1      2700 4.78923E-02-9.30218E-03-9.79614E-01
 -1      2701 3.97598E-03-4.64607E-02-3.96629E-01
 -1      2702 4.84848E-02-1.26256E-02-6.54780E-01
 -1      2703-1.36413E-02-5.03766E-02-8.09728E-01
 -1      2704 6.66878E-02 1.49529E-02-1.00717E+00
 -1      2705-8.51160E-03 6.55244E-02-6.28573E-01
 -1      2706 5.52005E-02 3.45485E-02-6.10631E-01
 -1      2707-1.00568E-02 1.12066E-02-2.11083E+00
 -1      2708 2.73225E-02-2.41475E-02-1.99334E+00
 -1      2709-5.44293E-02-2.64980E-02-4.45394E-01
 -1      2710 6.05731E-02 1.50793E-02-1.44518E+00
 -1      2711 6.80571E-02-3.43780E-03-9.48738E-01
 -1      2712-1.28319E-02 5.63260E-02-4.27422E-01
 -1      2713 4.74915E-02 4.85055E-02-1.10999E+00
 -1      2714 5.04123E-02 5.31085E-03-7.05280E-01
 -1      2715 4.98449E-02 4.07102E-02-5.73047E-01
 -1      2716-1.13738E-03 6.01217E-03-1.22641E-02
 -1      2717 2.21769E-02 6.12340E-02-5.65790E-01
 -1      2718-6.42246E-02-1.13363E-02-1.36382E+00
 -1      2719 6.36541E-02 1.99074E-02-1.15526E+00
 -1      2720 1.93282E-02-5.93191E-02-1.29428E+00
 -1      2721 3.32213E-02 5.64811E-02-1.30687E+00
 -1      2722-3.08708E-03 6.35283E-02-1.44973E+00
 -1      2723 1.86782E-02-4.63207E-02-1.86984E+00
 -1      2724 4.14731E-02-1.15371E-02-3.02743E-01
 -1      2725-2.97130E-02 2.01980E-02-1.06835E-01
 -1      2726 2.85399E-02-1.71812E-02-1.73215E-01
 -1      2727-1.68477E-02 6.45201E-02-8.48107E-01
 -1      2728-6.22308E-02 2.42319E-02-1.18279E+00
 -1      2729-6.25410E-02 2.19642E-02-1.24959E+00
 -1      2730 8.37535E-03-2.78485E-05-1.85150E-02
 -1      2731-7.66833E-03 6.48614E-02-1.32757E+00
 -1      2732-6.23311E-02 2.50462E-02-1.01308E+00
 -1      2733-6.26984E-02 1.07094E-02-1.46006E+00
 -1      2734 4.42028E-02-2.45248E-02-7.44446E-01
 -1      2735 6.65259E-02-9.83991E-03-9.32625E-01
 -1      2736-2.72001E-02-2.07940E-02-1.54810E-01
 -1      2737-2.37932E-02 5.19722E-02-4.15199E-01
 -1      2738 6.38222E-02 2.34846E-02-8.94792E-01
 -1      2739 2.40507E-02-1.33997E-03-9.18817E-02
 -1      2740-6.08774E-03-5.25729E-02-1.85988E+00
 -1      2741 4.67935E-02-6.19808E-03-3.55795E-01
 -1      2742 1.82696E-02 6.46903E-02-1.22531E+00
 -1      2743 2.47237E-02 6.32730E-02-1.06928E+00
 -1      2744-1.12632E-02-4.86064E-02-1.10580E+00
 -1      2745 4.69215E-03-1.01340E-03-1.50105E-02
 -1      2746 3.92985E-02 4.88094E-02-4.77532E-01
 -1      2747 1.13745E-02 3.10720E-02-1.33712E-01
 -1      2748 3.13028E-02 4.00185E-02-3.06937E-01
 -1      2749 3.43262E-02 5.17834E-02-4.31587E-01
 -1      2750 2.51832E-02 3.77304E-02-2.25117E-01
 -1      2751 1.38925E-02 6.14013E-02-1.48250E+00
 -1      2752 3.83542E-02 5.43424E-02-6.66113E-01
 -1      2753 2.25851E-03-2.47963E-02-6.01366E-02
 -1      2754-4.96282E-02 4.31874E-02-1.17203E+00
 -1      2755 5.53192E-02 3.90500E-02-7.40224E-01
 -1      2756-5.63860E-02 3.41936E-02-1.16852E+00
 -1      2757 6.46587E-02 4.21289E-03-6.27229E-01
 -1      2758-4.57831E-02 4.35160E-02-1.45647E+00
 -1      2759-5.12058E-02 9.81874E-03-2.92904E-01
 -1      2760 4.48101E-02 2.68764E-02-7.03629E-01
 -1      2761 3.97436E-02 5.57352E-02-1.05254E+00
 -1      2762 0.00000E+00 0.00000E+00 0.00000E+00
 -1      2763 5.83858E-02 3.55134E-02-1.02244E+00
 -1      2764 5.03700E-02 4.58358E-02-9.50110E-01
 -1      2765-1.63809E-02 5.42167E-02-3.85470E-01
 -1      2766 5.09939E-02-6.17142E-03-7.09035E-01
 -1      2767 4.12905E-02-2.86637E-02-5.49967E-01
 -1      2768 2.42146E-02-6.02779E-02-7.05515E-01
 -1      2769 3.78220E-02 5.76110E-02-8.91319E-01
 -1      2770-1.06667E-02-1.30030E-02-5.34847E-02
 -1      2771-7.50699E-04 2.97364E-02-2.04512E+00
 -1      2772-5.61248E-02 2.56285E-02-1.53639E+00
 -1      2773-3.96842E-02-2.41707E-02-4.39414E-01
 -1      2774-6.82260E-02-5.27590E-03-1.01457E+00
 -1      2775-6.61965E-02-1.38382E-02-1.22673E+00
 -1      2776 5.33091E-02 3.76616E-02-1.34043E+00
 -1      2777 5.53084E-02 3.88224E-02-1.17930E+00
 -1      2778-2.96284E-02-4.16676E-02-8.97536E-01
 -1      2779-6.80897E-03-2.51043E-02-6.08689E-02
 -1      2780 4.69711E-02 4.90430E-02-8.07004E-01
 -1      2781 3.90701E-02 3.99408E-02-1.81956E+00
 -1      2782 3.15011E-02 1.67326E-02-2.01474E+00
 -1      2783-6.91853E-02 1.04809E-03-8.62346E-01
 -1      2784-2.47787E-02-4.66339E-02-6.89992E-01
 -1      2785-2.81020E-02-4.50284E-02-5.89049E-01
 -1      2786 4.08527E-02 5.47431E-02-8.19670E-01
 -1      2787-3.09353E-02-4.22648E-02-7.86568E-01
 -1      2788-3.57127E-02 4.80972E-02-1.63103E+00
 -1      2789-1.46337E-04 6.61768E-02-6.40202E-01
 -1      2790 2.55175E-02 3.48646E-02-2.30156E-01
 -1      2791 1.49701E-02 4.84476E-02-2.72937E-01
 -1      2792 3.91426E-02 4.94244E-02-1.47995E+00
 -1      2793-4.92909E-02 1.14814E-02-1.00673E+00
 -1      2794-1.13344E-02-3.11015E-02-9.75441E-02
 -1      2795 2.80583E-02 5.87988E-02-6.51436E-01
 -1      2796 4.55862E-02-4.75136E-02-9.58781E-01
 -1      2797-2.39610E-05 4.58574E-02-2.03987E-01
 -1      2798-3.95381E-02-3.17922E-02-7.97087E-01
 -1      2799-4.04707E-02-2.89779E-02-9.78072E-01
 -1      2800-1.38836E-02-4.01104E-02-2.32466E-01
 -1      2801-4.18503E-02 4.55185E-02-1.51589E+00
 -1      2802-3.61076E-02-5.38425E-02-1.31421E+00
 -1      2803 1.17764E-02 6.77540E-02-1.02465E+00
 -1      2804 5.53320E-02 2.05376E-02-1.64686E+00
 -1      2805 1.53330E-03-4.30656E-02-2.85310E-01
 -1      2806 6.52756E-02 6.33443E-03-1.28336E+00
 -1      2807-1.48196E-02 6.47546E-02-6.89560E-01
 -1      2808 6.59416E-02 1.64759E-02-8.70801E-01
 -1      2809-4.92134E-02-8.34511E-03-9.83263E-01
 -1      2810 6.23594E-02 3.53414E-03-1.44385E+00
 -1      2811 5.52362E-02 4.22114E-02-9.42922E-01
 -1      2812 4.42372E-02 4.12996E-02-4.67580E-01
 -1      2813-3.84517E-02-3.34832E-02-5.28491E-01
 -1      2814 4.09279E-04-1.07642E-02-1.40185E-02
 -1      2815-6.11993E-02 2.11913E-02-1.40796E+00
 -1      2816-2.51682E-02 6.10747E-02-8.17013E-01
 -1      2817 1.86282E-02-1.16077E-02-8.93306E-02
 -1      2818-3.43686E-02 1.91415E-02-1.55552E-01
 -1      2819-1.86505E-02 2.78088E-03-1.62219E-02
 -1      2820-6.13392E-02 2.63524E-02-9.00627E-01
 -1      2821-2.93157E-02-3.92012E-02-3.87855E-01
 -1      2822 4.08154E-02 5.13682E-02-6.27695E-01
 -1      2823-4.85172E-02 4.28006E-02-1.32057E+00
 -1      2824-4.53805E-02-4.60533E-02-1.36662E+00
 -1      2825 6.17767E-02 2.71973E-02-1.07943E+00
 -1      2826 2.88222E-02-5.79443E-02-6.34316E-01
 -1      2827-5.01372E-02 3.37379E-02-1.62053E+00
 -1      2828-2.78980E-02 6.06867E-02-9.39470E-01
 -1      2829-5.22391E-02 3.50273E-02-1.47545E+00
 -1      2830-5.69672E-02 2.02342E-02-1.63264E+00
 -1      2831 4.90109E-02 4.03729E-02-1.43681E+00
 -1      2832 1.02113E-02 4.06263E-02-1.65435E-01
 -1      2833 9.44472E-03 1.91651E-02-6.84387E-02
 -1      2834 6.57831E-02 1.35796E-02-1.18272E+00
 -1      2835 5.34597E-02 4.25222E-02-1.06054E+00
 -1      2836-5.23938E-04 2.73964E-02-3.67661E-02
 -1      2837 0.00000E+00 0.00000E+00 0.00000E+00
 -1      2838-4.45876E-02 4.09589E-02-1.57413E+00
 -1      2839 3.21792E-03 2.76919E-02-2.04846E+00
 -1      2840-2.36237E-03-2.54874E-02-2.04848E+00
 -1      2841 2.76302E-02 3.53902E-02-1.97017E+00
 -1      2842-3.56737E-03 4.34707E-02-1.96936E+00
 -1      2843-3.99204E-02 5.19976E-03-1.98596E+00
 -1      2844-1.65779E-02-3.44967E-02-1.98507E+00
 -1      2845-3.61106E-02-1.18564E-02-1.99622E+00
 -1      2846 2.11499E-02-2.58723E-02-2.00430E+00
 -1      2847 3.76872E-02-3.11062E-02-1.90457E+00
 -1      2848 2.18118E-02 2.13916E-02-2.04191E+00
 -1      2849 7.90032E-03-3.43701E-02-1.99762E+00
 -1      2850 8.70911E-03 3.02667E-02-2.04172E+00
 -1      2851-1.01362E-02-2.22415E-02-2.05604E+00
 -1      2852-2.54136E-03-3.25709E-02-2.01260E+00
 -1      2853 2.42363E-02 2.27999E-02-2.02426E+00
 -1      2854-2.22808E-02 3.71611E-02-1.97923E+00
 -1      2855 2.68085E-02 5.83758E-03-2.04562E+00
 -1      2856 4.73759E-02-6.15827E-03-1.94756E+00
 -1      2857 1.03014E-02-4.46297E-02-1.94922E+00
 -1      2858-2.65214E-02-3.48686E-02-1.95770E+00
 -1      2859 6.69039E-03-2.93129E-02-2.01680E+00
 -1      2860 2.65325E-02 3.09584E-03-2.04441E+00
 -1      2861-1.20798E-02-2.75505E-02-2.04014E+00
 -1      2862-3.00451E-02 2.01371E-03-2.03093E+00
 -1      2863-1.45747E-02 2.59165E-02-2.05085E+00
 -1      2864-2.61967E-02 1.58485E-02-2.03844E+00
 -1      2865-4.11138E-02-5.42031E-03-1.97242E+00
 -1      2866 2.90746E-02 7.41351E-03-2.02366E+00
 -1      2867-2.77081E-02-1.74199E-02-2.02119E+00
 -1      2868 1.94373E-02-1.33706E-02-2.05546E+00
 -1      2869-2.57025E-02 1.34602E-02-2.05876E+00
 -1      2870-3.30058E-02 2.44808E-02-1.98931E+00
 -1      2871 2.77676E-02-4.43917E-03-2.02881E+00
 -1      2872-2.75529E-02-1.21947E-02-2.05192E+00
 -1      2873 1.39224E-02 3.66429E-02-1.98942E+00
 -1      2874 3.57812E-02 2.17711E-02-1.98146E+00
 -1      2875 1.35764E-02-2.46353E-02-2.04141E+00
 -1      2876-6.38638E-03-3.14648E-02-2.01589E+00
 -1      2877-3.33651E-02-2.78996E-02-1.96295E+00
 -1      2878-1.68999E-02 2.66893E-02-2.02379E+00
 -1      2879-1.07969E-02 3.20485E-02-2.04165E+00
 -1      2880 2.60632E-02-1.40445E-02-2.01567E+00
 -1      2881 1.59856E-02 2.54572E-02-2.03682E+00
 -1      2882 2.60489E-04 3.45106E-02-2.01139E+00
 -1      2883 7.41854E-03 3.32633E-02-2.01168E+00
 -1      2884 1.75893E-02-2.93617E-02-2.00825E+00
 -1      2885-3.42673E-02 3.76713E-02-1.92857E+00
 -1      2886 3.67705E-02 1.27363E-02-1.99696E+00
 -1      2887 3.09570E-02-9.15008E-04-2.02596E+00
 -1      2888 2.21051E-02-3.47338E-02-1.95287E+00
 -1      2889-2.26713E-02 2.23604E-02-2.04345E+00
 -1      2890-2.19235E-02-3.13381E-02-1.99890E+00
 -1      2891-4.46654E-02-2.74346E-02-1.90155E+00
 -1      2892 3.78099E-02-7.46272E-03-1.98840E+00
 -1      2893 4.36184E-02 3.03974E-02-1.86092E+00
 -1      2894 4.49254E-02 1.40500E-02-1.93619E+00
 -1      2895-1.10564E-02 3.88000E-02-1.99842E+00
 -1      2896-9.03280E-03 4.81329E-02-1.93558E+00
 -1      2897-2.60548E-02-3.99294E-04-2.04696E+00
 -1      2898 1.97532E-02 4.20812E-02-1.94579E+00
 -1      2899-1.68993E-02-2.65859E-02-2.01568E+00
 -1      2900 1.12621E-03 5.40361E-02-1.88781E+00
 -1      2901 1.81022E-02-2.04697E-02-2.04028E+00
 -1      2902 3.38135E-03 3.23053E-02-2.02263E+00
 -1      2903-3.69007E-02 3.01230E-02-1.93715E+00
 -1      2904 2.49656E-02-1.74746E-02-2.01480E+00
 -1      2905 2.66374E-02 1.82254E-02-2.01928E+00
 -1      2906-1.94963E-02 3.16717E-02-2.00385E+00
 -1      2907 1.21260E-01 5.33334E-02-1.89043E+00
 -1      2908-2.89465E-02 6.68622E-03-2.03333E+00
 -1      2909-3.07932E-02-6.16568E-03-2.02699E+00
 -1      2910 1.87453E-02 3.11168E-02-2.00621E+00
 -1      2911 4.07432E-02-1.99741E-02-1.95174E+00
 -1      2912-5.07381E-02 7.89506E-03-1.91793E+00
 -1      2913-2.55066E-02-1.84734E-02-2.02857E+00
 -1      2914 4.30172E-02 2.67705E-02-1.92166E+00
 -1      2915-2.87532E-02 4.03273E-02-1.93772E+00
 -1      2916-5.18134E-03-3.71798E-02-1.99359E+00
 -1      2917-3.24213E-03-4.00948E-02-1.96594E+00
 -1      2918-1.39009E-01-1.13341E-03-1.89498E+00
 -1      2919-3.68637E-03 3.35233E-02-2.01889E+00
 -1      2920 1.11755E-02 3.58707E-02-2.00526E+00
 -1      2921-1.12179E-02 3.59722E-02-2.01130E+00
 -1      2922 3.47428E-02 8.08161E-03-2.00009E+00
 -1      2923-2.80841E-02 1.74962E-02-2.02715E+00
 -1      2924-3.04792E-02-2.03878E-02-2.00546E+00
 -1      2925 1.04758E-02 5.26030E-02-1.88472E+00
 -1      2926 1.13681E-01 4.78794E-02-1.98179E+00
 -1      2927 1.31660E-01 4.40986E-03-1.89175E+00
 -1      2928 3.38442E-02-5.74034E-03-2.00383E+00
 -1      2929 1.97709E-02-3.27238E-02-1.99173E+00
 -1      2930 1.21361E-01 3.92827E-03-1.98461E+00
 -1      2931 2.92286E-02-2.02507E-02-1.99882E+00
 -1      2932 8.80461E-02 4.02303E-02-1.92941E+00
 -1      2933 1.27430E-01 5.38488E-02-1.88756E+00
 -1      2934 3.62571E-04-1.33808E-01-1.88731E+00
 -1      2935 1.36183E-03 4.49971E-02-1.94916E+00
 -1      2936 4.82967E-02-1.28183E-01-1.88248E+00
 -1      2937 1.30696E-01 3.30967E-03-1.89485E+00
 -1      2938 6.97961E-03 3.68167E-02-2.00077E+00
 -1      2939-1.28004E-01-5.16273E-02-1.89390E+00
 -1      2940-1.14269E-01-4.58490E-02-1.98834E+00
 -1      2941 4.61135E-02 2.12855E-02-1.92660E+00
 -1      2942 4.60046E-03 1.50671E-01-1.87760E+00
 -1      2943 2.38988E-03 1.24668E-01-1.98463E+00
 -1      2944-9.29617E-02-9.59173E-02-1.89690E+00
 -1      2945 9.75096E-02 9.74313E-02-1.88711E+00
 -1      2946-1.23926E-01-1.13433E-03-1.99140E+00
 -1      2947 8.65512E-02 8.78672E-02-1.98228E+00
 -1      2948-2.99068E-02 3.04812E-02-1.97114E+00
 -1      2949 9.55718E-02 4.93639E-03-1.93015E+00
 -1      2950-4.73243E-02 1.27167E-01-1.90041E+00
 -1      2951 2.35813E-03 1.33792E-01-1.89698E+00
 -1      2952 9.63372E-02 9.80690E-02-1.88843E+00
 -1      2953 4.63745E-02-1.69410E-02-1.90785E+00
 -1      2954-1.39345E-01 5.59566E-02-1.89154E+00
 -1      2955-4.24969E-02 1.14209E-01-1.98791E+00
 -1      2956 4.93523E-02 1.23838E-01-1.89210E+00
 -1      2957 7.47307E-03-3.52879E-02-1.99527E+00
 -1      2958 9.50340E-02 5.09735E-04-1.93443E+00
 -1      2959 2.63477E-02 2.46614E-02-2.00635E+00
 -1      2960 9.28734E-02 3.68266E-02-1.92726E+00
 -1      2961-4.50386E-04 9.85215E-02-1.93472E+00
 -1      2962 4.43975E-02 1.15769E-01-1.98255E+00
 -1      2963-2.20170E-02 4.35329E-02-1.93765E+00
 -1      2964 5.03025E-02 1.30004E-01-1.88769E+00
 -1      2965-4.94638E-02-1.23522E-01-1.89213E+00
 -1      2966-8.56825E-02-9.06522E-02-1.98743E+00
 -1      2967-6.90654E-02-6.93234E-02-1.93613E+00
 -1      2968 5.68124E-04-1.23479E-01-1.97897E+00
 -1      2969 1.60163E-02 4.79368E-02-1.93325E+00
 -1      2970 2.89909E-02 2.23678E-02-1.99969E+00
 -1      2971 6.76117E-02 7.24148E-02-1.92775E+00
 -1      2972 1.26170E-01-4.92356E-02-1.89215E+00
 -1      2973 3.71539E-02 8.96501E-02-1.93073E+00
 -1      2974-1.00934E-01-2.00740E-03-1.93538E+00
 -1      2975 3.34065E-03 1.08272E-01-1.92162E+00
 -1      2976-5.22097E-02 1.84383E-02-1.86998E+00
 -1      2977-9.25306E-02-3.85899E-02-1.93408E+00
 -1      2978-1.23499E-01-4.83247E-02-1.89698E+00
 -1      2979-7.08519E-03 3.73538E-02-2.00158E+00
 -1      2980 4.37417E-02-1.14240E-01-1.97981E+00
 -1      2981-1.13463E-01 4.69268E-02-1.99132E+00
 -1      2982-3.64564E-02-6.31337E-03-2.00567E+00
 -1      2983-9.05116E-02 9.56207E-02-1.90280E+00
 -1      2984-9.06654E-02-3.30804E-02-1.93581E+00
 -1      2985 3.17346E-03-9.73938E-02-1.92627E+00
 -1      2986-1.94989E-02-4.58781E-02-1.91639E+00
 -1      2987-1.33231E-01-5.13802E-04-1.90107E+00
 -1      2988-3.46741E-02 8.50390E-03-2.01093E+00
 -1      2989-3.67149E-02 9.03469E-02-1.93870E+00
 -1      2990 7.12182E-02 6.94643E-02-1.92751E+00
 -1      2991 3.30894E-02 9.48076E-02-1.92757E+00
 -1      2992-4.61215E-02 1.27800E-01-1.89275E+00
 -1      2993-2.80646E-02 2.36716E-02-2.01506E+00
 -1      2994 8.97949E-02-9.45066E-02-1.89620E+00
 -1      2995 1.12126E-01-4.51607E-02-1.98813E+00
 -1      2996-9.58355E-02-1.01848E-01-1.89067E+00
 -1      2997-1.16626E-03-1.32685E-01-1.88589E+00
 -1      2998-4.45086E-02-1.15713E-01-1.98321E+00
 -1      2999-6.78961E-02-7.51670E-02-1.93071E+00
 -1      3000-2.99819E-03-9.68860E-02-1.92616E+00
 -1      3001 3.29587E-02-9.30641E-02-1.92313E+00
 -1      3002 7.07883E-03 5.10852E-02-1.92193E+00
 -1      3003-1.96295E-02-3.16145E-02-1.99775E+00
 -1      3004-8.33991E-02 8.71216E-02-1.92052E+00
 -1      3005-8.25713E-02 8.78631E-02-1.99044E+00
 -1      3006-3.15809E-02 2.08128E-02-2.00728E+00
 -1      3007-1.02087E-01 4.27042E-02-1.94176E+00
 -1      3008-1.26588E-01 5.04120E-02-1.89689E+00
 -1      3009-9.20835E-02 3.62835E-02-1.93648E+00
 -1      3010 4.76937E-02-1.22918E-01-1.89122E+00
 -1      3011-5.58414E-02 5.74555E-02-1.98847E+00
 -1      3012-6.46551E-02 7.20468E-02-1.94017E+00
 -1      3013-9.79223E-02 1.13097E-03-1.93920E+00
 -1      3014 8.23591E-02-8.89098E-02-1.98472E+00
 -1      3015 1.25300E-01-5.06649E-02-1.89530E+00
 -1      3016-3.28726E-02 9.29746E-02-1.93148E+00
 -1      3017 9.11135E-02-3.45864E-02-1.93220E+00
 -1      3018 8.84294E-02-3.91861E-02-1.93479E+00
 -1      3019-3.68205E-02-8.88181E-02-1.93138E+00
 -1      3020-5.09439E-02-1.30004E-01-1.88689E+00
 -1      3021 3.71297E-02-8.84112E-02-1.92952E+00
 -1      3022 6.75013E-02-6.71063E-02-1.93508E+00
 -1      3023 9.29816E-02-9.98968E-02-1.88865E+00
 -1      3024 6.39303E-02-7.37212E-02-1.92815E+00
 -1      3025-3.48576E-02-9.47102E-02-1.92694E+00
 -1      3026-2.01230E-03-8.98684E-04-1.95368E+00
 -1      3027 3.46798E-04-5.87946E-03-1.96906E+00
 -1      3028-3.37869E-04 1.91213E-03-1.95189E+00
 -1      3029-4.90513E-03-2.09508E-03-1.95229E+00
 -1      3030-1.65653E-03 3.20003E-03-2.00849E+00
 -1      3031-1.59638E-03 3.02780E-03-1.96315E+00
 -1      3032-5.18786E-04 3.09297E-03-1.95267E+00
 -1      3033-1.02258E-03-2.09658E-05-2.00459E+00
 -1      3034 3.45846E-04 4.26158E-03-2.01106E+00
 -1      3035-1.82535E-03 1.97599E-03-2.00364E+00
 -1      3036 1.53296E-03-6.18890E-04-2.00389E+00
 -1      3037-1.93292E-03 8.72727E-04-1.95863E+00
 -1      3038 1.18449E-02 3.04563E-03-1.98031E+00
 -1      3039-4.93517E-03-2.00069E-04-1.95826E+00
 -1      3040 1.58161E-03-1.77971E-04-2.00574E+00
 -1      3041-1.88971E-03 7.39311E-04-2.01032E+00
 -1      3042 7.44366E-04 1.51553E-02-1.98016E+00
 -1      3043 1.30634E-03 1.64027E-03-1.96256E+00
 -1      3044 7.17504E-03 5.65115E-03-1.94588E+00
 -1      3045 2.39304E-03 9.72146E-04-1.97272E+00
 -1      3046-5.52773E-03 2.04000E-02-1.96919E+00
 -1      3047-1.66104E-05-1.68141E-03-1.99654E+00
 -1      3048-3.87517E-04-1.84490E-04-1.99890E+00
 -1      3049 1.14572E-02 1.96963E-02-1.99446E+00
 -1      3050-8.01693E-03 1.47163E-02-1.98735E+00
 -1      3051-5.06120E-03 1.03301E-03-2.00758E+00
 -1      3052 4.29488E-04 2.67301E-05-1.94855E+00
 -1      3053 8.08889E-04-1.86519E-03-1.99915E+00
 -1      3054 3.19284E-03-1.36243E-02-1.97544E+00
 -1      3055 1.15961E-02 1.99863E-02-1.96527E+00
 -1      3056-1.28776E-02-6.63968E-03-1.98754E+00
 -1      3057-2.45322E-03 6.75208E-03-1.94854E+00
 -1      3058 2.77671E-03 7.25238E-03-1.93946E+00
 -1      3059 1.82414E-02-3.62975E-03-1.97104E+00
 -1      3060-2.12089E-03 2.26172E-03-1.96473E+00
 -1      3061 4.06673E-03-1.37302E-03-1.95754E+00
 -1      3062-1.95776E-04 3.20136E-03-1.95684E+00
 -1      3063-3.39032E-03-2.03136E-02-1.98711E+00
 -1      3064-6.68145E-04 1.94506E-03-2.00305E+00
 -1      3065 7.40293E-03 6.26388E-04-1.94639E+00
 -1      3066 1.99319E-02-3.58168E-03-1.99435E+00
 -1      3067 1.09599E-02-1.84553E-02-1.98606E+00
 -1      3068 1.61337E-03-8.65200E-03-1.94184E+00
 -1      3069-4.23557E-03 1.47005E-02-2.00377E+00
 -1      3070 1.33134E-02-8.71878E-03-1.98366E+00
 -1      3071-1.06890E-02-1.10392E-03-1.95150E+00
 -1      3072-7.86682E-03-5.77090E-03-1.95118E+00
 -1      3073 7.24674E-05 2.80560E-03-1.97559E+00
 -1      3074-8.13569E-03 3.79064E-03-2.01596E+00
 -1      3075-9.32616E-03 6.78983E-04-1.95484E+00
 -1      3076 1.43560E-02 1.27841E-02-1.96579E+00
 -1      3077-5.78581E-03 8.23222E-03-1.94786E+00
 -1      3078-2.30573E-02-3.11437E-03-1.97202E+00
 -1      3079-1.76848E-03 2.75315E-03-2.00973E+00
 -1      3080 7.92629E-03-5.25053E-03-1.94858E+00
 -1      3081 1.90410E-03-5.85116E-03-1.93623E+00
 -1      3082-1.92019E-03-1.49617E-03-2.00282E+00
 -1      3083-1.26685E-02-1.69719E-02-1.96973E+00
 -1      3084-1.28547E-02 9.91563E-03-1.98907E+00
 -1      3085 5.02573E-03-1.01465E-02-1.95504E+00
 -1      3086-4.94571E-03 1.05541E-02-1.95510E+00
 -1      3087-2.35130E-02-3.39700E-03-1.99725E+00
 -1      3088 1.36543E-03 1.00581E-02-1.93911E+00
 -1      3089-2.21579E-02 5.27422E-03-1.97433E+00
 -1      3090-6.36164E-03 2.08193E-03-1.94920E+00
 -1      3091 4.99270E-03-4.06110E-03-1.94635E+00
 -1      3092 1.56766E-02 1.37578E-02-1.99082E+00
 -1      3093-3.30924E-03 1.96327E-03-1.96429E+00
 -1      3094-5.27039E-03-8.13182E-03-1.94587E+00
 -1      3095-5.37775E-04-2.04422E-03-1.94265E+00
 -1      3096-2.16307E-02 5.70937E-03-1.99789E+00
 -1      3097 1.18555E-03 2.83128E-03-1.96879E+00
 -3
    1PSTEP                         2           1           1          
  100CL  101 1.000000000        3097                     0    1           1
 -4  STRESS      6    1
 -5  SXX         1    4    1    1
 -5  SYY         1    4    2    2
 -5  SZZ         1    4    3    3
 -5  SXY         1    4    1    2
 -5  SYZ         1    4    2    3
 -5  SZX         1    4    3    1
 -1         1-6.96692E-01-3.37252E-01-5.28865E-01-5.80490E-02-1.51514E-01-9.47964E-01
 -1         2-5.92919E-01 2.83246E-02-6.11662E-01-2.01003E-01-2.37165E-01-7.35276E-01
 -1         3-1.42095E+00-1.23024E+00-3.28530E-01 3.87960E-01 1.97108E-01 5.91387E-01
 -1         4-1.68009E+00-8.14530E-01-1.46036E-01 2.17726E-01-1.09900E-01 6.87000E-01
 -1         5-1.99328E+00-2.06793E+00 7.36994E-01-4.88624E-01 9.18017E-01-2.95706E-02
 -1         6-5.15963E+00-1.91355E+00 6.64552E-01-1.92276E-01-1.09436E-01-4.81210E-02
 -1         7-1.36112E+00-4.55978E-01-9.19233E-01-4.00725E-01-3.13216E-01 5.67580E-01
 -1         8-1.60231E+00-1.75267E+00 5.07243E-01 8.34214E-01-7.38529E-01 1.21945E-01
 -1         9 5.78048E-01-2.29880E-01 3.74061E-01 8.52577E-02-6.85840E-02-4.65000E-01
 -1        10-1.68010E+00-6.54036E-01 1.22902E-01 6.21710E-01 7.82656E-02 5.01609E-01
 -1        11 4.46927E-01-1.00553E-01 2.04128E-01 3.00210E-02-9.55959E-02-3.38191E-01
 -1        12 2.74005E+00-1.86900E-01 9.15033E-01 3.35482E-01 4.39564E-01 9.48937E-01
 -1        13-1.10175E+00-2.30628E+00-5.87962E-01 2.72036E-01-6.76740E-01 1.16235E+00
 -1        14 8.28525E-01-1.04030E+00 9.12139E-01 2.74705E-01-1.05035E-01 7.01642E-01
 -1        15-4.24212E+00-1.80236E+00 4.86105E-01 6.54956E-01-5.39583E-01 1.23651E-01
 -1        16-5.84764E-01-2.42479E+00-7.14735E-01-3.67398E-01-2.14059E-01 1.01946E+00
 -1        17-1.21346E+00-2.26982E+00-1.41241E+00-1.47659E-01-3.87542E-01 8.18715E-01
 -1        18-2.11543E+00-6.81030E+00-4.74171E+00-1.18116E+00 2.90841E-01 4.01753E-01
 -1        19-6.96155E-01-6.25781E-01-1.13999E-01 3.57186E-03 1.37444E-01 4.86901E-01
 -1        20 6.65802E-01 8.95674E-02 5.84912E-01 4.56043E-01-3.66496E-01-6.35213E-01
 -1        21-6.23078E-01-3.95236E-01-5.16858E-01-3.64075E-01 8.64216E-02 4.58113E-01
 -1        22-1.05662E+00-5.75043E-01-9.09061E-02-1.89296E-02 1.13109E-01 4.08470E-01
 -1        23-2.11204E+00-8.72370E-01 1.06077E+00 4.42909E-01-1.12357E-01 3.95696E-01
 -1        24-1.15302E+00 5.45753E-02-1.36537E-02-1.33249E-01-5.87194E-02 4.80392E-01
 -1        25 1.61767E+00-1.25339E-03 1.32920E+00 6.80705E-01 5.40381E-01 1.35726E+00
 -1        26 6.47731E-01 8.17872E-02 4.00357E-01 3.91435E-01-3.68828E-01-5.21059E-01
 -1        27-4.00472E+00-2.31724E+00 3.04016E-01-1.07149E+00 3.35292E-01-4.44835E-02
 -1        28-4.81416E-01-2.60575E-01-8.75420E-01-3.35761E-01-3.67591E-01-8.24299E-01
 -1        29-8.29851E-01-2.22870E+00-3.60265E-01 1.25075E+00 3.91280E-01 6.79847E-01
 -1        30-8.93024E-01-6.38146E-01-2.67402E-01-5.52079E-02-3.24769E-01-1.09971E+00
 -1        31-4.00260E+00-1.28343E+00 8.26715E-01-3.91267E-01 7.04456E-03 3.36805E-01
 -1        32-6.20302E-01-3.61058E+00-9.72581E-01 7.51224E-01 7.52141E-01 3.70462E-01
 -1        33-8.50384E-01-2.19306E+00-1.97086E-01 9.40778E-02 3.70634E-02 4.29368E-01
 -1        34-2.06740E+00-2.72343E+00-2.62227E+00 2.15461E-01 1.12953E+00 1.21461E+00
 -1        35-1.26725E+00-3.39938E+00-2.68678E-02 5.75848E-01 5.61941E-01 5.39528E-01
 -1        36-1.06452E+00-2.47611E+00-1.11296E+00-1.21381E+00 8.62396E-01-1.94912E-01
 -1        37-1.18796E+00-8.57142E-01-3.12113E-02-3.48497E-01 4.88293E-01 5.76081E-01
 -1        38-1.67058E+00-7.68281E-01-9.68181E-02-4.03408E-01 4.73236E-01 2.20308E-01
 -1        39 1.14807E+00 7.57251E-01 1.29835E+00 4.86193E-01 6.88183E-01 7.05393E-01
 -1        40 1.81503E-01 5.21645E-01 6.11751E-01 5.93795E-01-6.34480E-01-4.41002E-01
 -1        41-1.39478E+00-1.42833E+00-1.38013E-01 2.26455E-01 6.75605E-01 7.97377E-01
 -1        42-4.33907E+01-3.07515E+01-1.53936E+01 3.83476E+00-6.44871E-01-1.06849E+00
 -1        43 1.89789E-01-2.46039E-01 2.90958E-01 5.14072E-01 7.05229E-01 5.95510E-01
 -1        44-4.77089E-01-5.93877E-01-6.19950E-01-3.95545E-01-5.28610E-01-7.55368E-01
 -1        45-1.03721E+00-1.21617E+00-5.08211E-01 1.56534E-01-9.56967E-01-8.83503E-01
 -1        46 2.29390E-01 4.42891E-01 3.39956E-01 5.25584E-01-5.92429E-01-2.80629E-01
 -1        47-2.95580E+00-3.42383E+00 1.60168E-01-1.44455E+00 6.42277E-02 3.08634E-01
 -1        48-1.10393E+00-3.08019E+00 2.13394E-01 2.40947E-02 6.60611E-01-7.07617E-01
 -1        49-1.76595E+00-4.26936E+00 6.26094E-01-1.22677E+00 5.70340E-01 1.72606E-01
 -1        50-4.24862E-01-1.07556E+00-4.04569E-01-6.51864E-01 5.94624E-01 4.07910E-01
 -1        51-1.66754E+00-3.79554E-01-5.63645E-01-5.21054E-01 3.89795E-01 1.40740E-01
 -1        52-2.27554E+00 1.13281E-02 3.06143E-01-5.05159E-01 2.27280E-01 1.36397E-01
 -1        53-5.06818E+00-5.07306E+00-4.97649E+00 2.48939E+00-8.71148E-01-4.08567E-01
 -1        54-1.76189E+00-2.85530E+00-1.69468E+00 4.17058E-01 1.35317E+00 1.12200E+00
 -1        55-5.58693E-01-5.12584E-01 1.31007E-01-4.67659E-01 2.24970E-01 3.12443E-01
 -1        56-8.04016E-01-2.05770E+00-4.97198E-02-1.68468E-01 5.18144E-01 2.02097E-01
 -1        57-7.09005E-01-1.38229E+00 9.96474E-02-3.25475E-01 6.34887E-01 1.47750E-01
 -1        58-2.57245E+00-4.47433E+00 4.58186E-01-1.20143E+00-2.02172E-01 2.55689E-01
 -1        59-8.38641E-01-1.00159E+00-5.03684E-01-1.43479E-01-1.26051E+00-5.22791E-01
 -1        60 2.15459E-01 2.22562E-01 4.01195E-01 3.28347E-01-2.78277E-01-4.43885E-01
 -1        61 2.86749E-01 4.21436E-01 3.73797E-01 4.59191E-01-4.22325E-01-3.09600E-01
 -1        62 2.18259E-01 1.89343E-02 1.84148E+00-2.54473E-01 2.40659E+00 1.23914E+00
 -1        63-1.64226E+00-4.20941E+00 5.45516E-01-4.65654E-01-6.51050E-02-3.34220E-01
 -1        64-1.48946E-01-9.30793E-01-6.45132E-01-3.35173E-01-9.96721E-01-4.87828E-01
 -1        65-3.21673E+01-3.24882E+01-1.32646E+01 4.40742E+00-2.20030E+00 1.78774E+00
 -1        66 6.11193E-01 8.86581E-01 1.80844E+00 1.81178E-01 2.02990E+00 1.06643E+00
 -1        67-1.64158E+00-2.65788E-01-5.23724E-01 8.66597E-01 5.09427E-01 2.33422E-01
 -1        68-2.09800E+00-1.01639E+00-2.35084E-01-1.37513E+00 2.86335E-02 2.74622E-01
 -1        69-1.37994E-01-2.04414E+00-4.58568E-01 2.07542E-02 4.32124E-01 2.20549E-01
 -1        70-1.74431E-01-3.43403E+00-2.27443E-01 5.58790E-01 1.29451E-01-1.57391E-01
 -1        71-9.70274E-01-1.58915E+00 1.57383E-01-4.86539E-01 6.67221E-01-1.79931E-01
 -1        72-1.52525E-01 9.28881E-01 6.01088E-01-1.66391E-01-7.47221E-01 1.33850E-01
 -1        73-1.60177E+00-4.75235E+00 2.63930E-01 2.26869E-01 1.91192E-01-5.13393E-02
 -1        74-1.09169E-01 8.91077E-01 6.94406E-01-1.51246E-01-8.24275E-01 4.40989E-02
 -1        75-9.99600E-01-1.07322E-01 2.92943E+00-2.12135E-01 2.04530E+00-1.17784E-01
 -1        76-3.31069E+01-3.03964E+01-1.79013E+01-7.47729E-03-4.37294E+00-5.37637E-01
 -1        77-1.05629E-01-5.97436E-01-6.57335E-01-1.38272E-01-7.66510E-01-1.37384E-01
 -1        78-3.93184E-01-7.64935E-01-4.17658E-01-2.89320E-01-8.39521E-01-4.17059E-01
 -1        79 2.51583E-01 2.46706E-01 2.30020E+00-3.46723E-01 3.44860E+00 1.15378E+00
 -1        80-2.37600E+00-1.16584E+00 5.58743E-01-2.36507E-01 9.10457E-01-6.62201E-02
 -1        81-4.70356E+00-1.82200E+00-3.37229E+00-1.58583E-02 2.38908E-01-7.73763E-01
 -1        82-6.88103E+00-2.44378E+00-3.29859E+00-2.18854E-01 5.64123E-01-3.24387E-01
 -1        83-7.18662E-01-1.66168E+00 1.34094E+00 1.04820E+00 7.16915E-01 1.23667E-02
 -1        84-1.25975E+00-4.40925E+00 6.44653E-01 1.30830E+00 7.20317E-01-2.31392E-01
 -1        85-1.82354E+00 4.82822E-01 9.08689E-01 6.74267E-01 8.47762E-01 1.07230E+00
 -1        86-4.22202E+00-2.46970E+00-1.71970E+00-2.74386E-01 1.72540E+00 5.03029E-01
 -1        87-8.43180E-01-1.45199E+00-1.72785E-02-1.49215E-01 8.77795E-01 4.26706E-02
 -1        88-2.79857E-01-1.37857E+00-6.14794E-01 3.84283E-01 6.05526E-01 7.66746E-02
 -1        89-4.30708E-01-1.66677E+00 9.54243E-01-1.25817E+00 3.95563E-01-4.38973E-01
 -1        90-4.83532E-01-1.35390E+00-2.88676E-01-6.87629E-01 1.53850E-01-1.12702E-01
 -1        91-8.10189E-01-8.56379E-01-7.05657E-01-1.75766E-02-1.14325E+00 1.96876E-01
 -1        92-1.44213E+00-3.89028E+00 1.60257E-01 4.07970E-01 5.02976E-02 5.38367E-01
 -1        93-4.11432E-01-5.01749E-01 1.44617E-01 3.47187E-01 1.75077E-01 7.37725E-04
 -1        94-1.89261E+00-3.63191E+00 5.09076E-01 9.60666E-01 1.75337E-01-1.12060E-01
 -1        95-1.20874E+00-1.83001E+00-1.58517E-02-1.41803E-01 2.00439E-01-3.80931E-01
 -1        96-8.30184E-01-1.26560E+00 1.74656E-01 9.50064E-02 3.70986E-01-1.01797E-02
 -1        97-1.43682E+00-3.66242E-01 8.86131E-01 1.12401E+00 6.34541E-01 5.16867E-02
 -1        98-4.80822E-02 7.69074E-01 5.97304E-01-3.86995E-01-6.90702E-01 2.72803E-01
 -1        99-3.31987E-01-1.60880E+00-8.37722E-01-1.75590E-01 8.01035E-02-5.01954E-01
 -1       100 5.44857E-02 8.45517E-01 6.55810E-01-3.13741E-01-7.48906E-01 2.99479E-01
 -1       101-1.78164E-01-1.49744E+00 1.63931E+00-4.11979E-01 1.81104E+00-7.15880E-03
 -1       102-1.30056E+00-1.62921E+00-7.89651E-02-2.03852E-01 8.14778E-01 4.67454E-01
 -1       103-1.73627E-01-8.17741E-01-3.91521E-01 1.31374E-01-7.69725E-01 1.72182E-01
 -1       104 2.84787E-01-2.44481E-01-1.01255E+00-7.53058E-01 6.74449E-01-1.83721E-01
 -1       105-3.14053E-01-3.08086E+00-6.48078E-01-4.68970E-01 6.33207E-02 4.05809E-01
 -1       106-3.38382E+00-4.43698E+00-1.37762E+00-1.91059E+00 2.30494E+00-1.19820E+00
 -1       107-5.40509E+00-3.67636E+00-4.13275E+00-2.00016E+00 1.21170E+00 9.26332E-01
 -1       108-8.29910E-01-8.73817E-01-4.56376E-01 6.80665E-02-8.48933E-01 6.84471E-01
 -1       109-3.18537E+01-3.11750E+01-1.69333E+01-3.14129E+00-5.52972E-01 4.10844E+00
 -1       110-1.23318E+00-7.59179E-01 4.93603E-02 1.75513E-01 2.75150E-01-4.23102E-01
 -1       111 4.12321E-01 6.50662E-01 6.36982E-01-4.52870E-01-6.27706E-01 4.92134E-01
 -1       112-2.92190E+00-2.82939E+00 3.16151E-01 1.43821E+00 2.80782E-01-6.52965E-02
 -1       113-5.32974E-02-2.34724E+00-3.45213E-02 3.81174E-01 3.63913E-01-7.28221E-02
 -1       114-1.59264E+00-8.58154E-01-7.25877E-02 2.36763E-01 4.51311E-01-1.26207E-01
 -1       115-3.46173E+00-1.98397E+00 2.46922E-01 1.37860E+00 3.13204E-02-3.48758E-01
 -1       116-1.52783E-01-6.27824E-01-7.61391E-01 4.38761E-01-8.24297E-01 5.55585E-01
 -1       117 3.87840E-01 4.97866E-01 6.29544E-01-3.97288E-01-5.59708E-01 4.51339E-01
 -1       118 1.65463E-01 2.91717E-01 7.11211E-01-6.36315E-01 1.40534E+00-6.56407E-01
 -1       119-1.70479E+00-1.92529E+00-4.95540E-02-1.24689E+00 7.46868E-01-6.67644E-01
 -1       120-6.69624E+00-5.24423E+00-3.12919E+00-2.72649E+00 2.50768E-01 5.48586E-01
 -1       121-2.96624E+00-1.36213E-01 4.37975E-02 6.80493E-01 6.44880E-02-1.42692E-01
 -1       122-1.34245E+00-1.94565E+00-2.64005E-01-1.71256E+00 3.19505E-01-9.97199E-01
 -1       123-1.71920E+00-1.80866E+00-5.27699E-01-9.27199E-02 5.31297E-01-4.23718E-01
 -1       124-1.64330E+00-4.20847E-01-7.87747E-01 4.27881E-01 4.94268E-01-2.11619E-03
 -1       125-4.07939E+00-4.08228E+00-2.71887E+00-1.04437E+00 1.72675E+00-7.61882E-01
 -1       126-4.44091E-01-1.07594E+00-4.96765E-01 1.45988E-01 1.30862E+00 9.90033E-02
 -1       127-2.49492E-01-2.35365E-01-6.35333E-03 5.06324E-01 7.10381E-01-1.88377E-01
 -1       128-9.31290E-01-7.94927E-01-3.64862E-01-9.46309E-02-4.18635E-01 9.22586E-01
 -1       129 2.25576E-02-8.87616E-02 1.33986E-01-2.83950E-01-1.83697E-01 1.04186E-01
 -1       130 6.51104E-02-9.44067E-02-9.49188E-02-2.12741E-01-2.48853E-01-8.05933E-03
 -1       131-2.23360E+00-1.02880E+00 1.21790E-01-5.52353E-02 1.32632E-01-3.32730E-01
 -1       132-7.41322E-01-1.74926E+00 1.08566E+00 2.56644E-01 6.71883E-01 2.61113E-02
 -1       133-4.56505E+00-1.90500E+00 6.90007E-01 7.56408E-01 1.47572E-01-1.11747E-01
 -1       134-3.65172E-01-2.51590E-01-6.48316E-01 3.07846E-01-3.39874E-01 7.98915E-01
 -1       135 1.16125E+00 2.18919E-01 4.67800E-01-4.77916E-01 6.19534E-01-1.64155E+00
 -1       136 6.96174E-01-4.89132E-01 2.65905E-01-8.96071E-01 5.75427E-02-1.82124E+00
 -1       137-9.59501E-01-2.03364E+00-8.32041E-01-1.10445E+00-1.59522E-01-9.77772E-01
 -1       138-9.01393E-01-2.14209E+00 9.04778E-01-4.67627E-01-4.01615E-01-5.02897E-01
 -1       139-4.32024E+00-1.49236E+00 2.95881E-01 1.96891E-01-3.27636E-01-3.07608E-01
 -1       140 6.37596E-01 3.76819E-01-1.44498E+00-8.30404E-01 7.94673E-02-1.12924E+00
 -1       141-3.37224E+00-2.54184E-01-3.73150E-01-6.44301E-01-2.68100E-01-2.83138E-01
 -1       142-4.61022E+00-8.82079E+00-2.52305E+00-1.72594E+00 5.39040E-01-2.22520E+00
 -1       143-1.58420E+00-7.69513E-01-1.96867E-03 3.71046E-01-8.29024E-02-5.60231E-01
 -1       144-6.74473E-01-7.96979E-01-3.45887E-01 6.15185E-01 1.77619E-02-2.76322E-01
 -1       145-2.06444E+00-1.37525E-01-2.54285E-01-2.94939E-01 1.57278E-01 1.08663E-02
 -1       146-1.73819E+00-3.16562E+00-1.16523E+00-3.30104E-01 1.28735E+00-6.46575E-01
 -1       147-4.99972E+00-1.38444E+00 5.58348E-01 1.38085E-01 7.34001E-02-1.12615E-01
 -1       148-1.95726E+00-6.56769E-01 6.84498E-01 1.42221E+00-2.54766E-01-3.86013E-01
 -1       149-1.62358E+00-7.98804E-01 2.66050E-01-3.27561E-01-7.06948E-02-5.71468E-01
 -1       150-1.41992E+00-6.88923E-01-3.45116E-01-1.19233E-01-3.42514E-01-6.52690E-01
 -1       151-9.02854E-01-2.07386E-01-7.96657E-01 3.20966E-04-1.69832E-01 9.33598E-01
 -1       152-4.47779E+00-1.05664E+00 5.69019E-01-7.99681E-01-1.65016E-01-2.02004E-01
 -1       153 8.43287E-01 4.65535E-02 5.45699E-01 2.21193E-02 1.77935E-02 6.78366E-01
 -1       154 1.04859E+00 1.53070E-01 6.17086E-01-1.21373E-01 1.11241E-02 7.57282E-01
 -1       155-2.86701E+01-3.41460E+01-1.75275E+01-1.60338E-01-1.37170E+00 3.86521E+00
 -1       156-5.84645E-01-1.25465E-01-3.86370E-01 1.17771E-01-5.24654E-01 1.00796E+00
 -1       157-1.19300E+00-2.80612E+00-8.90194E-01-1.22964E-02-6.24257E-01-6.28119E-01
 -1       158-1.46184E+00-3.57413E-01-1.77667E-02-7.26190E-01-9.87317E-02-1.89222E-01
 -1       159-2.43077E+00-8.08119E-01 3.99042E-01-1.56989E+00 1.63055E-01-2.00311E-01
 -1       160-1.08046E+00-3.73148E-01-9.60674E-01 2.30325E-01-3.37856E-01-5.75273E-01
 -1       161-3.19267E+00-1.05536E+01-1.96925E+00 1.47130E+00 5.74709E-03 7.00333E-01
 -1       162-6.74617E-01-2.05825E-01-6.15199E-01-2.97851E-01 5.08266E-01 8.79893E-01
 -1       163-4.46946E+00-2.08603E+00 1.47684E-01-6.61156E-01-3.58346E-01 4.98716E-02
 -1       164-2.68609E+00-8.62995E-01 6.67058E-01 7.85208E-01 2.97540E-01-3.39587E-01
 -1       165-4.43569E+00-1.31715E+00 6.07345E-01 4.71737E-02-1.28586E-02-4.12109E-01
 -1       166-1.20758E+00-8.98957E-01 9.45135E-02 1.80987E-01-1.41048E-01-5.80429E-01
 -1       167-1.45977E+00-1.00392E+00-2.60475E-01 9.73248E-02-5.52730E-01-3.22843E-01
 -1       168-6.19816E-01-5.38415E-01-4.51851E-01-4.40837E-01-4.51999E-02-3.77581E-01
 -1       169 6.03761E-01-3.56681E-02 7.72233E-01 3.06219E-01 3.42250E-01 8.19075E-01
 -1       170 9.67278E-01 2.19979E-01 3.09299E-01 4.02541E-01 2.34699E-01 7.02597E-01
 -1       171-1.22962E+00-3.33233E+00 4.33006E-01 1.28496E+00 1.68755E-01-6.27603E-01
 -1       172-8.71708E-01-1.28402E+00-4.68355E-01-3.74378E-02 5.46985E-01 1.18731E+00
 -1       173-2.63950E+01-3.24651E+01-1.28706E+01 4.10764E+00 3.67745E-01 3.02031E+00
 -1       174-1.22211E+00-2.45225E+00-4.48867E-01 2.03023E-01-5.98278E-01-7.47702E-01
 -1       175 3.14395E-01-1.16102E+00-4.02312E-01 5.94033E-01-6.18218E-02-9.06019E-01
 -1       176-9.71263E-01-1.50331E+00-7.73447E-01-9.14759E-01-2.89641E-01 3.69245E-01
 -1       177-1.19187E+00-1.23941E+00-1.58213E+00-2.43727E-01-2.47763E-01-6.74361E-01
 -1       178-1.66457E+00-4.36863E-01-1.20290E+00 6.43991E-02-6.98516E-01-2.74339E-01
 -1       179-3.77196E+00-2.51789E+00 5.61498E-01-1.57685E+00-2.18059E-01-1.18258E-01
 -1       180-2.87045E+00 2.42930E-01 7.96293E-01-5.07124E-01-5.97620E-01-3.79637E-01
 -1       181-1.12946E-01-1.66107E+00 1.12934E+00-3.31726E-01-3.52986E-01-2.08368E-01
 -1       182-8.07125E-01-8.64252E-01 2.21010E-02-3.56159E-02-3.94311E-01-3.43958E-01
 -1       183-3.36198E-01-1.08274E+00-5.27187E-01-3.89227E-01-1.72602E-01-3.75216E-01
 -1       184-7.21250E-01-4.85546E-01-2.09995E-01-3.12310E-01-4.89581E-01-1.55072E-01
 -1       185 3.83325E-02 1.17371E+00 1.68693E+00 7.33372E-01-4.82836E-01-4.01552E-01
 -1       186 5.82726E-01 5.46761E-01 7.90522E-01 6.56891E-01 6.84656E-01 7.05114E-01
 -1       187-8.00906E-01-5.96958E-01-4.87054E-01-1.34347E-01 9.41231E-01 7.43458E-01
 -1       188-8.02498E-01-1.68797E-01-1.06289E+00-3.38560E-01 5.37974E-01 6.59538E-01
 -1       189 6.10216E-01 6.29371E-01 7.92800E-01 6.31123E-01 7.17867E-01 6.95588E-01
 -1       190-1.65525E+00-8.94932E-01 2.09022E-01 3.21889E-01-4.22364E-01-3.88802E-01
 -1       191-3.59674E+00-3.73443E+00-3.17198E+00 2.34612E+00 6.46446E-02-4.91956E-01
 -1       192-2.57161E+00-3.12218E+00 5.30937E-01-1.61089E+00-3.08647E-01 9.59978E-02
 -1       193-2.93428E+00-1.97991E+00-3.55471E+00 1.08193E+00-5.68915E-01 6.60952E-01
 -1       194-7.84658E-01-3.42234E-01-5.07284E-01-3.77227E-01-3.89817E-01-2.76910E-01
 -1       195-3.49592E+00-4.39241E+00-1.54419E+00 1.20699E+00-2.03670E+00 7.02303E-02
 -1       196-1.06007E+00-1.11891E+00-7.63634E-01-8.76067E-02 1.41219E+00 3.47283E-01
 -1       197-3.36365E+01-3.10622E+01-1.49075E+01 4.45028E+00 2.28872E+00-6.48882E-02
 -1       198-7.93037E-01-2.10284E+00 9.80876E-02-4.16011E-02-4.51990E-01-1.42699E-01
 -1       199-1.78162E-01-1.00778E+00-5.45402E-01-2.86259E-01 1.04978E+00 3.27735E-01
 -1       200-1.78863E+00-4.44970E+00 5.97759E-01-8.67042E-01-6.25218E-02-2.62520E-01
 -1       201 1.76553E-01 3.77261E-01 6.07106E-01 2.37702E-01 5.96693E-01 3.62047E-01
 -1       202 2.67989E-01 9.38560E-01 4.01559E-01 3.70209E-01 7.16285E-01 2.89575E-01
 -1       203-3.56395E+01-2.89425E+01-1.55918E+01 1.69618E-01 2.79928E+00 1.94195E+00
 -1       204-2.66177E+00-3.79368E-01 1.31738E-01 7.18337E-01-7.84282E-01 8.60449E-02
 -1       205-1.71540E-02 1.38483E+00 1.23577E+00 5.91928E-01-1.72593E+00-1.09293E+00
 -1       206-1.56695E+00-7.10280E-01 5.34799E-01-1.26655E+00-3.23495E-01 1.09960E-01
 -1       207-1.32235E+01-5.08947E+00-3.30387E+00 2.36898E+00-7.93034E-01 1.87699E+00
 -1       208-1.34498E+00-2.60901E+00 5.51750E-01 6.35090E-01-4.29318E-01 7.07968E-01
 -1       209-1.27989E+00-4.39817E+00 8.79757E-01 5.48483E-02-5.36006E-01-1.97445E-02
 -1       210-5.08724E-01-1.56712E+00-4.55952E-02-3.95945E-01-6.12711E-01-1.42855E-01
 -1       211-5.77092E-01-8.08583E-01-1.81242E-01-6.84004E-01-3.84404E-01-3.26696E-01
 -1       212-8.75609E+00-5.50310E+00-2.77602E+00 3.51460E+00 5.70507E-01-6.02873E-01
 -1       213-4.03466E-02-2.03016E+00-7.29097E-02 1.88261E-01-1.55475E-01-2.29494E-02
 -1       214-1.85023E-01-8.70208E-01-6.24804E-01-8.14303E-02 6.20312E-01-1.67364E-01
 -1       215-1.07987E+00-1.13164E+00-1.78894E-01 4.49007E-01-4.51445E-01-1.25281E-01
 -1       216-1.79578E+00-4.99038E+00 5.21848E-01-2.90313E-01 9.56974E-02 1.89668E-01
 -1       217-8.00458E-01-6.13537E-01-4.99374E-01-1.03718E-01 1.13857E+00-8.70378E-03
 -1       218-5.92025E-01-1.23673E+00 6.87797E-02 1.60914E-01-6.94108E-01 4.59849E-02
 -1       219-5.12483E-02 1.02890E+00 6.65810E-01-3.54011E-02 8.27678E-01-2.84778E-02
 -1       220 7.63702E-02 1.21642E+00 7.56584E-01 6.04705E-02 9.35557E-01-5.61878E-03
 -1       221-8.43766E-01-4.15443E+00 7.70130E-02 4.67891E-01 2.28051E-01 4.58743E-01
 -1       222-2.34903E+00-1.25774E+00-1.87434E-01-4.14700E-04-9.41409E-01 1.99066E-01
 -1       223-2.96344E+00 8.29948E-02 7.93215E-01-5.09313E-01-8.46213E-01-1.36284E+00
 -1       224-7.57448E-01-2.39614E+00 7.53295E-01-1.66582E+00-3.65565E-01 3.15199E-01
 -1       225-6.10058E-01-1.26394E+00 2.26832E-01 4.83325E-01-5.22135E-01 3.86099E-03
 -1       226-5.34079E+00-2.80121E+00-1.32211E+00-3.48404E-01-1.19880E+00 1.16300E+00
 -1       227-1.17809E+00-2.51520E-01-2.34113E+00 2.37247E-01-2.81144E-01-4.69330E-01
 -1       228-7.63103E+00-3.72379E+00-4.66952E+00-1.51330E+00 3.80559E-01 1.75411E+00
 -1       229-6.64891E-01-2.20061E+00-1.13286E-01 1.16463E+00 1.83320E-01-2.80446E-02
 -1       230 2.48258E-01-8.26263E-01-1.79263E-02-2.41516E-02-6.55911E-01-3.72963E-01
 -1       231-3.73853E+01-2.79014E+01-1.31805E+01-1.22945E-01 2.36732E+00 1.66944E+00
 -1       232-1.02584E-01 2.16077E-01 1.47367E-01-8.24915E-02 1.85980E-01-2.97229E-02
 -1       233-1.44185E+00-2.65873E+00 3.12990E-01 8.71803E-01-4.99126E-01 1.76197E-01
 -1       234-1.69093E+00-4.62178E+00 4.54602E-01 8.89836E-01 1.46234E-01-4.45817E-01
 -1       235-2.99140E-01-6.08004E-01-1.03807E+00 4.55553E-01 1.11150E+00-5.61364E-01
 -1       236-1.28918E+00-9.11215E-01 2.30455E-01 1.17831E+00-2.84741E-02 2.69745E-01
 -1       237-1.26444E+00-2.74762E+00-1.05634E-01 5.12229E-01-3.84965E-01 4.69531E-01
 -1       238-1.15206E+00-1.20675E+00-4.36545E-02-1.95006E-01-4.80501E-01 8.41604E-02
 -1       239-2.58944E+00-4.62875E+00 6.39236E-01 1.64711E+00-1.13846E-01 1.06640E-01
 -1       240-7.68465E-01-1.13262E+00-4.80775E-01 6.22274E-02 1.28527E+00-4.85098E-01
 -1       241 2.63793E-01-6.80763E-01 2.58569E-01 2.10719E-01-9.08076E-01 1.68688E-01
 -1       242-5.64645E-02 2.81775E-01 2.29143E-01-7.67796E-02 2.59260E-01-9.76176E-02
 -1       243-3.08462E+00-7.73437E-01-1.13966E+00-3.23612E-01-7.63950E-01 6.55365E-01
 -1       244-1.22967E-01-3.41614E+00-1.40332E-01-4.90291E-01-2.16989E-02-8.89876E-02
 -1       245-3.49536E+00-1.85551E+00-3.72306E+00-9.03089E-01-5.60068E-01 1.58558E-01
 -1       246-1.29375E+01-7.30803E+00-3.26828E+00-4.41971E+00-8.81691E-02-9.61445E-02
 -1       247-2.13609E+00-7.74038E-01 8.95880E-01 1.66178E+00-6.32162E-01-6.46531E-02
 -1       248-4.00470E+00-8.27933E-01 1.15125E-01-7.44458E-01-8.01344E-01 3.04116E-01
 -1       249-4.44179E+00-3.19637E+00-2.33290E+00-9.29875E-01-1.54620E+00 5.29017E-02
 -1       250-2.95002E-01-2.36688E+00-8.30899E-01-1.05258E-01-3.67742E-01 4.57608E-01
 -1       251-8.09311E+00-4.05944E+00-5.81154E-01-1.70057E+00-1.27127E+00 1.14028E+00
 -1       252-4.12858E+00-3.22080E+00 5.42122E-01 2.09066E+00-4.68329E-02 7.89003E-02
 -1       253-7.69784E-01-5.62199E-01-2.84539E-01 5.17586E-01 7.80952E-01-1.59666E+00
 -1       254-3.03542E-01-1.35126E+00-1.10819E+00 4.12211E-01 8.97629E-01-6.74325E-01
 -1       255-8.37512E-01-1.77831E+00 5.14058E-01 1.69199E-01-1.58412E-01 1.54085E-01
 -1       256-1.94852E+00-2.32449E+00 2.29652E-01 9.47887E-01-3.66561E-01 2.84239E-01
 -1       257-2.26213E+00-1.71418E+00-2.94674E-01 8.31725E-01-6.91759E-01 1.63380E-01
 -1       258-9.58574E-02-9.36214E-02-6.31555E-02 2.85747E-03-5.48785E-02 5.61502E-02
 -1       259 1.00121E+00-3.84623E-01-1.93582E-01-8.19343E-01-5.11157E-01 1.10824E+00
 -1       260-7.43341E-02-2.39302E-02-9.03862E-02 3.50083E-02-3.90908E-02 8.19532E-02
 -1       261-1.87421E+00-2.30365E+00 1.72005E-01-8.04927E-01-3.12944E-01 4.71444E-01
 -1       262-2.75453E+00-3.54471E+00 3.99664E-01 1.70915E+00-8.64129E-02-3.72166E-01
 -1       263-3.05406E-01-4.23958E-01 1.78524E-01-2.48441E-01-1.38040E+00 7.10693E-01
 -1       264-1.16460E+00-2.41467E+00-5.43319E-01-1.48045E+00-7.90477E-01 3.88647E-01
 -1       265-4.03536E+00-2.60768E+00-2.60679E+00-1.99422E+00-7.39762E-01-2.68306E-01
 -1       266-4.07046E+00-5.23899E+00-3.84851E+00-2.08462E+00-1.39872E-02-6.21928E-02
 -1       267-3.26328E+00 1.02234E-01 7.66281E-01 8.06420E-01-4.97087E-01 6.47902E-02
 -1       268 2.35981E-01 3.36938E-02-1.01614E+00-7.96247E-01-8.73751E-01 9.71169E-01
 -1       269-3.35512E-01-6.33484E-02 4.85488E-01-2.92005E-01-8.11149E-01 1.57053E-01
 -1       270-2.11131E+00-5.25167E-01-8.08698E-01 6.73716E-01-5.58900E-01 2.00527E-01
 -1       271-2.31999E+00-2.13567E+00-2.44452E+00-3.28077E-02-7.00661E-01 1.18720E+00
 -1       272-2.87497E-01-3.23672E+00-1.69647E-01 8.45505E-01 8.56920E-03-1.08551E-01
 -1       273-9.73473E-01-5.26344E-01-3.01371E-01 3.04634E-01 2.88068E-01-1.21704E+00
 -1       274-5.21114E+00-1.82473E+00 5.95772E-01 5.17578E-01-1.43418E-01 9.06969E-02
 -1       275-2.31242E+00-1.27323E+00 2.68423E-02 2.25581E-01-3.79840E-01 4.93160E-01
 -1       276 1.30724E-01-8.50136E-02 3.07729E-01-2.49152E-01 2.78672E-01-2.30746E-01
 -1       277 4.41823E-01 4.06697E-02 2.69987E-01-3.29186E-01 1.56757E-01-3.96429E-01
 -1       278-1.25751E+00-9.47916E-01 6.58096E-02 2.97966E-01-4.25843E-01 2.16797E+00
 -1       279-2.02398E+00-1.26428E+00-1.38965E-02 5.18911E-01-1.01827E-01 6.41102E-01
 -1       280-1.06628E-01-3.41751E-01-1.15233E+00 7.09826E-01 4.39160E-01-9.61411E-01
 -1       281-4.26255E+00-1.91880E+00-1.64395E-02 9.95492E-01-4.20200E-01-3.77479E-01
 -1       282 8.93935E-01-2.69503E+00-1.94942E-01 3.08350E-02 2.22911E-01 7.39807E-01
 -1       283-3.86415E+00-1.06901E+01-2.92591E+00-2.77793E+00 5.51665E-01 1.84299E-01
 -1       284-1.01567E+00-1.72245E+00-8.11942E-01 1.01215E+00-3.79153E-01-3.30929E-01
 -1       285-8.96393E-01-2.06296E+00-8.50036E-01-3.29760E-01-1.78480E-01 5.98581E-01
 -1       286-1.98300E+00-2.10577E-01-6.36785E-01-3.69477E-02-3.35353E-01 3.91749E-01
 -1       287-9.60426E-01-1.13432E+00-2.90742E-01 9.53008E-01-1.27151E-01 3.16989E-01
 -1       288-1.10328E+00-1.52183E+00-7.25369E-01 4.53271E-03 4.61250E-02 8.46434E-01
 -1       289-2.75980E+00-1.89067E+00-2.64774E+00-3.77567E-01-2.82697E-01 1.37963E+00
 -1       290-3.70136E+00 3.04575E-01 1.09999E+00-6.45625E-01-6.44417E-01 2.10274E-01
 -1       291 9.51793E-01-5.14194E-01-2.74418E+00-1.08728E-03 1.61621E+00-3.67967E-01
 -1       292-7.72977E+00-2.47178E+00-1.09490E+00-8.01296E-01 1.20106E+00-1.90675E+00
 -1       293-1.53328E+00-3.87636E+00-1.54757E+00-4.47560E-02 1.65917E+00-1.39265E+00
 -1       294 1.03830E+01 7.76004E+00 5.44290E+00 3.38489E+00 5.25286E+00 7.90787E+00
 -1       295-2.32674E+00-1.14684E+00 3.80424E+00-2.29286E+00 9.75324E-01 1.11590E+00
 -1       296-3.34996E+00 7.05032E-01 3.37960E+00-1.59749E-01 1.96498E+00 6.56724E+00
 -1       297-2.59755E+00 2.18855E-01 2.06123E-01-1.14697E+00-2.95370E+00 2.62091E+00
 -1       298-2.62018E+00-1.39207E+00-7.18299E-01 7.69082E-01-4.07280E+00 6.78527E+00
 -1       299-4.17244E+00-9.60719E-01 1.42771E+00-4.65901E-01-1.07221E+00 1.16861E+00
 -1       300-6.92100E-01-3.72930E+00 8.83968E-01 5.22408E-01 1.11380E+00 1.15032E+00
 -1       301-8.82392E+00-9.33258E+00-5.44695E+00-3.46216E+00 7.50943E+00 8.04060E+00
 -1       302-1.48068E+00 2.48130E+00 5.15775E-02-1.12673E+00 3.58843E+00 3.22681E+00
 -1       303 0.00000E+00 0.00000E+00 0.00000E+00 0.00000E+00 0.00000E+00 0.00000E+00
 -1       304-5.85945E+00-1.25150E+01-5.51234E+00-1.57067E+00-1.16695E+01-2.29999E+00
 -1       305 2.41067E+00 3.49875E+00 5.03333E+00-6.52977E-02 5.64843E+00-1.98025E+00
 -1       306-8.19018E+00-1.06612E+01-5.65541E+00 3.56777E+00 7.79289E+00-5.24091E+00
 -1       307 0.00000E+00 0.00000E+00 0.00000E+00 0.00000E+00 0.00000E+00 0.00000E+00
 -1       308 9.07502E-01-6.19126E+00-2.69829E+00 1.41096E+00 3.67892E+00-4.01542E+00
 -1       309-1.40480E+00-1.08614E+00 2.10342E+00 1.25928E+00-1.07942E-01 7.66118E-01
 -1       310-2.00245E+00-3.92221E+00-1.11107E-01 4.63143E+00 3.01820E+00-4.51536E+00
 -1       311-6.14173E+00-2.87035E+00-2.70362E+00 1.43417E+00 2.52395E+00-3.27185E+00
 -1       312 7.27949E+00 7.33133E+00 4.70760E+00 5.14242E+00-3.65581E-02 3.14736E+00
 -1       313 2.39367E+00 6.12299E+00 2.55500E+00 1.02336E-02 4.68557E+00-9.82982E-01
 -1       314 1.02041E+01 7.50773E+00 5.31355E+00-3.27588E+00 3.88513E+00-5.84501E+00
 -1       315-7.19491E-01-7.23603E-01 3.05594E-01-2.51398E-01 1.27283E-01-8.00869E-01
 -1       316 2.81895E+00-4.47080E+00-2.24265E-01 7.37442E+00 3.75259E+00-5.96193E+00
 -1       317-2.86189E+00-4.60602E+00-1.06643E+00 9.01509E-01-1.00742E+00-2.09480E+00
 -1       318-5.90754E-01-6.56119E-01-3.57819E-01-4.77041E-02-4.64925E-01-1.27913E+00
 -1       319-3.23744E+00-6.66983E+00-2.06211E+00 1.92861E-01-1.19092E+00-1.69193E+00
 -1       320-8.64156E-01-1.16482E+00 6.49848E-01-1.77809E-01-1.37772E-01-2.15441E+00
 -1       321 6.00597E+00-3.49704E-01 2.25180E+00-6.43705E+00-1.70599E+00-8.66682E+00
 -1       322 1.60492E+00-1.01039E-01 1.51848E+00-1.55302E-01-3.84044E-01-1.56501E+00
 -1       323 1.29312E+00-2.80272E-01 3.64403E-01 2.43768E-01-5.99466E-01-1.32175E+00
 -1       324 1.44636E+00 4.01460E+00 1.75282E+00 2.63100E+00-2.69642E+00-6.10589E+00
 -1       325-4.13099E+00-8.22823E-01 4.26809E-01-2.42907E+00 3.79328E+00-2.33268E+00
 -1       326 7.84938E+00-3.92192E+00 1.33239E-01-1.09620E-01 2.58314E+00-3.67617E+00
 -1       327-4.26684E+00-9.50685E+00-4.82217E+00-2.27153E+00 8.88243E-01-3.99922E-01
 -1       328-2.55080E+00-4.49572E+00-2.54046E+00 4.01639E-01-4.96396E-01-1.29786E+00
 -1       329 1.03805E+00-3.74422E-01 9.18432E-01 2.81714E-01-1.13676E+00-1.22641E+00
 -1       330-2.93556E+00-4.11364E+00-3.09878E+00 2.38491E-01-9.84442E-01-1.70971E+00
 -1       331 1.09196E+00 5.43424E-01 1.54589E+00 4.86670E-01-1.26588E+00-2.22738E+00
 -1       332 5.56927E+00 5.73779E+00-4.85840E+00 4.16589E+00 1.13980E+00 9.84055E-01
 -1       333-1.64793E+00-3.38779E-01 3.23440E-01-4.73791E-01-5.85778E-01-1.77210E-01
 -1       334-1.49365E+00-1.23357E+00-1.76983E+00-3.83776E-01-1.14241E+00-5.33846E-01
 -1       335-3.24283E+00-3.11788E+00-2.06216E+00 8.71921E-01-7.92470E-01-1.47644E+00
 -1       336 1.00634E-01 1.87102E+00 1.86483E+00 1.69645E-01 2.82448E+00-9.57908E-01
 -1       337-4.15682E+00-3.59129E+00-3.14016E+00-1.22606E+00 8.24654E-01-5.38165E-01
 -1       338-2.17107E+00-5.92835E+00-3.23102E+00-6.74800E-01 2.16243E+00-1.00083E+00
 -1       339-3.38740E+01-4.41395E+01-2.14714E+01 2.26234E+00-3.62297E-02 3.50675E+00
 -1       340-3.02122E+01-4.19680E+01-1.71342E+01-1.89875E+00-7.37979E-01 2.90542E+00
 -1       341-3.07976E+01-4.05966E+01-1.80428E+01-1.33783E+00-1.08733E+00 3.71952E+00
 -1       342-2.69936E+00-9.90263E+00-1.99538E+00 2.41982E-01-2.33272E-01-4.58078E-01
 -1       343 6.07443E-01-1.73242E+00 6.07349E-01 1.05561E+00-9.18727E-01-7.35154E-01
 -1       344-3.82040E+01-3.82156E+01-2.11623E+01-3.92695E+00-2.28188E+00 2.88678E+00
 -1       345-1.63442E+00-2.02091E+00-1.60310E+00-1.31894E+00 2.15510E-01-2.30862E-01
 -1       346-3.52198E+01-4.12238E+01-2.16606E+01-3.51637E+00 1.86381E-01 3.48549E+00
 -1       347-5.70280E+00-7.39489E+00-4.22794E+00-3.70025E+00-3.78567E-01-6.91669E-01
 -1       348-1.90909E+00-3.94783E-01-2.34842E-01-9.87077E-01 9.49875E-01 2.31783E-01
 -1       349-3.24051E+01-2.58796E+01-1.48523E+01-1.97064E+00-2.96642E+00 7.09287E-01
 -1       350-4.19960E+01-3.23700E+01-2.03477E+01 5.71621E-01 4.28576E+00 5.97818E-01
 -1       351-1.75776E+00 5.56462E-01 1.10854E+00 5.03681E-01-6.19662E-01 1.45982E-01
 -1       352-3.39060E+01-3.04064E+01-1.58715E+01 4.79327E+00 1.10035E+00 2.14415E+00
 -1       353-3.07432E+00-2.21714E+00 1.72380E-01 1.75036E+00-6.60482E-01-4.05318E-01
 -1       354-3.10928E+01-3.77552E+01-1.58194E+01 4.38965E+00 8.46909E-01 2.67006E+00
 -1       355-2.26751E+00-1.23980E+00-8.07084E-01 1.23598E+00-1.00707E+00-5.54610E-01
 -1       356-6.41883E+00-8.08330E+00-4.51393E+00 3.27961E+00-2.36712E-01-3.06874E-01
 -1       357 9.90094E-02-2.00968E+00-6.95828E-01 2.42367E-01 1.46120E-01-4.49755E-01
 -1       358-9.61717E-01-3.89232E+00-2.57809E+00 9.42215E-01-2.32436E-01-5.98669E-02
 -1       359-3.28349E+01-2.93687E+01-1.59860E+01-2.18015E+00-2.67676E+00 2.04851E-01
 -1       360-3.38667E+01-2.97514E+01-1.47752E+01 1.94870E-01-2.17340E+00-2.90340E+00
 -1       361-3.16661E+01-2.46928E+01-1.35319E+01 8.11722E-01 2.90348E+00 2.24593E+00
 -1       362-3.40793E+01-2.57204E+01-1.26373E+01-2.18342E+00-2.05902E+00 3.27204E-01
 -1       363-4.19635E+00 1.59241E-01 1.27008E+00-1.13844E+00-1.02098E+00-1.02072E+00
 -1       364-1.01115E+01-3.71892E+00-4.50100E+00 1.10295E+00 3.52508E-01 2.46609E-01
 -1       365-1.84672E+00 2.27516E-01-1.72154E-01 6.92798E-02 8.52031E-01 5.82249E-01
 -1       366-1.97335E+00-1.39265E+00 6.76100E-02 1.13831E-02 1.08723E+00-3.77133E-01
 -1       367-3.07354E+01-3.22301E+01-1.80345E+01-5.76258E+00 1.26682E-01-6.21341E+00
 -1       368-3.47031E+01-3.79062E+01-1.73560E+01-4.26268E+00 3.31673E+00-7.29581E+00
 -1       369-3.69250E+00-1.10748E+00-1.04525E+00 6.37681E-01 5.10671E-01 1.04079E-01
 -1       370-4.71489E+00-3.49091E+00-4.41500E+00 1.60114E+00 8.85018E-02-8.48706E-02
 -1       371-2.19715E+00-2.22252E+00-1.55870E+00-8.71396E-01-2.26693E+00 9.03727E-02
 -1       372-1.76503E+00-4.94940E+00-1.50633E+00-1.11850E+00 3.74374E-01 7.07459E-01
 -1       373-2.73386E-01-2.97878E+00-1.19533E-02-8.54353E-01 4.92204E-02 9.69140E-01
 -1       374-2.97894E+01-4.01599E+01-1.78466E+01-2.40992E+00-2.30034E+00-1.41229E+00
 -1       375-3.83418E+01-3.99468E+01-2.23472E+01 6.26585E+00-3.17856E+00-2.44571E+00
 -1       376-2.88046E+01-3.92006E+01-1.53608E+01-3.31039E+00 6.22517E-01-6.07171E-01
 -1       377-2.53141E+00-5.39106E+00-2.36707E+00 2.77011E-01 6.96713E-01 1.85497E+00
 -1       378 9.07042E+00 1.36204E+01 6.80726E+00 3.96864E+00 8.95433E+00 5.97176E+00
 -1       379-9.88109E-01 1.04041E+00-8.48087E+00 1.91847E+00-3.14156E-02-1.55809E-02
 -1       380-3.00317E+00-3.74553E+00-2.33063E+00 1.24592E+00 1.79992E+00 3.52245E-01
 -1       381-9.48486E-01-6.98390E-01-4.55452E-01-3.42089E-01 8.54081E-01 5.71954E-01
 -1       382-2.54644E+00-9.62492E-01-6.10829E-01 1.46104E-01 5.42908E-01 1.53408E-01
 -1       383-4.21180E+00-2.60085E+00-4.90007E+00-8.32044E-01 6.82655E-01 8.48470E-01
 -1       384-3.60621E+00-2.30396E+00-2.57098E+00-2.19318E-02 1.18099E+00 2.51018E-01
 -1       385-7.41071E-01-1.13556E+00-1.91524E-01-2.50644E-02 9.98697E-01-4.62615E-02
 -1       386 7.51302E+00 1.36570E+01 6.35102E+00-2.91667E+00 1.05470E+01-4.40066E+00
 -1       387-1.30457E+00-6.32087E-01-2.51001E+00-4.40263E-01 3.38205E+00-1.80104E-01
 -1       388 9.53954E-01 3.36732E+00-2.99702E+00-1.59323E+00 1.77553E+00-9.11005E-01
 -1       389 1.03528E+00 1.32018E+00 5.66078E-01-6.20230E-01 1.66286E+00-2.85608E-01
 -1       390 2.68119E-01-8.59247E-01 1.53941E+00 9.13845E-01 4.23820E-01 2.11177E+00
 -1       391-1.07280E+00-2.56320E-01 1.42520E+00 9.73803E-02 1.62438E+00 2.25975E+00
 -1       392-2.54829E+00-2.47891E+00-2.15974E+00 1.89320E-01 1.01166E+00 1.74515E+00
 -1       393-6.15455E-01-1.03074E+00-4.07407E-01-1.78255E-01 7.27278E-01 9.47114E-01
 -1       394 3.79248E+00 3.52159E+00 2.77273E+00 2.33852E+00 1.71104E+00 7.81828E+00
 -1       395 0.00000E+00 0.00000E+00 0.00000E+00 0.00000E+00 0.00000E+00 0.00000E+00
 -1       396-5.12593E-01 2.51413E-01 2.97231E-01 1.71926E-01 6.25858E-01 1.05059E+00
 -1       397 2.33259E-01-3.14088E-02 6.54966E-01 6.70168E-01-1.03042E-01 1.83345E+00
 -1       398 2.02992E+00 1.20640E+00-3.73365E-01 1.39738E+00 2.34577E+00 3.81202E+00
 -1       399 8.13601E+00 6.16713E+00 3.26755E+00-3.92755E+00-1.33770E+00 1.92694E-01
 -1       400-2.19876E+00-4.17503E+00-1.80183E+00 4.30877E-01-2.44139E-01 1.40071E+00
 -1       401 3.19576E+00 2.47814E+00-6.66869E-01-2.03516E+00-1.67831E+00 4.77415E+00
 -1       402 3.95107E+00 4.74399E+00-1.47493E+00-2.67919E+00 1.51774E+00-8.92200E-01
 -1       403-1.82840E+00-1.69315E+00-2.65201E+00-2.68527E-01-5.82330E-01 1.22194E+00
 -1       404-3.26582E-01-2.99094E-01 1.73375E-01-4.13585E-01-5.66854E-01 1.08626E+00
 -1       405 3.61003E+00 3.19325E+00 2.04099E+00-2.14260E+00-1.21569E+00 4.02052E+00
 -1       406 1.30009E+00 4.79988E+00-5.02753E+00-2.26219E+00 1.10782E+00-3.64218E-01
 -1       407-1.13232E+00-6.50407E-01 2.29060E-01-6.39889E-02-5.22195E-01 3.90803E-01
 -1       408-5.53022E-01 2.00209E+00 1.74778E+00-8.27998E-02-1.28554E+00 1.37227E-01
 -1       409-9.27966E-01-3.43657E-01 8.74128E-01-1.68749E-01-9.23595E-01-7.47050E-02
 -1       410-1.57058E-01-3.62006E+00 2.57622E+00 9.03811E-02-1.03158E+00-5.95471E-01
 -1       411-2.92514E+00-2.45431E+00-2.56033E+00 4.11058E-01-1.49529E+00-6.00841E-02
 -1       412-3.44249E+00-2.01174E+00-1.04640E+00 4.75440E-01-1.42212E+00-8.00495E-01
 -1       413-1.24865E+00-1.37206E-01 2.47415E-01-8.07499E-01-3.95823E+00-1.55765E+00
 -1       414-1.27562E+00-2.21530E-02 3.14317E-01-3.88823E-01-4.59391E-01-1.00421E+00
 -1       415-2.71368E-01-2.71531E-01 1.27632E+00-2.22143E-01-1.80046E+00 1.36904E-01
 -1       416-1.31303E+00-6.99279E-01 2.19947E-01 1.91177E-01-6.05525E-01-3.85296E-01
 -1       417-2.27734E+00-1.26856E+00-6.21837E+00-1.72913E-01-2.60281E+00 5.17215E-01
 -1       418-2.27266E+00-3.59718E+00-2.48814E+00 4.75003E-01 4.42926E-01 7.48150E-01
 -1       419-6.14209E+00-1.54011E+01-4.00238E+00 2.89754E+00 1.85219E+00-6.95203E-01
 -1       420-1.61723E+00-5.00687E+00-1.95819E+00 1.14624E+00 3.84121E-01-2.66202E-01
 -1       421-2.84582E+01-4.21557E+01-1.86249E+01 8.39415E-01 9.11526E-01-1.49879E+00
 -1       422-2.63130E+01-3.25562E+01-1.38604E+01 1.79428E+00-1.23765E+00-1.65246E+00
 -1       423-8.32143E+00-7.26320E+00-4.84623E+00 3.82637E+00 4.66164E-01-1.08118E+00
 -1       424-3.21024E+00-2.13748E+00-1.12929E+00 4.97300E-02 1.29404E+00 7.04963E-01
 -1       425-3.40099E+01-3.27091E+01-1.92399E+01 4.68824E+00-4.52612E+00-1.91122E+00
 -1       426-2.13574E+00-3.86270E+00-9.02475E-01 1.69556E+00 4.40735E-01 8.78456E-01
 -1       427-9.19246E+00-8.72800E+00-6.01220E+00 5.27271E+00 2.99936E-01-1.26094E+00
 -1       428-3.61028E+01-3.60139E+01-2.08399E+01-3.01767E+00 4.01343E+00-4.49169E+00
 -1       429-3.77559E+01-3.31838E+01-2.00120E+01-2.62307E+00 4.06834E+00-1.89610E+00
 -1       430-3.40787E+00-7.95515E+00-3.40891E+00 4.27297E-01 4.63689E+00 5.57336E-03
 -1       431 1.04834E+00 3.53342E+00 1.70235E+00 4.02593E-01-2.56309E-01 9.72156E-02
 -1       432-3.63176E+00-8.03003E+00-3.49854E+00 7.83662E-01 6.09803E+00-1.19189E+00
 -1       433-7.26031E+00 5.99744E-01 1.01473E+01 6.17820E-01-9.84204E-01-2.11905E-01
 -1       434 0.00000E+00 0.00000E+00 0.00000E+00 0.00000E+00 0.00000E+00 0.00000E+00
 -1       435 0.00000E+00 0.00000E+00 0.00000E+00 0.00000E+00 0.00000E+00 0.00000E+00
 -1       436-4.87212E+00-5.70620E+00-1.95527E+00-8.98758E+00-1.65124E+00-6.33964E+00
 -1       437 7.99379E+00 3.54834E+00 2.40407E+00-4.02792E+00-1.74511E+00 1.52946E+00
 -1       438 4.47148E+00 4.98088E+00 7.28349E-01-4.41412E+00-1.45481E+00-1.13894E+00
 -1       439-4.70849E+00-6.73748E+00 3.36804E+00-3.76027E+00 7.34229E-01 1.11871E+00
 -1       440-4.55403E+00-1.13430E+01-2.03372E+00-2.64790E+00-6.43985E+00-5.34892E-01
 -1       441-1.48235E+00-1.43078E+00-4.20107E+00 2.19562E-01-1.70383E+00-1.32572E-01
 -1       442-1.17720E+00-4.49866E-01-3.57183E+00 1.31109E-01-3.71989E+00-3.51867E-01
 -1       443-6.52437E+00-1.63352E+01-6.85788E+00 5.47695E-01-6.96507E+00 1.06643E-01
 -1       444-6.52036E-02 1.93340E-01 5.32549E-01-4.10406E-02-3.92720E+00-6.64815E+00
 -1       445 4.77503E+00 4.12994E+00 2.67149E+00 1.79693E+00-5.60251E+00-8.44433E+00
 -1       446-3.85834E+00 2.68116E+00-8.03355E-01 2.82954E+00-1.82190E+00-4.85096E+00
 -1       447-3.27349E+00-1.01118E+01 1.95210E+00 1.87622E+00-1.71644E-01-1.15543E+00
 -1       448 0.00000E+00 0.00000E+00 0.00000E+00 0.00000E+00 0.00000E+00 0.00000E+00
 -1       449-1.64824E+00-1.70920E+00-2.35839E+00-2.32719E-01 7.79237E-01-1.52069E+00
 -1       450-1.63743E+00-2.73063E+00-4.13953E+00 1.46875E-02-1.94480E+00-1.89705E+00
 -1       451-3.42879E+00-2.83276E+00 3.58070E-01 5.01749E-02 2.56015E-01-1.15397E+00
 -1       452-3.08491E+00-8.06997E-01 9.97737E-02-1.44494E-02-1.25149E-01-1.37916E+00
 -1       453-2.25224E+00-2.50055E+00 7.14546E-02 8.74753E-02 4.15474E-02 3.56606E-01
 -1       454-2.14331E+00-7.87626E-01-3.40526E-01-7.05941E-03-5.69801E-01 2.98838E-01
 -1       455 3.00071E-02-1.21903E+00-3.30079E-01 8.92211E-02-3.70598E-02 8.06645E-01
 -1       456 2.50389E-01-1.07664E-01-1.94405E-01 1.92136E-01-1.05534E-01 9.31560E-01
 -1       457 1.29099E+00-9.19490E-01 1.86433E-01 2.16800E-01-9.52471E-02-9.11388E-01
 -1       458 9.94357E-01-3.67962E-01 6.26626E-01 1.71262E-01-4.20681E-01-9.30949E-01
 -1       459-6.13705E-01-1.42571E+00 5.85732E-01 2.20559E-01 3.17376E-01 1.22646E+00
 -1       460-1.37167E+00-1.17073E+00 2.20032E-01 2.62965E-01 1.59884E-01 8.98126E-01
 -1       461-2.72562E+00-2.15205E+00 1.09673E+00-1.56483E-01 4.14823E-01-1.78445E-01
 -1       462-1.33607E+00-4.62348E+00 2.52575E-01-9.93068E-01 6.87512E-01 4.67592E-01
 -1       463-2.04519E+00-5.32111E+00-5.04868E-01-1.80274E+00-2.95875E-01 5.55464E-01
 -1       464-2.32543E+00-1.87603E+00 1.05440E+00 6.14328E-02-8.69712E-01-5.16148E-02
 -1       465-9.93216E-01-1.24279E+00 2.55864E-01 9.32786E-02-3.43069E-01 9.63645E-01
 -1       466-1.15670E+00-5.06114E-01-5.25064E-01 6.83947E-02-4.73057E-01 1.47658E+00
 -1       467-2.52086E+00-4.21697E+00-1.64187E+00-6.11622E-01-3.08476E+00-4.33001E-01
 -1       468-3.91829E+00-5.81333E+00-3.06563E+00 2.19796E-02 4.15121E+00-1.36793E+00
 -1       469-1.95564E+00-2.83812E+00-1.67730E+00 1.12082E-01-1.52431E+00 1.14469E+00
 -1       470-2.26305E+00-3.84948E+00-1.85794E+00 2.56179E-01 1.87187E+00 1.40770E+00
 -1       471-1.44031E+00-4.37756E+00 4.35813E-03 1.03490E+00 5.88510E-01 7.41646E-01
 -1       472-8.79638E-02 5.45709E-01 9.18900E-01 4.01305E-01 1.20478E-01 6.70239E-01
 -1       473-1.41123E+00-2.33395E+00-3.64429E+00-1.27833E-01 6.12080E-01-1.97811E+00
 -1       474-1.74661E+00-2.42033E+00-2.38212E+00 6.05825E-01-2.40803E+00-2.01941E+00
 -1       475 2.69562E-01-1.16690E+00-3.50758E-01 6.27184E-01 2.06313E-01 5.40327E-01
 -1       476 5.39745E-02-9.47055E-01-2.97222E-02 4.28270E-01 4.05575E-01 7.33368E-01
 -1       477-1.78327E+00-2.73381E+00 6.97998E-02 7.17715E-02 1.13979E-01 3.42640E-01
 -1       478-1.70764E+00-2.66822E+00 7.12946E-02-1.71922E-01 2.68634E-01 4.37373E-01
 -1       479-3.53556E+00-3.21192E+00 2.80976E-01-3.70271E-01-3.55526E-01-9.54134E-01
 -1       480-3.02016E+00-7.97652E-01-1.18937E-01-8.41245E-01-1.23787E-01-1.24403E+00
 -1       481 1.06420E+00-4.52661E-01 2.86193E-01 5.42853E-01-3.46006E-01-1.00916E+00
 -1       482 1.33400E+00-2.03213E-01 9.49792E-01 5.85758E-01-7.31622E-01-1.14425E+00
 -1       483-8.92236E-01-6.16412E-01-8.03597E-01-2.66826E-01 5.20666E-01 1.32129E+00
 -1       484-1.20005E+00-1.74668E+00-2.07607E-01 9.95730E-02 5.33145E-01 6.93455E-01
 -1       485-2.57193E+00-1.88254E+00 7.63961E-01-1.14628E-01 6.80265E-01 2.90616E-02
 -1       486-1.10052E+00-2.97681E+00-1.25996E-01 9.20540E-01 9.64163E-01 8.48707E-01
 -1       487-7.12400E-01-4.41685E+00 1.46729E+00-9.95212E-02 8.97628E-01 7.08140E-01
 -1       488-2.39425E+00-1.89837E+00 9.34213E-01 1.54862E-01-2.85906E-01 2.59413E-01
 -1       489-8.08229E-01-1.25225E+00-4.24240E-03-6.35575E-02-3.17950E-02 6.51284E-01
 -1       490-4.72363E-01-9.92334E-01 1.11271E-01 3.45238E-01 2.96742E-01 1.21378E+00
 -1       491-2.03553E+00-2.68116E+00-7.86216E-01 1.79443E-01-2.43003E+00 4.70416E-01
 -1       492-3.57250E+00-5.12402E+00-2.31669E+00 1.15300E+00 2.92240E+00-1.59411E+00
 -1       493-1.69294E+00-2.23120E+00-1.25627E+00 9.16738E-02-6.16888E-01 1.16888E+00
 -1       494-1.30760E+00-7.00175E-01-7.90278E-01-2.94520E-01 7.01637E-01 7.38520E-01
 -1       495 3.11465E-01-1.44571E-01 2.94838E-01-3.91206E-01 3.08126E-01 5.29965E-01
 -1       496 2.06995E-01-4.79152E-01 7.73091E-01-3.87676E-01 6.66516E-01 8.65832E-01
 -1       497-1.89355E+00-3.01826E+00-4.01758E+00 7.66073E-03-4.26897E-01-2.55128E+00
 -1       498-1.85085E+00-1.95558E+00-2.08985E+00 8.63382E-01-2.63939E+00-4.76467E-01
 -1       499-9.46247E-01-7.71612E-01-5.08749E-01 9.27642E-01 5.38566E-01 5.16071E-01
 -1       500 3.08180E-01 1.95235E-01-2.71652E-01 4.11930E-01 5.81964E-01 4.62038E-01
 -1       501-2.42617E+00-2.06877E+00 1.04365E-01 1.98690E-01 3.23322E-01 1.08877E-01
 -1       502-1.84180E+00-1.31034E+00 1.34870E-01-3.20768E-01 7.16517E-01-1.59197E-01
 -1       503-3.27871E+00-3.48298E+00 2.49789E-01-3.41494E-01-9.65332E-01-8.11702E-01
 -1       504-1.67842E+00-1.40625E+00 3.18840E-01-1.20992E+00-7.03836E-01-9.25764E-01
 -1       505 4.78724E-01 1.69520E-01 3.49152E-01 1.14632E+00-7.67481E-01-8.41241E-01
 -1       506 1.20881E+00 5.97151E-01 9.33740E-01 1.20939E+00-1.28319E+00-7.87320E-01
 -1       507-9.98016E-01-8.93460E-01-4.76113E-01 4.38610E-01 1.00799E+00 8.05188E-01
 -1       508-1.29184E+00-1.27189E+00 2.59262E-01 1.21149E-02 7.74186E-01 5.93531E-01
 -1       509-2.11196E+00-3.00159E+00 6.77266E-01-3.81178E-01 3.53469E-01-6.42169E-02
 -1       510-3.83287E+00-2.06646E+00 9.95476E-01 1.44069E+00 1.57200E+00-3.35587E-01
 -1       511-2.30449E+00-3.46548E+00-2.50566E-01 2.62789E-01-1.18760E+00 8.56414E-01
 -1       512-2.58580E+00-2.58304E+00 1.36790E-01 1.25127E+00 1.27625E+00 3.72360E-01
 -1       513-1.63000E+00-1.68425E+00-2.17497E-01-2.12355E-02 5.11262E-01 1.49120E+00
 -1       514-1.77955E+00-1.53854E+00-5.44779E-01 6.80255E-01 1.22272E+00 6.34100E-01
 -1       515-1.64649E+00-1.57646E+00-1.49694E+00-4.35860E-01-1.33941E+00 5.84168E-01
 -1       516-3.95590E+00-4.28346E+00-2.76036E+00 8.41594E-01 1.75420E+00-3.12729E+00
 -1       517-1.30194E+00-1.44895E+00-1.68560E+00-7.47146E-01 5.00534E-01 1.41684E+00
 -1       518-2.06301E+00-2.08195E+00-9.06470E-01 5.55632E-03 1.47133E+00-1.18219E-01
 -1       519-2.67365E-01-3.11014E-01 3.77345E-01 2.91919E-01 8.64220E-01 2.62577E-01
 -1       520-1.86052E+00-1.03731E+00-4.18490E-01 4.04032E-01 3.13359E-01 5.29074E-01
 -1       521-1.97194E+00-2.28602E+00-4.25122E+00 3.34602E-01-1.56130E+00-2.20312E+00
 -1       522-2.37360E+00-1.68482E+00-2.43374E+00 4.77279E-01-3.25560E+00 1.12022E-01
 -1       523-2.48881E+00-2.44742E+00 1.66592E-01 1.89033E-01 4.71620E-01 9.62933E-02
 -1       524-1.09553E+00-6.32743E-01-3.01876E-01 5.53751E-01 8.25224E-01 4.95898E-01
 -1       525-4.18073E-01 2.98271E-02-2.57358E-01 5.61726E-01 5.27239E-01 1.63507E-01
 -1       526-3.18288E+00-3.83588E+00 8.22239E-02-1.36318E-01-1.41343E+00-4.61804E-01
 -1       527-2.84176E+00-3.91022E+00 3.01860E-01-9.37158E-01-1.11084E+00-9.60984E-01
 -1       528-2.46695E+00-2.56534E+00 6.15773E-02 2.43657E-02 2.26801E-01 4.93104E-01
 -1       529 6.30941E-02 8.94494E-01 4.17981E-01 6.60741E-01-6.73941E-01-6.01481E-01
 -1       530 2.58495E-01 9.57887E-01-5.46119E-02 5.37080E-01-5.26878E-01-7.61935E-01
 -1       531-5.94817E-01-5.51102E-01-3.62785E-01-1.19542E-02 9.50514E-01 3.86486E-01
 -1       532-1.61695E+00-1.52918E+00-1.08200E-01-2.33906E-01 1.03509E+00 2.65996E-02
 -1       533-1.85320E+00-2.64137E+00 1.10808E+00-4.14681E-01 2.96792E-02-7.10073E-01
 -1       534-2.48243E+00-1.55738E+00-2.47233E-01 1.93018E+00 7.49779E-01 1.49907E+00
 -1       535-2.83964E+00-2.59342E+00 8.13407E-01-3.33190E-01-3.43458E-02 2.36483E-01
 -1       536-4.15830E+00-3.01695E+00-1.62006E-01 1.20104E+00 1.03608E+00 4.82611E-01
 -1       537-1.26639E+00-1.59105E+00 2.73348E-01-1.08466E-01 7.24544E-01 3.31690E-01
 -1       538-1.36919E+00-1.14049E+00-7.09053E-01-1.05865E-01 1.45793E+00 1.29903E+00
 -1       539-3.49589E+00-2.66871E+00-9.39371E-01 6.22927E-02-9.53645E-01 1.93545E+00
 -1       540-3.63934E+00-3.00554E+00-1.12075E+00 2.96233E-01 3.45470E-01-2.37137E+00
 -1       541-2.31604E+00-2.55347E+00-9.83274E-01 3.12685E-01 6.40154E-01 1.26713E+00
 -1       542-9.25212E-01-1.56838E+00-1.89355E+00-2.22048E-01 1.25120E+00-5.50188E-01
 -1       543-7.41622E-01-1.98801E+00 5.39432E-01 6.98789E-01 1.15593E+00-2.55095E-01
 -1       544 1.55762E+00-1.52345E-01-1.91087E-01-1.25488E-01 1.01710E+00 5.37645E-01
 -1       545-3.16368E+00-2.20531E+00-4.19314E+00 1.24675E-01-2.20956E+00-2.24870E+00
 -1       546-2.94016E+00-1.23423E+00-1.94497E+00-4.15970E-01-1.59229E+00 1.58204E+00
 -1       547-2.57472E+00-2.12203E+00 7.29642E-02 7.39721E-03 2.94393E-01-1.24528E-01
 -1       548-1.38787E+00 2.56827E-01-4.89506E-01-2.57397E-01 9.34443E-01 1.93180E-01
 -1       549-7.45817E-02 8.02864E-01-9.57626E-02-7.19066E-02 5.06655E-01 5.40431E-02
 -1       550-2.67970E+00-3.47959E+00 1.34527E-01-5.07750E-02-1.37191E+00 1.38000E-01
 -1       551-2.78160E-01-2.58852E+00 4.76328E-01-2.19466E-01-1.34897E+00-3.86674E-02
 -1       552-9.87902E-01-1.78700E+00 2.49325E-01 2.75233E-02 4.82823E-01 4.14478E-01
 -1       553-5.31803E-01 2.09105E+00 5.45068E-01-3.65553E-01-1.48089E+00 2.79962E-01
 -1       554 1.47953E-02 2.04004E+00 7.95052E-01-5.64177E-02-1.36011E+00 5.00972E-02
 -1       555-1.94038E+00-4.20331E-01-5.92647E-01 1.53007E-01 1.30642E+00 1.86894E-01
 -1       556-1.74774E+00-1.38314E+00 4.10277E-01-3.63066E-01 9.26719E-01-2.02980E-01
 -1       557-2.44194E+00-3.19089E+00 3.02666E-01 2.28884E-01 3.21136E-02-4.61156E-01
 -1       558-4.11586E+00-1.03681E+00-3.64082E-01-1.30794E+00 1.10918E+00-9.43811E-01
 -1       559-2.54746E+00-2.37741E+00 4.63967E-01 1.17148E-01-6.89187E-02 7.02705E-01
 -1       560-5.60268E+00-2.25607E+00-5.24073E-01 1.85938E+00 1.25000E+00 1.40144E-01
 -1       561-1.06313E+00-1.03970E+00 6.62779E-01-1.85908E-01 1.20589E+00 2.12324E-01
 -1       562-5.67407E-01-8.31887E-02-1.16061E+00-3.50432E-01 2.04827E+00 2.53100E-01
 -1       563-7.85232E-01-1.76827E+00 2.42117E-02-5.31697E-01 1.43708E-01 5.38672E-01
 -1       564-9.39782E-01-1.96981E+00-7.89005E-01 2.23476E-02-3.72009E-01-1.21929E+00
 -1       565-3.17086E+00-2.28807E+00-1.33518E+00-1.80127E-01 1.29552E+00 1.45762E+00
 -1       566-2.15532E+00-1.51093E+00-6.37854E-01-3.24042E-01 4.38909E-01-1.20071E+00
 -1       567-3.17384E+00-1.46813E+00 1.07269E+00 3.40150E-01 5.01118E-01 2.23686E-01
 -1       568 2.58826E-01 2.00151E-02 5.74032E-01-2.07253E-01 1.14726E+00 7.28475E-01
 -1       569-3.19073E+00-1.85943E+00-4.14576E+00-4.09929E-01-3.24733E+00-1.18039E+00
 -1       570-2.18687E+00-1.95227E+00-2.12410E+00-4.56413E-01-1.13173E+00 1.88996E+00
 -1       571-2.90756E+00-1.83646E+00-7.16095E-02-1.53904E-01 4.09562E-01-1.67552E-01
 -1       572-3.40476E+00-3.84457E+00 5.68757E-01 1.60337E-01-6.62013E-01 5.82762E-01
 -1       573-1.25758E+00-3.05528E+00 4.16524E-01 5.58887E-01-9.82339E-01 3.03087E-01
 -1       574-1.74366E+00-3.98878E-01-4.95549E-01-8.14853E-01 9.80500E-01-1.44002E-01
 -1       575-9.39478E-01-9.10021E-02 3.88006E-01-4.43189E-01 1.15124E+00-4.77842E-01
 -1       576-2.78360E+00-1.67585E+00-1.05675E-01 1.15227E-01 1.71848E-01-3.87137E-01
 -1       577 3.28247E-01 1.61648E+00 5.46596E-01-7.53752E-01-1.15405E+00 6.21415E-01
 -1       578-3.48089E-01 2.08685E+00 2.89913E-01-1.33859E+00-1.28793E+00 5.40459E-01
 -1       579-1.47984E+00-1.13668E+00-8.43631E-03-3.04889E-01 1.72259E+00-1.02162E+00
 -1       580-1.74098E+00-1.62933E+00 5.36866E-01-2.98514E-01 1.70154E-01-5.81199E-01
 -1       581-2.45575E+00-2.47010E+00 4.30828E-01-1.69070E-01-2.18766E-02-6.85349E-01
 -1       582-3.38536E+00-3.57616E+00-2.15284E-02-1.91811E+00 4.66014E-01-6.42367E-01
 -1       583-1.37114E+00-2.57654E+00 6.36579E-01 1.13451E-01 4.47731E-01 4.37927E-01
 -1       584-1.54424E+00-4.90640E-01-6.69783E-01-8.01395E-01 1.07210E+00-7.24954E-01
 -1       585-1.87013E+00-1.88072E+00 1.53966E-01-3.22140E-01 9.74899E-01 2.91570E-01
 -1       586 2.27164E-02-4.22259E-01 6.04264E-01-1.49575E-01 1.70497E+00-8.25870E-02
 -1       587-1.80876E+00-2.75113E+00-1.59443E+00-5.33069E-01 5.01260E-01 2.19530E+00
 -1       588-1.28999E+00-1.24936E+00-2.35834E-01 4.95786E-01-1.59127E-01-9.07139E-01
 -1       589-9.53996E-01-2.06609E+00-2.36725E+00 1.65330E-01 1.61224E+00 8.29764E-01
 -1       590-2.41885E+00-2.24257E+00-1.57391E+00-2.90209E-01-7.00237E-02-2.21932E+00
 -1       591-2.23135E+00-8.72546E-01 2.08261E-01-8.54708E-02 9.03121E-01-1.06169E-01
 -1       592-9.71676E-01-4.57440E-01-1.26250E+00 7.91795E-02 1.37190E+00 5.08571E-01
 -1       593-2.70529E+00-3.31880E+00-4.82532E+00-4.84956E-01-4.24738E-01 3.61190E+00
 -1       594-3.07591E+00-2.30035E+00-2.51913E+00-1.03815E+00-2.90252E+00-3.43699E-01
 -1       595-1.01737E+00-5.66692E-01-4.15199E-01-7.31915E-01 6.05662E-01-6.28858E-01
 -1       596 2.35307E-01 4.78540E-01-2.17742E-01-4.33520E-01 7.28817E-01-7.67966E-01
 -1       597-2.13960E+00-2.16831E+00 7.08159E-02-2.97216E-01 7.64779E-02-2.70586E-01
 -1       598-1.44550E+00-1.45550E+00-1.04731E-01 4.69469E-01-4.69238E-01-4.48317E-01
 -1       599-2.91071E+00-3.28369E+00 4.86209E-01 4.57085E-01-5.27686E-01 8.39259E-01
 -1       600-2.00010E+00-2.61193E+00 3.43504E-01 1.03987E+00-9.32444E-01 7.24858E-01
 -1       601-1.96018E-01 4.03596E-01 6.01253E-01-8.43248E-01-9.69208E-01 6.76445E-01
 -1       602 2.15704E-01 9.88689E-01 5.89901E-01-6.94666E-01-1.16279E+00 5.66169E-01
 -1       603-1.18341E+00-1.16987E+00-9.63491E-01 2.60758E-02 5.41220E-01-1.52148E+00
 -1       604-2.05669E+00-2.03457E+00-1.60804E-01-4.67782E-01 4.42967E-01-7.69588E-01
 -1       605-2.64495E+00-1.97147E+00 4.92079E-01 4.20612E-01 1.45822E-01-3.09606E-01
 -1       606-1.45251E+00-2.61756E+00 4.30448E-01-1.02439E+00 9.27341E-01-3.53148E-01
 -1       607-1.67772E+00-1.57521E+00 9.45076E-01 5.09025E-01 7.55232E-01 4.07735E-01
 -1       608-2.97277E+00-2.61289E+00-8.61881E-01-1.63315E+00 1.06076E+00-1.21720E-01
 -1       609-1.63089E+00-1.02586E+00 5.86854E-01 3.17599E-03 6.99792E-01 5.35525E-03
 -1       610-9.23042E-01-1.66544E+00-6.98386E-01 4.51332E-01 9.22384E-01-1.28210E+00
 -1       611-2.64572E+00-2.82760E+00-1.00504E+00-6.64779E-01 1.42123E+00 1.55377E+00
 -1       612-3.01808E+00-2.11060E+00-5.97264E-01-3.36058E-01-1.09543E+00-1.02691E+00
 -1       613-3.07047E+00-2.68906E+00-1.78613E+00-1.00679E-01 2.25058E+00 6.68832E-01
 -1       614-1.05189E+00-6.97749E-01-1.41842E+00 3.29615E-01 4.23176E-01-1.21789E+00
 -1       615-2.28604E+00-1.55769E+00-4.86088E-01-1.07265E+00 1.27685E+00 6.24349E-01
 -1       616-1.49210E+00-8.44470E-01-3.39389E-01-2.00677E-01 1.24687E+00-7.16180E-02
 -1       617-2.22822E+00-3.24809E+00-4.92793E+00-2.88578E-01 1.24898E+00 3.16966E+00
 -1       618-1.82802E+00-2.22338E+00-2.30889E+00-4.88234E-01-1.69491E+00 1.33036E+00
 -1       619-8.06171E-01-1.39665E+00-1.91164E-01-2.51159E-01 4.11173E-01-1.05060E+00
 -1       620-2.27497E-01-7.19969E-01-2.92439E-01-1.06678E-01 1.15586E-01-6.09616E-01
 -1       621-2.33931E+00-3.03954E+00 1.36577E-02-2.01415E-01 1.91176E-01-1.61502E-01
 -1       622-2.04094E+00-2.61023E+00-1.09179E-02 1.70213E-02-1.91915E-01-4.00589E-01
 -1       623-3.68731E+00-3.24069E+00 1.63949E-01 2.58549E-01-3.30017E-01 1.30134E+00
 -1       624-3.78574E+00-2.31620E+00 4.29068E-01 1.06586E+00-5.67206E-01 1.28217E+00
 -1       625 4.78847E-01-9.87201E-02 1.94072E-01-5.37083E-01-1.55833E-01 3.36142E-01
 -1       626 3.94607E-01-4.03758E-01 1.04504E-01-7.78913E-01-6.28885E-01 1.87130E-01
 -1       627-8.76909E-01-7.03627E-01-8.31505E-01 9.96798E-02 1.09064E-01-1.30978E+00
 -1       628-1.99547E+00-1.88620E+00-8.57764E-02-3.39099E-01-3.49165E-01-1.13092E+00
 -1       629-2.71929E+00-2.09377E+00 9.67396E-01-1.30431E-01-1.61559E-01-4.56488E-01
 -1       630-6.51014E-01-2.22112E+00 8.84537E-02-3.51018E-01 9.08080E-01-5.48423E-01
 -1       631-2.30997E+00-2.48001E+00 8.61938E-01-1.70234E+00 1.17014E+00-8.99808E-01
 -1       632-2.46421E+00-1.66245E+00 8.71859E-01 4.30835E-01 7.54984E-01 1.79886E-01
 -1       633-1.72088E+00-1.44227E+00 5.44756E-01-1.40557E-01 4.68874E-01-3.65424E-01
 -1       634-5.68723E-01-7.25346E-01-2.50997E-01 1.11375E-01 1.10548E+00-1.22900E+00
 -1       635-2.67810E+00-3.00203E+00-1.84670E+00-7.69182E-01 2.75112E+00 1.57649E+00
 -1       636-2.62832E+00-2.50224E+00-8.80299E-01-3.10820E-01-2.61211E+00-7.88512E-01
 -1       637-2.46497E+00-2.46055E+00-7.87500E-01-5.72255E-01 1.61071E+00 1.36044E-01
 -1       638-1.60244E+00-9.71762E-01-2.25235E+00 1.52493E-01-8.13121E-01-1.35542E+00
 -1       639-2.01078E+00-2.72883E+00 4.92198E-01-6.71209E-01 6.46489E-01-4.59382E-01
 -1       640-5.84432E-01-1.32164E+00 1.27977E+00 8.78200E-02 4.60926E-02-6.97244E-01
 -1       641-1.07340E+00-2.70488E+00-2.14354E+00-6.07244E-03 1.41192E+00 1.89602E+00
 -1       642-2.04588E+00-2.41404E+00-4.32566E+00-2.97421E-01-1.65389E+00 2.37377E+00
 -1       643 2.49874E-01-1.25058E+00-5.03839E-01 2.78561E-01-1.16264E-01-7.63813E-01
 -1       644 9.82639E-01-4.75390E-02-4.58424E-01 1.77749E-01-6.45718E-02-7.03307E-01
 -1       645-2.00557E+00-2.37346E+00-3.34033E-03-1.03339E-01 1.87858E-02-3.97176E-01
 -1       646-1.67600E+00-1.04159E+00-5.54565E-02 7.78600E-02-5.59343E-01-2.12400E-01
 -1       647-3.79625E+00-2.10614E+00 1.78458E-01-6.19409E-02 3.57232E-02 1.32151E+00
 -1       648-3.42382E+00-2.39299E-01 2.96111E-01 1.09611E-01-4.35206E-02 1.40108E+00
 -1       649 9.55353E-01-4.77781E-01 1.05626E+00 8.25692E-02 2.71163E-01 1.03655E+00
 -1       650 9.15728E-01-4.18100E-01 3.24017E-01-1.74513E-02 6.39404E-02 9.09217E-01
 -1       651-5.93914E-01-1.57512E+00-6.04635E-01 3.40383E-01-4.88576E-01-1.24205E+00
 -1       652-1.32789E+00-1.47812E+00 3.25638E-01-1.48028E-01-1.38106E-01-9.15512E-01
 -1       653-3.23454E+00-2.35989E+00 3.43312E-01 2.23249E-01-4.85972E-01 1.29384E-01
 -1       654-1.49363E+00-5.02700E+00-1.57324E+00 8.61057E-01 2.11654E-01-1.10888E+00
 -1       655-1.95286E+00-6.37700E+00-8.30456E-01-8.44854E-01 7.76608E-01-9.82260E-01
 -1       656-2.85488E+00-1.84332E+00 1.72801E-01 7.65238E-02 1.43478E+00 8.20818E-02
 -1       657-1.03368E+00-1.00582E+00 1.04691E+00-2.36254E-01 4.46306E-01-8.09905E-01
 -1       658-9.98822E-01-3.35304E-01 3.11080E-01 4.60886E-01-2.75938E-01-2.08703E+00
 -1       659-2.36818E+00-1.09936E+00-9.13179E-01 5.24265E-01 1.17716E+00 9.48931E-02
 -1       660-2.76132E+00-1.35175E+00-1.41858E+00-4.01508E-01-1.29987E+00 5.73438E-01
 -1       661-1.55182E+00-2.52387E+00-5.21481E-01-2.02433E-01 1.35681E+00-6.88206E-01
 -1       662-1.87587E+00-2.26411E+00-1.70069E+00-4.40782E-02-1.64039E+00-1.21835E+00
 -1       663-1.63372E+00-3.21796E+00-1.72711E-01-3.04229E-01-8.22283E-01-1.15378E+00
 -1       664-1.73140E+00-3.56738E+00-8.03723E-01 1.93655E-01 3.65197E-01-6.62592E-01
 -1       665-2.45708E+00-2.32002E+00-4.22886E+00 4.52561E-01 2.47089E+00 1.35728E+00
 -1       666-1.19421E+00-2.53823E+00-1.78264E+00 2.40307E-01-8.43351E-02 2.53348E+00
 -1       667-3.72645E+00-3.01611E+00 5.03610E-02-1.65072E-01 2.82834E-01 1.28953E+00
 -1       668-3.67183E+00-2.11295E+00 3.46329E-01-8.84341E-01 5.38257E-01 1.13566E+00
 -1       669-2.18348E+00-2.50390E+00 1.21908E-01 1.92666E-01-1.79411E-01-2.44515E-01
 -1       670-1.75085E+00-2.14023E+00 8.96216E-02-3.39802E-04 4.18892E-02-5.71037E-01
 -1       671-3.47247E-01-1.70193E+00-2.31286E-01 6.98516E-01-3.01954E-01-1.05283E+00
 -1       672 5.13322E-01-6.82586E-01-4.39839E-01 5.77106E-01-4.81324E-03-5.05705E-01
 -1       673 1.74114E+00 1.09638E-01 1.14695E+00 5.66819E-01 8.69463E-01 1.54024E+00
 -1       674 1.57567E+00-3.45369E-01 7.21717E-01 6.99004E-01 5.50562E-01 1.37134E+00
 -1       675-7.22837E-01-1.87409E+00-8.48318E-01 5.14044E-01-9.60268E-01-1.09562E+00
 -1       676-1.24323E+00-1.61613E+00 4.57538E-01 2.74745E-01-3.77091E-01-5.26475E-01
 -1       677-2.51152E+00-2.09502E+00 6.59096E-01-9.19650E-02-4.44109E-01-2.58439E-02
 -1       678-3.21200E+00-4.77278E+00-5.98310E-01 2.24449E+00-7.66663E-01-9.13691E-01
 -1       679-1.80036E+00-3.05698E+00 1.29373E+00 1.17403E+00 2.67454E-01-9.90824E-01
 -1       680-2.63251E+00-1.64018E+00 8.26097E-01 1.57987E-01 2.87816E-01-4.37556E-01
 -1       681-1.10578E+00-1.72150E+00 3.39703E-01 2.27790E-01 1.55854E-01-9.33542E-01
 -1       682-6.99719E-01-1.31756E+00-5.42718E-01 7.80549E-01 1.26077E-01-1.65410E+00
 -1       683-2.69117E+00-3.70130E+00-9.69106E-01 4.40212E-01 2.20509E+00-5.59357E-01
 -1       684-3.40571E+00-4.58066E+00-2.10449E+00 7.36294E-01-2.00678E+00 1.60263E+00
 -1       685-1.55514E+00-2.35744E+00-1.30836E+00 1.72570E-02 1.17874E+00-1.43010E+00
 -1       686-2.15286E+00-2.57213E+00-1.88350E+00 1.97772E-01-2.37642E+00-3.41415E-01
 -1       687-1.92515E-01-6.33376E-01 1.12604E-01-2.06402E-01-3.01704E-01-6.67735E-01
 -1       688-1.05577E+00-1.01333E+00 8.63700E-01 3.80132E-01-1.19502E-01-7.88947E-01
 -1       689-2.39585E+00-1.84901E+00-3.22676E+00 2.86292E-01 2.16432E+00 4.96297E-01
 -1       690-2.19585E+00-2.13171E+00-3.91540E+00 6.61717E-01 7.16275E-01 3.15435E+00
 -1       691-3.44147E+00-3.46298E+00 4.11867E-01-4.76233E-01 8.03333E-01 9.97596E-01
 -1       692-1.79937E+00-1.93995E+00 7.11285E-01-1.51662E+00 8.19330E-01 9.61119E-01
 -1       693-2.11392E+00-2.20743E+00 2.31930E-02 2.86948E-01-3.57785E-01-3.40660E-01
 -1       694-1.36565E+00-1.43044E+00 2.55708E-01-2.40525E-01-8.61161E-03-6.66858E-01
 -1       695-4.62730E-01-4.60935E-01-4.00490E-01 7.99752E-01-4.91939E-01-6.02649E-01
 -1       696 2.43592E-01 3.55760E-01-1.57271E-01 4.94841E-01-5.63938E-01-7.36733E-01
 -1       697 7.08432E-01 7.17630E-01 7.45160E-01 1.35219E+00 1.09676E+00 1.04132E+00
 -1       698 8.51264E-01 8.37167E-01 8.27699E-01 8.79223E-01 8.54209E-01 1.20611E+00
 -1       699-1.42673E+00-1.23168E+00-3.17752E-02 1.90457E-01-8.10560E-01-4.05890E-01
 -1       700-1.14443E+00-1.31015E+00-2.61846E-01 7.30320E-03-1.46583E+00-6.30977E-01
 -1       701-3.14809E+00-2.64882E+00 9.22181E-02-4.05817E-01-4.39000E-01 2.45265E-01
 -1       702-6.59349E+00-2.81568E+00 2.99295E-01 1.89085E+00-2.39522E-01-8.16876E-01
 -1       703-1.23063E-01-3.78050E+00-3.12972E-01 7.02987E-01-2.75573E-01-1.19852E+00
 -1       704-2.51933E+00-2.70726E+00 5.91217E-01 2.41406E-01 6.53834E-01-9.63341E-01
 -1       705-8.40386E-01-9.95402E-01 6.64607E-01 1.13834E-01-1.88789E-01-8.34292E-01
 -1       706-1.45628E+00-1.05260E+00-4.61011E-01-1.18202E-01-8.07606E-01-1.08885E+00
 -1       707-2.08740E+00-1.06715E+00-2.59065E-01-4.06080E-01 5.34499E-01-9.19267E-01
 -1       708-1.75998E+00-1.20398E+00-1.89215E+00-4.46467E-01-6.01031E-01 1.55539E+00
 -1       709-2.01329E+00-2.13867E+00-1.24627E+00 3.40661E-01 4.45838E-01-1.77152E+00
 -1       710-1.01719E+00-8.74497E-01-1.56756E+00-4.91902E-01-1.06394E+00-1.92021E-01
 -1       711-1.05469E+00-1.21185E+00 1.05125E+00 3.39107E-01-5.76604E-01-2.56022E-01
 -1       712-1.33044E+00-1.02841E+00-7.85122E-01 4.72572E-01-3.17013E-01-1.27027E+00
 -1       713-2.43960E+00-2.70679E+00-4.03389E+00 4.87423E-01 1.93883E+00 2.62025E+00
 -1       714-2.91082E+00-1.69773E+00-3.22064E+00 4.21465E-01 3.28230E+00-6.05562E-01
 -1       715-2.76988E+00-2.20600E+00 1.70026E-01 1.07049E-01-1.75609E-01-1.37853E-01
 -1       716-3.29546E+00-3.82365E+00 5.74462E-01-2.40741E-01 6.84775E-01 4.06125E-01
 -1       717-1.61808E+00-3.61937E+00 2.19395E-01-6.67872E-01 1.02991E+00 1.81088E-01
 -1       718-1.13157E+00 1.47089E-01-7.36955E-01 3.73816E-01-1.01311E+00-3.09913E-01
 -1       719-6.51202E-01 8.54344E-02-7.59977E-02 1.34499E-01-1.20866E+00-4.31728E-01
 -1       720-2.54456E+00-2.17628E+00-2.89684E-02-4.06739E-02-5.25919E-01 1.32348E-01
 -1       721 2.76124E-02 1.74761E+00 1.13188E-01 7.01418E-01 1.22350E+00 4.84728E-01
 -1       722 4.29713E-01 2.42248E+00 1.30738E+00 8.07744E-01 1.91039E+00 9.13797E-01
 -1       723-1.21488E+00-1.54777E+00 2.66284E-02-2.06208E-01-1.09388E+00-1.45153E-01
 -1       724-7.52352E-01-6.17931E-01-5.08528E-01-3.17038E-01-1.97631E+00 1.25674E-01
 -1       725-1.89024E+00-2.53225E+00 1.09393E+00 1.83047E-01-3.66344E-01 1.67760E-01
 -1       726-4.68978E+00-1.03400E+00-5.65780E-01 4.81474E-01-1.37559E+00 2.98886E-01
 -1       727-7.38715E+00-2.94334E+00 2.23669E-01 1.73645E+00-5.18249E-01 4.25783E-04
 -1       728-2.43883E+00-3.39830E+00-2.26192E-02-2.34063E-01 4.80518E-01-1.12650E+00
 -1       729-1.28272E+00-1.57552E+00 4.99598E-01 7.70206E-03-5.73410E-01-3.42133E-01
 -1       730-6.11919E-01-1.56120E-01-1.36661E-01-3.54409E-01-1.42962E+00-3.38638E-01
 -1       731-1.60229E+00-1.94480E+00-1.70709E+00-5.96615E-01 8.60085E-01-1.24998E+00
 -1       732-5.04822E+00-3.25318E+00-2.00864E+00 4.54227E-01-5.25927E-01 3.34653E+00
 -1       733-1.88795E+00-2.07355E+00-2.89981E-01 2.75489E-01-2.00294E-01-9.96890E-01
 -1       734-8.54234E-01-1.30241E+00-1.15553E+00-6.68394E-01-8.79345E-01 7.84596E-02
 -1       735-1.29818E+00-2.09232E-01 6.48478E-01 2.65155E-01-3.82249E-01-5.02483E-01
 -1       736-1.76177E+00-9.82767E-01-7.01239E-01 6.73545E-02-6.21121E-01-4.44355E-01
 -1       737-2.78377E+00-1.43166E+00-4.12601E+00-1.93030E-01 2.35040E+00 1.76063E+00
 -1       738-1.80913E+00-1.61285E+00-2.23130E+00-2.46100E-01 1.03714E+00-8.45203E-01
 -1       739-2.69652E+00-2.11544E+00-4.24515E-03-2.04590E-01-4.78636E-01 1.15554E-02
 -1       740-3.13662E+00-3.62349E+00 2.99151E-01 2.62428E-01 1.37003E+00 1.04101E-01
 -1       741-5.51248E-01-2.91630E+00 9.05100E-01 1.56113E-01 1.24366E+00-7.12157E-02
 -1       742-1.57725E+00 2.12529E-01-4.19413E-01 1.89488E-01-8.28711E-01 6.95309E-02
 -1       743-1.51541E-01 8.10202E-01-5.94487E-02 8.90707E-02-7.80544E-01-3.48652E-03
 -1       744-8.80918E-01-1.90328E+00-5.20058E-01-1.39057E-01-2.13890E-01 7.68137E-01
 -1       745-1.58447E-01 2.19869E+00 1.34722E+00-4.28335E-01 1.75713E+00-3.58172E-01
 -1       746-4.37415E-01 2.05444E+00 2.77848E-01-1.33001E-01 1.41727E+00 2.03844E-02
 -1       747-1.95421E+00-1.41524E+00-4.31701E-02 8.00856E-02-1.13427E+00 1.74245E-01
 -1       748-6.68247E-01-4.38395E-01-1.60924E-02 7.25398E-02-1.09518E+00 5.19407E-01
 -1       749-3.07318E+00-3.38000E+00 8.15047E-02-2.47672E-01 1.96957E-01 4.50159E-01
 -1       750-4.37648E+00-1.64489E+00-1.29107E+00-3.45475E-01-9.54553E-01 4.53129E-01
 -1       751-4.17423E+00-1.50599E+00 8.22128E-02 4.63041E-01-1.13193E+00 6.26798E-01
 -1       752-1.62515E+00-2.28103E+00 1.91104E+00-3.38370E-01-7.99943E-02-7.30746E-01
 -1       753-1.00006E+00-1.37505E+00 2.47485E-01 3.14369E-01-8.56276E-01-3.97905E-01
 -1       754-7.24085E-01-8.88553E-01-5.80606E-02-2.63975E-01-1.38909E+00-4.31308E-01
 -1       755-2.81877E+00-2.58412E+00 1.60442E-01-5.50344E-01 1.56627E-01-1.66118E+00
 -1       756-1.03039E+00-2.66986E+00-1.88235E+00 3.73369E-01 8.46595E-01 1.12513E+00
 -1       757-2.90030E+00-2.30758E+00-1.70315E+00 1.30507E-01-1.27150E+00-1.92499E+00
 -1       758-4.11760E-01-1.40607E+00-1.07077E+00 8.13160E-02-1.14237E+00 3.47361E-01
 -1       759-2.27132E+00-1.07911E+00-4.93149E-01-2.32947E-01-1.14288E+00-4.69699E-02
 -1       760-7.27817E-02-2.32288E-01 8.44657E-01-5.35724E-01-9.75177E-01-4.04520E-01
 -1       761-2.82552E+00-2.13999E+00-5.49445E+00-1.26651E-01 3.68149E+00 4.84221E-01
 -1       762-1.81442E+00-1.65799E+00-2.54866E+00-4.56303E-01 1.90553E+00-1.52220E+00
 -1       763-2.68470E+00-2.53448E+00-1.12054E-02 7.23659E-02-1.21167E-01 1.48432E-01
 -1       764-1.28902E+00-1.46696E+00-1.17466E-01 5.16389E-02-1.33941E+00 4.69910E-01
 -1       765-6.68676E-01-4.35733E-01-3.68670E-01 1.48402E-01-9.02250E-01 3.94312E-01
 -1       766-2.63080E+00-4.21558E+00 2.66190E-01 4.05756E-01 1.40962E+00-4.42578E-01
 -1       767-2.82834E+00-4.47689E+00 2.48777E-01 6.10633E-01 1.20691E+00-8.37036E-01
 -1       768-2.19524E+00-2.30871E+00-2.25307E-01 4.17294E-01-2.96213E-01-1.15918E-01
 -1       769 9.20024E-02 7.01134E-01 1.30857E-01-3.69441E-01 4.05146E-01-2.10870E-01
 -1       770-4.63730E-01 6.25573E-01-1.43370E-01-4.33348E-01 3.01559E-01 2.39991E-02
 -1       771-1.43621E+00-2.18959E+00 4.02659E-01 1.92615E-01-4.63128E-01 3.85235E-01
 -1       772-1.23533E+00-9.00596E-01-2.47758E-01-5.77033E-02-1.23921E+00 8.24319E-01
 -1       773-3.97266E+00-3.23006E+00 2.72275E-01 1.03012E-01 2.44990E-01 6.72467E-01
 -1       774-3.65870E+00-2.78127E+00-2.29758E-01-1.34742E+00-7.01855E-01 4.42794E-01
 -1       775-4.21773E+00-1.37879E+00-7.00960E-01-6.56645E-01-3.55602E-01 4.07153E-01
 -1       776-1.98405E+00-3.16598E+00 6.77363E-01 7.15173E-01-2.64087E-01-5.23945E-01
 -1       777-1.94965E+00-2.15959E+00 1.80313E-01 2.00156E-01-1.03201E+00-3.66019E-01
 -1       778-6.40589E-01-1.11813E+00-6.70743E-01-1.94262E-01-1.20773E+00 5.36684E-01
 -1       779-2.27426E+00-2.80417E+00-1.11792E+00-6.49084E-01-5.41125E-01-1.89968E+00
 -1       780-1.98367E+00-2.42029E+00-1.29576E+00 7.92931E-01 7.76309E-01 1.39789E+00
 -1       781-1.33692E+00-1.56335E+00-9.89541E-01 6.25614E-01-9.22243E-01-4.90783E-01
 -1       782-2.26587E+00-2.71352E+00-1.56652E+00-2.90239E-01-3.56554E-01 1.84413E+00
 -1       783-1.02913E+00-4.21154E-01 4.84954E-01 8.09614E-02-4.95228E-01 4.14710E-01
 -1       784 7.53249E-02 2.87988E-01 9.42842E-01-1.93220E-02-1.17043E+00 2.18718E-01
 -1       785-1.71214E+00-1.89155E+00-1.57530E+00 9.10683E-02 2.00234E+00-2.24867E+00
 -1       786-1.63381E+00-3.17606E+00-4.11682E+00-3.61409E-02 8.73660E-01-2.61345E+00
 -1       787-4.21296E+00-3.42296E+00 1.84838E-01 6.28472E-01 1.08585E+00-8.47106E-01
 -1       788-2.38242E+00-1.54017E+00 6.49661E-01 1.34128E+00 9.69113E-01-1.17042E+00
 -1       789-2.43826E+00-2.26482E+00 2.83510E-02-1.79092E-02-1.34213E-01 1.15120E-01
 -1       790-1.77412E+00-1.58515E+00-4.24820E-01 8.89558E-01-5.33903E-01-3.15757E-01
 -1       791-1.33773E+00-1.02833E+00-1.90666E-01 5.12791E-02-7.64830E-01 8.70688E-01
 -1       792-5.03082E-01-3.79305E-01 1.03278E-01 3.13405E-01-9.14419E-01 9.45180E-01
 -1       793 6.80878E-02-3.50894E-01-3.43049E-01-3.17551E-01-1.16694E-01 3.74258E-02
 -1       794 3.18957E-01-2.55228E-01-2.40280E-02-3.85796E-01-9.28246E-02-1.74428E-01
 -1       795-1.83600E+00-9.11826E-01-1.04404E+00 5.67682E-02-1.00646E+00 7.29940E-01
 -1       796-1.68490E+00-1.80306E+00 4.87343E-01 3.49919E-01-3.00521E-01 6.73021E-01
 -1       797-2.49383E+00-2.91177E+00 4.31437E-01 3.37967E-01 3.41645E-01 4.54131E-01
 -1       798-3.61731E+00-3.85521E+00 8.57786E-01-1.37049E+00-4.82676E-01 7.21135E-02
 -1       799-5.11119E+00-2.98824E+00 8.30074E-01-1.92357E+00-8.02880E-01-6.31930E-01
 -1       800-2.08779E+00-2.58236E+00 5.87529E-01 1.03127E+00-4.45691E-01-4.72519E-01
 -1       801-2.04376E+00-1.72767E+00 2.80947E-01 2.11588E-01-6.93883E-01 2.66606E-01
 -1       802-6.74000E-01-1.70390E-01-3.69229E-01 5.39493E-01-1.26859E+00 5.13053E-01
 -1       803-2.29465E+00-3.27698E+00-1.41085E+00-2.95704E-02-1.09738E+00-1.62469E+00
 -1       804-2.61253E+00-1.50599E+00-7.85724E-01 8.22716E-01 9.90145E-01 6.07954E-01
 -1       805-2.64952E+00-1.70955E+00-1.55354E+00 5.31300E-02-1.87208E+00-3.93517E-01
 -1       806-3.26193E+00-2.58312E+00-1.01801E+00-7.89466E-01 4.85792E-01 2.10210E+00
 -1       807-2.24857E+00-1.52715E+00-6.72374E-01-8.10093E-01 2.37487E-01 8.86078E-01
 -1       808-1.03483E+00-1.33652E+00 2.35485E-01-7.88317E-01-5.10245E-01 4.92992E-01
 -1       809-1.08443E+00-1.57619E+00-1.54991E+00-3.70030E-01 1.35834E+00-1.74254E+00
 -1       810-2.75986E+00-3.13194E+00-6.51428E+00 2.86364E-01-1.86099E-01-3.46541E+00
 -1       811-3.71263E+00-2.92878E+00 2.74226E-01 3.27697E-01 4.59425E-01-1.17731E+00
 -1       812-3.15882E+00-6.91655E-01-3.28304E-01 7.26304E-01 2.07798E-01-1.51169E+00
 -1       813-2.16419E+00-2.41890E+00 2.09670E-01 1.85920E-01 2.76575E-03 3.80899E-01
 -1       814-2.62553E+00-2.44706E+00-9.94643E-02-1.22278E-03-1.59152E-01 1.86870E-01
 -1       815-5.28626E-01-1.58735E+00-4.84465E-01-5.17487E-01-1.89175E-01 9.25739E-01
 -1       816-6.08789E-01-9.50739E-01 1.65966E-01-1.75532E-01-5.09935E-01 1.04721E+00
 -1       817 5.67553E-02-1.13590E+00 6.30575E-01-2.53365E-01 4.33692E-01-6.04469E-01
 -1       818 4.64345E-01-8.95168E-01 1.28969E-01-3.08605E-01 1.07605E-01-5.49796E-01
 -1       819-7.97696E-01 1.39799E-01 4.14568E-01-8.84473E-02 4.62263E-01 2.13658E+00
 -1       820-1.70198E+00-1.88978E+00 4.07790E-01 1.54176E-01-6.13333E-02 8.96125E-01
 -1       821-2.83907E+00-2.71365E+00 5.01296E-01-2.80741E-01 6.81621E-01 3.43291E-01
 -1       822-1.76659E+00-3.09379E+00-8.47423E-01-8.79783E-01-8.04341E-01 7.85899E-01
 -1       823-3.13606E+00-4.24277E+00-1.14647E+00-2.02969E+00-9.56551E-01 5.35586E-01
 -1       824-3.10207E+00-2.06059E+00 5.82605E-01 1.89706E-01-3.61391E-01-1.64183E-01
 -1       825-1.57530E+00-1.61888E+00 4.18040E-01 2.04286E-02-5.52673E-01 5.84484E-01
 -1       826-8.60682E-01-2.27693E-01-5.66236E-01-1.60584E-01-3.62196E-01 1.24362E+00
 -1       827-2.69876E+00-3.43593E+00-1.80707E+00-4.23537E-01-1.87051E+00-1.54655E+00
 -1       828-2.95622E+00-8.22860E-01 1.25821E-01-9.52081E-02 6.56333E-01 2.71987E-01
 -1       829-1.97460E+00-1.57503E+00-1.27403E+00-1.41638E-01-1.72471E+00 4.49401E-01
 -1       830-1.93232E+00-2.23653E+00-7.82064E-01 2.63635E-01 8.94478E-01 1.28435E+00
 -1       831-1.62586E-01 3.13234E-01 1.25881E+00 1.41374E-01-4.09683E-02 6.75375E-01
 -1       832 5.13341E-01-1.09442E+00 6.13465E-01 1.30645E+00-5.38002E-01 5.52063E-01
 -1       833 1.69487E+01 7.33319E+00 7.28456E+00 7.22803E-01 7.24546E-01 7.35531E+00
 -1       834-4.74889E+00-3.11063E-02 4.56063E+00-1.32340E-01 7.05608E-01-2.54356E-01
 -1       835-8.76569E+00-3.73387E+00-3.57293E+00 1.72316E+00-3.97691E-01-3.95128E+00
 -1       836 2.31012E+00 4.77091E-01 7.85836E-01 1.33386E+00-1.31833E+00 3.65719E-01
 -1       837 3.53929E+00 7.17874E+00 2.88433E+00 1.92688E+00 8.74675E-01 8.97179E-01
 -1       838 1.58865E+00 1.77684E+00 2.00655E+00 7.14446E-01-1.48089E+00 1.42272E+00
 -1       839 3.42292E+00 3.87327E+00 3.33906E+00 1.40159E+00 5.67345E+00 6.80976E+00
 -1       840-6.12907E+00-4.06774E+00-1.31262E+00-2.61160E+00 3.34170E+00 3.70476E+00
 -1       841-1.81939E+00-1.32796E+00-3.69668E+00-7.85320E-02 3.08856E+00 1.92438E+00
 -1       842-1.39354E+01-6.31685E+00-6.07566E+00-2.74651E+00 4.49366E+00 7.33556E+00
 -1       843-3.53895E+00-4.66324E+00-5.41949E+00 1.00509E+00 2.99024E+00-2.21600E+00
 -1       844-1.30159E+01-1.46916E+01-8.31225E+00 5.68619E+00 7.38486E+00-5.48883E+00
 -1       845 1.01260E+01 2.08287E+01 9.28640E+00-3.13448E+00 1.13759E+01-3.45049E+00
 -1       846 2.42213E+00-1.94489E+00 6.59117E+00 9.63988E-02 1.11951E+00-7.96649E-01
 -1       847 3.99760E+00 2.15140E+00 7.77509E-01-1.61383E+00-5.14142E+00 7.02301E+00
 -1       848-4.43356E+00-3.23092E+00 2.62337E+00 2.54936E+00-1.75237E+00 3.84419E+00
 -1       849 3.18414E-01 1.21072E+00-1.11896E+00-4.53271E+00-1.49286E+00 6.06551E+00
 -1       850-5.81232E+00-2.42001E+00-2.46970E+00 1.58353E-01 2.30942E-01 2.76807E+00
 -1       851-3.12393E+00-1.70910E+00 2.32138E+00 1.78458E+00-1.86920E+00 4.09844E+00
 -1       852-1.15158E+00 1.13632E+00 3.18521E+00-3.32706E-01 1.50427E+00 3.27592E+00
 -1       853-2.66929E+00-2.17248E+00 7.78847E-01 1.88789E+00-4.06443E+00 2.90925E+00
 -1       854-1.02499E+00 1.66763E+00 2.13522E-01-4.26543E-01 2.46338E+00 2.25169E+00
 -1       855 1.05123E+00 9.13268E-01 3.45092E+00 1.66135E-01-1.46877E+00 1.02053E+00
 -1       856-2.00917E+00-1.09505E+01-3.70673E+00 9.35395E-01 5.34622E+00 2.79736E+00
 -1       857 0.00000E+00 0.00000E+00 0.00000E+00 0.00000E+00 0.00000E+00 0.00000E+00
 -1       858 3.14540E+00 4.08404E+00 2.49707E+00 1.60544E+00 1.76341E+00 4.26070E+00
 -1       859-7.25698E-01-3.42718E+00 1.11570E+00 8.30021E-01-4.85699E+00-8.90615E-01
 -1       860-3.52201E+00 4.23940E+00 4.13368E-01-7.95466E+00-8.95642E+00-9.22420E-01
 -1       861-7.22034E-01-2.89849E+00 1.85942E+00 1.19390E+00-1.13581E+00-3.00563E-01
 -1       862-1.90146E+00-6.89833E+00 1.75849E+00-1.25563E+00 9.56409E-01-5.46959E-02
 -1       863-9.17237E+00-8.07032E+00-4.32792E+00-5.20174E+00-7.73790E+00-5.32036E+00
 -1       864-1.01805E+01-1.58880E+01-7.82055E+00 4.36363E+00 9.36867E+00-5.00777E+00
 -1       865-1.04363E+01-1.35405E+01-7.19304E+00-4.69175E+00-6.53173E+00-5.41523E+00
 -1       866 8.47338E-01 1.99830E+00 2.85507E+00 2.23830E-01-1.84333E+00-3.32035E+00
 -1       867-1.34586E+00-2.43914E+00 2.26251E+00 1.68612E+00-2.34842E-01 1.17431E+00
 -1       868-1.20330E+01-9.46934E+00-6.45070E+00-4.05785E+00-3.76041E+00-9.09018E+00
 -1       869 8.30922E-01 8.27787E-01 3.04515E+00 3.09113E-01 2.42449E+00-5.02511E+00
 -1       870 4.01688E+00 1.82772E+00 3.62386E+00 5.83875E-01-1.84578E+00-6.12309E+00
 -1       871 4.38503E+00 2.60604E+00 1.16569E+00-2.75716E+00-1.25927E+00-3.51383E+00
 -1       872-7.57385E+00-2.11701E+00-2.65115E+00 2.17823E+00-1.64269E+00-5.42744E+00
 -1       873 9.01787E+00 5.82305E+00 4.45228E+00 2.50245E+00 3.78513E+00 7.08133E+00
 -1       874 1.53493E-01-1.08981E+01-2.89306E+00 2.68971E+00 4.36773E+00 2.30106E+00
 -1       875 5.15745E+00 8.40806E+00 1.31718E+00 4.01057E+00 2.73445E+00 4.54399E+00
 -1       876 1.31554E+01 1.22953E+01 7.63521E+00 5.22968E+00 9.71222E+00 7.96706E+00
 -1       877 9.32164E+00 5.95591E+00 4.58327E+00-2.55038E+00 4.13504E+00-7.73594E+00
 -1       878 4.83599E+00 1.00554E+00-3.35765E+00-1.80123E+00-1.38331E+00 5.58420E-01
 -1       879 1.35794E+01 6.61705E+00 4.88646E+00-4.70833E+00-4.53260E-01-3.12654E+00
 -1       880 7.83994E+00 8.92164E+00 5.02847E+00 3.52555E+00-4.23267E+00-5.15743E+00
 -1       881 1.71945E+00-3.28365E-01-1.25806E+00 5.75110E-01 4.24558E-01-3.69630E+00
 -1       882 1.46550E+01 6.65123E+00 6.39186E+00 3.14238E+00-2.71977E+00-1.12579E+01
 -1       883 4.75187E+00 2.67901E+00 2.10176E+00 3.86303E+00-1.19653E+00-5.20137E+00
 -1       884 1.56235E+00 1.32178E+00-2.78210E+00 1.58186E+00 1.66811E-01 7.40001E-02
 -1       885-2.76158E-01 3.14907E+00-4.26634E+00 7.78884E-01-7.63490E-01 5.58155E-01
 -1       886-2.28920E-02 1.16347E+00-1.38910E+00-5.71465E-01 2.05158E+00-1.21674E+00
 -1       887 9.30887E+00 5.85660E+00 2.78538E+00-7.24000E+00-1.99054E+00 6.29901E+00
 -1       888 7.20390E+00 2.81706E+00-4.44568E+00-3.37574E+00 1.93322E+00-8.20679E-01
 -1       889 5.46761E+00 1.19516E+00-1.77135E+00-1.11833E+00-2.18370E+00 2.85046E+00
 -1       890 1.18521E+00 4.22788E+00-6.58068E-01-1.27702E+00-1.97390E+00 2.92671E+00
 -1       891 7.10452E+00 1.18178E+01 5.67668E+00-3.41891E+00-5.50280E+00 2.80708E+00
 -1       892 3.23909E+00 8.47508E+00-7.13684E-01-2.05508E+00 1.55686E+00-7.38751E-01
 -1       893 1.85033E+00 7.01425E+00 1.98603E+00 8.33523E-01-5.58681E+00 6.88388E-02
 -1       894-1.63437E+00 1.46854E+01 4.20777E+00-1.14081E+01-7.77945E+00-8.33001E-01
 -1       895 0.00000E+00 0.00000E+00 0.00000E+00 0.00000E+00 0.00000E+00 0.00000E+00
 -1       896-4.02349E+00-1.25397E-01-3.78745E+00-2.13112E+00-1.41728E+00-3.72325E+00
 -1       897-5.20181E+00-3.07696E+00 4.21437E-01 1.37041E-01 4.04561E-01-8.67268E-01
 -1       898-1.57888E+00-1.23542E-01-1.83978E-01-3.72993E-02 1.23243E-01-8.64062E-01
 -1       899-5.50629E+00-1.62528E+00 2.82658E-01 6.82041E-02-1.91807E-01-7.49164E-01
 -1       900-2.76141E+00-2.46881E+00 4.96554E-01-1.62991E-01 6.91582E-01 1.26989E-01
 -1       901-1.31556E+00-9.10939E-01-2.31362E-02 2.96233E-01 8.91338E-02 9.15792E-01
 -1       902 7.47824E-01-1.01468E+00-3.67047E-01 1.73020E-01-1.98770E-02-2.67086E-01
 -1       903-1.56700E+00-2.15983E+00-4.04368E-01 2.88716E-02-4.31177E-02 9.49415E-01
 -1       904-2.32105E-02-5.05824E+00-8.49287E-01 9.73216E-01-4.83406E-01 2.40313E+00
 -1       905-1.43114E+00-2.36489E+00 1.02157E+00 2.07820E-01-5.92786E-03-5.22960E-02
 -1       906 3.59603E-01-6.50894E-01 2.91992E-02-5.13988E-02-4.05194E-01 1.06343E+00
 -1       907-4.86179E-01-7.55847E-01-2.63213E-01 2.66404E-01-2.59160E-01 8.34062E-01
 -1       908-9.15455E-01-2.34168E+00 2.01169E-01 3.53018E-01 4.16296E-01 1.17802E+00
 -1       909-1.11278E+00-2.84375E+00-1.72244E+00 4.60460E-02-5.28273E-02 6.73417E-01
 -1       910-4.99135E+00-3.02442E+00 2.18719E-01-8.05388E-01 7.41076E-03 6.11521E-03
 -1       911-1.68629E+00-1.91062E-01-4.49967E-01-3.31279E-01-2.39246E-01-1.13670E+00
 -1       912-9.52152E-01-1.80327E+00-5.51700E-01-1.03182E-02-1.60354E-02 9.01729E-01
 -1       913-2.66497E+00-4.25102E+00-7.33506E-01 1.90884E+00 6.73090E-01 2.13448E+00
 -1       914-1.41191E+00-2.83823E+00 2.92287E-01 8.68219E-01 1.23731E+00 7.72114E-01
 -1       915 8.61939E-01-4.73237E-01 9.11046E-01 5.18945E-01 5.94989E-02 8.10776E-01
 -1       916-7.61792E-01-1.20315E+00 8.91943E-02 2.56007E-01-1.41327E-01 6.67144E-01
 -1       917-8.15151E-01-1.39451E+00 2.17021E-01-2.45489E-02 8.60083E-01 7.05488E-01
 -1       918-2.19788E+00-2.85958E+00-4.79022E-01 1.49455E+00 8.70092E-01 4.72479E-01
 -1       919-1.77205E+00-1.44750E+00 1.65691E-01-1.36415E-01 4.41979E-01 2.82719E-01
 -1       920-1.99707E+00-2.85376E+00 3.23673E-01-2.63719E-01 4.06663E-01-2.59592E-01
 -1       921-3.83074E+00-4.42230E+00 3.30729E-01-1.24810E+00 2.30463E-02 2.10064E-01
 -1       922-2.19210E+00-1.60361E+00-3.94584E-01-1.12444E+00-5.05587E-01-1.06213E+00
 -1       923-8.67086E-01-1.48206E+00-6.11347E-01-2.35108E-02 6.87506E-01 1.14983E+00
 -1       924-5.47045E+00-5.24535E+00-4.65637E-01 2.38968E+00 1.09774E+00 8.95661E-01
 -1       925-1.20164E+00-2.12980E+00-9.43672E-01 7.65540E-01 6.80260E-01 5.26499E-01
 -1       926-3.84103E-01-5.85299E-01 2.07820E-01 1.20704E+00 6.00367E-01 6.88837E-01
 -1       927-1.52897E+00-2.79320E+00-4.63793E-01 1.01852E+00 6.58363E-02 2.42085E-01
 -1       928-1.46304E+00-1.92321E+00-7.03785E-02 2.55734E-01 5.89643E-01 1.07351E+00
 -1       929-1.56746E+00-1.07916E+00 3.38763E-01 8.86338E-02 8.92747E-01 1.81239E-02
 -1       930-2.22399E+00-1.70013E+00-1.57921E+00 6.08919E-01 6.89870E-01 2.24860E-01
 -1       931-2.01826E+00-3.08764E+00 4.86863E-01-1.03546E-01 1.76179E-01 4.80219E-02
 -1       932-1.22609E+00-1.13482E+00 4.84912E-02 1.95503E-01 1.07078E+00 4.55498E-01
 -1       933-1.14010E+00-3.04128E+00-3.21113E-01-7.57693E-01-1.03564E+00-5.25094E-01
 -1       934-2.09979E+00-2.29309E+00 2.17489E-01-7.24641E-01-1.15984E-01 9.32476E-01
 -1       935-1.49565E+00-2.10216E+00 8.98688E-02 1.66611E-01 5.34355E-01 2.23999E-01
 -1       936-3.07083E-01-1.81874E-01-3.00829E-03 4.27084E-01 1.01350E+00 2.18698E-01
 -1       937-2.38200E+00-1.71774E+00-2.94696E-01 4.40331E-01 1.27919E+00-9.35178E-02
 -1       938-4.38910E+00-1.41897E+00-1.11010E+00 7.85546E-01 1.61812E+00 6.60466E-01
 -1       939-4.05496E+00-2.40166E+00-5.64507E-01 5.06734E-01 7.48399E-01 7.19034E-02
 -1       940-7.28636E-01-4.57678E-01-2.62020E-01 2.05809E-01 7.91681E-01 9.79806E-01
 -1       941-8.55406E-01-1.01511E+00 1.30913E-01 1.83201E-01 9.25649E-01 2.75005E-01
 -1       942-1.66423E+00-1.29635E+00-6.95143E-01-8.88227E-02 1.02226E+00 2.05190E-01
 -1       943-2.35046E+00-9.76809E-01-3.90145E-01-1.19814E-01 6.25433E-01 1.31593E-01
 -1       944-1.92400E+00-2.62392E+00 6.53553E-01 4.08874E-01 3.90198E-01-2.08607E-01
 -1       945-2.80591E+00-5.45819E+00 1.50643E-01 3.19832E-01-3.31040E-01 1.87963E-01
 -1       946-6.85005E-01-1.92407E+00-4.88488E-01-2.13612E-01-1.01673E+00-1.35230E-01
 -1       947-1.51987E+00-1.73170E+00 9.82326E-02-8.98264E-02 6.49636E-01-1.26066E-02
 -1       948-1.62913E+00-1.09610E+00 2.19625E-01-5.04872E-01 1.23492E+00-2.10851E-01
 -1       949-9.75427E+00-4.75700E+00-2.51674E-01-6.95073E-01 1.54823E+00 1.75534E-02
 -1       950-1.76870E+00-6.53887E-01-5.58147E-01-1.13832E-01 3.92170E-01-2.93093E-01
 -1       951 5.37154E-01 8.86327E-01 8.60026E-01-4.68890E-01 1.54588E+00 4.48439E-01
 -1       952-4.48202E+00-1.88659E+00-3.16030E-01 2.30916E-01 3.00943E-01 1.75260E-01
 -1       953-1.11826E+00-7.65830E-01 3.58847E-01-6.83732E-02 9.20634E-01-1.02205E-01
 -1       954-1.52901E+00-1.01424E+00-2.88973E-01-9.01670E-02 7.06943E-01 2.47133E-02
 -1       955-5.08538E+00-2.24812E+00-1.93505E+00 2.81315E-01 3.80717E-01-3.64687E-02
 -1       956-1.54653E+00-1.36813E+00 2.07521E-01-1.01539E-01 2.74510E-01 3.27553E-02
 -1       957-1.20580E+00-1.57312E+00-1.17924E-01-1.74772E-01 4.26389E-02-7.80820E-01
 -1       958-2.00670E+00-1.92337E+00 5.13382E-01 2.48703E-01 3.53856E-01-2.04999E-01
 -1       959-8.13801E-01-7.29792E-01 7.63123E-01-8.64912E-02 1.42104E+00-1.27387E-01
 -1       960-6.71722E+00-4.03847E+00-1.12523E+00-1.61286E+00 1.28920E+00 1.86030E-02
 -1       961-1.92839E+00-1.16297E+00-1.99950E-01 4.91712E-01 8.14519E-01-3.02654E-01
 -1       962 1.19292E-01 1.26986E+00 6.24927E-01-9.16409E-01 9.31419E-01-4.68805E-01
 -1       963-3.14263E+00-1.18820E+00-1.11320E+00 1.44495E-01 3.23721E-01-3.85424E-01
 -1       964-2.65891E+00-1.51269E+00 1.09187E-01-4.37086E-01 8.48915E-01 3.80555E-01
 -1       965-9.75828E-01-1.08082E+00-3.73734E-01-3.97413E-02 6.49599E-01-3.87441E-02
 -1       966-2.50110E+00-1.53425E+00-1.70960E+00-5.50232E-01 9.82537E-01-1.30991E-01
 -1       967-1.89779E+00-1.65197E+00 6.14068E-02-1.87346E-01 5.40070E-01-1.98447E-01
 -1       968-9.34292E-01-9.32861E-01-1.39247E-01 7.16307E-01-5.38271E-01 7.68929E-01
 -1       969-3.59510E+00-3.26297E+00 5.80076E-01 1.50713E+00 1.57766E-01 5.04745E-02
 -1       970-1.86343E+00-2.02455E+00-5.16228E-01 3.35222E-01-1.00716E+00 8.45328E-01
 -1       971-1.19414E+00-8.96123E-01-3.68191E-01-3.69528E-01 3.23607E-01-6.54446E-01
 -1       972-1.51015E+00-1.31439E+00-8.30156E-01 9.73310E-02 6.29694E-01-9.47198E-01
 -1       973-5.35864E+00-8.26558E+00-1.75712E+00-2.59680E+00 1.59332E+00-1.28505E+00
 -1       974-1.40125E+00-3.83438E-01 3.83758E-01-1.91679E-01 5.43482E-01-4.01409E-01
 -1       975-1.02816E+00-6.73666E-01 8.50248E-02 1.51279E-02 1.36517E+00-4.97254E-01
 -1       976-3.27023E+00-2.11442E+00-7.07573E-01-9.19667E-01 1.11036E+00 4.61243E-01
 -1       977-2.23528E+00-1.72480E+00-3.56875E-01-3.52891E-01 1.35705E+00-1.74160E-01
 -1       978-1.56054E+00-2.16043E+00-5.39074E-01-5.17336E-01 9.81894E-01-8.53929E-01
 -1       979-2.21631E+00-2.84992E+00-1.10088E+00-9.58357E-01 8.44564E-01-8.95786E-02
 -1       980-1.70831E+00-1.25896E+00 3.88959E-01-1.01991E-01 3.04266E-01-8.88508E-01
 -1       981-2.09593E+00-1.62486E+00 1.99417E-02-3.01870E-01 2.69881E-01-1.63851E-01
 -1       982-1.75606E+00-1.41537E+00-1.79239E-02 3.60008E-01-5.16768E-01 8.23612E-01
 -1       983-5.15103E+00-2.32147E+00 5.60245E-01 1.10884E+00 1.51028E-01 6.96263E-01
 -1       984-2.47169E+00-1.25529E+00-3.73157E-01 7.94940E-01-6.36138E-01 1.24270E+00
 -1       985-8.70715E-01-1.10610E+00 7.73593E-02 3.05069E-02 8.12886E-01-1.12100E+00
 -1       986-2.92994E+00-7.42765E+00-1.04347E+00-1.73813E+00 9.29004E-01-1.76726E+00
 -1       987-2.02086E+00-2.78471E+00 3.16391E-01-6.66666E-01 4.13291E-01-4.61966E-01
 -1       988-1.40592E-01-6.41139E-01-7.15548E-02-4.36905E-02 5.37272E-01-9.82938E-01
 -1       989-2.23916E+00-2.53073E+00-4.70764E-01-9.14157E-01 1.22751E+00-5.87525E-02
 -1       990-1.35261E+00-1.67481E+00 4.48369E-01-4.77336E-01 4.71399E-01-5.19315E-01
 -1       991-7.91858E-01-1.54875E+00 1.64846E-01-3.19200E-02 1.57822E-01-8.90443E-01
 -1       992-1.38294E+00-2.65601E+00-3.18188E-01-6.41126E-01 5.56998E-02-4.43268E-01
 -1       993-1.67517E+00-1.39725E+00 3.43542E-01-2.49577E-01 4.91000E-02-5.33556E-01
 -1       994-1.72235E+00-7.16969E-01-3.80722E-01 6.20206E-02-1.91213E-01 1.27427E+00
 -1       995-5.50472E+00-1.90118E+00 3.23659E-01 1.00522E-01-1.48539E-01 2.97741E-01
 -1       996-2.35792E+00-6.50195E-01-5.25716E-01 1.42246E-01-7.78873E-02 1.15700E+00
 -1       997-1.67038E-01-8.17123E-01 1.60304E-01 4.67458E-01-7.07230E-01-1.80644E+00
 -1       998-1.17403E+00-1.49429E+00-6.02489E-01-2.25984E-01-5.04297E-01-1.06480E+00
 -1       999-4.18738E+00-9.96831E+00-1.98771E+00 2.42208E-01 6.66741E-01-2.36208E+00
 -1      1000-6.89643E-01-8.99951E-01 1.06324E+00-1.70270E-01 1.92840E-02-8.16212E-01
 -1      1001-2.89090E-01-1.22807E+00 5.02690E-01 3.98869E-01-5.45586E-02-1.74521E+00
 -1      1002-1.50960E+00-3.25999E+00-6.34735E-01-4.24269E-01 9.83451E-03-5.55835E-01
 -1      1003-1.30005E+00-2.39543E+00-5.53017E-01 4.00920E-02-2.58787E-01-9.98237E-01
 -1      1004-1.35147E+00-2.00518E+00-5.91000E-01 9.81576E-02-3.09486E-01-8.29930E-01
 -1      1005-1.18031E+00-2.92734E+00-4.99129E-01 4.47335E-01-5.56684E-01-5.66905E-01
 -1      1006-1.56538E+00-1.79797E+00-2.83755E-01-1.28514E-01 4.69973E-01 1.15864E+00
 -1      1007-4.95029E+00-2.46951E+00 5.56150E-01-8.36319E-01-4.33265E-02-9.56119E-02
 -1      1008-2.82665E+00-1.86322E+00 4.00599E-01 2.70350E-01-3.66797E-03-2.28790E-01
 -1      1009-1.31495E+00-1.46755E+00 5.22320E-02 1.72924E-01 1.85994E-02-5.90717E-01
 -1      1010 8.67216E-01-5.52515E-01-3.77389E-01 6.64889E-01 3.82958E-01 6.17361E-01
 -1      1011-1.20727E+00-1.44172E+00-3.77900E-01 2.44695E-01-5.44983E-01-9.77633E-01
 -1      1012-4.67031E+00-7.74910E+00-9.55675E-01 1.95325E+00-3.82869E-01-1.76712E+00
 -1      1013 2.91746E-01-8.16645E-01 1.58619E+00-1.26095E-02-1.81663E-01-7.71995E-01
 -1      1014-1.50320E-01-1.19095E+00-5.42161E-01 2.04007E-01-9.66316E-02-6.55303E-01
 -1      1015-1.53136E+00-3.15810E+00-1.41053E-02 4.41873E-01 1.93908E-02-5.00653E-01
 -1      1016-7.50761E-01-1.85597E+00-6.99619E-01 1.12518E-02-1.85209E-01-4.04055E-01
 -1      1017-1.17972E+00-1.29534E+00-7.75458E-01 1.25839E-01-4.45967E-01-9.92881E-01
 -1      1018-2.19241E+00-3.16243E+00-1.11648E+00 1.13391E+00-1.18804E-01-2.16169E-01
 -1      1019-4.60545E+00-3.84107E+00 9.39951E-01-1.63167E+00 9.42118E-02 3.07720E-01
 -1      1020-1.76351E+00-2.11775E+00-1.26365E-01-6.98640E-01 9.99870E-01 6.62391E-01
 -1      1021-3.71357E+00-3.15604E+00 7.56201E-01-1.94953E+00 1.00199E-01 1.08043E-01
 -1      1022-2.48914E+00-1.75868E+00 3.67678E-01-3.96294E-01-1.57982E-01-4.89069E-01
 -1      1023-1.40344E+00-1.43825E+00 3.62209E-03 1.15211E-01-3.01910E-01-4.76836E-01
 -1      1024 1.44218E-01 2.16857E-01-4.59236E-01 1.16328E+00 3.33261E-01 4.28509E-01
 -1      1025 1.75932E-01-7.56623E-01-4.72124E-01 7.23691E-01-7.93760E-01-2.42534E-01
 -1      1026-1.69816E+00-1.50195E+00 7.25260E-03 1.11802E-01-1.09243E+00-3.56589E-01
 -1      1027-7.23071E+00-6.89417E+00-2.56624E+00 2.66125E+00-6.22000E-01-7.24975E-01
 -1      1028-1.61970E+00-2.17666E+00-8.57418E-02 2.11884E-01-5.44380E-01-4.03659E-01
 -1      1029 2.45144E-01-1.04987E+00-1.24233E+00 1.03158E+00-3.05306E-01-1.04172E+00
 -1      1030-1.03276E+00-2.20378E+00-4.62999E-02 5.27233E-01-1.74199E-01-1.08342E+00
 -1      1031-1.76457E+00-1.73572E+00 2.21552E-01 5.46770E-01-3.46319E-01-8.70387E-01
 -1      1032-1.97117E+00-1.30471E+00-7.41937E-01 2.45502E-01-6.78181E-01-6.85650E-01
 -1      1033-2.18211E+00-1.85653E+00-8.66991E-01 5.55277E-01-6.10133E-01 2.47665E-01
 -1      1034-1.60081E+00-2.08594E+00 2.29328E-02 2.37666E-01-3.65921E-01-1.81306E-01
 -1      1035-1.26357E+00-3.20468E+00-7.10463E-02-6.40507E-01 8.62704E-01 7.28762E-01
 -1      1036-2.70244E+00-5.33729E+00 3.89171E-01-1.18740E+00 5.29170E-01-1.04997E-01
 -1      1037-1.89067E+00-3.04968E+00 2.71277E-01 1.58065E-01-3.53653E-01 3.98008E-02
 -1      1038-5.48552E-01-1.09623E+00-4.05557E-01 2.02088E-01-1.62558E+00-2.14561E-01
 -1      1039-5.95207E+00-2.89273E+00-2.21257E+00 2.05211E+00-1.90715E+00-2.65682E-01
 -1      1040-5.15385E+00-3.11103E+00-3.64622E-03 1.28945E+00-7.89232E-01-2.86912E-01
 -1      1041-6.29790E-01-4.58879E-03-3.19215E-01-1.22830E-02-1.15767E+00-6.38458E-01
 -1      1042-1.68772E+00-1.76330E+00-3.60880E-01 7.63278E-01-1.79349E-01-4.91754E-01
 -1      1043-1.42418E+00-8.61175E-01-3.24820E-01 1.19834E-02-7.45657E-01-2.23064E-01
 -1      1044-2.66742E+00-1.20637E+00-6.31568E-01 5.44739E-02-8.46809E-01-4.60015E-01
 -1      1045-3.41511E+00-1.66277E+00-6.03030E-01 4.11659E-01-8.38122E-01-5.69604E-02
 -1      1046-1.54699E+00-1.66153E+00 1.07244E-01 7.01864E-02-6.19156E-01-1.54093E-01
 -1      1047-1.11852E+00-2.14005E+00-1.60106E-01 2.33729E-01 1.00603E+00-1.48602E-01
 -1      1048-3.28013E+00-5.42894E+00 5.25503E-01-5.20436E-02 3.51317E-01 1.63235E-01
 -1      1049-1.45580E+00-3.72844E-01-3.57402E-02 5.30560E-03-1.07207E+00 3.65528E-02
 -1      1050-9.08744E-01 1.32317E+00-6.56100E-01-4.56482E-02 4.87143E-01 1.19496E-01
 -1      1051-8.10674E-01 3.24900E-01-5.92282E-01 3.35404E-01-1.40677E+00 4.20568E-01
 -1      1052-3.12937E+00-1.70929E+00-6.29253E-01 2.78280E-02-1.05229E+00-1.99214E-01
 -1      1053-9.20663E+00-4.29613E+00-1.70955E+00-5.25576E-01-1.38516E+00 2.10690E-02
 -1      1054-1.95694E+00-1.34107E+00 1.23991E+00-1.00769E-01-5.79332E-01-2.64363E-01
 -1      1055-1.13877E+00 4.74567E-01-9.96723E-03-1.66911E-02-7.43956E-01-2.67741E-01
 -1      1056-1.78504E+00-7.73303E-01-1.10903E+00 1.37425E-01-1.18591E+00 3.54389E-01
 -1      1057-1.92392E+00-1.18742E+00 3.77366E-02-5.45345E-02-6.62884E-01-2.83671E-02
 -1      1058-3.55062E+00-1.67003E+00-8.48008E-01-1.65871E-01-2.36278E-01-1.20252E-01
 -1      1059-2.37684E+00-2.49789E+00 5.71663E-01 5.46838E-01-2.42842E-01 4.63215E-01
 -1      1060-1.38730E+00-2.34601E+00 9.19811E-02 5.30835E-01 1.12049E+00-5.26587E-01
 -1      1061-3.99203E+00-5.67709E+00 4.29883E-01 1.25347E+00 4.76592E-02-5.14403E-01
 -1      1062-1.28189E+00-3.16545E+00 2.44404E-01 3.46600E-01-2.61459E-01-4.97681E-01
 -1      1063-1.57729E+00-2.05588E+00 3.53107E-01 4.53257E-01-3.33858E-01 3.39902E-02
 -1      1064-1.41866E+00-1.31804E+00 4.27906E-01-2.97420E-02-9.89293E-01 1.37769E-01
 -1      1065-5.14743E+00-2.86053E+00-1.14752E+00-9.99660E-01-1.12113E+00-3.70093E-02
 -1      1066-5.30596E+00-3.43145E+00-1.71907E+00-1.18674E+00-6.29728E-01 3.80822E-01
 -1      1067-8.02923E-01-7.40448E-01-4.27348E-01-9.87220E-02-1.37110E+00 3.16582E-01
 -1      1068-2.93100E+00-1.56599E+00-6.14106E-01-2.78656E-01-6.33405E-01 3.85726E-01
 -1      1069-1.56499E+00-1.12463E+00 1.80503E-02-2.14780E-01-5.89626E-01-3.85512E-01
 -1      1070-1.48511E+00-1.67210E+00-4.44233E-01-2.02164E-01-3.23144E-01 4.16765E-01
 -1      1071-4.75697E+00-3.07478E+00-7.70159E-01-1.75519E+00-4.80808E-03 8.45307E-01
 -1      1072-2.05411E+00-1.57223E+00 4.66928E-02 8.31252E-01 8.20617E-01-1.68053E+00
 -1      1073-4.46988E+00-4.25941E+00 4.35168E-01 2.16489E+00 1.80881E-01-1.30211E-01
 -1      1074-2.68940E+00-2.03387E+00 5.14802E-01 4.96300E-01-4.44710E-02 4.02464E-01
 -1      1075-1.92765E+00-1.96549E+00 4.18924E-01 1.01087E+00-7.66666E-01 7.26883E-01
 -1      1076-2.88377E-01-4.80004E-01-3.99002E-01-1.80737E-01-2.33800E-01 3.29537E-01
 -1      1077-8.91908E-01-1.43924E+00 1.20361E-01 1.44175E-01-6.18916E-01 1.09178E+00
 -1      1078-7.41628E+00-8.15391E+00-1.25663E+00-2.85245E+00-1.41174E+00 5.84569E-01
 -1      1079-2.61151E+00-2.07606E+00 8.68172E-01-5.18143E-01-7.62114E-01 1.68188E-01
 -1      1080-6.01373E-01-1.08363E+00-7.46920E-01-4.11159E-01-1.13858E+00 2.91310E-01
 -1      1081-2.60620E+00-1.73583E+00-6.04218E-01-2.84440E-01-5.06121E-01 7.08934E-01
 -1      1082-2.13926E+00-1.19852E+00 7.24213E-02-7.33324E-01-1.98663E-01 1.00917E+00
 -1      1083-2.84433E+00-3.46022E+00-9.31053E-01-1.30788E+00 1.03462E-01 7.23678E-01
 -1      1084-5.36633E+00-2.70351E+00 3.75881E-01 1.06878E+00 8.26331E-03-1.40915E-01
 -1      1085-3.26106E+00-1.09448E+00-2.11379E-01 5.88254E-01 3.88410E-01-1.20543E+00
 -1      1086-4.61677E+00-1.27486E+00 1.30586E-01 1.63288E+00-1.39636E-01-5.35383E-01
 -1      1087-3.33903E+00-1.69245E+00 5.43823E-01-9.86102E-02-4.33945E-02 1.56918E-01
 -1      1088-1.66647E+00-1.23775E+00 2.15838E-01 3.20702E-02-3.83873E-01 1.03103E+00
 -1      1089 3.78000E-01-1.05927E+00-5.01226E-01-6.16002E-01 1.35282E-02-1.10133E-01
 -1      1090-6.95745E-01-4.79374E-01 2.68584E-01 1.92502E-01-3.59564E-01 1.10221E+00
 -1      1091-1.60991E+00-6.35577E+00-6.34376E-01-6.17554E-01-1.17045E-01 2.87897E+00
 -1      1092-1.26545E+00-1.86952E+00 2.12767E-01-6.10171E-02 3.41834E-01 3.91602E-01
 -1      1093-5.21637E-02-3.46350E-01 7.21680E-02 1.96102E-01-5.88206E-01 1.31212E+00
 -1      1094-1.21272E+00-1.47972E+00 1.90298E-01-6.66860E-02-8.35732E-01 6.71659E-01
 -1      1095-5.57643E-01-3.41119E-01-2.91115E-01 1.34206E-02 6.78859E-02 8.60820E-01
 -1      1096-1.26700E+00-1.47491E+00 7.23647E-01-4.80803E-01-4.15937E-01 5.46130E-01
 -1      1097 9.91284E+00 4.13669E+00 4.21486E+00-6.19684E-01-1.16479E+00 4.33670E+00
 -1      1098-1.10101E+01-2.72617E+00 3.04252E+00-4.41017E-01-1.50645E+00-9.85170E-01
 -1      1099 0.00000E+00 0.00000E+00 0.00000E+00 0.00000E+00 0.00000E+00 0.00000E+00
 -1      1100 6.34641E-01-9.07357E-01-2.78703E+00-2.20720E-01 8.72725E-01 3.61536E+00
 -1      1101-1.22772E+01-6.10496E+00 2.49542E-01-2.94627E+00 9.10900E-01 2.57968E-01
 -1      1102-2.72421E-01-3.06970E-02-3.83204E+00-9.76144E-01 1.94414E+00-2.26494E+00
 -1      1103-5.96916E+00-3.10622E+00-1.02443E+00 2.24578E+00 1.24132E+00 1.38628E+00
 -1      1104 1.55519E+00-5.19319E-01-1.48530E+00 6.98548E-01-9.14659E-01 1.49570E-02
 -1      1105-2.09222E+00-9.93908E-01 4.56237E+00 2.62410E+00-1.48655E+00 1.12195E+00
 -1      1106-3.69014E+00-3.95197E+00-2.66452E+00-2.57686E+00 2.68668E+00 4.58882E+00
 -1      1107-5.66596E+00-7.01917E+00 1.16856E+00 3.40835E+00-2.63870E+00-6.84661E-01
 -1      1108 2.19243E+00-2.83560E+00-1.14312E+00 2.00126E-01 6.33992E+00 5.17281E+00
 -1      1109 1.62502E+00 1.32000E+00 4.65736E+00 4.04178E-01-2.89725E-01-1.31073E+00
 -1      1110-8.03884E+00-1.45963E+01-6.79056E+00-3.51188E+00 8.67508E+00 3.68611E+00
 -1      1111-4.76957E+00-8.25380E+00-3.90701E+00 2.44887E+00-2.78767E+00 2.53197E+00
 -1      1112-4.23060E+00-7.58616E+00-2.20525E+00-2.88036E+00 4.79477E+00 2.33852E+00
 -1      1113 0.00000E+00 0.00000E+00 0.00000E+00 0.00000E+00 0.00000E+00 0.00000E+00
 -1      1114-5.56951E+00-1.27387E+01-5.49246E+00 7.48003E-01-7.11521E+00 7.00895E-01
 -1      1115-1.89530E+00-7.24532E+00-2.19600E+00 3.88846E-01-6.41602E+00 2.93279E-01
 -1      1116 1.11299E+00 2.67302E+00-3.50201E-01 1.52981E-01 3.70875E+00 3.09965E+00
 -1      1117-8.49517E-02-1.71337E+00 1.81145E+00 3.02435E-01-3.69862E-01-1.15896E+00
 -1      1118-2.28176E+00-8.27800E+00 2.11018E+00-1.50675E+00 1.14769E+00-6.56351E-02
 -1      1119-2.41868E-01-5.67475E+00 1.84829E+00-1.66094E+00 5.50147E-01-3.51310E+00
 -1      1120-4.91157E+00 5.04775E+00-6.70325E-01 3.18004E+00 6.26436E+00-3.42956E+00
 -1      1121-2.51504E+00-6.53222E+00 1.17919E+00 1.75158E+00 3.79914E+00-3.06827E+00
 -1      1122-8.05168E+00-7.67265E+00-4.71730E+00-3.33551E+00-2.85333E+00-4.30899E+00
 -1      1123-7.45886E+00-1.96618E+00 1.19296E-01-2.19047E+00-3.40810E+00-3.04506E+00
 -1      1124-6.33103E+00-3.33337E+00-1.26278E+00 1.89787E+00 3.77344E-01 1.93673E+00
 -1      1125-8.10990E+00-4.34732E+00-3.73717E+00 2.03024E+00 8.18846E-01-4.34284E+00
 -1      1126-5.48781E+00 6.97123E-01-1.67170E+00 1.37593E-01-3.20839E+00-5.53204E+00
 -1      1127-3.38870E+00-1.50450E+00 5.18759E+00 2.32222E+00-2.59272E-01-4.95372E-01
 -1      1128-1.13687E+00 7.28245E-01 1.90988E+00-1.80151E-01-2.33702E+00-3.94708E+00
 -1      1129-3.26581E+00-2.90121E+00-5.50754E-01 3.25491E+00-2.07416E+00-4.93128E+00
 -1      1130-6.56155E+00-1.72764E+00 6.16648E-01-7.51622E-01 1.44652E+00-8.97284E-02
 -1      1131 3.21548E+00 1.26143E+00 1.69758E+00 1.48578E-01 2.45243E+00 3.74906E+00
 -1      1132-1.61694E+00 3.83942E-01-2.10761E+00-6.50987E-01 3.01515E+00 1.17063E+00
 -1      1133 5.02675E+00 3.36703E+00 1.66925E+00 2.00650E+00 7.04246E+00 5.49272E+00
 -1      1134-5.93650E-01 1.83522E+00-2.47516E+00-1.48042E+00-1.07945E+00-9.87818E-01
 -1      1135 4.70277E+00 3.42689E-02 4.71419E-01 6.24004E-01 3.70833E-01-5.77826E+00
 -1      1136 6.41235E+00 5.90368E+00-8.88607E-01 3.16446E+00-1.47081E+00-7.77342E-01
 -1      1137 1.38328E+00 1.77645E-01-6.67264E-01 8.47692E-01-3.51273E+00-5.92750E+00
 -1      1138 1.25773E+01 6.51601E+00 5.72800E+00 2.50203E+00-4.22950E+00-1.01331E+01
 -1      1139 3.17659E+00-6.98941E-01 9.43554E-01-4.86200E+00-7.24322E-01-7.40190E+00
 -1      1140-1.30614E+00-1.22903E+00-2.90091E+00 5.94765E-02-2.03223E+00 3.45977E-01
 -1      1141 4.10320E+00 9.89309E+00 3.00510E+00 2.19119E-01 1.98335E+00 1.77742E+00
 -1      1142-2.14849E+00 4.70176E+00-4.58757E-01 1.27877E+00 6.30469E+00-3.14598E+00
 -1      1143 6.81845E+00 2.30345E+00 3.31077E+00 2.06022E+00 4.14240E+00 6.83873E+00
 -1      1144 3.14721E+00-9.61238E-02-2.78780E+00 2.89155E-01-1.69565E+00-8.42893E-02
 -1      1145 2.50045E-01-1.61991E-01-4.38255E+00-1.26253E+00 1.91195E+00 2.41225E+00
 -1      1146 5.91929E+00 8.50380E+00 5.28023E-01-3.48534E+00-3.19098E-03 2.33797E+00
 -1      1147 3.89149E+00 7.09290E-01 1.49203E+00-1.38401E+00-4.02849E+00 2.22051E+00
 -1      1148 2.80500E+00 8.68701E+00-2.42126E+00-2.15882E+00 1.75561E+00-9.27856E-01
 -1      1149 4.41306E+00 8.49990E+00 3.87389E+00-1.58666E+00-4.60040E+00 1.72964E+00
 -1      1150-5.63843E-01-2.01210E-01-8.76994E-01 6.30256E-01-2.58028E+00 1.29335E+00
 -1      1151-4.52173E+00-7.24659E+00-6.27817E+00-1.21078E+00-3.47743E+00-3.39359E+00
 -1      1152-1.48062E+00-1.24703E-01-4.97776E+00 4.83028E-01-1.61049E+00-2.19512E+00
 -1      1153-1.96937E+00-8.71339E-01-4.08046E-01-8.10839E-02 3.03413E-03-1.16806E+00
 -1      1154-1.78469E+00-1.44063E+00 2.67946E-01 2.30748E-01 2.52972E-01 6.66589E-01
 -1      1155-1.66797E+00-9.30689E-01-1.23185E-01 2.44070E-02-3.76384E-01 6.86047E-01
 -1      1156-2.82770E+00-1.49364E+00 2.52072E-01 1.92836E-01-6.31430E-01 2.21485E-01
 -1      1157 1.58044E+00-3.14815E-01-2.10624E-01 1.99350E-01 1.23914E-01-3.98511E-01
 -1      1158-8.48241E-01-4.31969E-01 1.07387E-01 3.26138E-01-1.09244E-01 9.60830E-01
 -1      1159 5.22580E-01-1.26096E+00 4.22172E-01 1.64957E-01 2.22519E-02 1.50127E+00
 -1      1160-1.90587E+00-4.21648E+00 1.17568E+00 9.25145E-01 1.10260E+00 7.15150E-02
 -1      1161-3.08118E+00-7.90549E+00-1.26931E+00 4.58145E-02 8.90057E-01 1.49499E+00
 -1      1162-9.38727E-01-8.47646E-01-4.81372E-01 7.04335E-02 1.98934E-02 1.07368E+00
 -1      1163-9.31195E-01-1.38581E+00 1.39074E-01-5.36898E-01-5.93439E-01 8.54927E-01
 -1      1164 7.26322E-01-1.32691E-01 1.77262E-02 4.77838E-01-4.41669E-01-5.44754E-01
 -1      1165-3.33756E-01-9.86412E-01 2.62749E-01 3.54579E-01 2.31816E-01 6.63912E-01
 -1      1166-3.93023E-01-5.52600E-01 1.53038E-01 5.24181E-02 3.13808E-01 5.45399E-01
 -1      1167 9.40800E-01-6.27192E-01-5.01027E-01 7.79068E-01-1.35308E-01-3.73275E-01
 -1      1168-8.63203E-01-1.06461E+00-4.20882E-02-1.33676E-01-9.31038E-02 5.72267E-01
 -1      1169-2.44212E+00-1.70367E+00 5.06540E-01 3.73964E-02-4.52244E-02 4.37178E-01
 -1      1170-1.94275E+00-2.04643E+00 1.97271E-01-5.52652E-01 1.02968E+00-1.47446E-01
 -1      1171-1.41535E+00-1.35784E+00 1.94024E-01 2.13997E-01 1.65988E-01 4.93298E-01
 -1      1172-2.38187E+00-1.52193E+00-3.67011E-01-2.56845E-01-5.15426E-01-1.41546E+00
 -1      1173-3.99961E+00-1.27263E+00 3.69622E-01-1.36121E+00 2.50799E-01 1.42240E-01
 -1      1174-1.22545E-02-8.15582E-01-2.93169E-01 1.96373E-01 8.21210E-01 1.18566E+00
 -1      1175-2.54255E+00-3.39877E+00-2.05474E-01 9.37005E-01 7.96621E-01 3.44091E-01
 -1      1176-3.33410E+00-6.26523E+00 1.04963E-01 1.50416E+00 6.56093E-01 1.26984E+00
 -1      1177-6.26176E-01-7.43808E-01-4.17893E-02-6.38476E-02 3.03603E-01 6.03658E-01
 -1      1178-1.67752E+00-3.77518E+00-2.29363E-01 5.47824E-01-2.91503E-01 7.91918E-01
 -1      1179 2.18987E-01 3.61102E-01 1.92409E-02 7.34199E-01-6.86463E-01-2.95307E-01
 -1      1180-1.05008E+00-9.38313E-01-2.82572E-01 1.53781E-01 9.22041E-01 8.92522E-01
 -1      1181-4.20008E-01-1.72265E-01-1.36744E-01-9.22356E-02 7.92327E-01 6.35135E-01
 -1      1182 8.71402E-02 1.67979E-01-5.29419E-01 1.27650E+00-2.84955E-01-2.94733E-01
 -1      1183-9.86559E-01-1.35174E+00 2.32561E-01-4.34895E-01 2.04091E-01 7.20094E-01
 -1      1184-2.01466E+00-1.51598E+00 6.36500E-01-5.43925E-01-2.28145E-01 5.34115E-01
 -1      1185-1.84742E+00-1.90200E+00-4.67516E-01-4.73862E-03-1.05861E+00-9.42950E-01
 -1      1186-2.77320E+00-3.60653E+00 7.06258E-02-2.16405E+00 1.64853E-01-1.26817E-01
 -1      1187-1.37356E-01 7.47113E-01-5.82607E-01 1.17626E-01 1.00504E+00 3.36472E-01
 -1      1188 7.02281E-03-5.43328E-01 6.00516E-01 1.71874E-01 8.17535E-01 3.22795E-01
 -1      1189-5.84111E+00-8.61529E+00-1.31173E+00 2.81471E+00 1.08970E+00 1.38093E+00
 -1      1190-1.39649E+00-1.04242E+00-1.19866E-01 1.00178E-01 1.00785E+00 8.46388E-01
 -1      1191-1.00447E+00-1.42430E+00 4.56337E-02-4.06848E-01 4.72219E-01-1.11086E-01
 -1      1192-3.62802E-01 2.97364E-01-5.37089E-01 7.58869E-01-2.44497E-01-1.55205E-01
 -1      1193-7.20157E-01-1.23575E+00 1.49250E-01-2.41557E-01 9.49360E-01 5.12070E-01
 -1      1194 5.27911E-02 5.24769E-01-7.05466E-02 4.59005E-01-3.05108E-01-4.04722E-01
 -1      1195-1.69839E+00-5.17195E+00 6.84265E-01-1.59162E+00-3.92746E-01 7.62183E-02
 -1      1196-1.22621E+00-1.66473E+00-2.78305E-01-2.48331E-01-1.22131E+00-4.51274E-01
 -1      1197-3.41244E+00-5.27443E+00 3.28687E-01-1.25634E+00-1.95053E-01-3.73187E-01
 -1      1198-3.61289E+00-1.09400E+00-1.94636E-01 2.11264E-02 3.23895E-01 1.67660E-02
 -1      1199-6.92062E+00-4.97346E+00-7.80187E-01 2.22529E+00 1.81957E+00 1.19462E+00
 -1      1200-1.46583E+00-1.20415E+00 2.41543E-01-5.21216E-02 1.33485E+00 3.52549E-01
 -1      1201-2.46898E+00-1.87029E+00-1.11875E+00 6.76854E-01 3.93948E-01 7.39690E-01
 -1      1202-1.09922E+00-1.62120E+00-2.74402E-02-4.34585E-01 3.05696E-01-4.74062E-01
 -1      1203-1.27547E-01 1.32439E+00-6.48354E-01-1.94974E-01-3.46863E-01 2.23412E-01
 -1      1204-1.11255E+00-1.19587E+00 7.71997E-02-7.80055E-01 1.30008E+00-1.16087E-02
 -1      1205-2.30620E-02-7.33029E-01 1.50238E-01-5.52952E-01 7.25656E-01 1.96138E-01
 -1      1206-5.58748E-01 1.12770E+00-4.78760E-01-2.45579E-01-4.48752E-01 1.92117E-01
 -1      1207-9.74952E-01-1.60350E+00-4.05253E-01-1.75711E-01-1.12855E+00-1.20514E-01
 -1      1208-9.22798E-01-5.40249E+00 4.38333E-02 3.84056E-01-3.49795E-01-1.64288E-01
 -1      1209-1.20820E+00-2.43279E+00 5.73528E-01-2.78441E-01 2.91362E-01 4.18040E-01
 -1      1210-8.60368E-01 9.85194E-01 6.49938E-01-1.86307E-01 6.20521E-01-1.99050E-01
 -1      1211-1.08178E+00-8.25745E-01 4.05919E-01-1.74710E-01 3.90045E-02-2.72838E-01
 -1      1212-6.71857E+00-2.56891E+00-8.96236E-01-1.51443E-01 3.15531E+00-1.18574E+00
 -1      1213-1.05851E+00-1.15289E+00-5.08594E-01-3.34905E-01 1.68174E+00-1.01688E-01
 -1      1214-1.32547E+00-2.71007E+00 1.78325E-01 6.81548E-02 3.80369E-01 6.42680E-01
 -1      1215-1.98568E+00-4.69386E+00 3.00660E-01 1.35300E+00-3.36399E-01 1.19326E-01
 -1      1216-1.02148E+00-2.79705E+00-1.28652E-01 4.67794E-01-8.08846E-01 6.17926E-01
 -1      1217-1.27257E+00-1.62099E+00-4.19215E-01-3.86408E-02-1.21241E+00 2.52527E-01
 -1      1218-2.51722E+00-4.86571E+00 5.56346E-01 1.15945E+00-2.69445E-01-1.10215E-01
 -1      1219-2.81554E-01 8.97045E-01-2.29511E-01-4.46931E-01-4.87492E-01 3.75389E-01
 -1      1220-1.00738E+00-1.28983E+00 5.34439E-01-3.96355E-01 1.00668E+00-2.04681E-01
 -1      1221-8.94122E-01-1.70578E+00 2.64163E-01-2.43558E-01 7.50488E-01-3.33194E-01
 -1      1222-1.02307E+00 8.12499E-01-5.61622E-01-9.63300E-01 1.28387E-01 1.82800E-01
 -1      1223-8.07118E-01 1.73894E+00 1.20360E-01-1.52491E-01 1.98256E+00-5.16765E-01
 -1      1224-2.05967E+00-8.83989E-01-1.17426E-01-2.51353E-01 9.28649E-01 1.17675E-01
 -1      1225-7.29404E+00-4.11840E+00-1.82920E-01-2.22669E+00 1.18619E+00-7.68911E-01
 -1      1226-1.24882E+00-6.78725E-01 1.69207E-01 3.00087E-02 1.47708E+00-2.65579E-01
 -1      1227-1.51851E-01 2.07593E-01-4.79246E-01-7.10750E-01-4.35395E-01 3.15625E-01
 -1      1228-1.39975E+00-1.12937E+00 1.53229E-01-1.33454E-01 5.92651E-01-5.25141E-01
 -1      1229-2.11884E-01-1.12438E-01 3.24848E-01 1.09013E-01 5.38244E-01-6.48081E-01
 -1      1230 3.98646E-01 7.42521E-01-2.21307E-01-6.24195E-01-4.42015E-01 3.15557E-01
 -1      1231-1.34513E+00-1.90853E+00 4.86615E-01 4.76610E-01 6.26794E-01 1.38226E-01
 -1      1232-2.46711E+00-1.66566E+00 2.09692E-01 4.23476E-01-3.81635E-02-2.71528E-01
 -1      1233-8.68443E-01-8.87267E-01 4.82027E-02 2.52869E-01 2.80938E-01-7.33962E-01
 -1      1234-3.25376E+00-3.23949E+00 1.53953E-01 2.19519E+00-1.23009E-02-3.87953E-02
 -1      1235-2.02440E+00-1.19560E+00 7.04208E-01-1.61218E-01 2.40760E-01-7.10146E-01
 -1      1236-2.58368E+00-2.40459E+00-4.77470E-01-1.39473E+00 1.36675E+00-1.33305E+00
 -1      1237-1.91669E+00-1.47959E+00-1.00756E+00 1.27493E-01 8.19845E-01-9.03036E-01
 -1      1238 3.55401E-01 2.02931E-02-1.23859E-01-3.57801E-01 9.20223E-02 1.06274E-01
 -1      1239-1.84264E+00-9.86795E-01 8.96090E-02 1.85521E-01 3.34745E-01-8.86784E-01
 -1      1240 8.26876E-02-2.79960E-01-1.48304E-01-4.45715E-01-8.30020E-02 4.94041E-02
 -1      1241-2.17184E+00-1.69268E+00 5.41567E-01 3.71286E-01 6.47895E-01-2.17836E-01
 -1      1242-2.96017E+00-1.77529E+00 2.55182E-01-1.35584E-01-2.16343E-01-4.21557E-01
 -1      1243-1.42595E+00-1.07714E+00 9.53866E-02 2.66024E-01-2.72158E-01-3.99825E-01
 -1      1244-5.43302E+00-1.92976E+00 3.63150E-01 1.25597E+00-2.25531E-01 3.44663E-01
 -1      1245-8.77412E-02-8.05118E-01-7.65258E-02-4.00913E-01-1.20499E-01-1.01036E+00
 -1      1246-2.26648E+00-3.99142E+00 6.80655E-01-1.86147E-01 3.13078E-01-4.92127E-01
 -1      1247-3.01084E+00-5.55575E+00-1.97978E-01-9.09981E-01 2.47052E-01-1.07427E+00
 -1      1248-1.46960E+00-2.21548E+00 1.97333E-01-6.26383E-01 8.94549E-01-1.01978E+00
 -1      1249 6.20844E-01-7.28286E-01-4.10691E-01 1.81973E-01 1.65636E-01 4.91686E-01
 -1      1250-1.13213E+00-9.22061E-01 1.44688E-01-1.50261E-01-2.60010E-01-1.11274E+00
 -1      1251-8.75618E-01-2.26338E-01-2.08227E-01-1.47501E-01-2.27384E-01-9.08137E-01
 -1      1252 1.22165E+00 1.15098E-01-1.40800E-01-8.98931E-03 8.22044E-02 4.64165E-01
 -1      1253-2.77412E+00-1.04141E+00 6.79798E-01 5.29076E-01 5.33717E-01-5.09497E-01
 -1      1254-2.85170E+00-1.53301E+00 4.83896E-01-3.69665E-01-7.47746E-02-2.80052E-01
 -1      1255-1.48876E+00-8.90365E-01-2.25881E-01-1.74520E-01-4.60725E-01-5.70479E-01
 -1      1256-5.96924E+00-9.73785E-01-1.45186E-01 3.29548E-03-2.64581E-01 4.04015E-01
 -1      1257-1.50123E+00-1.06655E+00 1.01720E-01-3.07425E-02 1.81643E-02-1.54038E-01
 -1      1258-3.49114E+00-8.75698E+00-2.50009E+00-1.02995E+00 4.01209E-01-3.29857E+00
 -1      1259-1.02359E+00-1.42912E+00 3.16812E-01-2.64796E-01-2.79270E-01-1.26253E+00
 -1      1260-4.91457E+00-1.26376E+00 4.10123E-01-1.26955E+00-2.79979E-01 3.29418E-01
 -1      1261-2.61602E+00-1.19583E+00-3.65243E-01-8.42403E-01 6.60138E-01 8.66675E-01
 -1      1262-1.96183E+00-1.72698E+00 1.25471E-01-2.41916E-01-8.98216E-01 4.49294E-01
 -1      1263-1.54297E+00-1.10982E+00-1.58881E-01 1.47417E-01-7.56194E-01-3.50757E-01
 -1      1264-7.90076E-01-7.89731E-01 3.37757E-01 3.25030E-01-4.97970E-01-8.06544E-01
 -1      1265 1.49492E+00 2.09291E-01-2.89085E-01 6.69146E-01 1.02999E-01 3.51460E-01
 -1      1266-8.13112E-01-1.61938E+00 2.15446E-01 7.89151E-01-2.11034E-01-1.05312E+00
 -1      1267 1.61549E-01-1.53346E+00-6.03434E-01 6.35976E-01-5.99631E-01-7.69357E-01
 -1      1268-2.10852E+00-2.93522E+00 6.05659E-01 6.81781E-01-5.05507E-02-5.69391E-01
 -1      1269-2.50023E+00-6.94237E+00 1.38466E-01 1.63382E+00-4.40379E-01-1.85599E+00
 -1      1270-1.68494E+00-2.93929E+00-3.48717E-01 8.42135E-01-1.26696E-01-1.46851E+00
 -1      1271-1.33988E+00-1.85152E+00-4.61570E-01-1.12015E+00 8.82700E-01 6.07391E-01
 -1      1272-1.15240E+00-1.84597E+00 5.52078E-01-7.26789E-01-4.93926E-01-5.40483E-02
 -1      1273-1.00876E+00-6.49794E-01-1.29245E-01-2.58373E-01-5.55425E-01-2.05647E-02
 -1      1274-4.26470E-01-3.09290E-01-1.27219E-01-1.25678E-02-7.27635E-01-3.91759E-01
 -1      1275 3.30189E-01 4.97263E-01-9.58922E-02 7.96977E-01 4.69281E-01 7.83114E-01
 -1      1276-8.75988E-01-5.42022E-01 7.71579E-02 2.67693E-01-7.18462E-01-5.66306E-01
 -1      1277-6.33029E-02-7.77180E-01 4.05704E-01 4.18257E-01-4.15087E-01-8.00268E-01
 -1      1278-4.57954E+00-3.63344E+00-4.85105E-01 1.97689E+00-1.34708E-01-1.98171E+00
 -1      1279-6.94633E-01-4.57607E-01 9.93501E-02-2.98077E-01-8.49444E-01-7.88508E-01
 -1      1280-1.53851E+00-2.07120E+00 4.03748E-01-8.71814E-01-1.30378E-01-7.16751E-01
 -1      1281-2.19754E+00-5.68912E+00 2.92312E-01-1.36394E+00 4.53545E-01 1.91550E-01
 -1      1282-1.58222E+00-2.01428E+00-4.54725E-01-7.41236E-02 1.49381E+00 3.21186E-01
 -1      1283 1.52178E-01 1.56808E+00-5.47412E-01 7.06347E-01 2.25016E-01-1.02036E-01
 -1      1284-1.17553E-01-9.03080E-01 4.20199E-02 2.44742E-02-1.19606E+00-1.88085E-01
 -1      1285-3.91394E-01 9.71577E-01-5.47248E-01 6.53402E-01 4.96577E-01 2.51363E-01
 -1      1286-7.30080E-01-1.57311E+00 1.40326E-01 4.27106E-02-1.12876E+00-2.86014E-01
 -1      1287-9.89865E-01-1.44536E+00 3.62786E-02-3.90940E-01-5.18959E-01 1.65643E-01
 -1      1288-3.64961E-02 2.42320E-01 1.23887E-01 3.21563E-01-1.40604E+00-1.87075E-01
 -1      1289-3.14859E+00-1.20863E+00 3.35349E-01-3.46154E-02-5.21990E-01 1.17964E-01
 -1      1290-6.08412E+00-3.44735E+00-1.09648E+00 1.92482E+00-7.67504E-01-1.57828E+00
 -1      1291-2.14630E-01-1.09879E+00 2.22686E-01 1.29639E-01-9.96677E-01-7.42343E-01
 -1      1292-2.03531E+00-2.90664E+00 9.88408E-01-5.02974E-01-2.04593E-01-1.07268E-01
 -1      1293-1.36739E+00-5.64926E+00-4.66553E-02-7.84772E-02 6.92109E-01 5.97642E-01
 -1      1294-7.39592E-01-2.84178E+00-4.72928E-01 4.48922E-01 1.08027E+00-2.49323E-01
 -1      1295-1.81395E-01 1.56963E+00-3.99261E-01-8.15015E-02 7.18087E-01 1.16306E-01
 -1      1296-5.65816E-01-4.18421E-01 5.61848E-02 8.36125E-02-1.08063E+00 1.27650E-02
 -1      1297-7.25840E-01-2.80950E+00 6.59930E-02 1.45252E-01 7.32793E-02 6.09271E-01
 -1      1298-4.19935E-01-1.22964E+00 6.97229E-02-1.97511E-02-7.06090E-01 2.01965E-01
 -1      1299-2.54461E+00-1.64986E+00 1.62015E-02-6.32080E-01-6.80838E-01-3.45152E-01
 -1      1300-7.66520E+00-3.46594E+00-2.05347E+00 5.90695E-01-2.31845E+00-9.61888E-01
 -1      1301-1.21745E+00-1.43523E+00-5.53105E-01 3.79610E-01-1.06391E+00-6.68869E-01
 -1      1302-2.27649E+00-7.48812E-01-5.49956E-02-1.48343E-01-5.00812E-01-3.66506E-01
 -1      1303-1.13269E+00-2.28714E+00-7.60790E-02 2.00234E-01-2.54131E-01 7.29030E-01
 -1      1304-1.27363E+00-2.78885E+00 2.91962E-01 7.82993E-01-1.00460E+00 4.15295E-01
 -1      1305-6.44444E-01-2.48095E-02-6.39445E-01-9.04475E-02-3.66630E-01 2.12068E-01
 -1      1306-2.25814E-01 2.06627E-01-2.22577E-01-6.17628E-02 4.76731E-02-1.22134E-02
 -1      1307-1.40917E+00-2.35523E+00 4.19662E-01 5.90574E-01-9.96458E-01 2.85744E-01
 -1      1308-1.49343E+00-5.14759E+00 9.32579E-01 1.58101E+00 4.32475E-02 1.93864E-02
 -1      1309-1.17848E+00-3.04514E+00-1.52457E-01 1.02595E+00 1.32089E+00-6.63553E-01
 -1      1310-3.95526E-01-6.39957E-01-1.68820E-01 4.60875E-02-1.07684E+00 1.04411E+00
 -1      1311-2.18523E+00-1.48142E+00 7.98007E-01-8.50320E-01-4.85084E-01 6.26643E-02
 -1      1312-4.64929E+00-1.70271E+00-1.39515E+00-1.57635E+00-2.14438E+00 8.35825E-02
 -1      1313-1.90379E+00-1.63354E+00-5.30038E-01 5.50259E-02-9.61474E-01 3.68923E-01
 -1      1314-3.49002E+00-3.42533E+00 6.97051E-01 2.75577E+00 1.75412E-01 3.07129E-02
 -1      1315-1.93028E+00-1.42448E+00-7.95024E-01 1.02897E+00 8.12024E-01-1.08003E+00
 -1      1316-1.89220E+00-2.01467E+00 4.77867E-01 2.02407E-01-1.97459E-01 4.11128E-01
 -1      1317-2.03575E+00-1.66693E+00-1.07621E-01 6.78896E-01-6.82458E-01 4.30162E-02
 -1      1318-1.99190E+00-2.61045E+00 2.45206E-01 1.01139E+00-4.37038E-01-2.53996E-01
 -1      1319-3.99526E-02-1.71997E-01-3.13290E-01-8.17713E-03-9.89224E-02 2.34835E-01
 -1      1320-1.92119E+00-2.02123E+00 1.40179E-01 1.04315E+00-7.12740E-01 5.34623E-01
 -1      1321-5.71307E-01-6.63742E-01-3.99536E-01 2.05250E-01-7.96814E-01 1.11412E+00
 -1      1322-1.64225E+00-3.42799E+00 3.91232E-01-7.11480E-01-9.09294E-01 1.48090E-01
 -1      1323-6.35470E+00-4.55135E+00-1.23478E+00-2.30791E+00-1.50655E+00 3.53283E-01
 -1      1324-1.19625E+00-1.69361E+00 7.64228E-02 8.45412E-02-9.46129E-01 4.53955E-01
 -1      1325-2.00096E+00-1.34997E+00-1.23825E+00-4.51663E-01-6.20839E-01 1.67573E-01
 -1      1326-2.07517E+00-1.93891E-01-3.26166E-01 5.12707E-01 1.26224E-01-1.05140E+00
 -1      1327-1.92656E+00-1.77790E+00 2.03368E-01 1.93090E-01-2.49161E-02 5.50736E-01
 -1      1328-1.98685E+00-1.10439E+00-1.25632E-02 8.71815E-02-6.48054E-01 4.01037E-01
 -1      1329-2.05386E+00-1.71344E+00 9.81553E-02 3.72822E-01-7.98228E-01-4.20778E-01
 -1      1330 3.48307E-01-3.10345E-01-3.55036E-02-2.61625E-01 3.50510E-01-2.85730E-01
 -1      1331-1.90108E+00-1.11821E+00 1.06432E-01 2.71788E-01-5.02837E-01 9.39564E-01
 -1      1332-5.10057E-01-1.10900E+00-9.22533E-02-2.95533E-01 4.63944E-01 1.22212E+00
 -1      1333 1.25304E-01-1.44621E+00 9.94893E-01 1.67932E-02-2.70237E-01 7.67308E-01
 -1      1334-4.36108E+00-7.01837E+00-1.26261E+00-2.08232E+00-5.44651E-01 1.50792E+00
 -1      1335-1.16405E+00-1.29739E+00-4.70468E-01 2.78009E-01-1.05968E-01 1.08250E+00
 -1      1336-1.84587E+00-1.94794E+00-3.65124E-01-1.37443E+00-4.37916E-01 3.09187E-01
 -1      1337 1.34405E+01 5.69630E+00 5.74105E+00 1.25949E+00 3.84550E-01 1.04872E+01
 -1      1338-2.62787E+00 8.72714E-01 6.04348E+00-5.96169E-01-6.40180E-01 2.05839E+00
 -1      1339-2.92286E+00 1.32800E+00 6.94162E+00-4.68559E-01-7.91949E-01 9.78879E-02
 -1      1340-1.28147E+01-3.85814E+00-4.87934E+00-2.26156E+00 5.61916E-01-5.02663E+00
 -1      1341-9.51763E-01-9.40313E-02-1.51591E+00-1.94842E+00 7.40671E-02-1.89400E+00
 -1      1342-5.81065E+00-1.06027E+00 1.83933E+00-9.81093E-01-1.17841E+00-8.99431E-01
 -1      1343 1.13210E+00 1.48794E+00 7.85488E-01-1.78333E-01 2.11149E+00 1.32052E+00
 -1      1344-1.43297E-01-1.56173E+00-3.20252E-01-1.44769E-01 1.29439E+00 1.00999E+00
 -1      1345 0.00000E+00 0.00000E+00 0.00000E+00 0.00000E+00 0.00000E+00 0.00000E+00
 -1      1346 3.96830E+00 9.10952E-01 7.57656E-01 6.64197E-01 3.84429E+00 4.90744E+00
 -1      1347-6.42638E+00 9.32350E+00 7.36241E-01 6.25685E-01 4.95091E+00 6.11468E+00
 -1      1348-6.43666E+00 9.31322E+00 7.12253E-01 6.25685E-01 4.72203E+00 5.88348E+00
 -1      1349 1.11381E+00-8.18431E-01 2.61543E+00-8.97618E-01 5.33015E+00 6.12780E+00
 -1      1350-2.48084E+00-2.23150E+00 1.44218E+00-1.82182E+00 9.48645E-01-3.91190E-02
 -1      1351-1.26870E+01-6.36931E+00-5.71689E+00-2.13255E+00 3.40740E+00 1.12338E+01
 -1      1352 1.65895E+00 7.37026E+00 1.27034E+00-2.01957E+00 2.38930E+00-2.68294E+00
 -1      1353-1.03879E+01-5.22172E+00-6.22781E+00 3.46647E+00 3.16944E+00-2.57894E+00
 -1      1354-1.12920E+01-1.45611E+01-7.75593E+00 4.92517E+00 6.94695E+00-5.96486E+00
 -1      1355 1.83374E+00 5.36000E+00 8.10298E-01-5.22572E-02 8.73646E+00-4.49666E-01
 -1      1356 8.12864E+00 1.61692E+01 7.28935E+00-3.16365E+00 1.09402E+01-3.45399E+00
 -1      1357 1.23805E+00 2.81790E-01 5.43051E+00 8.35706E-01 4.12688E+00-8.49717E-01
 -1      1358 9.43595E-01 1.39943E-01 2.37137E+00 2.08927E-02 6.62581E+00-1.15432E-01
 -1      1359 2.77388E+00 1.14881E+00-2.13060E+00-2.32055E+00-4.55070E+00-8.09166E-01
 -1      1360-9.91524E-01-1.90611E+00-2.84076E+00 2.17965E-01-3.69004E+00 4.33610E+00
 -1      1361-1.04940E+01-9.73362E+00-6.06829E+00 4.04915E+00-6.67381E+00 8.13190E+00
 -1      1362-4.16080E+00-2.04430E+00-5.47447E-01 1.45634E+00-5.36300E+00 2.24323E+00
 -1      1363-6.83009E+00-2.38320E+00 2.02025E-02 1.32315E+00 2.55564E+00 1.03414E+00
 -1      1364-5.35396E+00-2.96680E+00-2.49623E+00 2.12853E+00-3.98147E+00 2.90742E+00
 -1      1365-5.12485E+00-1.96901E+00-2.12816E+00 6.10934E-01 4.05030E-01 3.90132E+00
 -1      1366-3.13819E+00-8.93363E-01 3.34041E+00-1.35551E+00 1.00062E+00 2.30620E+00
 -1      1367-3.44622E-01 7.39779E-01 4.06968E+00 8.85811E-01 1.43980E+00 2.66005E+00
 -1      1368-4.47416E+00-1.02004E+01-4.68484E+00-2.05834E+00 2.95086E+00 3.21470E+00
 -1      1369-3.93306E+00-1.09214E+01-5.55846E+00 1.70396E+00-7.70660E-02-1.79338E-01
 -1      1370-1.53449E+00-1.89638E+00-8.66883E-01-6.19818E-01 2.95664E+00-2.45247E-01
 -1      1371 0.00000E+00 0.00000E+00 0.00000E+00 0.00000E+00 0.00000E+00 0.00000E+00
 -1      1372-7.21330E-01-6.98199E+00 3.34070E+00 2.98148E-01 3.72599E-01 8.66465E-01
 -1      1373-7.71407E+00-1.82417E+01-7.78674E+00-1.17071E+00-8.90523E+00 3.27836E-01
 -1      1374-1.06518E+01-2.17990E+01-7.53604E+00-4.86333E+00-8.13968E+00-5.06302E+00
 -1      1375-7.30801E+00-1.24142E+01-5.91667E+00-3.03802E+00-1.09643E+01-5.86068E+00
 -1      1376-5.76049E+00-7.36751E+00 8.07830E-02-3.12022E+00-2.67430E+00-2.05815E-01
 -1      1377-1.32272E-01-8.16655E-01 3.02363E+00-1.22142E+00-1.85906E+00 1.19921E+00
 -1      1378-4.47893E+00-4.17535E+00-2.21802E+00-2.09247E+00-3.34278E+00-7.19929E+00
 -1      1379-3.34552E+00 2.10992E-01 1.67355E+00 5.61694E-01 1.79522E+00-1.46103E+00
 -1      1380-3.95081E+00-3.44201E-01 3.57931E+00-1.18086E+00-1.37243E+00-1.29930E+00
 -1      1381 0.00000E+00 0.00000E+00 0.00000E+00 0.00000E+00 0.00000E+00 0.00000E+00
 -1      1382 6.56277E-01-1.05109E+00 1.28417E+00-4.31879E+00-2.27469E-01-5.86262E+00
 -1      1383 9.83609E+00 6.26866E+00 4.83143E+00 2.85297E+00 3.86835E+00 7.90353E+00
 -1      1384-5.49610E-01 1.89453E+00-4.71188E+00 1.21892E+00 1.87885E+00 3.59591E-01
 -1      1385 1.15641E-01 3.66416E+00-3.77841E+00 7.62172E-01-3.41375E-01 4.06657E-02
 -1      1386-9.79833E-02 1.06224E+00-1.32037E+00 2.56764E-01 1.39538E+00 1.44155E+00
 -1      1387 2.15787E+00 6.21395E+00 3.16557E+00 1.77006E+00 4.31516E+00 3.09612E+00
 -1      1388 1.01008E+01 6.54267E+00 4.99305E+00-2.92209E+00 3.90105E+00-6.88774E+00
 -1      1389 1.18485E+01 7.23332E+00 5.72454E+00-3.42209E+00 4.65284E+00-8.17676E+00
 -1      1390 4.08638E+00 4.05612E+00 2.44275E+00-1.74983E+00 2.85674E+00-1.96440E+00
 -1      1391 4.77798E+00 1.70973E+00-7.58353E-01-1.16300E+00-4.25495E-01 9.82474E-01
 -1      1392-1.25925E+00 1.92530E+00 4.72606E-02 5.20682E-01-5.79686E+00-7.37413E+00
 -1      1393 1.20998E+00 3.26923E+00 1.30981E+00 1.34499E+00-2.47127E+00-4.16682E+00
 -1      1394 1.62631E+01 7.63266E+00 7.16874E+00 1.48231E+00-3.52720E+00-1.05407E+01
 -1      1395 1.14076E+01 4.67222E+00 4.82396E+00 3.62894E-01 3.84565E-01-9.33890E+00
 -1      1396-5.59228E-01 1.12207E+00-4.74162E+00 9.96866E-01-1.30962E-01-1.48253E+00
 -1      1397 1.63335E+00 4.76808E+00 2.02090E+00 1.12762E+00 1.67064E+00-8.80345E-01
 -1      1398 1.44890E+00 1.26528E+00 7.64278E-02-1.04808E+00 7.83943E+00-4.47025E+00
 -1      1399 4.71367E+00 8.77130E-01-3.70885E-01 1.17225E+00 6.63634E-02 5.94256E+00
 -1      1400 5.51420E+00 1.91603E+00-2.05716E-02-7.18920E-01-1.07999E+00-4.32271E-01
 -1      1401 1.20470E+01 7.05400E+00 5.73029E+00-2.92642E+00-4.29714E+00 8.03922E+00
 -1      1402-1.90235E+00-1.55440E+00-3.28007E+00 2.21233E-01-2.70811E+00-8.12827E-01
 -1      1403 3.86302E+00 9.35755E+00 2.59685E-01-2.17013E+00-3.46725E+00 1.11390E+00
 -1      1404 8.78876E-01 6.07210E+00 7.12833E-01 8.04112E-01 2.92542E+00 1.46292E-01
 -1      1405-9.42075E-01 1.41433E+00-3.29113E+00-6.68256E-01-2.82341E+00 5.75062E-01
 -1      1406 1.07490E+00 1.95872E+00-8.81235E-01 1.01583E+00-7.23217E+00 3.51635E-01
 -1      1407 0.00000E+00 0.00000E+00 0.00000E+00 0.00000E+00 0.00000E+00 0.00000E+00
 -1      1408 3.42938E+00 4.15951E+00 2.27667E+00 1.69000E+00-4.46689E+00-5.97393E+00
 -1      1409-9.46291E+00-7.17141E+00-2.58081E+00-2.58259E+00 1.76386E+00-7.89295E-01
 -1      1410-1.59987E+01-9.38932E+00-6.41011E+00-1.33849E+00 5.88702E-01-7.81693E-01
 -1      1411-1.66438E+01-1.50175E+01-6.58114E+00 2.80709E+00-1.50186E+00 8.13053E-01
 -1      1412-1.73149E+01-1.27520E+01-6.16533E+00 3.29233E+00-4.85874E-01-1.66432E+00
 -1      1413-9.79894E+00-1.32261E+01-4.68352E+00 2.35441E-03 1.27985E+00 2.46222E+00
 -1      1414-1.36605E+01-2.05502E+01-6.80672E+00 1.12717E+00-2.54065E-01 1.92308E+00
 -1      1415-1.67569E+01-9.89062E+00-3.83661E+00-1.40051E+00 4.83882E-01-7.52673E-01
 -1      1416-2.01888E+01-1.38842E+01-5.92521E+00-1.93804E+00 3.43447E-01-1.05162E+00
 -1      1417-1.26515E+01-1.12502E+01-6.73407E+00-1.50966E+00-6.73559E-02 3.59045E-01
 -1      1418-1.80284E+01-1.73807E+01-7.22678E+00-2.73184E+00-1.48587E-01-1.37019E+00
 -1      1419-1.44917E+01-9.93861E+00-4.20270E+00-6.89825E-01-1.97145E+00 5.32567E-01
 -1      1420-1.96331E+01-1.49145E+01-6.22507E+00 7.32476E-01-1.98959E+00 1.44465E+00
 -1      1421-9.13075E+00-9.71443E+00-3.11104E+00 2.07504E+00 1.09032E-01-1.24661E+00
 -1      1422-1.46660E+01-1.92522E+01-5.18759E+00 2.35019E+00-7.46922E-01-1.25292E+00
 -1      1423-1.56625E+01-9.57381E+00-3.53683E+00 6.98275E-01-4.68047E-01 7.68152E-01
 -1      1424-1.77528E+01-1.23953E+01-3.61587E+00-1.19281E+00-1.19282E+00-9.86964E-01
 -1      1425-1.10775E+01-1.76163E+01-2.72448E+00 1.56009E+00-2.20793E-01-1.38170E+00
 -1      1426-1.53142E+01-2.06751E+01-5.55374E+00 1.50777E+00-9.47431E-01-1.49307E+00
 -1      1427-1.44075E+01-1.74020E+01-7.41904E+00-2.25294E+00 8.92823E-01-2.40934E-01
 -1      1428-1.96377E+01-2.20102E+01-1.00962E+01-3.67576E+00-3.89722E-01-8.69504E-01
 -1      1429-1.45823E+01-1.54315E+01-2.86715E+00 2.62093E+00 8.31037E-01 8.03413E-01
 -1      1430-2.07297E+01-1.90087E+01-5.67190E+00 3.43830E+00 6.22371E-01 2.37161E+00
 -1      1431-1.06707E+01-6.67431E+00-3.21495E+00 9.80429E-01 1.70032E+00 5.28462E-01
 -1      1432-1.64276E+01-1.02809E+01-3.69845E+00 2.56579E-01 1.84741E+00 1.00716E+00
 -1      1433-9.25891E+00-1.15205E+01-3.57252E+00 2.81287E+00 7.54208E-01 1.16743E+00
 -1      1434-1.19455E+01-1.45216E+01-6.39072E+00 2.60460E+00 9.90985E-01 1.75385E+00
 -1      1435-9.58390E+00-1.46570E+01-4.03081E+00-1.89363E+00-1.03951E-01-2.20941E+00
 -1      1436-1.06061E+01-1.60923E+01-4.58903E+00-5.25037E-01 8.38666E-01-2.04701E+00
 -1      1437-1.27798E+01-1.45357E+01-4.70238E+00-2.25418E+00-7.84074E-01 1.72719E+00
 -1      1438-1.43873E+01-1.72672E+01-5.00577E+00-3.46561E+00 8.95333E-01 5.84785E-01
 -1      1439-9.46612E+00-1.31794E+01-4.03045E+00-1.05350E+00-6.59409E-02 2.49136E+00
 -1      1440-1.59494E+01-2.23946E+01-7.27585E+00-5.31572E-01-1.09688E+00 3.22215E+00
 -1      1441-1.93108E+01-2.64444E+01-1.00090E+01 3.46759E+00 3.81297E-01-1.61630E-01
 -1      1442-1.99391E+01-2.75340E+01-1.13224E+01 1.49911E+00-1.96673E+00 6.39875E-01
 -1      1443-1.63662E+01-1.69196E+01-8.34051E+00 9.99788E-01-1.42560E+00 3.14937E-01
 -1      1444-1.44879E+01-1.65104E+01-5.51919E+00 5.65364E-01 7.99401E-01 1.84526E+00
 -1      1445-2.04431E+01-2.13910E+01-1.11745E+01 2.87656E+00 3.77572E-01-1.65864E-01
 -1      1446-1.92149E+01-2.77268E+01-8.97843E+00 3.31376E+00-2.22359E+00 2.39467E+00
 -1      1447-1.62332E+01-1.39935E+01-5.24408E+00-1.23257E+00 9.89135E-01-1.33945E+00
 -1      1448-1.75850E+01-2.70219E+01-1.45896E+01-1.12202E+00 1.95659E+00 1.38365E+00
 -1      1449-1.90896E+01-2.62176E+01-1.07211E+01 1.27162E+00-1.30057E+00 9.37093E-01
 -1      1450-1.39197E+01-1.25426E+01-6.49010E+00 2.00703E-01 5.12207E-01 6.88318E-01
 -1      1451-1.36744E+01-1.42568E+01-5.08974E+00-5.29719E-01-3.56983E-01 5.28516E-02
 -1      1452-7.60320E+00-1.39152E+01-1.08330E+01 1.04522E+00-1.38584E+00 6.49321E+00
 -1      1453-2.17842E+01-1.75132E+01-7.82675E+00-6.22176E-01-4.88766E-02 9.64149E-01
 -1      1454-2.74184E+01-1.86596E+01-1.20513E+01 1.57049E+00 1.24197E+00 4.92827E+00
 -1      1455-1.51095E+01-1.54556E+01-8.22748E+00 6.16918E-01 5.72999E-01 1.41532E+00
 -1      1456-2.53402E+01-2.23469E+01-1.28265E+01 3.56547E+00-9.08328E-01 2.09394E+00
 -1      1457-2.66686E+01-2.43647E+01-1.31651E+01 5.87988E+00 6.83362E-01-2.03996E+00
 -1      1458-1.80426E+01-1.74146E+01-6.86402E+00-2.26848E-01 2.40345E+00 1.52838E+00
 -1      1459-1.58805E+01-1.63187E+01-7.57858E+00 3.71644E-01 2.81606E+00-8.51049E-01
 -1      1460-8.15615E+00-1.21321E+01-1.28190E+01-1.68923E+00 4.02505E+00-5.30336E+00
 -1      1461-8.38158E+00-1.15631E+01-1.07538E+01 2.42914E+00 5.35059E-01 5.94746E+00
 -1      1462-1.88675E+01-2.43052E+01-1.24916E+01 3.16332E+00-1.31642E-01-2.68898E-01
 -1      1463-2.35211E+01-2.43249E+01-1.31576E+01 4.96962E+00-2.92267E+00 1.17153E+00
 -1      1464-1.61527E+01-1.47514E+01-6.44380E+00 7.95092E-01-2.12804E+00 1.92839E-01
 -1      1465-1.63509E+01-1.66819E+01-6.23712E+00 5.73195E-01-9.71283E-01-8.75718E-01
 -1      1466-2.00785E+01-2.73561E+01-1.13759E+01-1.70642E+00-3.18855E-01-8.71973E-01
 -1      1467-2.01798E+01-2.92196E+01-1.24707E+01-7.44063E-01 1.07886E+00-4.50953E-01
 -1      1468-2.47558E+01-2.09064E+01-1.32540E+01-1.05461E+00 2.66223E+00 1.15285E+00
 -1      1469-2.63870E+01-2.45837E+01-1.43156E+01-2.57669E+00 7.19577E-01-2.53109E+00
 -1      1470-2.14344E+01-1.81070E+01-8.99547E+00-2.23056E+00-5.44304E-01 6.29040E-01
 -1      1471-2.45358E+01-1.95171E+01-1.12725E+01-9.57374E-01-1.29097E+00-1.98626E+00
 -1      1472-2.57326E+01-1.86508E+01-1.00940E+01-2.66024E-01 3.82114E-01 1.34274E+00
 -1      1473-2.84586E+01-1.80999E+01-1.18151E+01-1.17439E+00-6.69848E-01-1.11496E+00
 -1      1474-1.57145E+01-1.33653E+01-6.59239E+00 1.32192E-01-2.35824E+00 5.80905E-01
 -1      1475-1.78269E+01-1.95765E+01-5.63573E+00-1.00948E-01-2.39099E+00 1.49752E-01
 -1      1476-1.53466E+01-1.44281E+01-5.46715E+00-1.73858E+00-1.54906E+00-1.80820E-01
 -1      1477-8.01012E+00-1.26454E+01-1.18153E+01-1.78030E+00-3.34742E+00 4.98226E+00
 -1      1478-1.50035E+01-1.67012E+01-6.87081E+00-6.56215E-01 1.68135E-01 1.20002E+00
 -1      1479-1.58689E+01-1.66176E+01-5.91239E+00-1.44081E+00-1.15966E+00 1.52732E+00
 -1      1480-6.92899E+00-1.21757E+01-1.01358E+01 1.31958E+00 3.76891E+00 4.35734E+00
 -1      1481-1.00011E+01-1.08392E+01-1.24343E+01 2.58215E+00 5.33213E+00 4.19674E+00
 -1      1482-1.15617E+01-8.10049E+00-1.11000E+01 1.53064E+00-4.78459E+00-3.96406E+00
 -1      1483-8.74093E+00-9.11370E+00-8.79963E+00-2.48998E+00-2.98577E+00 4.20668E+00
 -1      1484-1.17572E+01-7.38590E+00-9.68529E+00-8.73040E-01 5.57784E+00-3.49955E+00
 -1      1485-9.78698E+00-9.93201E+00-1.12696E+01 2.58342E+00 3.96194E+00 4.10710E+00
 -1      1486-1.81108E+01-1.92389E+01-7.95381E+00-4.87770E-01 1.94488E+00-2.75618E+00
 -1      1487-8.06460E+00-1.23518E+01-1.27785E+01 7.60580E-01 1.81845E+00-6.82789E+00
 -1      1488-1.31578E+01-1.00891E+01-1.25654E+01 3.13279E+00-8.26645E+00-4.97167E-01
 -1      1489-1.36917E+01-8.43334E+00-1.28184E+01 1.40051E+00 6.11357E+00 4.85051E+00
 -1      1490-2.09689E+01-2.58869E+01-9.56805E+00-3.05614E+00 2.84590E+00 1.17156E+00
 -1      1491-2.15049E+01-3.26128E+01-1.35002E+01-5.85315E-01-4.42690E+00 2.77420E-01
 -1      1492-1.00323E+01-1.09596E+01-1.04488E+01-2.97556E+00 4.82111E+00-4.03900E+00
 -1      1493-1.30267E+01-7.81706E+00-1.18383E+01 1.31768E+00 5.88616E+00-2.41181E+00
 -1      1494-2.01702E+01-2.52984E+01-1.30042E+01-1.77583E+00 2.19902E+00 1.44308E+00
 -1      1495-2.52922E+01-2.62425E+01-1.34986E+01-4.59120E+00-9.23672E-01-9.57811E-01
 -1      1496-1.49063E+01-1.74844E+01-9.53767E+00-2.02096E+00 6.15936E-01 3.59361E-02
 -1      1497-1.94239E+01-2.38083E+01-9.07558E+00-5.73243E+00-8.49485E-03-1.53749E-01
 -1      1498-2.25329E+01-2.80455E+01-1.17897E+01-6.06888E+00 8.36458E-01-4.77406E-01
 -1      1499-1.93157E+01-1.47220E+01-1.07605E+01-7.92309E-01 5.90708E-01-1.46071E+00
 -1      1500-2.83444E+01-1.71165E+01-1.16286E+01-2.70987E+00-3.18837E-01 2.54336E+00
 -1      1501-7.68524E+00-7.06810E+00-1.10413E+01 1.28740E+00 6.32699E+00-1.02680E+00
 -1      1502-2.50771E+01-2.42730E+01-9.66918E+00 4.48264E+00 1.16947E-01 1.47116E+00
 -1      1503-2.96461E+01-2.63807E+01-9.07429E+00 3.35130E+00-1.08231E+00 3.74165E+00
 -1      1504-1.34844E+01-8.92476E+00-1.09131E+01 8.58305E-01-5.64533E+00 1.32000E+00
 -1      1505-1.01223E+01-7.91499E+00-1.01059E+01 1.91608E+00 5.55402E+00 1.12002E+00
 -1      1506-1.34887E+01-7.82104E+00-1.41459E+01 1.71386E-01 6.42303E+00 8.69970E-01
 -1      1507-8.49496E+00-1.01359E+01-8.80526E+00-2.27793E+00-5.29046E+00 2.57983E+00
 -1      1508-9.41632E+00-1.05199E+01-9.84428E+00 3.49602E+00-4.37114E+00-2.91266E+00
 -1      1509-1.86090E+01-1.64530E+01-1.27048E+01-2.62466E+00 1.19349E+00 1.98556E+00
 -1      1510-2.71973E+01-1.75612E+01-1.44755E+01-2.60600E+00-2.21705E+00-3.21047E+00
 -1      1511-9.31525E+00-1.28574E+01-1.20619E+01-2.17108E+00 2.07508E+00-6.20734E+00
 -1      1512-7.61487E+00-1.43248E+01-1.22338E+01-6.75989E-03 1.70397E+00 6.20466E+00
 -1      1513-8.87703E+00-1.45780E+01-1.26764E+01 1.06576E+00-5.14637E+00-5.79872E+00
 -1      1514-1.31750E+01-8.71487E+00-1.01483E+01-2.69628E+00-6.02350E+00 2.19670E-01
 -1      1515-7.97139E+00-1.33981E+01-1.17852E+01-2.75685E+00-6.44581E-01 6.35901E+00
 -1      1516-9.06094E+00-7.80670E+00-9.30935E+00-1.88400E+00 3.03074E+00-4.08705E+00
 -1      1517-1.35010E+01-6.76405E+00-9.46257E+00-2.75406E+00-4.25288E+00 3.36679E+00
 -1      1518-1.02124E+01-1.22681E+01-1.18840E+01 1.44045E+00-2.68797E+00-6.33026E+00
 -1      1519-1.34325E+01-6.06926E+00-1.21167E+01-6.37659E-01-5.79442E+00-2.20990E+00
 -1      1520-1.09098E+01-1.13871E+01-1.31349E+01 2.91962E+00-4.23532E+00-5.63726E+00
 -1      1521-4.06014E-01-1.25695E+00 1.59030E+00-1.42142E-01-1.64360E-01 3.27241E+00
 -1      1522-7.57885E-01 3.66437E-01-2.77276E-01 2.66877E-01-2.09194E+00-1.12115E+00
 -1      1523 5.24962E-01 1.06783E+00 1.22984E+00 5.09911E-01-2.44530E+00-9.34003E-01
 -1      1524 1.84170E+00 7.25924E+00-1.73366E+00 9.36891E-01-3.05095E+00-1.63366E+00
 -1      1525-3.26479E+00-2.33057E+00-6.67781E-01 1.53133E+00-2.00887E+00 2.42120E+00
 -1      1526 1.45638E+00 2.03929E+00-3.09146E-02-1.08367E+00-6.54869E-02-1.12443E+00
 -1      1527 1.14173E+00-5.17576E-01-2.56204E+00-1.02431E+00-4.16870E-01 5.06352E+00
 -1      1528-8.98332E-01-1.74218E+00-2.37060E-01 5.81040E-01 9.35220E-01-1.37703E+00
 -1      1529-4.13518E+00 7.41677E-01-8.06776E-01 3.29180E-01 5.75799E-01 2.15554E+00
 -1      1530 1.08390E+00 2.28041E+00-4.87653E-01 1.49859E+00 2.55598E-01 1.83676E+00
 -1      1531 1.65091E+00 2.73005E+00-1.71358E+00-6.01231E-01 2.59239E-01 7.15359E-01
 -1      1532 5.13924E+00 6.96325E+00 1.39345E+00-5.10654E-01-7.00751E-01-1.53696E+00
 -1      1533-2.45329E-01-2.01780E+00 7.11653E-01 1.92301E+00 3.43112E+00-1.41224E+00
 -1      1534 1.35624E+00 3.76646E-01-7.27134E-01 3.68355E-01 1.28066E-01-1.06940E+00
 -1      1535 2.31749E+00 3.88988E-01 6.16495E-01-5.29003E-01-1.14047E+00-1.51651E-01
 -1      1536 2.57400E+00 1.75173E+00-9.36777E-03-1.03399E+00-2.72509E+00 9.26493E-01
 -1      1537-1.91058E+00-2.72281E-01-4.51152E-01-5.68518E-01 6.34449E-02-3.13484E+00
 -1      1538 5.98986E+00 6.77076E+00 2.55584E+00 1.88842E+00-1.31187E+00 8.10316E-01
 -1      1539 3.03411E+00 5.41284E+00 1.00083E+00 2.62842E+00-1.21372E+00-1.55913E+00
 -1      1540-2.50377E-01-2.21096E+00 8.29964E-01-8.02124E-01-2.30727E+00-1.01663E+00
 -1      1541-5.16502E-02-1.30752E+00-2.15404E-01 1.92937E+00 1.52249E+00-1.13958E+00
 -1      1542 1.45258E+00-7.43305E-01 1.42785E+00 4.35271E-01-1.29230E+00 2.38172E-01
 -1      1543-1.10615E+00-2.10904E+00-5.42162E-01 1.84334E+00-1.27948E+00 1.27545E+00
 -1      1544 2.76583E+00 2.07974E+00 3.16284E+00 7.03599E-01-2.00792E+00 3.64406E+00
 -1      1545 1.63814E+00 2.42023E+00 2.72184E+00 1.22421E-01 2.66594E+00 6.68950E-01
 -1      1546-1.28128E+00 7.54512E-01 2.27411E-03-6.73980E-01 1.94970E+00-3.60402E+00
 -1      1547 1.16189E+00 2.93765E+00 1.90825E+00 2.08376E+00-2.71362E-01-4.97981E+00
 -1      1548-4.18945E+00-5.34418E+00-1.75785E+00 3.03122E+00 1.06523E+00-3.45305E+00
 -1      1549 1.05288E+01 2.14504E+00 1.48662E-02 3.97542E-01 1.10153E+00-2.03400E+00
 -1      1550 1.54509E+00 7.83567E-01 9.43657E-01-9.80497E-01 9.58880E-01-1.45356E+00
 -1      1551 2.13962E+00 7.22573E-01-7.21909E-01 1.76147E+00-2.93431E+00-1.09494E+00
 -1      1552 5.37394E+00 3.47343E-01-3.28875E+00 1.86755E+00-2.26942E+00-3.74622E+00
 -1      1553-4.33963E+00-6.71873E-01 8.70252E-01 1.91922E+00-5.97484E-02 1.13682E+00
 -1      1554-5.65049E+00-6.43091E+00-2.04655E+00 1.12227E+00-5.94833E-02-3.83186E-01
 -1      1555 1.42639E+00 2.40462E-01 9.04355E-01 6.14775E-01 3.42695E+00 1.20220E+00
 -1      1556 7.57754E-02 1.32732E+00-1.90621E-01-5.57161E-01 3.27960E+00 1.46705E+00
 -1      1557-3.98873E+00-6.19560E-01-3.25370E-01 5.60937E-01 8.16230E-01-1.79783E+00
 -1      1558 1.58571E+00 5.02996E+00 2.80980E+00-5.53564E-02 7.67755E-01 4.47178E-01
 -1      1559-1.52979E-01 1.61536E+00-1.69312E+00 3.64440E-01-3.23709E-01-3.59817E-01
 -1      1560-1.13855E+00 4.49931E-01-7.48137E-02-1.21822E+00 1.22097E+00-1.39982E+00
 -1      1561-3.70903E-01 1.28846E+00-3.30362E-01-1.97511E+00 7.67685E-01 2.21191E+00
 -1      1562-4.85958E+00-2.99640E-01-5.13906E-01 2.03340E+00-1.41360E-01-2.70970E+00
 -1      1563-9.51749E-01-5.07082E-01-1.22606E+00-7.78868E-03-5.19369E-01 5.30640E-01
 -1      1564 6.19628E+00 1.49217E+00 2.23699E-01 8.99870E-01 7.82502E-01 2.69922E+00
 -1      1565-1.19124E+01-3.25692E+00-4.14817E+00 1.17966E+00-1.57721E+00 2.58140E+00
 -1      1566 4.97694E+00 1.14453E+00 5.89746E-01-1.79555E+00-9.22875E-01 2.13363E+00
 -1      1567-1.19923E+00-1.39857E+00-2.73929E+00-2.95640E-03-3.25124E+00-1.85852E+00
 -1      1568-4.80019E-01-6.26074E+00-7.28403E-01 2.14765E-01-1.33907E+00-4.57862E-01
 -1      1569-9.13169E-01-5.85594E-02 8.16279E-01-3.78503E-01-6.81596E-01-1.46292E-01
 -1      1570 3.67132E-01 4.34533E+00-7.72448E-01-1.57412E+00 2.16788E+00-8.37206E-01
 -1      1571 1.14352E+00 6.00130E-01 1.14067E+00-5.31717E-01-2.88286E+00 4.55545E-01
 -1      1572-1.17360E+00-1.47409E+00 2.25610E-01-8.02366E-01-1.90653E+00 1.32604E+00
 -1      1573-2.59287E-01-1.58949E-01-1.14049E+00 7.38420E-01-8.78623E-01 1.28197E+00
 -1      1574 3.09982E-01 5.49270E+00-1.26858E+00-4.05689E-01-7.95409E-01-1.20710E+00
 -1      1575-1.00044E+00-4.83300E+00-4.25361E-01 1.83235E+00-2.61354E+00 1.45240E+00
 -1      1576 2.39572E+00 1.80522E+00 1.51432E+00 6.07213E-01-2.01493E+00-1.87504E+00
 -1      1577-9.44106E-01-1.23635E+00 5.81629E-01-1.67006E-02 1.52721E+00 1.86998E+00
 -1      1578-2.28145E+00 1.51667E+00-3.95031E-01 1.27499E+00-3.49713E-01-1.52395E+00
 -1      1579-4.72145E+00-2.57149E+00-1.43123E+00-3.37703E+00 1.66362E+00 2.61999E+00
 -1      1580 1.99152E+00 1.83393E+00 1.98774E-01 7.31735E-01-3.84864E-01 6.77949E-01
 -1      1581 3.82890E+00 2.03047E+00 6.73852E-01 9.81229E-02-5.83866E-01-3.18536E+00
 -1      1582 7.33666E-01-7.23397E-01-1.56652E+00-1.07002E+00 1.00137E+00-1.15452E+00
 -1      1583 1.15039E+00 1.91289E+00 3.43681E-01 6.58884E-01-1.08904E+00-8.03059E-01
 -1      1584-8.98125E+00-2.73581E+00 1.78276E+00 1.46688E+00-1.36127E+00 4.90990E-01
 -1      1585-4.28937E-01 3.79670E-01 2.93639E+00 3.06700E-01 1.58187E+00-2.49399E+00
 -1      1586-2.34339E+00-2.43630E+00-1.99565E-01 2.28335E+00-1.64964E+00 1.04531E+00
 -1      1587-2.67051E+00-3.36428E+00-1.36526E-01 1.91431E+00 1.37601E+00-2.68006E+00
 -1      1588 6.69848E-01 3.17882E+00 6.00650E-01 3.90478E-01 4.41941E+00 1.36507E+00
 -1      1589-5.17520E+00-1.98932E+00-4.76374E-01-1.55069E+00 1.42883E+00 2.40803E+00
 -1      1590 7.30436E+00 6.36774E+00-1.70862E+00-3.69877E+00 5.50770E-01-2.39437E+00
 -1      1591-1.98959E+00-3.18321E+00-1.65832E-01-6.82280E-01-1.16358E-01-1.72267E+00
 -1      1592-2.30007E+00-3.20086E+00-1.00409E+00 4.20922E-01-4.25106E-01-2.97081E+00
 -1      1593-2.70889E+00-4.50037E+00-9.65732E-01 1.54055E+00-3.19967E-01-1.09247E+00
 -1      1594 1.09003E-01 2.12870E-01 1.57731E+00 1.05030E-01-4.65495E+00-1.27501E+00
 -1      1595-1.18701E+00 7.89246E-01 2.90991E+00-1.19098E+00-2.15638E+00 7.75027E-01
 -1      1596 7.62744E-01 5.33308E+00 1.09906E+00 8.28690E-01-1.50117E+00-1.82165E+00
 -1      1597-1.32066E+00 5.25865E-01-4.96023E-01 4.78941E-01-1.27017E+00-1.72975E-01
 -1      1598 1.79911E-01-1.78979E-01 2.75059E-01 3.53193E-01-4.21027E-02 3.87926E+00
 -1      1599-6.86678E-01-2.93809E+00-2.77342E-01 5.39209E-02-1.31703E+00 2.52768E+00
 -1      1600-1.70441E+00-7.39464E-01-1.49875E-01-5.26322E-01-2.15280E-01 5.93549E-01
 -1      1601-7.56185E-01-2.58333E+00-4.95278E-01-5.86641E-01-9.24710E-02-9.94183E-01
 -1      1602-2.52051E-01-3.90889E-01 1.80414E-01 1.30881E+00-3.98524E-01-3.57738E+00
 -1      1603-3.70869E+00 1.14806E-02 1.36502E+00-7.08194E-01-1.57684E-01-7.22111E-01
 -1      1604 7.27873E-02-2.95771E-01-1.98174E+00 3.74079E-01-1.35528E+00-4.17215E-01
 -1      1605 8.47947E-01 1.28500E+00-2.18856E-01-8.08108E-01-6.21956E-01 1.56099E+00
 -1      1606 8.58961E-01-1.44565E+00 1.44591E-01-4.97026E-01 2.32356E+00-4.14445E-01
 -1      1607-4.46014E+00 2.28571E-01-2.15744E+00 1.73100E+00 8.33933E-01 1.40325E+00
 -1      1608-1.42406E+00 6.69731E-01 2.80091E-01 5.82279E-01 1.68309E+00-2.84983E-01
 -1      1609 1.61743E+00 9.88680E-01 7.70988E-01-2.47924E+00 4.02847E+00 7.75575E-02
 -1      1610 1.76589E+00 3.03683E+00 2.53946E-01 7.61005E-01-2.09378E-01 5.97641E-01
 -1      1611 1.15143E+00 2.56357E+00-7.61789E-01-1.30126E+00 4.05837E-01-1.62255E-01
 -1      1612-6.75261E+00-2.05434E+00-1.37567E+00-1.73736E+00-5.14010E-01-2.52453E+00
 -1      1613-6.37148E+00-2.05211E+00 3.95340E-03 2.15552E+00-7.79944E-01 2.87700E+00
 -1      1614 2.02753E+00 1.24434E-01 8.61235E-01-1.18320E+00 8.42592E-01-3.96757E-01
 -1      1615-1.55200E+00-6.66477E+00-4.25877E-01-5.32078E-01-1.31117E+00 2.06797E+00
 -1      1616 3.62686E+00 7.20022E+00-2.34420E+00 2.99214E+00-6.01215E-01 7.75958E-01
 -1      1617-4.60532E+00-1.65853E+00-2.16579E+00-1.52039E+00 8.04427E-01 3.00620E+00
 -1      1618-2.97611E+00-3.62799E+00 1.23634E+00-2.41805E+00 2.62698E+00 1.35952E+00
 -1      1619-3.92147E-01-2.74972E+00-2.78125E+00 6.37919E-01-4.83841E+00 2.93323E-02
 -1      1620 1.10192E-01-3.20132E+00 2.57535E-01-3.61977E-01-1.33904E+00-9.82504E-01
 -1      1621-2.26411E+00-2.48558E+00-1.89346E-01-7.30094E-01 2.35092E-01-1.41076E+00
 -1      1622 1.17796E+00-1.30197E+00 9.61170E-02-8.47144E-02-2.21286E+00-4.56877E-01
 -1      1623-2.87693E+00-1.97141E+00-3.26399E+00-1.36732E+00 1.67544E+00 1.88107E+00
 -1      1624 2.55115E+00 1.20077E+01 1.57988E+00-9.07625E-01-2.97577E+00 2.42734E+00
 -1      1625 3.40910E+00 3.13722E+00 2.67714E+00-1.79121E+00 7.24880E-01-1.91626E+00
 -1      1626-6.06646E-01-1.21212E+00-8.69038E-01-1.28772E+00-5.60264E-02 2.13364E+00
 -1      1627-4.90246E+00-2.43193E+00 1.16052E-01 2.79128E+00-9.37324E-01 1.74771E+00
 -1      1628 6.68904E+00 3.05437E+00 2.14528E+00 1.95721E+00 1.45529E+00 2.40158E+00
 -1      1629-1.27918E+00-4.26654E+00-2.54274E+00-6.05791E-01 1.64036E+00 1.93285E+00
 -1      1630-4.17935E+00-1.09082E+00 3.53569E-01-1.39963E+00-2.14237E+00-5.25654E-01
 -1      1631 4.98361E+00 5.27081E-01-4.96270E-01-3.55764E-01 1.06557E+00-1.43812E+00
 -1      1632 1.67366E+00 7.83241E-01 1.86069E+00 8.70767E-01-2.11291E+00-3.70654E+00
 -1      1633 8.83472E-01 1.70857E-01 1.97659E+00 1.31473E+00-1.00250E+00 4.12079E-02
 -1      1634 5.42789E-01 1.24782E+00-5.53759E-01-8.96062E-01 7.95571E-01 1.36863E+00
 -1      1635-7.24866E+00-9.68231E+00-1.40516E+00 4.77750E+00 1.01595E+00-1.44029E+00
 -1      1636 3.48574E+00 4.26895E+00 3.28911E-01 6.86724E-01-6.95438E-01 9.18583E-01
 -1      1637 2.39812E+00 4.20307E+00 2.42813E+00-2.05716E+00-2.72885E+00 1.70428E+00
 -1      1638-5.93704E+00-3.39176E+00-1.10181E+00-2.62204E+00-1.68150E+00-2.49032E+00
 -1      1639-1.44427E+00-1.60025E+00 4.85704E-01-2.04427E-01-1.18225E+00 1.28254E+00
 -1      1640 1.33783E+00-3.08852E+00 1.68214E+00-9.63916E-01 4.05605E+00 1.06605E+00
 -1      1641-2.86425E-01-1.20413E+00 3.73908E-01-1.65230E+00-1.32059E+00-9.65377E-01
 -1      1642 7.30926E-02 1.89954E+00-3.98369E+00 1.94734E+00 5.34019E+00 1.50558E+00
 -1      1643-2.68227E+00-1.59320E+00 1.39752E-01 3.91905E-01 1.28818E+00-3.79393E-01
 -1      1644-7.14595E-01-4.95539E+00-4.86195E-01-5.56921E-01-2.08636E+00-5.50860E-01
 -1      1645-3.35327E+00-1.22317E+00 7.53461E-01-1.87332E+00 1.51425E-01-2.42357E-01
 -1      1646 2.10936E+00-1.67209E-01 5.42066E-01-3.36981E-01-1.15081E+00-1.58220E-01
 -1      1647 8.52631E-01-3.41455E+00 1.61891E+00-3.04947E-01-3.10625E+00 5.38072E-01
 -1      1648-3.57471E+00-2.25060E+00 1.07043E-01 9.92700E-01-1.52207E+00-5.36288E-01
 -1      1649-1.59971E+00-1.12223E+00 1.05002E+00 1.54789E-01-1.66259E+00-1.56318E+00
 -1      1650-2.90995E+00-3.43720E+00-4.64008E-01-2.50240E+00-2.91384E+00-2.86187E+00
 -1      1651 9.60659E-01 1.71695E+00 2.48724E-01 6.80848E-01 1.95335E+00 1.18507E+00
 -1      1652 3.37074E-01 2.63030E+00-1.55571E+00 1.10567E+00-9.82376E-01 1.40197E-01
 -1      1653-2.14414E+00-9.31760E+00-2.58483E+00 2.08261E-01-2.88278E+00-5.81185E-01
 -1      1654 1.55786E+00 1.97153E+00-4.04837E-01 2.23078E+00 2.85563E+00-7.40610E-01
 -1      1655-5.92445E+00-4.22872E+00-4.60637E+00 2.35080E+00 1.92981E+00-3.01594E+00
 -1      1656 1.96899E+00 1.98736E+00-4.00170E-03 1.65211E-01 1.72518E-01 5.72555E-01
 -1      1657 2.45512E+00 2.89374E+00 4.94562E+00-1.11277E+00 3.11383E+00 1.68703E+00
 -1      1658 1.10944E+01 3.15788E+00 8.97916E-01-3.87614E-01-2.19443E-01 5.10955E+00
 -1      1659 9.60581E-01-5.41881E-01-1.27196E-02 9.43995E-01 9.60367E-01 1.92380E+00
 -1      1660 4.72539E+00 2.37016E+00 1.02112E+00-1.83132E+00 4.68064E-01-2.74163E+00
 -1      1661-1.49560E+00 5.43588E-01-5.80223E-02 8.59860E-01-6.39566E-01 2.64794E+00
 -1      1662 4.43630E-01 3.82393E+00-2.00901E-01 4.60632E-01 1.47759E+00-7.27672E-01
 -1      1663-3.92596E+00-2.19846E+00-1.16470E+00 2.43666E+00 2.65115E+00-2.74247E+00
 -1      1664 2.30413E+00 2.14147E+00-4.83530E-02 7.35495E-01-9.77569E-01-2.11674E+00
 -1      1665-3.28966E+00-5.51746E+00-3.02216E+00 1.59857E+00 3.27614E+00-2.51589E+00
 -1      1666-2.70850E+00-6.79086E-01-1.47591E+00 1.30364E+00 1.75688E+00-3.76590E+00
 -1      1667 7.20738E+00 8.07373E+00 1.27367E+00 1.44083E+00 1.21969E+00-7.03602E-01
 -1      1668-2.49548E+00-1.03574E+00-5.12727E-02 3.87647E-01-1.37700E+00-3.21511E-01
 -1      1669 2.72834E+00-3.01446E-01 5.83421E-01-5.71346E-02 6.77341E-01 1.50411E+00
 -1      1670 3.53095E+00 3.24711E+00 2.46059E+00 1.17856E+00 1.77172E+00 3.62989E+00
 -1      1671 2.35183E+00 2.37910E-01 2.66785E+00 1.47231E-01 1.27007E+00-4.00997E+00
 -1      1672 2.09513E-01-2.38605E+00-7.72697E-01 2.29542E-01-1.12270E+00-1.64185E+00
 -1      1673 2.79065E+00 1.22258E+00 9.27962E-01-1.37341E+00-1.92050E+00-5.24122E+00
 -1      1674 2.59225E+00 5.35159E+00 4.10896E+00-2.66347E+00 1.89531E+00-2.75483E-01
 -1      1675 2.09002E-01 1.02486E-01-7.32058E-01 2.11382E+00-1.17740E+00 1.15020E+00
 -1      1676-1.34822E+00-1.16626E+00-2.52212E+00 8.46759E-01 8.92226E-01-3.87888E+00
 -1      1677 5.15788E+00 9.77058E-01 2.28043E+00-9.50361E-01 1.87253E+00-2.27339E+00
 -1      1678 7.80433E+00 1.72132E+00 3.11989E+00-9.44166E-01 9.73767E-01 2.09502E+00
 -1      1679 2.04905E+00 1.11221E+00-1.72064E-01 2.19316E+00-5.19442E-01 3.41679E+00
 -1      1680-7.97770E-01-3.57185E+00-9.97830E-02 3.98063E-01 2.74207E+00-2.37994E+00
 -1      1681-2.76625E+00-8.03137E+00-2.63210E+00 3.77724E-01 4.24441E+00 1.16309E+00
 -1      1682-5.89542E+00-2.60806E+00-6.42786E-01 1.56494E+00 6.28836E-01 3.34004E+00
 -1      1683-5.01798E+00-4.14970E+00-9.54624E-01 3.83309E-01-4.20311E-01 3.19710E-01
 -1      1684 9.56648E-01-5.08871E-01 8.66607E-01 1.02861E-01-1.25718E+00 3.17705E+00
 -1      1685-2.32256E+00-5.44594E+00-9.52532E-01 1.49781E+00-2.49316E+00 7.92286E-01
 -1      1686-2.08437E-01 6.31936E-01 7.07206E-01-4.00131E-01 1.77163E+00-4.19582E+00
 -1      1687-6.46670E-01 3.89327E+00-2.51826E-01-7.99219E-01-3.25298E+00-3.92038E-02
 -1      1688-5.70455E+00-1.99123E-01 3.10465E+00-1.65502E+00-7.37324E-01-6.49180E-01
 -1      1689-3.29305E+00-4.83544E+00-1.85816E+00 1.90020E+00-4.21300E+00 3.40929E-01
 -1      1690 3.44915E+00 3.01113E+00 1.99654E+00-1.96730E+00-1.57822E+00 1.91901E+00
 -1      1691 2.26682E+00 2.61308E+00 8.40568E-01 1.56138E+00-1.51058E+00-2.31110E+00
 -1      1692-7.03934E+00-4.10326E+00-1.55450E+00-2.70412E+00-1.50320E+00-1.10950E+00
 -1      1693 3.37272E+00 1.92389E+00 4.66194E-01 1.52213E+00-1.71051E+00-2.14101E+00
 -1      1694-1.02527E-01-2.18814E-01-4.83127E-01 1.18000E+00-1.72098E+00-4.82042E-01
 -1      1695-6.17123E+00-1.18140E+00 1.10581E+00 1.21195E+00 6.86127E-01-3.47367E+00
 -1      1696 1.53910E+00 4.05987E+00 8.55199E-01-9.33364E-02-1.90994E-01-6.62245E-01
 -1      1697 6.26505E+00 2.83175E+00 5.55621E-01 1.83435E+00 4.10050E-01-1.49912E+00
 -1      1698 4.53383E+00-4.36404E-01 1.70284E+00-4.19803E-01 8.13613E-01-1.99917E+00
 -1      1699 5.72704E+00 8.85242E+00 3.49650E+00 8.84001E-01 5.01264E-01-2.33739E+00
 -1      1700 2.05334E+00 1.75453E+00-9.72571E-01-1.44157E+00-7.85320E-01 2.16736E-01
 -1      1701 5.50038E-02 1.36444E+00 5.34350E-01-1.22432E+00 2.17417E+00-1.49106E+00
 -1      1702-3.54236E+00-6.64062E+00-9.83962E-02-2.97194E+00-1.11571E+00 3.61929E-01
 -1      1703 1.64275E+00 2.52093E+00 1.42906E+00-1.27483E+00 5.68305E-01-1.99691E+00
 -1      1704 1.29554E+00-1.02051E+00-4.05242E-01-4.71700E-02-1.41366E+00 1.26635E+00
 -1      1705-9.76294E-01-4.70700E+00 5.36705E-01-2.14476E+00-2.85236E+00-1.28877E+00
 -1      1706 5.92626E-01 1.98705E+00-1.45033E+00-7.98912E-02-6.68811E-01-6.26133E-02
 -1      1707 5.57641E+00 2.06324E+00-2.49759E-01-2.09643E+00 1.06652E+00-2.52133E+00
 -1      1708 1.13183E+00 3.67811E+00-2.14091E+00-1.25193E+00-9.66360E-01 2.99031E-01
 -1      1709-5.68073E+00 1.43704E+00 1.09465E+00 1.63316E+00-5.84060E-01-5.33838E+00
 -1      1710-1.96178E+00 2.97363E-01-8.46037E-02-1.51730E-01 5.91704E-01 2.05217E+00
 -1      1711-6.35477E+00-7.49390E-01 3.42276E-01-9.67753E-01 8.42395E-01 2.62052E+00
 -1      1712 4.61897E-01 2.87360E+00-1.92663E-01 1.01559E+00-1.84859E-01 4.89226E-01
 -1      1713-1.09041E+00 1.10055E+00 2.09889E-01-1.41158E+00-2.83970E+00 3.42553E+00
 -1      1714 3.85087E+00 4.98367E+00 4.17670E-01 8.41338E-01-5.86564E-01-1.13245E+00
 -1      1715-1.07011E+00-9.33529E-01 1.75163E-01 1.57809E+00-1.35775E+00 1.78400E+00
 -1      1716 2.00257E+00 1.98939E+00-1.19532E+00 1.63665E+00 9.67113E-01-9.60791E-01
 -1      1717 2.21518E+00 5.14475E+00 4.48287E+00 1.27227E+00-3.51150E+00 7.72134E-02
 -1      1718 5.50003E+00 5.62886E+00 3.40193E-01 8.13204E-01-1.04883E+00 7.13573E-01
 -1      1719-4.55405E+00-1.05850E+01-3.84195E+00-3.71080E+00 4.43266E+00 1.13693E+00
 -1      1720-2.66715E+00-6.98663E+00-2.10409E-01-1.53394E+00-2.14859E+00-7.64428E-01
 -1      1721-1.55085E+00-5.47906E+00 1.83679E-01-1.38449E+00-1.39501E+00-1.43695E+00
 -1      1722 9.47138E+00 1.84555E+00-1.29198E+00-7.14214E-01 4.35900E-01-4.29276E+00
 -1      1723 6.25003E-01-9.37988E-01 9.31051E-01-5.20253E-01-1.93015E+00-5.49271E-01
 -1      1724-7.78289E+00-3.82074E+00-2.26103E+00 2.56740E+00-1.70590E+00 1.80567E+00
 -1      1725 1.48675E+00-1.39460E+00 4.86181E-01 3.78351E-01-2.11830E+00-5.88078E-01
 -1      1726-3.35340E+00-1.41308E+00 1.48723E+00-1.29874E+00 1.07013E+00 1.74077E+00
 -1      1727-9.77251E-01-2.97210E+00 5.57463E-01 7.57069E-01 1.04408E+00 1.81128E+00
 -1      1728 1.13053E+00-1.67061E-01 1.51709E-01-2.05747E+00-1.00193E+00 1.91931E+00
 -1      1729-1.03676E+00-1.08437E+00-3.87981E-01-2.39105E+00-2.33808E-01-1.82603E+00
 -1      1730 3.80641E-01 8.06134E-01 2.33505E+00 3.34573E-01-2.94134E-01 1.90635E+00
 -1      1731 1.80411E+00 8.00645E-01-2.68674E-01 2.02532E-01-9.12665E-01-1.03722E-01
 -1      1732-3.47070E+00-5.38021E+00 2.46513E+00 3.52739E+00 1.02023E+00 3.87006E-01
 -1      1733 1.24022E+00-2.14091E-01-7.75860E-02 1.76938E-01-1.19139E+00-1.40108E-01
 -1      1734 6.60384E-01 3.41837E-01-6.45296E-01-4.66832E-01 5.54959E-01-1.88210E+00
 -1      1735 2.21384E-01-1.44847E+00-1.28290E+00-1.16427E+00 1.30114E+00 2.57563E+00
 -1      1736-1.00101E+00-2.59773E+00 2.02888E+00 1.09999E+00-2.69137E+00 1.16833E+00
 -1      1737 4.20073E+00 2.45540E+00 2.05723E+00-2.00210E+00-1.17705E+00 2.80095E+00
 -1      1738-1.77437E+00-8.97449E+00-8.48902E-01 1.21732E+00-2.84266E+00 1.67904E-01
 -1      1739-5.42216E+00-7.28417E+00-3.20590E+00-6.57388E-02-5.59195E-02 5.54442E-01
 -1      1740 4.44373E+00 3.28339E-01 3.11749E+00 1.51506E+00-4.34896E-02 2.54831E+00
 -1      1741-1.75916E+00-7.76984E+00 7.68869E-01 1.16523E+00 1.80955E+00-1.95750E-01
 -1      1742 2.80626E+00-9.57534E-01-8.71868E-01 1.11373E+00-4.81923E-01 1.20357E+00
 -1      1743 4.61343E+00 1.60430E+00 1.61614E+00-1.74841E+00 1.26060E+00-1.23862E+00
 -1      1744-6.50178E+00-2.20165E+00-1.39887E+00 8.80137E-01-1.10978E+00 1.59096E+00
 -1      1745 5.24678E+00 2.67373E+00 1.81184E+00 2.50819E-01-9.98363E-01 5.14497E-01
 -1      1746 3.68143E-01 3.07454E+00 3.87050E-01 1.47760E+00-6.17218E-01 1.45835E+00
 -1      1747-1.67748E+00 1.48778E+00-2.16741E+00-8.77102E-01-3.24298E+00 7.47308E-01
 -1      1748-1.66777E+00 1.25334E+00 5.09392E-01 1.47983E+00-1.54187E+00 2.31364E+00
 -1      1749 3.62294E+00 4.09370E+00 2.12713E-01 1.05508E+00-9.74984E-01-2.56836E-01
 -1      1750-3.85127E-01-2.19276E-01-1.08708E+00 1.23075E+00-2.07774E+00-5.66658E-01
 -1      1751 4.60120E+00 7.33601E-01-3.09179E+00 1.70505E+00-8.60949E-01-1.30979E+00
 -1      1752-5.83670E-01 7.34460E-01-3.38912E+00-1.11493E+00-6.30948E-01 1.07440E+00
 -1      1753 3.07787E+00 1.17889E-01 3.06136E-02 1.93368E-01-8.03644E-01 5.77132E-01
 -1      1754-1.97782E+00-4.32779E+00-2.77146E+00 1.30966E+00 2.74876E-01-1.56958E+00
 -1      1755 3.83467E+00 6.95739E+00-2.67076E+00-3.61828E+00-1.54549E+00 7.85612E-02
 -1      1756-3.92876E+00-7.56785E-01 2.01774E+00-1.57976E+00-4.62259E-01-3.38270E+00
 -1      1757 2.26565E+00 6.44964E-01 1.09361E+00 5.40257E-01-1.07674E+00-1.52474E+00
 -1      1758-2.83965E+00 5.67738E-01 1.25120E+00-1.89044E+00-2.93180E-01-8.76123E-01
 -1      1759-1.14015E+00-9.72951E+00 1.88829E+00 1.74624E+00-9.89958E-03 1.41519E+00
 -1      1760-9.70118E-01-1.46233E+00-2.67309E-01-1.50085E-01-1.45007E+00 3.00049E-01
 -1      1761 1.09440E-01 2.85459E+00 6.04219E-01-2.35551E-01-2.57313E+00 8.01508E-01
 -1      1762-2.42039E+00-3.94464E+00-2.21429E+00-2.22156E+00-1.15312E+00-1.96707E+00
 -1      1763-5.17140E+00-3.22357E+00-3.94566E-01-2.11007E+00-2.46282E+00-8.70201E-01
 -1      1764-1.03372E+00 2.42680E-01 2.07791E+00 2.53335E-01-1.36905E+00-6.90820E-01
 -1      1765-2.31153E+00 2.42224E+00-1.33210E+00 1.41413E-01-1.38406E+00-1.24036E+00
 -1      1766-1.08924E+01-8.16401E+00-2.67536E+00-5.58728E+00-2.60064E+00-1.73865E+00
 -1      1767-1.16302E+00-1.96276E+00-7.45266E+00-1.05873E+00-7.43396E-01-1.36010E+00
 -1      1768-1.39865E+00-4.14253E+00-1.05442E+00-1.43600E+00 3.60533E+00 6.54048E-01
 -1      1769-1.41740E+00 2.05510E+00-8.65994E-01 5.52489E-02-4.45217E-01-6.08007E-01
 -1      1770-2.97054E+00-2.87175E+00-1.89301E-01-3.58600E+00-4.91189E+00 4.96274E-01
 -1      1771 1.58428E+00-2.75778E+00 2.56066E+00-3.73449E-01-2.18597E+00-1.38840E+00
 -1      1772 1.67306E+00 3.90455E+00 1.41655E+00-8.09584E-01 2.75405E+00-2.00157E+00
 -1      1773-4.42910E+00 1.47346E-01 2.13775E-01 1.26027E+00-8.22608E-01 3.67326E+00
 -1      1774 6.31952E-01 1.47534E+00-6.69333E-01 6.59728E-01-2.51610E+00-5.25071E+00
 -1      1775-2.38902E+00 7.40513E-01 1.69407E-01-1.14729E+00 5.61924E-01 1.61456E+00
 -1      1776 8.10774E+00 6.26648E+00 1.46224E+00-1.92868E+00-1.59178E+00-9.46144E-01
 -1      1777-5.52702E+00-1.40670E+00-6.26073E-02-6.83496E-01-5.51418E-01 1.45650E+00
 -1      1778-4.27218E-02-2.00922E-01-2.92864E-01-1.28233E+00-7.01982E-01-2.98652E+00
 -1      1779 3.06300E+00 1.74933E+00 3.06085E+00 1.32449E-01-1.88090E+00-4.20833E+00
 -1      1780-2.84901E+00-1.28254E+00 3.92674E-01-1.98081E+00 3.62733E-01 6.89066E-01
 -1      1781 3.79221E+00 3.82834E+00 1.11307E+00-1.66744E+00 1.86109E+00-2.98929E+00
 -1      1782 4.45566E-01-2.41940E+00 9.58402E-04 1.30805E+00-1.63243E+00 1.29747E+00
 -1      1783-1.72911E-01 2.20372E+00-3.60751E-01 5.73391E-01-4.01914E-01 1.19587E+00
 -1      1784 2.41536E+00 7.77990E+00-2.30942E+00 1.90539E+00-5.34252E-01-1.21415E-01
 -1      1785-4.96894E-03-6.77675E-01-2.04889E-01 1.36509E+00-1.95792E+00 4.79844E-01
 -1      1786 3.66984E-01-6.25420E+00-2.73719E-01 4.94388E-01-1.80249E+00 3.07662E-01
 -1      1787-1.51020E+00-1.86123E+00-5.39732E-01-3.70317E-01 4.95875E-01-2.36455E+00
 -1      1788 1.57443E+00 2.41379E+00 3.32648E+00 1.12139E+00 3.16934E+00 8.02673E-01
 -1      1789-1.58865E-02-8.67782E-01 1.99777E+00-3.41479E-01 1.10059E+00-1.91806E+00
 -1      1790 1.35539E+00 2.37440E+00 1.15026E+00-1.02798E+00-2.33622E+00 1.94343E+00
 -1      1791-4.04602E+00 1.55206E+00 9.60164E-01-3.26231E-01-8.31303E-01-2.09459E+00
 -1      1792-1.14692E+01-1.06915E+01-2.77383E+00 3.27487E-01 1.85074E+00-4.14639E-02
 -1      1793-6.75085E+00-3.01563E+00-1.41744E+00-2.70733E+00 2.07761E+00 4.73970E+00
 -1      1794 2.49198E+00 1.08714E+00 1.09983E+00 4.62889E-01-1.08645E-02-1.74861E+00
 -1      1795 2.54728E+00 4.49213E-02 1.00213E+00-9.87334E-02-1.26053E+00-2.49317E-01
 -1      1796-1.72065E+00-1.92201E+00-1.01866E+00 2.24545E+00 1.30444E+00-9.59084E-01
 -1      1797 1.28897E+00 1.34970E+00 1.27853E+00-9.07738E-01 1.82262E+00-1.18666E+00
 -1      1798 8.78882E-01-3.54915E+00 2.52710E+00-6.34415E-01-1.58851E+00-6.90054E-01
 -1      1799 1.25027E+00-2.78118E+00 3.42867E-01 1.22510E+00-2.25583E+00 7.03376E-02
 -1      1800 5.43539E+00 3.35453E+00-3.83994E-01 7.42624E-01-3.22133E-01 1.19008E+00
 -1      1801-9.48682E-01-1.44448E+00 7.00148E-01-1.43607E-01 7.30130E-01 2.58367E+00
 -1      1802 1.40792E-01-1.31093E+00 1.56183E+00 7.84710E-01 4.00503E-01 1.71436E+00
 -1      1803-3.21840E+00-2.80916E+00 9.53623E-01 3.28731E+00-2.32414E+00 6.36210E-01
 -1      1804-7.61360E-01-1.55266E+00 4.79076E-01-9.65365E-03-7.74424E-01 2.29664E+00
 -1      1805-1.36023E+00-5.02544E-01 1.02233E+00 8.54977E-01 2.15957E-01 1.63954E+00
 -1      1806-7.96035E-01-6.33515E-01-1.36820E-01 6.28380E-01-9.98192E-01 1.79289E+00
 -1      1807 3.51410E+00 2.04345E+00 6.41276E-02-1.44469E+00-8.14277E-02 3.68928E-02
 -1      1808-8.56851E-01-1.78308E+00 1.66282E-02-2.70389E+00-7.76760E-01 4.23085E-01
 -1      1809-2.15502E+00-3.04755E+00-6.37075E+00 5.17587E-01 2.47709E+00 6.90643E-01
 -1      1810-2.09516E+00-4.12736E+00-9.00244E-01-4.88626E-01 2.34378E+00 2.89016E-01
 -1      1811-2.10565E+00-4.74885E-01-6.03768E-01-1.81577E-01-1.96607E+00 8.41160E-01
 -1      1812-5.80342E+00-1.63755E+00-2.80115E+00 1.37813E+00-1.82150E+00 6.15266E-01
 -1      1813 3.27831E+00 2.14751E+00-6.59566E-01 3.10501E+00 2.73721E+00 2.03264E+00
 -1      1814 2.29252E+00-6.99111E-01 4.29406E-01-5.66477E-01-1.52227E+00-6.78694E-01
 -1      1815-1.66084E+00-7.37202E-01-2.71324E-01-4.48745E-01 1.41407E+00-7.88390E-01
 -1      1816 1.11296E+00-2.32888E+00-8.38872E-01-1.82022E+00-1.79784E+00-1.38244E-01
 -1      1817-6.72535E+00-1.44530E+00-4.95326E-02 1.72045E+00 3.80878E-01-6.44140E+00
 -1      1818 3.77394E+00 5.49535E+00 1.70829E-01 4.71080E-01-5.05364E-01 5.74303E-01
 -1      1819 4.19808E+00 1.02686E+00 1.79768E+00-1.14030E+00 8.90723E-01-4.72396E+00
 -1      1820 1.84731E+00 8.75940E-01-8.98455E-01-3.82983E-01-1.00345E+00-1.14527E-01
 -1      1821-9.21270E-01-4.31569E-01 5.62401E-01-3.13099E-01-2.10739E+00 2.40221E+00
 -1      1822 8.08857E-01 5.77105E+00-5.50771E-01 1.37599E+00-9.82640E-01-1.09359E+00
 -1      1823-1.50703E+00-9.38530E+00 5.15861E-01-1.24557E-01-1.16327E+00-6.07345E-01
 -1      1824-1.57829E+00 9.92179E-01 3.45432E+00-9.67895E-01-1.42727E+00-1.40581E+00
 -1      1825-6.16148E+00-1.95451E+00 2.43627E-01 1.81086E+00-1.64942E+00 4.31295E+00
 -1      1826-5.67713E-02 9.60517E-01-1.81087E+00-8.84336E-02-1.52783E+00-1.54946E-01
 -1      1827-2.02317E+00-1.71597E+00-7.91338E-01-2.01294E-01 1.86273E+00-3.18063E-01
 -1      1828 1.54009E+00 1.21601E+00 2.65778E+00 5.43240E-01-1.05069E+00 2.39891E+00
 -1      1829-5.70367E+00-1.81078E+00 1.59682E+00-1.06257E+00-3.49467E-01 9.78497E-01
 -1      1830 1.48525E-01 5.14731E-01-9.95184E-01-5.68267E-01-1.43626E+00-2.73454E-01
 -1      1831 2.22565E+00 9.53268E+00 2.37318E-01 1.19004E+00 8.12241E-01-5.17962E-01
 -1      1832-2.37136E+00-7.10684E+00 5.72446E-01 2.33027E+00-1.36060E+00-3.64086E-01
 -1      1833 4.98561E-02-1.23675E-01 2.18192E+00 3.72111E-01-7.24071E-01 3.25630E+00
 -1      1834 3.14940E+00 5.65670E+00 5.27602E+00-1.08518E+00 5.91875E+00-1.15691E+00
 -1      1835-5.04474E+00-8.34030E-01 3.95675E-01-8.57265E-01-2.40840E-01 2.83647E+00
 -1      1836-2.73460E+00 2.13003E+00-2.79135E-01-2.68982E-03-6.44164E-01 1.93102E+00
 -1      1837 6.39356E+00 6.22302E+00 3.13583E+00-6.61949E-01 1.27136E+00 2.35852E+00
 -1      1838-2.75319E+00 1.11184E-02 6.37318E-02 7.76101E-01 2.31052E-01-3.16929E+00
 -1      1839 2.50970E+00 3.77149E+00 9.64897E-01-2.00986E-01 2.08228E+00-1.34258E-01
 -1      1840 3.34467E-01-2.99080E+00-1.34550E-02-1.41060E+00-2.58528E+00 2.64124E-01
 -1      1841 2.50608E+00-8.98474E-01 6.92876E-01 3.34525E-01-7.47955E-01-8.90849E-01
 -1      1842 1.49899E+00-3.72527E+00-1.61921E-02 1.49421E+00-1.12267E-01-2.94608E-01
 -1      1843-2.49570E+00-2.45251E+00-3.00096E-01-3.23337E+00 1.24549E+00 2.09365E+00
 -1      1844 1.47868E+00-4.74950E+00 4.68337E-02 4.69970E-01-2.82429E+00 1.62642E-01
 -1      1845 1.04172E+00 6.53791E-01 4.50365E-01-1.37749E+00-6.71985E-01-3.32560E-01
 -1      1846-6.58624E+00-1.31623E+00 1.31158E+00-3.43994E+00 1.18750E-01-2.82103E-01
 -1      1847 4.95658E-01-6.36951E-01-2.16799E-01 7.11819E-01 4.65757E-01-9.97921E-01
 -1      1848 1.22389E+00 2.26603E+00-1.96367E+00 1.75691E-01-6.33905E-01-5.42108E-01
 -1      1849-4.17563E+00-2.67210E+00-1.87845E+00 1.35004E+00 1.75430E+00-2.02343E+00
 -1      1850-3.78590E-01 1.81520E+00-1.07972E+00-1.33422E-02 2.01591E+00 1.66808E+00
 -1      1851-5.98691E-01-3.56833E+00 5.49468E-02 2.09003E+00 2.39859E+00-1.90417E+00
 -1      1852 4.18989E+00 6.96714E+00 2.31426E-02 7.95729E-01-1.50641E+00-1.33399E+00
 -1      1853 8.75923E-01 1.82095E-01 8.76845E-01 3.93444E-01 2.06443E+00 5.03822E-01
 -1      1854-8.30857E-01-3.97129E+00 1.45642E+00-1.87532E+00-1.52620E+00-6.93060E-01
 -1      1855-2.14464E+00-4.45273E+00-2.18528E+00-6.95820E-01-3.26240E+00-1.12380E+00
 -1      1856 3.44135E+00 4.88507E+00 4.97207E-02-2.47996E+00-1.12813E+00-4.35485E-01
 -1      1857-3.23877E+00-9.78821E-01-2.03820E+00-1.27299E+00-1.70053E-01-1.24179E+00
 -1      1858 1.94031E+00 5.05943E-01-1.18458E-01 2.52093E+00 1.37971E+00-3.52229E-01
 -1      1859 2.29268E+00-9.09026E-01 5.48886E-01-2.64308E-01 8.57686E-01-3.87995E-01
 -1      1860 2.54281E+00 2.24066E+00-8.73831E-01 2.12347E+00-6.44307E-01-7.75734E-01
 -1      1861-6.27010E+00-1.45593E+00-6.77248E-01 1.49451E+00-1.04249E+00 1.43238E+00
 -1      1862 1.82206E+00 5.27523E+00 1.59191E+00-4.11268E-01-4.48025E+00-1.31935E+00
 -1      1863 6.17318E-01 9.71384E-01-1.15846E+00-1.69287E-01-1.35476E+00 1.76832E+00
 -1      1864 1.80027E+00 5.79332E-01 2.08420E+00 1.28063E+00-4.63177E-01 3.21697E+00
 -1      1865 1.30771E+00 2.06123E-01 1.03928E+00-1.64828E+00-7.80063E-01 6.14913E-01
 -1      1866-3.08619E+00-3.65419E-01-9.51251E-01-1.61716E+00 4.81376E-01 2.45458E+00
 -1      1867-3.62157E+00-1.77268E+00-7.80327E-01 4.76955E-01 6.77363E-01 3.01078E+00
 -1      1868-5.86982E+00-2.29795E+00-3.54856E+00 2.97673E-01-1.76529E+00-1.48547E-01
 -1      1869 2.97628E+00 1.10195E+00 2.38905E+00 5.00385E-01 4.79371E-01-3.81428E+00
 -1      1870-1.22292E+00-2.70281E+00 1.19445E+00 2.02357E+00 4.77714E-01-3.26696E-01
 -1      1871 4.22438E+00-2.49812E-01 1.09294E+00-1.39019E+00 5.60064E-01-1.93313E+00
 -1      1872-5.61957E+00-1.88864E+00-1.00831E+00 6.66957E-01 4.32488E-01-2.71712E+00
 -1      1873-2.16269E+00-1.53745E+00-4.53075E-02 9.29215E-02-1.64447E+00 6.78975E-01
 -1      1874-2.38079E+00 1.02967E+00 7.75182E-01 1.21711E+00-4.33112E-01-9.17047E-01
 -1      1875 6.67517E-01-8.69296E-01 3.87143E-01 5.99211E-01 1.58400E+00 1.13678E+00
 -1      1876 1.63551E+00 1.45863E+00-8.73058E-01-1.26018E+00-6.20216E-01-4.61907E-01
 -1      1877-1.96737E+00 1.37847E+00-1.56791E+00 1.14056E+00 2.92298E-01 2.50799E+00
 -1      1878 8.01408E+00 3.61803E+00 1.25272E+00 9.94223E-02-6.33781E-01-3.27197E+00
 -1      1879-3.81974E+00-2.65652E+00-9.25140E-01-3.41426E+00 1.91491E-01 7.02132E-01
 -1      1880-9.15982E+00-1.72493E+00 1.37061E+00-1.52176E+00 1.05073E+00 1.96752E+00
 -1      1881 2.42239E+00 2.53108E+00 1.40131E+00 6.34990E-01 1.48152E+00 1.71199E+00
 -1      1882-2.93283E+00-7.14517E-02 1.08358E-02 9.68835E-01-7.46187E-01 2.50759E+00
 -1      1883 3.68079E+00 1.23151E+00-1.19905E+00 1.02925E+00 3.03355E-01 3.59000E+00
 -1      1884-2.93226E-01 6.60646E-01 1.69256E+00 8.25897E-01-1.35628E+00 2.20254E+00
 -1      1885 2.20985E+00 9.33839E-01 8.06544E-01 1.55386E+00 1.32515E+00-3.65800E-01
 -1      1886 8.76320E-01 1.33732E+00-1.19132E+00 5.25894E-01-1.00973E+00-5.00047E-01
 -1      1887-1.68047E+00 1.53167E-01 6.96633E-02 1.72426E-01-1.64564E+00 2.22166E+00
 -1      1888-5.77984E-02-7.10290E+00 1.24832E+00 2.50814E+00-1.04708E+00 2.03190E-01
 -1      1889 2.42295E+00 1.68760E+00 1.44905E+00 9.01221E-01-1.36571E-01 1.07274E+00
 -1      1890-1.37729E+00-2.95293E+00 1.59065E-02 1.78458E+00 7.01381E-01-5.46031E-01
 -1      1891 2.72843E+00 4.31415E+00 7.67515E-01-2.25248E+00 7.00179E-01-3.80881E+00
 -1      1892 1.62738E+00 4.03053E+00-1.22985E+00 1.11415E+00 1.72955E-01 1.09722E+00
 -1      1893 3.92356E+00 1.70721E+00 1.72919E+00-6.65817E-02-6.06522E-01 4.83743E-02
 -1      1894 2.79658E+00 2.37634E+00-1.89127E+00-3.05211E-01-2.03348E-01 1.08283E+00
 -1      1895 9.67092E-01 5.00282E-01 2.71523E+00-8.12860E-02 1.73902E+00 2.70392E-01
 -1      1896-1.68673E+00-2.19340E+00-4.15119E-01 1.38916E-02-2.75949E-01 1.83590E+00
 -1      1897-3.36395E+00-2.62799E+00-1.41229E+00 3.34862E-03-8.81634E-01-1.90412E+00
 -1      1898-1.46504E+00-7.09111E-02-2.31532E-01 7.91213E-03-1.95332E+00-1.20335E+00
 -1      1899-1.16515E+00-3.26521E-01 1.62529E+00 5.14278E-01-3.16753E+00-1.06501E+00
 -1      1900-1.16626E+00-6.66519E-01 3.56979E-02 3.93790E-01-1.85952E+00-1.09933E+00
 -1      1901 5.30612E+00 4.80194E+00 2.47846E-01 2.67123E+00 6.87250E-01 8.90891E-01
 -1      1902 1.48298E-02 2.73512E+00-2.04484E-01 1.57214E+00-5.93311E-01 4.51541E-01
 -1      1903-5.94940E-02 6.87942E-01 5.46099E-01-3.39031E-01 3.24867E+00 3.23112E+00
 -1      1904-2.54081E+00-5.93853E+00 8.38740E-02 1.99467E+00-1.00381E+00-9.09463E-01
 -1      1905-4.31318E+00-1.12870E+01-1.98571E+00 2.31978E+00-3.53611E+00 3.38460E-01
 -1      1906 4.53103E-01-2.25829E+00-2.07156E-01 9.52130E-01 2.04090E+00-8.98794E-01
 -1      1907 4.00601E+00 6.17602E+00 2.58400E+00 6.12515E-01 3.31624E-01 1.22385E+00
 -1      1908 5.34380E+00 4.34573E+00 8.48283E-01 9.46663E-02-8.48072E-01 3.60654E-01
 -1      1909 1.63234E+00 2.75442E+00 8.67653E-01 1.73605E+00-2.84787E+00-1.13068E+00
 -1      1910-1.73751E-01-1.78109E+00 6.69527E-01-4.55980E-01 1.35516E+00 8.26705E-01
 -1      1911 3.48899E+00 1.13639E+00-9.25310E-01 1.50735E+00-2.11553E+00 1.69871E-01
 -1      1912-3.27063E+00-1.17975E+00 2.59379E+00 3.40131E+00 3.69332E+00 4.22276E+00
 -1      1913-7.06741E-02 1.49555E+00-3.94213E-01-1.72255E+00-9.21950E-01 1.30745E+00
 -1      1914-8.91776E+00-4.50201E+00 1.30940E+00 3.15070E+00 8.98461E-01-1.98273E-01
 -1      1915-6.76681E+00-3.48710E+00-3.60996E+00 1.43869E+00-1.06979E+00 3.74131E+00
 -1      1916-8.76567E-01-9.50035E-01 7.41960E-01 3.18667E-01-2.01466E+00-1.70916E+00
 -1      1917 1.72874E+00 1.06868E+00 2.21609E+00 7.27202E-01 6.74530E-01 3.82361E+00
 -1      1918 1.50747E+00 7.45661E+00-1.85414E-01 1.47855E+00-2.07632E+00 1.36063E-01
 -1      1919 2.30969E+00 1.99410E-01 1.78577E+00 1.09339E+00-1.26981E+00 5.70598E-01
 -1      1920-9.01304E-01-1.46349E-01 1.36071E+00-5.03203E-01-2.28067E+00 2.56879E+00
 -1      1921 1.74956E+00 1.89351E+00 2.20657E+00 6.20132E-01-1.13595E-01 1.31880E+00
 -1      1922 4.04909E+00 2.37526E+00-4.46423E-01 3.80086E-01-1.41311E+00-8.10752E-01
 -1      1923 6.98950E+00-4.46741E-01 4.69187E-02-4.82599E-01 4.00743E-01 6.62935E-01
 -1      1924-8.27307E+00-2.44832E+00-1.34202E+00 5.48136E-02 9.54569E-01 2.76474E+00
 -1      1925 6.65745E+00 1.53161E+00 3.16621E+00-2.59652E+00-2.64716E+00 8.89770E-02
 -1      1926-2.04647E+00-3.89732E+00 5.25271E-02-1.46473E+00 2.20727E+00 2.03625E+00
 -1      1927-1.63704E+00-2.97105E+00-4.48457E+00 1.38415E-01 2.32514E+00 1.32411E+00
 -1      1928-4.95100E+00-3.55350E+00 2.79559E-01 3.36335E+00-8.82101E-01 2.27005E+00
 -1      1929-1.03128E+01-2.98184E+00-3.22906E-01-7.35026E-01 3.96437E-01 9.71104E-01
 -1      1930 2.50360E+00 3.71162E+00 3.85998E+00-5.98709E-01 2.99667E+00-1.86265E+00
 -1      1931 1.61306E+00 8.52069E-02-8.38184E-02-9.82194E-01 5.08574E-01-1.30593E+00
 -1      1932 2.20374E+00 5.07381E+00 5.93421E-01-2.03792E+00-1.16131E+00 5.87901E-01
 -1      1933 5.19198E+00 7.50004E+00-9.49623E-01-3.46770E-01 6.82724E-01-8.80259E-01
 -1      1934-6.12569E+00-2.49322E+00-4.01596E-02 1.54325E+00-1.72361E+00 3.03884E+00
 -1      1935 8.41668E+00 9.58867E+00 3.07580E+00-1.10118E+00-1.33639E+00-2.49264E+00
 -1      1936-7.03302E-02-9.93915E-01 7.38997E-02-1.31808E+00-2.73230E-01 1.15902E+00
 -1      1937-2.11161E+00-8.34294E+00-7.40991E-01 2.42872E+00-5.81439E-01 1.23823E+00
 -1      1938 6.89787E-01-1.49912E+00-1.47744E-01-3.24189E-01 2.10762E-01 2.51989E+00
 -1      1939-1.82846E+00-3.16077E+00 1.15033E-01-4.52969E-01-4.58575E-01-1.54692E+00
 -1      1940 3.57549E+00 4.95469E+00 1.03156E+00-5.40942E-01-1.49482E+00-6.17704E-01
 -1      1941 3.56294E+00 7.42010E-01 4.07169E-01 1.49191E+00 1.78665E+00-4.13130E-01
 -1      1942 9.52119E-01-3.61912E-01-1.84111E-01-1.43897E-01-1.55875E+00-4.61686E-02
 -1      1943-2.66587E+00-1.80247E+00-8.98813E-01-3.59191E-01-8.73794E-01 8.61453E-01
 -1      1944-1.30064E+00 3.62532E+00-1.16800E+00 3.49865E-01 2.72338E+00-1.68386E+00
 -1      1945 3.24224E+00 4.69711E+00-5.66034E-01 1.57828E+00-4.43282E-01 1.04132E+00
 -1      1946-2.69932E+00 3.79414E-01 5.15602E-01 1.53517E+00-1.97786E+00 2.26810E+00
 -1      1947-3.17871E+00-1.02768E+01-1.13457E+00 3.01643E+00 6.71148E-01-4.78545E-01
 -1      1948-7.11250E+00-5.59527E+00-1.38721E+00-2.69556E+00 3.94336E-01 1.77497E+00
 -1      1949-2.67822E+00-1.01611E+00 1.53374E+00-2.27572E+00-1.26124E+00-1.91738E+00
 -1      1950-2.26984E+00-3.52287E+00 1.58629E-01-1.18319E+00-1.88040E+00 3.72492E-01
 -1      1951 2.76661E+00 2.55896E+00 2.61346E+00-9.88968E-01-2.15317E+00 8.91118E-01
 -1      1952-7.14475E+00-2.52311E+00 1.61903E-02-1.27390E+00 1.30257E+00 2.26892E+00
 -1      1953 8.90032E+00 2.95071E+00-8.10982E-01 3.65208E-01-8.06868E-01-8.49163E-01
 -1      1954-1.38386E+00-6.00707E-02-1.27030E+00 5.59211E-01 1.46545E-01 1.16858E+00
 -1      1955-1.89031E+00-1.80518E+00-4.20236E-02 1.33720E-01-2.16566E+00-7.24048E-02
 -1      1956-3.66301E+00-2.31994E+00-1.64109E+00 1.98470E-01-1.20961E+00 4.86762E-01
 -1      1957-5.65935E+00-1.24060E+00-1.33036E+00 1.31273E+00 1.74924E-01-1.68603E+00
 -1      1958-5.63560E+00-6.86801E-01-4.18390E-01 1.11165E+00-1.30239E+00 2.25377E+00
 -1      1959 3.65387E-01-2.96267E+00 1.51447E+00 1.65601E+00-1.93778E+00-2.88928E-04
 -1      1960-4.59071E-01-6.71578E+00-8.38156E-01 2.46831E-01 2.45534E+00-2.58440E-01
 -1      1961 1.79093E-02-2.14494E-01-3.36300E-01 6.16889E-01-8.85960E-01-1.22101E+00
 -1      1962-1.04858E+00-1.50604E+00-1.48439E-01 6.77164E-01 1.07910E+00 2.70753E+00
 -1      1963-5.00379E+00 1.01643E+00 1.63100E-01-5.30589E-01-1.96145E-01 7.16281E-01
 -1      1964-1.33068E+00 1.42073E+00-3.67859E-01-6.10662E-01-2.93864E-02 1.89108E+00
 -1      1965 3.17524E+00 1.67371E+00 1.27092E+00 5.91382E-01-2.31744E-01 1.52855E-01
 -1      1966-1.87093E+00-5.86454E+00-7.15360E-01-1.13692E-01-2.91111E+00 1.37396E-01
 -1      1967-5.88870E+00-2.19556E+00-3.82179E+00 2.29558E+00 1.58853E-01-3.24182E+00
 -1      1968 1.15744E+01 1.01158E+01 9.16013E-01 2.55416E-01-1.44857E+00-3.57209E+00
 -1      1969 3.59622E+00 2.20295E-01 6.88338E-01-1.50078E+00-2.31525E+00 1.44078E+00
 -1      1970 2.02280E+00 4.61195E-01 3.20089E-01-1.13630E+00-1.14527E+00-5.75251E-01
 -1      1971 1.59213E+00 5.61789E+00 1.43638E+00-1.05006E+00 9.81156E-01 2.10592E+00
 -1      1972-9.96028E-01-1.10513E+00-1.91537E-02-2.62934E-01-1.93329E+00 1.98204E+00
 -1      1973-5.00223E-01 1.81247E+00 3.43058E-01 2.87841E-01-1.47889E+00-7.20783E-02
 -1      1974 3.79738E-01 1.04839E+00-2.96294E-01-9.28284E-01-9.10814E-01 4.71570E-01
 -1      1975 1.48515E+00 1.07250E+00 1.10239E-01 7.51182E-01-1.23619E+00-2.86447E-01
 -1      1976 1.71708E+00 1.45889E-03 1.77735E+00 2.25526E-02-5.97054E-01-2.05251E+00
 -1      1977-6.69134E+00-7.03516E+00-3.71684E+00 4.98245E-01-1.56554E-01 7.52495E-02
 -1      1978 2.84348E+00-4.57154E-01-1.04158E+00 1.53698E-01-5.04098E-01 3.88867E-01
 -1      1979 4.83818E+00 5.81550E+00 1.06306E+00 7.22126E-01-1.23077E+00 8.01892E-01
 -1      1980 6.63592E+00 4.27182E+00 1.39547E+00 2.02746E+00 1.23168E+00 1.43352E+00
 -1      1981-4.87279E+00 6.92987E-01 2.28130E-01 8.81246E-01 1.59410E-01 3.64238E+00
 -1      1982-8.22179E-01-1.37297E-02 6.95894E-01 1.77626E+00 8.71584E-01-1.18137E+00
 -1      1983 8.29676E+00 5.69140E+00 2.21566E+00-7.93826E-01 9.92782E-01 8.70754E-01
 -1      1984-2.31936E+00-2.73304E+00-6.92608E-01 8.84265E-01-1.13730E+00 1.60131E+00
 -1      1985-4.27713E-01 8.98160E-01 5.87766E-01 4.99085E-01-1.08657E+00-7.02094E-01
 -1      1986-2.49526E-01-5.03306E-01 3.56483E-01 2.68582E-01-1.52441E+00 8.82238E-02
 -1      1987-1.46940E+00-1.26659E+00-1.02580E-01-3.84876E-02 1.17726E+00-9.27582E-01
 -1      1988-1.16559E+01-5.54605E+00-4.28941E+00 5.31414E+00 2.88436E+00-1.81846E+00
 -1      1989-2.94044E+00-2.01148E+00-6.38995E-01 2.46904E+00-1.36032E+00 1.02747E+00
 -1      1990-1.47611E-01-6.68782E-01-1.07267E+00-6.54627E-01 2.44213E+00 2.53760E+00
 -1      1991 6.63563E+00 4.90186E+00-6.23733E-02 3.53643E+00 2.14662E+00 8.02671E-01
 -1      1992 1.12489E+00-6.70222E-02-7.32740E-01 1.36502E+00-1.61445E+00 8.02885E-01
 -1      1993 4.62636E-01 1.40881E+00 2.43473E-01 5.22835E-01-2.20669E+00-3.27347E-01
 -1      1994 5.64430E+00 1.46674E+00 3.90814E+00-4.76567E-01 1.50917E+00-8.65285E-01
 -1      1995 7.47875E-01-7.09980E-01-4.14997E+00 6.82235E-01-6.94074E-01-5.52784E-01
 -1      1996-2.05005E+00-1.37759E+00 1.37150E+00-8.59092E-01-3.37119E-01 2.80848E+00
 -1      1997-3.17985E+00-3.30396E+00-3.36601E+00 1.10526E+00 9.58252E-01-2.72225E+00
 -1      1998-3.70625E+00-2.53405E+00-2.12849E+00 2.94595E+00-2.78209E+00 2.36584E+00
 -1      1999-2.70127E+00-2.39366E+00-2.97640E+00-1.68974E+00-2.13235E+00-2.29651E+00
 -1      2000-4.21041E+00-5.75818E+00-3.86113E+00 1.53313E+00 1.81128E+00-2.10056E+00
 -1      2001 1.64799E+00 2.16142E+00-6.92020E-01 3.93078E-01 1.80279E-02-8.48974E-01
 -1      2002 3.61977E-01 2.56458E-01 1.79097E-01 1.63410E+00 2.25914E+00 1.97771E+00
 -1      2003 4.79406E+00 3.33896E+00 2.14145E+00 6.13623E-01-1.17814E-01 1.58320E-01
 -1      2004 5.10247E+00 5.90405E-01 4.15549E-01-3.39585E-01-1.06808E-01-1.76935E+00
 -1      2005-6.10449E-01-2.04326E+00 1.12716E+00-2.83090E+00-1.09146E+00-1.54701E+00
 -1      2006-3.42735E+00-1.66516E+00-1.71987E+00-7.11025E-01-6.47013E-01-1.60782E+00
 -1      2007 1.51211E+00-3.00602E+00 4.09572E-01 1.51611E-01-2.04279E+00-7.31612E-01
 -1      2008 3.83974E+00 3.03725E+00 1.69394E+00-7.40658E-02-9.24019E-01-1.04687E+00
 -1      2009 9.32226E-01 1.20205E+00-7.80305E-02-9.27180E-02-6.02697E-01-1.40832E+00
 -1      2010-2.52586E+00-1.99286E+00-2.92960E-01 1.53048E+00 3.22582E+00-1.99641E+00
 -1      2011-7.74750E+00-1.57010E+00 1.04284E-01 2.24805E+00-1.20418E+00 1.37413E+00
 -1      2012 9.82279E-01 6.31963E-01 7.20425E-01 1.57538E+00 2.39932E+00-2.87427E+00
 -1      2013 2.67095E-01-4.12446E-01 1.89423E-02-2.07026E+00-1.73641E+00-2.81788E-01
 -1      2014 1.25609E+00 3.22723E+00 3.72840E-02 1.18772E+00-4.16581E-01 3.61338E-01
 -1      2015-1.57531E+00-3.24709E+00 2.75068E-01-1.67699E+00 1.21333E+00 1.63785E+00
 -1      2016-1.17129E+00-2.02757E+00-4.77966E-01 4.01359E-01 9.18765E-01 1.68454E+00
 -1      2017 3.56936E+00 6.76969E-01 2.61769E-03-1.59140E+00-1.94785E-01 1.78116E+00
 -1      2018-2.54430E-01-1.38348E-01-4.78423E-01-1.12733E+00-1.28838E+00-4.04021E-01
 -1      2019 2.16748E+00 2.02141E+00 6.78427E-01-1.11381E+00-1.38788E+00 1.07866E+00
 -1      2020 4.56369E-01 5.44407E+00 1.24971E-01-1.05915E-01 1.99314E+00 2.98892E-01
 -1      2021-4.51737E+00-2.26995E+00-2.84451E-01 1.14486E+00-1.28220E+00-1.87117E-01
 -1      2022-3.12806E+00-1.83006E+00-1.67707E+00-2.79114E-01-1.03824E+00 2.30757E-01
 -1      2023 2.23105E+00 4.20211E+00 3.25763E+00 2.31628E+00-2.35384E+00-1.02438E+00
 -1      2024 7.88466E+00 8.85670E+00-7.13540E-01 5.82016E-02-2.38077E+00-3.07165E+00
 -1      2025-1.88584E+00 9.26815E-01-4.41069E-01-1.58986E+00 7.00515E-01 2.91763E+00
 -1      2026-1.09643E-01 3.77720E+00-3.11695E-01 1.48107E+00 4.69856E-01 1.48194E+00
 -1      2027-3.61715E+00-4.36401E+00 2.54578E+00 2.09602E+00-5.08095E-01-2.63180E-01
 -1      2028-8.30495E+00-2.93032E+00 6.25670E-02 4.06613E-01 6.80121E-01 4.08172E+00
 -1      2029 4.05466E+00 2.01902E+00 1.70811E+00-2.08468E+00-1.36564E+00 2.98336E+00
 -1      2030 4.31959E-01 2.49718E+00-1.64325E+00-1.00788E+00-8.79241E-01 9.46007E-01
 -1      2031 2.99880E+00 4.94635E+00 6.20987E-01-3.08200E+00-3.22781E-02 5.69820E-01
 -1      2032 9.75551E-01-3.94020E-01 1.69366E+00-5.17548E-01-1.83596E+00 1.31409E+00
 -1      2033 5.48476E-01 7.81764E+00 1.97134E+00-2.12468E+00-4.64898E+00 2.30352E-01
 -1      2034 2.30541E+00 1.20918E+00 4.49653E-01 1.96413E+00-1.40040E+00 7.68541E-01
 -1      2035 4.45273E+00 4.39852E+00 1.41578E+00-8.01592E-01-9.41610E-01 2.68326E+00
 -1      2036-3.96930E-01-4.39250E-01-1.53517E+00 1.57294E+00-1.64435E+00 1.69954E+00
 -1      2037 8.70565E-02-3.40527E+00 8.30499E-01-1.98483E+00-1.59701E+00-1.41875E+00
 -1      2038 5.72518E+00 2.95795E+00 2.75129E+00 1.99166E-01 5.09131E-01-5.79396E-01
 -1      2039 5.94432E-01-1.45616E+00-1.73571E-02-1.84775E+00-9.64623E-01-1.38115E+00
 -1      2040 5.80449E+00 8.79489E+00 8.10186E-01-2.34415E+00 1.45683E+00 2.38069E+00
 -1      2041-8.08016E-01-6.11874E-01 3.03605E-03-1.74665E+00-1.36990E+00-9.88614E-01
 -1      2042 2.65476E+00 2.60984E+00-1.36287E+00-2.56581E-01 8.46797E-01-1.93337E-01
 -1      2043 1.00791E+00-8.01333E-01 7.89309E-04-4.45465E-01 4.45046E-01-1.16098E+00
 -1      2044-2.49411E+00-1.67725E+00-2.82017E+00 1.18580E+00-2.94869E-01-2.16844E+00
 -1      2045 1.53238E-01 1.73749E+00-1.07651E+00-1.35269E+00-3.96639E-01-6.44976E-01
 -1      2046-1.87218E-02-1.20994E+00 4.70871E-01 1.47395E+00 1.60171E+00-8.81689E-01
 -1      2047-1.49948E+00-1.94244E+00 4.34568E-02 3.50555E-01-2.13211E+00-1.10411E+00
 -1      2048 1.33123E+00 1.50435E+00 5.47217E-01-7.42155E-01-6.93778E-01-6.57280E-01
 -1      2049 1.24929E+00 1.48171E+00 2.21911E-01 4.17259E-01-2.76206E+00-4.55303E+00
 -1      2050 2.07152E+00 2.22557E+00-1.47728E+00 9.89749E-01 5.33207E-01-7.88711E-01
 -1      2051-9.88763E+00-3.00640E+00-6.45096E-01 3.25923E+00 1.08659E+00-1.29152E+00
 -1      2052-7.59264E+00-2.51241E+00 2.36900E+00 3.02081E+00 6.50646E-01-7.34158E-01
 -1      2053-4.76965E+00-1.59131E+00-8.32814E-01 1.41087E+00 1.99556E+00-3.51972E+00
 -1      2054-1.27352E+00 2.05624E-01-4.55038E-01-1.46918E+00-2.04482E-01-1.15747E+00
 -1      2055-2.51666E+00-3.20945E+00 1.65866E+00 1.56049E+00-1.54332E+00 1.51211E+00
 -1      2056 2.80434E-01 9.73165E-01-1.18704E+00 2.65795E-02-8.24576E-01 5.59512E-01
 -1      2057 2.78733E+00-2.41067E+00-3.57320E-01-3.66149E-01-2.62237E+00 7.15885E-01
 -1      2058-1.86376E+00-4.87695E+00-1.72710E+00-1.93547E+00-3.44033E+00-1.76854E+00
 -1      2059-2.79850E+00-4.85146E+00 5.84675E-01 1.92258E+00-2.49961E+00 6.69831E-01
 -1      2060 7.90049E+00 8.30784E+00 2.59091E-01 1.40612E+00 2.02733E-02 6.67947E-01
 -1      2061 3.04449E+00 5.97522E+00-2.59699E+00-1.59141E-01 3.30502E+00-3.48391E-01
 -1      2062 3.46370E-01 1.23448E-01 1.16940E+00 1.24263E+00 1.85486E+00 7.26137E-01
 -1      2063 2.45261E+00 1.99275E+00 1.39808E+00 1.23962E+00-9.62719E-01 8.75042E-02
 -1      2064-5.32330E+00-8.98586E-01-6.89989E-01 1.38451E+00 2.04974E-01-1.20257E+00
 -1      2065-3.82324E+00-2.46716E+00-4.22586E-02 3.01607E+00-7.91101E-01 1.34695E+00
 -1      2066-1.12907E-01-9.44127E-01 8.01996E-01 2.27199E+00 8.05159E-01-2.45006E-01
 -1      2067-5.95772E+00-1.10531E+01 7.83499E-01 4.72154E+00-1.23145E+00-3.37964E-01
 -1      2068-1.38219E+00-5.84845E+00-1.09279E+00 2.07719E+00 2.68612E+00-5.17023E-01
 -1      2069-3.16790E-01 1.50700E+00 7.60219E-01 4.65795E-01-6.31725E-02 1.43354E+00
 -1      2070 6.77776E+00 4.09916E+00-6.28095E-01-2.03747E+00-1.38360E+00-2.22331E+00
 -1      2071-5.21930E+00 1.01567E+00 3.40710E-01 6.60277E-01-7.28298E-03 2.52159E+00
 -1      2072 1.67234E+00 1.91783E+00 4.48537E-01 3.13160E-01-8.10277E-01 1.15277E+00
 -1      2073 4.47239E+00 9.01025E+00 3.09339E+00-3.27449E+00-3.53169E+00 1.85969E+00
 -1      2074 2.18709E+00 4.23080E+00 2.13118E+00-9.11510E-01-1.37248E+00 1.80393E-01
 -1      2075-6.96739E+00-1.97487E+00 8.72984E-01-2.74642E-01 3.35852E+00 1.71984E+00
 -1      2076-2.37870E+00-4.85768E-01 4.01466E-01-1.10376E-01 2.91847E+00-1.11445E-01
 -1      2077 4.45061E+00 3.86831E+00 2.08285E+00-7.52610E-01-1.14930E+00 6.44126E-02
 -1      2078 2.12651E+00 2.57318E+00 9.19755E-02-5.30900E-01 4.70138E-01 1.22693E+00
 -1      2079-1.68871E+00-1.57956E+00 4.03007E-01 7.76778E-02 1.51622E+00-1.52591E+00
 -1      2080 1.05171E+01 1.12829E+01 1.64020E+00-5.05682E-01-2.34617E+00-2.07948E+00
 -1      2081-6.13697E-01-1.63647E+00 3.28574E-01-6.63486E-01-8.74738E-01 1.12637E+00
 -1      2082-7.73344E-01-1.53953E+00-4.82528E-02-2.04035E+00-1.39341E+00-1.95868E+00
 -1      2083 1.84322E+00 9.86673E-01-6.75357E-01-5.07495E-01 5.86706E-01-7.01818E-01
 -1      2084 4.04962E+00 1.66017E+00 2.88921E+00-7.54813E-01 1.89358E+00-4.15066E+00
 -1      2085-3.44496E+00-3.29097E-01-2.47310E-01-1.32143E+00-3.87707E-01 1.51149E+00
 -1      2086 4.92799E+00 2.85186E+00-5.46504E-01-1.30854E+00-1.78584E+00-1.72668E+00
 -1      2087 7.88105E-01 1.15389E+01-9.25813E-01 2.36988E-01-1.89859E+00 6.21498E-01
 -1      2088 6.35000E-01 3.76923E+00-1.33776E+00 5.69420E-01-2.71091E-01 9.93238E-01
 -1      2089-1.38087E+00 3.75903E-01 1.07451E+00-4.88788E-01-2.18381E+00 1.37800E+00
 -1      2090-8.82828E-01-7.61508E+00-2.52921E+00 3.43384E-01-3.44624E+00-2.58790E+00
 -1      2091-1.00396E+00-2.93786E-01-2.54825E-01-1.43166E+00-6.17842E-01-3.46395E+00
 -1      2092 1.51121E+01 1.47420E+01 2.58213E+00-8.84314E-01 4.02891E-02-4.56970E-01
 -1      2093-1.69982E+00-1.26882E+00 3.59233E-01-1.47208E+00 1.19030E+00 1.30533E+00
 -1      2094-1.49723E+00-1.10042E+00 4.21829E-01 3.87120E-01 1.19163E+00-2.41043E-01
 -1      2095-4.76553E-01 2.91128E+00-5.59616E-02-5.33787E-01 2.56978E+00-8.06604E-01
 -1      2096 1.49826E+00 2.01519E+00 1.73192E+00-4.68206E-01 2.18508E+00-6.61037E-01
 -1      2097-8.23832E-01 3.04520E+00 3.37319E-01-1.00468E+00 2.92624E+00 8.70152E-02
 -1      2098 5.22260E+00 5.40449E+00 1.09237E+00-1.94471E+00 8.31061E-01 1.28169E+00
 -1      2099 6.39534E+00 6.57247E+00 2.04358E+00 1.79417E+00-2.94586E-01-1.87529E+00
 -1      2100 3.23538E+00 2.68101E+00 5.00806E-02-1.66768E-01 1.05333E+00-5.68251E-01
 -1      2101 4.14197E+00 6.66032E+00 2.31293E-01 6.53472E-01-2.69069E-01 1.14963E+00
 -1      2102 1.29671E+00 1.74930E+00-8.75217E-01 1.56781E-01-5.42843E-01-6.10877E-01
 -1      2103 6.98888E+00 4.34814E+00 1.11538E+00 2.19310E+00-1.90435E+00-1.23663E+00
 -1      2104-4.58559E+00-3.34574E+00-4.00660E-01 1.12482E+00-1.24557E+00 4.51788E-01
 -1      2105 1.67540E+00 4.17583E+00-2.36249E-02 1.53789E+00 6.14355E-01-1.24947E+00
 -1      2106 5.11681E+00 4.14355E+00 3.57591E-01 5.44898E-01-8.93688E-01 1.82466E+00
 -1      2107 2.41039E-01 1.70355E+00 2.52912E-01 2.94689E-01-2.36542E+00 3.50848E-01
 -1      2108-5.65965E+00-3.21334E+00-4.26710E-01 2.44709E+00 1.60569E+00-3.01931E+00
 -1      2109-1.61717E+00-6.11174E-01 1.92751E-01 1.40276E-01-1.87091E+00 6.19991E-01
 -1      2110-5.00325E+00-1.40925E+00 5.67605E-01 1.10426E+00 7.80036E-01 1.22455E+00
 -1      2111-2.21339E+00-5.12350E+00-1.27398E+00-9.53597E-01 3.19881E+00-1.36335E+00
 -1      2112 1.04985E+00 2.33235E-01-3.19300E-01-7.50439E-01-5.59302E-01-5.46760E-01
 -1      2113-1.95080E+00-1.86649E+00 8.31466E-01 2.98234E+00-1.21337E+00 2.13451E+00
 -1      2114 1.24893E+00 4.71511E+00 2.88647E+00 1.18507E+00 1.51676E+00 2.83551E+00
 -1      2115-2.32224E+00-4.27601E+00-4.25683E-01-8.56544E-01 8.58760E-02-8.31165E-01
 -1      2116 1.10614E+01 8.45628E+00-2.76898E+00-2.72109E-01-1.66972E+00 4.21739E+00
 -1      2117 1.76543E+00 2.85953E+00 3.58731E+00-1.10118E+00-2.47435E+00 2.13615E-01
 -1      2118-5.99340E+00-7.00507E-01-2.91437E-01 8.31426E-01 3.37740E-01 2.31224E+00
 -1      2119 7.29406E+00 4.93896E+00-1.84462E+00 3.26066E-01 6.82666E-01 3.73400E+00
 -1      2120-1.98273E+00-3.39554E+00-6.84016E-01 1.80817E-01-9.12284E-01-1.55634E+00
 -1      2121-6.33290E+00-3.85097E+00-1.90724E-01 3.57246E+00-2.20642E+00 1.89514E+00
 -1      2122-1.80343E+00-2.13334E+00 1.01193E+00 7.36195E-01 9.84149E-01 1.30084E+00
 -1      2123-3.78514E+00-3.84389E+00-1.85883E+00 1.84549E+00-8.54183E-01 1.59930E+00
 -1      2124 2.13048E+00-1.56382E+00 6.30790E-01 6.13291E-03 4.77168E-01 2.50896E+00
 -1      2125 5.55860E-01-2.63798E+00-2.94731E-01 1.04322E+00-2.36189E+00 1.01108E-01
 -1      2126-2.70257E+00-2.30359E+00-1.43636E+00-2.14598E+00 1.42756E+00 2.83374E+00
 -1      2127-3.02770E+00-9.41485E-01-5.28666E-01-1.26867E+00 1.01875E+00 2.72135E+00
 -1      2128 2.28754E+00 8.72149E+00-1.88911E+00-1.39495E+00 8.37772E-02-6.46964E-01
 -1      2129 5.07767E+00 5.86249E+00 2.15103E+00 4.21723E-01 6.57966E-02 8.91598E-01
 -1      2130-1.70268E+00-2.65961E+00-1.31038E+00 2.40685E+00 2.37805E+00-2.12191E+00
 -1      2131-3.01805E+00-4.06160E+00 7.23434E-02 2.92814E+00 1.29427E+00-1.72854E+00
 -1      2132-4.73227E+00 5.96253E-01 8.95820E-01 1.68676E+00-1.45321E-01-2.21584E+00
 -1      2133 1.61074E+00 9.83201E-01-9.58578E-01-2.23617E+00-1.40825E+00-1.12503E+00
 -1      2134-6.34457E+00-4.96138E+00-9.47934E-01-4.09517E+00 2.40460E+00 2.63505E+00
 -1      2135-8.54504E+00-5.26893E+00-9.69518E-01-3.54274E+00 2.01736E+00 4.69919E+00
 -1      2136-1.83709E+00-7.06376E+00-2.27348E+00 1.79716E-01 3.49228E+00-2.94116E-01
 -1      2137 1.68627E+00 1.18206E+00 6.57259E-01-2.35145E+00-1.14404E+00-3.20907E-01
 -1      2138 2.22435E+00 1.49667E+00 7.04493E-01 1.53565E+00 2.53752E+00 2.10988E+00
 -1      2139-5.83549E+00-2.35737E+00-2.84754E+00 2.17434E-01 3.85935E-01-2.38349E+00
 -1      2140-1.82339E+00 4.75065E-03-9.97378E-02-2.49941E-01 3.32351E-01-2.19306E+00
 -1      2141-1.72484E+00-3.98947E+00-7.56026E-02-2.23864E+00-2.16833E+00-7.82364E-01
 -1      2142-4.22769E+00-2.88233E+00-3.15514E+00-1.66180E+00-1.02213E+00-1.69634E+00
 -1      2143 5.51076E-01-2.76403E+00-9.31796E-01 4.25316E-02-2.05913E+00-3.67971E-01
 -1      2144-1.00446E+00 3.00844E-01-9.91197E-01-1.02308E+00-8.29913E-01-2.14129E+00
 -1      2145-8.14660E-01-4.54186E+00-1.11685E+00-3.73975E-01 4.47980E+00 1.37080E+00
 -1      2146-4.22905E+00-5.23043E-01 4.89474E-01-3.29600E-01-2.20832E-01-3.26364E+00
 -1      2147-2.73714E+00-1.38692E+00 1.91841E+00-2.50083E+00 8.69112E-01-3.79841E-01
 -1      2148-2.37466E+00-4.43882E-01-1.62556E+00-5.29428E-01 6.86249E-01-2.13337E+00
 -1      2149 2.80753E+00 1.61520E+00-1.09937E+00-1.49518E+00-6.27503E-01 1.52517E+00
 -1      2150 2.27860E+00 1.06774E+00-2.11493E+00 1.95080E+00-1.94021E+00-1.36687E+00
 -1      2151 6.22406E-01 2.23751E+00 6.64554E-01-9.98275E-01 6.83942E-01-5.00453E-01
 -1      2152-1.30181E+00-2.21174E+00-7.70077E-01 1.59895E+00 7.68782E-01-1.08845E+00
 -1      2153-7.46910E+00-2.32957E+00-5.13340E-01-1.80438E+00-1.72052E+00-2.61325E+00
 -1      2154 9.31934E-01-2.60427E+00-3.57246E-01 1.17840E+00-1.50620E+00 2.27089E-01
 -1      2155 3.66338E-01 3.03669E+00-2.41139E+00-4.52892E-01 3.00570E+00-8.66432E-01
 -1      2156-4.16392E+00-2.89858E+00 2.38694E+00 2.11074E+00-2.61643E-01 2.79777E-01
 -1      2157 6.87889E+00 9.58558E+00 3.55135E+00 9.11281E-01-3.26246E-01 2.09505E+00
 -1      2158-1.90445E+00-6.68272E+00-1.23762E+00-1.79316E+00-3.39289E+00 9.56905E-02
 -1      2159 1.02021E+00-5.91917E-02-1.60846E+00 5.90374E-01 8.88106E-01 2.68608E+00
 -1      2160 1.97520E+00 1.06726E-01 1.29340E-01 4.54264E-01 5.62868E-01-2.49293E+00
 -1      2161-1.28954E+01-1.60296E+01-3.33543E+00 1.08588E+00 1.45722E-01 4.22619E-01
 -1      2162 6.34258E-01 1.84250E+00 3.69799E+00-2.97272E-01 1.84111E+00-1.18533E+00
 -1      2163-8.27011E-01-6.82077E+00-4.72301E-02-4.49675E-02 5.70728E-01 1.25203E+00
 -1      2164 8.90178E+00 6.50573E+00 1.46505E+00 2.10566E+00-1.24355E+00 8.50139E-01
 -1      2165 1.84241E+00 3.41547E+00 3.26694E-01 1.04354E+00-8.92412E-01 3.80207E-01
 -1      2166 4.96934E+00 1.70777E+00 3.09213E+00-1.35831E+00 1.83210E+00-2.39564E+00
 -1      2167 2.77246E+00 2.22849E+00-1.84012E+00 1.79257E+00-1.63374E+00-1.19895E+00
 -1      2168-3.70216E+00-3.03989E+00 3.17092E+00-4.14570E-01 1.79020E-01-4.64564E+00
 -1      2169 3.14574E-01 4.57233E+00 4.83848E-01 4.39330E-01 1.47202E-01-4.53842E-01
 -1      2170-9.41839E-01 1.96352E-01-1.05293E+00 2.90058E-01-1.25439E+00-9.21940E-01
 -1      2171-4.87411E+00-4.26677E+00-3.06507E+00-1.93580E+00-1.59634E+00-1.85470E+00
 -1      2172 4.36193E+00 7.33329E+00 1.08572E+00 1.62646E+00-3.44137E-01 5.24916E-01
 -1      2173-7.11003E-01 1.29535E-01 7.30517E-01-1.58333E+00 1.54787E+00 8.64557E-01
 -1      2174 1.10584E-01 1.93891E+00 2.61798E-01 6.96115E-01 2.45053E+00 9.21258E-01
 -1      2175 8.18302E+00 8.56735E+00 9.24149E-01 8.64499E-01 1.25747E+00-1.04916E+00
 -1      2176 3.74449E+00 1.65275E+00 6.63050E-01 9.05921E-01 5.62095E-01 5.76044E-01
 -1      2177 2.32139E+00-5.18757E-01 9.15695E-01-1.55137E-01 1.52348E+00 3.55618E+00
 -1      2178 1.78424E+00 1.84545E+00 1.79336E-01 1.05319E+00 5.21018E-02 1.65906E+00
 -1      2179 7.15334E+00 1.03502E+01-6.53305E-01 1.00447E+00-2.06289E+00-1.36160E+00
 -1      2180-8.75600E-01-1.69601E+00-3.55565E+00-4.22481E-01-2.02840E-01-7.71909E-02
 -1      2181-1.47228E-01 1.87420E-01 1.21132E+00 8.12645E-01-3.67735E+00 7.25965E-01
 -1      2182 1.30222E+00-1.35185E+00 1.08160E-01-6.65722E-02 1.99454E-01 4.60878E-01
 -1      2183-1.44577E+01-1.43607E+01-2.24384E+00-6.53207E-01-5.15852E-01-7.11245E-01
 -1      2184 2.92215E+00 2.11724E+00-1.18787E-02-1.57916E+00-5.90233E-01 1.06629E-02
 -1      2185 1.56878E+00 4.91007E+00 7.94284E-01 1.13971E+00 1.80723E+00 7.97836E-01
 -1      2186 2.58139E+00 9.47971E-01 2.11798E+00-6.14148E-01-9.42285E-01 2.26279E+00
 -1      2187 1.77494E+00 1.55610E+00 1.56036E+00 1.16281E+00-1.59188E+00-2.19575E+00
 -1      2188-7.08528E-01-4.05008E+00 5.88288E-01-1.40385E+00 5.36229E-02 2.26600E-02
 -1      2189 6.98832E+00 1.55339E+00-4.16259E-01 2.79593E-01 1.54263E-01-1.54043E+00
 -1      2190 1.60472E+00-1.66636E+00 2.45342E-01 5.23152E-01-1.53283E+00 1.40902E-01
 -1      2191-2.61536E+00-4.72328E+00-2.66928E+00-1.62939E+00-1.87309E+00-3.41760E+00
 -1      2192-2.20671E+00-1.78362E+00 1.00789E-01-9.60080E-01-1.82781E+00 1.76093E-01
 -1      2193 1.48307E+00 9.19863E-01 3.33480E-02 3.22015E+00 1.46515E+00-5.69377E-01
 -1      2194-1.58769E-01-1.30409E+00-7.11639E-02 4.18697E-01-7.05157E-01-2.48489E+00
 -1      2195-9.96888E-01 1.13011E+00 1.15888E+00 6.49842E-01-4.45358E-01 2.04345E+00
 -1      2196-2.94142E+00-4.43455E+00-2.77491E-01-1.35348E+00-9.96310E-02 1.09212E+00
 -1      2197 4.37512E+00 6.04478E-01-7.59439E-01-7.68724E-01 1.13173E+00 7.81985E-01
 -1      2198 2.24332E+00 4.08272E-01-5.56439E-01-1.72710E+00-9.74372E-01 1.11753E+00
 -1      2199 1.72278E+00 3.54484E+00 5.87778E-01-1.03568E+00 8.47173E-01-1.50394E-01
 -1      2200 6.42997E+00 6.04951E+00 1.99066E+00-1.30724E+00-9.95384E-01-4.14875E-01
 -1      2201 2.02847E+00 2.38603E+00-8.37017E-01-2.87276E-01-4.80220E-01 6.47492E-01
 -1      2202 3.63230E-01 1.23076E+00 3.97782E+00-3.03922E-01 9.80610E-01 1.94134E+00
 -1      2203 4.90303E+00 3.78991E+00-3.78106E+00-9.42402E-01-1.94431E+00 2.23620E+00
 -1      2204 5.41668E+00 5.37689E+00 2.09729E+00 1.49595E-01 5.59232E-01 6.89654E-01
 -1      2205 2.25226E+00 1.46361E+00 9.77815E-02 6.31205E-01-8.81047E-01 8.29792E-01
 -1      2206-1.59750E+00-3.48190E-01-3.77005E-01 7.87105E-01 3.39247E-01-3.60984E+00
 -1      2207 2.95478E+00 5.06035E+00 7.48717E-01-1.31574E+00-4.00266E-01-4.91160E-01
 -1      2208-6.27528E-01-7.13902E+00 5.98160E-01-5.60420E-01-2.72335E+00-1.52390E+00
 -1      2209 1.53074E+00 2.82902E+00-7.26569E-01-9.25496E-01 9.77995E-01-4.40719E-02
 -1      2210 3.69491E+00 2.84266E+00 2.36310E+00-1.08015E+00-7.10599E-01 3.24031E-01
 -1      2211 2.14629E+00 9.95109E-01 7.66748E-01 1.47460E-01-1.70462E+00-3.42713E+00
 -1      2212 1.48098E+00 1.30471E+00 7.73856E-02-1.94822E-01-1.16995E+00 1.45801E+00
 -1      2213-9.44242E-01 3.85614E-01 7.39196E-01 1.29651E+00 2.86255E-01-1.57931E+00
 -1      2214-2.07389E+00-1.77968E+00 1.18132E-01-7.35357E-01-1.61089E+00 9.32954E-01
 -1      2215 1.32532E+00-2.05788E+00-5.58657E-01 8.21841E-01-8.33123E-01-1.34400E+00
 -1      2216 4.26430E-01 3.77478E+00-7.89692E-02-1.42103E+00-6.90959E-01 1.19529E+00
 -1      2217-3.71776E-01-6.26552E+00 3.83145E+00-1.69444E-01 1.50941E+00 1.06922E+00
 -1      2218 2.71976E+00 4.10413E-01 6.54115E-01 1.96836E-01 9.79533E-01 2.67798E-02
 -1      2219 1.73441E+00 2.43641E+00 1.23437E+00-1.10081E+00 1.46154E+00 1.50729E+00
 -1      2220-1.45995E+00 9.22891E-01 2.46160E+00-1.66072E-01-1.42324E+00 1.64308E+00
 -1      2221 2.80835E+00 5.36135E+00 5.54453E-01-1.74796E+00-1.24637E+00 8.22383E-01
 -1      2222 4.55567E-02-4.17754E+00 2.83002E-01-6.43718E-01 2.97639E+00 1.77346E-01
 -1      2223 1.30354E+00 3.83457E+00 2.85578E+00-3.86427E-01 2.01982E+00-2.16961E+00
 -1      2224 2.50410E+00 7.68920E+00 8.59626E-01-1.54325E+00 3.29104E+00-2.05328E+00
 -1      2225-2.83076E+00-4.15391E-01-6.71970E-01-1.77536E+00 8.47820E-01 2.59396E+00
 -1      2226 2.18295E+00 2.30492E+00 4.03977E-01 1.00504E+00 6.51472E-01 3.12482E-01
 -1      2227 1.29889E+00 4.27690E+00 8.53321E-01 1.17825E+00-9.09557E-01-7.08981E-02
 -1      2228 2.12837E+00 4.09825E+00 3.11084E-02 2.75073E+00-1.28130E+00-1.03204E+00
 -1      2229 7.90191E-01 2.34406E+00 9.96047E-01-1.58726E-01-2.64200E+00 1.19446E+00
 -1      2230 6.86395E-01-1.12845E+00-3.20821E-01 5.48451E-01-2.71345E+00 2.77950E+00
 -1      2231-5.39429E-02 4.84969E-01-1.05143E-01 3.14395E-01-1.40707E+00-1.72653E+00
 -1      2232-1.39880E+00 3.28435E-01-3.81767E-01-1.30592E+00-3.17350E+00 2.64449E+00
 -1      2233-1.26459E-01-1.60115E-01-1.07033E+00 1.71162E+00 1.85551E+00-5.24613E-01
 -1      2234 2.05701E+00 1.59951E+00-1.47030E+00 2.80594E+00 2.46022E+00-3.98400E-01
 -1      2235-2.05798E+00 1.12596E+00 8.48899E-01 2.89978E-02-8.90589E-01-2.13740E+00
 -1      2236-1.17487E-02 2.14243E+00-4.72643E-01-1.39610E+00-9.93744E-01-1.48038E+00
 -1      2237-8.06114E+00-2.32820E-01-2.08345E+00 8.71057E-01 4.14606E-01-2.36716E+00
 -1      2238 5.44216E-01 1.04387E+00 1.25656E+00 9.16098E-01-1.68051E+00-3.76916E+00
 -1      2239 3.53888E+00 4.82201E+00 1.88746E+00-3.28471E-01-1.78744E+00-8.76592E-01
 -1      2240-5.66983E-02 1.66462E+00 1.43480E-01-4.24376E-01-2.06558E-02-1.43410E+00
 -1      2241-1.81982E+00-6.13990E+00-3.34456E-01-1.28986E+00-1.86616E+00-7.66935E-01
 -1      2242 3.96534E-01 1.41852E+00-2.14851E+00-2.56767E+00-1.14176E+00 1.25528E+00
 -1      2243 4.08951E+00 1.73003E+00 1.29748E+00 1.20588E+00-3.05566E+00-8.75173E-01
 -1      2244 5.13751E-01-7.67432E+00 1.00037E+00 5.10206E-01-9.65416E-01-2.38928E-01
 -1      2245-1.05951E+00-9.72240E-01-3.51587E-01-1.13893E-01-1.16564E+00-1.20349E+00
 -1      2246-4.62708E+00-4.84835E+00-1.39493E+00-2.79419E+00-1.89087E+00-3.67363E+00
 -1      2247 7.46142E+00 4.65799E+00 1.57390E-01 1.64848E+00 1.83422E+00-3.17327E-01
 -1      2248 4.97082E+00 4.65196E+00-2.48159E-01 4.49833E-01-1.25035E+00 1.59255E+00
 -1      2249 3.20800E+00 4.32178E+00 4.13683E+00 2.14218E-01 4.56492E-01-2.23201E+00
 -1      2250 3.91257E+00 7.60256E+00-2.90269E+00 2.45417E-01-3.72176E+00 2.43657E-01
 -1      2251-2.40639E+00-2.38252E+00 1.04493E-01 2.15542E-01-1.43361E+00-9.60193E-02
 -1      2252 4.10336E-01 1.46190E+00 5.05951E-01 6.43855E-01 1.93836E+00 1.09896E+00
 -1      2253-2.57528E+00-9.69599E+00 1.91326E+00 1.68679E+00 3.13486E-01 5.80270E-01
 -1      2254-6.46972E+00-4.84647E-01-1.74695E+00-5.89692E-01 9.60529E-02-6.12397E+00
 -1      2255 3.04454E+00 1.60500E+00 1.02721E+00 3.03797E-02-1.03918E+00 6.36343E-01
 -1      2256-3.79201E+00-9.96130E-01-1.31896E+00-9.67135E-01 9.42086E-02-3.16054E+00
 -1      2257-9.43951E+00-9.69567E+00-2.48154E+00 6.99357E-01 2.58437E-01-9.01447E-01
 -1      2258-2.62939E+00-2.57721E+00-1.41464E+00-8.67105E-01 2.06413E+00-3.79417E-01
 -1      2259-1.68688E+00-6.99972E-01-3.17366E+00 8.64678E-01-4.38762E-01 4.52567E-01
 -1      2260-5.18478E+00-1.80605E+00-1.82995E+00-1.81561E-01-1.53168E-01-2.71766E+00
 -1      2261 6.51811E+00 2.26377E+00 4.43209E+00 2.76718E+00 2.89409E+00 3.12525E+00
 -1      2262-1.67124E+00 8.29296E-01-1.12645E-01-4.66205E-01 6.84368E-02-2.39110E+00
 -1      2263-3.32150E+00-7.15285E+00-2.30907E+00 2.13916E+00-2.32954E+00 9.40337E-01
 -1      2264 2.49297E+00 2.41769E+00 7.60317E-02-1.60002E+00-1.20879E+00 2.08976E+00
 -1      2265 1.65934E+00 4.42387E+00 2.07481E+00 1.12299E+00 9.16369E-01-2.92206E-01
 -1      2266-3.67874E+00-6.87636E+00-1.72550E-01 3.52423E+00 8.37696E-01-1.46955E+00
 -1      2267-1.94308E+00-1.38838E+00 1.23677E+00 6.88871E-01 1.34167E+00 9.50559E-01
 -1      2268 1.93652E+00 1.67261E+00-7.51511E-01-1.53760E+00-6.27058E-01 7.96815E-01
 -1      2269 3.46552E+00 5.71104E+00-3.11379E-01 1.81729E+00-8.96998E-01 8.03754E-01
 -1      2270 2.67103E+00-6.08118E-01 3.02299E+00-1.31186E+00 6.93581E-01-2.32188E+00
 -1      2271-1.93644E+00-1.70820E+00-1.63016E+00-1.68118E+00 9.26771E-01-8.33921E-01
 -1      2272 2.27490E+00 1.38305E+00 1.92888E+00-8.59689E-01-4.82698E-01-3.97333E+00
 -1      2273 2.24649E+00 7.21460E+00-8.03377E-01-3.21971E+00 6.75607E+00 1.81477E+00
 -1      2274 1.91943E+00-1.76048E+00 3.27898E-01 5.96034E-01 1.79140E+00-6.08693E-01
 -1      2275 4.23259E+00 4.32700E+00 1.64833E+00 7.80536E-01-2.19904E+00-4.57027E-01
 -1      2276 5.83283E-01-3.02069E+00 2.24285E-01 8.06725E-01 2.06506E+00-8.85733E-01
 -1      2277-5.65952E+00 8.78659E-01-1.54132E+00 1.80233E+00-1.57776E-01 5.96972E-01
 -1      2278-2.39317E-01 2.76559E+00 3.87846E-01 2.90491E-02-2.80474E-01-9.35565E-01
 -1      2279-4.82318E-01 9.65295E-01-1.40496E-01 1.77155E+00-6.67631E-01-7.28281E-01
 -1      2280-1.04906E+00-1.04731E+00 6.23796E-01-2.83615E-01 3.90817E-01-1.77652E+00
 -1      2281 1.88087E+00 4.31580E+00 4.26167E-02-1.49775E+00-2.12564E-01-3.57103E-01
 -1      2282 8.14133E+00 5.39932E+00 1.36961E+00-1.49785E+00 1.09401E+00 1.78392E+00
 -1      2283 5.38272E-01-2.23690E+00 3.26811E-01 1.04968E+00-2.64361E+00 4.50859E-01
 -1      2284-9.79878E-01 6.86651E-01-4.68206E-01 1.31405E+00 1.42027E+00-1.03665E+00
 -1      2285-1.58984E+00-3.51477E+00 1.09392E-01-2.31931E+00 1.05120E+00 1.42780E+00
 -1      2286-5.65165E+00-6.63640E+00-7.21154E-01-3.21729E+00 3.72980E-01 1.48970E+00
 -1      2287 1.88560E+00-7.26400E-01-2.63880E+00 6.32639E-01 1.13215E+00 1.24695E+00
 -1      2288 1.79302E+00 1.22378E+00-7.15322E-01-6.30129E-01-8.31415E-01-7.56486E-01
 -1      2289-2.54166E+00-7.63480E+00-2.78693E+00 1.63193E-01-2.43931E+00 2.25430E-01
 -1      2290-1.47153E+00-2.39695E+00-4.53312E-01 5.73758E-01 2.82173E-01 1.76288E+00
 -1      2291-3.48851E-01 9.65014E-01-1.78909E-01-4.33150E-01-7.97468E-02-1.49806E+00
 -1      2292-3.91223E+00 7.79771E-01 1.51558E+00-7.83713E-01-1.41388E-02-6.83495E-01
 -1      2293 4.98241E+00 3.74187E+00 2.08334E+00 8.10424E-01-1.34755E+00 2.40998E-02
 -1      2294 5.42847E+00 6.17892E+00 1.68052E+00 1.19307E+00 1.12745E+00 1.17600E+00
 -1      2295 1.10127E+00 8.62629E+00 1.14650E+00 1.08257E+00 5.01020E+00 1.30985E+00
 -1      2296 4.76598E-01 7.07608E-01 1.60226E-01 7.74042E-02 2.66066E+00 1.44151E+00
 -1      2297-2.89678E+00-9.65456E-01-1.06791E+00-1.69862E+00-1.04351E+00-1.28783E+00
 -1      2298 4.06267E+00 2.89657E+00 1.16599E+00 3.08443E-01-3.67264E-01-2.80874E+00
 -1      2299 8.20222E-01 9.38461E-01 1.26188E+00-3.05295E-01 2.09004E+00-2.06982E-01
 -1      2300-1.53528E+00-1.84365E+00-3.44596E-01 1.35954E+00 8.91636E-01-5.50620E-01
 -1      2301 1.89116E+01 1.97958E+01-2.40922E+00 1.34081E+00-4.10273E-02-1.99559E+00
 -1      2302-3.67822E-01-6.46761E-01 3.75388E-01 1.94338E+00 8.58806E-01-1.87855E+00
 -1      2303 6.31865E+00 6.10033E-01-4.56358E+00-7.01335E-01-1.01475E+00 1.97133E+00
 -1      2304 5.63674E-01 1.36135E+00 2.44517E+00 7.02978E-01-1.66926E+00-4.30141E-01
 -1      2305 6.44905E-01-3.52149E+00 8.43133E-01-1.59812E+00 1.52796E+00 6.24116E-01
 -1      2306-2.59609E+00-3.78641E+00-1.07324E+00 6.74345E-01-9.30098E-01-1.50014E+00
 -1      2307 2.27557E+00-7.61706E-01-4.60997E-01-1.30425E+00-1.64127E+00 6.93621E-02
 -1      2308-7.19653E+00-2.54551E+00-2.91957E+00-6.43794E-02 1.27208E+00 3.72268E+00
 -1      2309-3.88772E+00 4.97411E-01 2.98484E-01-5.22927E-01-9.12649E-02-1.20732E+00
 -1      2310 5.60319E+00 6.76388E+00 1.18857E+00-1.75654E-01 4.81437E-02-1.32360E+00
 -1      2311-2.76584E-01 1.64331E+00-4.95186E-01-7.64288E-01 1.15000E+00-7.38620E-01
 -1      2312-9.26773E-02 3.84451E+00 1.91587E+00 6.08289E-01-1.34112E+00-1.61774E+00
 -1      2313 2.32214E+00 6.06096E+00-6.18633E-01 7.26388E-01 2.91818E+00 3.71441E+00
 -1      2314-1.00145E+00-2.33984E+00 8.70980E-01-1.70096E+00-1.07255E+00-8.78087E-01
 -1      2315-2.24486E+00-1.27678E+00-1.05641E+00 2.25539E+00-1.14553E+00-1.69112E-01
 -1      2316 2.27999E+00 2.52187E+00-8.60439E-03-6.54913E-03 3.17204E-01 1.13838E+00
 -1      2317-2.02008E+00-4.34320E-01 1.48567E+00-8.53608E-01-9.11081E-01 5.57600E+00
 -1      2318-1.12574E+01-8.95576E+00-2.52241E-01-4.52136E-03-7.42992E-01-5.58717E-01
 -1      2319-7.43605E+00-9.13031E+00 1.38407E+00-1.64745E-01-7.92077E-01 8.05186E-03
 -1      2320-2.96764E+00 1.64358E-01-2.30260E+00-1.46753E+00-1.37873E+00-2.17062E+00
 -1      2321 4.04295E-01 1.33200E+00 1.14214E+00 2.11155E-01 1.07504E+00 4.06658E+00
 -1      2322 4.14650E+00 5.45930E-01 3.80466E-01 1.70851E+00-1.02715E-01-3.05258E+00
 -1      2323-2.91886E+00-5.30223E+00-1.34754E+00 2.32789E+00 2.99188E+00-2.00161E+00
 -1      2324-7.59990E-01-5.54892E-01 3.34715E-01 1.37971E+00-1.03220E+00-1.12552E+00
 -1      2325 1.17973E+00-1.16234E+00 5.49508E-01 1.66474E+00-1.79960E+00 8.97735E-01
 -1      2326 7.91704E+00 4.89864E+00 7.92819E-01-4.72543E-01 1.11532E+00-1.04319E+00
 -1      2327-1.99459E+00-6.28419E+00-2.52402E+00 1.37077E+00 2.86842E+00 1.26430E+00
 -1      2328 1.20365E+01 1.15292E+01-9.00589E-01 1.19726E+00-2.82875E+00-1.18161E+00
 -1      2329-5.79740E-01-7.97462E-01-3.13055E+00-2.49407E-01-9.12884E-01-3.48178E-01
 -1      2330-1.02870E+00-4.60316E-01-1.59479E+00-9.08861E-01 4.17769E+00 9.95509E-01
 -1      2331 2.14389E+00 4.74000E+00 3.73773E+00-2.16593E-01 1.29265E+00-2.63645E-01
 -1      2332-6.21083E-01 1.29677E+00 1.01704E+00-8.43523E-02 8.01991E-01 9.01217E-01
 -1      2333-1.33511E+00-1.34091E-01-2.57833E-01 3.48389E-01 1.90623E+00 6.90926E-01
 -1      2334-5.08293E+00-3.14669E+00 4.14028E-01-1.26539E+00 1.35068E+00-7.97922E-01
 -1      2335-7.23302E-01 7.65556E-01-1.28469E+00 4.94725E-01-2.38387E+00-2.30134E-01
 -1      2336 3.61790E-01 2.94118E-01-2.51730E-01 1.17569E+00-1.12738E+00 3.28876E-01
 -1      2337-2.59200E+00-1.46378E+00-4.71026E-01-1.69209E+00-1.33638E+00-1.16396E+00
 -1      2338 3.35738E+00 7.45412E+00 1.75836E+00-3.12031E+00 5.74404E+00 8.26572E-01
 -1      2339-2.54009E+00-1.91363E+00-5.50886E+00 2.10753E-01-3.12749E-01 1.11518E+00
 -1      2340 4.47375E+00 1.93586E+00-1.64399E+00-5.45831E-01-1.06182E+00 6.25305E-01
 -1      2341-1.07680E-01-6.16743E-02 2.50756E+00 2.52490E-01-2.33511E+00-4.17147E-01
 -1      2342 1.12072E+01 6.27433E+00-4.67701E-01 1.62644E+00-1.27625E+00-2.50263E+00
 -1      2343-6.84476E-01 3.41487E+00-4.78378E-01 1.72099E+00-3.28265E-01 1.71193E+00
 -1      2344-7.14147E+00-5.59748E+00-1.85041E+00 2.45095E+00-4.84121E-01-1.12181E+00
 -1      2345 6.55897E+00 4.41511E+00 1.81323E+00-3.46997E+00-1.13731E+00-4.66746E+00
 -1      2346-3.34178E+00 3.53261E-01-6.42321E-01 9.27744E-01 5.41075E-01 1.98771E+00
 -1      2347 1.73262E+00 3.16770E+00 3.72315E-02 3.25820E-01 3.32728E-02 1.05275E+00
 -1      2348 5.90192E-01 8.28787E+00 2.04871E+00-1.22684E+00 3.37986E+00-1.52061E+00
 -1      2349 2.33016E-01 1.77618E+00-4.96623E-01 1.04261E+00 1.72606E+00 1.15995E+00
 -1      2350-1.19209E+00-1.56179E+00 2.02762E+00 1.50173E+00 1.75113E+00-2.29210E+00
 -1      2351 3.22628E-01 3.99441E+00-1.15398E+00 6.93482E-01-4.96976E-01 5.36104E-01
 -1      2352 5.99384E+00 3.51060E+00 8.06657E-01 1.16125E+00 2.84905E-01-1.26925E-01
 -1      2353-1.92851E+00-2.73013E+00-8.98091E-01 1.14343E-01-4.03546E-01 1.64694E+00
 -1      2354-1.19311E+00 2.48266E-02 3.19494E-01 7.82340E-01-3.69551E-01 1.51915E+00
 -1      2355-1.09116E+00-8.35996E-01-3.07885E-01-1.77343E+00-9.87135E-01-1.54488E+00
 -1      2356 8.34031E+00 4.57526E+00-5.14855E-01-1.08200E+00 9.98533E-01-7.86282E-01
 -1      2357-3.57238E+00-1.36713E+00-1.27782E+00 8.45712E-02-1.57484E-01-2.41841E+00
 -1      2358 5.35243E+00 3.29569E+00-3.75309E+00 4.78000E-01 2.49995E+00-2.54754E+00
 -1      2359 1.95926E+00 4.63481E+00 1.88834E+00-1.94106E+00-3.50480E+00 7.33238E-01
 -1      2360 7.18505E-01 1.23686E+00-9.04569E-01-2.18830E+00-1.62008E+00 5.78830E-01
 -1      2361 4.36570E+00 1.79088E+00 4.90289E-01 1.13686E+00-3.80354E-01 4.30180E-01
 -1      2362 3.06231E+00 3.58545E+00 4.84454E-01 2.72153E+00 7.34087E-01-6.40827E-01
 -1      2363-2.00453E+00-2.24331E+00-3.62057E-02-7.03747E-01 1.00284E+00-2.57189E-01
 -1      2364 1.03413E+01 7.02714E+00 1.84419E+00 7.61329E-01 2.73218E+00-6.45737E-01
 -1      2365 7.54878E+00 4.83567E+00 2.02566E+00-7.67006E-01 9.14947E-01-2.16414E-01
 -1      2366-2.86168E+00-1.47957E+00 1.82009E-01 5.07103E-01-9.35454E-01-7.23689E-01
 -1      2367 1.12513E+00-5.43652E-01-2.18967E+00-2.63388E-01 2.01631E+00 1.15640E-01
 -1      2368 3.95906E+00 5.09791E+00 5.75529E-02 1.12550E+00-1.28193E-01 2.37532E-01
 -1      2369-7.46151E+00-1.80659E+00-1.59401E-01-2.16425E+00 3.15027E+00 4.77180E+00
 -1      2370-1.96871E+00-1.38731E+00-1.31252E-01-2.03528E+00 1.55040E+00 1.46989E+00
 -1      2371-1.53443E+00-6.63494E-01-4.50709E-01 1.06589E-01 2.16043E+00 8.18387E-02
 -1      2372 2.77793E+00 4.43951E+00 2.64193E+00 2.10327E-01-1.40790E+00 7.03904E-01
 -1      2373-5.55387E-01 4.92364E-01 3.08295E-01-2.37659E+00 3.62022E-01 1.44720E+00
 -1      2374 5.49466E+00 3.01774E+00 1.33327E+00-1.20335E+00 1.32889E+00-5.19242E-01
 -1      2375-2.03314E+00-9.06957E-01-5.79951E+00 2.87625E-01-7.77577E-01-2.89433E-01
 -1      2376-3.41787E+00-9.64623E-01 4.57135E-03-1.55640E+00-2.15075E+00-1.24866E+00
 -1      2377-2.76935E+00-3.71231E+00-3.12114E-01-3.30606E+00-1.09972E+00-3.36810E+00
 -1      2378 2.05755E+00 3.13095E+00 1.15614E+00 7.64970E-01-1.92688E-01-5.02959E-02
 -1      2379 3.29340E+00 3.56872E+00 1.27629E+00-2.21218E+00-1.93713E+00 5.46561E-02
 -1      2380 8.65903E+00 8.02596E+00 4.65702E-01 1.36947E-02 3.19049E+00 2.24191E+00
 -1      2381 1.62118E+00-1.57889E+00 8.27986E-01 1.12755E+00-8.22442E-01 6.00567E-01
 -1      2382-8.08067E-01 2.04778E+00-6.83235E-01 1.19982E+00-9.84750E-01-1.01434E+00
 -1      2383-7.96207E-01 7.58344E-01 2.29908E-01 2.76332E-01 7.57468E-01 1.21381E+00
 -1      2384-2.23869E+00-5.76487E+00 2.61580E+00-2.20020E+00-1.70943E+00-1.95138E+00
 -1      2385-2.48272E+00-5.04393E+00-4.45079E+00-1.02603E+00-3.79237E+00-2.60902E+00
 -1      2386 1.49049E+00 2.37045E-01 2.53199E+00-5.80396E-02-1.30383E+00-2.19334E+00
 -1      2387-1.14651E+01-5.92053E+00-1.95233E+00-2.02606E-01 3.62696E-01-2.22523E+00
 -1      2388-1.32350E+00 3.51087E-01-2.22575E-01 1.94396E-01 3.28254E-01 1.67695E+00
 -1      2389 6.05030E+00 3.88136E+00 2.01257E+00-1.12493E+00-1.22887E+00-1.39432E+00
 -1      2390-2.25085E+00-1.20761E+00 3.82919E-01-2.05092E+00-1.34830E+00-2.45160E+00
 -1      2391-5.16495E+00-2.81099E-01-3.09862E+00 2.46734E+00-7.57509E-01 3.00758E+00
 -1      2392 2.94344E+00 5.20673E-01-3.66712E-01-1.34899E+00-1.39107E+00-4.26977E-01
 -1      2393 2.32593E-01 7.54640E-01 1.39018E+00 1.29674E+00-5.73996E+00 3.02587E-01
 -1      2394 2.47502E-01 5.96224E-02-9.34837E-01 3.24063E-02-3.02293E-01-1.41704E+00
 -1      2395-1.69784E+00-1.51493E+00-1.13498E+00-2.06111E+00-2.62156E+00-2.03038E+00
 -1      2396 3.61027E+00 5.84207E+00-5.11042E-01-1.31009E+00-2.24284E+00 2.91750E-01
 -1      2397-4.03238E-01-1.88755E+00-2.77717E-03 2.80243E-01 2.41957E+00 1.70142E+00
 -1      2398 4.82195E-01 1.05952E+00-1.05931E+00 1.62719E+00-1.72735E+00 2.68219E-01
 -1      2399-1.42449E+00-8.63209E-01 6.25621E-01 4.60639E-01 1.28515E+00-1.00389E+00
 -1      2400 4.06264E+00 3.63860E+00 1.26825E+00-1.41160E+00-6.52500E-01-5.17178E-01
 -1      2401 4.18180E-01 7.40651E-01 3.03215E+00 8.98180E-02-1.36452E+00-1.12752E+00
 -1      2402 1.31964E+00 2.48081E+00 2.36253E-01-6.25730E-02-7.74183E-01 1.86895E-01
 -1      2403 2.59434E+00 1.24940E+00 8.69644E-02 1.82995E+00 1.36529E+00-1.03650E+00
 -1      2404 2.08344E+00 1.21344E+00 5.43856E+00 3.18279E-01-1.22578E+00-2.30556E+00
 -1      2405 1.75388E+01 2.35032E+01-1.03244E-01 1.68116E+00 3.26752E+00 1.48909E-01
 -1      2406 2.03613E-01 4.99996E-01-4.44688E-01 4.78454E-01 1.75976E+00 4.99312E-01
 -1      2407-3.72349E+00-2.73476E+00-1.18272E-01 2.02426E+00-2.31530E+00 1.18796E-01
 -1      2408-9.19217E-01 1.03818E-01 2.29172E-01 3.29569E-01-8.67029E-01 1.12925E+00
 -1      2409 5.07369E+00 3.43829E+00 1.87434E+00 2.20813E+00 1.48548E+00 1.57360E+00
 -1      2410-3.34655E+00-5.22997E+00-1.89415E+00 6.92303E-01-2.52021E+00 1.94745E+00
 -1      2411 1.15818E+00 2.29278E+00 2.86988E-01 7.59114E-01 3.82570E+00-2.38165E+00
 -1      2412 2.40476E+00 2.08089E+00-1.61723E+00-9.02776E-01 1.23558E+00-5.81313E-01
 -1      2413 7.69648E+00 4.99969E+00-2.32602E+00 2.56094E+00 1.07946E+00-2.85669E-01
 -1      2414 2.17112E+00 1.81895E+00 6.39858E-01 1.50215E+00-1.24133E+00 3.71579E-01
 -1      2415-2.99625E+00-3.98249E+00-1.57175E+00-1.57813E+00 5.42030E-01-1.81157E+00
 -1      2416 3.19259E+00 1.58032E+00 1.18152E-01 1.19394E+00-1.43370E+00 3.90731E-01
 -1      2417-2.31086E+00-2.03207E+00 3.66735E-01-3.36153E+00 1.06935E+00-2.66765E+00
 -1      2418 4.90587E-01-1.54787E-01 6.06143E-01 3.79574E-01-1.27959E+00-1.08213E+00
 -1      2419 6.97928E-01-1.39176E-01 1.19898E-01 2.31989E+00 9.77623E-01-4.15773E-01
 -1      2420-5.14186E-01 1.77338E+00 6.62773E-01-6.07589E-01 6.09799E-01 8.36532E-01
 -1      2421-2.34198E+00-4.77227E-01 1.33995E+00-2.16713E+00-5.81332E-01-1.78794E+00
 -1      2422 4.09794E+00 3.05448E+00-7.92678E-01-1.98520E+00-6.61937E-01-7.36721E-02
 -1      2423 3.60808E+00 4.27784E+00 2.24856E+00 9.36090E-01-1.69754E+00-1.18680E+00
 -1      2424 4.92270E+00 4.68488E+00 2.34574E+00-6.99056E-01 1.12458E+00 2.31350E+00
 -1      2425 5.90531E+00 6.33421E+00 9.45802E-01-1.10215E+00 1.24924E-01 2.07880E+00
 -1      2426-1.79789E+00-1.88701E+00-1.41102E+00-5.33044E-01-4.26268E+00-3.26744E+00
 -1      2427-8.85999E-01-3.88798E-01-8.23026E-02 2.91439E-02 1.51820E+00-7.33225E-01
 -1      2428-1.36961E+00-2.07033E+00 5.65430E-02-3.15506E-02 2.00142E+00 4.71365E-02
 -1      2429 3.67595E+00 1.78359E+00 7.40137E-01-7.61814E-01-8.77534E-01-1.02491E-01
 -1      2430 1.43625E+01 1.24373E+01 3.01289E-01-1.71183E+00-7.55592E-01 4.93057E-01
 -1      2431-1.45214E+00 9.09937E-01-4.04853E-01 3.87701E-01-1.26406E-01-1.31524E+00
 -1      2432 1.47154E+00 1.92017E+00 1.48698E-02 8.80355E-01 7.47923E-01-1.05518E+00
 -1      2433 1.11651E+00 2.47971E+00-1.53090E+00-1.16652E+00-7.32223E-01-1.15485E+00
 -1      2434-1.64295E+00-1.30153E+00 1.58563E-01-4.36780E-01-1.79961E+00 2.43338E+00
 -1      2435-3.36771E-01-5.40349E-01 3.09431E-01-1.23495E+00-1.02276E+00-1.13190E+00
 -1      2436 5.72365E+00 5.14438E+00 2.56849E+00-1.05941E+00-3.00221E-01 4.97039E-01
 -1      2437 7.50030E-01-2.74118E+00 4.00276E-01-1.35005E+00 2.63380E+00-5.40253E-02
 -1      2438 8.04957E+00 8.76334E+00 4.07316E-01-1.14107E-01-1.40325E+00 1.99449E+00
 -1      2439-2.83389E+00-2.55662E+00-1.86517E+00 4.84215E-01 6.69206E-01-2.23398E+00
 -1      2440-2.23303E+00 1.60876E+00 8.29003E-01-1.92401E+00 5.15188E-02-2.02518E+00
 -1      2441 2.26899E+00 3.26256E+00-4.31557E-01-6.01711E-02 5.78228E-01 1.03616E+00
 -1      2442 2.00087E+00 1.84612E+00-1.42490E-01 6.07198E-01-6.83709E-01-1.53574E+00
 -1      2443 1.76018E+00 4.51194E+00 3.91014E-02 2.70876E-01 5.76397E-01-6.51773E-01
 -1      2444-1.19175E+00-6.33361E+00-9.90731E-01 1.57956E+00 2.63670E+00-3.17092E-01
 -1      2445 2.46935E+00 5.36397E+00 9.41909E-01 6.84242E-02-5.04811E-01 6.66148E-01
 -1      2446-3.89376E+00-4.44058E+00-1.09190E+00-2.67875E+00-9.11632E-01-4.28228E+00
 -1      2447-2.31607E-01-5.52323E+00 2.59926E+00-1.55815E+00 1.78652E+00 1.44284E+00
 -1      2448 1.52717E+00 4.49322E+00 5.15990E-01-2.94050E-01 4.05329E-01 5.32841E-01
 -1      2449 1.41213E-01 1.19633E+00-7.43304E-02-3.50694E-01-1.14957E-01 1.71089E+00
 -1      2450-9.33880E-01-2.47462E+00-1.76066E+00 1.80891E+00-4.69314E-01-1.75526E+00
 -1      2451 1.17108E+01 1.19143E+01 3.14339E+00-1.27531E+00 1.22156E+00-6.73111E-01
 -1      2452 8.39512E+00 7.71264E+00 1.78896E+00 1.52237E+00 1.97899E+00-1.08754E+00
 -1      2453 1.41018E+00-8.37662E-01 9.61007E-01-3.63863E-01 1.36017E+00 1.22609E-01
 -1      2454 9.17902E-01-2.09225E+00-1.12057E-01-1.14261E+00 1.97120E+00-2.38703E-01
 -1      2455 2.33882E+00 1.38453E+00-8.35445E-01-2.73864E+00-1.70253E+00 2.81721E+00
 -1      2456-1.68871E+00-6.13363E+00-1.20734E+00-1.11717E+00 4.04820E+00-1.94132E-01
 -1      2457-1.21002E+01-3.06344E+00-4.11894E-01-6.02026E-01-1.74971E-01-4.79502E+00
 -1      2458 8.75622E+00 7.93505E+00 4.47056E+00-1.74931E-01-8.46198E-01-8.25592E-02
 -1      2459 5.86586E+00 3.83838E+00 2.29225E+00-2.27024E-01-9.98163E-01-2.56084E-01
 -1      2460-1.58754E+00-3.62895E+00-2.13831E-01 6.57802E-02-6.95199E-01-3.10313E+00
 -1      2461 3.11325E+00 8.39279E+00-8.27384E-01-3.69008E-01 7.97290E-01-7.42973E-01
 -1      2462-4.83736E-01 3.57326E+00-4.97749E-01 2.88136E-01-4.57420E+00-3.03920E-01
 -1      2463 5.70410E+00 3.54978E+00-6.37423E-02 5.06599E-01 9.71175E-01-1.02277E-01
 -1      2464-4.28247E-01-1.48201E+00 3.56275E-01-9.48652E-01 3.24450E-01-1.64558E+00
 -1      2465-4.88963E-01 2.90079E+00-9.67299E-01-1.83973E+00-8.36324E-02 2.19550E+00
 -1      2466 6.21543E+00 3.24453E+00-3.30321E-01 1.16042E+00-7.30040E-01-9.36621E-01
 -1      2467-1.65944E+00 1.10953E-01 4.95206E-02 2.87311E-01 1.43617E-01 2.36042E+00
 -1      2468 5.87381E-01 5.69361E+00 5.63142E-01-7.39469E-01 2.53210E+00-1.45121E+00
 -1      2469-1.87193E+00-5.83522E+00-2.51987E+00 3.03935E-01-2.89303E+00-3.74907E-01
 -1      2470 4.18179E+00 2.76988E+00 1.62562E+00 2.42059E-01 7.96453E-01 6.45017E-01
 -1      2471 2.20069E-01-8.92139E-02 1.56526E-01 5.67228E-01 9.27513E-01-1.97304E+00
 -1      2472-2.71596E+00-4.15471E+00-3.45921E-01 1.17473E+00-2.36920E-01-1.59629E+00
 -1      2473 4.60589E+00 4.98455E+00-2.16433E-01-1.84788E-01-2.24333E+00 5.14752E-01
 -1      2474-3.30834E+00 2.21337E+00 9.02028E-01 1.67929E+00 1.49817E+00-6.50107E-01
 -1      2475-5.82450E+00-2.12670E+00-2.00325E+00 2.43496E+00 6.94454E-01-2.13022E+00
 -1      2476 1.35613E+00 2.18828E-01-2.56227E+00-3.97062E-02 9.29095E-01-5.76488E-01
 -1      2477-1.85397E+00-5.74220E+00 8.62147E-01-2.63843E+00 1.09784E+00 1.18147E-01
 -1      2478 2.23505E+00 2.12886E+00 2.96420E+00 2.50040E+00 3.89364E-01-2.76427E+00
 -1      2479 3.93389E+00 2.39746E+00 3.01680E+00 1.56018E+00 1.90679E-02-2.60770E+00
 -1      2480-5.48739E+00-1.10125E+00-2.90343E-01-1.12856E+00 6.75211E-01-3.76208E-02
 -1      2481 3.78940E+00 9.45280E-01 2.63213E+00-1.02887E+00 5.05810E-01-1.01536E+00
 -1      2482 4.22082E+00 4.11774E+00 5.39308E-01 1.09288E+00 1.06956E+00-8.67551E-02
 -1      2483-1.68074E+00 1.53875E+00-2.23714E+00 6.60917E-01-9.47449E-01 2.02334E+00
 -1      2484-5.03657E-01 1.53749E+00-2.89098E+00 1.59894E+00 1.97635E-01-1.03373E+00
 -1      2485 4.83351E-01-2.38852E-01-1.02170E+00 3.17184E-01 8.85060E-01-9.42387E-01
 -1      2486 4.77236E+00 4.46182E+00 7.06594E-01-2.27308E-01 1.48122E-01-2.66309E+00
 -1      2487 1.31782E+00 2.93071E+00 4.51532E-02-4.93905E-01-1.14782E+00 9.82438E-01
 -1      2488-2.31692E+00 6.25686E-01 4.77245E-01 6.76568E-01 5.32736E-01-2.33153E+00
 -1      2489-3.51166E-01-2.09256E-01-4.47389E-01 1.72320E+00 1.73954E+00-1.28964E+00
 -1      2490-1.38991E+00-2.88477E+00 2.04742E+00-1.59304E-01 1.86912E+00 5.68642E-01
 -1      2491-1.60058E+00-6.39865E+00 3.00335E+00 2.97120E+00-3.84855E+00 1.75720E+00
 -1      2492-4.29281E-01-6.73123E-03 1.11468E+00-4.09951E-02 1.19871E+00 2.79760E+00
 -1      2493 2.71368E+00 1.04260E+00 4.63101E+00 1.14603E-01 7.33899E-01 1.56548E+00
 -1      2494-4.44054E+00-4.94307E-01-1.37911E+00-5.02250E-01 1.25189E+00 2.55204E+00
 -1      2495-4.37277E-02-1.11298E+00-8.83870E-02 6.86198E-02-6.07212E-01 2.37280E+00
 -1      2496 5.02919E+00 3.50410E+00 2.03085E-01-8.20357E-01 5.19143E-01 1.06871E+00
 -1      2497 7.32669E+00 8.26367E+00 2.58864E+00-1.59757E+00 5.75551E-01 2.07275E+00
 -1      2498 3.70273E+00 1.07329E+00-8.41830E-01-8.70284E-01 7.24855E-01 3.69441E-01
 -1      2499 1.76100E+00-2.39119E-01 8.23187E-01 1.30682E+00 2.85479E+00-1.48400E+00
 -1      2500-3.28402E+00-2.79004E+00-1.04296E+00-1.60826E+00-2.34915E+00-4.84183E-01
 -1      2501-1.14570E+00 2.77938E+00 2.91489E-01 3.32884E-04-5.86708E-01 1.37499E+00
 -1      2502 2.92758E+00 5.71902E-01-1.68995E+00-3.24401E-01 1.26767E+00 3.77397E-01
 -1      2503 1.19242E+00-3.58956E+00 1.76777E-01-2.52690E+00 1.75672E+00 1.22834E+00
 -1      2504-2.99707E+00 1.06564E+00 6.13021E-01 4.60496E-01-1.12781E+00 2.60694E+00
 -1      2505-3.12691E+00-2.78011E+00-1.09921E+00-8.96943E-01-9.01294E-01 6.85469E-01
 -1      2506-2.27494E+00-3.22337E-01 9.12556E-01-1.27471E+00 8.71649E-01-2.96639E+00
 -1      2507-6.11157E+00-2.84541E+00-2.79098E+00-1.01009E+00 5.97921E-02-2.94748E+00
 -1      2508-5.32665E+00-1.34847E+00-5.70211E-01-2.35033E+00 1.41396E-01 6.35462E-01
 -1      2509 4.44844E+00 3.11589E+00 1.51516E+00 8.01797E-01 1.19124E+00-2.14645E-01
 -1      2510 4.45953E+00 6.52008E+00 1.04062E+00-1.91707E+00 7.99367E-01 1.09158E+00
 -1      2511 2.74835E+00 4.05842E-01-1.09681E+00 5.18718E-01 8.53420E-01 8.18940E-01
 -1      2512 7.29136E+00 5.36294E+00 2.21561E+00-4.11231E-01-1.78396E+00-1.17611E+00
 -1      2513 6.90114E-01 1.74943E+00-6.05098E-01-3.07187E-01-9.53220E-02-1.16961E+00
 -1      2514 5.07703E+00 1.89787E+00-1.33341E+00 1.71672E-01 1.13335E+00-1.43829E+00
 -1      2515-4.90462E-01-1.65798E-01 8.26100E-02-4.33871E-02-8.84351E-01-1.58761E+00
 -1      2516 4.77829E+00 7.58736E+00 9.31390E-01 7.77012E-02-3.32412E-01-8.10260E-01
 -1      2517-3.44226E+00-2.69731E+00-7.09078E-01 6.91215E-01 9.58105E-01-2.79977E+00
 -1      2518 2.97716E+00 5.21129E+00-4.86683E-01-1.73688E+00-1.45234E+00-4.98759E-02
 -1      2519 4.95650E+00 1.93549E+00-1.03559E+00-6.93497E-01 1.51900E+00-5.03225E-01
 -1      2520 3.76363E+00 2.68120E+00 4.32798E+00-1.15335E+00 2.38142E+00-4.19176E+00
 -1      2521 2.80840E+00-1.70122E+00-5.46821E-01-2.73581E-01-2.09152E+00 5.60450E-01
 -1      2522-4.06469E+00-5.16672E+00-1.51161E+00 1.63329E+00 3.32352E-01 1.98020E+00
 -1      2523-4.47860E+00-1.40717E+00-2.06159E+00-1.73124E-01-3.57984E-01-2.02620E+00
 -1      2524-6.67979E-01 8.30982E-01 9.47227E-01 4.95078E-01-5.20071E-01 8.33919E-01
 -1      2525 1.84211E+00 3.02878E+00 1.68823E+00 1.22043E-01-7.71511E-01-8.56729E-01
 -1      2526 1.27465E+00 8.87567E-01-3.44000E-01-1.87387E+00 6.95453E-01 1.29430E+00
 -1      2527 4.23134E+00 3.55520E+00 1.00181E+00-6.26438E-01 7.26645E-01 5.31403E-02
 -1      2528 2.75714E+00 2.95413E+00 8.83287E-01-1.42631E+00-3.12467E-01-3.92462E-01
 -1      2529 8.60479E-01-5.06002E-02 3.79947E-01 1.25404E+00 1.75660E+00-5.57983E-01
 -1      2530-2.53528E-01-1.68340E+00-7.31973E-01-2.01025E-01 1.26558E+00 1.61296E-01
 -1      2531-5.43144E-01 4.42918E-01-1.29232E+00 2.24688E+00 3.12556E+00-4.26663E-01
 -1      2532 4.33822E-01-5.10646E+00-5.77089E-03-6.23367E-01 1.75546E+00 5.21704E-01
 -1      2533-8.10560E-01 6.89002E-01 1.30182E+00 1.10457E+00-5.51095E-01 2.34854E+00
 -1      2534-1.26472E+00-2.30118E+00-3.65926E-01 1.78287E+00 1.47361E+00-2.63328E-01
 -1      2535-5.53556E+00-1.05046E+00-8.15365E-01-9.65813E-01 2.52304E+00 3.26193E+00
 -1      2536 6.45505E-02-3.12258E+00-8.32836E-01-7.69668E-01 1.52031E+00 7.91232E-01
 -1      2537-2.51404E+00-3.61976E+00-5.23764E-01-8.39190E-01 2.18622E+00 1.69658E+00
 -1      2538-1.63086E+00 2.68828E-01-2.60073E-01-1.28810E-01 6.88467E-02 1.97123E+00
 -1      2539-1.42708E-01 2.26472E+00 1.74118E+00-2.80497E-01 9.76765E-01-5.98051E-01
 -1      2540-3.96412E-01-3.75506E-01 3.97665E-01-2.30832E-01 1.73941E+00-3.56202E-01
 -1      2541 4.79762E-03-3.58350E+00 1.62435E+00 7.98190E-02 3.16138E+00-1.19345E-01
 -1      2542-4.30447E+00-2.81349E+00-8.74054E-01 1.39499E+00 1.25880E+00-1.15462E+00
 -1      2543 7.20252E+00 3.02144E+00-1.66598E+00 2.07723E+00 6.02005E-01 9.73896E-01
 -1      2544 2.26935E+00-1.01183E+00 5.95833E-02-2.93477E-02 1.34419E+00 2.43746E-01
 -1      2545 4.37630E+00 6.93575E+00 3.45296E+00 5.66370E-01-7.84757E-01 1.18674E+00
 -1      2546 6.26654E+00 3.57024E+00 7.04596E-01-1.18957E+00-4.94700E-01-6.36429E-01
 -1      2547 8.88841E-03 1.05882E+00-1.46928E+00 5.31419E-01-6.15633E-01-9.68309E-01
 -1      2548 2.35057E+00 3.74918E+00-4.45866E-01 3.70727E-01-2.14857E-01-9.11671E-01
 -1      2549 3.90317E-01 2.59093E+00 2.38051E-01-1.84893E+00-1.93121E-01 1.53310E+00
 -1      2550-2.63010E+00 2.05368E+00 9.63259E-01 6.80306E-01-1.00545E-01-2.28927E+00
 -1      2551 1.98892E+00-6.23117E-01 1.28690E-01 3.13273E-01 7.21191E-01-1.57834E-01
 -1      2552-2.27795E+00 1.21094E+00-6.13678E-01-8.24489E-01 2.10965E-01 2.06868E+00
 -1      2553-5.68065E+00-6.36165E+00-6.92452E-02-1.79307E+00-5.10897E-01-1.03546E-02
 -1      2554 5.34703E-01 6.42470E-01 4.41004E-01 3.72814E-01 1.07208E+00 3.34981E-02
 -1      2555-3.59300E+00 5.51767E-01-4.12789E-01-6.79880E-01-4.78103E-01 8.03509E-01
 -1      2556 1.32177E-01-2.20967E+00-5.36843E-01 1.33617E+00-2.97972E+00 1.61162E+00
 -1      2557-1.76708E+00-1.09880E+00-6.89932E-02 1.39162E+00-2.03966E+00 1.68663E+00
 -1      2558-3.07241E+00-8.07909E-01-1.23677E-01 1.89501E+00 1.72960E+00-1.98298E+00
 -1      2559 4.29162E+00 7.37811E+00-5.00455E-01-3.25755E-01-1.19792E+00-7.70749E-01
 -1      2560 2.74974E+00 5.47388E+00 1.63041E+00 3.88126E-01 6.55746E-02 7.65481E-01
 -1      2561 2.15937E+00-3.43780E-01-2.88780E-01 5.12093E-01 1.44156E+00 2.06214E-02
 -1      2562-6.48464E+00-1.38991E+00-2.61311E+00-3.14301E-01-1.07119E-01 1.59758E+00
 -1      2563-3.84866E+00-2.94101E+00 6.70930E-01 2.14802E+00-1.56211E+00 3.07570E+00
 -1      2564-4.49148E+00-3.85465E+00-9.95087E-01 2.64864E+00-4.97270E-01-2.38689E-01
 -1      2565 1.04197E+01 1.29044E+01-3.27552E+00-1.71071E+00 1.31098E+00-5.41282E-01
 -1      2566-6.70222E+00-5.08809E+00-2.39500E+00 2.34064E+00-1.38492E+00 4.53675E+00
 -1      2567-2.88387E-01 4.15823E-01-1.97953E+00-3.79655E-01 7.44253E-01-8.65270E-01
 -1      2568-3.16052E+00-1.00660E+00 8.35046E-01-1.83667E+00 4.53380E-01 2.08346E+00
 -1      2569-4.99071E-01-1.02562E+00 1.58938E-02 1.57880E+00 1.89962E+00-1.68617E+00
 -1      2570-2.59740E+00-5.98586E-02 1.22970E+00 3.48460E-01 1.28148E+00-1.99714E+00
 -1      2571 1.36726E+00 2.24123E+00 1.78823E-01-1.42354E+00-2.82093E-01-7.06171E-01
 -1      2572 2.55137E+00-1.08364E+00-1.53889E+00-1.55718E-01 1.52654E+00 1.40264E-01
 -1      2573-1.26736E+00 1.69710E+00-2.21091E-01-5.19919E-02 2.44070E-02 2.52550E+00
 -1      2574 1.57280E+00 8.04872E+00 2.26093E+00 2.25932E+00-3.85358E+00-3.82898E+00
 -1      2575 4.79827E-01 1.35056E+00 1.16241E-01 1.32163E+00-4.86610E-01 1.44243E+00
 -1      2576 4.72332E-01-1.01311E+00-5.20418E-01 9.22394E-02 4.46863E-01 6.11819E-01
 -1      2577-5.05113E+00-1.31978E+01 1.04791E+00-4.09971E+00 3.41772E+00 1.37104E+00
 -1      2578-3.82202E+00-1.25639E+00 8.76908E-01-1.51778E+00 7.52380E-01 2.55683E-01
 -1      2579 3.66658E+00 4.64414E+00-1.20962E+00 3.49339E+00 3.46856E+00-5.35741E-01
 -1      2580-1.52972E+00-1.21574E+00 5.05516E-01-1.31387E-01 9.75850E-01-2.51155E+00
 -1      2581-1.32996E-01-1.71126E+00-4.84487E-01 2.91316E-01-1.63919E+00-3.80202E-01
 -1      2582-2.56000E+00-3.30806E-01-6.74314E-01 1.08251E+00 3.40465E-01-2.03623E+00
 -1      2583-2.68467E+00-2.05189E+00 2.79056E-01 1.26505E+00 1.09858E+00-1.80853E-01
 -1      2584 2.37617E+00 2.55890E+00 6.37539E-01 1.22183E+00 5.11375E-01-9.46293E-02
 -1      2585-4.22578E+00-1.44917E+01-2.22720E-01 2.56807E+00 3.65669E+00 9.54826E-01
 -1      2586-1.22806E+01-1.24026E+01-3.23280E+00 9.79799E-01-1.24747E+00 2.09609E-01
 -1      2587 7.13263E-01 1.80224E+00 1.28310E+00 4.49192E-01 2.30461E+00 1.45343E+00
 -1      2588 1.63554E+00-3.18797E+00-1.35372E-01 9.91935E-01 1.67365E+00 2.33280E-01
 -1      2589 2.06864E-01 4.05228E-01 1.07616E+00 7.12157E-01 6.40347E-01-3.75446E-01
 -1      2590-1.54204E+00-1.46198E+00-9.52756E-01 5.26421E-01 1.08339E+00 4.43297E-01
 -1      2591 1.38433E+00 2.02444E-01 3.51431E-01 2.73696E+00 2.21423E+00 1.30070E+00
 -1      2592-2.11128E+00-2.27247E+00-9.97635E-01 1.08556E+00 2.48210E+00 1.53953E+00
 -1      2593-1.26112E+00-1.15089E+00 3.63772E-01-2.96758E-01-2.60116E-02-1.29215E+00
 -1      2594-1.49147E+00-1.96228E+00 1.07103E-01-4.77940E-01 1.33603E+00-1.41667E+00
 -1      2595-4.38028E-01 1.95922E+00 5.56486E-01-2.26304E-01 1.95759E-01 1.69062E+00
 -1      2596 1.26415E+00-2.30403E+00-2.07848E-01-3.68464E-01 3.01856E+00 4.36235E-01
 -1      2597 3.03677E-01 1.79349E+00-3.92764E-01-1.43613E+00-2.15279E+00 1.98081E+00
 -1      2598 7.10843E+00 4.54549E+00-6.85514E-01-1.51387E+00-1.02260E+00-1.09071E+00
 -1      2599 5.82412E-01-4.62332E+00 1.58452E+00-3.57677E-01 1.43014E+00 2.37089E-01
 -1      2600-2.43835E+00-4.61605E-01-7.94315E-01-1.44738E+00 1.29150E+00 3.73595E+00
 -1      2601 2.53857E-01 6.23580E-01 1.69236E-01-2.64296E+00-1.28813E+00 8.61380E-01
 -1      2602 1.53545E-01-1.67299E-01 1.12495E+00 7.89820E-02-1.51323E+00 1.45843E-01
 -1      2603 3.09154E+00 3.12175E+00 8.89832E-01 2.44756E+00 5.51410E-01-1.85024E-01
 -1      2604 1.49612E+00-4.17603E+00-2.60922E-01 1.33753E+00 1.34623E+00-1.40452E+00
 -1      2605-6.40500E-01-3.72375E-01-8.14466E-01-1.14480E+00 1.80350E+00-1.66345E+00
 -1      2606-1.01473E+00 1.27171E+00 2.56072E-01-4.93033E-01 2.85273E-01 1.42875E+00
 -1      2607 1.57616E-01-2.01460E+00 1.45748E-01-2.33466E-02 3.94093E+00 1.87191E-01
 -1      2608-8.78091E-01-1.84854E+00 2.36155E-01-7.27514E-01-8.46820E-01-9.42744E-01
 -1      2609-9.63271E-02-6.52593E+00 9.00501E-01-2.78072E+00-1.60368E+00-1.34845E+00
 -1      2610 3.10896E+00 4.56315E+00 2.62904E+00 7.10863E-01 1.84339E+00 2.27506E+00
 -1      2611 3.05739E+00 1.56451E+00 7.87043E-01 4.31315E-01-1.24363E+00 1.09565E+00
 -1      2612-3.30175E+00-4.19478E+00 2.54888E-01 8.33499E-01-9.92721E-01-9.98117E-01
 -1      2613 9.33615E+00 9.43535E+00-6.06602E-01 5.55385E-01-1.32563E+00 1.05585E+00
 -1      2614 2.95607E+00 2.19260E+00-1.99632E+00-1.63103E+00-4.94327E-01-3.88430E-01
 -1      2615-7.77456E-01 1.09019E+00-7.08316E-02 1.14080E+00 1.21327E+00-1.27499E+00
 -1      2616-1.70356E+00 9.98686E-01 1.40467E-02 1.71302E+00 5.26278E-01-1.52057E+00
 -1      2617 2.67241E+00 2.11525E+00 2.69075E+00-1.27980E+00-1.73400E+00 1.91261E+00
 -1      2618 2.37453E+00 1.90150E+00 5.91949E+00-3.93359E-01 8.28960E-01 1.81827E+00
 -1      2619 3.54945E+00 4.98246E+00-6.76953E-01 7.74047E-02 1.00223E+00-1.75233E+00
 -1      2620-1.58992E+00-6.53258E+00-8.73007E-01 1.28997E+00-2.08189E+00 1.27810E+00
 -1      2621 4.58947E+00 8.43775E-01 7.73183E-01 1.35880E+00 1.33575E+00 1.57695E+00
 -1      2622-9.96203E-01-1.70454E+00-1.32417E-01-1.30946E+00 2.83533E-01 6.48816E-01
 -1      2623 2.63953E+00 7.40403E+00 1.29002E+00-1.67488E-01 3.78105E+00 2.52584E+00
 -1      2624 7.39522E+00 2.72197E+00-1.15633E+00 5.67218E-01 6.12705E-01 6.10592E-01
 -1      2625 3.88500E+00 5.39707E+00 1.59685E+00-1.11661E+00 7.47943E-01 4.66768E-01
 -1      2626 4.91505E-01-1.36846E-01-1.07558E+00-1.28459E+00 9.74917E-01 2.71996E+00
 -1      2627 5.61956E-01 6.65035E-01-8.11918E-01-5.20538E-01-5.13620E-01-5.59464E-01
 -1      2628-5.21336E+00-6.66972E+00-3.03966E+00-3.05172E+00 1.16197E+00-7.01624E-03
 -1      2629-1.94533E+00-6.12608E+00-3.67624E-01-1.34842E+00 4.88143E-01 8.20714E-01
 -1      2630 6.50358E-01 5.44994E-01-8.12267E-01 1.64222E-01 2.16954E+00 2.74655E+00
 -1      2631 8.70491E-01-8.49381E-01 2.31775E+00-5.64596E-01 3.89836E+00 9.54357E-01
 -1      2632-1.59261E+00-1.59084E+00-1.65020E-01-4.00246E-01 8.23580E-01 1.55669E+00
 -1      2633 4.88572E+00 2.07393E+00 1.90284E+00 4.03936E-02 2.82403E-01-1.64313E-01
 -1      2634 5.86612E+00 4.82710E+00 2.71819E+00-1.04323E+00 1.01630E+00 1.24060E+00
 -1      2635 1.36018E+00 1.71057E+00 7.97865E-01 6.03303E-01-3.05390E-01-1.45491E+00
 -1      2636 1.32709E+00 5.48793E-01-7.80466E-01-2.25755E-01 6.07333E-01-8.22098E-01
 -1      2637 7.69741E-02-2.97699E+00-7.53485E-01-1.16267E-01 2.65002E+00-1.25490E+00
 -1      2638-9.34750E-02-2.10201E+00 1.90291E+00-8.66644E-01 6.92127E-01-1.26472E-01
 -1      2639-3.33926E+00-6.93461E+00-2.84572E+00 8.65451E-01 1.77720E-01-8.10618E-01
 -1      2640 1.86257E+00 2.79786E+00 1.12003E+00 3.64176E-01 4.17081E+00-2.01673E-01
 -1      2641-4.94146E+00-3.20502E+00-1.52372E+00 2.48308E+00 3.70459E+00-2.55947E+00
 -1      2642 1.43744E+01 1.33223E+01 2.01264E-01-3.33254E-01 3.49803E+00 1.55818E-01
 -1      2643 9.14659E-01 2.19617E+00-4.80154E-01 1.68595E+00 1.56539E+00-6.72688E-01
 -1      2644-5.65616E-01 3.24685E+00-3.82023E-01 5.23761E-01-3.18236E-02 5.31760E-01
 -1      2645-2.12531E+00-2.33149E+00-2.74985E-01 2.56498E-01 1.17392E+00 6.77964E-01
 -1      2646-4.94841E-01 2.94791E+00 1.10861E+00 1.11277E-01-4.63228E-02-1.60743E+00
 -1      2647-4.09003E-01 3.00064E+00-4.47923E-01 7.82562E-01-5.61573E-01-1.69974E+00
 -1      2648-9.58487E-01 3.23464E+00 1.08032E+00 3.17629E-01 1.59178E-01-1.28909E+00
 -1      2649 7.17394E+00 5.19193E+00-1.68804E-01 1.24710E+00 1.53313E+00 7.65518E-02
 -1      2650 2.59133E+00 1.23597E+00 6.38771E-01-1.65052E+00 1.23855E+00-8.83640E-02
 -1      2651 5.79097E+00 3.23426E+00 1.10007E-02 3.15213E-01 1.68395E+00-1.24066E+00
 -1      2652 1.21462E+00-2.57237E-02-4.23227E-02-7.43875E-01 1.23797E+00-9.14315E-02
 -1      2653 9.10261E-02-1.06962E+00-2.31702E-01-4.67370E-01 1.32730E+00-4.47014E-02
 -1      2654 3.55475E+00-6.24904E-01-1.49236E+00-4.17993E-01 1.94191E+00-2.61544E-01
 -1      2655-5.76391E-01 9.42881E-01-1.41486E+00 6.97243E-01 1.13359E+00-1.12425E+00
 -1      2656 3.47896E+00 2.56340E+00 1.54762E+00-8.26033E-01 5.18060E-01-8.33305E-01
 -1      2657-1.35442E-01 1.86622E+00 9.28938E-01-1.89834E+00-1.42901E+00-7.07005E-01
 -1      2658 3.18529E+00 3.91696E+00 1.08337E+00-1.05882E+00-3.46587E-01-5.58416E-01
 -1      2659-2.34766E+00-1.12796E+00-1.82308E+00 4.36948E-01-3.27172E+00 1.07389E+00
 -1      2660 5.78856E+00 1.94138E+00-1.29487E+00-2.06553E-01-1.55472E+00 1.24159E+00
 -1      2661 5.31309E+00 8.94619E+00 3.10662E+00 6.81975E-02-1.07973E+00-1.72127E+00
 -1      2662 9.75172E+00 1.09437E+01 1.19602E+00 1.23907E+00-1.33754E+00-1.60067E+00
 -1      2663 2.05639E+00 2.65007E+00-9.11942E-03-1.32620E+00 1.23117E-01 1.10981E+00
 -1      2664-2.62640E-01 2.42835E+00-5.74016E-01 1.40799E+00 5.18659E-01-1.35397E+00
 -1      2665 1.03398E+00-1.20667E+00 9.88112E-01-3.51109E-01 1.74590E+00 4.75863E-03
 -1      2666-2.77879E-01 2.99099E+00 9.08020E-01 1.70697E-01-2.58997E-01 1.22522E+00
 -1      2667 2.69020E-01 2.86180E-01 1.57638E+00 7.04384E-02-4.53825E-01-1.35910E+00
 -1      2668-3.39478E+00 1.34183E+00-6.99793E-01 2.12058E+00-2.36115E-04 1.78300E+00
 -1      2669-2.56780E+00-2.03200E+00-1.16938E+00-1.16641E+00-3.64079E+00-1.99208E+00
 -1      2670-9.15795E-01 2.25704E+00-2.54679E-01 2.25985E+00 1.39795E+00-1.82838E+00
 -1      2671 9.15725E+00 7.16018E+00 2.41002E+00-1.56761E+00 9.32293E-01 7.03626E-01
 -1      2672-1.95625E+00-6.38122E+00-1.18255E+00-2.08719E+00 2.16640E-01-8.08490E-01
 -1      2673 4.35953E+00 4.72743E+00 3.00676E-01-1.74274E+00 3.25283E-02 9.10878E-01
 -1      2674-2.81762E+00-1.88656E+00-1.06758E+00-6.41968E-01-5.02093E-01 1.14812E+00
 -1      2675 2.74930E+00 4.74895E-01 6.18609E-01 5.37380E-01-8.43989E-01 6.80805E-01
 -1      2676 1.93387E+01 1.63519E+01-1.87856E+00-4.79107E-01 2.38319E+00-3.53696E+00
 -1      2677-2.38031E+00-2.17006E+00-8.61893E-01-4.61798E-01 8.57028E-02-1.43086E+00
 -1      2678-6.87849E-01 1.27814E+00-6.05927E-01 1.63106E+00 2.75124E+00 1.86602E+00
 -1      2679 3.39579E-01-5.88645E-01 3.77742E+00-1.71276E+00 2.69933E+00 1.93681E+00
 -1      2680 4.63184E-01-1.23034E+00-1.15551E+00-1.69553E+00 1.42430E+00 1.41312E+00
 -1      2681 6.98243E+00 3.96347E+00-1.51476E-01-3.86414E-01 2.56367E-01 2.48697E+00
 -1      2682 3.44795E+00 2.27636E+00 1.64746E+00-2.60825E+00-1.67233E+00 1.69906E-02
 -1      2683 1.87356E+00 1.72669E+00 3.40825E-01 3.05389E-01-9.59917E-01-4.95240E-01
 -1      2684 2.13960E+00-5.34514E-01 1.11599E+00 4.54756E-01 2.16699E+00-3.63010E-01
 -1      2685 1.30064E+00-6.17931E-01-9.78897E-01 8.08027E-01 2.27461E+00-1.69655E+00
 -1      2686 8.43740E-01-2.98249E+00 3.19090E+00-4.14109E-01 3.45582E+00-4.96165E-01
 -1      2687-1.90262E-01-1.71537E+00-3.77651E-01-6.74303E-01 7.95618E-01 1.11457E+00
 -1      2688-2.16907E+00-6.13767E+00-1.22984E-01-3.13522E+00 2.95120E+00 1.06036E+00
 -1      2689 7.83623E-01 3.02097E+00 5.40147E-01-7.49496E-01-1.02641E-01 3.84356E-01
 -1      2690 1.84513E+00 4.26858E-01 6.91026E-01 1.53089E+00-4.38018E-01 7.91908E-01
 -1      2691-2.48634E-01-1.01827E-01-2.45258E-01 4.00201E-01 4.74593E-01-1.46887E+00
 -1      2692-2.36869E+00 9.77948E-01 7.84135E-01 4.04027E-01 3.28153E-01-1.58734E+00
 -1      2693 5.39089E+00 3.33337E+00 5.41510E-01 1.69548E+00 1.17269E+00 2.26498E+00
 -1      2694 3.62470E+00 3.70007E+00-8.01482E-01-5.15125E-01-4.10841E-01 1.94508E-01
 -1      2695-3.90598E+00-2.30172E+00-8.23732E-01-6.91759E-01-1.04077E+00 9.16380E-01
 -1      2696-1.60911E+00 8.50319E-01 1.59943E+00-2.50014E-01-4.35623E-01-2.55052E+00
 -1      2697 3.36419E+00 3.87116E+00 8.78651E-01-4.22062E-02 6.29174E-02 1.26466E+00
 -1      2698 1.36342E+00 3.47369E-01 1.80522E+00 1.19107E+00-7.71512E-01-1.67136E+00
 -1      2699 3.87747E+00 7.49713E-01-4.91044E-01-2.72767E-01 1.19895E+00-8.96047E-01
 -1      2700-1.77314E+00-2.77709E+00 3.05774E-01-7.90875E-02-1.39549E-01-1.63838E+00
 -1      2701 1.01611E-01-1.05807E-01 1.58296E+00 4.39107E-01 2.56828E+00-7.59790E-01
 -1      2702-1.69566E+00-2.85059E+00-2.30979E-01-5.35355E-01 3.23188E-01-1.21433E+00
 -1      2703-7.87884E-01-1.87591E+00 6.70569E-01 2.00532E-01 1.46952E+00-1.59597E-01
 -1      2704 7.70886E-01 1.98457E+00-3.33089E-01-2.32266E-01 3.11078E-01 9.62735E-01
 -1      2705 2.71776E+00-1.27790E+00-3.67631E-01 1.11291E+00 1.19939E+00-3.35987E-01
 -1      2706-9.04996E-01-4.31659E-01 6.16148E-01-1.18282E+00 3.97993E-01 1.95470E+00
 -1      2707-1.43506E+01-1.79333E+01-9.91838E-01-1.07838E+00-3.20784E+00 1.08140E+00
 -1      2708 1.15983E+01 1.01899E+01-1.14466E+00 9.46990E-02-1.64520E+00 5.10869E-01
 -1      2709-1.13878E+00 7.59895E-01 9.69965E-01-1.60965E+00-5.55387E-01-1.76081E+00
 -1      2710 1.35593E+00 2.98478E-01-7.62257E-01 8.45023E-01-1.44261E-01 7.29555E-01
 -1      2711 9.01275E-01 3.94162E+00-8.36945E-01 1.74029E-01 2.08337E-01 9.05207E-01
 -1      2712 5.17326E-01-3.47654E+00-8.92092E-01 7.33228E-01 2.05735E+00-3.24328E-02
 -1      2713 3.02121E+00 2.77737E+00 1.16542E+00-1.14175E+00 8.48478E-01-1.73838E-01
 -1      2714-1.95528E+00-4.29710E+00-1.54018E+00-2.09484E-01-4.71979E-01-1.25342E+00
 -1      2715-1.88677E+00-3.52716E-01 1.31720E-01-1.50416E+00 8.81710E-01 1.27706E+00
 -1      2716-1.92540E+00-6.10921E+00 5.51319E-01-2.41831E-01 1.97823E+00-3.09927E-01
 -1      2717 2.57744E+00-6.78708E-01-5.39797E-01-1.87768E+00 1.76050E+00 5.14134E-01
 -1      2718 1.75154E+00 1.19014E+00-1.43722E+00 3.47670E-01 2.79789E-01-4.81059E-01
 -1      2719 3.55028E+00 7.31582E+00-1.20657E+00-1.55561E+00 2.68972E-01 4.06982E-01
 -1      2720 6.43092E+00 3.67818E+00 2.39264E-01 1.06180E+00-1.28059E+00-2.58485E-01
 -1      2721 4.07946E+00 3.27665E+00-6.86000E-01-7.21071E-01 1.73085E+00-1.01423E+00
 -1      2722 4.92901E+00 5.35905E+00 2.70521E+00 1.05924E+00 1.35525E+00 1.30584E+00
 -1      2723 1.25006E+01 1.17786E+01 1.54808E+00 1.63025E+00-3.28287E+00 1.25335E+00
 -1      2724-8.17027E-01 6.99652E-01 1.05605E+00 8.97653E-02 1.33193E+00-2.56121E+00
 -1      2725-3.01166E+00-1.09515E+00-2.97935E+00 1.52155E-01 2.48153E+00-2.09065E+00
 -1      2726 1.01946E+00-1.65635E-01-1.33817E+00-1.19399E+00 1.51057E+00-1.98968E+00
 -1      2727 3.25398E+00 9.08751E-02 3.48070E-01 6.05282E-01 1.35378E+00-8.67440E-01
 -1      2728 2.90168E+00 4.80342E+00 2.59066E+00 1.03031E+00-1.47501E-01-7.82808E-01
 -1      2729 4.03553E+00 7.42572E+00 2.18008E+00 1.37197E+00 2.84873E+00 1.89242E-01
 -1      2730 1.51034E+00 1.43865E+00 1.42226E+00-3.25419E+00 9.82169E-01-1.18609E+00
 -1      2731 2.74435E+00 2.27796E+00-1.40750E+00 1.05095E+00 8.86625E-01 8.31966E-01
 -1      2732 2.89262E+00 5.69626E+00 2.23942E+00 1.30774E+00-5.33278E-01-3.10368E-01
 -1      2733 2.12074E+00 2.78661E-01-6.40912E-01-2.20960E-01-3.86847E-01-5.04969E-01
 -1      2734-1.74083E+00-2.87652E+00-5.57746E-01-4.32692E-01 1.02470E+00-6.41523E-01
 -1      2735 6.47090E-01 1.44064E+00 6.07920E-01 8.69627E-01-1.74153E-01 1.23325E+00
 -1      2736-3.18593E+00-3.29956E+00-5.75007E+00-1.41173E+00-2.18740E+00-3.18286E+00
 -1      2737-1.36999E-01-2.83549E+00 4.76338E-01 2.82548E+00 3.83353E+00-1.09745E+00
 -1      2738 1.23795E+00 2.94400E+00-3.54728E-01-1.50238E+00 4.32282E-01 2.76689E-02
 -1      2739 1.21347E+01 3.01601E+00 1.66473E+00-3.14398E+00 1.76502E+00-5.99100E+00
 -1      2740 6.22866E+00 6.13202E+00 1.04217E+00 1.09508E+00-3.56164E+00-8.96593E-02
 -1      2741-3.20363E-01-1.37151E+00-1.61596E+00 1.66450E+00 2.92295E-01-1.89431E+00
 -1      2742 1.14155E+01 4.25086E+00-1.68395E+00-1.72544E+00 7.13557E-01 9.75316E-01
 -1      2743 4.35213E+00 1.80872E+00 5.16770E-01-9.72550E-01 5.43868E-01 5.13950E-01
 -1      2744-7.86103E+00-3.34971E+00-4.45785E-01 9.57922E-01 1.26527E+00 2.06428E+00
 -1      2745 3.52000E+00 7.55125E-01-2.54154E+00-7.69326E-01-6.27045E-01-5.43258E-01
 -1      2746-3.70992E-01 7.40104E-01-1.55314E-01-2.96224E+00 1.42635E+00 1.51061E+00
 -1      2747-2.49229E+00-3.75188E+00-2.59656E+00-1.74185E+00 4.03658E+00 1.95142E+00
 -1      2748-1.92154E+00-3.41717E+00-1.35670E+00-2.23169E+00 2.45165E+00 1.09626E+00
 -1      2749-1.40190E+00-2.74176E+00 3.59707E-01-1.13941E+00 1.84624E+00 1.05234E+00
 -1      2750-2.64195E+00-4.09246E+00-3.04042E+00-2.20919E+00 2.20217E+00 1.47622E+00
 -1      2751 1.64417E+00 1.84644E+00-6.00315E-01 3.94708E-01 1.50705E-01 7.23573E-01
 -1      2752 5.95447E-01-9.76706E-01-1.31404E-01-1.22133E+00 1.59857E+00 8.17244E-01
 -1      2753 1.93248E+00 4.54748E+00 4.16673E+00 5.63387E-01 3.50159E+00 3.64536E-01
 -1      2754 5.03382E+00 6.79439E+00 2.06998E+00 2.12159E+00-2.35750E-01-1.12683E+00
 -1      2755-1.13137E+00-9.96387E-01 6.56064E-01-1.90074E-01 7.62375E-01 1.17727E+00
 -1      2756 2.39430E+00 3.35516E+00 1.61377E+00 7.00851E-01-8.62756E-01-2.61939E+00
 -1      2757-1.15953E+00 9.46026E-01 1.24931E+00 4.91440E-01 1.82987E-01 1.86467E+00
 -1      2758 4.41288E+00 2.48648E+00 1.54897E+00 1.70144E-01 9.55482E-01-7.65046E-01
 -1      2759-7.85502E+00-7.54509E-01-4.46823E-01 1.48311E+00 1.43573E+00-1.73550E+00
 -1      2760-2.61139E+00-5.60748E+00-1.38915E+00 8.30546E-01-3.24075E-01-3.54410E-01
 -1      2761 5.71263E-01 8.25294E-01-1.35822E-01-4.81551E-01 7.80554E-01 6.08728E-01
 -1      2762-8.75857E-01-3.56281E-01-2.24575E+00 2.66262E+00 2.34165E+00 1.83880E+00
 -1      2763 2.73979E+00 5.34322E+00-6.71869E-01-1.79918E+00 1.80678E+00 3.18580E-01
 -1      2764 3.21319E+00 2.92240E+00-6.07058E-01-2.19948E+00 1.27354E+00 7.45584E-01
 -1      2765-9.17153E-01-4.75524E+00-5.90174E-01 1.36569E+00 1.67208E+00-7.12061E-02
 -1      2766-1.38135E+00-1.99834E+00-2.94663E-01-2.69429E-01-6.35015E-01-2.10468E+00
 -1      2767-1.12526E+00-1.84366E+00-3.10731E-02-1.15219E+00 6.41729E-02-2.03113E+00
 -1      2768 4.09615E+00 1.07332E+00 1.86570E-01 1.42920E+00-1.28304E+00 2.84907E-01
 -1      2769 7.32470E-01-2.63867E-01 2.20555E-01-7.65987E-01 9.44621E-01 7.48679E-01
 -1      2770 3.01646E+00 8.18025E-01 2.97352E+00 6.41751E-01 2.80369E+00 1.99284E+00
 -1      2771-1.10511E+01-9.93369E+00-5.90988E+00-8.78985E-01-1.12681E+00 6.15433E-01
 -1      2772 3.09765E+00 4.37908E+00 4.40129E-01-1.12633E-01-4.01036E-01-1.62634E+00
 -1      2773-1.96004E+00-1.38709E+00 6.52013E-01-3.49357E-01 1.63157E+00 1.89728E+00
 -1      2774 1.10003E+00 2.05329E+00 2.08112E-01-2.39713E-01 2.43586E-01-1.37580E+00
 -1      2775 9.08862E-01 7.66656E-01-1.68337E-01-1.45815E-01-8.03541E-01-1.16544E+00
 -1      2776 1.31179E+00-4.40746E-01-9.83759E-01 4.11421E-01 6.69534E-01 2.41289E-01
 -1      2777 2.26014E+00 2.38663E+00 6.46615E-01-8.21772E-01 1.57609E+00 5.08471E-01
 -1      2778-4.51065E+00-3.33135E+00 5.02580E-01 1.06068E+00 1.58421E+00-2.61154E-02
 -1      2779 2.12355E+00 6.69932E+00 2.96348E+00 9.37237E-01 1.61856E+00 1.28069E+00
 -1      2780 2.32536E+00 2.19837E+00 4.15498E-01-2.07546E+00 5.67836E-01 8.57653E-01
 -1      2781 8.63748E+00 1.02203E+01 3.43650E+00-1.24281E+00 2.17912E+00 2.45492E+00
 -1      2782 1.01517E+01 9.08216E+00-9.67707E-01 1.35781E+00 1.44597E-01 1.54774E+00
 -1      2783 3.40516E-01 1.64567E+00 7.66984E-01 2.15496E-01-6.97960E-01-5.64535E-01
 -1      2784-3.12461E+00-3.58355E+00-5.39571E-01 5.72734E-01 1.30377E+00 1.36545E+00
 -1      2785-1.86765E+00-2.38104E+00-9.22411E-01 5.68054E-01 1.45292E+00 8.46888E-01
 -1      2786 6.98898E-01-4.96337E-01 1.84841E-01-8.09601E-01 8.39501E-01 1.13980E+00
 -1      2787-1.75830E+00-2.57575E+00-6.16339E-02 3.41823E-01 1.13276E+00 9.27460E-01
 -1      2788 4.03606E+00 4.10857E+00 1.09906E+00 2.61068E-01 4.41468E-01-1.75489E+00
 -1      2789 2.53156E+00-7.85775E-01-2.09180E-01 2.21972E-01 1.87301E+00-4.99388E-01
 -1      2790-2.71878E+00-5.62104E+00-2.55207E+00-1.27695E+00 2.57484E+00 1.74433E+00
 -1      2791 3.10794E-01-2.10805E+00 1.25210E+00-9.10350E-01 1.74927E+00 1.19804E+00
 -1      2792 3.93433E+00 3.40669E+00 8.57832E-01-5.49212E-02 8.48947E-01 3.69538E-01
 -1      2793-2.95985E+00-6.28050E+00-2.00468E+00-4.36030E-01-8.52540E-01 1.00292E+00
 -1      2794 1.83346E+00 3.52849E+00-1.55519E+00 1.16551E+00 3.11910E+00-5.66006E-01
 -1      2795 1.97890E+00-6.18259E-01 7.48333E-01-2.09641E+00 1.37121E+00 1.08671E+00
 -1      2796 3.00696E+00 2.94897E+00 1.92183E+00 8.67128E-01-7.54125E-01 1.18366E-01
 -1      2797-3.27764E-01-1.00396E+00 3.80565E-01 5.29364E-01 2.83619E+00-6.32538E-01
 -1      2798-3.13639E+00-4.97007E+00-2.78945E-01 1.08721E+00 1.14041E+00 1.14600E+00
 -1      2799-2.51736E+00-3.82733E+00-1.06574E+00 1.14442E+00 1.00989E+00 1.18730E+00
 -1      2800-1.33376E+00 4.66478E-01 4.11748E-01-6.77479E-01 3.78417E+00 1.75901E+00
 -1      2801 4.36823E+00 3.75101E+00 1.99980E+00 5.51911E-01 5.43863E-01-1.54647E+00
 -1      2802 1.23835E+00 1.42340E+00-1.43689E+00-3.43804E-01-6.91865E-01-4.85668E-02
 -1      2803 8.15293E-01 2.27938E-01 2.18143E-01 1.85789E-01 1.54873E+00-2.21369E-01
 -1      2804 5.22965E+00 8.33209E+00 2.63770E+00-6.15770E-01 2.22388E-03 2.14618E+00
 -1      2805-6.81048E-01 2.67617E+00 8.96504E-03-1.07292E+00 3.62094E+00-1.11419E+00
 -1      2806 4.73445E+00 1.08886E+01-1.33952E+00-5.95304E-01-9.99059E-01 8.59874E-01
 -1      2807 1.87025E+00-7.15898E-01 7.30543E-01 1.02742E+00 1.19732E+00 2.69132E-02
 -1      2808-9.77096E-02 1.18204E+00 4.55766E-01-5.02865E-01 4.80377E-01 1.03798E+00
 -1      2809-1.88822E+00-4.57353E+00 5.54424E-01 1.01909E+00 3.37724E-01 1.21680E+00
 -1      2810 4.71118E+00 6.44808E+00 1.09049E+00-1.71722E-01-2.77072E-01 1.63836E+00
 -1      2811 4.44416E-02 4.29319E-01-1.32931E-01-4.32578E-01 1.52005E-01 1.48105E+00
 -1      2812-1.68326E+00-6.34810E-01 1.20378E+00-2.16652E+00 1.21001E+00 2.54888E+00
 -1      2813-3.18941E+00-3.05545E+00-1.56920E+00 1.79921E-01 8.46027E-01 1.78625E+00
 -1      2814 1.89010E+00 4.11562E+00 2.92816E+00-8.04670E-02 1.28289E+00-1.08684E+00
 -1      2815 3.98782E+00 5.83790E+00 6.27973E-01 3.02688E-01 3.38970E-01-9.29300E-01
 -1      2816 5.18965E+00 2.39934E+00 1.52148E+00 2.10731E+00 1.24094E+00 3.27783E-01
 -1      2817 5.60055E+00 4.40774E+00 1.31481E-01-3.12358E+00 2.36939E+00-1.74063E+00
 -1      2818-4.02870E+00-1.06113E+00-2.58445E+00 9.19245E-02 2.10311E+00-2.59849E+00
 -1      2819-9.72257E+00-2.94563E+00 8.90199E-01-1.63006E-01 2.44930E+00-3.73773E+00
 -1      2820 1.12078E+00 6.67434E-01 6.65268E-01 7.26651E-01 3.22320E-01-9.42953E-01
 -1      2821-1.31130E+00-6.11813E-01 1.23967E-02 2.17085E-01 2.07262E+00 1.35278E+00
 -1      2822-3.39805E-01-7.09136E-01-5.68633E-01-1.03742E+00 1.46542E+00 1.09132E+00
 -1      2823 5.11167E+00 5.22797E+00 1.58105E+00 1.80515E+00 2.45380E-01-9.09255E-01
 -1      2824 3.64068E+00 3.77575E+00 1.47148E-01-6.69437E-01-1.15974E+00-1.59615E-01
 -1      2825 1.35091E+00 1.23861E+00-7.50787E-02-7.48136E-01 3.17861E-01 4.83974E-01
 -1      2826 1.00696E+00-5.56660E-02 2.47488E-01 1.12450E+00-1.56823E+00 1.52717E+00
 -1      2827 1.26877E+00 1.50426E+00 1.16351E+00-6.06000E-01-2.25787E-01-1.09090E+00
 -1      2828 4.83072E+00 1.15052E+00 3.58135E-01 1.33637E+00 9.81394E-01 1.38990E+00
 -1      2829 3.14297E+00 4.12393E+00-6.52052E-01-1.84689E-01-6.73427E-01-9.77510E-01
 -1      2830 5.08297E+00 8.97910E+00 9.45717E-01 1.29837E+00 2.85082E-01-1.27167E+00
 -1      2831 9.56510E-01 3.31668E+00-1.14096E+00 6.90837E-01 7.02699E-01-1.10758E+00
 -1      2832-2.85650E+00-8.11594E+00-6.77765E-01-2.70237E+00 1.09369E+00 2.11189E+00
 -1      2833-1.93883E+00-9.53401E+00-4.15985E-01-1.59161E+00 4.03365E+00-3.56961E-01
 -1      2834 6.50425E-01 3.17302E-01-5.83186E-01-2.63243E-01-2.97035E-01 8.62648E-01
 -1      2835 3.57991E+00 4.41137E+00-1.10849E+00-1.99672E+00 1.04644E+00 8.71106E-01
 -1      2836-2.52677E-01-4.02412E+00 4.79434E-02-5.36953E-01 1.26749E+00-6.75878E-01
 -1      2837 1.73503E+00 4.55797E-01 3.63814E+00 1.13197E+00 8.54586E-01-1.44582E+00
 -1      2838 4.28816E+00 6.85213E+00 1.07194E+00 1.06205E+00 7.69190E-01-1.04207E+00
 -1      2839 6.75507E+00 9.30445E+00 3.06601E+00-6.07845E-01 1.51605E+00-1.59945E-01
 -1      2840-8.45549E+00-5.43226E+00-2.27262E-01-2.42235E-01 1.53215E+00 3.47426E-01
 -1      2841 1.71497E+01 1.90293E+01-5.28444E-01 1.83819E-01 3.21104E+00 1.01433E+00
 -1      2842 1.57172E+01 1.78525E+01-7.69237E-01-1.64644E+00 2.84453E+00 7.54009E-01
 -1      2843 2.49987E+01 1.82484E+01-5.87379E-01-5.87276E-01 6.04835E-01-1.66363E+00
 -1      2844 1.25425E+01 1.29552E+01 1.63720E+00 3.57969E-01-2.56025E+00-1.92725E+00
 -1      2845 1.28625E+01 9.73722E+00 1.21852E+00 1.28470E+00-3.19324E-01-9.34412E-01
 -1      2846 1.55586E+01 1.58095E+01 2.92479E-01 1.20230E+00-2.03384E+00 2.09403E+00
 -1      2847 1.04081E+01 1.04390E+01 3.55806E+00 6.82725E-01-2.80611E+00 2.44092E+00
 -1      2848-1.35205E+01-1.28954E+01-4.68536E+00-9.83748E-03 3.70566E-01-1.12676E+00
 -1      2849 1.27167E+01 1.41308E+01-2.49793E+00-1.80321E+00-3.20250E-01 8.01767E-01
 -1      2850-1.55686E+01-1.42423E+01-5.54222E+00 7.24515E-01-4.30175E-01 1.38704E+00
 -1      2851 6.57378E+00 1.12585E+01 1.35739E+00 6.42226E-01-5.01432E-01 4.67048E-01
 -1      2852-2.06151E+01-2.74680E+01-7.58351E-01-1.17122E+00-2.33382E+00 1.20402E+00
 -1      2853 9.22756E+00 5.98447E+00 9.07414E-01 1.41601E+00 3.13914E-02 6.36295E-01
 -1      2854 1.96724E+01 2.09268E+01-1.83296E+00-2.90816E+00-3.79678E-02-1.20703E-01
 -1      2855 6.98581E+00 5.68583E+00 4.00042E+00-2.40542E+00-3.70024E-02 2.16559E+00
 -1      2856 1.25083E+01 6.74934E+00-1.13134E+00-1.33518E+00-4.61639E-01 3.54144E+00
 -1      2857 1.19523E+01 1.48093E+01 1.33916E+00 7.08686E-01-2.74266E+00 1.90938E+00
 -1      2858 1.75911E+01 1.88863E+01-4.41897E-02 1.32014E+00-3.24880E+00-4.10729E+00
 -1      2859-1.23603E+01-1.86635E+01-4.02689E+00 2.17274E+00 1.27599E+00-6.46615E-01
 -1      2860-1.52814E+01-1.11670E+01-3.93366E+00 6.21909E-01-1.91572E+00-7.05945E-01
 -1      2861-8.25106E+00-9.20620E+00-2.93633E+00 5.96014E-01-4.64435E-01 8.29610E-01
 -1      2862 7.93147E+00 7.07416E+00 5.04424E-02 8.80095E-01-9.29772E-01-2.82041E+00
 -1      2863 7.46842E+00 7.39123E+00 1.28172E+00 1.75004E-01-2.15536E-01-3.25578E-01
 -1      2864 3.28068E+00 6.10834E+00 2.14104E+00-5.48184E-01 1.63629E-01-1.27495E+00
 -1      2865 2.39370E+01 1.77754E+01 1.55508E-01 1.83159E-01 5.84290E-01-2.38667E+00
 -1      2866-1.38584E+01-1.67481E+01-3.46254E+00-1.19584E+00 3.18602E-01 2.26174E-01
 -1      2867 9.27458E+00 1.21530E+01-4.39474E-01 4.89777E-01 1.56819E-01-2.16248E-01
 -1      2868 8.50243E+00 7.93510E+00-1.67336E-01-1.29870E+00 1.35096E+00-8.99082E-01
 -1      2869-5.71839E+00-8.44845E+00-1.25169E+00 8.41456E-01-6.84396E-01-1.11602E+00
 -1      2870 2.51354E+01 2.44779E+01-1.33106E+00 8.00705E-01 2.84842E+00-2.18664E+00
 -1      2871-1.64747E+01-1.27589E+01-7.11528E-01 1.90912E+00-3.66499E-01-3.61664E+00
 -1      2872-9.13662E+00-9.74645E+00-5.10620E-01 3.09987E-03 3.88448E-01 1.31645E+00
 -1      2873 1.04742E+01 1.21376E+01-2.23093E-01-3.49281E-02 2.78797E+00 9.88148E-01
 -1      2874 2.23869E+01 1.96507E+01 2.04893E+00 2.49252E+00 1.16662E+00 9.20822E-01
 -1      2875-1.27285E+01-1.43065E+01-1.18873E+00 1.06021E+00 4.75487E-01-2.13392E-01
 -1      2876 8.37384E+00 1.30069E+01-1.16745E-02 3.69916E-01-1.21065E+00-1.06877E+00
 -1      2877 1.44389E+01 1.42780E+01-1.09463E+00 2.34239E+00-2.54646E+00-1.69750E+00
 -1      2878-1.97047E+01-2.08340E+01-3.45272E+00-7.36886E-01-5.39520E-01-4.19971E-01
 -1      2879-1.00056E+01-1.05877E+01-6.41464E+00-9.94159E-01 3.58895E-01 2.82103E-01
 -1      2880 2.37255E+01 1.28173E+01 1.33054E+00 2.07625E+00 1.96065E-01 5.55668E-01
 -1      2881-1.03798E+01-1.00443E+01-4.74867E+00 1.35680E+00-2.64044E+00-7.53950E-01
 -1      2882 5.49302E+00 6.55824E+00 1.13197E+00 7.46760E-01 1.67500E+00-6.04971E-02
 -1      2883 1.96573E+01 2.14624E+01 2.08077E+00 1.58018E+00 2.20993E+00 8.37515E-01
 -1      2884-2.47449E+01-2.58458E+01-5.07834E-01 2.76665E+00-3.44090E+00 3.03006E+00
 -1      2885 1.31672E+01 1.24970E+01 4.84201E+00-3.86955E-01 2.92220E+00-2.52485E+00
 -1      2886 2.14061E+01 1.74724E+01-1.53714E+00 3.14605E-01 7.63656E-01 1.54810E+00
 -1      2887 9.63735E+00 8.25779E+00 3.78093E+00-1.88253E+00-1.49657E+00 2.31377E+00
 -1      2888 2.09683E+01 2.03981E+01 1.42119E+00-1.89547E-01-3.84715E+00 3.01824E+00
 -1      2889-9.06935E+00-8.32368E+00-3.62895E+00-1.24227E+00 8.10040E-01-1.14111E+00
 -1      2890 2.16481E+01 1.39138E+01-1.20513E+00 1.78421E-02-3.49787E+00-1.40254E+00
 -1      2891 7.23667E+00 6.23103E+00-2.13552E+00 4.70690E-01-1.02240E+00-3.23447E+00
 -1      2892 2.65634E+01 2.26211E+01 6.13682E+00 1.14795E-01-4.73091E+00 3.70353E+00
 -1      2893 1.64857E+00 1.36597E+00-1.59959E+00 8.69291E-01 1.36783E+00 2.28077E+00
 -1      2894 1.88984E+01 1.67984E+01-1.07731E+00 6.44273E-01-1.86853E-01 2.83833E+00
 -1      2895 1.59188E+01 1.84862E+01-2.34257E+00-9.76339E-01-1.39721E+00-4.33457E-01
 -1      2896 1.55266E+01 2.06233E+01-4.47067E-01 3.76115E-01 3.76961E+00-1.84228E+00
 -1      2897-2.00863E+01-1.68004E+01-9.70540E-01-4.04177E+00-8.77534E-01 1.02299E+00
 -1      2898 1.93835E+01 2.06211E+01 2.24601E+00 5.29989E-01 5.17671E+00-1.96585E-01
 -1      2899-2.51631E+01-2.46154E+01-4.33717E+00 1.36827E+00-1.04838E+00 1.49494E+00
 -1      2900 9.53305E+00 9.81367E+00 3.18458E+00-2.97356E-01 3.68993E+00-5.44949E-01
 -1      2901-1.28327E+01-1.12067E+01 7.65857E-01 1.67824E+00-3.36287E-01 5.18780E-01
 -1      2902-2.08053E+01-1.48682E+01-6.83486E+00-2.07286E+00-6.55439E-01 8.90559E-01
 -1      2903 2.16500E+01 2.01721E+01 2.80291E+00-2.01099E+00 3.13808E+00-3.92631E+00
 -1      2904-2.97670E+01-2.34861E+01-1.06946E+00-8.80091E-01-1.80416E-01-5.26249E-01
 -1      2905-1.78888E+01-1.78663E+01-3.77318E+00 1.52774E+00 2.42734E+00-4.07015E-01
 -1      2906-3.57369E+01-3.82715E+01-1.24734E+01 6.21042E-01 4.26091E+00-3.40607E+00
 -1      2907-3.22782E+00-4.51077E+00-1.22361E-01 8.85369E-01 2.55702E-01 2.30335E+00
 -1      2908-2.42442E+01-2.36592E+01-6.81744E-01 8.24947E-02-1.05351E-01-3.02851E+00
 -1      2909-2.47082E+01-2.42601E+01-8.45463E-01 3.64185E-01 8.22533E-01 2.10636E+00
 -1      2910-3.10142E+01-3.19374E+01-2.59015E+00-1.42731E+00 1.10065E+00 1.23283E+00
 -1      2911 1.39469E+01 1.37640E+01 1.91244E-01-6.56793E-01-1.25088E+00 2.32783E+00
 -1      2912 7.31983E+00 4.09200E+00-2.40976E+00-1.03730E+00 1.29888E+00-3.61702E+00
 -1      2913-2.23082E+01-2.25487E+01-2.50582E+00 2.82372E-01-2.64207E+00 6.03195E-01
 -1      2914 8.63413E+00 1.00340E+01-1.22594E+00 5.66511E-01 8.12124E-01 2.70634E+00
 -1      2915 6.50973E+00 9.07722E+00-2.47510E+00-9.69026E-01 1.56897E+00-4.81839E-01
 -1      2916-3.64518E+01-4.09874E+01-5.53192E+00-4.26491E+00-5.78401E+00-8.65452E-01
 -1      2917 1.13804E+01 1.54227E+01-3.63671E-01-5.19545E-02-3.31245E+00-7.22612E-01
 -1      2918-2.22194E+00-2.42418E+00-1.17078E-01 6.26664E-02 2.49839E-01-1.58188E+00
 -1      2919-2.47019E+01-2.20748E+01-4.10215E+00-4.09217E-01-1.19410E+00-8.09478E-01
 -1      2920-2.22201E+01-2.54287E+01-8.66896E+00-4.68173E+00 3.64337E+00 8.25644E-01
 -1      2921-1.92890E+01-2.29854E+01-8.81062E+00 2.37473E+00 3.62386E+00-9.14349E-02
 -1      2922-3.13819E+01-3.04130E+01-8.44653E+00-7.95529E-01-7.54537E-01 3.97475E+00
 -1      2923-1.25566E+01-1.43001E+01-5.10427E+00 1.61267E+00 1.45525E+00-8.89249E-01
 -1      2924-3.34414E+01-3.08301E+01-8.51554E+00 1.00514E+00-4.07548E+00-2.62601E+00
 -1      2925 5.88541E+00 6.22072E+00-1.20347E+00-5.16391E-01 3.06896E+00 2.38476E-01
 -1      2926-2.21852E+00-3.34548E+00-3.31495E+00 6.44583E-01 1.27102E+00 2.54120E+00
 -1      2927-2.89983E+00-2.28922E+00-1.09476E+00 8.18436E-02-7.06249E-01 1.94039E+00
 -1      2928-3.87917E+01-3.31105E+01-6.97906E+00 1.85807E+00-1.02530E+00 2.01331E+00
 -1      2929-3.66499E+01-3.80651E+01-6.82611E+00 2.77494E+00-5.80571E+00 4.85693E+00
 -1      2930-1.53346E+00-2.67245E+00-2.68375E+00-1.37909E-01-1.93100E-02 2.40523E+00
 -1      2931-4.20798E+01-4.11927E+01-1.51785E+01 1.10932E+00-2.41226E+00 4.52877E+00
 -1      2932-6.92010E+00-1.08077E+01-3.51805E+00 2.31806E-01-4.49266E-01 4.46945E+00
 -1      2933-2.27964E+00-2.75548E+00-6.38594E-01-1.15786E-01 1.38274E+00 1.41077E+00
 -1      2934-2.61358E+00-2.73511E+00-1.00007E+00-2.63791E-01-1.80958E+00-9.04918E-01
 -1      2935 1.74860E+01 2.55343E+01 2.17960E+00 2.53047E+00 3.36150E+00-3.46536E-01
 -1      2936-3.08242E+00-2.82864E+00-3.86199E-02-3.25753E-01-1.36893E+00 7.56196E-01
 -1      2937-3.44703E+00-4.08573E+00-8.41559E-01-3.65979E-01 2.56055E-01 1.89011E+00
 -1      2938-3.56624E+01-3.34792E+01-1.04884E+01-1.27692E+00 2.06488E+00 1.33969E+00
 -1      2939-2.61384E+00-2.82361E+00-2.97664E-01 1.77268E-01-4.04276E-01-1.69040E+00
 -1      2940-1.87958E+00-3.02273E+00-2.96587E+00 4.22033E-01-9.36611E-01-2.38499E+00
 -1      2941 1.26210E+01 1.03320E+01 2.05062E+00 8.96523E-01 4.65875E-01 2.62178E+00
 -1      2942-3.17598E+00-2.34490E+00-1.95840E-01-9.02472E-02 1.59255E+00-3.08993E-01
 -1      2943-3.05100E+00-1.59168E+00-3.11765E+00-2.12800E-01 2.70071E+00 3.54959E-01
 -1      2944-3.55147E+00-4.63540E+00-6.42768E-01 1.13688E+00-2.16225E+00-1.35901E+00
 -1      2945-3.59260E+00-3.41152E+00-8.09235E-01 3.10111E-01 1.20140E+00 1.34306E+00
 -1      2946-1.78360E+00-2.99505E+00-3.12387E+00-1.03862E-01 2.26284E-02-2.85304E+00
 -1      2947-2.53939E+00-2.35132E+00-3.52797E+00 9.14483E-01 1.85263E+00 2.29666E+00
 -1      2948 1.87756E+01 1.84985E+01 2.47510E+00-3.93796E+00 2.31632E+00-1.89596E+00
 -1      2949-9.70706E+00-9.97154E+00-5.16204E+00-6.98283E-01-1.50705E+00 2.49667E+00
 -1      2950-2.74702E+00-3.14004E+00-1.28435E+00-6.74081E-02 2.46359E+00 1.65769E-01
 -1      2951-2.78520E+00-2.20814E+00-1.57187E+00-1.10242E-01 2.11956E+00 1.20299E+00
 -1      2952-2.65389E+00-2.14600E+00-1.25460E+00 1.02079E-03 4.08117E-01 2.58220E+00
 -1      2953 9.78321E+00 8.53618E+00 1.30350E+00-2.06670E-01-1.86276E+00 3.06765E+00
 -1      2954-2.40952E+00-2.02274E+00-8.81677E-01 1.75343E-01 2.91917E-01-1.91827E+00
 -1      2955-3.04234E+00-1.99983E+00-4.40763E+00-6.95182E-01 3.15336E+00-1.00819E+00
 -1      2956-4.68023E+00-4.41865E+00-6.53602E-01 8.59738E-01 2.72613E+00 4.68997E-01
 -1      2957-3.17921E+01-3.69425E+01-1.21938E+01 4.46286E-01-3.01781E+00 3.36953E-01
 -1      2958-7.35527E+00-9.45042E+00-1.97109E+00-2.93090E-01 2.11449E+00 1.32665E+00
 -1      2959-2.10644E+01-2.16468E+01-8.17553E+00-4.19855E+00-5.89296E-01 1.44819E-01
 -1      2960-6.46760E+00-7.99302E+00-3.95373E+00 1.28026E+00 2.68507E+00 3.01776E+00
 -1      2961-1.01109E+01-8.44445E+00-5.24124E+00 6.94112E-01 3.92592E+00 2.67728E+00
 -1      2962-3.23474E+00-2.29927E+00-3.66581E+00 8.37851E-01 2.90516E+00 9.70077E-01
 -1      2963 2.02835E+01 1.77926E+01-8.00378E-01-1.80221E+00 3.88080E+00-1.85672E+00
 -1      2964-2.93383E+00-2.77809E+00-6.93483E-01-2.90577E-01 1.58668E+00 1.62505E+00
 -1      2965-3.32548E+00-3.57111E+00-2.92008E-01 4.19884E-01-2.37904E+00-2.22887E-01
 -1      2966-2.42894E+00-3.15165E+00-3.17997E+00 8.44948E-01-2.18579E+00-1.78943E+00
 -1      2967-9.38061E+00-8.82001E+00-3.77291E+00 1.65158E+00-5.05361E+00-5.48408E-01
 -1      2968-3.11592E+00-1.46949E+00-2.30476E+00-1.37553E-01-2.15822E+00-3.85709E-01
 -1      2969 1.24112E+01 1.35797E+01 1.89979E+00 6.99772E-01 4.06428E+00 1.15019E+00
 -1      2970-3.18683E+01-3.49301E+01-5.74608E+00-1.74706E+00 2.55062E+00 2.33064E+00
 -1      2971-8.24745E+00-9.68811E+00-4.52075E+00 5.84429E-01 2.29729E-01 3.69807E+00
 -1      2972-3.19813E+00-3.58224E+00-9.60408E-02-4.28113E-01-8.25110E-01 1.29099E+00
 -1      2973-9.60440E+00-6.41206E+00-3.08349E+00 1.34801E+00 3.14711E+00-1.45816E+00
 -1      2974-5.66817E+00-7.05315E+00-3.60025E+00-4.27937E-01 2.34417E+00-4.18221E+00
 -1      2975-7.64892E+00-5.61749E+00-2.90759E+00-5.09289E-01 3.47214E+00-1.38064E+00
 -1      2976 9.49025E+00 1.13864E+01 1.66112E+00 1.57047E+00 1.48133E+00-3.15187E+00
 -1      2977-6.10274E+00-7.72716E+00-3.92180E+00 5.82995E-01 7.82331E-01-3.92636E+00
 -1      2978-2.79579E+00-3.15554E+00-4.26631E-01-3.20859E-02-1.75110E+00-1.79728E+00
 -1      2979-3.54942E+01-3.57244E+01-2.52593E+00 2.30028E+00 3.41573E+00-1.72290E+00
 -1      2980-3.07604E+00-1.99277E+00-2.84304E+00-7.56465E-01-2.49323E+00 6.87115E-01
 -1      2981-3.32774E+00-4.20129E+00-5.01970E+00-1.14001E+00 8.50772E-01-4.00037E+00
 -1      2982-3.77657E+01-3.25476E+01-4.52946E+00-8.36858E-01-1.73245E+00-1.84645E+00
 -1      2983-3.97940E+00-3.36096E+00-1.49504E-01-2.84320E-02 1.17348E+00-1.88961E+00
 -1      2984-1.03878E+01-1.18397E+01-4.07844E+00 1.38848E+00-2.36953E+00-1.79467E+00
 -1      2985-1.10786E+01-9.22526E+00-4.70215E+00 9.04781E-02-2.41831E+00-2.36657E+00
 -1      2986 9.95214E+00 9.94046E+00 2.67494E+00 2.56882E+00-3.07354E+00-2.26810E+00
 -1      2987-2.46505E+00-2.44980E+00-1.93945E+00 9.28175E-03-9.17550E-01-1.90985E+00
 -1      2988-3.35133E+01-3.30120E+01-3.06895E+00 3.75880E-01-8.31276E-01-2.36315E+00
 -1      2989-1.12663E+01-9.68056E+00-6.03179E+00-1.96001E-01 4.20821E+00 1.12542E+00
 -1      2990-7.50142E+00-8.17690E+00-1.67808E+00 1.32191E+00 2.23658E+00 4.34373E-01
 -1      2991-8.68136E+00-7.91855E+00-3.25644E+00 1.41434E+00 2.66760E+00 1.97304E+00
 -1      2992-3.26944E+00-3.33701E+00 3.92136E-02-2.17396E-01 1.53799E+00-8.00960E-01
 -1      2993-2.71282E+01-2.79660E+01-3.69555E+00-6.72075E-02 5.35752E-01-5.02861E+00
 -1      2994-4.02085E+00-4.92181E+00-7.93087E-01-8.84172E-01-1.92308E+00 9.90330E-01
 -1      2995-2.00134E+00-3.32339E+00-3.32532E+00-7.79800E-01-8.02541E-01 2.71719E+00
 -1      2996-2.84130E+00-2.24197E+00-6.33375E-01 5.20432E-02-6.98870E-01-1.98931E+00
 -1      2997-5.05415E+00-3.50066E+00-7.65655E-01 9.04994E-02-1.71612E+00 5.55854E-01
 -1      2998-2.84320E+00-2.28445E+00-3.57643E+00 5.96923E-01-2.87716E+00-1.13411E+00
 -1      2999-5.87460E+00-8.57586E+00-3.76489E+00 1.15474E+00-2.25467E+00-3.23526E+00
 -1      3000-1.14358E+01-7.12391E+00-1.40133E+00-6.98575E-01-1.27996E+00 2.30079E+00
 -1      3001-9.55180E+00-7.74380E+00-2.73754E+00-7.65697E-01-1.85920E+00 2.08399E+00
 -1      3002 6.93762E+00 8.82355E+00-1.37892E+00 1.48927E+00 2.99098E+00-8.32603E-01
 -1      3003-4.47763E+01-4.19005E+01-1.30163E+01 9.18421E-01-2.02275E+00-8.07025E-01
 -1      3004-4.06559E+00-3.14391E+00-2.15610E+00 3.61810E-01 2.77241E+00-1.43446E+00
 -1      3005-2.00927E+00-2.76630E+00-3.29272E+00-3.83307E-01 1.96611E+00-1.89820E+00
 -1      3006-3.64424E+01-3.29395E+01-1.05143E+01-1.36983E+00 3.35184E+00-5.38255E+00
 -1      3007-5.66547E+00-6.31051E+00-5.34446E+00-7.76746E-01 2.02832E-01-5.00876E+00
 -1      3008-2.41110E+00-2.63216E+00-5.66235E-03-1.31582E-01 8.17707E-01-1.95507E+00
 -1      3009-6.71426E+00-7.20074E+00-2.18187E+00-9.32570E-01 2.95063E+00-2.54812E+00
 -1      3010-3.35406E+00-3.18196E+00-1.55680E+00-3.42630E-01-2.65449E+00-4.02777E-01
 -1      3011-1.34004E+01-1.48589E+01-1.04215E+01 2.57172E-01 6.22264E+00-1.33588E+00
 -1      3012-1.04554E+01-1.06481E+01-4.44386E+00-1.17709E+00 1.42756E+00-3.08417E+00
 -1      3013-8.24707E+00-9.88746E+00-4.98072E+00 7.14090E-01-2.35684E+00-3.52273E+00
 -1      3014-2.96287E+00-3.05131E+00-3.17138E+00-1.17092E+00-1.98012E+00 1.83092E+00
 -1      3015-2.90968E+00-2.89323E+00-1.09516E+00-2.89535E-01 3.76877E-01 1.98446E+00
 -1      3016-8.15552E+00-5.96925E+00-1.70296E+00-5.49520E-01 1.70887E+00-1.75949E+00
 -1      3017-6.89025E+00-9.23488E+00-1.44341E+00-5.85507E-01-1.83657E+00 1.15646E+00
 -1      3018-1.02757E+01-1.26052E+01-5.47080E+00-1.38460E-01 1.77321E+00 3.71127E+00
 -1      3019-1.21336E+01-1.10967E+01-4.63618E+00 2.49640E-01-3.21407E+00 5.67158E-01
 -1      3020-2.27801E+00-2.70431E+00-6.72485E-01 3.03835E-02-1.53466E+00-1.00441E+00
 -1      3021-1.04833E+01-7.06434E+00-3.52822E+00-1.01278E+00-3.02068E+00-1.75089E+00
 -1      3022-1.09075E+01-1.12787E+01-3.71787E+00-2.42116E+00-3.27848E+00-5.60447E-01
 -1      3023-2.86283E+00-2.50524E+00-7.95857E-01 1.06321E-01-6.33785E-01 2.03228E+00
 -1      3024-8.05594E+00-9.62382E+00-3.35405E+00-1.86495E+00-9.13970E-01 2.78769E+00
 -1      3025-7.31763E+00-6.76171E+00-4.09478E+00 8.94048E-01-2.74004E+00-2.75343E+00
 -1      3026-2.54493E+00-8.53283E+00-5.51772E+00 9.23438E-01-2.49310E-01-2.92393E+00
 -1      3027 2.58175E-01 3.03569E+00-2.17511E+00 2.52507E-01-1.81422E+00 3.42997E-01
 -1      3028-1.05484E+01-1.01618E+01-1.08429E+01 2.46400E+00-1.16216E+00-2.24403E+00
 -1      3029 1.60312E+00 1.28700E+00-4.36358E+00 1.77033E+00-7.17326E-01-1.93234E+00
 -1      3030-2.43125E+00-2.72364E+00-2.96487E+00 8.29000E-01-1.90624E-01 3.94581E-01
 -1      3031-3.16282E+00-4.50336E+00-8.53597E+00-2.14647E-01-1.25190E+00 1.88709E+00
 -1      3032-7.69275E+00-5.37290E+00-6.83042E+00 2.21418E-01-3.30357E+00-1.01239E+00
 -1      3033-3.23841E+00-5.91639E+00-2.31893E+00 9.05399E-01 2.05200E-01-1.27580E+00
 -1      3034-5.09513E+00-6.03560E+00-4.19745E+00-8.00843E-01-7.22144E-01-2.61414E-01
 -1      3035-6.25633E+00-3.39245E+00-3.95416E+00-1.90159E-01-1.52301E+00-7.25863E-01
 -1      3036-9.64220E-01-8.48546E-01-1.82587E+00-1.51592E+00 1.78216E+00-2.06014E+00
 -1      3037-3.37173E+00-8.04693E+00-8.20288E+00-9.36222E-01 5.18105E-01 3.54810E+00
 -1      3038-1.44113E+01-2.10337E+01-8.40842E+00 6.22259E-01 1.05964E-01-4.52091E-02
 -1      3039-9.82761E-01-5.99087E+00-5.98530E+00-1.73286E-01 4.31778E-01-2.87739E+00
 -1      3040-7.70755E-01-4.55767E+00-3.90556E+00-9.79417E-02-1.19965E-01-3.07977E+00
 -1      3041-4.16275E+00-5.54257E+00-2.50912E+00 5.15397E-01 2.64803E-01 3.81136E-01
 -1      3042-2.14692E+01-1.52771E+01-8.58095E+00 1.26888E-01-1.14922E+00-7.98479E-01
 -1      3043-1.12004E+00-3.50641E+00-6.37298E+00 2.06109E+00 5.96941E-01 1.25216E+00
 -1      3044-8.71799E-02-3.00911E+00-1.04010E+00 1.27426E+00 8.49267E-02-2.72341E+00
 -1      3045 3.59630E+00 5.75882E-01-1.47987E+00-3.98722E-01-2.51591E+00 2.42371E+00
 -1      3046-2.35707E+01-1.83376E+01-9.03196E+00-3.32183E-01-3.86007E-01 1.95718E+00
 -1      3047-1.67662E+00 2.25912E-01-2.24609E+00-3.83804E-01-3.15767E-01 7.65476E-01
 -1      3048 7.28457E-01 5.26555E-01-6.92904E-01 1.53019E+00 1.02739E+00 1.20059E+00
 -1      3049-2.19859E+01-2.21217E+01-9.39008E+00 8.17667E-01 2.03320E+00 8.62594E-01
 -1      3050-2.01301E+01-1.93010E+01-1.10457E+01-1.10206E+00 1.54089E+00-2.69723E-01
 -1      3051-3.38518E+00-5.84131E+00-1.94229E+00 5.40855E-01 5.15432E-01 2.55996E+00
 -1      3052-2.00841E+00 1.21326E+00-6.29064E+00-2.89971E-01 1.91161E+00-9.90249E-01
 -1      3053-3.31700E-01 5.49426E-01-3.59962E+00-6.63806E-01 6.23813E-01-3.07342E-01
 -1      3054-1.55313E+01-1.28919E+01-8.61526E+00-1.04096E+00 2.40345E-02-3.41964E-01
 -1      3055-2.28391E+01-2.17276E+01-1.36373E+01 4.25948E+00 6.29165E-01-5.45824E-01
 -1      3056-1.73696E+01-1.85011E+01-1.01863E+01 4.01291E+00-6.88054E-01 1.61141E-01
 -1      3057-5.23129E+00-3.84871E+00-2.03786E+00 3.56903E-01-3.23964E+00-1.11391E+00
 -1      3058-4.10146E+00-3.87898E+00-4.14381E+00 8.56050E-01-1.24732E+00-1.23328E+00
 -1      3059-1.59065E+01-2.50459E+01-1.05283E+01-1.13932E+00 1.75764E-01-1.09428E+00
 -1      3060-5.65791E+00-5.86404E+00-4.14006E+00-3.34642E+00-1.59296E+00 1.94567E+00
 -1      3061-1.45465E+00-2.58325E+00-8.37731E+00-1.67859E+00 1.91791E+00-2.82800E+00
 -1      3062-4.72982E+00-4.38648E+00-4.67465E+00 2.03227E+00 2.00984E+00 2.50583E+00
 -1      3063-2.28959E+01-1.97535E+01-7.72013E+00-1.39953E+00-5.66804E-01-3.00414E-01
 -1      3064-2.23377E+00-3.29291E+00-3.68072E+00 5.89256E-01 5.40042E-01-7.91712E-01
 -1      3065-1.39311E+00-5.26527E+00-3.90360E+00 2.45810E-01-9.11768E-01-2.27877E+00
 -1      3066-2.79455E+01-3.19880E+01-1.14794E+01 2.21291E-02-1.08889E+00 2.50827E+00
 -1      3067-2.17371E+01-1.92922E+01-8.58812E+00-1.10630E+00-8.99916E-01 1.98931E+00
 -1      3068-3.85655E+00 5.63750E-02-1.73778E+00-8.48514E-01 2.30075E+00 1.32177E-02
 -1      3069-1.45294E+01-1.37548E+01-6.06764E+00 2.86150E-01 1.30299E+00-2.20699E-01
 -1      3070-2.18353E+01-2.39564E+01-1.26907E+01-2.87610E+00 6.68016E-01 1.25711E-01
 -1      3071-3.99642E-01-3.34433E+00-2.48953E+00 1.91869E+00 5.56831E-01 2.19855E+00
 -1      3072-3.20375E+00-4.14057E+00-3.05059E+00 1.67720E+00 2.39086E+00 1.15878E+00
 -1      3073-2.35599E+00-4.33263E+00-3.51161E+00 8.03028E-02-1.11227E+00-3.14477E-01
 -1      3074-1.14672E+01-9.84758E+00-5.59679E-01-1.24428E+00-1.60314E+00 1.06490E+00
 -1      3075-3.12354E+00-5.65519E+00-4.22839E+00-1.08533E+00 1.89999E-01 4.55056E+00
 -1      3076-1.28786E+01-1.56509E+01-8.37571E+00 3.20597E+00-9.38876E-01-7.40776E-01
 -1      3077-3.01316E+00-2.33738E+00-1.42607E+00-6.42247E-02-1.46332E+00 8.07345E-01
 -1      3078-1.37655E+01-2.52745E+01-1.17297E+01 7.21202E-01 3.22235E-01 2.52172E+00
 -1      3079-3.92842E+00-2.61793E+00-3.28565E+00 6.05052E-01 4.38725E-01-1.11851E+00
 -1      3080-4.35776E+00-3.72516E+00-1.57580E+00-2.25468E+00 2.01138E+00-1.44107E+00
 -1      3081-1.89980E+00-2.52859E-01-1.90205E+00-6.95208E-01 1.96562E+00-1.13171E+00
 -1      3082-1.01113E+01-7.63373E+00-3.55114E+00 8.56946E-01 9.15821E-01 1.93395E-01
 -1      3083-3.08392E+01-2.57275E+01-9.85584E+00 5.74975E+00 4.37954E-01 2.07194E+00
 -1      3084-1.70324E+01-1.82580E+01-7.36004E+00-3.82609E+00-2.70340E-01-1.08387E+00
 -1      3085-2.34825E+00 4.29173E-01-4.85784E+00-1.00021E+00 1.92391E+00 4.32122E-01
 -1      3086-3.48621E+00-5.34045E+00-3.30439E+00-8.32962E-01-2.50771E-01 1.30438E+00
 -1      3087-2.58455E+01-2.79103E+01-8.38076E+00 1.29153E+00-1.87934E-02-6.71681E-02
 -1      3088-4.66271E+00-2.74734E+00-1.57240E+00 1.62287E+00-1.03309E+00-1.03367E+00
 -1      3089-2.02107E+01-2.70369E+01-1.10620E+01-1.86635E+00-9.76014E-01 2.18665E+00
 -1      3090-1.14414E+00-2.41075E+00-1.75870E+00-1.28931E+00-2.35625E+00 2.79998E+00
 -1      3091-3.32942E+00-5.10386E+00-4.38681E+00-9.74397E-02 1.00688E+00-2.23056E+00
 -1      3092-2.15359E+01-2.38054E+01-9.09432E+00 8.41287E-01 9.05084E-01 7.47764E-01
 -1      3093 3.30268E+00 4.10718E+00-1.65635E+00-3.37480E+00 1.25146E+00-5.29534E-01
 -1      3094-5.55550E+00-2.82171E+00-2.74454E-01 9.39034E-01 2.52359E+00 1.58032E+00
 -1      3095-5.36085E+00 1.63537E+00-3.65501E+00-3.64117E-01 2.71890E+00-3.43986E-01
 -1      3096-2.24648E+01-2.50096E+01-1.06765E+01-1.52496E+00-1.00243E+00-1.02448E+00
 -1      3097 2.85948E+00 3.75675E+00-1.52783E+00-2.50289E-01 1.69512E+00 6.82077E-01
 -3
 9999
