    1C
    1U meshsolid_t.inp                                                  
    1UUSER                                                              
    1UDATE              05.july.2016                                    
    1UTIME              09:16:12                                        
    1UHOST                                                              
    1UPGM               CalculiX                                        
    1UVERSION           Version 2.10                             
    1UCOMPILETIME       Sa 5. MÃ¤r 12:23:33 CET 2016                    
    1UDIR                                                               
    1UDBN                                                               
    1UMAT    1PDMS                                                      
    2C                          3746                                     1
 -1         1 2.32070E+00-4.61617E-01 2.25000E+00
 -1         2-7.15142E+00 3.99049E+00 2.25000E+00
 -1         3-5.06195E+00 1.58259E+00 2.25000E+00
 -1         4-7.69674E+00 2.67396E+00 2.25000E+00
 -1         5-5.24373E+00 1.14375E+00 2.25000E+00
 -1         6-7.87852E+00 2.23512E+00 2.25000E+00
 -1         7-2.89912E+00-4.51663E+00 2.25000E+00
 -1         8-2.89912E+00 4.51663E+00 2.25000E+00
 -1         9-5.41583E+00 6.08758E+00 2.25000E+00
 -1        10-6.08758E+00 5.41583E+00 2.25000E+00
 -1        11-5.28227E+00 4.74999E-01 2.25000E+00
 -1        12-2.32070E+00-4.61617E-01 2.25000E+00
 -1        13-2.38798E+00 4.74999E-01 2.25000E+00
 -1        14-4.69840E+00 2.46028E+00 2.25000E+00
 -1        15-2.23512E+00 7.87852E+00 2.25000E+00
 -1        16 1.14375E+00 5.24373E+00 2.25000E+00
 -1        17 4.68498E+00 1.00693E+01 2.25000E+00
 -1        18 1.58259E+00 5.06195E+00 2.25000E+00
 -1        19 2.46028E+00 4.69840E+00 2.25000E+00
 -1        20 1.31457E+00 1.96740E+00 2.25000E+00
 -1        21 4.74999E-01 2.38798E+00 2.25000E+00
 -1        22 2.02443E+00 1.35268E+00 2.25000E+00
 -1        23 3.39925E+00 4.07100E+00 2.25000E+00
 -1        24 2.38798E+00 4.74999E-01 2.25000E+00
 -1        25 2.32070E+00 4.61617E-01 2.25000E+00
 -1        26 2.38798E+00-4.74999E-01 2.25000E+00
 -1        27 5.28227E+00 4.74999E-01 2.25000E+00
 -1        28 5.28227E+00-4.74999E-01 2.25000E+00
 -1        29 1.10957E+01 4.74999E-01 2.25000E+00
 -1        30 8.13414E+00 4.74999E-01 2.25000E+00
 -1        31 3.55164E+00-7.33319E+00 2.25000E+00
 -1        32 5.41583E+00 6.08758E+00 2.25000E+00
 -1        33 7.87852E+00 2.23512E+00 2.25000E+00
 -1        34 7.15142E+00 3.99049E+00 2.25000E+00
 -1        35 5.06195E+00 1.58259E+00 2.25000E+00
 -1        36 6.42346E+00 5.07995E+00 2.25000E+00
 -1        37 1.58259E+00-5.06195E+00 2.25000E+00
 -1        38 2.46028E+00-4.69840E+00 2.25000E+00
 -1        39 2.67396E+00-7.69674E+00 2.25000E+00
 -1        40 1.35268E+00-2.02443E+00 2.25000E+00
 -1        41 4.74999E-01-2.38798E+00 2.25000E+00
 -1        42-4.74999E-01-2.38798E+00 2.25000E+00
 -1        43-4.74999E-01-5.28227E+00 2.25000E+00
 -1        44 4.69840E+00-2.46028E+00 2.25000E+00
 -1        45 1.96740E+00-1.31457E+00 2.25000E+00
 -1        46 7.69674E+00-2.67396E+00 2.25000E+00
 -1        47 5.06195E+00-1.58259E+00 2.25000E+00
 -1        48 7.33319E+00-3.55164E+00 2.25000E+00
 -1        49 3.39925E+00-4.07100E+00 2.25000E+00
 -1        50 2.02443E+00-1.35268E+00 2.25000E+00
 -1        51 4.07100E+00-3.39925E+00 2.25000E+00
 -1        52 5.41583E+00-6.08758E+00 2.25000E+00
 -1        53 5.07995E+00-6.42346E+00 2.25000E+00
 -1        54 6.08758E+00-5.41583E+00 2.25000E+00
 -1        55 7.50997E+00-8.18172E+00 2.25000E+00
 -1        56-4.74999E-01-8.13414E+00 2.25000E+00
 -1        57-1.35268E+00-2.02443E+00 2.25000E+00
 -1        58-3.55164E+00-7.33319E+00 2.25000E+00
 -1        59-2.67396E+00-7.69674E+00 2.25000E+00
 -1        60-3.80730E+00-1.04329E+01 2.25000E+00
 -1        61-4.68498E+00-1.00693E+01 2.25000E+00
 -1        62-9.50000E-01 8.13414E+00 2.25000E+00
 -1        63-9.50000E-01 5.28227E+00 2.25000E+00
 -1        64-4.74999E-01 5.28227E+00 2.25000E+00
 -1        65 4.74999E-01 1.10957E+01 2.25000E+00
 -1        66-4.74999E-01 8.13414E+00 2.25000E+00
 -1        67 4.61617E-01 2.32070E+00 2.25000E+00
 -1        68-4.74999E-01 2.38798E+00 2.25000E+00
 -1        69-1.31457E+00 1.96740E+00 2.25000E+00
 -1        70-1.58259E+00 5.06195E+00 2.25000E+00
 -1        71-2.67396E+00 7.69674E+00 2.25000E+00
 -1        72-3.80730E+00 1.04329E+01 2.25000E+00
 -1        73-4.68498E+00 1.00693E+01 2.25000E+00
 -1        74 4.74999E-01 8.13414E+00 2.25000E+00
 -1        75 9.50000E-01-8.13414E+00 2.25000E+00
 -1        76 9.50000E-01-5.28227E+00 2.25000E+00
 -1        77-1.96740E+00-1.31457E+00 2.25000E+00
 -1        78-3.39925E+00-4.07100E+00 2.25000E+00
 -1        79-4.07100E+00-3.39925E+00 2.25000E+00
 -1        80-1.35268E+00 2.02443E+00 2.25000E+00
 -1        81-2.02443E+00 1.35268E+00 2.25000E+00
 -1        82-3.39925E+00 4.07100E+00 2.25000E+00
 -1        83-3.06338E+00-4.40688E+00 2.25000E+00
 -1        84-5.07995E+00-6.42346E+00 2.25000E+00
 -1        85-6.08758E+00-5.41583E+00 2.25000E+00
 -1        86-4.69840E+00-2.46028E+00 2.25000E+00
 -1        87-5.06195E+00-1.58259E+00 2.25000E+00
 -1        88-5.24373E+00-1.14375E+00 2.25000E+00
 -1        89-7.33319E+00-3.55164E+00 2.25000E+00
 -1        90-7.69674E+00-2.67396E+00 2.25000E+00
 -1        91-1.00693E+01 4.68498E+00 2.25000E+00
 -1        92-1.04329E+01 3.80730E+00 2.25000E+00
 -1        93-8.18172E+00 7.50997E+00 2.25000E+00
 -1        94-8.13414E+00 4.74999E-01 2.25000E+00
 -1        95-8.13414E+00-9.50000E-01 2.25000E+00
 -1        96-7.50997E+00-8.18172E+00 2.25000E+00
 -1        97-1.00693E+01-4.68498E+00 2.25000E+00
 -1        98 1.10957E+01-4.74999E-01 5.00000E-01
 -1        99 8.13414E+00 4.74999E-01 5.00000E-01
 -1       100 5.28227E+00 4.74999E-01 5.00000E-01
 -1       101 2.38798E+00-4.74999E-01 5.00000E-01
 -1       102 1.10957E+01-4.74999E-01 2.25000E+00
 -1       103 5.28227E+00 9.50000E-01 2.25000E+00
 -1       104 8.13414E+00-4.74999E-01 5.00000E-01
 -1       105 8.13414E+00-4.74999E-01 2.25000E+00
 -1       106 5.28227E+00-9.50000E-01 5.00000E-01
 -1       107 5.28227E+00-9.50000E-01 2.25000E+00
 -1       108 8.13414E+00-9.50000E-01 2.25000E+00
 -1       109 8.13414E+00 9.50000E-01 5.00000E-01
 -1       110 8.13414E+00 9.50000E-01 2.25000E+00
 -1       111 1.96740E+00 1.31457E+00 2.25000E+00
 -1       112 2.32070E+00 4.61617E-01 5.00000E-01
 -1       113 1.04329E+01 3.80730E+00 2.25000E+00
 -1       114 7.33319E+00 3.55164E+00 2.25000E+00
 -1       115 1.00693E+01 4.68498E+00 2.25000E+00
 -1       116 7.33319E+00 3.55164E+00 5.00000E-01
 -1       117 4.69840E+00 2.46028E+00 2.25000E+00
 -1       118 7.69674E+00 2.67396E+00 2.25000E+00
 -1       119 5.06195E+00 1.58259E+00 5.00000E-01
 -1       120 4.51663E+00 2.89912E+00 2.25000E+00
 -1       121 4.51663E+00 2.89912E+00 5.00000E-01
 -1       122 7.69674E+00 2.67396E+00 5.00000E-01
 -1       123 5.24373E+00 1.14375E+00 2.25000E+00
 -1       124 7.15142E+00 3.99049E+00 5.00000E-01
 -1       125 7.50997E+00 8.18172E+00 5.00000E-01
 -1       126 5.41583E+00 6.08758E+00 5.00000E-01
 -1       127 7.50997E+00 8.18172E+00 2.25000E+00
 -1       128 1.35268E+00 2.02443E+00 5.00000E-01
 -1       129 8.18172E+00 7.50997E+00 2.25000E+00
 -1       130 6.08758E+00 5.41583E+00 2.25000E+00
 -1       131 4.07100E+00 3.39925E+00 2.25000E+00
 -1       132 4.07100E+00 3.39925E+00 5.00000E-01
 -1       133 3.39925E+00 4.07100E+00 5.00000E-01
 -1       134 5.07995E+00 6.42346E+00 5.00000E-01
 -1       135 6.42346E+00 5.07995E+00 5.00000E-01
 -1       136 4.40688E+00 3.06338E+00 2.25000E+00
 -1       137 3.06338E+00 4.40688E+00 2.25000E+00
 -1       138 5.07995E+00 6.42346E+00 2.25000E+00
 -1       139 3.06338E+00 4.40688E+00 5.00000E-01
 -1       140 4.61617E-01 2.32070E+00 5.00000E-01
 -1       141 3.80730E+00 1.04329E+01 2.25000E+00
 -1       142 3.80730E+00 1.04329E+01 5.00000E-01
 -1       143 2.67396E+00 7.69674E+00 2.25000E+00
 -1       144 2.46028E+00 4.69840E+00 5.00000E-01
 -1       145 1.35268E+00 2.02443E+00 2.25000E+00
 -1       146 2.89912E+00 4.51663E+00 2.25000E+00
 -1       147 3.55164E+00 7.33319E+00 2.25000E+00
 -1       148 3.99049E+00 7.15142E+00 2.25000E+00
 -1       149 3.55164E+00 7.33319E+00 5.00000E-01
 -1       150 2.67396E+00 7.69674E+00 5.00000E-01
 -1       151 3.99049E+00 7.15142E+00 5.00000E-01
 -1       152 2.23512E+00 7.87852E+00 2.25000E+00
 -1       153-4.61617E-01 2.32070E+00 5.00000E-01
 -1       154-4.61617E-01 2.32070E+00 2.25000E+00
 -1       155-4.74999E-01 1.10957E+01 2.25000E+00
 -1       156-4.74999E-01 8.13414E+00 5.00000E-01
 -1       157-4.74999E-01 5.28227E+00 5.00000E-01
 -1       158 4.74999E-01 5.28227E+00 5.00000E-01
 -1       159 4.74999E-01 5.28227E+00 2.25000E+00
 -1       160 9.50000E-01 5.28227E+00 2.25000E+00
 -1       161 9.50000E-01 8.13414E+00 2.25000E+00
 -1       162-4.68498E+00 1.00693E+01 5.00000E-01
 -1       163-3.55164E+00 7.33319E+00 5.00000E-01
 -1       164-3.55164E+00 7.33319E+00 2.25000E+00
 -1       165-2.46028E+00 4.69840E+00 2.25000E+00
 -1       166-2.89912E+00 4.51663E+00 5.00000E-01
 -1       167-1.14375E+00 5.24373E+00 2.25000E+00
 -1       168-3.99049E+00 7.15142E+00 2.25000E+00
 -1       169-1.96740E+00 1.31457E+00 2.25000E+00
 -1       170-3.39925E+00 4.07100E+00 5.00000E-01
 -1       171-1.35268E+00 2.02443E+00 5.00000E-01
 -1       172-7.50997E+00 8.18172E+00 2.25000E+00
 -1       173-4.07100E+00 3.39925E+00 2.25000E+00
 -1       174-4.40688E+00 3.06338E+00 2.25000E+00
 -1       175-5.41583E+00 6.08758E+00 5.00000E-01
 -1       176-3.06338E+00 4.40688E+00 2.25000E+00
 -1       177-5.07995E+00 6.42346E+00 2.25000E+00
 -1       178-5.07995E+00 6.42346E+00 5.00000E-01
 -1       179-6.42346E+00 5.07995E+00 2.25000E+00
 -1       180-1.96740E+00 1.31457E+00 5.00000E-01
 -1       181-2.32070E+00 4.61617E-01 2.25000E+00
 -1       182-2.32070E+00 4.61617E-01 5.00000E-01
 -1       183-7.69674E+00 2.67396E+00 5.00000E-01
 -1       184-5.06195E+00 1.58259E+00 5.00000E-01
 -1       185-4.69840E+00 2.46028E+00 5.00000E-01
 -1       186-5.24373E+00 1.14375E+00 5.00000E-01
 -1       187-7.33319E+00 3.55164E+00 5.00000E-01
 -1       188-7.33319E+00 3.55164E+00 2.25000E+00
 -1       189-4.51663E+00 2.89912E+00 2.25000E+00
 -1       190-7.15142E+00 3.99049E+00 5.00000E-01
 -1       191-7.87852E+00 2.23512E+00 5.00000E-01
 -1       192-1.10957E+01-4.74999E-01 2.25000E+00
 -1       193-5.28227E+00-4.74999E-01 5.00000E-01
 -1       194-5.28227E+00-4.74999E-01 2.25000E+00
 -1       195-2.38798E+00-4.74999E-01 2.25000E+00
 -1       196-2.38798E+00 4.74999E-01 5.00000E-01
 -1       197-8.13414E+00 4.74999E-01 5.00000E-01
 -1       198-1.10957E+01 4.74999E-01 2.25000E+00
 -1       199-5.28227E+00 9.50000E-01 5.00000E-01
 -1       200-5.28227E+00-9.50000E-01 2.25000E+00
 -1       201-8.13414E+00-4.74999E-01 5.00000E-01
 -1       202-8.13414E+00-4.74999E-01 2.25000E+00
 -1       203-5.28227E+00 9.50000E-01 2.25000E+00
 -1       204-8.13414E+00 9.50000E-01 2.25000E+00
 -1       205-2.32070E+00-4.61617E-01 5.00000E-01
 -1       206-1.04329E+01-3.80730E+00 2.25000E+00
 -1       207-2.02443E+00-1.35268E+00 2.25000E+00
 -1       208-4.69840E+00-2.46028E+00 5.00000E-01
 -1       209-5.24373E+00-1.14375E+00 5.00000E-01
 -1       210-7.87852E+00-2.23512E+00 5.00000E-01
 -1       211-7.69674E+00-2.67396E+00 5.00000E-01
 -1       212-7.15142E+00-3.99049E+00 2.25000E+00
 -1       213-7.87852E+00-2.23512E+00 2.25000E+00
 -1       214-4.51663E+00-2.89912E+00 2.25000E+00
 -1       215-8.18172E+00-7.50997E+00 2.25000E+00
 -1       216-5.41583E+00-6.08758E+00 5.00000E-01
 -1       217-7.50997E+00-8.18172E+00 5.00000E-01
 -1       218-4.40688E+00-3.06338E+00 5.00000E-01
 -1       219-4.07100E+00-3.39925E+00 5.00000E-01
 -1       220-3.39925E+00-4.07100E+00 5.00000E-01
 -1       221-6.42346E+00-5.07995E+00 2.25000E+00
 -1       222-6.08758E+00-5.41583E+00 5.00000E-01
 -1       223-5.41583E+00-6.08758E+00 2.25000E+00
 -1       224-4.40688E+00-3.06338E+00 2.25000E+00
 -1       225-1.31457E+00-1.96740E+00 2.25000E+00
 -1       226-1.58259E+00-5.06195E+00 2.25000E+00
 -1       227-1.58259E+00-5.06195E+00 5.00000E-01
 -1       228-2.46028E+00-4.69840E+00 5.00000E-01
 -1       229-1.35268E+00-2.02443E+00 5.00000E-01
 -1       230-2.46028E+00-4.69840E+00 2.25000E+00
 -1       231-3.99049E+00-7.15142E+00 2.25000E+00
 -1       232-3.55164E+00-7.33319E+00 5.00000E-01
 -1       233-2.67396E+00-7.69674E+00 5.00000E-01
 -1       234-1.14375E+00-5.24373E+00 2.25000E+00
 -1       235-2.23512E+00-7.87852E+00 2.25000E+00
 -1       236 4.61617E-01-2.32070E+00 2.25000E+00
 -1       237-4.61617E-01-2.32070E+00 2.25000E+00
 -1       238 4.74999E-01-1.10957E+01 2.25000E+00
 -1       239-4.74999E-01-1.10957E+01 2.25000E+00
 -1       240 4.74999E-01-5.28227E+00 2.25000E+00
 -1       241 4.74999E-01-2.38798E+00 5.00000E-01
 -1       242-4.74999E-01-1.10957E+01 5.00000E-01
 -1       243-4.74999E-01-5.28227E+00 5.00000E-01
 -1       244 4.74999E-01-5.28227E+00 5.00000E-01
 -1       245-9.50000E-01-8.13414E+00 5.00000E-01
 -1       246-9.50000E-01-8.13414E+00 2.25000E+00
 -1       247 4.74999E-01-8.13414E+00 2.25000E+00
 -1       248 4.74999E-01-8.13414E+00 5.00000E-01
 -1       249 9.50000E-01-8.13414E+00 5.00000E-01
 -1       250-9.50000E-01-5.28227E+00 2.25000E+00
 -1       251 3.80730E+00-1.04329E+01 2.25000E+00
 -1       252 4.68498E+00-1.00693E+01 2.25000E+00
 -1       253 1.35268E+00-2.02443E+00 5.00000E-01
 -1       254 1.58259E+00-5.06195E+00 5.00000E-01
 -1       255 2.89912E+00-4.51663E+00 5.00000E-01
 -1       256 2.89912E+00-4.51663E+00 2.25000E+00
 -1       257 2.23512E+00-7.87852E+00 2.25000E+00
 -1       258 2.67396E+00-7.69674E+00 5.00000E-01
 -1       259 3.55164E+00-7.33319E+00 5.00000E-01
 -1       260 3.99049E+00-7.15142E+00 2.25000E+00
 -1       261 3.99049E+00-7.15142E+00 5.00000E-01
 -1       262 1.14375E+00-5.24373E+00 2.25000E+00
 -1       263 1.31457E+00-1.96740E+00 2.25000E+00
 -1       264 8.18172E+00-7.50997E+00 2.25000E+00
 -1       265 6.08758E+00-5.41583E+00 5.00000E-01
 -1       266 5.41583E+00-6.08758E+00 5.00000E-01
 -1       267 4.07100E+00-3.39925E+00 5.00000E-01
 -1       268 4.40688E+00-3.06338E+00 2.25000E+00
 -1       269 3.06338E+00-4.40688E+00 2.25000E+00
 -1       270 3.06338E+00-4.40688E+00 5.00000E-01
 -1       271 6.42346E+00-5.07995E+00 2.25000E+00
 -1       272 6.42346E+00-5.07995E+00 5.00000E-01
 -1       273 1.04329E+01-3.80730E+00 2.25000E+00
 -1       274 1.04329E+01-3.80730E+00 5.00000E-01
 -1       275 1.00693E+01-4.68498E+00 2.25000E+00
 -1       276 7.69674E+00-2.67396E+00 5.00000E-01
 -1       277 2.02443E+00-1.35268E+00 5.00000E-01
 -1       278 4.51663E+00-2.89912E+00 5.00000E-01
 -1       279 4.69840E+00-2.46028E+00 5.00000E-01
 -1       280 4.51663E+00-2.89912E+00 2.25000E+00
 -1       281 5.24373E+00-1.14375E+00 2.25000E+00
 -1       282 5.06195E+00-1.58259E+00 5.00000E-01
 -1       283 7.15142E+00-3.99049E+00 2.25000E+00
 -1       284 7.87852E+00-2.23512E+00 5.00000E-01
 -1       285 7.87852E+00-2.23512E+00 2.25000E+00
 -1       286 1.50000E+01 0.00000E+00-5.00000E-01
 -1       287-1.47118E+01 2.92635E+00 5.00000E-01
 -1       288 0.00000E+00 1.50000E+01 5.00000E-01
 -1       289 0.00000E+00 1.50000E+01-5.00000E-01
 -1       290-2.92635E+00-1.47118E+01-5.00000E-01
 -1       291 0.00000E+00-1.50000E+01 5.00000E-01
 -1       292-8.33355E+00 1.24720E+01-5.00000E-01
 -1       293-1.06066E+01 1.06066E+01-5.00000E-01
 -1       294-5.74025E+00 1.38582E+01 5.00000E-01
 -1       295-5.74025E+00 1.38582E+01-5.00000E-01
 -1       296 1.24720E+01-8.33355E+00-5.00000E-01
 -1       297 1.24720E+01 8.33355E+00-5.00000E-01
 -1       298 8.33355E+00-1.24720E+01-5.00000E-01
 -1       299 8.33355E+00 1.24720E+01-5.00000E-01
 -1       300 5.74025E+00-1.38582E+01-5.00000E-01
 -1       301 5.74025E+00 1.38582E+01-5.00000E-01
 -1       302 2.92635E+00 1.47118E+01-5.00000E-01
 -1       303 0.00000E+00-1.50000E+01-5.00000E-01
 -1       304-2.92635E+00 1.47118E+01-5.00000E-01
 -1       305-8.33355E+00-1.24720E+01-5.00000E-01
 -1       306-1.47118E+01-2.92635E+00-5.00000E-01
 -1       307 1.38582E+01 5.74025E+00 5.00000E-01
 -1       308 1.38582E+01 5.74025E+00-5.00000E-01
 -1       309 1.47118E+01 2.92635E+00 5.00000E-01
 -1       310 1.47118E+01 2.92635E+00-5.00000E-01
 -1       311 1.06066E+01 1.06066E+01-5.00000E-01
 -1       312-1.38582E+01 5.74025E+00-5.00000E-01
 -1       313-1.24720E+01 8.33355E+00-5.00000E-01
 -1       314-1.38582E+01 5.74025E+00 5.00000E-01
 -1       315-1.47118E+01 2.92635E+00-5.00000E-01
 -1       316-2.38798E+00-4.74999E-01 5.00000E-01
 -1       317-5.06195E+00-1.58259E+00 5.00000E-01
 -1       318-5.28227E+00-9.50000E-01 5.00000E-01
 -1       319-2.02443E+00-1.35268E+00 5.00000E-01
 -1       320-4.51663E+00-2.89912E+00 5.00000E-01
 -1       321-6.42346E+00-5.07995E+00 5.00000E-01
 -1       322-3.06338E+00-4.40688E+00 5.00000E-01
 -1       323-2.89912E+00-4.51663E+00 5.00000E-01
 -1       324-3.99049E+00-7.15142E+00 5.00000E-01
 -1       325-4.68498E+00-1.00693E+01 5.00000E-01
 -1       326-3.99049E+00 7.15142E+00 5.00000E-01
 -1       327-2.46028E+00 4.69840E+00 5.00000E-01
 -1       328-3.06338E+00 4.40688E+00 5.00000E-01
 -1       329-4.74999E-01-2.38798E+00 5.00000E-01
 -1       330-9.50000E-01-5.28227E+00 5.00000E-01
 -1       331-4.74999E-01-8.13414E+00 5.00000E-01
 -1       332 9.50000E-01-5.28227E+00 5.00000E-01
 -1       333 3.39925E+00-4.07100E+00 5.00000E-01
 -1       334 2.46028E+00-4.69840E+00 5.00000E-01
 -1       335 4.40688E+00-3.06338E+00 5.00000E-01
 -1       336 5.28227E+00-4.74999E-01 5.00000E-01
 -1       337 5.24373E+00-1.14375E+00 5.00000E-01
 -1       338 1.04329E+01 3.80730E+00 5.00000E-01
 -1       339 1.06066E+01 1.06066E+01 5.00000E-01
 -1       340 8.33355E+00 1.24720E+01 5.00000E-01
 -1       341 5.74025E+00 1.38582E+01 5.00000E-01
 -1       342 2.92635E+00 1.47118E+01 5.00000E-01
 -1       343 4.74999E-01 1.10957E+01 5.00000E-01
 -1       344 2.23512E+00 7.87852E+00 5.00000E-01
 -1       345-9.50000E-01 8.13414E+00 5.00000E-01
 -1       346-9.50000E-01 5.28227E+00 5.00000E-01
 -1       347-1.14375E+00 5.24373E+00 5.00000E-01
 -1       348-4.74999E-01 1.10957E+01 5.00000E-01
 -1       349-2.23512E+00 7.87852E+00 5.00000E-01
 -1       350-3.80730E+00 1.04329E+01 5.00000E-01
 -1       351-2.67396E+00 7.69674E+00 5.00000E-01
 -1       352-8.33355E+00 1.24720E+01 5.00000E-01
 -1       353 8.18172E+00 7.50997E+00 5.00000E-01
 -1       354 6.08758E+00 5.41583E+00 5.00000E-01
 -1       355 1.50000E+01 0.00000E+00 5.00000E-01
 -1       356 1.00693E+01 4.68498E+00 5.00000E-01
 -1       357 1.24720E+01 8.33355E+00 5.00000E-01
 -1       358 1.47118E+01-2.92635E+00 5.00000E-01
 -1       359 1.10957E+01 4.74999E-01 5.00000E-01
 -1       360 8.13414E+00-9.50000E-01 5.00000E-01
 -1       361 1.24720E+01-8.33355E+00 5.00000E-01
 -1       362 1.06066E+01-1.06066E+01 5.00000E-01
 -1       363 1.00693E+01-4.68498E+00 5.00000E-01
 -1       364 7.33319E+00-3.55164E+00 5.00000E-01
 -1       365 8.18172E+00-7.50997E+00 5.00000E-01
 -1       366 7.15142E+00-3.99049E+00 5.00000E-01
 -1       367 5.07995E+00-6.42346E+00 5.00000E-01
 -1       368 7.50997E+00-8.18172E+00 5.00000E-01
 -1       369 4.68498E+00-1.00693E+01 5.00000E-01
 -1       370 2.23512E+00-7.87852E+00 5.00000E-01
 -1       371 1.14375E+00-5.24373E+00 5.00000E-01
 -1       372 3.80730E+00-1.04329E+01 5.00000E-01
 -1       373 2.92635E+00-1.47118E+01 5.00000E-01
 -1       374 4.74999E-01-1.10957E+01 5.00000E-01
 -1       375-2.23512E+00-7.87852E+00 5.00000E-01
 -1       376-1.14375E+00-5.24373E+00 5.00000E-01
 -1       377-3.80730E+00-1.04329E+01 5.00000E-01
 -1       378-2.92635E+00-1.47118E+01 5.00000E-01
 -1       379-5.07995E+00-6.42346E+00 5.00000E-01
 -1       380 5.28227E+00 9.50000E-01 5.00000E-01
 -1       381 5.24373E+00 1.14375E+00 5.00000E-01
 -1       382 7.87852E+00 2.23512E+00 5.00000E-01
 -1       383 2.38798E+00 4.74999E-01 5.00000E-01
 -1       384 4.40688E+00 3.06338E+00 5.00000E-01
 -1       385 4.68498E+00 1.00693E+01 5.00000E-01
 -1       386 2.89912E+00 4.51663E+00 5.00000E-01
 -1       387 2.02443E+00 1.35268E+00 5.00000E-01
 -1       388 4.69840E+00 2.46028E+00 5.00000E-01
 -1       389 9.50000E-01 5.28227E+00 5.00000E-01
 -1       390 1.14375E+00 5.24373E+00 5.00000E-01
 -1       391 4.74999E-01 2.38798E+00 5.00000E-01
 -1       392 1.58259E+00 5.06195E+00 5.00000E-01
 -1       393 9.50000E-01 8.13414E+00 5.00000E-01
 -1       394 4.74999E-01 8.13414E+00 5.00000E-01
 -1       395-4.74999E-01 2.38798E+00 5.00000E-01
 -1       396-1.58259E+00 5.06195E+00 5.00000E-01
 -1       397-8.18172E+00-7.50997E+00 5.00000E-01
 -1       398-7.33319E+00-3.55164E+00 5.00000E-01
 -1       399-7.15142E+00-3.99049E+00 5.00000E-01
 -1       400-1.00693E+01-4.68498E+00 5.00000E-01
 -1       401-1.04329E+01-3.80730E+00 5.00000E-01
 -1       402-6.08758E+00 5.41583E+00 5.00000E-01
 -1       403-8.18172E+00 7.50997E+00 5.00000E-01
 -1       404-6.42346E+00 5.07995E+00 5.00000E-01
 -1       405-7.50997E+00 8.18172E+00 5.00000E-01
 -1       406-1.06066E+01 1.06066E+01 5.00000E-01
 -1       407-1.24720E+01 8.33355E+00 5.00000E-01
 -1       408-1.00693E+01 4.68498E+00 5.00000E-01
 -1       409-4.07100E+00 3.39925E+00 5.00000E-01
 -1       410-2.02443E+00 1.35268E+00 5.00000E-01
 -1       411-4.40688E+00 3.06338E+00 5.00000E-01
 -1       412-4.51663E+00 2.89912E+00 5.00000E-01
 -1       413-1.04329E+01 3.80730E+00 5.00000E-01
 -1       414-8.13414E+00 9.50000E-01 5.00000E-01
 -1       415-5.28227E+00 4.74999E-01 5.00000E-01
 -1       416-8.13414E+00-9.50000E-01 5.00000E-01
 -1       417-1.10957E+01 4.74999E-01 5.00000E-01
 -1       418-1.24720E+01-8.33355E+00 5.00000E-01
 -1       419-1.10957E+01-4.74999E-01 5.00000E-01
 -1       420-1.50000E+01 0.00000E+00 5.00000E-01
 -1       421 1.96740E+00 1.31457E+00 5.00000E-01
 -1       422 2.32070E+00-4.61617E-01 5.00000E-01
 -1       423 1.96740E+00-1.31457E+00 5.00000E-01
 -1       424 1.31457E+00 1.96740E+00 5.00000E-01
 -1       425 4.61617E-01-2.32070E+00 5.00000E-01
 -1       426 1.31457E+00-1.96740E+00 5.00000E-01
 -1       427-4.61617E-01-2.32070E+00 5.00000E-01
 -1       428-1.31457E+00-1.96740E+00 5.00000E-01
 -1       429-1.31457E+00 1.96740E+00 5.00000E-01
 -1       430-1.96740E+00-1.31457E+00 5.00000E-01
 -1       431-2.92635E+00 1.47118E+01 5.00000E-01
 -1       432 8.33355E+00-1.24720E+01 5.00000E-01
 -1       433-1.38582E+01-5.74025E+00-5.00000E-01
 -1       434-1.38582E+01-5.74025E+00 5.00000E-01
 -1       435-1.24720E+01-8.33355E+00-5.00000E-01
 -1       436-1.06066E+01-1.06066E+01-5.00000E-01
 -1       437-1.06066E+01-1.06066E+01 5.00000E-01
 -1       438-1.50000E+01 0.00000E+00-5.00000E-01
 -1       439 5.74025E+00-1.38582E+01 5.00000E-01
 -1       440 2.92635E+00-1.47118E+01-5.00000E-01
 -1       441 1.06066E+01-1.06066E+01-5.00000E-01
 -1       442-5.74025E+00-1.38582E+01 5.00000E-01
 -1       443-8.33355E+00-1.24720E+01 5.00000E-01
 -1       444-5.74025E+00-1.38582E+01-5.00000E-01
 -1       445-1.47118E+01-2.92635E+00 5.00000E-01
 -1       446 1.47118E+01-2.92635E+00-5.00000E-01
 -1       447 1.38582E+01-5.74025E+00 5.00000E-01
 -1       448 1.38582E+01-5.74025E+00-5.00000E-01
 -1       449 2.32070E+00 4.61617E-01 1.37500E+00
 -1       450 2.32070E+00-4.61617E-01 1.37500E+00
 -1       451-5.83402E+00 3.44480E+00 2.25000E+00
 -1       452-6.56112E+00 1.68944E+00 2.25000E+00
 -1       453-3.44480E+00-5.83402E+00 2.25000E+00
 -1       454-3.44480E+00 5.83402E+00 2.25000E+00
 -1       455-4.07166E+00 5.41517E+00 2.25000E+00
 -1       456-5.41517E+00 4.07166E+00 2.25000E+00
 -1       457-3.83512E+00 4.74999E-01 2.25000E+00
 -1       458-3.83512E+00-4.74999E-01 2.25000E+00
 -1       459-3.36141E+00-1.90648E+00 2.25000E+00
 -1       460-3.72497E+00-1.02879E+00 2.25000E+00
 -1       461-1.68944E+00-6.56112E+00 2.25000E+00
 -1       462-3.36141E+00 1.90648E+00 2.25000E+00
 -1       463-3.72497E+00 1.02879E+00 2.25000E+00
 -1       464-1.68944E+00 6.56112E+00 2.25000E+00
 -1       465 1.68944E+00 6.56112E+00 2.25000E+00
 -1       466 4.11831E+00 8.70125E+00 2.25000E+00
 -1       467 3.24063E+00 9.06482E+00 2.25000E+00
 -1       468 1.90648E+00 3.36141E+00 2.25000E+00
 -1       469 1.02879E+00 3.72497E+00 2.25000E+00
 -1       470 3.44480E+00 5.83402E+00 2.25000E+00
 -1       471 3.04771E+00 2.37597E+00 2.25000E+00
 -1       472 2.37597E+00 3.04771E+00 2.25000E+00
 -1       473 3.72497E+00 1.02879E+00 2.25000E+00
 -1       474 3.36141E+00 1.90648E+00 2.25000E+00
 -1       475 3.83512E+00 4.74999E-01 2.25000E+00
 -1       476 3.83512E+00-4.74999E-01 2.25000E+00
 -1       477 6.70821E+00 9.50000E-01 2.25000E+00
 -1       478 6.70821E+00-9.50000E-01 2.25000E+00
 -1       479 9.61492E+00 4.74999E-01 2.25000E+00
 -1       480 9.61492E+00-4.74999E-01 2.25000E+00
 -1       481 3.44480E+00-5.83402E+00 2.25000E+00
 -1       482 7.13465E+00 6.46290E+00 2.25000E+00
 -1       483 6.46290E+00 7.13465E+00 2.25000E+00
 -1       484 9.06482E+00 3.24063E+00 2.25000E+00
 -1       485 8.70125E+00 4.11831E+00 2.25000E+00
 -1       486 6.56112E+00 1.68944E+00 2.25000E+00
 -1       487 5.83402E+00 3.44480E+00 2.25000E+00
 -1       488 5.41517E+00 4.07166E+00 2.25000E+00
 -1       489 4.07166E+00 5.41517E+00 2.25000E+00
 -1       490 4.11831E+00-8.70125E+00 2.25000E+00
 -1       491 3.24063E+00-9.06482E+00 2.25000E+00
 -1       492 1.90648E+00-3.36141E+00 2.25000E+00
 -1       493 1.02879E+00-3.72497E+00 2.25000E+00
 -1       494 4.74999E-01-3.83512E+00 2.25000E+00
 -1       495-4.74999E-01-3.83512E+00 2.25000E+00
 -1       496 4.74999E-01-9.61492E+00 2.25000E+00
 -1       497-4.74999E-01-9.61492E+00 2.25000E+00
 -1       498 3.72497E+00-1.02879E+00 2.25000E+00
 -1       499 3.36141E+00-1.90648E+00 2.25000E+00
 -1       500 6.56112E+00-1.68944E+00 2.25000E+00
 -1       501 5.83402E+00-3.44480E+00 2.25000E+00
 -1       502 9.06482E+00-3.24063E+00 2.25000E+00
 -1       503 8.70125E+00-4.11831E+00 2.25000E+00
 -1       504 3.04771E+00-2.37597E+00 2.25000E+00
 -1       505 2.37597E+00-3.04771E+00 2.25000E+00
 -1       506 5.41517E+00-4.07166E+00 2.25000E+00
 -1       507 4.07166E+00-5.41517E+00 2.25000E+00
 -1       508 7.13465E+00-6.46290E+00 2.25000E+00
 -1       509 6.46290E+00-7.13465E+00 2.25000E+00
 -1       510 1.68944E+00-6.56112E+00 2.25000E+00
 -1       511-9.50000E-01-6.70821E+00 2.25000E+00
 -1       512-1.02879E+00-3.72497E+00 2.25000E+00
 -1       513-1.90648E+00-3.36141E+00 2.25000E+00
 -1       514-3.24063E+00-9.06482E+00 2.25000E+00
 -1       515-4.11831E+00-8.70125E+00 2.25000E+00
 -1       516-9.50000E-01 6.70821E+00 2.25000E+00
 -1       517 4.74999E-01 9.61492E+00 2.25000E+00
 -1       518 4.74999E-01 3.83512E+00 2.25000E+00
 -1       519-4.74999E-01 3.83512E+00 2.25000E+00
 -1       520-4.74999E-01 9.61492E+00 2.25000E+00
 -1       521-1.02879E+00 3.72497E+00 2.25000E+00
 -1       522-1.90648E+00 3.36141E+00 2.25000E+00
 -1       523-3.24063E+00 9.06482E+00 2.25000E+00
 -1       524-4.11831E+00 8.70125E+00 2.25000E+00
 -1       525 9.50000E-01 6.70821E+00 2.25000E+00
 -1       526 9.50000E-01-6.70821E+00 2.25000E+00
 -1       527-2.37597E+00-3.04771E+00 2.25000E+00
 -1       528-3.04771E+00-2.37597E+00 2.25000E+00
 -1       529-2.37597E+00 3.04771E+00 2.25000E+00
 -1       530-3.04771E+00 2.37597E+00 2.25000E+00
 -1       531-4.07166E+00-5.41517E+00 2.25000E+00
 -1       532-5.41517E+00-4.07166E+00 2.25000E+00
 -1       533-5.83402E+00-3.44480E+00 2.25000E+00
 -1       534-6.56112E+00-1.68944E+00 2.25000E+00
 -1       535-9.61492E+00 4.74999E-01 2.25000E+00
 -1       536-9.61492E+00-4.74999E-01 2.25000E+00
 -1       537-8.70125E+00 4.11831E+00 2.25000E+00
 -1       538-9.06482E+00 3.24063E+00 2.25000E+00
 -1       539-6.46290E+00 7.13465E+00 2.25000E+00
 -1       540-7.13465E+00 6.46290E+00 2.25000E+00
 -1       541-6.70821E+00 9.50000E-01 2.25000E+00
 -1       542-6.70821E+00-9.50000E-01 2.25000E+00
 -1       543-6.46290E+00-7.13465E+00 2.25000E+00
 -1       544-7.13465E+00-6.46290E+00 2.25000E+00
 -1       545-8.70125E+00-4.11831E+00 2.25000E+00
 -1       546-9.06482E+00-3.24063E+00 2.25000E+00
 -1       547 1.10957E+01 4.74999E-01 1.37500E+00
 -1       548 1.10957E+01-4.74999E-01 1.37500E+00
 -1       549 9.61492E+00 4.74999E-01 5.00000E-01
 -1       550 8.13414E+00 4.74999E-01 1.37500E+00
 -1       551 5.28227E+00 4.74999E-01 1.37500E+00
 -1       552 3.83512E+00 4.74999E-01 5.00000E-01
 -1       553 2.38798E+00 4.74999E-01 1.37500E+00
 -1       554 2.38798E+00-4.74999E-01 1.37500E+00
 -1       555 3.83512E+00-4.74999E-01 5.00000E-01
 -1       556 5.28227E+00-4.74999E-01 1.37500E+00
 -1       557 8.13414E+00-4.74999E-01 1.37500E+00
 -1       558 9.61492E+00-4.74999E-01 5.00000E-01
 -1       559 5.28227E+00-9.50000E-01 1.37500E+00
 -1       560 5.28227E+00 9.50000E-01 1.37500E+00
 -1       561 8.13414E+00-9.50000E-01 1.37500E+00
 -1       562 8.13414E+00 9.50000E-01 1.37500E+00
 -1       563 6.70821E+00-9.50000E-01 5.00000E-01
 -1       564 6.70821E+00 9.50000E-01 5.00000E-01
 -1       565 1.96740E+00 1.31457E+00 1.37500E+00
 -1       566 1.00693E+01 4.68498E+00 1.37500E+00
 -1       567 1.04329E+01 3.80730E+00 1.37500E+00
 -1       568 8.70125E+00 4.11831E+00 5.00000E-01
 -1       569 7.33319E+00 3.55164E+00 1.37500E+00
 -1       570 4.69840E+00 2.46028E+00 1.37500E+00
 -1       571 3.36141E+00 1.90648E+00 5.00000E-01
 -1       572 2.02443E+00 1.35268E+00 1.37500E+00
 -1       573 3.72497E+00 1.02879E+00 5.00000E-01
 -1       574 5.06195E+00 1.58259E+00 1.37500E+00
 -1       575 7.69674E+00 2.67396E+00 1.37500E+00
 -1       576 9.06482E+00 3.24063E+00 5.00000E-01
 -1       577 5.24373E+00 1.14375E+00 1.37500E+00
 -1       578 4.51663E+00 2.89912E+00 1.37500E+00
 -1       579 7.87852E+00 2.23512E+00 1.37500E+00
 -1       580 7.15142E+00 3.99049E+00 1.37500E+00
 -1       581 6.56112E+00 1.68944E+00 5.00000E-01
 -1       582 5.83402E+00 3.44480E+00 5.00000E-01
 -1       583 1.31457E+00 1.96740E+00 1.37500E+00
 -1       584 7.50997E+00 8.18172E+00 1.37500E+00
 -1       585 8.18172E+00 7.50997E+00 1.37500E+00
 -1       586 6.46290E+00 7.13465E+00 5.00000E-01
 -1       587 5.41583E+00 6.08758E+00 1.37500E+00
 -1       588 3.39925E+00 4.07100E+00 1.37500E+00
 -1       589 2.37597E+00 3.04771E+00 5.00000E-01
 -1       590 1.35268E+00 2.02443E+00 1.37500E+00
 -1       591 4.07100E+00 3.39925E+00 1.37500E+00
 -1       592 3.04771E+00 2.37597E+00 5.00000E-01
 -1       593 6.08758E+00 5.41583E+00 1.37500E+00
 -1       594 7.13465E+00 6.46290E+00 5.00000E-01
 -1       595 4.40688E+00 3.06338E+00 1.37500E+00
 -1       596 3.06338E+00 4.40688E+00 1.37500E+00
 -1       597 6.42346E+00 5.07995E+00 1.37500E+00
 -1       598 5.07995E+00 6.42346E+00 1.37500E+00
 -1       599 5.41517E+00 4.07166E+00 5.00000E-01
 -1       600 4.07166E+00 5.41517E+00 5.00000E-01
 -1       601 4.61617E-01 2.32070E+00 1.37500E+00
 -1       602 4.68498E+00 1.00693E+01 1.37500E+00
 -1       603 3.80730E+00 1.04329E+01 1.37500E+00
 -1       604 3.24063E+00 9.06482E+00 5.00000E-01
 -1       605 2.67396E+00 7.69674E+00 1.37500E+00
 -1       606 1.58259E+00 5.06195E+00 1.37500E+00
 -1       607 1.02879E+00 3.72497E+00 5.00000E-01
 -1       608 4.74999E-01 2.38798E+00 1.37500E+00
 -1       609 2.46028E+00 4.69840E+00 1.37500E+00
 -1       610 1.90648E+00 3.36141E+00 5.00000E-01
 -1       611 3.55164E+00 7.33319E+00 1.37500E+00
 -1       612 4.11831E+00 8.70125E+00 5.00000E-01
 -1       613 2.89912E+00 4.51663E+00 1.37500E+00
 -1       614 1.14375E+00 5.24373E+00 1.37500E+00
 -1       615 3.99049E+00 7.15142E+00 1.37500E+00
 -1       616 2.23512E+00 7.87852E+00 1.37500E+00
 -1       617 3.44480E+00 5.83402E+00 5.00000E-01
 -1       618 1.68944E+00 6.56112E+00 5.00000E-01
 -1       619-4.61617E-01 2.32070E+00 1.37500E+00
 -1       620 4.74999E-01 1.10957E+01 1.37500E+00
 -1       621-4.74999E-01 1.10957E+01 1.37500E+00
 -1       622-4.74999E-01 9.61492E+00 5.00000E-01
 -1       623-4.74999E-01 8.13414E+00 1.37500E+00
 -1       624-4.74999E-01 5.28227E+00 1.37500E+00
 -1       625-4.74999E-01 3.83512E+00 5.00000E-01
 -1       626-4.74999E-01 2.38798E+00 1.37500E+00
 -1       627 4.74999E-01 5.28227E+00 1.37500E+00
 -1       628 4.74999E-01 3.83512E+00 5.00000E-01
 -1       629 4.74999E-01 8.13414E+00 1.37500E+00
 -1       630 4.74999E-01 9.61492E+00 5.00000E-01
 -1       631 9.50000E-01 5.28227E+00 1.37500E+00
 -1       632-9.50000E-01 5.28227E+00 1.37500E+00
 -1       633 9.50000E-01 8.13414E+00 1.37500E+00
 -1       634-9.50000E-01 8.13414E+00 1.37500E+00
 -1       635 9.50000E-01 6.70821E+00 5.00000E-01
 -1       636-9.50000E-01 6.70821E+00 5.00000E-01
 -1       637-1.31457E+00 1.96740E+00 1.37500E+00
 -1       638-3.80730E+00 1.04329E+01 1.37500E+00
 -1       639-4.68498E+00 1.00693E+01 1.37500E+00
 -1       640-4.11831E+00 8.70125E+00 5.00000E-01
 -1       641-3.55164E+00 7.33319E+00 1.37500E+00
 -1       642-2.46028E+00 4.69840E+00 1.37500E+00
 -1       643-1.90648E+00 3.36141E+00 5.00000E-01
 -1       644-1.35268E+00 2.02443E+00 1.37500E+00
 -1       645-1.58259E+00 5.06195E+00 1.37500E+00
 -1       646-1.02879E+00 3.72497E+00 5.00000E-01
 -1       647-2.67396E+00 7.69674E+00 1.37500E+00
 -1       648-3.24063E+00 9.06482E+00 5.00000E-01
 -1       649-1.14375E+00 5.24373E+00 1.37500E+00
 -1       650-2.89912E+00 4.51663E+00 1.37500E+00
 -1       651-2.23512E+00 7.87852E+00 1.37500E+00
 -1       652-3.99049E+00 7.15142E+00 1.37500E+00
 -1       653-1.68944E+00 6.56112E+00 5.00000E-01
 -1       654-3.44480E+00 5.83402E+00 5.00000E-01
 -1       655-1.96740E+00 1.31457E+00 1.37500E+00
 -1       656-7.50997E+00 8.18172E+00 1.37500E+00
 -1       657-8.18172E+00 7.50997E+00 1.37500E+00
 -1       658-7.13465E+00 6.46290E+00 5.00000E-01
 -1       659-6.08758E+00 5.41583E+00 1.37500E+00
 -1       660-4.07100E+00 3.39925E+00 1.37500E+00
 -1       661-3.04771E+00 2.37597E+00 5.00000E-01
 -1       662-2.02443E+00 1.35268E+00 1.37500E+00
 -1       663-3.39925E+00 4.07100E+00 1.37500E+00
 -1       664-2.37597E+00 3.04771E+00 5.00000E-01
 -1       665-5.41583E+00 6.08758E+00 1.37500E+00
 -1       666-6.46290E+00 7.13465E+00 5.00000E-01
 -1       667-3.06338E+00 4.40688E+00 1.37500E+00
 -1       668-4.40688E+00 3.06338E+00 1.37500E+00
 -1       669-5.07995E+00 6.42346E+00 1.37500E+00
 -1       670-6.42346E+00 5.07995E+00 1.37500E+00
 -1       671-4.07166E+00 5.41517E+00 5.00000E-01
 -1       672-5.41517E+00 4.07166E+00 5.00000E-01
 -1       673-2.32070E+00 4.61617E-01 1.37500E+00
 -1       674-1.00693E+01 4.68498E+00 1.37500E+00
 -1       675-1.04329E+01 3.80730E+00 1.37500E+00
 -1       676-9.06482E+00 3.24063E+00 5.00000E-01
 -1       677-7.69674E+00 2.67396E+00 1.37500E+00
 -1       678-5.06195E+00 1.58259E+00 1.37500E+00
 -1       679-3.72497E+00 1.02879E+00 5.00000E-01
 -1       680-2.38798E+00 4.74999E-01 1.37500E+00
 -1       681-3.36141E+00 1.90648E+00 5.00000E-01
 -1       682-4.69840E+00 2.46028E+00 1.37500E+00
 -1       683-7.33319E+00 3.55164E+00 1.37500E+00
 -1       684-8.70125E+00 4.11831E+00 5.00000E-01
 -1       685-4.51663E+00 2.89912E+00 1.37500E+00
 -1       686-5.24373E+00 1.14375E+00 1.37500E+00
 -1       687-7.15142E+00 3.99049E+00 1.37500E+00
 -1       688-7.87852E+00 2.23512E+00 1.37500E+00
 -1       689-5.83402E+00 3.44480E+00 5.00000E-01
 -1       690-6.56112E+00 1.68944E+00 5.00000E-01
 -1       691-2.32070E+00-4.61617E-01 1.37500E+00
 -1       692-1.10957E+01 4.74999E-01 1.37500E+00
 -1       693-1.10957E+01-4.74999E-01 1.37500E+00
 -1       694-9.61492E+00-4.74999E-01 5.00000E-01
 -1       695-8.13414E+00-4.74999E-01 1.37500E+00
 -1       696-5.28227E+00-4.74999E-01 1.37500E+00
 -1       697-3.83512E+00-4.74999E-01 5.00000E-01
 -1       698-2.38798E+00-4.74999E-01 1.37500E+00
 -1       699-3.83512E+00 4.74999E-01 5.00000E-01
 -1       700-5.28227E+00 4.74999E-01 1.37500E+00
 -1       701-8.13414E+00 4.74999E-01 1.37500E+00
 -1       702-9.61492E+00 4.74999E-01 5.00000E-01
 -1       703-5.28227E+00 9.50000E-01 1.37500E+00
 -1       704-5.28227E+00-9.50000E-01 1.37500E+00
 -1       705-8.13414E+00 9.50000E-01 1.37500E+00
 -1       706-8.13414E+00-9.50000E-01 1.37500E+00
 -1       707-6.70821E+00 9.50000E-01 5.00000E-01
 -1       708-6.70821E+00-9.50000E-01 5.00000E-01
 -1       709-1.96740E+00-1.31457E+00 1.37500E+00
 -1       710-1.04329E+01-3.80730E+00 1.37500E+00
 -1       711-1.00693E+01-4.68498E+00 1.37500E+00
 -1       712-8.70125E+00-4.11831E+00 5.00000E-01
 -1       713-7.33319E+00-3.55164E+00 1.37500E+00
 -1       714-4.69840E+00-2.46028E+00 1.37500E+00
 -1       715-3.36141E+00-1.90648E+00 5.00000E-01
 -1       716-2.02443E+00-1.35268E+00 1.37500E+00
 -1       717-3.72497E+00-1.02879E+00 5.00000E-01
 -1       718-5.06195E+00-1.58259E+00 1.37500E+00
 -1       719-7.69674E+00-2.67396E+00 1.37500E+00
 -1       720-9.06482E+00-3.24063E+00 5.00000E-01
 -1       721-5.24373E+00-1.14375E+00 1.37500E+00
 -1       722-4.51663E+00-2.89912E+00 1.37500E+00
 -1       723-7.87852E+00-2.23512E+00 1.37500E+00
 -1       724-7.15142E+00-3.99049E+00 1.37500E+00
 -1       725-6.56112E+00-1.68944E+00 5.00000E-01
 -1       726-5.83402E+00-3.44480E+00 5.00000E-01
 -1       727-1.31457E+00-1.96740E+00 1.37500E+00
 -1       728-8.18172E+00-7.50997E+00 1.37500E+00
 -1       729-7.50997E+00-8.18172E+00 1.37500E+00
 -1       730-5.41583E+00-6.08758E+00 1.37500E+00
 -1       731-6.46290E+00-7.13465E+00 5.00000E-01
 -1       732-1.35268E+00-2.02443E+00 1.37500E+00
 -1       733-3.39925E+00-4.07100E+00 1.37500E+00
 -1       734-2.37597E+00-3.04771E+00 5.00000E-01
 -1       735-3.04771E+00-2.37597E+00 5.00000E-01
 -1       736-4.07100E+00-3.39925E+00 1.37500E+00
 -1       737-6.08758E+00-5.41583E+00 1.37500E+00
 -1       738-7.13465E+00-6.46290E+00 5.00000E-01
 -1       739-4.40688E+00-3.06338E+00 1.37500E+00
 -1       740-3.06338E+00-4.40688E+00 1.37500E+00
 -1       741-6.42346E+00-5.07995E+00 1.37500E+00
 -1       742-5.07995E+00-6.42346E+00 1.37500E+00
 -1       743-5.41517E+00-4.07166E+00 5.00000E-01
 -1       744-4.07166E+00-5.41517E+00 5.00000E-01
 -1       745-4.61617E-01-2.32070E+00 1.37500E+00
 -1       746-4.68498E+00-1.00693E+01 1.37500E+00
 -1       747-3.80730E+00-1.04329E+01 1.37500E+00
 -1       748-2.67396E+00-7.69674E+00 1.37500E+00
 -1       749-3.24063E+00-9.06482E+00 5.00000E-01
 -1       750-4.74999E-01-2.38798E+00 1.37500E+00
 -1       751-1.58259E+00-5.06195E+00 1.37500E+00
 -1       752-1.02879E+00-3.72497E+00 5.00000E-01
 -1       753-1.90648E+00-3.36141E+00 5.00000E-01
 -1       754-2.46028E+00-4.69840E+00 1.37500E+00
 -1       755-3.55164E+00-7.33319E+00 1.37500E+00
 -1       756-4.11831E+00-8.70125E+00 5.00000E-01
 -1       757-2.89912E+00-4.51663E+00 1.37500E+00
 -1       758-1.14375E+00-5.24373E+00 1.37500E+00
 -1       759-3.99049E+00-7.15142E+00 1.37500E+00
 -1       760-2.23512E+00-7.87852E+00 1.37500E+00
 -1       761-3.44480E+00-5.83402E+00 5.00000E-01
 -1       762-1.68944E+00-6.56112E+00 5.00000E-01
 -1       763 4.61617E-01-2.32070E+00 1.37500E+00
 -1       764-4.74999E-01-1.10957E+01 1.37500E+00
 -1       765 4.74999E-01-1.10957E+01 1.37500E+00
 -1       766 4.74999E-01-8.13414E+00 1.37500E+00
 -1       767 4.74999E-01-9.61492E+00 5.00000E-01
 -1       768 4.74999E-01-2.38798E+00 1.37500E+00
 -1       769 4.74999E-01-5.28227E+00 1.37500E+00
 -1       770 4.74999E-01-3.83512E+00 5.00000E-01
 -1       771-4.74999E-01-3.83512E+00 5.00000E-01
 -1       772-4.74999E-01-5.28227E+00 1.37500E+00
 -1       773-4.74999E-01-8.13414E+00 1.37500E+00
 -1       774-4.74999E-01-9.61492E+00 5.00000E-01
 -1       775-9.50000E-01-5.28227E+00 1.37500E+00
 -1       776 9.50000E-01-5.28227E+00 1.37500E+00
 -1       777-9.50000E-01-8.13414E+00 1.37500E+00
 -1       778 9.50000E-01-8.13414E+00 1.37500E+00
 -1       779-9.50000E-01-6.70821E+00 5.00000E-01
 -1       780 9.50000E-01-6.70821E+00 5.00000E-01
 -1       781 1.31457E+00-1.96740E+00 1.37500E+00
 -1       782 3.80730E+00-1.04329E+01 1.37500E+00
 -1       783 4.68498E+00-1.00693E+01 1.37500E+00
 -1       784 3.55164E+00-7.33319E+00 1.37500E+00
 -1       785 4.11831E+00-8.70125E+00 5.00000E-01
 -1       786 1.35268E+00-2.02443E+00 1.37500E+00
 -1       787 2.46028E+00-4.69840E+00 1.37500E+00
 -1       788 1.90648E+00-3.36141E+00 5.00000E-01
 -1       789 1.02879E+00-3.72497E+00 5.00000E-01
 -1       790 1.58259E+00-5.06195E+00 1.37500E+00
 -1       791 2.67396E+00-7.69674E+00 1.37500E+00
 -1       792 3.24063E+00-9.06482E+00 5.00000E-01
 -1       793 1.14375E+00-5.24373E+00 1.37500E+00
 -1       794 2.89912E+00-4.51663E+00 1.37500E+00
 -1       795 2.23512E+00-7.87852E+00 1.37500E+00
 -1       796 3.99049E+00-7.15142E+00 1.37500E+00
 -1       797 1.68944E+00-6.56112E+00 5.00000E-01
 -1       798 3.44480E+00-5.83402E+00 5.00000E-01
 -1       799 1.96740E+00-1.31457E+00 1.37500E+00
 -1       800 8.18172E+00-7.50997E+00 1.37500E+00
 -1       801 7.50997E+00-8.18172E+00 1.37500E+00
 -1       802 6.08758E+00-5.41583E+00 1.37500E+00
 -1       803 7.13465E+00-6.46290E+00 5.00000E-01
 -1       804 2.02443E+00-1.35268E+00 1.37500E+00
 -1       805 4.07100E+00-3.39925E+00 1.37500E+00
 -1       806 3.04771E+00-2.37597E+00 5.00000E-01
 -1       807 2.37597E+00-3.04771E+00 5.00000E-01
 -1       808 3.39925E+00-4.07100E+00 1.37500E+00
 -1       809 5.41583E+00-6.08758E+00 1.37500E+00
 -1       810 6.46290E+00-7.13465E+00 5.00000E-01
 -1       811 3.06338E+00-4.40688E+00 1.37500E+00
 -1       812 4.40688E+00-3.06338E+00 1.37500E+00
 -1       813 5.07995E+00-6.42346E+00 1.37500E+00
 -1       814 6.42346E+00-5.07995E+00 1.37500E+00
 -1       815 4.07166E+00-5.41517E+00 5.00000E-01
 -1       816 5.41517E+00-4.07166E+00 5.00000E-01
 -1       817 1.04329E+01-3.80730E+00 1.37500E+00
 -1       818 1.00693E+01-4.68498E+00 1.37500E+00
 -1       819 9.06482E+00-3.24063E+00 5.00000E-01
 -1       820 7.69674E+00-2.67396E+00 1.37500E+00
 -1       821 5.06195E+00-1.58259E+00 1.37500E+00
 -1       822 3.72497E+00-1.02879E+00 5.00000E-01
 -1       823 3.36141E+00-1.90648E+00 5.00000E-01
 -1       824 4.69840E+00-2.46028E+00 1.37500E+00
 -1       825 7.33319E+00-3.55164E+00 1.37500E+00
 -1       826 8.70125E+00-4.11831E+00 5.00000E-01
 -1       827 4.51663E+00-2.89912E+00 1.37500E+00
 -1       828 5.24373E+00-1.14375E+00 1.37500E+00
 -1       829 7.15142E+00-3.99049E+00 1.37500E+00
 -1       830 7.87852E+00-2.23512E+00 1.37500E+00
 -1       831 5.83402E+00-3.44480E+00 5.00000E-01
 -1       832 6.56112E+00-1.68944E+00 5.00000E-01
 -1       833 1.48559E+01 1.46318E+00 5.00000E-01
 -1       834 1.48559E+01 1.46318E+00-5.00000E-01
 -1       835-1.48559E+01 1.46318E+00-5.00000E-01
 -1       836-1.48559E+01 1.46318E+00 5.00000E-01
 -1       837 1.46318E+00 1.48559E+01 5.00000E-01
 -1       838 1.46318E+00 1.48559E+01-5.00000E-01
 -1       839-1.46318E+00-1.48559E+01 5.00000E-01
 -1       840-1.46318E+00-1.48559E+01-5.00000E-01
 -1       841 1.15393E+01 9.47007E+00 5.00000E-01
 -1       842 1.15393E+01 9.47007E+00-5.00000E-01
 -1       843-9.47007E+00 1.15393E+01 5.00000E-01
 -1       844-9.47007E+00 1.15393E+01-5.00000E-01
 -1       845-4.33330E+00 1.42850E+01 5.00000E-01
 -1       846-4.33330E+00 1.42850E+01-5.00000E-01
 -1       847 9.47007E+00-1.15393E+01 5.00000E-01
 -1       848 9.47007E+00-1.15393E+01-5.00000E-01
 -1       849 1.48559E+01-1.46318E+00-5.00000E-01
 -1       850 1.42850E+01-4.33330E+00-5.00000E-01
 -1       851 1.42850E+01 4.33330E+00-5.00000E-01
 -1       852 1.31651E+01-7.03690E+00-5.00000E-01
 -1       853 1.31651E+01 7.03690E+00-5.00000E-01
 -1       854 1.15393E+01-9.47007E+00-5.00000E-01
 -1       855 9.47007E+00 1.15393E+01-5.00000E-01
 -1       856 7.03690E+00-1.31651E+01-5.00000E-01
 -1       857 7.03690E+00 1.31651E+01-5.00000E-01
 -1       858 4.33330E+00-1.42850E+01-5.00000E-01
 -1       859 4.33330E+00 1.42850E+01-5.00000E-01
 -1       860 1.46318E+00-1.48559E+01-5.00000E-01
 -1       861-1.46318E+00 1.48559E+01-5.00000E-01
 -1       862-4.33330E+00-1.42850E+01-5.00000E-01
 -1       863-7.03690E+00-1.31651E+01-5.00000E-01
 -1       864-7.03690E+00 1.31651E+01-5.00000E-01
 -1       865-9.47007E+00-1.15393E+01-5.00000E-01
 -1       866-1.15393E+01-9.47007E+00-5.00000E-01
 -1       867-1.15393E+01 9.47007E+00-5.00000E-01
 -1       868-1.31651E+01-7.03690E+00-5.00000E-01
 -1       869-1.31651E+01 7.03690E+00-5.00000E-01
 -1       870-1.42850E+01-4.33330E+00-5.00000E-01
 -1       871-1.42850E+01 4.33330E+00-5.00000E-01
 -1       872-1.48559E+01-1.46318E+00-5.00000E-01
 -1       873 1.31651E+01 7.03690E+00 5.00000E-01
 -1       874 1.42850E+01 4.33330E+00 5.00000E-01
 -1       875 7.03690E+00 1.31651E+01 5.00000E-01
 -1       876 4.33330E+00 1.42850E+01 5.00000E-01
 -1       877 9.47007E+00 1.15393E+01 5.00000E-01
 -1       878-1.31651E+01 7.03690E+00 5.00000E-01
 -1       879-1.15393E+01 9.47007E+00 5.00000E-01
 -1       880-1.42850E+01 4.33330E+00 5.00000E-01
 -1       881-1.46318E+00 1.48559E+01 5.00000E-01
 -1       882-7.03690E+00 1.31651E+01 5.00000E-01
 -1       883 1.48559E+01-1.46318E+00 5.00000E-01
 -1       884 1.42850E+01-4.33330E+00 5.00000E-01
 -1       885 1.31651E+01-7.03690E+00 5.00000E-01
 -1       886 1.15393E+01-9.47007E+00 5.00000E-01
 -1       887 7.03690E+00-1.31651E+01 5.00000E-01
 -1       888 4.33330E+00-1.42850E+01 5.00000E-01
 -1       889 1.46318E+00-1.48559E+01 5.00000E-01
 -1       890-4.33330E+00-1.42850E+01 5.00000E-01
 -1       891-7.03690E+00-1.31651E+01 5.00000E-01
 -1       892-9.47007E+00-1.15393E+01 5.00000E-01
 -1       893-1.15393E+01-9.47007E+00 5.00000E-01
 -1       894-1.31651E+01-7.03690E+00 5.00000E-01
 -1       895-1.42850E+01-4.33330E+00 5.00000E-01
 -1       896-1.48559E+01-1.46318E+00 5.00000E-01
 -1       897-3.71765E+00-6.49272E+00 2.25000E+00
 -1       898-4.57581E+00 5.91931E+00 2.25000E+00
 -1       899-4.55870E+00 4.74999E-01 2.25000E+00
 -1       900-3.11155E+00-4.74999E-01 2.25000E+00
 -1       901-4.39346E+00-1.30569E+00 2.25000E+00
 -1       902-1.41659E+00-5.90243E+00 2.25000E+00
 -1       903-1.96228E+00 7.21982E+00 2.25000E+00
 -1       904 2.95729E+00 8.38078E+00 2.25000E+00
 -1       905 3.71765E+00 6.49272E+00 2.25000E+00
 -1       906 3.55936E+00 2.88761E+00 2.25000E+00
 -1       907 1.86432E+00 2.53607E+00 2.25000E+00
 -1       908 2.69292E+00 1.62958E+00 2.25000E+00
 -1       909 4.55870E+00-4.74999E-01 2.25000E+00
 -1       910 5.99524E+00 9.50000E-01 2.25000E+00
 -1       911 8.87453E+00 4.74999E-01 2.25000E+00
 -1       912 1.03553E+01-4.74999E-01 2.25000E+00
 -1       913 3.17196E+00-5.17533E+00 2.25000E+00
 -1       914 9.74886E+00 3.52396E+00 2.25000E+00
 -1       915 6.49272E+00 3.71765E+00 2.25000E+00
 -1       916 5.17533E+00 3.17196E+00 2.25000E+00
 -1       917 3.56752E+00 4.91103E+00 2.25000E+00
 -1       918 1.30569E+00-4.39346E+00 2.25000E+00
 -1       919 4.74999E-01-3.11155E+00 2.25000E+00
 -1       920-4.74999E-01-1.03553E+01 2.25000E+00
 -1       921 4.02991E+00-2.18338E+00 2.25000E+00
 -1       922 8.38078E+00-2.95729E+00 2.25000E+00
 -1       923 9.38527E+00-4.40165E+00 2.25000E+00
 -1       924 2.53607E+00-1.86432E+00 2.25000E+00
 -1       925 2.88761E+00-3.55936E+00 2.25000E+00
 -1       926 6.61111E+00-5.93936E+00 2.25000E+00
 -1       927 6.98643E+00-7.65819E+00 2.25000E+00
 -1       928 1.41659E+00-5.90243E+00 2.25000E+00
 -1       929 1.96228E+00-7.21982E+00 2.25000E+00
 -1       930-9.50000E-01-7.42117E+00 2.25000E+00
 -1       931 4.74999E-01 4.55870E+00 2.25000E+00
 -1       932-4.74999E-01 3.11155E+00 2.25000E+00
 -1       933-5.91931E+00-4.57581E+00 2.25000E+00
 -1       934-8.38078E+00 2.95729E+00 2.25000E+00
 -1       935-6.98643E+00 7.65819E+00 2.25000E+00
 -1       936-7.42117E+00 9.50000E-01 2.25000E+00
 -1       937-5.93936E+00-6.61111E+00 2.25000E+00
 -1       938-7.65819E+00-6.98643E+00 2.25000E+00
 -1       939-9.74886E+00-3.52396E+00 2.25000E+00
 -1       940 8.87453E+00 4.74999E-01 5.00000E-01
 -1       941 3.11155E+00 4.74999E-01 5.00000E-01
 -1       942 4.55870E+00-4.74999E-01 5.00000E-01
 -1       943 1.03553E+01-4.74999E-01 5.00000E-01
 -1       944 5.99524E+00-9.50000E-01 5.00000E-01
 -1       945 7.42117E+00-9.50000E-01 5.00000E-01
 -1       946 7.42117E+00 9.50000E-01 5.00000E-01
 -1       947 5.99524E+00 9.50000E-01 5.00000E-01
 -1       948 8.01722E+00 3.83498E+00 5.00000E-01
 -1       949 2.69292E+00 1.62958E+00 5.00000E-01
 -1       950 4.39346E+00 1.30569E+00 5.00000E-01
 -1       951 9.74886E+00 3.52396E+00 5.00000E-01
 -1       952 7.21982E+00 1.96228E+00 5.00000E-01
 -1       953 6.49272E+00 3.71765E+00 5.00000E-01
 -1       954 5.17533E+00 3.17196E+00 5.00000E-01
 -1       955 5.93936E+00 6.61111E+00 5.00000E-01
 -1       956 1.86432E+00 2.53607E+00 5.00000E-01
 -1       957 3.55936E+00 2.88761E+00 5.00000E-01
 -1       958 7.65819E+00 6.98643E+00 5.00000E-01
 -1       959 5.91931E+00 4.57581E+00 5.00000E-01
 -1       960 4.57581E+00 5.91931E+00 5.00000E-01
 -1       961 3.56752E+00 4.91103E+00 5.00000E-01
 -1       962 3.52396E+00 9.74886E+00 5.00000E-01
 -1       963 2.95729E+00 8.38078E+00 5.00000E-01
 -1       964 7.51897E-01 3.05647E+00 5.00000E-01
 -1       965 2.18338E+00 4.02991E+00 5.00000E-01
 -1       966 4.40165E+00 9.38527E+00 5.00000E-01
 -1       967 3.17196E+00 5.17533E+00 5.00000E-01
 -1       968 3.71765E+00 6.49272E+00 5.00000E-01
 -1       969 1.96228E+00 7.21982E+00 5.00000E-01
 -1       970 1.41659E+00 5.90243E+00 5.00000E-01
 -1       971-4.74999E-01 8.87453E+00 5.00000E-01
 -1       972-4.74999E-01 3.11155E+00 5.00000E-01
 -1       973 4.74999E-01 4.55870E+00 5.00000E-01
 -1       974 4.74999E-01 1.03553E+01 5.00000E-01
 -1       975 9.50000E-01 5.99524E+00 5.00000E-01
 -1       976 9.50000E-01 7.42117E+00 5.00000E-01
 -1       977-9.50000E-01 7.42117E+00 5.00000E-01
 -1       978-9.50000E-01 5.99524E+00 5.00000E-01
 -1       979-4.40165E+00 9.38527E+00 5.00000E-01
 -1       980-3.83498E+00 8.01722E+00 5.00000E-01
 -1       981-1.62958E+00 2.69292E+00 5.00000E-01
 -1       982-1.30569E+00 4.39346E+00 5.00000E-01
 -1       983-3.52396E+00 9.74886E+00 5.00000E-01
 -1       984-1.41659E+00 5.90243E+00 5.00000E-01
 -1       985-1.96228E+00 7.21982E+00 5.00000E-01
 -1       986-3.71765E+00 6.49272E+00 5.00000E-01
 -1       987-3.17196E+00 5.17533E+00 5.00000E-01
 -1       988-7.65819E+00 6.98643E+00 5.00000E-01
 -1       989-6.61111E+00 5.93936E+00 5.00000E-01
 -1       990-2.53607E+00 1.86432E+00 5.00000E-01
 -1       991-2.88761E+00 3.55936E+00 5.00000E-01
 -1       992-6.98643E+00 7.65819E+00 5.00000E-01
 -1       993-3.56752E+00 4.91103E+00 5.00000E-01
 -1       994-4.57581E+00 5.91931E+00 5.00000E-01
 -1       995-5.91931E+00 4.57581E+00 5.00000E-01
 -1       996-4.91103E+00 3.56752E+00 5.00000E-01
 -1       997-8.38078E+00 2.95729E+00 5.00000E-01
 -1       998-3.05647E+00 7.51897E-01 5.00000E-01
 -1       999-4.02991E+00 2.18338E+00 5.00000E-01
 -1      1000-9.38527E+00 4.40165E+00 5.00000E-01
 -1      1001-5.17533E+00 3.17196E+00 5.00000E-01
 -1      1002-6.49272E+00 3.71765E+00 5.00000E-01
 -1      1003-7.21982E+00 1.96228E+00 5.00000E-01
 -1      1004-5.90243E+00 1.41659E+00 5.00000E-01
 -1      1005-8.87453E+00-4.74999E-01 5.00000E-01
 -1      1006-3.11155E+00-4.74999E-01 5.00000E-01
 -1      1007-4.55870E+00 4.74999E-01 5.00000E-01
 -1      1008-1.03553E+01 4.74999E-01 5.00000E-01
 -1      1009-5.99524E+00 9.50000E-01 5.00000E-01
 -1      1010-7.42117E+00 9.50000E-01 5.00000E-01
 -1      1011-7.42117E+00-9.50000E-01 5.00000E-01
 -1      1012-5.99524E+00-9.50000E-01 5.00000E-01
 -1      1013-9.38527E+00-4.40165E+00 5.00000E-01
 -1      1014-8.01722E+00-3.83498E+00 5.00000E-01
 -1      1015-2.69292E+00-1.62958E+00 5.00000E-01
 -1      1016-4.39346E+00-1.30569E+00 5.00000E-01
 -1      1017-9.74886E+00-3.52396E+00 5.00000E-01
 -1      1018-5.90243E+00-1.41659E+00 5.00000E-01
 -1      1019-7.21982E+00-1.96228E+00 5.00000E-01
 -1      1020-6.49272E+00-3.71765E+00 5.00000E-01
 -1      1021-5.17533E+00-3.17196E+00 5.00000E-01
 -1      1022-6.98643E+00-7.65819E+00 5.00000E-01
 -1      1023-5.93936E+00-6.61111E+00 5.00000E-01
 -1      1024-1.86432E+00-2.53607E+00 5.00000E-01
 -1      1025-3.55936E+00-2.88761E+00 5.00000E-01
 -1      1026-7.65819E+00-6.98643E+00 5.00000E-01
 -1      1027-4.91103E+00-3.56752E+00 5.00000E-01
 -1      1028-5.91931E+00-4.57581E+00 5.00000E-01
 -1      1029-4.57581E+00-5.91931E+00 5.00000E-01
 -1      1030-3.56752E+00-4.91103E+00 5.00000E-01
 -1      1031-2.95729E+00-8.38078E+00 5.00000E-01
 -1      1032-7.51897E-01-3.05647E+00 5.00000E-01
 -1      1033-2.18338E+00-4.02991E+00 5.00000E-01
 -1      1034-4.40165E+00-9.38527E+00 5.00000E-01
 -1      1035-3.17196E+00-5.17533E+00 5.00000E-01
 -1      1036-3.71765E+00-6.49272E+00 5.00000E-01
 -1      1037-1.96228E+00-7.21982E+00 5.00000E-01
 -1      1038-1.41659E+00-5.90243E+00 5.00000E-01
 -1      1039 4.74999E-01-8.87453E+00 5.00000E-01
 -1      1040 4.74999E-01-3.11155E+00 5.00000E-01
 -1      1041-4.74999E-01-4.55870E+00 5.00000E-01
 -1      1042-4.74999E-01-1.03553E+01 5.00000E-01
 -1      1043-9.50000E-01-5.99524E+00 5.00000E-01
 -1      1044-9.50000E-01-7.42117E+00 5.00000E-01
 -1      1045 9.50000E-01-7.42117E+00 5.00000E-01
 -1      1046 9.50000E-01-5.99524E+00 5.00000E-01
 -1      1047 4.40165E+00-9.38527E+00 5.00000E-01
 -1      1048 3.83498E+00-8.01722E+00 5.00000E-01
 -1      1049 1.62958E+00-2.69292E+00 5.00000E-01
 -1      1050 1.30569E+00-4.39346E+00 5.00000E-01
 -1      1051 3.52396E+00-9.74886E+00 5.00000E-01
 -1      1052 1.41659E+00-5.90243E+00 5.00000E-01
 -1      1053 1.96228E+00-7.21982E+00 5.00000E-01
 -1      1054 3.71765E+00-6.49272E+00 5.00000E-01
 -1      1055 3.17196E+00-5.17533E+00 5.00000E-01
 -1      1056 7.65819E+00-6.98643E+00 5.00000E-01
 -1      1057 6.61111E+00-5.93936E+00 5.00000E-01
 -1      1058 2.53607E+00-1.86432E+00 5.00000E-01
 -1      1059 2.88761E+00-3.55936E+00 5.00000E-01
 -1      1060 6.98643E+00-7.65819E+00 5.00000E-01
 -1      1061 3.56752E+00-4.91103E+00 5.00000E-01
 -1      1062 4.57581E+00-5.91931E+00 5.00000E-01
 -1      1063 5.91931E+00-4.57581E+00 5.00000E-01
 -1      1064 4.91103E+00-3.56752E+00 5.00000E-01
 -1      1065 8.38078E+00-2.95729E+00 5.00000E-01
 -1      1066 3.05647E+00-7.51897E-01 5.00000E-01
 -1      1067 4.02991E+00-2.18338E+00 5.00000E-01
 -1      1068 9.38527E+00-4.40165E+00 5.00000E-01
 -1      1069 5.17533E+00-3.17196E+00 5.00000E-01
 -1      1070 6.49272E+00-3.71765E+00 5.00000E-01
 -1      1071 7.21982E+00-1.96228E+00 5.00000E-01
 -1      1072 5.90243E+00-1.41659E+00 5.00000E-01
 -1      1073 1.49279E+01 7.31588E-01 5.00000E-01
 -1      1074 1.49279E+01 7.31588E-01-5.00000E-01
 -1      1075 1.47838E+01 2.19476E+00-5.00000E-01
 -1      1076-1.49279E+01 7.31588E-01-5.00000E-01
 -1      1077 2.19476E+00 1.47838E+01 5.00000E-01
 -1      1078-8.90181E+00 1.20056E+01 5.00000E-01
 -1      1079 1.47838E+01-2.19476E+00-5.00000E-01
 -1      1080 1.40716E+01-5.03678E+00-5.00000E-01
 -1      1081 1.44984E+01 3.62983E+00-5.00000E-01
 -1      1082 1.28186E+01-7.68523E+00-5.00000E-01
 -1      1083 1.28186E+01 7.68523E+00-5.00000E-01
 -1      1084 1.35117E+01 6.38858E+00-5.00000E-01
 -1      1085 1.20056E+01-8.90181E+00-5.00000E-01
 -1      1086 1.10730E+01-1.00383E+01-5.00000E-01
 -1      1087 1.00383E+01 1.10730E+01-5.00000E-01
 -1      1088 7.68523E+00-1.28186E+01-5.00000E-01
 -1      1089 6.38858E+00-1.35117E+01-5.00000E-01
 -1      1090 7.68523E+00 1.28186E+01-5.00000E-01
 -1      1091 3.62983E+00-1.44984E+01-5.00000E-01
 -1      1092 3.62983E+00 1.44984E+01-5.00000E-01
 -1      1093 5.03678E+00 1.40716E+01-5.00000E-01
 -1      1094 2.19476E+00-1.47838E+01-5.00000E-01
 -1      1095 7.31588E-01-1.49279E+01-5.00000E-01
 -1      1096-2.19476E+00 1.47838E+01-5.00000E-01
 -1      1097-7.31588E-01 1.49279E+01-5.00000E-01
 -1      1098-3.62983E+00-1.44984E+01-5.00000E-01
 -1      1099-5.03678E+00-1.40716E+01-5.00000E-01
 -1      1100-7.68523E+00-1.28186E+01-5.00000E-01
 -1      1101-7.68523E+00 1.28186E+01-5.00000E-01
 -1      1102-6.38858E+00 1.35117E+01-5.00000E-01
 -1      1103-1.00383E+01-1.10730E+01-5.00000E-01
 -1      1104-1.20056E+01-8.90181E+00-5.00000E-01
 -1      1105-1.20056E+01 8.90181E+00-5.00000E-01
 -1      1106-1.10730E+01 1.00383E+01-5.00000E-01
 -1      1107-1.35117E+01-6.38858E+00-5.00000E-01
 -1      1108-1.28186E+01 7.68523E+00-5.00000E-01
 -1      1109-1.44984E+01-3.62983E+00-5.00000E-01
 -1      1110-1.40716E+01 5.03678E+00-5.00000E-01
 -1      1111-1.47838E+01-2.19476E+00-5.00000E-01
 -1      1112-1.49279E+01-7.31588E-01-5.00000E-01
 -1      1113 1.35117E+01 6.38858E+00 5.00000E-01
 -1      1114 7.68523E+00 1.28186E+01 5.00000E-01
 -1      1115 1.00383E+01 1.10730E+01 5.00000E-01
 -1      1116-1.10730E+01 1.00383E+01 5.00000E-01
 -1      1117-1.40716E+01 5.03678E+00 5.00000E-01
 -1      1118-2.19476E+00 1.47838E+01 5.00000E-01
 -1      1119-7.68523E+00 1.28186E+01 5.00000E-01
 -1      1120 1.49279E+01-7.31588E-01 5.00000E-01
 -1      1121 1.44984E+01-3.62983E+00 5.00000E-01
 -1      1122 1.35117E+01-6.38858E+00 5.00000E-01
 -1      1123 1.20056E+01-8.90181E+00 5.00000E-01
 -1      1124 7.68523E+00-1.28186E+01 5.00000E-01
 -1      1125 5.03678E+00-1.40716E+01 5.00000E-01
 -1      1126 2.19476E+00-1.47838E+01 5.00000E-01
 -1      1127-3.62983E+00-1.44984E+01 5.00000E-01
 -1      1128-6.38858E+00-1.35117E+01 5.00000E-01
 -1      1129-8.90181E+00-1.20056E+01 5.00000E-01
 -1      1130-1.10730E+01-1.00383E+01 5.00000E-01
 -1      1131-1.28186E+01-7.68523E+00 5.00000E-01
 -1      1132-1.40716E+01-5.03678E+00 5.00000E-01
 -1      1133-1.47838E+01-2.19476E+00 5.00000E-01
 -1      1134-6.49272E+00 3.71765E+00 2.25000E+00
 -1      1135-5.17533E+00 3.17196E+00 2.25000E+00
 -1      1136-5.90243E+00 1.41659E+00 2.25000E+00
 -1      1137-7.21982E+00 1.96228E+00 2.25000E+00
 -1      1138-3.17196E+00-5.17533E+00 2.25000E+00
 -1      1139-3.17196E+00 5.17533E+00 2.25000E+00
 -1      1140-3.71765E+00 6.49272E+00 2.25000E+00
 -1      1141-3.56752E+00 4.91103E+00 2.25000E+00
 -1      1142-4.91103E+00 3.56752E+00 2.25000E+00
 -1      1143-5.91931E+00 4.57581E+00 2.25000E+00
 -1      1144-3.11155E+00 4.74999E-01 2.25000E+00
 -1      1145-4.55870E+00-4.74999E-01 2.25000E+00
 -1      1146-2.69292E+00-1.62958E+00 2.25000E+00
 -1      1147-4.02991E+00-2.18338E+00 2.25000E+00
 -1      1148-3.05647E+00-7.51897E-01 2.25000E+00
 -1      1149-1.96228E+00-7.21982E+00 2.25000E+00
 -1      1150-3.05647E+00 7.51897E-01 2.25000E+00
 -1      1151-4.02991E+00 2.18338E+00 2.25000E+00
 -1      1152-2.69292E+00 1.62958E+00 2.25000E+00
 -1      1153-4.39346E+00 1.30569E+00 2.25000E+00
 -1      1154-1.41659E+00 5.90243E+00 2.25000E+00
 -1      1155 1.41659E+00 5.90243E+00 2.25000E+00
 -1      1156 1.96228E+00 7.21982E+00 2.25000E+00
 -1      1157 4.40165E+00 9.38527E+00 2.25000E+00
 -1      1158 3.83498E+00 8.01722E+00 2.25000E+00
 -1      1159 3.52396E+00 9.74886E+00 2.25000E+00
 -1      1160 7.51897E-01 3.05647E+00 2.25000E+00
 -1      1161 2.18338E+00 4.02991E+00 2.25000E+00
 -1      1162 1.62958E+00 2.69292E+00 2.25000E+00
 -1      1163 1.30569E+00 4.39346E+00 2.25000E+00
 -1      1164 3.17196E+00 5.17533E+00 2.25000E+00
 -1      1165 2.53607E+00 1.86432E+00 2.25000E+00
 -1      1166 2.88761E+00 3.55936E+00 2.25000E+00
 -1      1167 4.39346E+00 1.30569E+00 2.25000E+00
 -1      1168 3.05647E+00 7.51897E-01 2.25000E+00
 -1      1169 4.02991E+00 2.18338E+00 2.25000E+00
 -1      1170 3.11155E+00 4.74999E-01 2.25000E+00
 -1      1171 4.55870E+00 4.74999E-01 2.25000E+00
 -1      1172 3.11155E+00-4.74999E-01 2.25000E+00
 -1      1173 7.42117E+00 9.50000E-01 2.25000E+00
 -1      1174 7.42117E+00-9.50000E-01 2.25000E+00
 -1      1175 5.99524E+00-9.50000E-01 2.25000E+00
 -1      1176 1.03553E+01 4.74999E-01 2.25000E+00
 -1      1177 8.87453E+00-4.74999E-01 2.25000E+00
 -1      1178 3.71765E+00-6.49272E+00 2.25000E+00
 -1      1179 7.65819E+00 6.98643E+00 2.25000E+00
 -1      1180 6.61111E+00 5.93936E+00 2.25000E+00
 -1      1181 5.93936E+00 6.61111E+00 2.25000E+00
 -1      1182 6.98643E+00 7.65819E+00 2.25000E+00
 -1      1183 8.38078E+00 2.95729E+00 2.25000E+00
 -1      1184 8.01722E+00 3.83498E+00 2.25000E+00
 -1      1185 9.38527E+00 4.40165E+00 2.25000E+00
 -1      1186 7.21982E+00 1.96228E+00 2.25000E+00
 -1      1187 5.90243E+00 1.41659E+00 2.25000E+00
 -1      1188 4.57581E+00 5.91931E+00 2.25000E+00
 -1      1189 5.91931E+00 4.57581E+00 2.25000E+00
 -1      1190 4.91103E+00 3.56752E+00 2.25000E+00
 -1      1191 3.83498E+00-8.01722E+00 2.25000E+00
 -1      1192 4.40165E+00-9.38527E+00 2.25000E+00
 -1      1193 3.52396E+00-9.74886E+00 2.25000E+00
 -1      1194 2.95729E+00-8.38078E+00 2.25000E+00
 -1      1195 1.62958E+00-2.69292E+00 2.25000E+00
 -1      1196 2.18338E+00-4.02991E+00 2.25000E+00
 -1      1197 7.51897E-01-3.05647E+00 2.25000E+00
 -1      1198 4.74999E-01-4.55870E+00 2.25000E+00
 -1      1199 4.74999E-01-8.87453E+00 2.25000E+00
 -1      1200-4.74999E-01-4.55870E+00 2.25000E+00
 -1      1201-4.74999E-01-3.11155E+00 2.25000E+00
 -1      1202 4.74999E-01-1.03553E+01 2.25000E+00
 -1      1203-4.74999E-01-8.87453E+00 2.25000E+00
 -1      1204 3.05647E+00-7.51897E-01 2.25000E+00
 -1      1205 4.39346E+00-1.30569E+00 2.25000E+00
 -1      1206 2.69292E+00-1.62958E+00 2.25000E+00
 -1      1207 5.90243E+00-1.41659E+00 2.25000E+00
 -1      1208 7.21982E+00-1.96228E+00 2.25000E+00
 -1      1209 6.49272E+00-3.71765E+00 2.25000E+00
 -1      1210 5.17533E+00-3.17196E+00 2.25000E+00
 -1      1211 9.74886E+00-3.52396E+00 2.25000E+00
 -1      1212 8.01722E+00-3.83498E+00 2.25000E+00
 -1      1213 3.55936E+00-2.88761E+00 2.25000E+00
 -1      1214 1.86432E+00-2.53607E+00 2.25000E+00
 -1      1215 4.91103E+00-3.56752E+00 2.25000E+00
 -1      1216 5.91931E+00-4.57581E+00 2.25000E+00
 -1      1217 4.57581E+00-5.91931E+00 2.25000E+00
 -1      1218 3.56752E+00-4.91103E+00 2.25000E+00
 -1      1219 7.65819E+00-6.98643E+00 2.25000E+00
 -1      1220 5.93936E+00-6.61111E+00 2.25000E+00
 -1      1221-9.50000E-01-5.99524E+00 2.25000E+00
 -1      1222-2.18338E+00-4.02991E+00 2.25000E+00
 -1      1223-7.51897E-01-3.05647E+00 2.25000E+00
 -1      1224-1.30569E+00-4.39346E+00 2.25000E+00
 -1      1225-1.62958E+00-2.69292E+00 2.25000E+00
 -1      1226-4.40165E+00-9.38527E+00 2.25000E+00
 -1      1227-2.95729E+00-8.38078E+00 2.25000E+00
 -1      1228-3.52396E+00-9.74886E+00 2.25000E+00
 -1      1229-3.83498E+00-8.01722E+00 2.25000E+00
 -1      1230-9.50000E-01 5.99524E+00 2.25000E+00
 -1      1231-9.50000E-01 7.42117E+00 2.25000E+00
 -1      1232 4.74999E-01 1.03553E+01 2.25000E+00
 -1      1233 4.74999E-01 8.87453E+00 2.25000E+00
 -1      1234 4.74999E-01 3.11155E+00 2.25000E+00
 -1      1235-4.74999E-01 4.55870E+00 2.25000E+00
 -1      1236-4.74999E-01 8.87453E+00 2.25000E+00
 -1      1237-4.74999E-01 1.03553E+01 2.25000E+00
 -1      1238 9.50000E-01 7.42117E+00 2.25000E+00
 -1      1239-1.30569E+00 4.39346E+00 2.25000E+00
 -1      1240-7.51897E-01 3.05647E+00 2.25000E+00
 -1      1241-1.62958E+00 2.69292E+00 2.25000E+00
 -1      1242-2.18338E+00 4.02991E+00 2.25000E+00
 -1      1243-3.52396E+00 9.74886E+00 2.25000E+00
 -1      1244-2.95729E+00 8.38078E+00 2.25000E+00
 -1      1245-3.83498E+00 8.01722E+00 2.25000E+00
 -1      1246-4.40165E+00 9.38527E+00 2.25000E+00
 -1      1247 9.50000E-01 5.99524E+00 2.25000E+00
 -1      1248-4.91103E+00-3.56752E+00 2.25000E+00
 -1      1249 9.50000E-01-5.99524E+00 2.25000E+00
 -1      1250 9.50000E-01-7.42117E+00 2.25000E+00
 -1      1251-2.53607E+00 1.86432E+00 2.25000E+00
 -1      1252-3.55936E+00-2.88761E+00 2.25000E+00
 -1      1253-1.86432E+00-2.53607E+00 2.25000E+00
 -1      1254-2.88761E+00-3.55936E+00 2.25000E+00
 -1      1255-2.53607E+00-1.86432E+00 2.25000E+00
 -1      1256-2.88761E+00 3.55936E+00 2.25000E+00
 -1      1257-1.86432E+00 2.53607E+00 2.25000E+00
 -1      1258-3.55936E+00 2.88761E+00 2.25000E+00
 -1      1259-3.56752E+00-4.91103E+00 2.25000E+00
 -1      1260-4.57581E+00-5.91931E+00 2.25000E+00
 -1      1261-5.17533E+00-3.17196E+00 2.25000E+00
 -1      1262-6.49272E+00-3.71765E+00 2.25000E+00
 -1      1263-9.38527E+00 4.40165E+00 2.25000E+00
 -1      1264-7.21982E+00-1.96228E+00 2.25000E+00
 -1      1265-5.90243E+00-1.41659E+00 2.25000E+00
 -1      1266-1.03553E+01 4.74999E-01 2.25000E+00
 -1      1267-8.87453E+00 4.74999E-01 2.25000E+00
 -1      1268-8.87453E+00-4.74999E-01 2.25000E+00
 -1      1269-1.03553E+01-4.74999E-01 2.25000E+00
 -1      1270-8.01722E+00 3.83498E+00 2.25000E+00
 -1      1271-9.74886E+00 3.52396E+00 2.25000E+00
 -1      1272-5.93936E+00 6.61111E+00 2.25000E+00
 -1      1273-6.61111E+00 5.93936E+00 2.25000E+00
 -1      1274-7.65819E+00 6.98643E+00 2.25000E+00
 -1      1275-5.99524E+00 9.50000E-01 2.25000E+00
 -1      1276-5.99524E+00-9.50000E-01 2.25000E+00
 -1      1277-7.42117E+00-9.50000E-01 2.25000E+00
 -1      1278-6.98643E+00-7.65819E+00 2.25000E+00
 -1      1279-6.61111E+00-5.93936E+00 2.25000E+00
 -1      1280-8.01722E+00-3.83498E+00 2.25000E+00
 -1      1281-9.38527E+00-4.40165E+00 2.25000E+00
 -1      1282-8.38078E+00-2.95729E+00 2.25000E+00
 -1      1283 1.03553E+01 4.74999E-01 5.00000E-01
 -1      1284 4.55870E+00 4.74999E-01 5.00000E-01
 -1      1285 3.11155E+00-4.74999E-01 5.00000E-01
 -1      1286 8.87453E+00-4.74999E-01 5.00000E-01
 -1      1287 9.38527E+00 4.40165E+00 5.00000E-01
 -1      1288 4.02991E+00 2.18338E+00 5.00000E-01
 -1      1289 3.05647E+00 7.51897E-01 5.00000E-01
 -1      1290 8.38078E+00 2.95729E+00 5.00000E-01
 -1      1291 5.90243E+00 1.41659E+00 5.00000E-01
 -1      1292 6.98643E+00 7.65819E+00 5.00000E-01
 -1      1293 2.88761E+00 3.55936E+00 5.00000E-01
 -1      1294 2.53607E+00 1.86432E+00 5.00000E-01
 -1      1295 6.61111E+00 5.93936E+00 5.00000E-01
 -1      1296 4.91103E+00 3.56752E+00 5.00000E-01
 -1      1297 1.30569E+00 4.39346E+00 5.00000E-01
 -1      1298 1.62958E+00 2.69292E+00 5.00000E-01
 -1      1299 3.83498E+00 8.01722E+00 5.00000E-01
 -1      1300-4.74999E-01 1.03553E+01 5.00000E-01
 -1      1301-4.74999E-01 4.55870E+00 5.00000E-01
 -1      1302 4.74999E-01 3.11155E+00 5.00000E-01
 -1      1303 4.74999E-01 8.87453E+00 5.00000E-01
 -1      1304-2.18338E+00 4.02991E+00 5.00000E-01
 -1      1305-7.51897E-01 3.05647E+00 5.00000E-01
 -1      1306-2.95729E+00 8.38078E+00 5.00000E-01
 -1      1307-3.55936E+00 2.88761E+00 5.00000E-01
 -1      1308-1.86432E+00 2.53607E+00 5.00000E-01
 -1      1309-5.93936E+00 6.61111E+00 5.00000E-01
 -1      1310-9.74886E+00 3.52396E+00 5.00000E-01
 -1      1311-4.39346E+00 1.30569E+00 5.00000E-01
 -1      1312-2.69292E+00 1.62958E+00 5.00000E-01
 -1      1313-8.01722E+00 3.83498E+00 5.00000E-01
 -1      1314-1.03553E+01-4.74999E-01 5.00000E-01
 -1      1315-4.55870E+00-4.74999E-01 5.00000E-01
 -1      1316-3.11155E+00 4.74999E-01 5.00000E-01
 -1      1317-8.87453E+00 4.74999E-01 5.00000E-01
 -1      1318-4.02991E+00-2.18338E+00 5.00000E-01
 -1      1319-3.05647E+00-7.51897E-01 5.00000E-01
 -1      1320-8.38078E+00-2.95729E+00 5.00000E-01
 -1      1321-2.88761E+00-3.55936E+00 5.00000E-01
 -1      1322-2.53607E+00-1.86432E+00 5.00000E-01
 -1      1323-6.61111E+00-5.93936E+00 5.00000E-01
 -1      1324-3.52396E+00-9.74886E+00 5.00000E-01
 -1      1325-1.30569E+00-4.39346E+00 5.00000E-01
 -1      1326-1.62958E+00-2.69292E+00 5.00000E-01
 -1      1327-3.83498E+00-8.01722E+00 5.00000E-01
 -1      1328 4.74999E-01-1.03553E+01 5.00000E-01
 -1      1329 4.74999E-01-4.55870E+00 5.00000E-01
 -1      1330-4.74999E-01-3.11155E+00 5.00000E-01
 -1      1331-4.74999E-01-8.87453E+00 5.00000E-01
 -1      1332 2.18338E+00-4.02991E+00 5.00000E-01
 -1      1333 7.51897E-01-3.05647E+00 5.00000E-01
 -1      1334 2.95729E+00-8.38078E+00 5.00000E-01
 -1      1335 3.55936E+00-2.88761E+00 5.00000E-01
 -1      1336 1.86432E+00-2.53607E+00 5.00000E-01
 -1      1337 5.93936E+00-6.61111E+00 5.00000E-01
 -1      1338 9.74886E+00-3.52396E+00 5.00000E-01
 -1      1339 4.39346E+00-1.30569E+00 5.00000E-01
 -1      1340 2.69292E+00-1.62958E+00 5.00000E-01
 -1      1341 8.01722E+00-3.83498E+00 5.00000E-01
 -1      1342 1.47838E+01 2.19476E+00 5.00000E-01
 -1      1343-1.47838E+01 2.19476E+00-5.00000E-01
 -1      1344-1.47838E+01 2.19476E+00 5.00000E-01
 -1      1345-1.49279E+01 7.31588E-01 5.00000E-01
 -1      1346 7.31588E-01 1.49279E+01 5.00000E-01
 -1      1347 7.31588E-01 1.49279E+01-5.00000E-01
 -1      1348 2.19476E+00 1.47838E+01-5.00000E-01
 -1      1349-2.19476E+00-1.47838E+01 5.00000E-01
 -1      1350-7.31588E-01-1.49279E+01 5.00000E-01
 -1      1351-7.31588E-01-1.49279E+01-5.00000E-01
 -1      1352-2.19476E+00-1.47838E+01-5.00000E-01
 -1      1353 1.20056E+01 8.90181E+00 5.00000E-01
 -1      1354 1.10730E+01 1.00383E+01 5.00000E-01
 -1      1355 1.10730E+01 1.00383E+01-5.00000E-01
 -1      1356 1.20056E+01 8.90181E+00-5.00000E-01
 -1      1357-1.00383E+01 1.10730E+01 5.00000E-01
 -1      1358-1.00383E+01 1.10730E+01-5.00000E-01
 -1      1359-8.90181E+00 1.20056E+01-5.00000E-01
 -1      1360-3.62983E+00 1.44984E+01 5.00000E-01
 -1      1361-5.03678E+00 1.40716E+01 5.00000E-01
 -1      1362-5.03678E+00 1.40716E+01-5.00000E-01
 -1      1363-3.62983E+00 1.44984E+01-5.00000E-01
 -1      1364 8.90181E+00-1.20056E+01 5.00000E-01
 -1      1365 1.00383E+01-1.10730E+01 5.00000E-01
 -1      1366 1.00383E+01-1.10730E+01-5.00000E-01
 -1      1367 8.90181E+00-1.20056E+01-5.00000E-01
 -1      1368 1.49279E+01-7.31588E-01-5.00000E-01
 -1      1369 1.44984E+01-3.62983E+00-5.00000E-01
 -1      1370 1.40716E+01 5.03678E+00-5.00000E-01
 -1      1371 1.35117E+01-6.38858E+00-5.00000E-01
 -1      1372 8.90181E+00 1.20056E+01-5.00000E-01
 -1      1373 6.38858E+00 1.35117E+01-5.00000E-01
 -1      1374 5.03678E+00-1.40716E+01-5.00000E-01
 -1      1375-6.38858E+00-1.35117E+01-5.00000E-01
 -1      1376-8.90181E+00-1.20056E+01-5.00000E-01
 -1      1377-1.10730E+01-1.00383E+01-5.00000E-01
 -1      1378-1.28186E+01-7.68523E+00-5.00000E-01
 -1      1379-1.35117E+01 6.38858E+00-5.00000E-01
 -1      1380-1.40716E+01-5.03678E+00-5.00000E-01
 -1      1381-1.44984E+01 3.62983E+00-5.00000E-01
 -1      1382 1.28186E+01 7.68523E+00 5.00000E-01
 -1      1383 1.44984E+01 3.62983E+00 5.00000E-01
 -1      1384 1.40716E+01 5.03678E+00 5.00000E-01
 -1      1385 6.38858E+00 1.35117E+01 5.00000E-01
 -1      1386 5.03678E+00 1.40716E+01 5.00000E-01
 -1      1387 3.62983E+00 1.44984E+01 5.00000E-01
 -1      1388 8.90181E+00 1.20056E+01 5.00000E-01
 -1      1389-1.28186E+01 7.68523E+00 5.00000E-01
 -1      1390-1.35117E+01 6.38858E+00 5.00000E-01
 -1      1391-1.20056E+01 8.90181E+00 5.00000E-01
 -1      1392-1.44984E+01 3.62983E+00 5.00000E-01
 -1      1393-7.31588E-01 1.49279E+01 5.00000E-01
 -1      1394-6.38858E+00 1.35117E+01 5.00000E-01
 -1      1395 1.47838E+01-2.19476E+00 5.00000E-01
 -1      1396 1.40716E+01-5.03678E+00 5.00000E-01
 -1      1397 1.28186E+01-7.68523E+00 5.00000E-01
 -1      1398 1.10730E+01-1.00383E+01 5.00000E-01
 -1      1399 6.38858E+00-1.35117E+01 5.00000E-01
 -1      1400 3.62983E+00-1.44984E+01 5.00000E-01
 -1      1401 7.31588E-01-1.49279E+01 5.00000E-01
 -1      1402-5.03678E+00-1.40716E+01 5.00000E-01
 -1      1403-7.68523E+00-1.28186E+01 5.00000E-01
 -1      1404-1.00383E+01-1.10730E+01 5.00000E-01
 -1      1405-1.20056E+01-8.90181E+00 5.00000E-01
 -1      1406-1.35117E+01-6.38858E+00 5.00000E-01
 -1      1407-1.44984E+01-3.62983E+00 5.00000E-01
 -1      1408-1.49279E+01-7.31588E-01 5.00000E-01
 -1      1409 1.64099E+00-1.64099E+00 5.00000E-01
 -1      1410-1.64099E+00 1.64099E+00 5.00000E-01
 -1      1411-1.64099E+00-1.64099E+00 5.00000E-01
 -1      1412-1.64099E+00-1.64099E+00 2.25000E+00
 -1      1413-1.35268E+00-2.02443E+00 1.81250E+00
 -1      1414-1.31457E+00-1.96740E+00 1.81250E+00
 -1      1415 8.88093E-01-2.14405E+00 2.25000E+00
 -1      1416 8.88093E-01 2.14405E+00 5.00000E-01
 -1      1417-2.32070E+00 0.00000E+00 5.00000E-01
 -1      1418-2.14405E+00-8.88093E-01 2.25000E+00
 -1      1419 8.88093E-01 2.14405E+00 2.25000E+00
 -1      1420-8.88093E-01-2.14405E+00 5.00000E-01
 -1      1421 0.00000E+00 2.32070E+00 5.00000E-01
 -1      1422 2.14405E+00-8.88093E-01 5.00000E-01
 -1      1423-2.32070E+00 0.00000E+00 2.25000E+00
 -1      1424-2.14405E+00 8.88093E-01 2.25000E+00
 -1      1425-2.02443E+00-1.35268E+00 1.81250E+00
 -1      1426-1.96740E+00-1.31457E+00 1.81250E+00
 -1      1427-2.02443E+00-1.35268E+00 9.37500E-01
 -1      1428-1.96740E+00-1.31457E+00 9.37500E-01
 -1      1429-2.14405E+00 8.88093E-01 5.00000E-01
 -1      1430 0.00000E+00 2.32070E+00 2.25000E+00
 -1      1431 8.88093E-01-2.14405E+00 5.00000E-01
 -1      1432 2.14405E+00 8.88093E-01 5.00000E-01
 -1      1433 1.64099E+00 1.64099E+00 2.25000E+00
 -1      1434 1.64099E+00 1.64099E+00 5.00000E-01
 -1      1435 2.32070E+00 0.00000E+00 5.00000E-01
 -1      1436 2.32070E+00 0.00000E+00 2.25000E+00
 -1      1437 2.14405E+00 8.88093E-01 2.25000E+00
 -1      1438-8.88093E-01 2.14405E+00 5.00000E-01
 -1      1439-1.64099E+00 1.64099E+00 2.25000E+00
 -1      1440-1.35268E+00-2.02443E+00 9.37500E-01
 -1      1441-1.31457E+00-1.96740E+00 9.37500E-01
 -1      1442 0.00000E+00-2.32070E+00 5.00000E-01
 -1      1443 1.35268E+00-2.02443E+00 9.37500E-01
 -1      1444 1.31457E+00-1.96740E+00 9.37500E-01
 -1      1445-2.32070E+00 4.61617E-01 9.37500E-01
 -1      1446-2.38798E+00 4.74999E-01 9.37500E-01
 -1      1447 1.64099E+00-1.64099E+00 2.25000E+00
 -1      1448 0.00000E+00-2.32070E+00 2.25000E+00
 -1      1449 2.14405E+00-8.88093E-01 2.25000E+00
 -1      1450 1.35268E+00 2.02443E+00 1.81250E+00
 -1      1451 1.31457E+00 1.96740E+00 1.81250E+00
 -1      1452-8.88093E-01 2.14405E+00 2.25000E+00
 -1      1453-2.38798E+00-4.74999E-01 9.37500E-01
 -1      1454-2.32070E+00-4.61617E-01 9.37500E-01
 -1      1455-1.35268E+00-2.02443E+00 1.59375E+00
 -1      1456-1.31457E+00-1.96740E+00 1.59375E+00
 -1      1457-4.74999E-01-2.38798E+00 1.81250E+00
 -1      1458-4.61617E-01-2.32070E+00 1.81250E+00
 -1      1459-2.02443E+00-1.35268E+00 1.59375E+00
 -1      1460-1.96740E+00-1.31457E+00 1.59375E+00
 -1      1461 2.02443E+00 1.35268E+00 1.81250E+00
 -1      1462 1.96740E+00 1.31457E+00 1.81250E+00
 -1      1463 1.35268E+00 2.02443E+00 9.37500E-01
 -1      1464 1.31457E+00 1.96740E+00 9.37500E-01
 -1      1465-2.38798E+00-4.74999E-01 1.81250E+00
 -1      1466-2.32070E+00-4.61617E-01 1.81250E+00
 -1      1467 2.38798E+00 4.74999E-01 9.37500E-01
 -1      1468 2.32070E+00 4.61617E-01 9.37500E-01
 -1      1469 2.38798E+00 4.74999E-01 1.81250E+00
 -1      1470 2.32070E+00 4.61617E-01 1.81250E+00
 -1      1471-2.38798E+00 4.74999E-01 1.81250E+00
 -1      1472-2.32070E+00 4.61617E-01 1.81250E+00
 -1      1473-4.74999E-01 2.38798E+00 1.81250E+00
 -1      1474-4.61617E-01 2.32070E+00 1.81250E+00
 -1      1475-4.74999E-01-2.38798E+00 9.37500E-01
 -1      1476-4.61617E-01-2.32070E+00 9.37500E-01
 -1      1477 4.74999E-01-2.38798E+00 9.37500E-01
 -1      1478 4.61617E-01-2.32070E+00 9.37500E-01
 -1      1479 2.38798E+00-4.74999E-01 9.37500E-01
 -1      1480 2.32070E+00-4.61617E-01 9.37500E-01
 -1      1481-4.74999E-01 2.38798E+00 9.37500E-01
 -1      1482-4.61617E-01 2.32070E+00 9.37500E-01
 -1      1483-1.35268E+00-2.02443E+00 2.03125E+00
 -1      1484-1.31457E+00-1.96740E+00 2.03125E+00
 -1      1485 2.38798E+00-4.74999E-01 1.81250E+00
 -1      1486 2.32070E+00-4.61617E-01 1.81250E+00
 -1      1487 2.02443E+00-1.35268E+00 1.81250E+00
 -1      1488 1.96740E+00-1.31457E+00 1.81250E+00
 -1      1489 2.02443E+00 1.35268E+00 1.59375E+00
 -1      1490 1.96740E+00 1.31457E+00 1.59375E+00
 -1      1491 4.74999E-01-2.38798E+00 1.81250E+00
 -1      1492 4.61617E-01-2.32070E+00 1.81250E+00
 -1      1493 4.74999E-01 2.38798E+00 1.81250E+00
 -1      1494 4.61617E-01 2.32070E+00 1.81250E+00
 -1      1495-2.02443E+00 1.35268E+00 1.81250E+00
 -1      1496-1.96740E+00 1.31457E+00 1.81250E+00
 -1      1497-2.14405E+00-8.88093E-01 5.00000E-01
 -1      1498-2.72223E+00 6.13448E-01 2.25000E+00
 -1      1499-1.35268E+00 2.02443E+00 9.37500E-01
 -1      1500-1.31457E+00 1.96740E+00 9.37500E-01
 -1      1501-2.02443E+00-1.35268E+00 7.18750E-01
 -1      1502-1.96740E+00-1.31457E+00 7.18750E-01
 -1      1503-2.38798E+00-4.74999E-01 1.59375E+00
 -1      1504-2.32070E+00-4.61617E-01 1.59375E+00
 -1      1505 1.35268E+00-2.02443E+00 1.81250E+00
 -1      1506 1.31457E+00-1.96740E+00 1.81250E+00
 -1      1507 1.96740E+00-1.31457E+00 9.37500E-01
 -1      1508 2.02443E+00-1.35268E+00 9.37500E-01
 -1      1509-2.02443E+00-1.35268E+00 1.15625E+00
 -1      1510-1.96740E+00-1.31457E+00 1.15625E+00
 -1      1511-2.02443E+00-1.35268E+00 2.03125E+00
 -1      1512-1.96740E+00-1.31457E+00 2.03125E+00
 -1      1513 4.61617E-01 2.32070E+00 9.37500E-01
 -1      1514 4.74999E-01 2.38798E+00 9.37500E-01
 -1      1515-8.88093E-01-2.14405E+00 2.25000E+00
 -1      1516-1.10133E+00-2.05573E+00 5.00000E-01
 -1      1517 2.38798E+00 4.74999E-01 1.59375E+00
 -1      1518 2.32070E+00 4.61617E-01 1.59375E+00
 -1      1519-1.35268E+00 2.02443E+00 1.15625E+00
 -1      1520-1.31457E+00 1.96740E+00 1.15625E+00
 -1      1521-1.47778E+00-1.80419E+00 2.25000E+00
 -1      1522-2.02443E+00 1.35268E+00 1.59375E+00
 -1      1523-1.96740E+00 1.31457E+00 1.59375E+00
 -1      1524-2.38798E+00 4.74999E-01 1.59375E+00
 -1      1525-2.32070E+00 4.61617E-01 1.59375E+00
 -1      1526-1.60850E+00-2.28025E+00 2.25000E+00
 -1      1527-1.31457E+00 1.96740E+00 1.81250E+00
 -1      1528-1.35268E+00 2.02443E+00 1.81250E+00
 -1      1529-1.47778E+00 1.80419E+00 5.00000E-01
 -1      1530 2.23237E+00 6.74855E-01 5.00000E-01
 -1      1531 2.38798E+00-4.74999E-01 1.59375E+00
 -1      1532 2.32070E+00-4.61617E-01 1.59375E+00
 -1      1533 4.74999E-01 2.38798E+00 2.03125E+00
 -1      1534 4.61617E-01 2.32070E+00 2.03125E+00
 -1      1535-2.38798E+00-4.74999E-01 1.48438E+00
 -1      1536-2.32070E+00-4.61617E-01 1.48438E+00
 -1      1537-2.02443E+00 1.35268E+00 2.03125E+00
 -1      1538-1.96740E+00 1.31457E+00 2.03125E+00
 -1      1539 2.02443E+00 1.35268E+00 9.37500E-01
 -1      1540 1.96740E+00 1.31457E+00 9.37500E-01
 -1      1541-2.38798E+00 4.74999E-01 7.18750E-01
 -1      1542-2.32070E+00 4.61617E-01 7.18750E-01
 -1      1543-4.74999E-01 2.38798E+00 7.18750E-01
 -1      1544-4.61617E-01 2.32070E+00 7.18750E-01
 -1      1545-1.80419E+00-1.47778E+00 5.00000E-01
 -1      1546 2.02443E+00-1.35268E+00 2.03125E+00
 -1      1547 1.96740E+00-1.31457E+00 2.03125E+00
 -1      1548-1.10133E+00-2.05573E+00 2.25000E+00
 -1      1549 2.05573E+00-1.10133E+00 2.25000E+00
 -1      1550 2.38798E+00 4.74999E-01 1.48438E+00
 -1      1551 2.32070E+00 4.61617E-01 1.48438E+00
 -1      1552-2.32070E+00 2.30808E-01 5.00000E-01
 -1      1553-4.74999E-01-2.38798E+00 1.59375E+00
 -1      1554-4.61617E-01-2.32070E+00 1.59375E+00
 -1      1555-4.74999E-01 2.38798E+00 1.59375E+00
 -1      1556-4.61617E-01 2.32070E+00 1.59375E+00
 -1      1557 4.74999E-01 2.38798E+00 1.59375E+00
 -1      1558 4.61617E-01 2.32070E+00 1.59375E+00
 -1      1559-1.35268E+00-2.02443E+00 1.15625E+00
 -1      1560-1.31457E+00-1.96740E+00 1.15625E+00
 -1      1561-2.05573E+00-1.10133E+00 5.00000E-01
 -1      1562-4.74999E-01-2.38798E+00 7.18750E-01
 -1      1563-4.61617E-01-2.32070E+00 7.18750E-01
 -1      1564 2.35868E+00-1.49113E+00 2.25000E+00
 -1      1565-1.35268E+00-2.02443E+00 7.18750E-01
 -1      1566-1.31457E+00-1.96740E+00 7.18750E-01
 -1      1567 1.35268E+00 2.02443E+00 7.18750E-01
 -1      1568 1.31457E+00 1.96740E+00 7.18750E-01
 -1      1569-2.02443E+00-1.35268E+00 1.48438E+00
 -1      1570-1.96740E+00-1.31457E+00 1.48438E+00
 -1      1571-2.23237E+00-6.74855E-01 2.25000E+00
 -1      1572-2.38798E+00-4.74999E-01 2.03125E+00
 -1      1573-2.32070E+00-4.61617E-01 2.03125E+00
 -1      1574 1.35268E+00-2.02443E+00 1.59375E+00
 -1      1575 1.31457E+00-1.96740E+00 1.59375E+00
 -1      1576-1.47778E+00-1.80419E+00 5.00000E-01
 -1      1577-1.80419E+00-1.47778E+00 2.25000E+00
 -1      1578-2.05573E+00-1.10133E+00 2.25000E+00
 -1      1579 2.02443E+00 1.35268E+00 2.03125E+00
 -1      1580 1.96740E+00 1.31457E+00 2.03125E+00
 -1      1581-2.02443E+00 1.35268E+00 9.37500E-01
 -1      1582-1.96740E+00 1.31457E+00 9.37500E-01
 -1      1583-4.74999E-01-2.38798E+00 2.03125E+00
 -1      1584-4.61617E-01-2.32070E+00 2.03125E+00
 -1      1585 2.02443E+00-1.35268E+00 7.18750E-01
 -1      1586 1.96740E+00-1.31457E+00 7.18750E-01
 -1      1587-1.80419E+00 1.47778E+00 2.25000E+00
 -1      1588 2.38798E+00 4.74999E-01 1.15625E+00
 -1      1589 2.32070E+00 4.61617E-01 1.15625E+00
 -1      1590 1.47778E+00 1.80419E+00 5.00000E-01
 -1      1591 2.02443E+00-1.35268E+00 1.15625E+00
 -1      1592 1.96740E+00-1.31457E+00 1.15625E+00
 -1      1593-1.35268E+00 2.02443E+00 1.59375E+00
 -1      1594-1.31457E+00 1.96740E+00 1.59375E+00
 -1      1595-2.30808E-01-2.32070E+00 5.00000E-01
 -1      1596 1.10133E+00-2.05573E+00 5.00000E-01
 -1      1597 1.35268E+00-2.02443E+00 2.03125E+00
 -1      1598 1.31457E+00-1.96740E+00 2.03125E+00
 -1      1599 2.32070E+00 2.30808E-01 5.00000E-01
 -1      1600 2.02443E+00-1.35268E+00 1.59375E+00
 -1      1601 1.96740E+00-1.31457E+00 1.59375E+00
 -1      1602-1.20795E+00-2.01156E+00 5.00000E-01
 -1      1603 1.80419E+00 1.47778E+00 2.25000E+00
 -1      1604-2.02443E+00 1.35268E+00 7.18750E-01
 -1      1605-1.96740E+00 1.31457E+00 7.18750E-01
 -1      1606-2.02443E+00 1.35268E+00 1.15625E+00
 -1      1607-1.96740E+00 1.31457E+00 1.15625E+00
 -1      1608-6.74855E-01 2.23237E+00 5.00000E-01
 -1      1609-2.23237E+00 6.74855E-01 5.00000E-01
 -1      1610 2.02443E+00 1.35268E+00 1.48438E+00
 -1      1611 1.96740E+00 1.31457E+00 1.48438E+00
 -1      1612 1.35268E+00 2.02443E+00 1.59375E+00
 -1      1613 1.31457E+00 1.96740E+00 1.59375E+00
 -1      1614 2.38798E+00-4.74999E-01 7.18750E-01
 -1      1615 2.32070E+00-4.61617E-01 7.18750E-01
 -1      1616 1.35268E+00 2.02443E+00 2.03125E+00
 -1      1617 1.31457E+00 1.96740E+00 2.03125E+00
 -1      1618-2.30808E-01-2.32070E+00 2.25000E+00
 -1      1619 2.23237E+00 6.74855E-01 2.25000E+00
 -1      1620-4.74999E-01 2.38798E+00 1.15625E+00
 -1      1621-4.61617E-01 2.32070E+00 1.15625E+00
 -1      1622 2.30808E-01 2.32070E+00 2.25000E+00
 -1      1623 1.96740E+00-1.31457E+00 1.04688E+00
 -1      1624 2.02443E+00-1.35268E+00 1.04688E+00
 -1      1625 2.38798E+00 4.74999E-01 2.03125E+00
 -1      1626 2.32070E+00 4.61617E-01 2.03125E+00
 -1      1627 2.72223E+00-6.13448E-01 2.25000E+00
 -1      1628 2.05573E+00-1.10133E+00 5.00000E-01
 -1      1629 4.74999E-01-2.38798E+00 1.59375E+00
 -1      1630 4.61617E-01-2.32070E+00 1.59375E+00
 -1      1631 4.74999E-01-2.38798E+00 2.03125E+00
 -1      1632 4.61617E-01-2.32070E+00 2.03125E+00
 -1      1633-4.74999E-01 2.38798E+00 2.03125E+00
 -1      1634-4.61617E-01 2.32070E+00 2.03125E+00
 -1      1635-2.32070E+00-2.30808E-01 5.00000E-01
 -1      1636 2.38798E+00-4.74999E-01 1.15625E+00
 -1      1637 2.32070E+00-4.61617E-01 1.15625E+00
 -1      1638 4.74999E-01 2.38798E+00 7.18750E-01
 -1      1639 4.61617E-01 2.32070E+00 7.18750E-01
 -1      1640 1.35268E+00 2.02443E+00 1.15625E+00
 -1      1641 1.31457E+00 1.96740E+00 1.15625E+00
 -1      1642-2.30808E-01 2.32070E+00 2.25000E+00
 -1      1643 2.32070E+00 2.30808E-01 2.25000E+00
 -1      1644 2.38798E+00 4.74999E-01 1.26562E+00
 -1      1645 2.32070E+00 4.61617E-01 1.26562E+00
 -1      1646-2.38798E+00 4.74999E-01 2.03125E+00
 -1      1647-2.32070E+00 4.61617E-01 2.03125E+00
 -1      1648-1.35268E+00 2.02443E+00 1.04688E+00
 -1      1649-1.31457E+00 1.96740E+00 1.04688E+00
 -1      1650-4.74999E-01-2.38798E+00 1.70312E+00
 -1      1651-4.61617E-01-2.32070E+00 1.70312E+00
 -1      1652 2.23237E+00-6.74855E-01 5.00000E-01
 -1      1653 2.32070E+00-2.30808E-01 5.00000E-01
 -1      1654 2.38798E+00-4.74999E-01 1.04688E+00
 -1      1655 2.32070E+00-4.61617E-01 1.04688E+00
 -1      1656 2.30808E-01 2.32070E+00 5.00000E-01
 -1      1657-1.35268E+00 2.02443E+00 7.18750E-01
 -1      1658-1.31457E+00 1.96740E+00 7.18750E-01
 -1      1659 4.74999E-01-2.38798E+00 7.18750E-01
 -1      1660 4.61617E-01-2.32070E+00 7.18750E-01
 -1      1661-2.02443E+00 1.35268E+00 1.70312E+00
 -1      1662-1.96740E+00 1.31457E+00 1.70312E+00
 -1      1663-4.74999E-01 2.74977E+00 2.25000E+00
 -1      1664-2.38798E+00-4.74999E-01 7.18750E-01
 -1      1665-2.32070E+00-4.61617E-01 7.18750E-01
 -1      1666-6.74855E-01 2.23237E+00 2.25000E+00
 -1      1667 4.74999E-01 2.38798E+00 1.15625E+00
 -1      1668 4.61617E-01 2.32070E+00 1.15625E+00
 -1      1669-2.05573E+00 1.10133E+00 2.25000E+00
 -1      1670 2.01156E+00-1.20795E+00 2.25000E+00
 -1      1671-2.32070E+00 2.30808E-01 2.25000E+00
 -1      1672-2.23237E+00-6.74855E-01 5.00000E-01
 -1      1673 6.74855E-01-2.23237E+00 5.00000E-01
 -1      1674-1.39617E+00-1.88580E+00 2.25000E+00
 -1      1675 2.30808E-01-2.32070E+00 2.25000E+00
 -1      1676 4.74999E-01 2.38798E+00 1.04688E+00
 -1      1677 4.61617E-01 2.32070E+00 1.04688E+00
 -1      1678 1.35268E+00 2.02443E+00 1.70312E+00
 -1      1679 1.31457E+00 1.96740E+00 1.70312E+00
 -1      1680-2.74977E+00-4.74999E-01 2.25000E+00
 -1      1681-2.72223E+00-6.13448E-01 2.25000E+00
 -1      1682-2.32070E+00-2.30808E-01 2.25000E+00
 -1      1683-2.74977E+00 4.74999E-01 2.25000E+00
 -1      1684 2.28025E+00-1.60850E+00 2.25000E+00
 -1      1685-2.32070E+00-3.46213E-01 5.00000E-01
 -1      1686-2.35868E+00 1.49113E+00 2.25000E+00
 -1      1687 1.80419E+00-1.47778E+00 2.25000E+00
 -1      1688-4.74999E-01-2.38798E+00 1.15625E+00
 -1      1689-4.61617E-01-2.32070E+00 1.15625E+00
 -1      1690-2.35868E+00-1.49113E+00 2.25000E+00
 -1      1691 2.74977E+00 4.74999E-01 2.25000E+00
 -1      1692 4.74999E-01-2.38798E+00 1.15625E+00
 -1      1693 4.61617E-01-2.32070E+00 1.15625E+00
 -1      1694-1.80419E+00 1.47778E+00 5.00000E-01
 -1      1695-2.28025E+00-1.60850E+00 2.25000E+00
 -1      1696-4.74999E-01 2.38798E+00 1.70312E+00
 -1      1697-4.61617E-01 2.32070E+00 1.70312E+00
 -1      1698 6.13448E-01-2.72223E+00 2.25000E+00
 -1      1699-6.13448E-01 2.72223E+00 2.25000E+00
 -1      1700 1.10133E+00 2.05573E+00 5.00000E-01
 -1      1701 4.74999E-01-2.74977E+00 2.25000E+00
 -1      1702 2.35868E+00 1.49113E+00 2.25000E+00
 -1      1703 2.28025E+00 1.60850E+00 2.25000E+00
 -1      1704 6.74855E-01 2.23237E+00 5.00000E-01
 -1      1705 2.05573E+00 1.10133E+00 2.25000E+00
 -1      1706-4.74999E-01-2.38798E+00 1.48438E+00
 -1      1707-4.61617E-01-2.32070E+00 1.48438E+00
 -1      1708 2.32070E+00-3.46213E-01 5.00000E-01
 -1      1709 2.02443E+00 1.35268E+00 1.70312E+00
 -1      1710 1.96740E+00 1.31457E+00 1.70312E+00
 -1      1711 4.74999E-01 2.38798E+00 1.26562E+00
 -1      1712 4.61617E-01 2.32070E+00 1.26562E+00
 -1      1713 2.02443E+00 1.35268E+00 1.15625E+00
 -1      1714 1.96740E+00 1.31457E+00 1.15625E+00
 -1      1715-2.01156E+00-1.20795E+00 5.00000E-01
 -1      1716 4.74999E-01 2.38798E+00 1.70312E+00
 -1      1717 4.61617E-01 2.32070E+00 1.70312E+00
 -1      1718 1.49113E+00-2.35868E+00 2.25000E+00
 -1      1719 1.35268E+00-2.02443E+00 7.18750E-01
 -1      1720 1.31457E+00-1.96740E+00 7.18750E-01
 -1      1721 1.47778E+00-1.80419E+00 5.00000E-01
 -1      1722-4.74999E-01-2.38798E+00 1.04688E+00
 -1      1723-4.61617E-01-2.32070E+00 1.04688E+00
 -1      1724 1.80419E+00-1.47778E+00 5.00000E-01
 -1      1725-6.74855E-01-2.23237E+00 5.00000E-01
 -1      1726-2.28025E+00 1.60850E+00 2.25000E+00
 -1      1727 4.74999E-01 2.74977E+00 2.25000E+00
 -1      1728-4.74999E-01-2.74977E+00 2.25000E+00
 -1      1729 2.30808E-01-2.32070E+00 5.00000E-01
 -1      1730-1.10133E+00 2.05573E+00 5.00000E-01
 -1      1731 1.35268E+00-2.02443E+00 1.48438E+00
 -1      1732 1.31457E+00-1.96740E+00 1.48438E+00
 -1      1733-4.61617E-01-2.32070E+00 8.28125E-01
 -1      1734-4.74999E-01-2.38798E+00 8.28125E-01
 -1      1735 2.72223E+00 6.13448E-01 2.25000E+00
 -1      1736 2.38798E+00-4.74999E-01 1.26562E+00
 -1      1737 2.32070E+00-4.61617E-01 1.26562E+00
 -1      1738 1.60850E+00-2.28025E+00 2.25000E+00
 -1      1739 1.47778E+00-1.80419E+00 2.25000E+00
 -1      1740 1.10133E+00-2.05573E+00 2.25000E+00
 -1      1741 2.38798E+00 4.74999E-01 7.18750E-01
 -1      1742 2.32070E+00 4.61617E-01 7.18750E-01
 -1      1743-2.02443E+00 1.35268E+00 2.14062E+00
 -1      1744-1.96740E+00 1.31457E+00 2.14062E+00
 -1      1745 2.23237E+00-6.74855E-01 2.25000E+00
 -1      1746 2.02443E+00 1.35268E+00 7.18750E-01
 -1      1747 1.96740E+00 1.31457E+00 7.18750E-01
 -1      1748 2.05573E+00 1.10133E+00 5.00000E-01
 -1      1749 1.80419E+00 1.47778E+00 5.00000E-01
 -1      1750-2.02443E+00 1.35268E+00 6.09375E-01
 -1      1751-1.96740E+00 1.31457E+00 6.09375E-01
 -1      1752-1.88580E+00 1.39617E+00 5.00000E-01
 -1      1753-2.05573E+00 1.10133E+00 5.00000E-01
 -1      1754 6.74855E-01 2.23237E+00 2.25000E+00
 -1      1755 1.35268E+00-2.02443E+00 1.15625E+00
 -1      1756 1.31457E+00-1.96740E+00 1.15625E+00
 -1      1757 1.35268E+00 2.02443E+00 1.26562E+00
 -1      1758 1.31457E+00 1.96740E+00 1.26562E+00
 -1      1759-6.74855E-01-2.23237E+00 2.25000E+00
 -1      1760-2.27654E+00 5.68236E-01 5.00000E-01
 -1      1761 2.74977E+00-4.74999E-01 2.25000E+00
 -1      1762 1.10133E+00 2.05573E+00 2.25000E+00
 -1      1763 1.47778E+00 1.80419E+00 2.25000E+00
 -1      1764-1.35268E+00 2.02443E+00 2.03125E+00
 -1      1765-1.31457E+00 1.96740E+00 2.03125E+00
 -1      1766-6.13448E-01-2.72223E+00 2.25000E+00
 -1      1767 1.35268E+00-2.02443E+00 1.04688E+00
 -1      1768 1.31457E+00-1.96740E+00 1.04688E+00
 -1      1769 2.02443E+00 1.35268E+00 2.14062E+00
 -1      1770 1.96740E+00 1.31457E+00 2.14062E+00
 -1      1771 2.02443E+00-1.35268E+00 1.26562E+00
 -1      1772 1.96740E+00-1.31457E+00 1.26562E+00
 -1      1773 3.46213E-01-2.32070E+00 2.25000E+00
 -1      1774-1.35268E+00-2.02443E+00 1.48438E+00
 -1      1775-1.31457E+00-1.96740E+00 1.48438E+00
 -1      1776 1.35268E+00 2.02443E+00 1.04688E+00
 -1      1777 1.31457E+00 1.96740E+00 1.04688E+00
 -1      1778-4.74999E-01 2.38798E+00 1.04688E+00
 -1      1779-4.61617E-01 2.32070E+00 1.04688E+00
 -1      1780-2.02443E+00 1.35268E+00 1.04688E+00
 -1      1781-1.96740E+00 1.31457E+00 1.04688E+00
 -1      1782-2.38798E+00 4.74999E-01 1.48438E+00
 -1      1783-2.32070E+00 4.61617E-01 1.48438E+00
 -1      1784 1.88580E+00 1.39617E+00 5.00000E-01
 -1      1785-1.10133E+00 2.05573E+00 2.25000E+00
 -1      1786-1.35268E+00-2.02443E+00 1.26562E+00
 -1      1787-1.31457E+00-1.96740E+00 1.26562E+00
 -1      1788-3.46213E-01 2.32070E+00 2.25000E+00
 -1      1789-2.02443E+00 1.35268E+00 1.26562E+00
 -1      1790-1.96740E+00 1.31457E+00 1.26562E+00
 -1      1791 2.32070E+00 3.46213E-01 2.25000E+00
 -1      1792-2.23237E+00 6.74855E-01 2.25000E+00
 -1      1793-2.27654E+00-5.68236E-01 5.00000E-01
 -1      1794 1.35268E+00 2.02443E+00 6.09375E-01
 -1      1795 1.31457E+00 1.96740E+00 6.09375E-01
 -1      1796-2.30808E-01 2.32070E+00 5.00000E-01
 -1      1797 1.20795E+00 2.01156E+00 5.00000E-01
 -1      1798-3.31545E+00 4.65895E+00 5.00000E-01
 -1      1799-3.01041E+00 4.78531E+00 5.00000E-01
 -1      1800 1.39617E+00-1.88580E+00 2.25000E+00
 -1      1801-2.01156E+00 1.20795E+00 5.00000E-01
 -1      1802 1.35268E+00-2.02443E+00 6.09375E-01
 -1      1803 1.31457E+00-1.96740E+00 6.09375E-01
 -1      1804 3.31545E+00 4.65895E+00 5.00000E-01
 -1      1805 3.01041E+00 4.78531E+00 5.00000E-01
 -1      1806 6.74855E-01-2.23237E+00 2.25000E+00
 -1      1807-2.38798E+00 4.74999E-01 1.70312E+00
 -1      1808-2.32070E+00 4.61617E-01 1.70312E+00
 -1      1809-2.38798E+00 4.74999E-01 1.15625E+00
 -1      1810-2.32070E+00 4.61617E-01 1.15625E+00
 -1      1811-4.74999E-01-2.38798E+00 2.14062E+00
 -1      1812-4.61617E-01-2.32070E+00 2.14062E+00
 -1      1813 2.38798E+00-4.74999E-01 2.03125E+00
 -1      1814 2.32070E+00-4.61617E-01 2.03125E+00
 -1      1815-1.47778E+00 1.80419E+00 2.25000E+00
 -1      1816-5.68236E-01-2.27654E+00 2.25000E+00
 -1      1817 2.01156E+00 1.20795E+00 2.25000E+00
 -1      1818 2.02443E+00 1.35268E+00 1.04688E+00
 -1      1819 1.96740E+00 1.31457E+00 1.04688E+00
 -1      1820-5.68236E-01 2.27654E+00 2.25000E+00
 -1      1821 2.32070E+00 3.46213E-01 5.00000E-01
 -1      1822 1.88580E+00-1.39617E+00 2.25000E+00
 -1      1823-5.68236E-01-2.27654E+00 5.00000E-01
 -1      1824 2.38798E+00-4.74999E-01 1.70312E+00
 -1      1825 2.32070E+00-4.61617E-01 1.70312E+00
 -1      1826 2.27654E+00-5.68236E-01 2.25000E+00
 -1      1827 1.39617E+00 1.88580E+00 5.00000E-01
 -1      1828 2.27654E+00 5.68236E-01 5.00000E-01
 -1      1829-4.74999E-01 2.38798E+00 1.26562E+00
 -1      1830-4.61617E-01 2.32070E+00 1.26562E+00
 -1      1831-1.49113E+00 2.35868E+00 2.25000E+00
 -1      1832-2.38798E+00-4.74999E-01 1.15625E+00
 -1      1833-2.32070E+00-4.61617E-01 1.15625E+00
 -1      1834 4.74999E-01 2.38798E+00 6.09375E-01
 -1      1835 4.61617E-01 2.32070E+00 6.09375E-01
 -1      1836 3.46213E-01 2.32070E+00 5.00000E-01
 -1      1837 1.20795E+00-2.01156E+00 5.00000E-01
 -1      1838 1.35268E+00 2.02443E+00 1.48438E+00
 -1      1839 1.31457E+00 1.96740E+00 1.48438E+00
 -1      1840-2.38798E+00 4.74999E-01 8.28125E-01
 -1      1841-2.32070E+00 4.61617E-01 8.28125E-01
 -1      1842 2.15234E+00 1.48059E+00 2.25000E+00
 -1      1843-2.32070E+00-4.61617E-01 1.04688E+00
 -1      1844-2.38798E+00-4.74999E-01 1.04688E+00
 -1      1845-4.74999E-01-2.56887E+00 2.25000E+00
 -1      1846-2.38798E+00 4.74999E-01 1.26562E+00
 -1      1847-2.32070E+00 4.61617E-01 1.26562E+00
 -1      1848 2.19155E+00 1.42191E+00 2.25000E+00
 -1      1849 1.60850E+00 2.28025E+00 2.25000E+00
 -1      1850-1.49113E+00-2.35868E+00 2.25000E+00
 -1      1851-2.32070E+00 4.61617E-01 1.04688E+00
 -1      1852-2.38798E+00 4.74999E-01 1.04688E+00
 -1      1853 2.02443E+00-1.35268E+00 1.48438E+00
 -1      1854 1.96740E+00-1.31457E+00 1.48438E+00
 -1      1855 2.32070E+00-2.30808E-01 2.25000E+00
 -1      1856-2.01156E+00 1.20795E+00 2.25000E+00
 -1      1857-1.35268E+00-2.02443E+00 1.04688E+00
 -1      1858-1.31457E+00-1.96740E+00 1.04688E+00
 -1      1859-3.46213E-01-2.32070E+00 2.25000E+00
 -1      1860-5.44223E-01-2.55510E+00 2.25000E+00
 -1      1861 1.49113E+00 2.35868E+00 2.25000E+00
 -1      1862 3.46213E-01-2.32070E+00 5.00000E-01
 -1      1863 4.74999E-01-2.38798E+00 1.04688E+00
 -1      1864 4.61617E-01-2.32070E+00 1.04688E+00
 -1      1865 1.35268E+00 2.02443E+00 1.92188E+00
 -1      1866 1.31457E+00 1.96740E+00 1.92188E+00
 -1      1867 6.13448E-01 2.72223E+00 2.25000E+00
 -1      1868 1.39617E+00-1.88580E+00 5.00000E-01
 -1      1869 5.68236E-01-2.27654E+00 2.25000E+00
 -1      1870 1.88580E+00-1.39617E+00 5.00000E-01
 -1      1871 4.74999E-01-2.38798E+00 1.26562E+00
 -1      1872 4.61617E-01-2.32070E+00 1.26562E+00
 -1      1873 1.20795E+00-2.01156E+00 2.25000E+00
 -1      1874-2.02443E+00 1.35268E+00 8.28125E-01
 -1      1875-1.96740E+00 1.31457E+00 8.28125E-01
 -1      1876 1.39617E+00 1.88580E+00 2.25000E+00
 -1      1877-1.39617E+00 1.88580E+00 5.00000E-01
 -1      1878-1.20795E+00 2.01156E+00 2.25000E+00
 -1      1879 3.46213E-01 2.32070E+00 2.25000E+00
 -1      1880-1.60850E+00 2.28025E+00 2.25000E+00
 -1      1881-9.50000E-01-5.63875E+00 5.00000E-01
 -1      1882-1.25504E+00-5.51240E+00 5.00000E-01
 -1      1883-2.19155E+00 1.42191E+00 2.25000E+00
 -1      1884 5.68236E-01 2.27654E+00 5.00000E-01
 -1      1885 5.68236E-01-2.27654E+00 5.00000E-01
 -1      1886-3.46213E-01 2.32070E+00 5.00000E-01
 -1      1887-1.35268E+00 2.02443E+00 6.09375E-01
 -1      1888-1.31457E+00 1.96740E+00 6.09375E-01
 -1      1889-9.50000E-01 5.63875E+00 5.00000E-01
 -1      1890-1.25504E+00 5.51240E+00 5.00000E-01
 -1      1891 1.35268E+00-2.02443E+00 2.14062E+00
 -1      1892 1.31457E+00-1.96740E+00 2.14062E+00
 -1      1893-1.20795E+00 2.01156E+00 5.00000E-01
 -1      1894-1.39617E+00 1.88580E+00 2.25000E+00
 -1      1895 2.01156E+00-1.20795E+00 5.00000E-01
 -1      1896-2.38798E+00-4.74999E-01 1.26562E+00
 -1      1897-2.32070E+00-4.61617E-01 1.26562E+00
 -1      1898 1.42191E+00 2.19155E+00 2.25000E+00
 -1      1899 9.50000E-01-5.63875E+00 5.00000E-01
 -1      1900 1.25504E+00-5.51240E+00 5.00000E-01
 -1      1901-2.01156E+00-1.20795E+00 2.25000E+00
 -1      1902-4.65895E+00-3.31545E+00 5.00000E-01
 -1      1903-4.78531E+00-3.01041E+00 5.00000E-01
 -1      1904 9.50000E-01 5.63875E+00 5.00000E-01
 -1      1905 1.25504E+00 5.51240E+00 5.00000E-01
 -1      1906 3.31545E+00-4.65895E+00 5.00000E-01
 -1      1907 3.01041E+00-4.78531E+00 5.00000E-01
 -1      1908-3.46213E-01-2.32070E+00 5.00000E-01
 -1      1909 4.65895E+00 3.31545E+00 5.00000E-01
 -1      1910 4.78531E+00 3.01041E+00 5.00000E-01
 -1      1911-2.32070E+00 3.46213E-01 2.25000E+00
 -1      1912-1.88580E+00-1.39617E+00 2.25000E+00
 -1      1913-1.20795E+00-2.01156E+00 2.25000E+00
 -1      1914-5.63875E+00-9.50000E-01 5.00000E-01
 -1      1915-5.51240E+00-1.25504E+00 5.00000E-01
 -1      1916 5.63875E+00-9.50000E-01 5.00000E-01
 -1      1917 5.51240E+00-1.25504E+00 5.00000E-01
 -1      1918-4.65895E+00 3.31545E+00 5.00000E-01
 -1      1919-4.78531E+00 3.01041E+00 5.00000E-01
 -1      1920 4.65895E+00-3.31545E+00 5.00000E-01
 -1      1921 4.78531E+00-3.01041E+00 5.00000E-01
 -1      1922-5.63875E+00 9.50000E-01 5.00000E-01
 -1      1923-5.51240E+00 1.25504E+00 5.00000E-01
 -1      1924-1.35268E+00-2.02443E+00 2.14062E+00
 -1      1925-1.31457E+00-1.96740E+00 2.14062E+00
 -1      1926-3.31545E+00-4.65895E+00 5.00000E-01
 -1      1927-3.01041E+00-4.78531E+00 5.00000E-01
 -1      1928 5.63875E+00 9.50000E-01 5.00000E-01
 -1      1929 5.51240E+00 1.25504E+00 5.00000E-01
 -1      1930-1.42191E+00-2.19155E+00 2.25000E+00
 -1      1931 3.74924E+00 0.00000E+00-5.00000E-01
 -1      1932 7.95528E+00 7.95528E+00-5.00000E-01
 -1      1933-1.03939E+01-4.30523E+00-5.00000E-01
 -1      1934 1.03287E+01 6.77108E+00-5.00000E-01
 -1      1935 4.30523E+00-1.03939E+01-5.00000E-01
 -1      1936 8.30732E-02 7.02787E+00-5.00000E-01
 -1      1937-9.35357E+00 6.24987E+00-5.00000E-01
 -1      1938 9.20579E+00 9.20579E+00 5.00000E-01
 -1      1939 7.01632E+00 1.05007E+01 5.00000E-01
 -1      1940 4.98223E+00 1.20279E+01 5.00000E-01
 -1      1941 1.06292E+01 6.93171E+00 5.00000E-01
 -1      1942 2.46379E+00 1.23864E+01 5.00000E-01
 -1      1943 0.00000E+00 1.30190E+01 5.00000E-01
 -1      1944-2.46379E+00 1.23864E+01 5.00000E-01
 -1      1945-4.30523E+00 1.03939E+01-5.00000E-01
 -1      1946-4.98223E+00 1.20279E+01 5.00000E-01
 -1      1947-7.01632E+00 1.05007E+01 5.00000E-01
 -1      1948 1.20279E+01 4.98223E+00 5.00000E-01
 -1      1949 4.30523E+00 1.03939E+01-5.00000E-01
 -1      1950 1.30190E+01 0.00000E+00 5.00000E-01
 -1      1951 1.23864E+01-2.46379E+00 5.00000E-01
 -1      1952 1.23864E+01 2.46379E+00 5.00000E-01
 -1      1953 1.20279E+01-4.98223E+00 5.00000E-01
 -1      1954 1.05007E+01-7.01632E+00 5.00000E-01
 -1      1955 9.20579E+00-9.20579E+00 5.00000E-01
 -1      1956 7.95528E+00-7.95528E+00-5.00000E-01
 -1      1957 7.01632E+00-1.05007E+01 5.00000E-01
 -1      1958 4.98223E+00-1.20279E+01 5.00000E-01
 -1      1959 4.12763E+00-1.23408E+01-5.00000E-01
 -1      1960 2.46379E+00-1.23864E+01 5.00000E-01
 -1      1961-1.08983E+01 2.92183E+00-5.00000E-01
 -1      1962 0.00000E+00-1.30190E+01 5.00000E-01
 -1      1963-2.46379E+00-1.23864E+01 5.00000E-01
 -1      1964 0.00000E+00-1.12497E+01-5.00000E-01
 -1      1965-4.98223E+00-1.20279E+01 5.00000E-01
 -1      1966-1.18653E+01-6.06210E-02-5.00000E-01
 -1      1967-7.01632E+00-1.05007E+01 5.00000E-01
 -1      1968-9.20579E+00-9.20579E+00 5.00000E-01
 -1      1969-1.05007E+01-7.01632E+00 5.00000E-01
 -1      1970-1.20279E+01-4.98223E+00 5.00000E-01
 -1      1971-9.20579E+00 9.20579E+00 5.00000E-01
 -1      1972-1.05007E+01 7.01632E+00 5.00000E-01
 -1      1973-1.20279E+01 4.98223E+00 5.00000E-01
 -1      1974-8.46497E+00 5.65612E+00 5.00000E-01
 -1      1975-1.23864E+01-2.46379E+00 5.00000E-01
 -1      1976-1.23864E+01 2.46379E+00 5.00000E-01
 -1      1977-1.30190E+01 0.00000E+00 5.00000E-01
 -1      1978 0.00000E+00 0.00000E+00 5.00000E-01
 -1      1979-4.12763E+00 1.23408E+01-5.00000E-01
 -1      1980 6.89439E+00 1.03183E+01-5.00000E-01
 -1      1981 8.94475E+00-2.34261E+00-5.00000E-01
 -1      1982 1.18375E+01-6.42965E+00 5.00000E-01
 -1      1983 1.01203E+01-7.83009E+00-5.00000E-01
 -1      1984-1.04702E+01 8.47592E+00 5.00000E-01
 -1      1985 1.84671E-01-1.31249E+01-5.00000E-01
 -1      1986 6.83112E+00-1.04410E+01-5.00000E-01
 -1      1987-1.22143E+01-2.55897E+00-5.00000E-01
 -1      1988-1.09119E+01-5.73466E+00 5.00000E-01
 -1      1989 1.22759E+01 1.12232E+00 5.00000E-01
 -1      1990-1.33969E+01 1.41013E+00 5.00000E-01
 -1      1991-4.67348E+00-7.96390E+00-5.00000E-01
 -1      1992-3.85907E+00-3.89298E-01-5.00000E-01
 -1      1993-7.23591E+00 9.39629E+00-5.00000E-01
 -1      1994 1.12232E+00 1.22759E+01 5.00000E-01
 -1      1995-1.09119E+01 5.73466E+00 5.00000E-01
 -1      1996-7.28869E+00-9.46061E+00-5.00000E-01
 -1      1997-6.22585E+00 1.12326E+01-5.00000E-01
 -1      1998-1.28057E+01 2.36929E+00-5.00000E-01
 -1      1999 1.17710E+01 3.66092E+00 5.00000E-01
 -1      2000 1.10341E+01 2.19481E+00-5.00000E-01
 -1      2001 0.00000E+00 1.12497E+01-5.00000E-01
 -1      2002-9.26888E+00 9.03330E+00-5.00000E-01
 -1      2003 3.82402E+00 1.29168E+01 5.00000E-01
 -1      2004-2.31557E+00-1.22603E+01-5.00000E-01
 -1      2005 1.33969E+01-1.41013E+00 5.00000E-01
 -1      2006-6.07092E+00-9.09453E+00 5.00000E-01
 -1      2007-1.31782E+01-1.15074E+00-5.00000E-01
 -1      2008-7.88674E+00 9.47394E+00 5.00000E-01
 -1      2009 3.66092E+00-1.17710E+01 5.00000E-01
 -1      2010-1.08102E+01 7.44525E+00-5.00000E-01
 -1      2011-1.19526E+01 4.77807E+00-5.00000E-01
 -1      2012 2.01011E+00-1.19984E+01-5.00000E-01
 -1      2013-1.08667E+01 5.89122E+00-5.00000E-01
 -1      2014 5.54819E+00-1.14888E+01-5.00000E-01
 -1      2015 3.49196E+00-5.22556E+00-5.00000E-01
 -1      2016-1.22773E+01-4.44672E+00-5.00000E-01
 -1      2017 3.36110E+00 1.23463E+01-5.00000E-01
 -1      2018 8.70281E+00 9.71055E+00-5.00000E-01
 -1      2019 1.07586E+01-8.35386E+00 5.00000E-01
 -1      2020 5.09285E+00-7.62178E+00-5.00000E-01
 -1      2021-8.47592E+00-1.04702E+01 5.00000E-01
 -1      2022-9.08919E+00-6.07320E+00 5.00000E-01
 -1      2023 9.24473E+00-1.83889E+00 5.00000E-01
 -1      2024-1.17710E+01-3.66092E+00 5.00000E-01
 -1      2025-1.17710E+01 3.66092E+00 5.00000E-01
 -1      2026 9.98513E+00 1.98616E+00 5.00000E-01
 -1      2027-5.23672E+00-7.83730E+00 5.00000E-01
 -1      2028-1.15123E+01 1.47292E+00-5.00000E-01
 -1      2029-2.13262E+00-1.07215E+01 5.00000E-01
 -1      2030-6.07092E+00 9.09453E+00 5.00000E-01
 -1      2031-2.18775E+00-9.39491E+00-5.00000E-01
 -1      2032 5.73466E+00 1.09119E+01 5.00000E-01
 -1      2033 6.07320E+00 9.08919E+00 5.00000E-01
 -1      2034-1.07215E+01-2.13262E+00 5.00000E-01
 -1      2035-9.22577E+00 6.72092E+00 5.00000E-01
 -1      2036-7.49284E+00-6.07074E+00-5.00000E-01
 -1      2037 1.17710E+01-3.66092E+00 5.00000E-01
 -1      2038-5.51578E+00 1.24286E+01-5.00000E-01
 -1      2039 9.47394E+00-7.88674E+00 5.00000E-01
 -1      2040 5.73466E+00-1.09119E+01 5.00000E-01
 -1      2041-4.52362E+00 5.28499E+00-5.00000E-01
 -1      2042-7.64950E+00 6.90528E-01-5.00000E-01
 -1      2043 1.18478E+01-2.44165E+00-5.00000E-01
 -1      2044 1.31330E+01-3.60439E+00 5.00000E-01
 -1      2045-1.29984E+01-4.10788E+00 5.00000E-01
 -1      2046-1.31330E+01 3.60439E+00 5.00000E-01
 -1      2047-7.82005E+00-5.22520E+00 5.00000E-01
 -1      2048-1.83484E+00-9.22438E+00 5.00000E-01
 -1      2049 5.22520E+00-7.82005E+00 5.00000E-01
 -1      2050-1.19987E+01 0.00000E+00 5.00000E-01
 -1      2051-2.13262E+00 1.07215E+01 5.00000E-01
 -1      2052 1.16060E+01-7.56446E+00 5.00000E-01
 -1      2053 2.13262E+00 1.07215E+01 5.00000E-01
 -1      2054 9.60431E+00 8.28981E+00-5.00000E-01
 -1      2055-3.82402E+00-1.29168E+01 5.00000E-01
 -1      2056 5.53956E+00 8.29041E+00-5.00000E-01
 -1      2057 5.58152E+00 9.72891E+00-5.00000E-01
 -1      2058 1.41013E+00-1.33969E+01 5.00000E-01
 -1      2059 8.99401E+00 7.06663E+00-5.00000E-01
 -1      2060 1.61739E+00-1.34043E+01-5.00000E-01
 -1      2061 1.07486E+01-5.76486E+00 5.00000E-01
 -1      2062-3.66092E+00 1.17710E+01 5.00000E-01
 -1      2063-1.19435E+00-4.79489E+00-5.00000E-01
 -1      2064-1.13991E+01-3.53110E+00-5.00000E-01
 -1      2065 9.16420E+00-9.42838E+00-5.00000E-01
 -1      2066-1.88495E-01 2.41602E+00-5.00000E-01
 -1      2067 1.14486E+01-7.36973E+00-5.00000E-01
 -1      2068 6.41156E+00-8.75418E+00-5.00000E-01
 -1      2069 2.13802E+00-1.07236E+01 5.00000E-01
 -1      2070 6.70820E+00 8.97619E+00-5.00000E-01
 -1      2071 9.55168E+00 7.83980E+00 5.00000E-01
 -1      2072-8.76259E+00-1.00978E+01-5.00000E-01
 -1      2073-1.37367E+01-9.83608E-01 5.00000E-01
 -1      2074-1.12232E+00 1.22759E+01 5.00000E-01
 -1      2075-3.60439E+00 1.31330E+01 5.00000E-01
 -1      2076-1.04535E+01 4.40196E+00-5.00000E-01
 -1      2077-6.42965E+00-1.18375E+01 5.00000E-01
 -1      2078-8.22487E+00 1.06014E+01-5.00000E-01
 -1      2079 1.32489E+01-2.86668E+00-5.00000E-01
 -1      2080 1.31330E+01 3.60439E+00 5.00000E-01
 -1      2081-9.50120E+00 1.47523E+00-5.00000E-01
 -1      2082-1.07215E+01 2.13262E+00 5.00000E-01
 -1      2083-1.18950E+01 6.70666E+00-5.00000E-01
 -1      2084 1.62493E+00-8.16748E+00-5.00000E-01
 -1      2085 5.65195E+00-2.71279E+00-5.00000E-01
 -1      2086 3.53988E+00 4.51040E+00-5.00000E-01
 -1      2087 2.30502E-01-1.31804E+00-5.00000E-01
 -1      2088-8.35581E+00 1.07539E+01 5.00000E-01
 -1      2089 3.60439E+00-1.31330E+01 5.00000E-01
 -1      2090-3.20813E+00 2.56300E+00-5.00000E-01
 -1      2091-1.53540E+00 3.74350E-01-5.00000E-01
 -1      2092 1.09708E+01-8.52807E+00-5.00000E-01
 -1      2093 2.95596E+00-2.58006E+00-5.00000E-01
 -1      2094-1.86732E+00 1.25386E+01-5.00000E-01
 -1      2095-3.52396E+00-1.16768E+01 5.00000E-01
 -1      2096 1.84671E-01 1.31249E+01-5.00000E-01
 -1      2097 1.82501E+00 9.17390E+00-5.00000E-01
 -1      2098-1.81078E+00 9.10236E+00-5.00000E-01
 -1      2099 5.88811E+00 1.17957E+01-5.00000E-01
 -1      2100 4.61620E-01-1.11444E+00 5.00000E-01
 -1      2101 1.19591E+01-4.59666E+00-5.00000E-01
 -1      2102-1.11444E+00 4.61620E-01 5.00000E-01
 -1      2103 1.22920E+01-3.49909E+00-5.00000E-01
 -1      2104 1.03551E+01-3.59912E+00-5.00000E-01
 -1      2105-6.55174E+00-7.71514E+00-5.00000E-01
 -1      2106-9.47394E+00-7.88674E+00 5.00000E-01
 -1      2107-9.30088E+00 1.01862E+01-5.00000E-01
 -1      2108-7.09903E+00 1.05170E+01-5.00000E-01
 -1      2109-1.35034E+01-2.40731E+00-5.00000E-01
 -1      2110-1.18351E+01-6.73765E+00 5.00000E-01
 -1      2111 1.35126E+01 1.69567E+00 5.00000E-01
 -1      2112 1.29090E+01 2.37946E+00-5.00000E-01
 -1      2113-1.05056E+01 4.33803E-01-5.00000E-01
 -1      2114 1.04346E+01 8.79015E+00 5.00000E-01
 -1      2115-2.40879E+00 6.65470E+00-5.00000E-01
 -1      2116-2.15850E+00-2.36939E+00-5.00000E-01
 -1      2117-1.45412E-01-9.20364E+00-5.00000E-01
 -1      2118 7.57571E+00-4.99481E+00-5.00000E-01
 -1      2119-1.34703E+01-2.99630E+00 5.00000E-01
 -1      2120-1.32793E+01 7.89067E-01-5.00000E-01
 -1      2121 3.62623E-01 5.87326E-01-5.00000E-01
 -1      2122-1.41013E+00-1.33969E+01 5.00000E-01
 -1      2123 3.21338E+00-1.12758E+01-5.00000E-01
 -1      2124-1.05665E+01-1.51565E+00-5.00000E-01
 -1      2125-7.43891E+00 3.76460E+00-5.00000E-01
 -1      2126 1.30462E+01-1.01286E+00-5.00000E-01
 -1      2127-4.18931E-01-3.08228E+00-5.00000E-01
 -1      2128-9.42735E+00 7.64512E+00-5.00000E-01
 -1      2129 3.67222E+00-1.33720E+01-5.00000E-01
 -1      2130-6.73733E+00 6.77489E+00-5.00000E-01
 -1      2131-5.37209E+00 1.49221E+00-5.00000E-01
 -1      2132 8.47592E+00-1.04702E+01 5.00000E-01
 -1      2133-6.27039E+00 5.07916E+00-5.00000E-01
 -1      2134-5.63026E+00 3.33351E+00-5.00000E-01
 -1      2135-5.51681E+00 6.19883E+00-5.00000E-01
 -1      2136-1.72390E+00 1.96382E+00-5.00000E-01
 -1      2137 1.08006E+00-5.75829E+00-5.00000E-01
 -1      2138 2.58240E+00 1.07653E+01-5.00000E-01
 -1      2139 2.38707E+00 2.19683E+00-5.00000E-01
 -1      2140-7.92316E+00 5.37169E+00-5.00000E-01
 -1      2141 4.97972E+00-9.08756E+00-5.00000E-01
 -1      2142-8.68324E+00-7.84351E+00-5.00000E-01
 -1      2143 1.34268E+01 9.53085E-01-5.00000E-01
 -1      2144-8.07486E+00 2.26391E+00-5.00000E-01
 -1      2145-2.42695E+00-6.93598E+00-5.00000E-01
 -1      2146 7.38295E+00 1.12627E+00-5.00000E-01
 -1      2147-7.23224E+00-9.33462E+00 5.00000E-01
 -1      2148-4.10202E+00-4.54632E+00-5.00000E-01
 -1      2149-5.77004E+00 9.78595E+00-5.00000E-01
 -1      2150 1.19221E+01 6.38284E+00 5.00000E-01
 -1      2151-1.05072E+01 1.90156E+00-5.00000E-01
 -1      2152-9.50280E+00 2.87163E+00-5.00000E-01
 -1      2153-6.74275E+00 1.18351E+01 5.00000E-01
 -1      2154 6.73765E+00 1.18351E+01 5.00000E-01
 -1      2155-5.73466E+00 1.09119E+01 5.00000E-01
 -1      2156 4.41288E+00 9.04314E+00-5.00000E-01
 -1      2157 7.41296E+00 1.15295E+01-5.00000E-01
 -1      2158 1.69567E+00 1.35126E+01 5.00000E-01
 -1      2159-1.20957E+01 6.28673E+00 5.00000E-01
 -1      2160-8.47017E+00 3.31652E+00-5.00000E-01
 -1      2161 3.13994E+00 9.52401E+00-5.00000E-01
 -1      2162-4.60681E+00-1.07225E+01-5.00000E-01
 -1      2163-1.36149E+01 2.54935E+00 5.00000E-01
 -1      2164 7.84803E+00 1.13707E+01 5.00000E-01
 -1      2165 3.52396E+00 1.16768E+01 5.00000E-01
 -1      2166-1.20913E+01 3.47175E+00-5.00000E-01
 -1      2167-8.36982E+00-8.98309E+00-5.00000E-01
 -1      2168-8.97399E+00-5.89714E-01-5.00000E-01
 -1      2169-9.89216E+00-9.07325E+00-5.00000E-01
 -1      2170 9.14274E+00 6.10899E+00 5.00000E-01
 -1      2171-2.55232E+00 4.55881E+00-5.00000E-01
 -1      2172 5.99319E+00-9.51464E+00 5.00000E-01
 -1      2173 1.17655E+01 6.70554E+00-5.00000E-01
 -1      2174 9.93979E+00 9.49907E+00-5.00000E-01
 -1      2175 1.15659E+01 2.93471E-01-5.00000E-01
 -1      2176-6.88116E+00 1.20940E+01-5.00000E-01
 -1      2177-1.11068E+01-6.35347E+00-5.00000E-01
 -1      2178 1.32158E+01 3.62485E+00-5.00000E-01
 -1      2179-3.80109E+00-9.32294E+00-5.00000E-01
 -1      2180 2.42756E+00 1.33974E+01-5.00000E-01
 -1      2181 8.43816E+00 1.08897E+01-5.00000E-01
 -1      2182-3.05357E+00-1.06850E+01-5.00000E-01
 -1      2183 1.07241E+01 8.63033E+00-5.00000E-01
 -1      2184 1.22453E+01 1.33138E+00-5.00000E-01
 -1      2185-3.01963E+00 9.73525E-01-5.00000E-01
 -1      2186 9.31521E+00-8.97932E-02-5.00000E-01
 -1      2187-6.85436E+00-2.95756E+00-5.00000E-01
 -1      2188-5.94454E+00-5.17232E-01-5.00000E-01
 -1      2189-4.20917E+00 8.09364E+00-5.00000E-01
 -1      2190-2.63233E+00-2.04975E-01-5.00000E-01
 -1      2191 2.56017E+00 6.79719E+00-5.00000E-01
 -1      2192-2.41252E-01 4.73305E+00-5.00000E-01
 -1      2193-1.30576E+01 4.23491E+00-5.00000E-01
 -1      2194-7.44022E+00-1.34937E+00-5.00000E-01
 -1      2195-5.35432E+00-9.36048E+00-5.00000E-01
 -1      2196-7.59474E+00-8.15703E+00-5.00000E-01
 -1      2197 9.06680E+00 4.23407E+00-5.00000E-01
 -1      2198 1.35181E+01-2.53770E+00 5.00000E-01
 -1      2199 5.22520E+00 7.82006E+00 5.00000E-01
 -1      2200-1.49499E+00-1.07954E+01-5.00000E-01
 -1      2201-9.76935E-01-1.36689E+01-5.00000E-01
 -1      2202-4.71225E+00-2.42505E+00-5.00000E-01
 -1      2203 1.20856E+00 5.69848E+00-5.00000E-01
 -1      2204-1.04088E+01-9.01781E+00 5.00000E-01
 -1      2205-3.89824E+00 6.63690E+00-5.00000E-01
 -1      2206-1.20796E+01 1.24967E+00 5.00000E-01
 -1      2207-3.56836E+00-1.30296E+01-5.00000E-01
 -1      2208 1.26904E+01 7.58164E-02-5.00000E-01
 -1      2209-5.15183E-01-1.02581E+01-5.00000E-01
 -1      2210 7.88674E+00 9.47394E+00 5.00000E-01
 -1      2211-1.46671E+00-1.08387E+00-5.00000E-01
 -1      2212 1.16725E+01-1.07763E+00-5.00000E-01
 -1      2213-1.34620E+00 3.51413E+00-5.00000E-01
 -1      2214-9.34063E+00 7.95816E+00 5.00000E-01
 -1      2215-3.80493E+00-1.17488E+01-5.00000E-01
 -1      2216 1.22371E+01-9.65313E-01 5.00000E-01
 -1      2217 7.63627E+00 9.53142E+00-5.00000E-01
 -1      2218-2.50848E+00 1.08095E+01-5.00000E-01
 -1      2219 9.08193E+00-6.06835E+00 5.00000E-01
 -1      2220-5.50716E+00-3.80213E+00-5.00000E-01
 -1      2221-3.16439E+00 7.55509E+00-5.00000E-01
 -1      2222-5.98173E+00-1.89314E+00-5.00000E-01
 -1      2223-9.38033E+00 4.00821E+00-5.00000E-01
 -1      2224-1.28892E+01-1.63147E-01-5.00000E-01
 -1      2225 1.01290E+01-5.70857E+00-5.00000E-01
 -1      2226-8.93044E+00-2.80307E+00-5.00000E-01
 -1      2227-1.04436E+01 9.04636E+00-5.00000E-01
 -1      2228 1.92209E+00-4.78072E-01-5.00000E-01
 -1      2229-6.92396E+00-4.56535E+00-5.00000E-01
 -1      2230-3.67222E+00 1.33720E+01-5.00000E-01
 -1      2231-1.91997E+00 7.83216E+00-5.00000E-01
 -1      2232 8.22047E-01-1.21154E+01-5.00000E-01
 -1      2233-6.75161E-01 1.27196E+00-5.00000E-01
 -1      2234 7.74753E+00-9.35838E+00-5.00000E-01
 -1      2235-1.21273E+00-1.21365E+01 5.00000E-01
 -1      2236-1.63248E+00-3.56467E+00-5.00000E-01
 -1      2237 1.09659E+01-2.49023E+00 5.00000E-01
 -1      2238-7.22131E+00-1.11709E+01-5.00000E-01
 -1      2239-1.25088E+01-1.12591E+00 5.00000E-01
 -1      2240 8.97257E+00-6.76463E+00-5.00000E-01
 -1      2241-1.01873E+01-7.57396E+00-5.00000E-01
 -1      2242 1.20997E+00 3.60698E+00-5.00000E-01
 -1      2243-1.03929E+00 6.01617E+00-5.00000E-01
 -1      2244 4.65293E+00 6.34051E+00-5.00000E-01
 -1      2245 3.31485E+00 8.06177E+00-5.00000E-01
 -1      2246 1.39868E+00 7.73997E+00-5.00000E-01
 -1      2247-5.84637E+00 8.14957E+00-5.00000E-01
 -1      2248-3.29841E+00 9.28378E+00-5.00000E-01
 -1      2249 1.02939E+01 9.62742E-01-5.00000E-01
 -1      2250-1.88694E-01 3.57513E+00-5.00000E-01
 -1      2251 8.88763E-01-1.01584E+01-5.00000E-01
 -1      2252 1.45290E+00 1.20533E+01-5.00000E-01
 -1      2253 1.25631E+00 1.36710E+01-5.00000E-01
 -1      2254-2.94394E+00-8.22737E+00-5.00000E-01
 -1      2255 1.25879E+01 4.97079E+00-5.00000E-01
 -1      2256 1.18722E+01 3.29537E+00-5.00000E-01
 -1      2257-2.64368E+00-4.61793E+00-5.00000E-01
 -1      2258-5.50663E+00-5.49977E+00-5.00000E-01
 -1      2259 7.96932E+00 5.32493E+00 5.00000E-01
 -1      2260-6.78914E-01 1.22633E+01-5.00000E-01
 -1      2261 4.34728E+00 1.30649E+01-5.00000E-01
 -1      2262-9.16146E-01-1.22866E+01-5.00000E-01
 -1      2263-2.04412E+00-5.73103E+00-5.00000E-01
 -1      2264-3.30978E+00-3.29758E+00-5.00000E-01
 -1      2265 1.01580E+01-1.38525E+00-5.00000E-01
 -1      2266 6.85189E+00-1.17757E+01-5.00000E-01
 -1      2267 6.66060E+00-6.61671E+00-5.00000E-01
 -1      2268-7.90854E+00-3.66731E-01-5.00000E-01
 -1      2269 6.27165E+00 3.73845E+00-5.00000E-01
 -1      2270 3.23825E+00-7.12794E+00-5.00000E-01
 -1      2271 1.59561E+00-1.94390E+00-5.00000E-01
 -1      2272 8.78627E+00-3.94025E+00-5.00000E-01
 -1      2273-1.19237E+01-1.32603E+00-5.00000E-01
 -1      2274-3.44932E+00-1.75769E+00-5.00000E-01
 -1      2275-4.85800E+00-1.16730E+00-5.00000E-01
 -1      2276 1.07584E+01-4.59024E-01-5.00000E-01
 -1      2277 4.54709E+00 1.17153E+01-5.00000E-01
 -1      2278 3.20113E+00-8.99649E+00-5.00000E-01
 -1      2279-8.19860E+00-8.95751E+00 5.00000E-01
 -1      2280 1.73989E-03 9.41111E+00-5.00000E-01
 -1      2281 2.56703E+00 7.87684E-01-5.00000E-01
 -1      2282-1.39876E+00 4.67204E+00-5.00000E-01
 -1      2283-5.05654E+00 7.27980E+00-5.00000E-01
 -1      2284 2.97796E-01-4.43864E+00-5.00000E-01
 -1      2285 6.85637E+00-7.72276E+00-5.00000E-01
 -1      2286 6.68547E+00 7.67628E+00-5.00000E-01
 -1      2287 5.30923E+00-1.27007E+01-5.00000E-01
 -1      2288-7.76577E+00-1.14256E+01 5.00000E-01
 -1      2289-8.07001E+00 8.19330E+00-5.00000E-01
 -1      2290 1.10037E+00 2.31913E+00-5.00000E-01
 -1      2291-3.14163E+00 5.65203E+00-5.00000E-01
 -1      2292-4.94709E+00 2.84874E-01-5.00000E-01
 -1      2293 2.54362E+00 5.43684E+00-5.00000E-01
 -1      2294-8.79918E+00 5.54691E-01-5.00000E-01
 -1      2295-3.62483E+00 4.68611E+00-5.00000E-01
 -1      2296 7.57814E+00-7.02466E+00-5.00000E-01
 -1      2297-4.97929E-01-3.07507E-01-5.00000E-01
 -1      2298-9.17035E+00-6.23037E+00-5.00000E-01
 -1      2299-6.27664E+00-1.02772E+01-5.00000E-01
 -1      2300-7.41900E+00-7.11998E+00-5.00000E-01
 -1      2301 1.90919E+00-6.83698E+00-5.00000E-01
 -1      2302 2.85486E+00 1.35541E+01 5.00000E-01
 -1      2303-1.20772E+01-6.87216E+00-5.00000E-01
 -1      2304 5.90026E+00-5.14973E-01-5.00000E-01
 -1      2305-5.73987E+00-1.19624E+01-5.00000E-01
 -1      2306-3.95787E-01-7.17397E+00-5.00000E-01
 -1      2307-4.39779E+00-3.48300E+00-5.00000E-01
 -1      2308-6.61538E+00 2.25663E+00-5.00000E-01
 -1      2309 1.07975E+01 4.74498E+00-5.00000E-01
 -1      2310-1.00591E+01-5.55820E-01-5.00000E-01
 -1      2311 9.38243E+00 5.65940E+00-5.00000E-01
 -1      2312 5.56483E+00-1.02170E+01-5.00000E-01
 -1      2313 3.19497E+00-1.01362E+01-5.00000E-01
 -1      2314 1.18724E+00 1.04534E+01-5.00000E-01
 -1      2315-4.54695E+00 2.54666E+00-5.00000E-01
 -1      2316-6.41888E+00 4.03452E+00-5.00000E-01
 -1      2317 7.72426E+00-9.43936E+00 5.00000E-01
 -1      2318 5.62558E+00 7.07477E+00-5.00000E-01
 -1      2319-2.20786E+00 2.90289E+00-5.00000E-01
 -1      2320-5.30971E+00 4.44125E+00-5.00000E-01
 -1      2321 4.00556E-01-8.10601E+00-5.00000E-01
 -1      2322-5.48353E+00-6.86487E+00-5.00000E-01
 -1      2323 4.61620E-01 1.11444E+00 5.00000E-01
 -1      2324 1.04971E+01-6.77085E+00-5.00000E-01
 -1      2325 5.51517E+00-4.77997E+00-5.00000E-01
 -1      2326-1.02072E+01-3.02316E+00-5.00000E-01
 -1      2327 7.83730E+00-5.23672E+00 5.00000E-01
 -1      2328 1.09893E+01 2.70487E+00 5.00000E-01
 -1      2329-3.52506E+00-5.92381E+00-5.00000E-01
 -1      2330 7.96657E+00-1.10908E+01-5.00000E-01
 -1      2331 9.81920E-01-3.20959E+00-5.00000E-01
 -1      2332 2.67215E+00-1.41440E+00-5.00000E-01
 -1      2333-4.16032E+00 1.39404E+00-5.00000E-01
 -1      2334-3.67035E+00-7.18738E+00-5.00000E-01
 -1      2335 1.48659E+00-1.17146E+01 5.00000E-01
 -1      2336 9.06026E+00-8.28108E+00-5.00000E-01
 -1      2337-9.24473E+00 1.83889E+00 5.00000E-01
 -1      2338 5.33912E+00 1.08210E+01-5.00000E-01
 -1      2339-5.29167E+00 7.91954E+00 5.00000E-01
 -1      2340 6.73765E+00-1.18351E+01 5.00000E-01
 -1      2341-4.88224E+00 1.14281E+01-5.00000E-01
 -1      2342-9.33865E+00-1.85757E+00 5.00000E-01
 -1      2343-1.12778E+01-5.14576E+00-5.00000E-01
 -1      2344-1.32451E+01-3.63373E+00-5.00000E-01
 -1      2345 1.32756E+01-3.94713E+00-5.00000E-01
 -1      2346 2.69192E+00-8.05173E+00-5.00000E-01
 -1      2347 3.52503E-01-2.36460E+00-5.00000E-01
 -1      2348-1.83889E+00 9.24473E+00 5.00000E-01
 -1      2349 1.83889E+00 9.24473E+00 5.00000E-01
 -1      2350-1.05835E+00 1.35914E+01-5.00000E-01
 -1      2351-3.57034E+00 1.13084E+01-5.00000E-01
 -1      2352-2.98448E+00 1.22913E+01-5.00000E-01
 -1      2353-6.01236E+00 5.88352E-01-5.00000E-01
 -1      2354-6.38128E+00-6.19732E+00-5.00000E-01
 -1      2355 4.36880E+00-1.58911E+00-5.00000E-01
 -1      2356 2.54935E+00-1.36149E+01 5.00000E-01
 -1      2357-9.31815E+00 1.02749E+01 5.00000E-01
 -1      2358-1.08724E+00 1.03294E+01-5.00000E-01
 -1      2359 9.75150E+00-4.60126E+00-5.00000E-01
 -1      2360-9.47516E-01-7.11439E-01 5.00000E-01
 -1      2361 7.69207E+00-9.79747E-01-5.00000E-01
 -1      2362-5.76486E+00-1.07486E+01 5.00000E-01
 -1      2363-1.69567E+00 1.35126E+01 5.00000E-01
 -1      2364 4.21701E+00-3.70161E+00-5.00000E-01
 -1      2365 8.85395E+00 1.32045E+00-5.00000E-01
 -1      2366 1.85819E+00-9.34177E+00 5.00000E-01
 -1      2367-7.95454E+00-3.71534E+00-5.00000E-01
 -1      2368 7.30559E+00-2.59211E+00-5.00000E-01
 -1      2369-5.40193E-01 1.30413E+00 5.00000E-01
 -1      2370 7.90314E+00 2.85449E+00-5.00000E-01
 -1      2371 9.55241E+00 2.73401E+00-5.00000E-01
 -1      2372-2.23169E+00-1.35209E+01-5.00000E-01
 -1      2373 1.08611E+01 5.68080E+00 5.00000E-01
 -1      2374-8.12494E+00-4.97169E+00-5.00000E-01
 -1      2375-9.16811E+00-4.03543E+00-5.00000E-01
 -1      2376 7.58013E+00-3.77778E+00-5.00000E-01
 -1      2377-2.20560E+00 1.36358E+01-5.00000E-01
 -1      2378 8.85222E+00-1.17053E+00-5.00000E-01
 -1      2379 6.98811E+00-7.37823E-03-5.00000E-01
 -1      2380 7.61792E+00 4.27563E+00-5.00000E-01
 -1      2381 3.78273E+00-8.07340E+00-5.00000E-01
 -1      2382 1.20838E+01-6.05315E+00-5.00000E-01
 -1      2383-7.85757E+00-2.41222E+00-5.00000E-01
 -1      2384-2.06539E-01-5.62928E+00-5.00000E-01
 -1      2385 4.47721E+00 7.58464E+00-5.00000E-01
 -1      2386 2.64941E+00-1.36801E+01-5.00000E-01
 -1      2387 7.55406E-01-6.99660E+00-5.00000E-01
 -1      2388-8.08540E+00 6.71146E+00-5.00000E-01
 -1      2389 2.03623E+00-9.56008E+00-5.00000E-01
 -1      2390 8.34724E-01 8.68799E+00-5.00000E-01
 -1      2391 5.50729E+00-1.58351E+00-5.00000E-01
 -1      2392 2.57284E+00 3.54826E+00-5.00000E-01
 -1      2393 1.51736E+00 6.69932E+00-5.00000E-01
 -1      2394 8.58737E-01 4.65249E+00-5.00000E-01
 -1      2395 5.25867E+00 1.55499E+00-5.00000E-01
 -1      2396 6.54970E+00-8.61846E+00 5.00000E-01
 -1      2397 3.50542E+00 6.10541E+00-5.00000E-01
 -1      2398-4.67916E+00 9.22612E+00-5.00000E-01
 -1      2399-6.35166E+00-8.82792E+00-5.00000E-01
 -1      2400-1.11410E+01-8.04857E+00 5.00000E-01
 -1      2401 8.76450E+00 1.04406E+01 5.00000E-01
 -1      2402-1.04788E+00-2.13816E+00-5.00000E-01
 -1      2403 8.36765E+00 5.13651E+00-5.00000E-01
 -1      2404 1.01488E+01 3.75570E+00-5.00000E-01
 -1      2405-1.49698E+00-8.11886E+00-5.00000E-01
 -1      2406-1.35945E+00-6.61184E+00-5.00000E-01
 -1      2407-9.05917E+00 5.12536E+00-5.00000E-01
 -1      2408-9.39092E+00-1.70502E+00-5.00000E-01
 -1      2409 6.55687E+00 2.31731E+00-5.00000E-01
 -1      2410 3.54986E+00 1.12711E+01-5.00000E-01
 -1      2411 4.44618E+00-6.32093E+00-5.00000E-01
 -1      2412 2.34705E+00-4.08048E+00-5.00000E-01
 -1      2413 1.03249E+01-1.58432E+00 5.00000E-01
 -1      2414 8.23538E+00 3.37571E-01-5.00000E-01
 -1      2415-1.13511E+01-7.88919E+00-5.00000E-01
 -1      2416 6.01648E+00 6.55459E-01-5.00000E-01
 -1      2417-1.03498E+00 7.13980E+00-5.00000E-01
 -1      2418 1.06638E+01-2.45593E+00-5.00000E-01
 -1      2419 5.61709E+00-5.99194E+00-5.00000E-01
 -1      2420-3.00305E+00 3.60126E+00-5.00000E-01
 -1      2421 5.10080E+00 4.81460E+00-5.00000E-01
 -1      2422-3.12880E-01 8.20737E+00-5.00000E-01
 -1      2423 8.95041E+00-1.05370E+01-5.00000E-01
 -1      2424 7.60953E+00 6.49975E+00-5.00000E-01
 -1      2425 5.79004E+00 5.84557E+00-5.00000E-01
 -1      2426-6.96358E+00 7.89759E+00-5.00000E-01
 -1      2427 1.42196E+00 1.15909E+00-5.00000E-01
 -1      2428 4.65965E+00 3.15960E+00-5.00000E-01
 -1      2429 2.02698E+00-3.07682E+00-5.00000E-01
 -1      2430-1.24754E+01-5.68404E+00-5.00000E-01
 -1      2431 4.84992E+00 4.41667E-01-5.00000E-01
 -1      2432-1.25409E+01-5.92687E+00 5.00000E-01
 -1      2433-4.81649E+00-1.28264E+01-5.00000E-01
 -1      2434 1.16033E+01 5.56636E+00-5.00000E-01
 -1      2435 4.24916E+00 5.39332E+00-5.00000E-01
 -1      2436-4.58629E+00 3.63166E+00-5.00000E-01
 -1      2437 2.24883E+00-5.32359E+00-5.00000E-01
 -1      2438 7.96178E+00-1.14396E+01 5.00000E-01
 -1      2439-4.61334E+00-6.16740E+00-5.00000E-01
 -1      2440 3.83450E+00 1.44617E+00-5.00000E-01
 -1      2441 6.98287E+00 5.38531E+00-5.00000E-01
 -1      2442 4.56057E+00-2.66459E+00-5.00000E-01
 -1      2443 8.78616E+00-5.47560E+00-5.00000E-01
 -1      2444 5.29277E+00-3.72714E+00-5.00000E-01
 -1      2445 9.02676E+00 1.52681E+00 5.00000E-01
 -1      2446-2.80230E+00-1.35278E+01 5.00000E-01
 -1      2447 6.53301E+00-3.39562E+00-5.00000E-01
 -1      2448 2.09704E+00-1.07801E+01-5.00000E-01
 -1      2449 6.68515E+00-1.59089E+00-5.00000E-01
 -1      2450 1.96249E+00 4.48333E+00-5.00000E-01
 -1      2451 1.31168E+00-4.19807E+00-5.00000E-01
 -1      2452 6.60926E+00-5.51863E+00-5.00000E-01
 -1      2453 3.50046E+00 2.73226E+00-5.00000E-01
 -1      2454 4.61936E+00-5.76093E-01-5.00000E-01
 -1      2455-4.84953E+00-1.30540E+01 5.00000E-01
 -1      2456-1.08566E+00 2.62949E+00-5.00000E-01
 -1      2457 2.82855E+00-4.74396E+00-5.00000E-01
 -1      2458-1.64099E+00-1.64099E+00 1.59375E+00
 -1      2459-3.66153E-01-2.36556E+00-5.00000E-01
 -1      2460-8.88093E-01-2.14405E+00 1.59375E+00
 -1      2461 3.97886E-01 1.59535E+00-5.00000E-01
 -1      2462-2.51297E+00-1.25907E+00-5.00000E-01
 -1      2463-1.55108E+00-1.73089E+00 1.92188E+00
 -1      2464 5.03154E-01 2.99570E+00-5.00000E-01
 -1      2465 1.92142E+00-1.24719E+00-5.00000E-01
 -1      2466 1.16035E+00-1.72187E-01 5.00000E-01
 -1      2467 8.30157E-01-4.02355E-01-5.00000E-01
 -1      2468-1.00476E+00 1.91312E+00-5.00000E-01
 -1      2469-2.32844E+00 5.47786E-01-5.00000E-01
 -1      2470-1.64099E+00-1.64099E+00 9.62285E-01
 -1      2471-1.64099E+00 1.64099E+00 1.69073E+00
 -1      2472-5.10364E+00-3.11709E+00-5.00000E-01
 -1      2473-1.70037E+00-1.78703E+00-5.00000E-01
 -1      2474 1.70612E+00 1.86247E+00-5.00000E-01
 -1      2475-8.88093E-01 2.14405E+00 1.05926E+00
 -1      2476 2.14405E+00-8.88093E-01 1.69074E+00
 -1      2477-1.80419E+00-1.47778E+00 1.48438E+00
 -1      2478 1.08333E+00-2.47713E+00-5.00000E-01
 -1      2479 2.14405E+00 8.88093E-01 1.59375E+00
 -1      2480-2.12014E+00-2.79189E+00 1.37500E+00
 -1      2481 1.64099E+00 1.64099E+00 1.59375E+00
 -1      2482-1.79589E+00-1.48608E+00 7.31143E-01
 -1      2483 4.54694E-01 2.35105E+00-5.00000E-01
 -1      2484-1.64099E+00 1.64099E+00 1.05927E+00
 -1      2485-5.62389E+00-1.21435E+00-5.00000E-01
 -1      2486-1.80466E+00-1.47731E+00 9.62285E-01
 -1      2487-2.56083E+00-1.88908E+00 1.48438E+00
 -1      2488-8.15910E-01-3.21101E+00 1.37500E+00
 -1      2489-1.42018E+00-1.86179E+00 1.92188E+00
 -1      2490-2.32070E+00 0.00000E+00 1.59375E+00
 -1      2491-2.14405E+00-8.88093E-01 1.48438E+00
 -1      2492-2.11523E+00-9.57675E-01 1.86719E+00
 -1      2493 1.80211E+00 3.80247E-01-5.00000E-01
 -1      2494 2.09874E+00 1.29477E+00-5.00000E-01
 -1      2495-3.82874E+00-2.56834E+00-5.00000E-01
 -1      2496-1.75642E+00-1.52555E+00 1.84571E+00
 -1      2497 0.00000E+00 2.32070E+00 1.59375E+00
 -1      2498-9.57675E-01-2.11523E+00 1.15625E+00
 -1      2499-7.85563E-01-2.18652E+00 8.45183E-01
 -1      2500-2.29766E+00 1.37171E+00-5.00000E-01
 -1      2501-1.76339E+00 1.51858E+00 1.97037E+00
 -1      2502 1.64099E+00-1.64099E+00 1.59375E+00
 -1      2503-6.87288E-01 2.31172E+00-5.00000E-01
 -1      2504-4.57431E+00-2.95976E+00-5.00000E-01
 -1      2505 2.14405E+00-8.88093E-01 9.62278E-01
 -1      2506 3.34912E+00 5.30415E+00-5.00000E-01
 -1      2507-2.32070E+00 0.00000E+00 9.62282E-01
 -1      2508 9.52735E-01-4.94209E+00-5.00000E-01
 -1      2509-1.84326E+00-3.70880E-01-5.00000E-01
 -1      2510-2.13010E+00-9.21761E-01 1.04688E+00
 -1      2511-7.28165E-01 2.21029E+00 7.79632E-01
 -1      2512-9.47994E-01-4.76589E+00 5.00000E-01
 -1      2513-1.12352E+00-5.71295E+00-5.00000E-01
 -1      2514-1.51070E+00 1.18319E+00-5.00000E-01
 -1      2515 3.28510E+00-3.90618E+00-5.00000E-01
 -1      2516 2.32070E+00 0.00000E+00 1.59375E+00
 -1      2517-2.14405E+00 8.88093E-01 1.59375E+00
 -1      2518-2.32070E+00 2.19065E-01 7.31141E-01
 -1      2519 1.80419E+00 1.47778E+00 1.48438E+00
 -1      2520-7.12783E-01-1.41924E+00 5.00000E-01
 -1      2521-5.37231E+00 8.13661E-01-5.00000E-01
 -1      2522-2.40034E+00-1.72859E+00 9.99637E-01
 -1      2523-2.06511E+00-1.07867E+00 1.64261E+00
 -1      2524-4.76589E+00-9.47994E-01 5.00000E-01
 -1      2525 2.47596E+00 3.69021E-02-5.00000E-01
 -1      2526 2.96662E+00-7.14679E-01 1.15625E+00
 -1      2527 1.59267E+00 1.68930E+00 1.15133E+00
 -1      2528-8.48596E-01 5.24504E+00-5.00000E-01
 -1      2529 2.06022E+00-1.09048E+00 7.31139E-01
 -1      2530 1.54199E+00 1.73998E+00 8.14563E-01
 -1      2531-1.72784E+00 1.55413E+00 1.37500E+00
 -1      2532 2.60307E+00-1.59236E+00 1.15625E+00
 -1      2533 1.79088E+00 1.49109E+00 1.74286E+00
 -1      2534-2.22459E+00-6.93655E-01 2.00978E+00
 -1      2535 2.05547E+00-1.10195E+00 9.62278E-01
 -1      2536 2.17836E+00-8.05258E-01 1.32651E+00
 -1      2537 3.60579E-01 5.40059E+00-5.00000E-01
 -1      2538-2.23237E+00 6.74855E-01 1.48438E+00
 -1      2539-8.18029E-01 4.66508E+00-5.00000E-01
 -1      2540-1.69359E+00 2.84746E+00 1.37500E+00
 -1      2541-2.21594E+00-7.14527E-01 1.24846E+00
 -1      2542 8.88093E-01-2.14405E+00 1.59375E+00
 -1      2543-2.13208E+00-9.16986E-01 1.26671E+00
 -1      2544-1.64346E+00 5.45761E+00-5.00000E-01
 -1      2545-1.78828E+00-1.49369E+00 1.22330E+00
 -1      2546-2.29954E+00-1.62779E+00 1.36188E+00
 -1      2547 2.12014E+00 2.79189E+00 1.37500E+00
 -1      2548-1.87773E+00-1.40424E+00 8.40833E-01
 -1      2549 4.57142E+00 1.17562E+00-5.00000E-01
 -1      2550-2.09539E+00 1.00556E+00 1.92188E+00
 -1      2551 1.27148E-01 2.32070E+00 1.92188E+00
 -1      2552-2.51815E+00-3.72641E+00-5.00000E-01
 -1      2553-3.39633E+00-5.06032E+00-5.00000E-01
 -1      2554-2.32070E+00-2.30808E-01 1.48438E+00
 -1      2555-1.76329E+00-1.51868E+00 1.66054E+00
 -1      2556 1.48081E+00 5.02593E+00-5.00000E-01
 -1      2557 7.53174E-02 2.32070E+00 1.15625E+00
 -1      2558-2.07229E+00-2.07229E+00 2.25000E+00
 -1      2559-8.88093E-01 2.14405E+00 1.59375E+00
 -1      2560 4.93610E+00-1.19194E+00-5.00000E-01
 -1      2561-1.86121E+00-1.42076E+00 1.10092E+00
 -1      2562-2.12014E+00 2.79189E+00 1.37500E+00
 -1      2563 9.57675E-01-2.11523E+00 1.15625E+00
 -1      2564-3.04385E+00 4.99929E+00-5.00000E-01
 -1      2565-3.87237E+00 2.13178E+00-5.00000E-01
 -1      2566-2.32070E+00 1.33020E-01 1.27802E+00
 -1      2567-2.32070E+00-2.11979E-01 1.74286E+00
 -1      2568-3.27883E+00-4.74999E-01 1.37500E+00
 -1      2569-2.32070E+00-1.46142E-01 1.20974E+00
 -1      2570-1.51359E+00 1.76838E+00 8.06357E-01
 -1      2571 1.64099E+00-1.64099E+00 9.62285E-01
 -1      2572 2.32070E+00 2.30808E-01 1.48438E+00
 -1      2573-1.03222E+00 2.08435E+00 1.32651E+00
 -1      2574 3.21101E+00 8.15910E-01 1.37500E+00
 -1      2575-2.05465E+00-1.10392E+00 1.16149E+00
 -1      2576 2.32070E+00-6.83309E-02 1.15134E+00
 -1      2577 3.60002E+00 7.10209E+00-5.00000E-01
 -1      2578 5.50409E+00-9.75806E-01-5.00000E-01
 -1      2579 2.75399E+00 4.33324E+00-5.00000E-01
 -1      2580 9.47994E-01 4.76589E+00 5.00000E-01
 -1      2581 5.37216E+00 8.81625E-01-5.00000E-01
 -1      2582 2.69967E+00-4.04032E+00 5.00000E-01
 -1      2583 2.32070E+00-1.27148E-01 1.92188E+00
 -1      2584 4.33224E+00 2.26187E+00-5.00000E-01
 -1      2585-2.16238E+00 3.79041E+00-5.00000E-01
 -1      2586-2.65630E+00 4.02290E+00-5.00000E-01
 -1      2587-2.05821E+00-1.09533E+00 1.40552E+00
 -1      2588-2.32070E+00-2.19065E-01 7.31141E-01
 -1      2589-4.99152E+00 3.07375E+00-5.00000E-01
 -1      2590-2.05573E+00 1.10133E+00 1.69301E+00
 -1      2591-2.21662E+00 7.12885E-01 1.98782E+00
 -1      2592-2.16782E+00 8.30697E-01 1.80652E+00
 -1      2593-2.84746E+00 1.69359E+00 1.37500E+00
 -1      2594 4.76454E+00-3.30759E+00-5.00000E-01
 -1      2595 3.74004E+00-2.96817E+00-5.00000E-01
 -1      2596-2.02258E+00-1.18135E+00 1.53184E+00
 -1      2597-3.02717E+00-1.76803E+00 1.37500E+00
 -1      2598 0.00000E+00-2.32070E+00 9.62282E-01
 -1      2599 3.47334E+00 4.74999E-01 1.37500E+00
 -1      2600 3.14656E+00-4.74999E-01 1.48438E+00
 -1      2601 1.79589E+00-1.48608E+00 7.31143E-01
 -1      2602-2.64116E+00-1.09400E+00 2.25000E+00
 -1      2603-2.56207E+00-1.57538E+00 1.07086E+00
 -1      2604-2.05449E+00-1.10431E+00 9.33875E-01
 -1      2605 2.22493E+00-6.92836E-01 1.54961E+00
 -1      2606 2.32070E+00-1.39999E-01 8.14565E-01
 -1      2607 2.46730E+00 1.79555E+00 1.15625E+00
 -1      2608-1.55051E+00-1.73146E+00 1.27802E+00
 -1      2609-2.32070E+00-2.33044E-01 9.91535E-01
 -1      2610 3.47408E+00-4.55246E+00-5.00000E-01
 -1      2611 7.70626E-01-2.19271E+00 1.92188E+00
 -1      2612 2.07781E+00-1.04802E+00 1.97037E+00
 -1      2613 1.06330E+00-2.07148E+00 1.98782E+00
 -1      2614 1.55108E+00-1.73089E+00 1.92188E+00
 -1      2615-3.21101E+00-8.15910E-01 1.37500E+00
 -1      2616-5.79502E-01 2.27187E+00 8.28125E-01
 -1      2617-7.70626E-01-2.19271E+00 1.92188E+00
 -1      2618 2.32070E+00 1.50014E-01 9.28858E-01
 -1      2619 2.91960E+00-4.74999E-01 9.99636E-01
 -1      2620 2.01623E+00-1.19669E+00 1.92188E+00
 -1      2621-2.32070E+00 7.23758E-02 1.92188E+00
 -1      2622-1.64298E+00-2.72527E+00 1.48438E+00
 -1      2623 2.96411E+00 4.74999E-01 1.07326E+00
 -1      2624-7.70626E-01 2.19271E+00 1.92188E+00
 -1      2625 2.27871E+00-5.63001E-01 1.48438E+00
 -1      2626-2.20806E+00-7.33563E-01 7.85797E-01
 -1      2627 1.58981E+00 1.69216E+00 1.92188E+00
 -1      2628 2.09539E+00 1.00556E+00 1.92188E+00
 -1      2629-4.74999E-01-3.01430E+00 1.15625E+00
 -1      2630 1.38070E-01 2.32070E+00 8.16601E-01
 -1      2631-2.91448E+00-4.74999E-01 9.91163E-01
 -1      2632 8.88093E-01 2.14405E+00 1.78772E+00
 -1      2633-1.03891E+00-2.08158E+00 1.84570E+00
 -1      2634-1.05134E+00-2.07643E+00 7.88228E-01
 -1      2635-1.53198E+00-2.45729E+00 1.85472E+00
 -1      2636-2.70758E+00 1.12151E+00 2.25000E+00
 -1      2637-3.21101E+00 8.15910E-01 1.37500E+00
 -1      2638-1.52121E+00 1.76076E+00 1.30693E+00
 -1      2639 2.32070E+00 2.11979E-01 1.74286E+00
 -1      2640 4.74999E-01 3.47334E+00 1.37500E+00
 -1      2641-6.74855E-01 2.23237E+00 1.69301E+00
 -1      2642 7.54968E-01 2.19919E+00 1.48438E+00
 -1      2643-8.15910E-01 3.21101E+00 1.37500E+00
 -1      2644-1.50399E+00-1.77798E+00 7.70255E-01
 -1      2645 1.75642E+00-1.52555E+00 1.84571E+00
 -1      2646-1.06504E+00-2.07076E+00 1.40149E+00
 -1      2647 0.00000E+00-2.32070E+00 1.70312E+00
 -1      2648-1.79716E+00 1.48481E+00 1.59490E+00
 -1      2649-1.63244E-01 2.32070E+00 1.84570E+00
 -1      2650-1.47351E+00 1.80846E+00 1.07903E+00
 -1      2651-6.80353E-01-2.23010E+00 1.12470E+00
 -1      2652 2.32070E+00 2.37275E-01 1.19980E+00
 -1      2653 2.22246E+00 6.98798E-01 1.42969E+00
 -1      2654 2.22788E+00-6.85704E-01 7.31139E-01
 -1      2655 1.50723E+00 1.77474E+00 1.39648E+00
 -1      2656 4.76589E+00-9.47994E-01 5.00000E-01
 -1      2657 1.48608E+00-1.79589E+00 7.31143E-01
 -1      2658 1.76007E+00 2.43182E+00 1.07325E+00
 -1      2659 1.01565E+00-2.09121E+00 8.16601E-01
 -1      2660 2.10266E+00 9.88029E-01 1.15625E+00
 -1      2661-2.55654E+00-1.57309E+00 1.64947E+00
 -1      2662 1.46546E+00 1.81651E+00 1.01361E+00
 -1      2663-2.65435E+00 1.98260E+00 1.37500E+00
 -1      2664-1.72934E+00 1.55263E+00 7.79634E-01
 -1      2665-2.84912E+00 6.66010E-01 1.70312E+00
 -1      2666 2.23539E+00-6.67576E-01 1.09667E+00
 -1      2667-2.05359E+00-1.10649E+00 2.02475E+00
 -1      2668 2.32070E+00-1.89158E-01 1.39648E+00
 -1      2669-2.21816E+00-7.09164E-01 1.01641E+00
 -1      2670 2.19065E-01-2.32070E+00 7.31141E-01
 -1      2671-6.74855E-01-2.23237E+00 1.69301E+00
 -1      2672 2.53595E+00-1.56456E+00 1.71391E+00
 -1      2673-3.11615E+00 4.39017E+00-5.00000E-01
 -1      2674 2.32070E+00 3.03156E-01 1.02906E+00
 -1      2675-1.16225E+00-2.03049E+00 6.61570E-01
 -1      2676-1.82652E+00 1.45545E+00 1.79095E+00
 -1      2677 1.74706E+00 1.53491E+00 9.28851E-01
 -1      2678 1.76803E+00-3.02717E+00 1.37500E+00
 -1      2679 1.07570E+00-1.27623E+00-5.00000E-01
 -1      2680 2.21662E+00 7.12885E-01 1.98782E+00
 -1      2681-1.14185E+00 1.30505E+00 5.00000E-01
 -1      2682 2.32070E+00-2.30808E-01 1.62574E+00
 -1      2683 1.75618E+00 2.42793E+00 1.66310E+00
 -1      2684 2.07021E+00 7.98651E-01-5.00000E-01
 -1      2685-2.01787E+00-1.19272E+00 1.28735E+00
 -1      2686-2.32070E+00 2.31474E-01 9.62282E-01
 -1      2687-6.76480E-01 2.87440E+00 9.91164E-01
 -1      2688 2.56083E+00-1.88908E+00 1.26562E+00
 -1      2689-2.09539E+00 1.00556E+00 8.28125E-01
 -1      2690 2.32070E+00 3.07897E-01 1.61992E+00
 -1      2691 2.05573E+00 1.10133E+00 1.69301E+00
 -1      2692 1.04802E+00 2.07781E+00 2.01886E+00
 -1      2693 2.54197E+00 1.56705E+00 1.70312E+00
 -1      2694 2.89950E+00-6.86876E-01 1.71391E+00
 -1      2695 2.21168E+00 7.24823E-01 1.14601E+00
 -1      2696 2.35884E+00-1.49120E+00 1.40537E+00
 -1      2697-2.12805E+00 9.26714E-01 1.20732E+00
 -1      2698 1.54692E+00-1.73505E+00 1.27802E+00
 -1      2699-5.99599E-01-2.26355E+00 1.92188E+00
 -1      2700-1.79716E+00 1.48481E+00 1.15510E+00
 -1      2701-1.15404E-01-2.32070E+00 1.97656E+00
 -1      2702 2.03909E-01-2.32070E+00 2.00287E+00
 -1      2703-1.42019E+00 1.86178E+00 1.22528E+00
 -1      2704 9.92559E-01-1.87723E+00-5.00000E-01
 -1      2705-7.06280E-01-5.21899E+00-5.00000E-01
 -1      2706-6.76480E-01-2.87440E+00 9.91164E-01
 -1      2707 2.87440E+00 6.76480E-01 9.91164E-01
 -1      2708-1.01679E+00 2.09074E+00 7.79632E-01
 -1      2709-2.87440E+00-6.76480E-01 9.91164E-01
 -1      2710 2.09976E+00-9.95020E-01 1.18392E+00
 -1      2711-2.51085E+00 1.55416E+00 1.75884E+00
 -1      2712 1.98260E+00-2.65435E+00 1.37500E+00
 -1      2713-1.84762E+00 1.43435E+00 1.43129E+00
 -1      2714 1.88580E+00 1.39617E+00 1.42969E+00
 -1      2715-6.45454E-01 2.79950E+00 1.43296E+00
 -1      2716 2.03250E+00 1.15741E+00 1.85841E+00
 -1      2717 1.48218E+00 1.79979E+00 1.71626E+00
 -1      2718-2.21199E+00-7.24079E-01 1.71812E+00
 -1      2719 2.30808E-01 2.32070E+00 1.69301E+00
 -1      2720-2.30808E-01 2.32070E+00 1.62307E+00
 -1      2721 2.32070E+00 1.35540E-01 2.00878E+00
 -1      2722 1.00556E+00 2.09539E+00 8.28125E-01
 -1      2723-4.74999E-01 2.94816E+00 1.70312E+00
 -1      2724-2.05054E+00-1.11384E+00 7.16849E-01
 -1      2725-1.19747E+00-2.01590E+00 8.17920E-01
 -1      2726 2.25261E+00-6.26009E-01 1.28908E+00
 -1      2727-2.32070E+00 2.30808E-01 1.50510E+00
 -1      2728 2.28705E+00-1.61530E+00 1.26562E+00
 -1      2729 5.90889E-01 2.26715E+00 1.48438E+00
 -1      2730-1.49136E-01 2.32070E+00 1.34284E+00
 -1      2731 2.45259E+00-7.91717E-01 2.25000E+00
 -1      2732 2.22833E+00-6.84630E-01 1.79173E+00
 -1      2733-6.45454E-01-2.79950E+00 1.43296E+00
 -1      2734-1.09062E+00-2.06016E+00 9.97915E-01
 -1      2735-1.76417E+00 2.43592E+00 1.07086E+00
 -1      2736-1.10133E+00 2.05573E+00 1.54933E+00
 -1      2737-8.41250E-02-2.32070E+00 1.33270E+00
 -1      2738 2.49139E-01 2.32070E+00 1.01274E+00
 -1      2739-1.81274E+00 1.46923E+00 1.29672E+00
 -1      2740-1.47778E+00-1.80419E+00 1.50349E+00
 -1      2741-6.97630E-01 2.22294E+00 1.43236E+00
 -1      2742-6.35952E-01-2.24849E+00 9.42165E-01
 -1      2743 2.32070E+00 3.05470E-01 1.34371E+00
 -1      2744 1.57316E+00-2.55671E+00 1.07325E+00
 -1      2745 3.05842E+00 4.81449E+00-5.00000E-01
 -1      2746-1.71637E-01 2.32070E+00 8.28125E-01
 -1      2747-3.05555E-01 2.32070E+00 1.76732E+00
 -1      2748-1.93740E-01-2.32070E+00 7.70253E-01
 -1      2749 7.37836E-01-2.20629E+00 1.34052E+00
 -1      2750 3.43246E-01-2.32070E+00 1.92188E+00
 -1      2751 7.18415E-01-2.21433E+00 7.68497E-01
 -1      2752-2.05378E+00 1.10603E+00 1.05180E+00
 -1      2753 2.21409E+00-7.18996E-01 9.16367E-01
 -1      2754 2.00471E-01-2.32070E+00 1.20257E+00
 -1      2755-1.10223E+00 2.05535E+00 1.10312E+00
 -1      2756 1.00740E+00 2.09463E+00 1.26562E+00
 -1      2757-1.18127E+00 2.02261E+00 1.25669E+00
 -1      2758 2.91513E-01 2.32070E+00 1.85841E+00
 -1      2759-1.43137E+00 1.85060E+00 9.24415E-01
 -1      2760 3.09414E+00-6.18443E-01-5.00000E-01
 -1      2761-1.55416E+00 2.51085E+00 9.91163E-01
 -1      2762 4.74999E-01-2.94816E+00 1.70312E+00
 -1      2763-2.30808E-01-2.32070E+00 1.75781E+00
 -1      2764-1.72845E-01 2.32070E+00 1.08603E+00
 -1      2765 4.74999E-01 2.96411E+00 1.07326E+00
 -1      2766-2.99568E-01-2.32070E+00 1.93390E+00
 -1      2767 3.93044E+00-2.22212E+00-5.00000E-01
 -1      2768-1.17946E+00 2.02336E+00 8.28125E-01
 -1      2769 4.04032E+00-2.69966E+00 5.00000E-01
 -1      2770 1.45955E+00 1.82243E+00 1.21089E+00
 -1      2771 2.33140E+00-1.47983E+00 9.92188E-01
 -1      2772-6.46648E-01 2.80238E+00 1.88777E+00
 -1      2773 1.69359E+00 2.84746E+00 1.37500E+00
 -1      2774-5.16596E-01-1.85030E+00 5.00000E-01
 -1      2775-3.09594E-01 2.32070E+00 1.94304E+00
 -1      2776-2.20952E+00 7.30033E-01 7.94155E-01
 -1      2777 5.99599E-01-2.26355E+00 1.92188E+00
 -1      2778-1.58508E+00-1.15404E-01 5.00000E-01
 -1      2779-2.32070E+00 1.83002E-01 1.72543E+00
 -1      2780-2.32070E+00-3.07897E-01 1.61992E+00
 -1      2781 9.47994E-01-4.76589E+00 5.00000E-01
 -1      2782-2.32070E+00 3.12154E-01 1.63810E+00
 -1      2783-2.32070E+00 2.92126E-01 1.34410E+00
 -1      2784 2.32070E+00-2.41908E-01 1.01226E+00
 -1      2785-2.87440E+00-6.76480E-01 1.75884E+00
 -1      2786-9.94713E-01-2.09989E+00 2.06149E+00
 -1      2787 7.23469E-02 2.32070E+00 1.38097E+00
 -1      2788 2.01593E+00-1.19741E+00 8.40829E-01
 -1      2789 8.15910E-01-3.21101E+00 1.37500E+00
 -1      2790-3.27883E+00 4.74999E-01 1.37500E+00
 -1      2791-1.55416E+00 2.51085E+00 1.75884E+00
 -1      2792 6.72928E-01 2.23317E+00 1.71245E+00
 -1      2793 7.62366E-01 2.19613E+00 1.04808E+00
 -1      2794 2.26090E+00-1.25450E+00 2.25000E+00
 -1      2795 1.10133E+00-2.05573E+00 1.48438E+00
 -1      2796-2.25519E+00-6.19783E-01 1.85306E+00
 -1      2797-4.74999E-01-2.94876E+00 1.71328E+00
 -1      2798-2.28541E+00-1.79816E+00-5.00000E-01
 -1      2799-7.98491E-01-2.18116E+00 1.35182E+00
 -1      2800 2.32070E+00 2.99349E-01 1.91192E+00
 -1      2801-1.60872E+00-2.02421E+00 2.25000E+00
 -1      2802-2.32070E+00-3.45612E-01 8.28125E-01
 -1      2803-1.09400E+00-2.64116E+00 2.25000E+00
 -1      2804 1.80466E+00-1.47731E+00 9.62285E-01
 -1      2805 1.08092E+00-2.06418E+00 1.73597E+00
 -1      2806-1.73641E+00-2.40816E+00 1.73208E+00
 -1      2807-1.92573E+00 1.15404E-01 5.00000E-01
 -1      2808-2.03096E+00-9.25937E-01-5.00000E-01
 -1      2809 1.43769E+00 1.84428E+00 1.54743E+00
 -1      2810-2.91611E-01 2.32070E+00 1.22649E+00
 -1      2811-2.91448E+00 4.74999E-01 1.75884E+00
 -1      2812 6.12180E-01 2.25834E+00 9.92188E-01
 -1      2813-1.55612E+00-2.51558E+00 9.99637E-01
 -1      2814 0.00000E+00 2.93066E+00 2.25000E+00
 -1      2815-2.91448E+00-4.74999E-01 1.75884E+00
 -1      2816-1.10426E+00-1.59388E+00 5.00000E-01
 -1      2817-2.30808E-01 1.79154E+00 5.00000E-01
 -1      2818-2.65936E+00-5.87410E-01 1.95398E+00
 -1      2819-2.26936E+00-5.85560E-01 2.12084E+00
 -1      2820-2.32070E+00-1.74190E-01 1.99818E+00
 -1      2821 1.47778E+00-1.80419E+00 1.69301E+00
 -1      2822-2.27346E+00-5.75664E-01 1.69842E+00
 -1      2823-2.72362E+00-6.14026E-01 1.42969E+00
 -1      2824 1.57538E+00-2.56207E+00 1.67914E+00
 -1      2825 2.42394E+00-1.75219E+00 8.90864E-01
 -1      2826 2.06830E+00-1.07098E+00 1.76159E+00
 -1      2827 1.79383E-01-2.32070E+00 1.80032E+00
 -1      2828 1.72282E+00-1.55915E+00 1.19694E+00
 -1      2829-2.39672E+00 1.72497E+00 1.75884E+00
 -1      2830 2.96991E+00 4.74999E-01 1.67914E+00
 -1      2831-2.04174E+00-1.13509E+00 1.83198E+00
 -1      2832 4.74999E-01-2.97688E+00 1.09437E+00
 -1      2833-2.27407E+00-5.74199E-01 1.97699E+00
 -1      2834 1.67014E+00-1.61183E+00 1.39049E+00
 -1      2835-1.42234E+00-1.85963E+00 6.48423E-01
 -1      2836 1.72497E+00-2.39672E+00 1.75884E+00
 -1      2837-2.03773E+00 1.14477E+00 1.48438E+00
 -1      2838 2.27402E+00 5.74318E-01 1.92188E+00
 -1      2839-2.25610E+00 6.17580E-01 6.65728E-01
 -1      2840 6.74855E-01-2.23237E+00 1.56314E+00
 -1      2841-2.93795E-01 2.56887E+00 2.25000E+00
 -1      2842-1.73652E+00-5.94379E-01 5.00000E-01
 -1      2843-2.01031E+00-1.21098E+00 8.30609E-01
 -1      2844 2.32070E+00-2.76017E-01 6.83441E-01
 -1      2845-6.33121E-01-2.24966E+00 7.53358E-01
 -1      2846 2.79983E+00 6.45592E-01 1.43262E+00
 -1      2847-6.18772E-01 2.25560E+00 1.85841E+00
 -1      2848-1.39791E+00-1.88406E+00 8.28125E-01
 -1      2849-2.04157E+00 1.13550E+00 2.05788E+00
 -1      2850-2.95786E-01 2.32070E+00 1.45212E+00
 -1      2851 2.68467E-01 2.32070E+00 1.21318E+00
 -1      2852 2.74767E-01 2.32070E+00 6.84759E-01
 -1      2853 7.63071E-01 2.19584E+00 7.81500E-01
 -1      2854 2.63505E+00 1.05305E+00 2.25000E+00
 -1      2855 2.93795E-01-2.56887E+00 2.25000E+00
 -1      2856-1.74879E+00-2.42054E+00 1.04688E+00
 -1      2857-2.01775E+00 1.19300E+00 1.60576E+00
 -1      2858 1.81770E+00-1.46427E+00 2.03901E+00
 -1      2859 4.74999E-01-2.70061E+00 1.92274E+00
 -1      2860 1.80419E+00-1.47778E+00 1.62307E+00
 -1      2861-1.09623E+00-2.05784E+00 1.62665E+00
 -1      2862 1.76416E+00 1.51781E+00 1.99818E+00
 -1      2863-2.22528E+00 6.91993E-01 1.07680E+00
 -1      2864 1.85752E+00 1.42445E+00 1.88727E+00
 -1      2865-1.50157E+00-2.38388E+00 1.36188E+00
 -1      2866 3.68246E-01 1.71155E+00 5.00000E-01
 -1      2867-5.66227E-01-2.27737E+00 1.64844E+00
 -1      2868-1.59450E-01-2.32070E+00 1.54457E+00
 -1      2869 8.01353E-01 2.17998E+00 1.26707E+00
 -1      2870-2.69245E-01-2.32070E+00 1.38621E+00
 -1      2871 2.32070E+00 3.34262E-01 1.78677E+00
 -1      2872 1.55416E+00 2.51085E+00 1.75884E+00
 -1      2873-1.49070E+00 1.79127E+00 1.55525E+00
 -1      2874 2.04157E+00 1.13550E+00 2.05788E+00
 -1      2875-1.75994E+00 2.43169E+00 1.64947E+00
 -1      2876-2.35843E+00-1.49103E+00 1.35791E+00
 -1      2877-2.39672E+00 1.72497E+00 9.91163E-01
 -1      2878-1.81897E+00 1.46300E+00 9.47241E-01
 -1      2879 7.28165E-01 2.21029E+00 2.01886E+00
 -1      2880-6.46648E-01-2.80238E+00 1.88777E+00
 -1      2881 2.27226E+00-5.78558E-01 6.21163E-01
 -1      2882-2.09737E-01-2.32070E+00 1.10941E+00
 -1      2883 4.74999E-01 2.96057E+00 1.64844E+00
 -1      2884-7.05211E-01 2.21980E+00 9.88408E-01
 -1      2885 2.27381E+00 5.74826E-01 1.42969E+00
 -1      2886 2.21119E+00 7.26004E-01 1.75199E+00
 -1      2887 2.26638E+00 5.92765E-01 1.77689E+00
 -1      2888 7.65294E-01 3.08882E+00 1.48438E+00
 -1      2889 2.08480E+00-1.03114E+00 1.45947E+00
 -1      2890 2.69324E+00 4.74999E-01 1.53906E+00
 -1      2891-7.81474E-01 2.18821E+00 2.10602E+00
 -1      2892-2.03250E+00 1.15741E+00 1.85841E+00
 -1      2893 6.82672E-01-2.88935E+00 1.76193E+00
 -1      2894 2.26967E+00-5.84810E-01 8.48504E-01
 -1      2895 1.11827E+00-2.04871E+00 1.01274E+00
 -1      2896 2.61409E+00 4.74999E-01 1.32031E+00
 -1      2897 1.85881E+00 1.42316E+00 2.10036E+00
 -1      2898 2.80251E+00 6.46703E-01 1.88753E+00
 -1      2899-2.04825E+00 1.11939E+00 1.26872E+00
 -1      2900 2.67730E+00-5.94839E-01 1.10156E+00
 -1      2901 2.06922E+00 1.06876E+00 1.40998E+00
 -1      2902 2.77613E+00-6.35777E-01 1.41295E+00
 -1      2903 1.84156E+00-1.44041E+00 1.13389E+00
 -1      2904 7.62914E-01-2.19590E+00 1.72994E+00
 -1      2905 2.71263E+00-1.17053E+00 2.25000E+00
 -1      2906 6.54293E-01 2.82084E+00 1.85472E+00
 -1      2907 1.87773E+00-1.40424E+00 8.40833E-01
 -1      2908-2.38257E+00 1.71082E+00 1.37500E+00
 -1      2909 2.58363E+00 1.58431E+00 1.09659E+00
 -1      2910 1.42147E+00 1.86050E+00 8.50837E-01
 -1      2911 6.06214E-01-2.26081E+00 1.41864E+00
 -1      2912-1.41046E+00 1.87151E+00 7.78998E-01
 -1      2913-1.87426E+00 1.40771E+00 1.67423E+00
 -1      2914-1.60831E+00 2.28006E+00 1.35791E+00
 -1      2915-1.11864E+00 2.60788E+00 2.25000E+00
 -1      2916-1.15275E+00 2.03443E+00 1.40667E+00
 -1      2917-1.88258E+00 1.39939E+00 1.06681E+00
 -1      2918-1.04215E+00 2.08024E+00 1.83831E+00
 -1      2919 1.50205E+00 4.97260E-01 5.00000E-01
 -1      2920-2.23237E+00-6.74855E-01 1.49336E+00
 -1      2921 2.03773E+00-1.14477E+00 1.59606E+00
 -1      2922-3.17411E-01-2.32070E+00 1.23106E+00
 -1      2923-5.81922E-01-2.64612E+00 1.66151E+00
 -1      2924 8.44187E-01-2.16224E+00 9.57934E-01
 -1      2925 2.32070E+00-3.29530E-01 1.48939E+00
 -1      2926-2.02146E+00 2.02146E+00 2.25000E+00
 -1      2927-2.02421E+00 1.60872E+00 2.25000E+00
 -1      2928-1.85205E+00 1.42992E+00 2.09026E+00
 -1      2929 1.63834E-01 2.32070E+00 1.53077E+00
 -1      2930 2.03476E+00-1.15195E+00 1.13158E+00
 -1      2931-4.74999E-01 2.99325E+00 1.09659E+00
 -1      2932 6.17351E-01 2.73165E+00 1.48035E+00
 -1      2933 2.41684E-01 2.32070E+00 1.38038E+00
 -1      2934-2.93795E-01-2.56887E+00 2.25000E+00
 -1      2935 4.74999E-01 2.72376E+00 1.90317E+00
 -1      2936-2.88822E-01 2.32070E+00 9.56531E-01
 -1      2937 2.03503E+00 1.15130E+00 1.23730E+00
 -1      2938 2.25911E+00-6.10306E-01 9.78795E-01
 -1      2939 2.32070E+00-2.57998E-01 1.21020E+00
 -1      2940-2.79950E+00 6.45454E-01 1.24113E+00
 -1      2941 2.15290E+00 8.66732E-01 8.40851E-01
 -1      2942 2.31474E-01-2.32070E+00 9.62282E-01
 -1      2943 1.52415E-01-2.32070E+00 1.47375E+00
 -1      2944 1.13612E+00-2.04131E+00 1.26562E+00
 -1      2945 2.23371E+00 6.71631E-01 9.25791E-01
 -1      2946-1.93675E+00-2.67644E-01 5.00000E-01
 -1      2947 2.32070E+00-3.08228E-01 8.52962E-01
 -1      2948-4.74999E-01 2.70061E+00 1.92274E+00
 -1      2949-3.09206E-01-2.32070E+00 6.48422E-01
 -1      2950-5.74653E-01-2.62857E+00 9.92188E-01
 -1      2951-2.43595E+00 1.52314E+00 1.31704E+00
 -1      2952 1.55813E+00 2.22988E+00 1.75781E+00
 -1      2953 1.43485E+00-1.84712E+00 1.85841E+00
 -1      2954 1.17097E+00-2.02688E+00 1.87000E+00
 -1      2955 1.51127E+00-1.77070E+00 1.48515E+00
 -1      2956-2.27222E+00-5.78653E-01 1.56948E+00
 -1      2957 2.21949E+00 7.05958E-01 7.13186E-01
 -1      2958-1.83935E+00 1.44262E+00 6.78674E-01
 -1      2959-1.71213E-01-2.32070E+00 9.41272E-01
 -1      2960-1.87217E+00 1.40980E+00 1.93500E+00
 -1      2961 3.21650E-01-2.32070E+00 1.77976E+00
 -1      2962-1.21777E+00 2.00749E+00 1.51631E+00
 -1      2963 3.35039E-01-2.32070E+00 6.21164E-01
 -1      2964 2.42394E+00-1.75219E+00 1.75155E+00
 -1      2965 1.85705E+00-1.42492E+00 1.76732E+00
 -1      2966 2.80181E-01-2.32070E+00 1.60289E+00
 -1      2967-1.54651E+00 2.49236E+00 1.37500E+00
 -1      2968 1.77978E+00 1.50219E+00 1.19264E+00
 -1      2969 6.93250E-01 2.91489E+00 9.98261E-01
 -1      2970 2.27083E+00 5.82022E-01 6.25119E-01
 -1      2971 2.01584E+00-1.19763E+00 6.21163E-01
 -1      2972 2.48576E+00 7.11633E-01 2.25000E+00
 -1      2973-3.11777E-01-2.32070E+00 8.72794E-01
 -1      2974-1.06961E+00 1.67758E+00 5.00000E-01
 -1      2975 2.32070E+00-2.74818E-01 1.80736E+00
 -1      2976 2.83745E+00-3.54956E-02 2.25000E+00
 -1      2977 2.77705E+00-4.74999E-01 1.36188E+00
 -1      2978 5.94358E-01 2.67614E+00 1.17379E+00
 -1      2979 2.26942E+00 5.85420E-01 7.99934E-01
 -1      2980-2.32070E+00 3.34802E-01 8.40831E-01
 -1      2981 2.32070E+00-3.38817E-01 1.10401E+00
 -1      2982-2.91448E+00 4.74999E-01 9.91163E-01
 -1      2983 2.60388E+00 5.64426E-01 1.32031E+00
 -1      2984 3.41310E-01-2.32070E+00 7.43915E-01
 -1      2985 1.11065E+00 2.05186E+00 1.04636E+00
 -1      2986 1.08491E+00 2.06253E+00 1.64844E+00
 -1      2987-1.42964E+00 1.85233E+00 1.41234E+00
 -1      2988-3.14604E-01-2.32070E+00 1.53490E+00
 -1      2989-4.74999E-01-2.73741E+00 1.42969E+00
 -1      2990 1.55416E+00 2.51085E+00 9.91163E-01
 -1      2991 2.61056E+00 5.67196E-01 1.56307E+00
 -1      2992 1.13550E+00 2.04157E+00 6.92120E-01
 -1      2993 1.10168E+00 1.26488E+00 5.00000E-01
 -1      2994 3.41542E-01 2.32070E+00 1.10498E+00
 -1      2995-2.37774E-01-2.32070E+00 2.08599E+00
 -1      2996 2.26639E+00-5.92735E-01 1.66686E+00
 -1      2997-4.74999E-01-2.70114E+00 1.10156E+00
 -1      2998-2.23214E+00 1.56039E+00 1.95398E+00
 -1      2999-6.13620E-01 2.25774E+00 6.59446E-01
 -1      3000 1.84526E+00-1.43671E+00 1.90545E+00
 -1      3001-2.04157E+00 1.13550E+00 6.92120E-01
 -1      3002-2.43883E+00 1.52433E+00 8.62234E-01
 -1      3003-2.00113E+00-5.31818E-01 5.00000E-01
 -1      3004 1.81818E+00-1.46379E+00 1.35996E+00
 -1      3005 1.55938E+00-1.72259E+00 2.10602E+00
 -1      3006 6.72928E-01 2.23317E+00 1.34941E+00
 -1      3007 2.02850E+00 1.16705E+00 1.54044E+00
 -1      3008 1.97860E+00-1.97860E+00 2.25000E+00
 -1      3009 6.48382E-01-2.24334E+00 1.04688E+00
 -1      3010-1.39848E+00 1.88349E+00 1.53651E+00
 -1      3011 2.04979E+00-1.11567E+00 1.30594E+00
 -1      3012-5.84718E-01-2.26971E+00 1.78721E+00
 -1      3013 1.68968E+00-2.00198E+00 2.25000E+00
 -1      3014 1.51850E+00-1.97297E+00 2.25000E+00
 -1      3015 1.39244E+00-1.88953E+00 1.74256E+00
 -1      3016 1.05554E+00 2.07469E+00 1.83237E+00
 -1      3017 6.14991E-01-2.25717E+00 1.22158E+00
 -1      3018 1.46452E+00 1.81745E+00 2.03864E+00
 -1      3019-1.56037E+00 2.23212E+00 9.92188E-01
 -1      3020 6.76480E-01-2.87440E+00 9.91164E-01
 -1      3021 1.33981E+00-8.95234E-01 5.00000E-01
 -1      3022 6.67721E-01 2.23533E+00 1.18138E+00
 -1      3023 1.00221E+00-1.41143E+00 5.00000E-01
 -1      3024-1.54248E+00 1.73949E+00 1.97037E+00
 -1      3025 6.30466E-01-2.76331E+00 1.37924E+00
 -1      3026 1.54946E+00 2.22121E+00 1.04688E+00
 -1      3027 2.60348E+00 5.64261E-01 1.79673E+00
 -1      3028 1.88306E+00 1.39891E+00 1.75781E+00
 -1      3029-4.74999E-01-2.66849E+00 1.70160E+00
 -1      3030 6.00971E-01 2.26298E+00 8.14136E-01
 -1      3031-1.50108E+00 1.78089E+00 1.76668E+00
 -1      3032 1.20530E+00 2.01266E+00 1.64844E+00
 -1      3033 2.24813E+00 6.36812E-01 1.27979E+00
 -1      3034 1.09400E+00 2.64116E+00 2.25000E+00
 -1      3035-2.63288E+00-5.76441E-01 1.68342E+00
 -1      3036 2.07229E+00 2.07229E+00 2.25000E+00
 -1      3037 1.12513E+00 2.04587E+00 1.43830E+00
 -1      3038 1.47477E+00-1.80720E+00 1.04914E+00
 -1      3039 1.56039E+00-2.23214E+00 1.95398E+00
 -1      3040-1.82233E+00 1.45964E+00 8.11920E-01
 -1      3041 6.16172E-01 2.25668E+00 1.88348E+00
 -1      3042-1.40304E+00-1.06422E+00 5.00000E-01
 -1      3043 2.56887E+00 2.93795E-01 2.25000E+00
 -1      3044-2.00899E+00-1.21417E+00 7.21949E-01
 -1      3045-2.02930E+00 1.16514E+00 8.66019E-01
 -1      3046 2.64312E+00-5.80680E-01 1.65693E+00
 -1      3047-5.83527E-01 2.27020E+00 9.62323E-01
 -1      3048-2.66511E+00 4.74999E-01 1.92188E+00
 -1      3049 4.74999E-01 2.74696E+00 1.35952E+00
 -1      3050-2.11712E+00-3.63615E-01 5.00000E-01
 -1      3051 3.16133E-01-2.32070E+00 1.09535E+00
 -1      3052 1.14194E+00-2.03890E+00 6.84759E-01
 -1      3053 1.45849E+00 1.82348E+00 6.78264E-01
 -1      3054-1.48005E+00 1.80192E+00 6.56835E-01
 -1      3055 2.26735E+00 5.90406E-01 1.06641E+00
 -1      3056-1.73705E+00-9.48019E-01 5.00000E-01
 -1      3057-7.32751E-01-2.20839E+00 1.52075E+00
 -1      3058 1.80937E+00 1.47260E+00 7.23416E-01
 -1      3059-1.48563E+00-1.79634E+00 2.07307E+00
 -1      3060 2.93795E-01 2.56887E+00 2.25000E+00
 -1      3061 1.15404E-01 2.32070E+00 2.10602E+00
 -1      3062 2.91617E-01 2.32070E+00 2.08302E+00
 -1      3063 6.07969E-01-2.26008E+00 1.75285E+00
 -1      3064 1.17339E+00-2.02588E+00 1.61799E+00
 -1      3065-2.01020E+00-1.21123E+00 1.70086E+00
 -1      3066 2.62364E+00 5.72612E-01 1.04452E+00
 -1      3067 2.34634E+00-2.11111E+00-5.00000E-01
 -1      3068 8.39695E-01 1.66019E+00 5.00000E-01
 -1      3069 1.45233E+00 2.26502E+00 1.75781E+00
 -1      3070 2.69966E+00 4.04032E+00 5.00000E-01
 -1      3071-1.19737E+00-2.01595E+00 9.45003E-01
 -1      3072 2.26294E+00 6.01061E-01 2.10314E+00
 -1      3073 2.35412E+00 1.18204E+00 2.25000E+00
 -1      3074 1.98424E+00 1.75429E+00 2.25000E+00
 -1      3075 1.84764E+00 1.43433E+00 1.61878E+00
 -1      3076 1.41347E+00 1.86850E+00 1.33961E+00
 -1      3077 1.16098E+00 2.03102E+00 1.21225E+00
 -1      3078-4.74999E-01 2.75884E+00 1.38411E+00
 -1      3079 1.66764E+00-2.33939E+00 1.31704E+00
 -1      3080 1.56176E+00-2.23351E+00 1.57285E+00
 -1      3081 2.01353E+00-1.20320E+00 1.72861E+00
 -1      3082-1.14973E+00-2.03568E+00 1.98549E+00
 -1      3083 1.49380E+00-2.36513E+00 1.37821E+00
 -1      3084 5.98122E-01 2.26416E+00 2.10649E+00
 -1      3085 3.12264E-01 2.32070E+00 1.56444E+00
 -1      3086-2.69426E+00-4.74999E-01 1.53906E+00
 -1      3087 1.85517E+00 1.42680E+00 1.03799E+00
 -1      3088-2.23225E+00 1.56050E+00 1.17148E+00
 -1      3089 2.36706E+00 1.49460E+00 1.38411E+00
 -1      3090-2.56887E+00 2.93795E-01 2.25000E+00
 -1      3091 1.50697E+00 2.39691E+00 1.37500E+00
 -1      3092-1.17393E+00-2.02565E+00 1.49893E+00
 -1      3093 2.24587E+00 1.57412E+00 1.04688E+00
 -1      3094 1.87312E+00 1.40885E+00 1.16956E+00
 -1      3095-1.62289E+00-2.29464E+00 1.38515E+00
 -1      3096-2.25464E+00 6.21112E-01 9.21301E-01
 -1      3097-2.25932E+00-6.09792E-01 8.87275E-01
 -1      3098 1.16119E+00 2.03093E+00 8.79087E-01
 -1      3099 1.53183E+00 2.20358E+00 1.48438E+00
 -1      3100-4.74999E-01-2.55841E+00 1.42969E+00
 -1      3101-2.32070E+00-3.45120E-01 1.74785E+00
 -1      3102 2.21817E+00-1.54642E+00 1.70312E+00
 -1      3103-1.16962E+00 2.02744E+00 1.71730E+00
 -1      3104 1.25450E+00-2.26090E+00 2.25000E+00
 -1      3105-2.89447E+00 4.74999E-01 1.37500E+00
 -1      3106-2.65278E+00-4.74999E-01 1.80085E+00
 -1      3107-2.28256E+00 1.45960E+00 1.08849E+00
 -1      3108-2.67235E+00-4.74999E-01 1.21205E+00
 -1      3109-2.01244E+00 1.20583E+00 9.85093E-01
 -1      3110 1.45674E+00-1.82523E+00 2.02283E+00
 -1      3111 2.27307E+00-5.76608E-01 1.17511E+00
 -1      3112-2.58109E+00-4.74999E-01 1.38240E+00
 -1      3113-2.24906E+00 6.34568E-01 1.27818E+00
 -1      3114 2.83512E+00-4.74999E-01 1.80529E+00
 -1      3115-2.27077E+00 5.82159E-01 1.39789E+00
 -1      3116-0.00000E+00 2.63048E+00 2.25000E+00
 -1      3117-1.13612E+00-2.04131E+00 1.21488E+00
 -1      3118-4.74999E-01 2.69715E+00 9.92188E-01
 -1      3119-4.74999E-01 2.53773E+00 9.92188E-01
 -1      3120-1.43698E+00-1.84499E+00 2.15757E+00
 -1      3121-2.23225E+00 1.56050E+00 1.57852E+00
 -1      3122 1.43171E+00-1.85026E+00 1.21348E+00
 -1      3123-2.25669E+00-6.16147E-01 6.64092E-01
 -1      3124 5.69882E-01 2.27586E+00 1.76893E+00
 -1      3125 5.73215E-01 2.62509E+00 1.70973E+00
 -1      3126-6.64167E-01 2.23680E+00 1.20964E+00
 -1      3127 2.24587E+00 1.57412E+00 1.92188E+00
 -1      3128-1.88210E+00 1.39987E+00 1.20894E+00
 -1      3129 4.74999E-01 2.68443E+00 1.62917E+00
 -1      3130-1.43529E+00-1.84668E+00 1.33988E+00
 -1      3131-1.51397E+00-1.76800E+00 1.71284E+00
 -1      3132 2.21618E+00 1.54443E+00 1.64844E+00
 -1      3133-1.43226E+00 1.84971E+00 1.66721E+00
 -1      3134-5.62884E-01 2.27875E+00 1.48438E+00
 -1      3135-6.63877E-01 2.23692E+00 1.56039E+00
 -1      3136-2.32070E+00 2.78651E-01 1.90866E+00
 -1      3137-2.24431E+00 6.46045E-01 1.80144E+00
 -1      3138 2.85664E-01-2.32070E+00 1.35752E+00
 -1      3139 1.52858E+00-1.75339E+00 8.93566E-01
 -1      3140 1.54754E+00 1.00921E+00 5.00000E-01
 -1      3141 1.45937E+00 2.28201E+00 1.12331E+00
 -1      3142-1.52461E+00 8.70454E-01 5.00000E-01
 -1      3143-1.54318E+00-2.21493E+00 1.04688E+00
 -1      3144-5.71075E-01 2.27536E+00 1.63624E+00
 -1      3145-1.09767E+00-2.34844E+00 2.25000E+00
 -1      3146-2.00957E+00-1.21276E+00 1.94436E+00
 -1      3147 2.32070E+00 2.38127E-01 7.23418E-01
 -1      3148-1.46213E+00-2.28867E+00 1.63132E+00
 -1      3149 2.32070E+00-3.21751E-01 1.33962E+00
 -1      3150 6.08303E-01-2.25994E+00 8.85553E-01
 -1      3151 2.03364E+00-1.15464E+00 2.09232E+00
 -1      3152 1.40408E+00-1.87789E+00 6.21166E-01
 -1      3153-1.13319E+00 2.04253E+00 6.66072E-01
 -1      3154-9.47994E-01 4.76589E+00 5.00000E-01
 -1      3155-1.06345E+00 2.07142E+00 9.40158E-01
 -1      3156-1.18949E+00 2.01921E+00 9.91901E-01
 -1      3157 3.04189E-01 2.32070E+00 8.52051E-01
 -1      3158 3.50292E-01 2.32070E+00 1.97069E+00
 -1      3159-2.32070E+00-3.08051E-01 2.10036E+00
 -1      3160 4.74999E-01 2.67915E+00 9.92188E-01
 -1      3161-2.71143E+00-7.83406E-02 2.25000E+00
 -1      3162 2.06313E+00 1.08346E+00 9.28228E-01
 -1      3163 4.74999E-01 2.56544E+00 1.32031E+00
 -1      3164 1.41589E+00-1.86608E+00 8.60200E-01
 -1      3165 2.22970E+00-1.63202E+00-5.00000E-01
 -1      3166 2.01378E+00 1.20260E+00 8.28125E-01
 -1      3167-1.49503E+00-2.16678E+00 8.28125E-01
 -1      3168-2.99493E+00 1.78237E+00-5.00000E-01
 -1      3169-2.38137E+00 2.02687E+00-5.00000E-01
 -1      3170-6.24150E-01 2.25338E+00 1.08586E+00
 -1      3171-1.55520E+00 2.22695E+00 1.63779E+00
 -1      3172 1.66985E+00-2.34160E+00 8.62234E-01
 -1      3173-1.46515E+00 2.29596E+00 1.17148E+00
 -1      3174-5.56223E-01 2.58407E+00 1.48438E+00
 -1      3175-2.27304E+00 5.76670E-01 1.93782E+00
 -1      3176 1.72506E+00-3.62320E-01 5.00000E-01
 -1      3177-2.16814E+00 1.49639E+00 1.76621E+00
 -1      3178-4.90017E-01-1.60133E+00-5.00000E-01
 -1      3179 1.46260E+00-2.28979E+00 1.66194E+00
 -1      3180-2.32070E+00 3.10817E-01 1.77529E+00
 -1      3181-2.26865E+00 5.87277E-01 1.15210E+00
 -1      3182-2.64282E+00 4.74999E-01 1.04688E+00
 -1      3183-2.58195E+00 5.55345E-01 1.26562E+00
 -1      3184 2.65103E+00-4.74999E-01 9.92188E-01
 -1      3185-2.32070E+00 1.15737E-01 1.09941E+00
 -1      3186-2.25865E+00 6.11414E-01 1.63769E+00
 -1      3187-2.56292E+00-5.47462E-01 1.50823E+00
 -1      3188 2.23687E+00 1.56512E+00 1.34823E+00
 -1      3189 2.02110E+00-2.88511E-01 5.00000E-01
 -1      3190 1.85653E+00 1.42544E+00 8.73638E-01
 -1      3191-2.32070E+00 2.69208E-01 1.17470E+00
 -1      3192 3.41467E-01-1.71666E+00 5.00000E-01
 -1      3193 1.41999E+00-1.86198E+00 1.56506E+00
 -1      3194-1.42970E+00-2.21036E+00 1.44448E+00
 -1      3195-1.54779E+00-2.21954E+00 1.64491E+00
 -1      3196-6.18675E-01 2.25565E+00 2.08302E+00
 -1      3197 2.75215E-01-2.32070E+00 1.48003E+00
 -1      3198-2.71309E+00 6.09664E-01 1.48613E+00
 -1      3199 6.72928E-01 2.23317E+00 1.58113E+00
 -1      3200-6.30722E-01-2.25066E+00 1.37478E+00
 -1      3201-3.17019E+00-7.99681E-01-5.00000E-01
 -1      3202 1.18981E+00-2.01908E+00 1.38824E+00
 -1      3203-2.63898E+00-7.39532E-01-5.00000E-01
 -1      3204-2.32070E+00 1.85398E-01 2.06961E+00
 -1      3205 2.04880E+00 1.11804E+00 1.08259E+00
 -1      3206-2.22650E+00 1.43638E+00 8.66772E-01
 -1      3207-1.41662E+00-1.86535E+00 1.77208E+00
 -1      3208 2.23304E+00-6.73243E-01 2.02070E+00
 -1      3209 6.05229E-01-2.26121E+00 6.51622E-01
 -1      3210 3.53253E-01 2.32070E+00 1.44316E+00
 -1      3211 7.11633E-01-2.48576E+00 2.25000E+00
 -1      3212-2.88221E-01-2.32070E+00 1.00295E+00
 -1      3213-5.80133E-01-2.27161E+00 1.05567E+00
 -1      3214 5.80423E-01 2.27149E+00 1.26866E+00
 -1      3215 2.02421E+00-1.60872E+00 2.25000E+00
 -1      3216-5.64468E-01 2.27810E+00 1.97069E+00
 -1      3217-2.32070E+00 3.22256E-01 2.04142E+00
 -1      3218-1.19282E+00-2.01783E+00 1.08687E+00
 -1      3219-1.81427E+00 5.40262E-01 5.00000E-01
 -1      3220-2.68189E+00 4.74999E-01 1.57852E+00
 -1      3221-2.55029E+00 5.42229E-01 1.53906E+00
 -1      3222 1.45811E+00-1.82386E+00 1.35715E+00
 -1      3223 1.40019E+00 1.88178E+00 1.66333E+00
 -1      3224-2.69966E+00 4.04032E+00 5.00000E-01
 -1      3225-2.04785E+00 3.74492E-01 5.00000E-01
 -1      3226-5.79082E-01 2.63926E+00 1.10156E+00
 -1      3227-1.45592E+00 2.27368E+00 9.00195E-01
 -1      3228-1.20578E+00-2.01246E+00 1.61318E+00
 -1      3229-2.32070E+00-3.26849E-01 1.93696E+00
 -1      3230 2.69024E-01-2.32070E+00 8.44362E-01
 -1      3231-1.42248E+00 1.85949E+00 1.90890E+00
 -1      3232 1.48485E+00-8.62253E-01-5.00000E-01
 -1      3233-1.18601E+00-2.02065E+00 1.34630E+00
 -1      3234-2.32070E+00-2.88511E-01 6.18800E-01
 -1      3235-2.22954E+00-1.43764E+00 1.53906E+00
 -1      3236-2.66507E+00 5.89772E-01 1.94377E+00
 -1      3237 4.74999E-01-2.69717E+00 1.26562E+00
 -1      3238 2.32070E+00 3.52108E-01 8.28125E-01
 -1      3239-2.42975E-01-2.32070E+00 1.63518E+00
 -1      3240-2.26082E+00-6.06172E-01 1.35411E+00
 -1      3241 2.60734E+00-4.74999E-01 1.21341E+00
 -1      3242 1.42946E+00 1.85251E+00 1.87264E+00
 -1      3243-2.38009E+00 1.16186E+00 2.25000E+00
 -1      3244-3.27863E-01 2.32070E+00 8.03226E-01
 -1      3245-3.09037E-01 2.32070E+00 1.09132E+00
 -1      3246 2.32070E+00 2.88511E-01 6.09939E-01
 -1      3247-4.74999E-01-2.61619E+00 8.82812E-01
 -1      3248-1.49269E+00-2.16444E+00 1.46145E+00
 -1      3249-6.21546E-01-2.25446E+00 6.20418E-01
 -1      3250-4.74999E-01 2.67791E+00 1.64782E+00
 -1      3251-2.66421E+00 5.89416E-01 9.77423E-01
 -1      3252-8.23030E-01-2.49972E+00 2.25000E+00
 -1      3253 1.77466E+00 2.58347E+00-5.00000E-01
 -1      3254 1.84499E+00-1.43698E+00 2.14887E+00
 -1      3255-1.47627E+00-1.80570E+00 1.05168E+00
 -1      3256-2.62342E+00-5.72520E-01 1.04688E+00
 -1      3257 1.80113E+00 7.28681E-01 5.00000E-01
 -1      3258 4.74999E-01-2.68464E+00 1.56356E+00
 -1      3259-6.85113E-01-2.22813E+00 2.07307E+00
 -1      3260 5.88052E-01 2.66091E+00 8.71545E-01
 -1      3261 1.18297E+00 2.02191E+00 1.79053E+00
 -1      3262-5.90298E-01-2.26740E+00 1.50935E+00
 -1      3263 1.51139E+00-2.18314E+00 1.35943E+00
 -1      3264-2.29761E+00 1.46583E+00 1.57285E+00
 -1      3265 0.00000E+00-2.96857E+00 2.25000E+00
 -1      3266 1.15404E-01 1.97458E+00 5.00000E-01
 -1      3267 2.02984E+00 1.16382E+00 6.59777E-01
 -1      3268 2.00856E+00 1.21519E+00 1.96699E+00
 -1      3269 2.01956E+00 1.18865E+00 1.36767E+00
 -1      3270 1.88985E+00 3.05054E-01 5.00000E-01
 -1      3271 4.20905E-01 2.01521E+00 5.00000E-01
 -1      3272 2.15574E+00-1.48399E+00 1.21094E+00
 -1      3273-2.32070E+00-2.97181E-01 1.14348E+00
 -1      3274-4.74999E-01 2.56985E+00 1.79514E+00
 -1      3275 2.01235E+00 1.20604E+00 1.74526E+00
 -1      3276 2.31280E+00 1.47213E+00 1.92188E+00
 -1      3277-2.22869E+00 1.43729E+00 1.30542E+00
 -1      3278 1.49750E+00-2.16925E+00 1.76296E+00
 -1      3279-1.87994E+00 1.40203E+00 1.54859E+00
 -1      3280-1.17767E+00-2.02410E+00 1.83818E+00
 -1      3281 1.46411E+00-2.29344E+00 9.92188E-01
 -1      3282 2.32070E+00 2.88511E-01 2.08779E+00
 -1      3283 3.44145E-01 2.32070E+00 1.74526E+00
 -1      3284 1.18596E+00 1.60521E+00 5.00000E-01
 -1      3285 1.16913E+00-2.02764E+00 8.52052E-01
 -1      3286 2.01593E+00 1.19740E+00 9.80040E-01
 -1      3287-2.65293E+00-4.74999E-01 9.47615E-01
 -1      3288 2.24813E+00 6.36812E-01 1.59831E+00
 -1      3289 2.31007E+00 1.47100E+00 9.92188E-01
 -1      3290 3.45527E-01 2.32070E+00 1.31127E+00
 -1      3291 1.87789E+00-1.40408E+00 6.21166E-01
 -1      3292-2.25967E+00-6.08964E-01 1.13522E+00
 -1      3293-2.01235E+00 1.20604E+00 1.74526E+00
 -1      3294-2.00856E+00 1.21519E+00 1.96699E+00
 -1      3295 1.44001E+00 2.23525E+00 1.52777E+00
 -1      3296 2.19705E+00-1.42418E+00 1.32031E+00
 -1      3297-2.01666E+00 1.19564E+00 1.36778E+00
 -1      3298-2.01958E+00 1.18860E+00 1.15479E+00
 -1      3299 1.87592E+00-1.40605E+00 1.49840E+00
 -1      3300-1.11683E+00 2.04931E+00 2.03656E+00
 -1      3301 1.88122E+00-1.40075E+00 1.02310E+00
 -1      3302 1.39430E+00-1.88767E+00 1.10042E+00
 -1      3303 6.85113E-01-2.22813E+00 2.07307E+00
 -1      3304-2.57935E+00 4.74999E-01 1.74560E+00
 -1      3305-1.46308E+00-1.81889E+00 1.19785E+00
 -1      3306 1.31760E+00 1.72562E+00 5.00000E-01
 -1      3307 1.47564E+00 2.14739E+00 1.32031E+00
 -1      3308-2.20979E+00 1.42946E+00 1.75781E+00
 -1      3309-5.82342E-01-2.27069E+00 1.23272E+00
 -1      3310 2.65717E+00-4.74999E-01 1.60309E+00
 -1      3311-2.26390E+00 1.45187E+00 2.01111E+00
 -1      3312-5.93586E-01 2.26604E+00 1.33637E+00
 -1      3313 2.61296E+00-5.68187E-01 1.92188E+00
 -1      3314-6.33210E-01 1.83027E+00 5.00000E-01
 -1      3315-1.45775E+00-2.27809E+00 1.10765E+00
 -1      3316 2.88467E-01-3.06921E+00-5.00000E-01
 -1      3317 1.08250E+00-2.06352E+00 1.14288E+00
 -1      3318 5.74601E-01-2.27390E+00 1.63040E+00
 -1      3319-5.67644E-01-2.61164E+00 2.01522E+00
 -1      3320-1.25450E+00 2.26090E+00 2.25000E+00
 -1      3321-1.18370E+00 2.02161E+00 1.89144E+00
 -1      3322-2.21520E+00 1.54345E+00 9.00195E-01
 -1      3323 1.18941E+00-2.01924E+00 2.00629E+00
 -1      3324 1.43707E+00-2.22816E+00 1.20720E+00
 -1      3325 2.27127E+00-5.80946E-01 1.90051E+00
 -1      3326 1.84499E+00 1.43698E+00 6.09937E-01
 -1      3327 2.32070E+00-2.92429E-01 1.98254E+00
 -1      3328 1.87491E+00-1.40706E+00 1.25625E+00
 -1      3329-1.46515E+00 2.29596E+00 1.57852E+00
 -1      3330-2.26294E+00 6.01061E-01 2.10314E+00
 -1      3331 1.20048E+00-2.01466E+00 1.74431E+00
 -1      3332-2.25853E+00 6.11715E-01 7.93638E-01
 -1      3333-1.42221E+00-2.19229E+00 1.26383E+00
 -1      3334 1.42982E+00 2.21067E+00 1.32071E+00
 -1      3335 2.15611E+00 1.48436E+00 2.06143E+00
 -1      3336 1.42895E+00-2.20855E+00 1.48309E+00
 -1      3337 5.77473E-01 2.27271E+00 1.64679E+00
 -1      3338-2.17817E+00 1.50642E+00 1.37500E+00
 -1      3339 1.66263E+00-1.09140E+00 5.00000E-01
 -1      3340 2.02657E+00-1.17173E+00 1.44612E+00
 -1      3341 2.27758E+00 1.45754E+00 1.64562E+00
 -1      3342-1.51131E+00 1.24459E+00 5.00000E-01
 -1      3343-2.55437E+00-4.74999E-01 1.08778E+00
 -1      3344 1.44468E+00-2.24654E+00 1.92188E+00
 -1      3345-2.53530E+00 5.36022E-01 8.82812E-01
 -1      3346-1.43928E+00-2.23351E+00 1.92188E+00
 -1      3347-1.43124E+00-1.85073E+00 1.63052E+00
 -1      3348-1.58246E+00-2.25421E+00 1.94659E+00
 -1      3349 2.20404E+00 1.42708E+00 1.46745E+00
 -1      3350 2.27541E+00-5.70947E-01 2.10864E+00
 -1      3351 1.60872E+00 2.02421E+00 2.25000E+00
 -1      3352 4.74999E-01 2.55907E+00 1.75781E+00
 -1      3353 8.55491E-01-1.76377E+00 5.00000E-01
 -1      3354 3.31720E-01-2.32070E+00 1.23130E+00
 -1      3355 1.33254E+00-1.49575E+00 5.00000E-01
 -1      3356-1.39148E+00 1.89049E+00 6.56660E-01
 -1      3357 4.74999E-01-2.69884E+00 9.54311E-01
 -1      3358 2.22591E+00-1.55416E+00 9.43765E-01
 -1      3359-5.70624E-01 2.61884E+00 1.73323E+00
 -1      3360-5.74968E-01-2.27375E+00 2.04213E+00
 -1      3361-1.74968E+00 1.06576E+00 5.00000E-01
 -1      3362 1.11353E+00-1.66450E+00 5.00000E-01
 -1      3363 2.13494E+00 1.46319E+00 1.42969E+00
 -1      3364 1.15259E+00 2.03449E+00 1.93038E+00
 -1      3365 5.47357E-01 2.56267E+00 1.02892E+00
 -1      3366-2.21857E+00-1.54682E+00 1.10765E+00
 -1      3367-1.11030E+00-2.05201E+00 2.11448E+00
 -1      3368 2.02269E+00 5.25545E-01 5.00000E-01
 -1      3369 1.84156E+00 1.44041E+00 1.30332E+00
 -1      3370 1.20048E+00-2.01466E+00 1.11004E+00
 -1      3371 2.70494E+00 4.74999E-01 1.85923E+00
 -1      3372-2.31375E+00-1.47252E+00 1.92188E+00
 -1      3373-1.39796E+00-1.88401E+00 1.11183E+00
 -1      3374 1.43698E+00 1.84499E+00 2.14860E+00
 -1      3375 1.19964E+00 2.01501E+00 1.33579E+00
 -1      3376 1.44509E+00 1.34716E+00 5.00000E-01
 -1      3377 1.40119E+00 1.88078E+00 1.10857E+00
 -1      3378 1.08244E+00-1.85933E+00 5.00000E-01
 -1      3379-5.58947E-01-2.59065E+00 1.42969E+00
 -1      3380 2.54588E+00-5.40401E-01 1.21094E+00
 -1      3381-5.69580E-01 2.61632E+00 2.03104E+00
 -1      3382 2.32070E+00-3.40311E-01 2.13440E+00
 -1      3383 6.58823E-01 2.23902E+00 6.62830E-01
 -1      3384 2.32070E+00-3.35454E-01 1.69653E+00
 -1      3385-2.88511E-01 2.32070E+00 2.10122E+00
 -1      3386 2.15112E+00 1.47937E+00 1.80250E+00
 -1      3387-2.64122E+00 4.74999E-01 1.32327E+00
 -1      3388-2.50932E+00 8.61553E-01 2.25000E+00
 -1      3389-1.33719E+00 1.53620E+00 5.00000E-01
 -1      3390 2.19355E+00-1.52180E+00 1.46578E+00
 -1      3391-1.60872E+00 2.02421E+00 2.25000E+00
 -1      3392-1.44376E-01 6.15178E+00-5.00000E-01
 -1      3393-2.54388E+00 5.39576E-01 1.09504E+00
 -1      3394-1.44636E+00 1.83561E+00 2.08067E+00
 -1      3395 6.10285E-01-2.25912E+00 7.68533E-01
 -1      3396-5.57222E-01-2.58649E+00 1.20859E+00
 -1      3397-1.41595E+00 1.86602E+00 1.78713E+00
 -1      3398 1.52222E+00-2.19397E+00 9.92188E-01
 -1      3399 5.74653E-01-2.62857E+00 9.92188E-01
 -1      3400-1.40737E+00-1.87460E+00 9.60733E-01
 -1      3401 5.63219E-01-2.60096E+00 1.22445E+00
 -1      3402 2.51309E-01 2.12157E+00 5.00000E-01
 -1      3403-1.46509E+00 2.29581E+00 1.95398E+00
 -1      3404 1.04117E+00 1.81122E+00 5.00000E-01
 -1      3405 2.18065E+00 1.41739E+00 1.10156E+00
 -1      3406-1.87789E+00-1.40408E+00 6.21166E-01
 -1      3407-1.26727E+00 1.72777E+00 5.00000E-01
 -1      3408 2.88511E-01-2.32070E+00 2.11869E+00
 -1      3409 1.18560E+00 2.34954E+00 2.25000E+00
 -1      3410-5.17118E+00-4.57695E-01-5.00000E-01
 -1      3411 6.21546E-01-2.25446E+00 2.15757E+00
 -1      3412-1.85786E+00-1.42411E+00 1.34632E+00
 -1      3413-2.32070E+00-2.83570E-01 1.31774E+00
 -1      3414-1.15404E-01-1.92857E+00 5.00000E-01
 -1      3415 5.70729E-01 2.27551E+00 1.11059E+00
 -1      3416-2.18779E+00-1.51604E+00 1.53906E+00
 -1      3417-1.86237E+00-1.41960E+00 1.60897E+00
 -1      3418 1.23986E+00 2.17499E+00 2.25000E+00
 -1      3419-1.81770E+00-1.46427E+00 2.03901E+00
 -1      3420 9.51388E-01 5.20300E+00-5.00000E-01
 -1      3421-4.04032E+00-2.69966E+00 5.00000E-01
 -1      3422-2.26090E+00-1.25450E+00 2.25000E+00
 -1      3423-2.26307E-01 2.32070E+00 6.68586E-01
 -1      3424 1.17807E+00 2.02394E+00 2.10649E+00
 -1      3425-1.49199E-01 2.05612E+00 5.00000E-01
 -1      3426-2.27324E+00-5.76196E-01 1.01112E+00
 -1      3427-2.37373E-01 1.76127E+00-5.00000E-01
 -1      3428-2.32070E+00 3.35039E-01 6.21164E-01
 -1      3429-3.51106E-01-2.06937E+00 5.00000E-01
 -1      3430-5.85148E+00 1.15309E+00-5.00000E-01
 -1      3431-4.68395E+00 9.31842E-01-5.00000E-01
 -1      3432-1.86684E+00-1.41513E+00 1.89177E+00
 -1      3433 2.79189E+00 2.12014E+00 1.66663E+00
 -1      3434-4.34500E-01 2.03598E+00 5.00000E-01
 -1      3435-2.01200E+00-1.20689E+00 1.04789E+00
 -1      3436-7.42918E-03-1.91527E+00-5.00000E-01
 -1      3437-2.32070E+00-3.45966E-01 1.42917E+00
 -1      3438 4.76589E+00 9.47992E-01 5.00000E-01
 -1      3439-3.35729E+00-4.26529E+00-5.00000E-01
 -1      3440-2.69966E+00-4.04032E+00 5.00000E-01
 -1      3441-3.88142E+00 2.87293E+00-5.00000E-01
 -1      3442 5.88594E+00 1.31446E+00-5.00000E-01
 -1      3443 4.11563E+00 2.84944E+00-5.00000E-01
 -1      3444-4.40307E+00 3.09509E+00-5.00000E-01
 -1      3445-2.54907E+00-5.41724E-01 1.21094E+00
 -1      3446-1.15464E+00 2.03364E+00 2.14715E+00
 -1      3447 1.40316E+00-1.87881E+00 2.12400E+00
 -1      3448-2.56234E+00 4.74999E-01 8.82812E-01
 -1      3449 2.10528E+00 3.25520E-01 5.00000E-01
 -1      3450-2.88511E-01 2.32070E+00 5.85894E-01
 -1      3451-1.53880E+00 2.21055E+00 1.92188E+00
 -1      3452 5.81341E-01-1.92721E+00 5.00000E-01
 -1      3453 1.96342E-01-2.00223E+00 5.00000E-01
 -1      3454 4.74999E-01-2.57852E+00 1.10933E+00
 -1      3455 1.44837E+00 2.25543E+00 2.00865E+00
 -1      3456 1.86421E+00-8.97093E-01 5.00000E-01
 -1      3457 4.13465E-01-2.09109E+00 5.00000E-01
 -1      3458-8.80186E-01-1.82339E+00 5.00000E-01
 -1      3459 2.13515E+00 1.46340E+00 9.92188E-01
 -1      3460-5.33353E-01 2.52886E+00 9.92188E-01
 -1      3461-2.55101E+00 4.74999E-01 1.18455E+00
 -1      3462-2.64989E+00 5.83487E-01 1.72739E+00
 -1      3463-5.60860E-01-2.05578E+00 5.00000E-01
 -1      3464 1.68075E+00 1.23409E+00 5.00000E-01
 -1      3465 2.61149E+00-2.18912E-01 2.25000E+00
 -1      3466 2.21063E+00-1.42981E+00 1.53906E+00
 -1      3467-2.02421E+00-1.60872E+00 2.25000E+00
 -1      3468 1.53480E+00 2.20655E+00 2.01384E+00
 -1      3469-2.32070E+00 3.28133E-01 1.05467E+00
 -1      3470-4.74999E-01 2.57117E+00 1.47079E+00
 -1      3471-4.74999E-01 2.61083E+00 1.20928E+00
 -1      3472-1.71814E+00 1.27200E+00 5.00000E-01
 -1      3473-1.41242E+00-2.16866E+00 9.92188E-01
 -1      3474-2.03364E+00-1.15464E+00 2.13873E+00
 -1      3475-1.87674E+00-1.40523E+00 1.22409E+00
 -1      3476 1.70355E+00-1.29553E+00 5.00000E-01
 -1      3477-1.64741E+00-1.22851E+00 5.00000E-01
 -1      3478 5.75837E-01-2.63143E+00 1.70312E+00
 -1      3479 1.31101E+00-1.69430E+00 5.00000E-01
 -1      3480-1.08547E+00 1.86665E+00 5.00000E-01
 -1      3481-8.28787E-01 2.50045E+00 2.25000E+00
 -1      3482 5.35814E-01-2.53480E+00 8.28125E-01
 -1      3483-2.16147E+00-1.48972E+00 1.34679E+00
 -1      3484-1.84499E+00-1.43698E+00 2.14887E+00
 -1      3485-4.76589E+00 9.47994E-01 5.00000E-01
 -1      3486-1.83459E+00-1.44738E+00 1.75868E+00
 -1      3487 2.85753E+00-4.21647E+00-5.00000E-01
 -1      3488-2.28745E+00-1.46163E+00 1.07077E+00
 -1      3489 1.85669E+00-1.09101E+00 5.00000E-01
 -1      3490-2.84871E+00-4.13446E+00-5.00000E-01
 -1      3491-4.04032E+00 2.69966E+00 5.00000E-01
 -1      3492 4.04032E+00 2.69966E+00 5.00000E-01
 -1      3493-2.24587E+00-1.57412E+00 1.92188E+00
 -1      3494-1.22818E+00-2.20468E+00 2.25000E+00
 -1      3495-1.13229E+00-2.13046E+00 2.63158E-02
 -1      3496 2.13046E+00-1.13229E+00 1.45801E-03
 -1      3497 1.12162E+00-5.63875E+00 7.02582E-02
 -1      3498 2.30808E-01 2.40158E+00 3.56806E-03
 -1      3499 1.53496E+00 1.86137E+00 1.52572E-02
 -1      3500-4.37192E-01 2.36053E+00-3.13734E-02
 -1      3501-1.53496E+00 1.86137E+00 6.81026E-03
 -1      3502 1.12162E+00 5.63875E+00 7.27036E-02
 -1      3503 4.78031E+00 3.19409E+00 7.03925E-02
 -1      3504-1.99784E+00-1.83067E+00 1.54499E+00
 -1      3505-2.40158E+00-2.30808E-01 2.95052E-03
 -1      3506-2.37862E+00 3.46213E-01-1.32382E-02
 -1      3507-4.78031E+00-3.19409E+00 2.95936E-02
 -1      3508 2.62129E+00 9.60858E-01 1.00059E-01
 -1      3509-1.59489E+00-1.43168E+00-4.57327E-02
 -1      3510 2.30808E-01-2.40158E+00 2.18184E-02
 -1      3511 1.27768E+00-2.44709E+00 7.27953E-02
 -1      3512 1.86137E+00 1.53496E+00 9.95235E-02
 -1      3513-1.86137E+00 1.53496E+00 9.80079E-02
 -1      3514-2.13046E+00 1.13229E+00 8.16662E-02
 -1      3515-2.53296E+00-1.17410E+00 1.12716E-01
 -1      3516 2.60333E+00-1.07834E+00 1.10331E+00
 -1      3517 2.70081E+00 1.64608E-01 1.07368E+00
 -1      3518-3.19409E+00 4.78031E+00 4.30019E-02
 -1      3519-9.84040E-01 4.94711E+00 3.19162E-03
 -1      3520 1.13229E+00 2.13046E+00 7.73927E-02
 -1      3521-1.19498E+00 2.38898E+00 9.40158E-01
 -1      3522 2.53296E+00-1.17410E+00 3.20224E-01
 -1      3523-2.56591E+00-1.11634E+00 8.16336E-01
 -1      3524-2.37862E+00-3.46213E-01 2.54320E-01
 -1      3525-1.80588E+00-1.96909E+00 4.52815E-02
 -1      3526 2.10123E+00-1.15404E-01-5.10670E-02
 -1      3527 1.13849E-02-2.86708E+00 7.57048E-01
 -1      3528 2.33006E+00 5.90404E-01 4.32678E-02
 -1      3529 4.25904E+00-2.84581E+00-2.72815E-02
 -1      3530-9.15014E-01-2.54196E+00 1.00145E+00
 -1      3531 2.74977E+00-2.43955E-01 1.52101E-02
 -1      3532-2.36715E+00-4.03915E-01 3.81283E-01
 -1      3533 4.53540E-02-2.77989E+00 1.49806E+00
 -1      3534-2.63381E+00 8.26903E-01 1.34354E-01
 -1      3535 2.00707E+00 1.95689E+00 1.37040E+00
 -1      3536 3.19409E+00 4.78031E+00 6.84782E-02
 -1      3537 5.02388E+00-9.99311E-01 1.21927E-02
 -1      3538-1.81992E+00 2.02749E+00 9.55529E-01
 -1      3539 1.43713E+00 1.92675E+00 2.60545E-01
 -1      3540-1.99845E+00 1.32984E+00 2.24790E-01
 -1      3541 4.57659E-01 2.00958E+00 1.42692E-01
 -1      3542-2.84512E+00 4.25801E+00-1.05613E-02
 -1      3543-1.00949E+00-5.07504E+00-3.30870E-02
 -1      3544-2.95686E-01-2.56201E+00 9.44137E-03
 -1      3545 1.23012E+00-2.06508E+00 1.32469E-01
 -1      3546-5.90404E-01 2.33006E+00 2.27041E-01
 -1      3547-2.33006E+00-5.90404E-01 3.58596E-01
 -1      3548 2.33006E+00 5.90404E-01 2.89887E-01
 -1      3549-2.53023E+00 1.10511E+00 1.83105E+00
 -1      3550 1.19648E+00 2.37100E+00 1.75781E+00
 -1      3551 1.43713E+00-1.92675E+00 2.54586E-01
 -1      3552 2.90459E+00 4.34702E+00 2.96497E-03
 -1      3553 2.44653E+00-1.15830E+00 1.62864E+00
 -1      3554-1.56596E+00 2.01164E+00 9.92188E-01
 -1      3555-8.52722E-01 2.52135E+00 1.80658E+00
 -1      3556 2.00559E+00-1.77071E+00 1.07590E+00
 -1      3557 2.06508E+00-1.23012E+00 2.53566E-01
 -1      3558-1.90796E+00 2.01166E+00 1.79541E+00
 -1      3559 1.09555E+00-2.55069E+00 1.76511E+00
 -1      3560 6.87945E-01 2.46578E+00 1.21094E+00
 -1      3561 2.59625E+00 1.03571E+00 1.68548E+00
 -1      3562-2.32681E+00 6.51517E-01 1.59179E-01
 -1      3563-9.04397E-01 1.88184E+00 2.89834E-02
 -1      3564-2.72795E-01 2.39323E+00 2.46375E-01
 -1      3565-1.17410E+00 2.53296E+00 1.07957E-01
 -1      3566 1.23498E+00 2.06183E+00 2.88692E-01
 -1      3567-1.94222E+00-9.29405E-01 1.72781E-02
 -1      3568 2.53571E+00 3.07810E-01 1.53906E+00
 -1      3569-5.90404E-01-2.33006E+00 1.28346E-01
 -1      3570-4.36626E-01 2.36064E+00 3.22556E-01
 -1      3571-1.12190E-01-2.67013E+00 1.04328E+00
 -1      3572 2.06508E+00 1.23012E+00 1.52749E-01
 -1      3573-8.11311E-01-2.49110E+00 1.81866E+00
 -1      3574-6.94309E-01-2.43538E+00 1.53906E+00
 -1      3575 2.38887E+00-2.88511E-01 1.29448E-01
 -1      3576 1.57153E+00 2.00376E+00 1.75781E+00
 -1      3577-2.45194E+00-1.18399E+00 1.76350E+00
 -1      3578 1.89084E+00 2.05405E+00 4.03218E-01
 -1      3579 1.57489E+00 1.99900E+00 1.10156E+00
 -1      3580-8.83012E-01 2.43115E+00 1.52772E+00
 -1      3581 1.93501E+00-1.97828E+00 1.48173E+00
 -1      3582-1.12040E+00-5.63264E+00 7.26703E-02
 -1      3583 2.33006E+00-5.90404E-01 2.09577E-01
 -1      3584 2.48542E+00-8.01626E-01 1.00662E+00
 -1      3585 2.36682E+00-4.05540E-01 3.02702E-01
 -1      3586 8.28716E-01-2.30226E+00 5.93546E-02
 -1      3587-2.05405E+00-1.89084E+00 4.54445E-01
 -1      3588-1.10354E+00 5.54789E+00-3.12935E-02
 -1      3589 3.46213E-01 2.37862E+00 2.54633E-01
 -1      3590 1.14749E+00 2.56891E+00 3.54149E-01
 -1      3591 8.58453E-01-2.54308E+00 9.39036E-01
 -1      3592 2.31335E-01 2.57079E+00 1.98004E+00
 -1      3593 2.23935E+00-1.25618E+00 9.92188E-01
 -1      3594-9.60858E-01-2.62129E+00 3.28969E-01
 -1      3595 3.15895E-01 2.52843E+00 9.92188E-01
 -1      3596 1.85600E+00-1.85550E+00 7.43239E-01
 -1      3597-1.11463E+00-2.48670E+00 1.49601E+00
 -1      3598-2.79085E+00 4.08376E-03 1.20035E+00
 -1      3599-2.78946E+00-1.15404E-01 3.99538E-01
 -1      3600 2.33781E+00-5.51432E-01 3.66462E-01
 -1      3601-2.54020E+00-9.27272E-01 4.32233E-01
 -1      3602 2.11689E+00-1.77187E+00 1.49727E-01
 -1      3603-2.76945E+00 1.79268E-02 1.76184E+00
 -1      3604-5.90404E-01-2.33006E+00 3.36604E-01
 -1      3605-1.18131E+00-1.79646E+00 1.92458E-01
 -1      3606-2.56877E+00-9.81080E-01 1.23747E+00
 -1      3607 1.94826E+00 1.74136E+00 1.60425E+00
 -1      3608 1.23012E+00-2.06508E+00 3.38918E-01
 -1      3609-2.36714E+00 4.03967E-01 2.45341E-01
 -1      3610 1.75119E+00-2.02007E+00 1.15924E+00
 -1      3611-5.90404E-01 2.33006E+00 3.94063E-01
 -1      3612 7.30052E-01 2.49268E+00 1.53471E+00
 -1      3613-2.05405E+00 1.89084E+00 3.85168E-01
 -1      3614 2.78946E+00 1.15404E-01 3.63154E-01
 -1      3615 2.06508E+00 1.23012E+00 3.50382E-01
 -1      3616-7.15428E-01 2.46427E+00 1.32031E+00
 -1      3617 4.03915E-01 2.36715E+00 3.81444E-01
 -1      3618 1.44831E+00-1.28511E+00 1.24246E-02
 -1      3619 5.90404E-01 2.33006E+00 3.58565E-01
 -1      3620 1.04426E+00 2.76629E+00 1.28289E+00
 -1      3621 2.30770E+00 1.21454E+00 1.32299E+00
 -1      3622-2.21229E+00 1.25101E+00 1.10156E+00
 -1      3623-1.79744E+00 1.85874E+00 6.80659E-01
 -1      3624 3.46213E-01-2.37862E+00 2.63867E-01
 -1      3625-2.53624E+00-3.07598E-01 1.53906E+00
 -1      3626 2.17066E-01-2.58169E+00 1.41337E+00
 -1      3627 6.85459E-01 2.74533E+00-2.08833E-02
 -1      3628-2.37862E+00 3.46213E-01 3.98599E-01
 -1      3629-1.15404E-01 2.78946E+00 4.74285E-01
 -1      3630-9.10679E-01 2.43369E+00 3.10552E-01
 -1      3631 1.57495E+00 2.39058E+00 8.84812E-02
 -1      3632-2.23341E-01-2.60398E+00 1.56948E+00
 -1      3633 2.49627E+00-7.80034E-01 1.41577E+00
 -1      3634 1.92675E+00-1.43713E+00 2.84841E-01
 -1      3635 2.46446E+00-8.54292E-01 3.51964E-01
 -1      3636 2.44256E-01-2.61218E+00 1.74673E+00
 -1      3637 1.25130E+00 2.21242E+00 1.10156E+00
 -1      3638 1.32132E+00 1.58939E+00 1.53403E-01
 -1      3639-2.38523E-01 2.59646E+00 1.15094E+00
 -1      3640-2.44048E+00 1.59535E+00-2.75609E-03
 -1      3641-1.93511E+00-2.02862E+00 8.81638E-01
 -1      3642 2.36715E+00 4.03915E-01 3.21966E-01
 -1      3643 9.60858E-01-2.62129E+00 4.08821E-01
 -1      3644 2.27322E+00 1.21219E+00 1.95462E+00
 -1      3645 1.13027E+00-2.38138E+00 1.04900E+00
 -1      3646 2.63792E+00 1.05346E+00 6.76265E-01
 -1      3647-1.96494E+00 1.55692E+00 3.24993E-01
 -1      3648 5.90404E-01-2.33006E+00 2.85982E-01
 -1      3649 2.45118E+00-6.84354E-01 1.75781E+00
 -1      3650 1.99121E+00-1.72111E+00 1.94935E+00
 -1      3651-1.95944E+00 1.38821E+00 3.63407E-01
 -1      3652-2.53296E+00 1.17410E+00 4.57119E-01
 -1      3653 2.00177E+00-1.32487E+00 3.53047E-01
 -1      3654-1.97887E+00 1.77442E+00 1.27712E+00
 -1      3655-2.01151E+00 1.57071E+00 9.92188E-01
 -1      3656 1.38821E+00-1.95944E+00 3.81419E-01
 -1      3657 4.04162E-01-1.92657E+00 4.37446E-02
 -1      3658-1.98416E+00-3.96021E-01 9.35520E-02
 -1      3659-2.29113E+00 1.18062E+00 1.38293E+00
 -1      3660-2.43976E+00-6.82951E-01 9.92188E-01
 -1      3661 8.28359E-01-2.50614E+00 1.45274E+00
 -1      3662 3.03391E-02 2.76948E+00 1.48538E+00
 -1      3663-1.38821E+00 1.95944E+00 2.27386E-01
 -1      3664 1.15737E-01-2.58357E+00 8.60488E-01
 -1      3665-3.11410E-01-2.52717E+00 1.75781E+00
 -1      3666-2.15924E+00-1.20666E+00 1.52823E-01
 -1      3667-1.69012E+00-2.00134E+00 1.80845E+00
 -1      3668-1.86706E+00-1.08564E+00 2.64630E-01
 -1      3669-3.01379E-01-2.53978E+00 1.10156E+00
 -1      3670-1.69630E+00-2.00869E+00 1.28280E+00
 -1      3671-1.17913E+00 2.34716E+00 1.45167E+00
 -1      3672-1.99310E+00 1.63089E+00 1.51291E+00
 -1      3673-2.47220E+00 7.56915E-01 1.40145E+00
 -1      3674-2.25981E+00 1.20663E+00 1.95462E+00
 -1      3675 2.01898E+00 1.86437E+00 7.89780E-01
 -1      3676 8.79243E-01 2.51103E+00 1.87497E+00
 -1      3677-1.23334E+00-2.24700E+00 1.57586E+00
 -1      3678-1.23012E+00 2.06508E+00 3.27964E-01
 -1      3679-2.53249E+00 3.07581E-01 1.53906E+00
 -1      3680 1.80259E+00 5.07885E-01 1.62308E-02
 -1      3681-3.46213E-01-2.37862E+00 2.79636E-01
 -1      3682-1.63091E+00 2.01284E+00 1.49247E+00
 -1      3683-1.25650E+00 2.22682E+00 1.10156E+00
 -1      3684-1.38821E+00 1.95944E+00 3.73756E-01
 -1      3685-2.56368E+00 9.25086E-01 7.74768E-01
 -1      3686-2.53131E+00 6.80562E-02 1.94391E-01
 -1      3687-2.45528E+00-7.73530E-01 1.61067E+00
 -1      3688-1.56740E+00-2.00022E+00 9.92188E-01
 -1      3689-8.86908E-01-2.46146E+00 6.71839E-01
 -1      3690 1.98741E+00 1.68714E+00 1.26981E+00
 -1      3691-2.35190E+00 4.80597E-01 3.63303E-01
 -1      3692 2.46902E+00 9.06365E-01 1.29612E+00
 -1      3693-5.63875E+00-1.12162E+00 7.38565E-02
 -1      3694-1.27904E+00-2.03239E+00 2.49126E-01
 -1      3695 5.57783E+00-1.10950E+00 4.47415E-02
 -1      3696 1.01872E+00-5.12144E+00-2.96653E-03
 -1      3697 1.18320E+00-2.30681E+00 1.36824E+00
 -1      3698-1.19622E+00 1.59329E+00 1.10265E-01
 -1      3699-5.02388E+00-9.99311E-01 6.72837E-03
 -1      3700 5.81105E-01-2.81618E+00 4.37446E-02
 -1      3701-2.09198E+00 5.54245E-01 2.90011E-01
 -1      3702 9.26839E-01 2.48115E+00 6.28471E-01
 -1      3703 1.34397E+00 1.98900E+00 3.56838E-01
 -1      3704-2.80925E+00-6.13519E-01 1.76983E-02
 -1      3705 6.79243E-01-2.45657E+00 1.10156E+00
 -1      3706-3.09921E-01 2.52779E+00 1.64844E+00
 -1      3707 4.72497E+00-3.15712E+00 4.28789E-02
 -1      3708 3.19409E+00-4.78031E+00 1.31105E-02
 -1      3709-4.32463E+00-2.88963E+00-1.51526E-02
 -1      3710 1.02134E+00 5.13462E+00 8.66014E-03
 -1      3711-4.78031E+00 3.19409E+00 4.87197E-02
 -1      3712 2.57481E+00-2.44243E-01 1.71863E+00
 -1      3713-1.43713E+00-1.92675E+00 3.35736E-01
 -1      3714-2.88511E-01 2.15803E+00 3.22375E-01
 -1      3715-3.11738E-01-1.86759E+00-2.11719E-02
 -1      3716-1.10981E+00 2.37775E+00 6.10581E-01
 -1      3717 9.96674E-01-1.74575E+00 1.30926E-01
 -1      3718-1.72389E+00 1.93880E+00 3.00571E-01
 -1      3719-1.90083E+00 1.09963E+00 2.92395E-01
 -1      3720 4.61299E-01-2.35573E+00 3.55378E-01
 -1      3721 2.59601E-01 2.56880E+00 1.47907E+00
 -1      3722 2.65644E+00-1.04699E-01 6.41839E-01
 -1      3723 1.95944E+00 1.38821E+00 3.22705E-01
 -1      3724-1.92675E+00-1.43713E+00 1.96087E-01
 -1      3725-2.03239E+00-1.27904E+00 3.03599E-01
 -1      3726 2.56821E+00 2.49507E-01 1.83057E+00
 -1      3727-1.64162E+00 2.00891E+00 1.76715E+00
 -1      3728 1.90433E+00 1.69780E+00 6.14607E-01
 -1      3729-4.55627E-01-2.35686E+00 3.64629E-01
 -1      3730-1.94413E+00-1.41112E+00 3.62661E-01
 -1      3731-5.05078E+00 1.00466E+00-4.16441E-02
 -1      3732-5.62574E+00 1.11903E+00 4.72125E-02
 -1      3733 5.02388E+00 9.99311E-01-3.29747E-02
 -1      3734-3.19409E+00-4.78031E+00 1.86114E-02
 -1      3735 5.63875E+00 1.12162E+00 2.91215E-02
 -1      3736 4.33603E+00 2.89724E+00-9.11910E-03
 -1      3737-4.33634E+00 2.89745E+00-5.50260E-03
 -1      3738-7.87519E-01 2.46703E+00 1.05992E+00
 -1      3739-7.04349E-01-1.91736E+00 1.27289E-01
 -1      3740 2.55304E+00 1.46035E-01 6.14606E-01
 -1      3741-1.19717E+00-2.26982E+00 8.85071E-01
 -1      3742 1.76254E+00-1.18530E+00 2.18709E-01
 -1      3743-4.50406E-01-2.10192E+00 2.32475E-01
 -1      3744 2.84581E+00-4.25904E+00 3.36219E-02
 -1      3745-2.84581E+00-4.25904E+00 2.68335E-02
 -1      3746-1.99977E+00-1.68842E+00 1.80427E+00
 -3
    3C                         12376                                     1
 -1         1    3    0    1
 -2       716      2587      2876      3235
 -1         2    3    0    1
 -2      1501      2482      3587      3406
 -1         3    3    0    1
 -2       973       628      2192      2394
 -1         4    3    0    1
 -2       355       286      1950      2143
 -1         5    3    0    1
 -2      2020       810      2049      2285
 -1         6    3    0    1
 -2      2197      1287      2311      2403
 -1         7    3    0    1
 -2       617       618      2191      2293
 -1         8    3    0    1
 -2      1328       920       764      1202
 -1         9    3    0    1
 -2      1022      2105      2196      2300
 -1        10    3    0    1
 -2      1491      1492      1630      2961
 -1        11    3    0    1
 -2       480      1286       479       558
 -1        12    3    0    1
 -2      1346      1943      2096      2253
 -1        13    3    0    1
 -2       506       802       815       816
 -1        14    3    0    1
 -2       499      2532      2672      2694
 -1        15    3    0    1
 -2      1938       339      2114      2174
 -1        16    3    0    1
 -2       586       482       594       958
 -1        17    3    0    1
 -2      2210      2018      2217      2401
 -1        18    3    0    1
 -2      1971      1984      2002      2214
 -1        19    3    0    1
 -2      1750       410      3613      3647
 -1        20    3    0    1
 -2       805       808       925      1059
 -1        21    3    0    1
 -2      1289       949       571      3508
 -1        22    3    0    1
 -2       449      1644      1645      3033
 -1        23    3    0    1
 -2       963       344      2097      2245
 -1        24    3    0    1
 -2      3071      3218      3473      3741
 -1        25    3    0    1
 -2       767       496       774      1042
 -1        26    3    0    1
 -2       477       550       564       946
 -1        27    3    0    1
 -2      1442      3510      3544      3681
 -1        28    3    0    1
 -2       984      2115      2243      2544
 -1        29    3    0    1
 -2       497      1042       774       496
 -1        30    3    0    1
 -2       541       700       707      1009
 -1        31    3    0    1
 -2      1941      1934      2054      2183
 -1        32    3    0    1
 -2       719       211      1014      1320
 -1        33    3    0    1
 -2       874      1383      2080      2178
 -1        34    3    0    1
 -2       569       114       575      1184
 -1        35    3    0    1
 -2       392       606       970      1905
 -1        36    3    0    1
 -2       682       451       689       690
 -1        37    3    0    1
 -2       403       405       656       992
 -1        38    3    0    1
 -2       831      1070      2444      2447
 -1        39    3    0    1
 -2       132       133       588       961
 -1        40    3    0    1
 -2      1413      1483      1484      2489
 -1        41    3    0    1
 -2       647       651       903       985
 -1        42    3    0    1
 -2      2392      2086      2579      3552
 -1        43    3    0    1
 -2        48        46       825      1208
 -1        44    3    0    1
 -2      2090       681      2565      3168
 -1        45    3    0    1
 -2       617       961       967      2506
 -1        46    3    0    1
 -2       217       397       728      1026
 -1        47    3    0    1
 -2      2086       961      2435      2506
 -1        48    3    0    1
 -2       184       678       682      1004
 -1        49    3    0    1
 -2       962       385       966      1949
 -1        50    3    0    1
 -2      2030      1993      2149      2247
 -1        51    3    0    1
 -2       675       674      1271      1310
 -1        52    3    0    1
 -2       122       116       575       948
 -1        53    3    0    1
 -2       625      1302       972      2250
 -1        54    3    0    1
 -2       774      1042      2048      2200
 -1        55    3    0    1
 -2       619       626      1555      2850
 -1        56    3    0    1
 -2       232      1036      1037      2145
 -1        57    3    0    1
 -2      2100      1978      2466      2467
 -1        58    3    0    1
 -2      3300      1764      3320      3403
 -1        59    3    0    1
 -2       370      2084      2346      2366
 -1        60    3    0    1
 -2       602       962      1157      1159
 -1        61    3    0    1
 -2       219       733       736      1027
 -1        62    3    0    1
 -2       489       587       600       960
 -1        63    3    0    1
 -2       570       486       574       581
 -1        64    3    0    1
 -2       771      1041      1325      2063
 -1        65    3    0    1
 -2        47       821       921      1205
 -1        66    3    0    1
 -2      2003      2017      2261      2277
 -1        67    3    0    1
 -2      1343      1344      1990      2163
 -1        68    3    0    1
 -2      3532       316      3599      3704
 -1        69    3    0    1
 -2       535       536       694      1005
 -1        70    3    0    1
 -2       487       486       570       582
 -1        71    3    0    1
 -2       736       739      1027      1248
 -1        72    3    0    1
 -2      3590      2990       964      3702
 -1        73    3    0    1
 -2      2077      1967      2238      2288
 -1        74    3    0    1
 -2      1039      2084      2251      2321
 -1        75    3    0    1
 -2      1299       904       605      1158
 -1        76    3    0    1
 -2      1834      1638      1835      3383
 -1        77    3    0    1
 -2       636       977      1936      2417
 -1        78    3    0    1
 -2       597       593       959      1189
 -1        79    3    0    1
 -2      1021       726      2222      2472
 -1        80    3    0    1
 -2       314       312      1973      2193
 -1        81    3    0    1
 -2       229      1516      2675      3741
 -1        82    3    0    1
 -2       561       105       557      1174
 -1        83    3    0    1
 -2        99      2146      2379       946
 -1        84    3    0    1
 -2      2985      1640      1776      3637
 -1        85    3    0    1
 -2      2269       135      2380      2441
 -1        86    3    0    1
 -2      2099       857      2154      2157
 -1        87    3    0    1
 -2       552       950      1284      2549
 -1        88    3    0    1
 -2       612       604      2156      2245
 -1        89    3    0    1
 -2      1217       802        52       809
 -1        90    3    0    1
 -2      1987      2007      2239      2273
 -1        91    3    0    1
 -2       503      1068       826       502
 -1        92    3    0    1
 -2       170       409       660       996
 -1        93    3    0    1
 -2       461       748       755       762
 -1        94    3    0    1
 -2      2031      2029      2182      2200
 -1        95    3    0    1
 -2       484       951       576      1287
 -1        96    3    0    1
 -2      1008       702      2081      2337
 -1        97    3    0    1
 -2      2023      2265      2413      2418
 -1        98    3    0    1
 -2      1304      2171      2585      3542
 -1        99    3    0    1
 -2       607       628      2242      2464
 -1       100    3    0    1
 -2       144      2450      2579      3552
 -1       101    3    0    1
 -2       229      1024      3587      3713
 -1       102    3    0    1
 -2      3317      3324      3645      3370
 -1       103    3    0    1
 -2      2106      2169      2204      2241
 -1       104    3    0    1
 -2      1001       185      2589      3711
 -1       105    3    0    1
 -2       344       963      2097      2349
 -1       106    3    0    1
 -2       511       772       779      1043
 -1       107    3    0    1
 -2       563       550       945       946
 -1       108    3    0    1
 -2       617       600       961      2506
 -1       109    3    0    1
 -2       731       543       738      1026
 -1       110    3    0    1
 -2      1950      1120      2005      2126
 -1       111    3    0    1
 -2       501       825      1208      1209
 -1       112    3    0    1
 -2      1574      1575      1732      3064
 -1       113    3    0    1
 -2       725      1019      2194      2222
 -1       114    3    0    1
 -2       707       695      1010      1011
 -1       115    3    0    1
 -2       667       170       663      1798
 -1       116    3    0    1
 -2       248       331      2306      2321
 -1       117    3    0    1
 -2      2121      2233      2323      2461
 -1       118    3    0    1
 -2      3507      1021      1902      1903
 -1       119    3    0    1
 -2       392       144       606       965
 -1       120    3    0    1
 -2       232       233      2254      2334
 -1       121    3    0    1
 -2      1384      1370      2178      2255
 -1       122    3    0    1
 -2       543       938      1022      1278
 -1       123    3    0    1
 -2      3538      2914      3654      3682
 -1       124    3    0    1
 -2       754       762      1035      1038
 -1       125    3    0    1
 -2       869      1389       878      2083
 -1       126    3    0    1
 -2       825        48      1208      1209
 -1       127    3    0    1
 -2       986       163      2115      2221
 -1       128    3    0    1
 -2       642       653       984       987
 -1       129    3    0    1
 -2      2129      2356      1960      2386
 -1       130    3    0    1
 -2       408      1995      2013      2076
 -1       131    3    0    1
 -2      1947      2030      2149      2155
 -1       132    3    0    1
 -2      1987      1975      2034      2273
 -1       133    3    0    1
 -2      3112       698      1896      3413
 -1       134    3    0    1
 -2       429       171      1888      1893
 -1       135    3    0    1
 -2       749      1324      2031      2048
 -1       136    3    0    1
 -2       642       454       654       987
 -1       137    3    0    1
 -2       665       669       898       994
 -1       138    3    0    1
 -2      2921      1600      1853      3466
 -1       139    3    0    1
 -2         3       678       682      1151
 -1       140    3    0    1
 -2        73       639      1243      1246
 -1       141    3    0    1
 -2       503      1341      1065       826
 -1       142    3    0    1
 -2      2022      1013      2047      2374
 -1       143    3    0    1
 -2      2695      1588      3033      3055
 -1       144    3    0    1
 -2      1335       925       805      1213
 -1       145    3    0    1
 -2      2171       327      2564      3518
 -1       146    3    0    1
 -2       577        35       123      1187
 -1       147    3    0    1
 -2       584       958      1179      1182
 -1       148    3    0    1
 -2       109        99       946      2146
 -1       149    3    0    1
 -2      1957      2132      2234      2317
 -1       150    3    0    1
 -2      1461      1462      2716      3268
 -1       151    3    0    1
 -2       851      1383       874      2178
 -1       152    3    0    1
 -2      1190       588       488       591
 -1       153    3    0    1
 -2       185       184      2315      2333
 -1       154    3    0    1
 -2       575       486       952      1186
 -1       155    3    0    1
 -2       719      1014      1280      1282
 -1       156    3    0    1
 -2      1021      2220      2472      3507
 -1       157    3    0    1
 -2       397       217      2196      2300
 -1       158    3    0    1
 -2      3292      1832      3660      3445
 -1       159    3    0    1
 -2       714        86       718      1265
 -1       160    3    0    1
 -2       775       772      1043      1881
 -1       161    3    0    1
 -2       678       184       999      1311
 -1       162    3    0    1
 -2       385      2032      2057      2338
 -1       163    3    0    1
 -2      1986      2040      2172      2312
 -1       164    3    0    1
 -2      2115       984      2243       653
 -1       165    3    0    1
 -2      1659      1477      2984      3230
 -1       166    3    0    1
 -2       575       486       581       952
 -1       167    3    0    1
 -2        37        38       787      1196
 -1       168    3    0    1
 -2       486       570       574      1187
 -1       169    3    0    1
 -2       869      1390      1379      2159
 -1       170    3    0    1
 -2      2807      3506      3609      3701
 -1       171    3    0    1
 -2      1345       835       836      1990
 -1       172    3    0    1
 -2       116       122       575       952
 -1       173    3    0    1
 -2      1980      2099      2154      2157
 -1       174    3    0    1
 -2      2384       244      3497      3696
 -1       175    3    0    1
 -2       414       191      1003      2144
 -1       176    3    0    1
 -2      3505      1417      2807      3686
 -1       177    3    0    1
 -2       485      1287      1185       484
 -1       178    3    0    1
 -2      2132      2065      2234      2317
 -1       179    3    0    1
 -2       756      1327      1991      2027
 -1       180    3    0    1
 -2       478       556       944      1175
 -1       181    3    0    1
 -2      1011       708      2194      2268
 -1       182    3    0    1
 -2       549       479       558       943
 -1       183    3    0    1
 -2       193       415       700      1007
 -1       184    3    0    1
 -2      2070      1939      2210      2217
 -1       185    3    0    1
 -2        12      1572      1573      2819
 -1       186    3    0    1
 -2        97       711       939      1281
 -1       187    3    0    1
 -2       652       164       168      1140
 -1       188    3    0    1
 -2       453      1036       755       897
 -1       189    3    0    1
 -2       465       605       618       969
 -1       190    3    0    1
 -2       719      1014      1282      1320
 -1       191    3    0    1
 -2       536      1314      1269       535
 -1       192    3    0    1
 -2       938       543      1022      1026
 -1       193    3    0    1
 -2      2534      2602      1571      1681
 -1       194    3    0    1
 -2       524       523       979      1246
 -1       195    3    0    1
 -2       641       647       980      1245
 -1       196    3    0    1
 -2       715      1015      1319      3523
 -1       197    3    0    1
 -2      2080       309      2112      2178
 -1       198    3    0    1
 -2      1086      1955       362      1398
 -1       199    3    0    1
 -2       150       149       969      2191
 -1       200    3    0    1
 -2       892      1404      2021      2072
 -1       201    3    0    1
 -2       464       985       647       903
 -1       202    3    0    1
 -2       455       994       665       898
 -1       203    3    0    1
 -2       829       825      1070      1209
 -1       204    3    0    1
 -2       143       605       611      1156
 -1       205    3    0    1
 -2       486       487       569       582
 -1       206    3    0    1
 -2      1004       690      2308      3430
 -1       207    3    0    1
 -2      1240      2540      2643      2791
 -1       208    3    0    1
 -2      1362       845      1361      2230
 -1       209    3    0    1
 -2      1411      3509      3525      3724
 -1       210    3    0    1
 -2      1013       712      2047      2374
 -1       211    3    0    1
 -2       728       729      1022      1278
 -1       212    3    0    1
 -2       157       158       627       973
 -1       213    3    0    1
 -2      1392      1381      2046      2163
 -1       214    3    0    1
 -2       162       979      2030      2149
 -1       215    3    0    1
 -2       333       270      3708      1906
 -1       216    3    0    1
 -2       826      1341      2118      2327
 -1       217    3    0    1
 -2       943      2265      2276      2413
 -1       218    3    0    1
 -2      1422      3496      3557      3456
 -1       219    3    0    1
 -2      1954      1983      2240      2324
 -1       220    3    0    1
 -2       134       126       960      2244
 -1       221    3    0    1
 -2       515       514      1031      1227
 -1       222    3    0    1
 -2      2558      1253      2806      3348
 -1       223    3    0    1
 -2      1321       220      2264      3745
 -1       224    3    0    1
 -2       125      2070      2210      2217
 -1       225    3    0    1
 -2      1943      1994      2096      2253
 -1       226    3    0    1
 -2       689       996      1001      2134
 -1       227    3    0    1
 -2       660       456       996      1142
 -1       228    3    0    1
 -2      2645      2860      2965      3650
 -1       229    3    0    1
 -2       175       178       994      2135
 -1       230    3    0    1
 -2       217       728      1022      1026
 -1       231    3    0    1
 -2      1545      1411      3587      3724
 -1       232    3    0    1
 -2      2010      1984      2128      2227
 -1       233    3    0    1
 -2      2069       372      2123      2313
 -1       234    3    0    1
 -2       451       452       683       690
 -1       235    3    0    1
 -2      1306       980       640      2248
 -1       236    3    0    1
 -2      1511       207      3467      3484
 -1       237    3    0    1
 -2       806      1335      2093      2767
 -1       238    3    0    1
 -2       707      1009      1012      2188
 -1       239    3    0    1
 -2       748       760      1037      1149
 -1       240    3    0    1
 -2       336       942      2431      2454
 -1       241    3    0    1
 -2      1638      2852      3157      3595
 -1       242    3    0    1
 -2       783       251       252      1193
 -1       243    3    0    1
 -2      1041      2063      2284      2705
 -1       244    3    0    1
 -2       317      1016      2202      2275
 -1       245    3    0    1
 -2       552       555       942      2599
 -1       246    3    0    1
 -2       419      2034      2239      2273
 -1       247    3    0    1
 -2       202        95       695      1277
 -1       248    3    0    1
 -2      1957      2266      2330      2438
 -1       249    3    0    1
 -2       163       641       647       980
 -1       250    3    0    1
 -2       303       291      1095      1985
 -1       251    3    0    1
 -2       193       696      1012      1914
 -1       252    3    0    1
 -2      1336      2712      2825      3172
 -1       253    3    0    1
 -2      1959      1960      2012      2129
 -1       254    3    0    1
 -2       587      1189       593        32
 -1       255    3    0    1
 -2       624       516       635       636
 -1       256    3    0    1
 -2       605       616       969      1156
 -1       257    3    0    1
 -2        41      1631      2855      3408
 -1       258    3    0    1
 -2       877      1388      2181      2401
 -1       259    3    0    1
 -2      3053      1590      3578      3728
 -1       260    3    0    1
 -2       984       987      2291      2544
 -1       261    3    0    1
 -2      1935       369      2040      2312
 -1       262    3    0    1
 -2       114       118       575      1184
 -1       263    3    0    1
 -2      1998      1381      2046      2193
 -1       264    3    0    1
 -2       611       615       905       968
 -1       265    3    0    1
 -2      1383       851      1081      2178
 -1       266    3    0    1
 -2      1947      2078      2153      2108
 -1       267    3    0    1
 -2       588      1190       917        23
 -1       268    3    0    1
 -2       100      2581      3733      3735
 -1       269    3    0    1
 -2       624       931      1235      1301
 -1       270    3    0    1
 -2       784       791      1048      1191
 -1       271    3    0    1
 -2       588       132       957      1293
 -1       272    3    0    1
 -2      2244       151      2385      2577
 -1       273    3    0    1
 -2       534       533       714      1261
 -1       274    3    0    1
 -2       324      1327      1991      2334
 -1       275    3    0    1
 -2       624      1247        64       627
 -1       276    3    0    1
 -2       576      1290      2370      2371
 -1       277    3    0    1
 -2       588       488       599       600
 -1       278    3    0    1
 -2      2097       604      2161      2349
 -1       279    3    0    1
 -2      1945       350      2218      2351
 -1       280    3    0    1
 -2       589       957      1293      2547
 -1       281    3    0    1
 -2      2036      1026      2298      2300
 -1       282    3    0    1
 -2       754       751       762      1038
 -1       283    3    0    1
 -2      3505      3599      3686      3704
 -1       284    3    0    1
 -2       375       233      1037      2145
 -1       285    3    0    1
 -2       417      1966      2028      2113
 -1       286    3    0    1
 -2       713       211       719      1019
 -1       287    3    0    1
 -2       546      1017      1013       939
 -1       288    3    0    1
 -2      2442       279      2767      3529
 -1       289    3    0    1
 -2      2469      2185      3506      3534
 -1       290    3    0    1
 -2       682       690      1001      1004
 -1       291    3    0    1
 -2       962       467       966      1157
 -1       292    3    0    1
 -2      1383       309      2080      2178
 -1       293    3    0    1
 -2      3510      3624      3648      3657
 -1       294    3    0    1
 -2       373       440      1094      2386
 -1       295    3    0    1
 -2       210       416      1019      2194
 -1       296    3    0    1
 -2      1385      1940      2099      2154
 -1       297    3    0    1
 -2       547        98       943      1283
 -1       298    3    0    1
 -2       487       953       569       582
 -1       299    3    0    1
 -2      2011      1973      2025      2076
 -1       300    3    0    1
 -2      1553      2923      3574      3379
 -1       301    3    0    1
 -2      1082      1397      1982      2052
 -1       302    3    0    1
 -2        32      1189       593       130
 -1       303    3    0    1
 -2      1377       436      2169      2204
 -1       304    3    0    1
 -2      1234      2814      2883      2935
 -1       305    3    0    1
 -2       642       454       653       654
 -1       306    3    0    1
 -2       606       392       965      1297
 -1       307    3    0    1
 -2      2089      1125      2129      2287
 -1       308    3    0    1
 -2       604       963      2161      2245
 -1       309    3    0    1
 -2      1597      1598      2954      3323
 -1       310    3    0    1
 -2        65      1237       155       621
 -1       311    3    0    1
 -2       767       774      2117      2209
 -1       312    3    0    1
 -2      1661      2676      1496      2913
 -1       313    3    0    1
 -2       623       634       977      1231
 -1       314    3    0    1
 -2      2158      1942      2180      2302
 -1       315    3    0    1
 -2       455      1143       898       659
 -1       316    3    0    1
 -2       334       254       787      1332
 -1       317    3    0    1
 -2      1944      2074      2094      2363
 -1       318    3    0    1
 -2      2453      1288      2584      3443
 -1       319    3    0    1
 -2      1391       313      1105      2010
 -1       320    3    0    1
 -2      2274       717      3515      3201
 -1       321    3    0    1
 -2       967      3536      1804      1805
 -1       322    3    0    1
 -2       678       184       682       999
 -1       323    3    0    1
 -2        36       593       597      1189
 -1       324    3    0    1
 -2       620      1237        65       621
 -1       325    3    0    1
 -2      3509      2520      2816      3605
 -1       326    3    0    1
 -2        90        89       719      1264
 -1       327    3    0    1
 -2      3583      3531      3585      3635
 -1       328    3    0    1
 -2       682       685      1001      1135
 -1       329    3    0    1
 -2      1488      1487      1547      3000
 -1       330    3    0    1
 -2       489       961       588       917
 -1       331    3    0    1
 -2      1247       624        64      1230
 -1       332    3    0    1
 -2         9       659       665       898
 -1       333    3    0    1
 -2       117        35       570      1187
 -1       334    3    0    1
 -2       821       500       824       832
 -1       335    3    0    1
 -2      1717      1716      3124      3337
 -1       336    3    0    1
 -2       456       659       672       995
 -1       337    3    0    1
 -2      1993      1947      2030      2149
 -1       338    3    0    1
 -2       692      1008      1269      1314
 -1       339    3    0    1
 -2      2793      2812      3022      3560
 -1       340    3    0    1
 -2       641       454       903      1140
 -1       341    3    0    1
 -2       627       624       635       975
 -1       342    3    0    1
 -2      1958      1399      2287      2340
 -1       343    3    0    1
 -2       754       453       761       762
 -1       344    3    0    1
 -2      2052      2019      2067      2092
 -1       345    3    0    1
 -2       587      1189       488       593
 -1       346    3    0    1
 -2       787        37       790       928
 -1       347    3    0    1
 -2       813       809      1062      1217
 -1       348    3    0    1
 -2       327       987      2291      2564
 -1       349    3    0    1
 -2      1117       871      1110      2193
 -1       350    3    0    1
 -2       823       806      2093      2767
 -1       351    3    0    1
 -2       127       585       129      1179
 -1       352    3    0    1
 -2       751       461       754       762
 -1       353    3    0    1
 -2      2050      1977      2120      2224
 -1       354    3    0    1
 -2      1978      2102      2297      2360
 -1       355    3    0    1
 -2       539      1273       540       989
 -1       356    3    0    1
 -2      1382       297      1083      2173
 -1       357    3    0    1
 -2       542       695       708      1011
 -1       358    3    0    1
 -2       309       310      1075      2111
 -1       359    3    0    1
 -2      2000      1952      2112      2256
 -1       360    3    0    1
 -2       860      1126      1094      2060
 -1       361    3    0    1
 -2      3501      3563      3663      3698
 -1       362    3    0    1
 -2       659         9       665      1272
 -1       363    3    0    1
 -2       515      1327      1031       756
 -1       364    3    0    1
 -2      3711       411      1918      1919
 -1       365    3    0    1
 -2       400       711      1013      1017
 -1       366    3    0    1
 -2       363      2101      2225      2359
 -1       367    3    0    1
 -2      2044      1953      2101      2345
 -1       368    3    0    1
 -2       606       144       609       965
 -1       369    3    0    1
 -2       385      1949      2277      2338
 -1       370    3    0    1
 -2       113       115       566       914
 -1       371    3    0    1
 -2       211       398       713      1014
 -1       372    3    0    1
 -2       301      1373      1940      2099
 -1       373    3    0    1
 -2       159        64       627       931
 -1       374    3    0    1
 -2      2391      1072      2449      3695
 -1       375    3    0    1
 -2       806       823      1067      2767
 -1       376    3    0    1
 -2       784        31       791      1191
 -1       377    3    0    1
 -2      1937      1972      2035      2128
 -1       378    3    0    1
 -2       511       766       779       780
 -1       379    3    0    1
 -2      1066      1285      3531      3585
 -1       380    3    0    1
 -2       454       464       641       903
 -1       381    3    0    1
 -2      1038      1043      3582      1881
 -1       382    3    0    1
 -2      1398      1086      1955      2092
 -1       383    3    0    1
 -2      2491      2718      2920      3687
 -1       384    3    0    1
 -2       243       244       769      1046
 -1       385    3    0    1
 -2       226       751       754      1222
 -1       386    3    0    1
 -2       876      1386      2003      2261
 -1       387    3    0    1
 -2       867      1391      1105      1984
 -1       388    3    0    1
 -2      2017      1942      2180      2252
 -1       389    3    0    1
 -2       350       983      1945      2248
 -1       390    3    0    1
 -2      1706      1553      3574      3379
 -1       391    3    0    1
 -2       183       187      2125      2160
 -1       392    3    0    1
 -2      1392       871       880      2046
 -1       393    3    0    1
 -2       258       784       791      1048
 -1       394    3    0    1
 -2      1448      2702      1675      2855
 -1       395    3    0    1
 -2      1030      1035      2553      3734
 -1       396    3    0    1
 -2       399      2187      2229      2367
 -1       397    3    0    1
 -2      1962      1401      1985      2058
 -1       398    3    0    1
 -2       550       563       564       946
 -1       399    3    0    1
 -2       295       294      1102      2038
 -1       400    3    0    1
 -2       506       802      1063      1216
 -1       401    3    0    1
 -2      3572      1432      3257      3680
 -1       402    3    0    1
 -2       438       420      1112      2073
 -1       403    3    0    1
 -2       624       627       931       973
 -1       404    3    0    1
 -2       164       641       903      1140
 -1       405    3    0    1
 -2      3641      2470      3670      3688
 -1       406    3    0    1
 -2       593       488       599       959
 -1       407    3    0    1
 -2      2600      1172      2830      2976
 -1       408    3    0    1
 -2        43       769       772      1200
 -1       409    3    0    1
 -2       338       356      1948      2309
 -1       410    3    0    1
 -2      1940      2003      2261      2277
 -1       411    3    0    1
 -2       694      1317      1005      2168
 -1       412    3    0    1
 -2       803       810      2267      2296
 -1       413    3    0    1
 -2      1993       405      2008      2289
 -1       414    3    0    1
 -2       719       534       725      1019
 -1       415    3    0    1
 -2       219      1025      1321      2264
 -1       416    3    0    1
 -2       104        99       557      1286
 -1       417    3    0    1
 -2      2004      1963      2095      2215
 -1       418    3    0    1
 -2       743       726      1027      2220
 -1       419    3    0    1
 -2       465       470       609       617
 -1       420    3    0    1
 -2        30      1174       557       105
 -1       421    3    0    1
 -2       126       354       593       959
 -1       422    3    0    1
 -2      1555      3134      3135      3174
 -1       423    3    0    1
 -2       399       321      2047      2229
 -1       424    3    0    1
 -2       220      2148      2307      3439
 -1       425    3    0    1
 -2        18       606       609      1161
 -1       426    3    0    1
 -2       587        32       593      1180
 -1       427    3    0    1
 -2       671       660       672       996
 -1       428    3    0    1
 -2       921      1339      1067       498
 -1       429    3    0    1
 -2       702      1317      2081      2337
 -1       430    3    0    1
 -2       340      1114      2157      2164
 -1       431    3    0    1
 -2      3551      3608      3656      3717
 -1       432    3    0    1
 -2       575       118      1183      1184
 -1       433    3    0    1
 -2       769        43       772      1221
 -1       434    3    0    1
 -2      2096      1994      2252      2253
 -1       435    3    0    1
 -2      2100      2087      2297      2467
 -1       436    3    0    1
 -2      1646      3175      3236      3330
 -1       437    3    0    1
 -2       156       971      1303      2422
 -1       438    3    0    1
 -2       100       551       944       947
 -1       439    3    0    1
 -2      1995      1972      2083      2159
 -1       440    3    0    1
 -2      2116      1326      2402      3495
 -1       441    3    0    1
 -2       569       486       575      1186
 -1       442    3    0    1
 -2       557       478       945      1174
 -1       443    3    0    1
 -2       593       488       959      1189
 -1       444    3    0    1
 -2       912      1283       943       479
 -1       445    3    0    1
 -2       286      1368      1950      2126
 -1       446    3    0    1
 -2       446      1079      2079      2198
 -1       447    3    0    1
 -2       555       552      1285      2599
 -1       448    3    0    1
 -2        66        74       629      1233
 -1       449    3    0    1
 -2      1162      1160      2888      3034
 -1       450    3    0    1
 -2      2347      2478      3586      3700
 -1       451    3    0    1
 -2      2186       940      2365      2414
 -1       452    3    0    1
 -2       351      2115      2221      2231
 -1       453    3    0    1
 -2      1416      1700      3590      3702
 -1       454    3    0    1
 -2       550      1174       557        30
 -1       455    3    0    1
 -2      2104       363      1338      2359
 -1       456    3    0    1
 -2       588      1190       488       917
 -1       457    3    0    1
 -2       185      2315      3711      3737
 -1       458    3    0    1
 -2      1981       284      2023      2378
 -1       459    3    0    1
 -2      1302       625       972      2640
 -1       460    3    0    1
 -2       785      2020      2049      2141
 -1       461    3    0    1
 -2       865       892      1129      2021
 -1       462    3    0    1
 -2       550       562       946      1173
 -1       463    3    0    1
 -2      3368      3270      3680      3449
 -1       464    3    0    1
 -2      3506      2469      3534      3562
 -1       465    3    0    1
 -2        29       547       912      1176
 -1       466    3    0    1
 -2      1621      1620      2810      3245
 -1       467    3    0    1
 -2       312       314      1973      2159
 -1       468    3    0    1
 -2      1018      3693      1914      1915
 -1       469    3    0    1
 -2       696       542      1012      1276
 -1       470    3    0    1
 -2      2799      3057      3574      3200
 -1       471    3    0    1
 -2        52       802       926      1220
 -1       472    3    0    1
 -2       539      1309      1272       989
 -1       473    3    0    1
 -2      1957      1986      2266      2340
 -1       474    3    0    1
 -2      3497       254      3696      1900
 -1       475    3    0    1
 -2       551       556       909       942
 -1       476    3    0    1
 -2       607      1298      3620       964
 -1       477    3    0    1
 -2      2001       348      2260      2358
 -1       478    3    0    1
 -2      2105       217      2196      2399
 -1       479    3    0    1
 -2        17       603       602      1159
 -1       480    3    0    1
 -2       480      1286      1177       479
 -1       481    3    0    1
 -2       805       506       816      1064
 -1       482    3    0    1
 -2        74       633       161      1238
 -1       483    3    0    1
 -2       551      1175       556       477
 -1       484    3    0    1
 -2       455       456       659       672
 -1       485    3    0    1
 -2        37       787       790      1196
 -1       486    3    0    1
 -2      1977       438      2120      2224
 -1       487    3    0    1
 -2      3182      3105      3598      3387
 -1       488    3    0    1
 -2       802      1217        52      1216
 -1       489    3    0    1
 -2       481      1055       798       787
 -1       490    3    0    1
 -2      1688      1722      1723      3212
 -1       491    3    0    1
 -2       650       642       987      1139
 -1       492    3    0    1
 -2      1946      1361      1979      2038
 -1       493    3    0    1
 -2       689       682       690      1001
 -1       494    3    0    1
 -2      2029      2031      2048      2200
 -1       495    3    0    1
 -2      1491      1631      2750      2859
 -1       496    3    0    1
 -2      2158      2180      2252      2253
 -1       497    3    0    1
 -2       588       132       591       957
 -1       498    3    0    1
 -2       369       372      1935      1958
 -1       499    3    0    1
 -2       602       962       966      1157
 -1       500    3    0    1
 -2       617       609       618       967
 -1       501    3    0    1
 -2       622       517       974      1300
 -1       502    3    0    1
 -2      2263      2513      3543      3582
 -1       503    3    0    1
 -2        64       624       931      1235
 -1       504    3    0    1
 -2      2033      2056      2070      2286
 -1       505    3    0    1
 -2      1356       841       842      2183
 -1       506    3    0    1
 -2      1427      1501      1502      2548
 -1       507    3    0    1
 -2      2615      1319      2709      3523
 -1       508    3    0    1
 -2       813        52       809      1217
 -1       509    3    0    1
 -2       955       587      1180      1181
 -1       510    3    0    1
 -2       517       520       622       971
 -1       511    3    0    1
 -2       477       550       563       564
 -1       512    3    0    1
 -2        23       588       591       906
 -1       513    3    0    1
 -2       465       470       611      1156
 -1       514    3    0    1
 -2       208      1021      2222      2472
 -1       515    3    0    1
 -2       149       150      1299      2245
 -1       516    3    0    1
 -2       287      1381      1392      2163
 -1       517    3    0    1
 -2       488       587       599       600
 -1       518    3    0    1
 -2       863      1100      2077      2238
 -1       519    3    0    1
 -2        94       695       701       936
 -1       520    3    0    1
 -2       640       979      2248      2398
 -1       521    3    0    1
 -2      1953      1080      2101      2345
 -1       522    3    0    1
 -2      1373      1385      2099      2154
 -1       523    3    0    1
 -2       591       588       599      1296
 -1       524    3    0    1
 -2       751       758       902      1038
 -1       525    3    0    1
 -2      1590       128      3539      1827
 -1       526    3    0    1
 -2       510       481       787       913
 -1       527    3    0    1
 -2       489       488       588       600
 -1       528    3    0    1
 -2      1471      1807      1808      3180
 -1       529    3    0    1
 -2       297      1353      1356      2183
 -1       530    3    0    1
 -2        78        79       736      1248
 -1       531    3    0    1
 -2      1407      1109      2119      2344
 -1       532    3    0    1
 -2       618       617       967      2293
 -1       533    3    0    1
 -2      2976      2830      3712      3726
 -1       534    3    0    1
 -2       144       606       609       970
 -1       535    3    0    1
 -2       383       941      1741      3740
 -1       536    3    0    1
 -2      1988      1969      2110      2177
 -1       537    3    0    1
 -2      1033      1325       752      2488
 -1       538    3    0    1
 -2       163       351      2115      2221
 -1       539    3    0    1
 -2       968      2244      2397      2577
 -1       540    3    0    1
 -2       292      1119       352      2176
 -1       541    3    0    1
 -2       470       465       611       617
 -1       542    3    0    1
 -2       487       953       915       569
 -1       543    3    0    1
 -2       499      1067       823       498
 -1       544    3    0    1
 -2       855      1388      1372      2181
 -1       545    3    0    1
 -2      2768      1499      3521      3227
 -1       546    3    0    1
 -2      2054      1938      2071      2114
 -1       547    3    0    1
 -2       228       227       754      1038
 -1       548    3    0    1
 -2       940       549      2365      2445
 -1       549    3    0    1
 -2        86        87       718      1265
 -1       550    3    0    1
 -2       206        97       710       939
 -1       551    3    0    1
 -2      1942      2017      2180      2302
 -1       552    3    0    1
 -2       511      1044       773       930
 -1       553    3    0    1
 -2       551       100       556       942
 -1       554    3    0    1
 -2       185       184       682      1004
 -1       555    3    0    1
 -2      1454      1453      3097      3426
 -1       556    3    0    1
 -2      1465      1572      2818      2833
 -1       557    3    0    1
 -2       678       452       690      1004
 -1       558    3    0    1
 -2      2037      1951      2043      2237
 -1       559    3    0    1
 -2      1968      2021      2072      2279
 -1       560    3    0    1
 -2       279       282       821      1072
 -1       561    3    0    1
 -2      1880      1764      3391      3451
 -1       562    3    0    1
 -2        11       696       700       899
 -1       563    3    0    1
 -2       570       486       916      1187
 -1       564    3    0    1
 -2      1069       279      3707      1921
 -1       565    3    0    1
 -2      1390       312      1379      2159
 -1       566    3    0    1
 -2      2663      2875      1257      3558
 -1       567    3    0    1
 -2       668       660       996      1142
 -1       568    3    0    1
 -2      1983      1955      2065      2092
 -1       569    3    0    1
 -2      1172      1170      2830      2976
 -1       570    3    0    1
 -2       339      1354      2114      2174
 -1       571    3    0    1
 -2       157       624       627       975
 -1       572    3    0    1
 -2       525       627       635       975
 -1       573    3    0    1
 -2      2469      3514      3562      3701
 -1       574    3    0    1
 -2      2101       363      2104      2359
 -1       575    3    0    1
 -2      2074      2051      2094      2218
 -1       576    3    0    1
 -2       820       500       825      1208
 -1       577    3    0    1
 -2       857      1373      2099      2154
 -1       578    3    0    1
 -2       447      1371      1122      2382
 -1       579    3    0    1
 -2       230       226       754      1222
 -1       580    3    0    1
 -2       859       876      2003      2261
 -1       581    3    0    1
 -2       787       481       797       798
 -1       582    3    0    1
 -2      1966       419      2050      2273
 -1       583    3    0    1
 -2       116       569       575       948
 -1       584    3    0    1
 -2       550      1174        30      1173
 -1       585    3    0    1
 -2      2050      1966      2120      2206
 -1       586    3    0    1
 -2       356      1948      2309      2373
 -1       587    3    0    1
 -2       961       600      2421      2435
 -1       588    3    0    1
 -2       646       972      1305      2250
 -1       589    3    0    1
 -2      3206      2689      3622      3685
 -1       590    3    0    1
 -2       477       550       557       563
 -1       591    3    0    1
 -2       461      1038       751       902
 -1       592    3    0    1
 -2      2251      2335      2069       374
 -1       593    3    0    1
 -2      2427      2474      3499      3512
 -1       594    3    0    1
 -2       477       478       556       563
 -1       595    3    0    1
 -2        56       766       773       930
 -1       596    3    0    1
 -2       267       805      1061      1064
 -1       597    3    0    1
 -2      2773       469      1162       468
 -1       598    3    0    1
 -2       417      2028      2082      2151
 -1       599    3    0    1
 -2       190       404      1002      2316
 -1       600    3    0    1
 -2      3547      3505      3567      3203
 -1       601    3    0    1
 -2       770       494       771      1041
 -1       602    3    0    1
 -2       821       824       921      1067
 -1       603    3    0    1
 -2      1938      2018      2210      2401
 -1       604    3    0    1
 -2      1056      2219      2240      2443
 -1       605    3    0    1
 -2      2016      2024      2064      2344
 -1       606    3    0    1
 -2       144       609       967       970
 -1       607    3    0    1
 -2      2107       406      1358       293
 -1       608    3    0    1
 -2      2121      2323      2427      2461
 -1       609    3    0    1
 -2      1000       538      1263      1271
 -1       610    3    0    1
 -2       170       991      2420      3542
 -1       611    3    0    1
 -2      1324      2029      2031      2048
 -1       612    3    0    1
 -2       624       516       978      1230
 -1       613    3    0    1
 -2      1133       872       896      2073
 -1       614    3    0    1
 -2      1774      2740      3130      3248
 -1       615    3    0    1
 -2      1463      2662      2910      3579
 -1       616    3    0    1
 -2       996       672      2041      2320
 -1       617    3    0    1
 -2      1997      1946      2153      2155
 -1       618    3    0    1
 -2       461       453       754       762
 -1       619    3    0    1
 -2      1105      1984      2010      2227
 -1       620    3    0    1
 -2      1075      2111      2112      2143
 -1       621    3    0    1
 -2      2008      1993      2078      2108
 -1       622    3    0    1
 -2       757       754      1035      1927
 -1       623    3    0    1
 -2       115       566       914      1185
 -1       624    3    0    1
 -2      2121      1978      2233      2297
 -1       625    3    0    1
 -2       641       652       986      1140
 -1       626    3    0    1
 -2       956      2658      3578      3675
 -1       627    3    0    1
 -2      2818      1572      2819      2833
 -1       628    3    0    1
 -2       959       599       960      2421
 -1       629    3    0    1
 -2       125       958      1292      1932
 -1       630    3    0    1
 -2       500       821       824      1207
 -1       631    3    0    1
 -2       251       783       782      1193
 -1       632    3    0    1
 -2       927       800      1056      1219
 -1       633    3    0    1
 -2        32       130       593      1180
 -1       634    3    0    1
 -2       304       431      1360      2230
 -1       635    3    0    1
 -2       552      1284      1931      2431
 -1       636    3    0    1
 -2      1382       873      2150      2173
 -1       637    3    0    1
 -2       771      2063      2127      2284
 -1       638    3    0    1
 -2      1352       839       840      2372
 -1       639    3    0    1
 -2       587       126       959       960
 -1       640    3    0    1
 -2      1740      3104      3323      1873
 -1       641    3    0    1
 -2      2121      2323      2919      2993
 -1       642    3    0    1
 -2      2200       242      2235      2262
 -1       643    3    0    1
 -2       612       604       966      2156
 -1       644    3    0    1
 -2       770      1040      1330      3527
 -1       645    3    0    1
 -2      2074      2094      2260      2358
 -1       646    3    0    1
 -2       640       980      2189      2248
 -1       647    3    0    1
 -2       178       175      1309      2135
 -1       648    3    0    1
 -2       526       511       769       780
 -1       649    3    0    1
 -2       787       510       913       928
 -1       650    3    0    1
 -2      2735      3538      2914      3654
 -1       651    3    0    1
 -2       480       943       558       479
 -1       652    3    0    1
 -2      1401       860      1095      2058
 -1       653    3    0    1
 -2      1939      2033      2070      2210
 -1       654    3    0    1
 -2      2923      2733      3574      3379
 -1       655    3    0    1
 -2       217      1022      2105      2196
 -1       656    3    0    1
 -2       306      1407      1109      2119
 -1       657    3    0    1
 -2       824       279      1069      1921
 -1       658    3    0    1
 -2       551       100       942      1284
 -1       659    3    0    1
 -2       805       506      1064      1215
 -1       660    3    0    1
 -2       654       641       985       986
 -1       661    3    0    1
 -2       535      1268      1005      1267
 -1       662    3    0    1
 -2       872      2007      2073      2109
 -1       663    3    0    1
 -2       125       353      1932      1938
 -1       664    3    0    1
 -2      1355       841      1354      2114
 -1       665    3    0    1
 -2      2084      2346      2366      2389
 -1       666    3    0    1
 -2       714       533       726      1021
 -1       667    3    0    1
 -2      1421      2746      3629      3423
 -1       668    3    0    1
 -2       211       713       719      1014
 -1       669    3    0    1
 -2       514       749       756      1031
 -1       670    3    0    1
 -2       678       452       682       690
 -1       671    3    0    1
 -2       871       880      2046      2193
 -1       672    3    0    1
 -2        43      1249       769       240
 -1       673    3    0    1
 -2       485       948      1183      1184
 -1       674    3    0    1
 -2       999      1153      1311      2637
 -1       675    3    0    1
 -2       343       974      2001      2314
 -1       676    3    0    1
 -2      1960      1959      2012      2123
 -1       677    3    0    1
 -2       531       730       743       744
 -1       678    3    0    1
 -2       453       754       761      1035
 -1       679    3    0    1
 -2       730        84       742      1260
 -1       680    3    0    1
 -2      1379      1973      2011      2159
 -1       681    3    0    1
 -2       313      1389      1108      2083
 -1       682    3    0    1
 -2       600      2397      2435      2506
 -1       683    3    0    1
 -2       127       584      1179      1182
 -1       684    3    0    1
 -2       714       725      1018      1021
 -1       685    3    0    1
 -2      3373      1857      3688      3400
 -1       686    3    0    1
 -2      2460      2646      3597      3677
 -1       687    3    0    1
 -2      1483      3120      1924      1925
 -1       688    3    0    1
 -2      1338       274      2104      2237
 -1       689    3    0    1
 -2       227       228       754      1033
 -1       690    3    0    1
 -2       310       309      1081      2178
 -1       691    3    0    1
 -2       641       163       647       985
 -1       692    3    0    1
 -2       334       254      1332      2412
 -1       693    3    0    1
 -2       661       664       991      2562
 -1       694    3    0    1
 -2      1306       640       648      2248
 -1       695    3    0    1
 -2       242       374      1962      1964
 -1       696    3    0    1
 -2      2054      1938      2114      2174
 -1       697    3    0    1
 -2       772       769      1041      1200
 -1       698    3    0    1
 -2        54        52       802       926
 -1       699    3    0    1
 -2       325       747       377      1324
 -1       700    3    0    1
 -2      3577      2602      3372      3422
 -1       701    3    0    1
 -2       220       219       733      1321
 -1       702    3    0    1
 -2      1522      1661      1662      2913
 -1       703    3    0    1
 -2       366      1341      2118      2376
 -1       704    3    0    1
 -2      1742      1741      3147      3246
 -1       705    3    0    1
 -2       733       531       743       744
 -1       706    3    0    1
 -2       352      1119      2153      2176
 -1       707    3    0    1
 -2       455       660       663      1141
 -1       708    3    0    1
 -2      1084      2150      2173      2434
 -1       709    3    0    1
 -2       226       751      1222      1224
 -1       710    3    0    1
 -2       259       258      1053      2270
 -1       711    3    0    1
 -2       660       170       663       991
 -1       712    3    0    1
 -2      1989       359      2000      2184
 -1       713    3    0    1
 -2      1550      1517      1551      2690
 -1       714    3    0    1
 -2       866      1130      1377      2204
 -1       715    3    0    1
 -2         4       188       683      1270
 -1       716    3    0    1
 -2        86       714      1261      1265
 -1       717    3    0    1
 -2      2145      1036      2329      2334
 -1       718    3    0    1
 -2      2315       999      2333      2565
 -1       719    3    0    1
 -2       369       372       782      1051
 -1       720    3    0    1
 -2        71       641       647       903
 -1       721    3    0    1
 -2       938       728      1022      1278
 -1       722    3    0    1
 -2      1625      2838      2972      3027
 -1       723    3    0    1
 -2       400       401       710      1017
 -1       724    3    0    1
 -2       542       541       696       708
 -1       725    3    0    1
 -2       242      1042      1964      2209
 -1       726    3    0    1
 -2      1702       908      2854      3276
 -1       727    3    0    1
 -2       483      1292       482       586
 -1       728    3    0    1
 -2       331      2306      2321      2405
 -1       729    3    0    1
 -2       620      1237       974      1232
 -1       730    3    0    1
 -2       923      1338      1068       502
 -1       731    3    0    1
 -2      2494      2281      3508      2684
 -1       732    3    0    1
 -2       541       542       695       708
 -1       733    3    0    1
 -2      2225      2061      2324      2382
 -1       734    3    0    1
 -2      1332       789       788      2451
 -1       735    3    0    1
 -2      1121      1369      2079      2198
 -1       736    3    0    1
 -2      3498      1421      3589      3629
 -1       737    3    0    1
 -2       421       387      1747      3267
 -1       738    3    0    1
 -2       184      2131      2315      2333
 -1       739    3    0    1
 -2      2708      2475      3521      3155
 -1       740    3    0    1
 -2       454       641       986      1140
 -1       741    3    0    1
 -2       173       668       174      1142
 -1       742    3    0    1
 -2       455       659       671       672
 -1       743    3    0    1
 -2       142       385       962      1949
 -1       744    3    0    1
 -2      1933      2024      2064      2343
 -1       745    3    0    1
 -2       132      2428      3503      3736
 -1       746    3    0    1
 -2      1116       293       406      2227
 -1       747    3    0    1
 -2       400       710       711      1017
 -1       748    3    0    1
 -2      2281      3508      2684      3528
 -1       749    3    0    1
 -2       132       595       384      1909
 -1       750    3    0    1
 -2      2197       576      2370      2371
 -1       751    3    0    1
 -2       935       656       988      1274
 -1       752    3    0    1
 -2      3083      3559      3179      3697
 -1       753    3    0    1
 -2       404       190      1974      2140
 -1       754    3    0    1
 -2      3252      1811      3319      3360
 -1       755    3    0    1
 -2      1068       826      2272      2443
 -1       756    3    0    1
 -2       647       351       980      1306
 -1       757    3    0    1
 -2      2034      2124      2342      2408
 -1       758    3    0    1
 -2       162       350       638       983
 -1       759    3    0    1
 -2      1940       301      2099      2261
 -1       760    3    0    1
 -2      1125       888      2089      2129
 -1       761    3    0    1
 -2       339       311      1354      2174
 -1       762    3    0    1
 -2        82      1142       660       173
 -1       763    3    0    1
 -2       170       660       993       996
 -1       764    3    0    1
 -2       663       660       991      1256
 -1       765    3    0    1
 -2       663       667       993      1141
 -1       766    3    0    1
 -2       351       163       647       980
 -1       767    3    0    1
 -2      1116      1971      1984      2227
 -1       768    3    0    1
 -2       439       300      1125      2287
 -1       769    3    0    1
 -2       620      1237      1232        65
 -1       770    3    0    1
 -2       638       639       983      1243
 -1       771    3    0    1
 -2       100       336       556       942
 -1       772    3    0    1
 -2       966       385      2057      2156
 -1       773    3    0    1
 -2      1961      1976      2025      2166
 -1       774    3    0    1
 -2       960       600      2397      2435
 -1       775    3    0    1
 -2       402       175       659       995
 -1       776    3    0    1
 -2      2380       135      2259      2441
 -1       777    3    0    1
 -2      1409      1721      3551      3596
 -1       778    3    0    1
 -2      2909      3561      3089      3621
 -1       779    3    0    1
 -2       539       992       988       935
 -1       780    3    0    1
 -2       752       771      1325      2063
 -1       781    3    0    1
 -2      1481      1482      2936      1779
 -1       782    3    0    1
 -2       216       222       737      1028
 -1       783    3    0    1
 -2      2226      1017      2326      2375
 -1       784    3    0    1
 -2      3564      1796      1886      3714
 -1       785    3    0    1
 -2      2497      2649      3592      3706
 -1       786    3    0    1
 -2       217      2142      2196      2279
 -1       787    3    0    1
 -2       623      1238       629        66
 -1       788    3    0    1
 -2      2653      2885      2991      3288
 -1       789    3    0    1
 -2      3657      3624      3720      3457
 -1       790    3    0    1
 -2       959      2269      2421      2441
 -1       791    3    0    1
 -2      2086       961      2421      2435
 -1       792    3    0    1
 -2       986      2115      2205      2221
 -1       793    3    0    1
 -2       962       142      1949      2161
 -1       794    3    0    1
 -2        64       624       627       931
 -1       795    3    0    1
 -2       248       331       773      1044
 -1       796    3    0    1
 -2      1995      1973      2011      2076
 -1       797    3    0    1
 -2       452       451       683      1137
 -1       798    3    0    1
 -2       399       398      2187      2367
 -1       799    3    0    1
 -2      1290       948      2197      2370
 -1       800    3    0    1
 -2        87        86       718      1147
 -1       801    3    0    1
 -2      1015      1501      3523      3488
 -1       802    3    0    1
 -2      3624      3657      3453      3457
 -1       803    3    0    1
 -2       702      2113      2294      2310
 -1       804    3    0    1
 -2       318       209      3693      3699
 -1       805    3    0    1
 -2      1399      1089      2287      2340
 -1       806    3    0    1
 -2      1333       789      2678      2789
 -1       807    3    0    1
 -2      1412      1521      2801      3059
 -1       808    3    0    1
 -2       488      1296       591       599
 -1       809    3    0    1
 -2      1595      1442      3681      3414
 -1       810    3    0    1
 -2        94      1268      1267       695
 -1       811    3    0    1
 -2       708       725      2194      2222
 -1       812    3    0    1
 -2       660       170       991      1307
 -1       813    3    0    1
 -2       243       769      1043      1046
 -1       814    3    0    1
 -2      3598      2490      3603      3625
 -1       815    3    0    1
 -2      1603      2897      3074      1842
 -1       816    3    0    1
 -2      1962      1964      2232      2262
 -1       817    3    0    1
 -2      2244       960      2397      2435
 -1       818    3    0    1
 -2       164        71       641      1245
 -1       819    3    0    1
 -2      1489      1610      1611      3075
 -1       820    3    0    1
 -2      1494      1493      1534      3041
 -1       821    3    0    1
 -2      1043      2384      3582      1881
 -1       822    3    0    1
 -2      2013      1995      2083      2159
 -1       823    3    0    1
 -2       544      1323      1279       543
 -1       824    3    0    1
 -2       331       248      1331      2321
 -1       825    3    0    1
 -2       481       510       784       929
 -1       826    3    0    1
 -2      1284       909       551      1171
 -1       827    3    0    1
 -2       470       968       617       611
 -1       828    3    0    1
 -2       633       629       976      1238
 -1       829    3    0    1
 -2       904      1299       963       466
 -1       830    3    0    1
 -2      1095       291      1401      1985
 -1       831    3    0    1
 -2       465       605       611       618
 -1       832    3    0    1
 -2       170       991      1307      2420
 -1       833    3    0    1
 -2       554      2902      3633      3380
 -1       834    3    0    1
 -2       986       654       994      2205
 -1       835    3    0    1
 -2      1984      2002      2128      2227
 -1       836    3    0    1
 -2       871      1392      1381      2046
 -1       837    3    0    1
 -2      1485      3313      3325      3649
 -1       838    3    0    1
 -2       660       455       671       672
 -1       839    3    0    1
 -2      1061      2610      3708      1906
 -1       840    3    0    1
 -2      1326       753      2488      2813
 -1       841    3    0    1
 -2       599       587       959       960
 -1       842    3    0    1
 -2       623        66       629      1233
 -1       843    3    0    1
 -2       533       713      1020      1262
 -1       844    3    0    1
 -2       175       994       995      2041
 -1       845    3    0    1
 -2       476       942       555      2599
 -1       846    3    0    1
 -2       716       709      3412      3475
 -1       847    3    0    1
 -2       354       135       959      2425
 -1       848    3    0    1
 -2       385      1949      2057      2156
 -1       849    3    0    1
 -2       800       801       927      1060
 -1       850    3    0    1
 -2      1238       623       516      1231
 -1       851    3    0    1
 -2       477       550       946      1173
 -1       852    3    0    1
 -2         9      1273      1272       659
 -1       853    3    0    1
 -2       489       488       587      1188
 -1       854    3    0    1
 -2       377      2029      2095      2182
 -1       855    3    0    1
 -2       899       457      2568      2790
 -1       856    3    0    1
 -2      2004      1963      2122      2235
 -1       857    3    0    1
 -2      2143      1989      2184      2208
 -1       858    3    0    1
 -2       942       476       909      2599
 -1       859    3    0    1
 -2      1172      1170      2599      2600
 -1       860    3    0    1
 -2      1485      2975      3327      3712
 -1       861    3    0    1
 -2      3527      1442      3544      3681
 -1       862    3    0    1
 -2       921      1339       821      1067
 -1       863    3    0    1
 -2      2899      2752      3622      3298
 -1       864    3    0    1
 -2       477       947       564       551
 -1       865    3    0    1
 -2      2112      1952      2178      2256
 -1       866    3    0    1
 -2        96       728       938      1278
 -1       867    3    0    1
 -2       574       119      1291      1929
 -1       868    3    0    1
 -2       488      1296      1190       591
 -1       869    3    0    1
 -2       367       261      2020      2049
 -1       870    3    0    1
 -2       747       746      1228      1324
 -1       871    3    0    1
 -2       327       396      1304      2282
 -1       872    3    0    1
 -2       733       743      1027      1030
 -1       873    3    0    1
 -2       857      1385      1373      2154
 -1       874    3    0    1
 -2      2587      3577      3606      3235
 -1       875    3    0    1
 -2        90       719      1280      1282
 -1       876    3    0    1
 -2       208      1021      3507      1903
 -1       877    3    0    1
 -2       131        23       591       906
 -1       878    3    0    1
 -2        99       104       557       945
 -1       879    3    0    1
 -2      2106       397      2142      2298
 -1       880    3    0    1
 -2       496      1328      1042       767
 -1       881    3    0    1
 -2       643      1305       646      2643
 -1       882    3    0    1
 -2       259       796       261      1054
 -1       883    3    0    1
 -2      1715       430      3668      3477
 -1       884    3    0    1
 -2      1450      1451      3223      3242
 -1       885    3    0    1
 -2       609       606       965      1161
 -1       886    3    0    1
 -2       219       733      1027      1030
 -1       887    3    0    1
 -2      1605      1604      3045      1875
 -1       888    3    0    1
 -2      1942      2053      2138      2165
 -1       889    3    0    1
 -2       746      1034      1228      1324
 -1       890    3    0    1
 -2       538       537      1000      1263
 -1       891    3    0    1
 -2      2451      1050      2781      3696
 -1       892    3    0    1
 -2      1746      3166      3267      3289
 -1       893    3    0    1
 -2       452       677      1003      1137
 -1       894    3    0    1
 -2      1387       859       876      2003
 -1       895    3    0    1
 -2       989       658      2130      2140
 -1       896    3    0    1
 -2       723       719      1019      1264
 -1       897    3    0    1
 -2       997       676      2152      2337
 -1       898    3    0    1
 -2       599       588       600       961
 -1       899    3    0    1
 -2      1368      1120      1950      2126
 -1       900    3    0    1
 -2       588       591       906       957
 -1       901    3    0    1
 -2       382       109       952      2146
 -1       902    3    0    1
 -2       622      1303       630       517
 -1       903    3    0    1
 -2       569       575       948      1184
 -1       904    3    0    1
 -2       784       481       929      1178
 -1       905    3    0    1
 -2       841      1356      1353      2183
 -1       906    3    0    1
 -2       575       948      1183      1290
 -1       907    3    0    1
 -2       914       484      1185      1287
 -1       908    3    0    1
 -2       239       238       764       920
 -1       909    3    0    1
 -2       678       999      1153      1311
 -1       910    3    0    1
 -2      2165      2017      2277      2410
 -1       911    3    0    1
 -2        19        18       609      1161
 -1       912    3    0    1
 -2      1234       518      2640      2814
 -1       913    3    0    1
 -2       486       569       575       581
 -1       914    3    0    1
 -2       576      1290      2197      2370
 -1       915    3    0    1
 -2       617      2293      2397      2506
 -1       916    3    0    1
 -2      2122      2004      2262      2372
 -1       917    3    0    1
 -2       625       982      1301      2539
 -1       918    3    0    1
 -2       383       112      1741      2970
 -1       919    3    0    1
 -2       588       488       591       599
 -1       920    3    0    1
 -2      3500      2503      3546      3565
 -1       921    3    0    1
 -2       999       681      2333      2565
 -1       922    3    0    1
 -2        36       130       593      1189
 -1       923    3    0    1
 -2       586      1295       594       482
 -1       924    3    0    1
 -2       488       587       593       599
 -1       925    3    0    1
 -2      3558      2471      3682      3727
 -1       926    3    0    1
 -2       810      2020      2267      2285
 -1       927    3    0    1
 -2      1957      1986      2234      2330
 -1       928    3    0    1
 -2        23       588       906      1166
 -1       929    3    0    1
 -2       648      1306      2098      2348
 -1       930    3    0    1
 -2      1324      1034       749      2179
 -1       931    3    0    1
 -2        39       791      1191      1194
 -1       932    3    0    1
 -2      1657      1658      3356      1888
 -1       933    3    0    1
 -2        28       559       556      1175
 -1       934    3    0    1
 -2       369       782       783      1051
 -1       935    3    0    1
 -2      1333      1049      2331      3511
 -1       936    3    0    1
 -2      1003      2042      2144      2308
 -1       937    3    0    1
 -2      1836      3617      3271      3402
 -1       938    3    0    1
 -2      1072       832      2391      2449
 -1       939    3    0    1
 -2       551      1175        27       556
 -1       940    3    0    1
 -2      2394      1297      2450      2556
 -1       941    3    0    1
 -2      3117      2498      3315      3741
 -1       942    3    0    1
 -2        55       800       801       927
 -1       943    3    0    1
 -2       533       713       725       726
 -1       944    3    0    1
 -2       488       489       588       917
 -1       945    3    0    1
 -2       980       163      2189      2221
 -1       946    3    0    1
 -2       791       258      1048      1334
 -1       947    3    0    1
 -2      2098      2051      2218      2348
 -1       948    3    0    1
 -2       816       815      1064      2364
 -1       949    3    0    1
 -2       119       381      3735      1929
 -1       950    3    0    1
 -2      2097      2053      2314      2349
 -1       951    3    0    1
 -2      1326      2402      3594      2236
 -1       952    3    0    1
 -2       629       525       976      1238
 -1       953    3    0    1
 -2      1630      1629      2911      3318
 -1       954    3    0    1
 -2      2623      2600      2830      3517
 -1       955    3    0    1
 -2       629       525       635       976
 -1       956    3    0    1
 -2      1606      1789      3622      3298
 -1       957    3    0    1
 -2       499       498      2526      2694
 -1       958    3    0    1
 -2       297      1382       357      2173
 -1       959    3    0    1
 -2      2093      1058       807       806
 -1       960    3    0    1
 -2       248      1044      1045      2306
 -1       961    3    0    1
 -2       193       696      1009      1012
 -1       962    3    0    1
 -2      1970       400      1988      2343
 -1       963    3    0    1
 -2       753       513      2488      2622
 -1       964    3    0    1
 -2        11      1276       696       194
 -1       965    3    0    1
 -2       802      1217       506       809
 -1       966    3    0    1
 -2       726       743      1028      2220
 -1       967    3    0    1
 -2      1537      2928      2960      2998
 -1       968    3    0    1
 -2       157       624       975       978
 -1       969    3    0    1
 -2      1685       205      3532      3050
 -1       970    3    0    1
 -2      1021      1027      2220      3507
 -1       971    3    0    1
 -2      2650      1519      1648      3554
 -1       972    3    0    1
 -2      1019      2187      2194      2222
 -1       973    3    0    1
 -2      2118       826      2327      2443
 -1       974    3    0    1
 -2       676       997      2152      2160
 -1       975    3    0    1
 -2       635       624       636       978
 -1       976    3    0    1
 -2      1032      1330      2127      3544
 -1       977    3    0    1
 -2      2099      1940      2261      2277
 -1       978    3    0    1
 -2       319      1501      2724      3523
 -1       979    3    0    1
 -2      2145      1037      2405      2406
 -1       980    3    0    1
 -2       834       833      1075      2111
 -1       981    3    0    1
 -2       852      1082      1982      2067
 -1       982    3    0    1
 -2      3708      1055      1906      1907
 -1       983    3    0    1
 -2       532      1028       743       737
 -1       984    3    0    1
 -2      2508      2451      2781      3696
 -1       985    3    0    1
 -2      1453      1664      1665      3097
 -1       986    3    0    1
 -2      1631      1491      1632      2777
 -1       987    3    0    1
 -2      1019       210      2194      2383
 -1       988    3    0    1
 -2       185       184      2131      2315
 -1       989    3    0    1
 -2       791       795       929      1053
 -1       990    3    0    1
 -2      2017      2003      2180      2302
 -1       991    3    0    1
 -2       912      1283       547       943
 -1       992    3    0    1
 -2      2332      1066      2760      3522
 -1       993    3    0    1
 -2       989       404      1974      2140
 -1       994    3    0    1
 -2       586       482       958      1292
 -1       995    3    0    1
 -2      2043      2126      2212      2216
 -1       996    3    0    1
 -2       951       484       914      1287
 -1       997    3    0    1
 -2      1458      1457      1651      2763
 -1       998    3    0    1
 -2      3581      2614      2502      2821
 -1       999    3    0    1
 -2        98       943      2276      2413
 -1      1000    3    0    1
 -2       870       895      1132      2045
 -1      1001    3    0    1
 -2      2115       984      2291      2544
 -1      1002    3    0    1
 -2      3577      2491      3606      3687
 -1      1003    3    0    1
 -2       489       961       600       588
 -1      1004    3    0    1
 -2       117       570       916      1187
 -1      1005    3    0    1
 -2       487       954       582       570
 -1      1006    3    0    1
 -2      2003      2017      2180      2261
 -1      1007    3    0    1
 -2      1572      2820      3159      3229
 -1      1008    3    0    1
 -2       489       587       960      1188
 -1      1009    3    0    1
 -2      1952      1999      2080      2256
 -1      1010    3    0    1
 -2       774      1042      2200      2209
 -1      1011    3    0    1
 -2       581       570       582       954
 -1      1012    3    0    1
 -2       587      1189        32      1188
 -1      1013    3    0    1
 -2      1620      1621      1779      3245
 -1      1014    3    0    1
 -2       561       557       945      1174
 -1      1015    3    0    1
 -2       714       208       718      1318
 -1      1016    3    0    1
 -2       478       477       557       563
 -1      1017    3    0    1
 -2        31        39       791      1191
 -1      1018    3    0    1
 -2       465       605       969      1156
 -1      1019    3    0    1
 -2      1386       341      1940      2261
 -1      1020    3    0    1
 -2       751       227       754      1033
 -1      1021    3    0    1
 -2       717      1016      1992      2275
 -1      1022    3    0    1
 -2       298       432      1364      2438
 -1      1023    3    0    1
 -2      3550      3034      3676      3409
 -1      1024    3    0    1
 -2       694       535       702      1008
 -1      1025    3    0    1
 -2       979       523       983      1243
 -1      1026    3    0    1
 -2      2829      2908      3558      3672
 -1      1027    3    0    1
 -2       516       623       635       636
 -1      1028    3    0    1
 -2      3391      1815      3394      1894
 -1      1029    3    0    1
 -2       641       163       985       986
 -1      1030    3    0    1
 -2      2617      2786      3145      3252
 -1      1031    3    0    1
 -2       605       465       611      1156
 -1      1032    3    0    1
 -2      2009      1960      2069      2123
 -1      1033    3    0    1
 -2       511      1250       930       766
 -1      1034    3    0    1
 -2       570       486       581       582
 -1      1035    3    0    1
 -2        19       609      1155      1164
 -1      1036    3    0    1
 -2      3505      1417      3524      3658
 -1      1037    3    0    1
 -2       539      1274       988       540
 -1      1038    3    0    1
 -2      2186       558      2265      2276
 -1      1039    3    0    1
 -2       595       131       136      1190
 -1      1040    3    0    1
 -2       230         7       754      1138
 -1      1041    3    0    1
 -2      1631      3211      3303      3411
 -1      1042    3    0    1
 -2      1314       419      2113      2310
 -1      1043    3    0    1
 -2       556       551       563       944
 -1      1044    3    0    1
 -2      3563      3546      3565      3630
 -1      1045    3    0    1
 -2       711       939      1013      1017
 -1      1046    3    0    1
 -2      3498      3589      3619      3627
 -1      1047    3    0    1
 -2       606       465       609       618
 -1      1048    3    0    1
 -2       570        35       574      1187
 -1      1049    3    0    1
 -2       220      2307      2264      3439
 -1      1050    3    0    1
 -2      1399       300       439      2287
 -1      1051    3    0    1
 -2      1415      3559      3104      3211
 -1      1052    3    0    1
 -2       466      1299       963       612
 -1      1053    3    0    1
 -2       619      1555      1556      2850
 -1      1054    3    0    1
 -2      1963      2055      2095      2207
 -1      1055    3    0    1
 -2      2048       774      2200      2209
 -1      1056    3    0    1
 -2       175       402       659       989
 -1      1057    3    0    1
 -2      1189       587       488      1188
 -1      1058    3    0    1
 -2      1749      1784      3464      3723
 -1      1059    3    0    1
 -2        18       606      1161      1163
 -1      1060    3    0    1
 -2       408      1973      1995      2076
 -1      1061    3    0    1
 -2      2225      2219      2240      2324
 -1      1062    3    0    1
 -2      1620      1621      3126      3170
 -1      1063    3    0    1
 -2      3524      3532      3599      3704
 -1      1064    3    0    1
 -2      1727      2935      3060      3592
 -1      1065    3    0    1
 -2       730       742      1029      1260
 -1      1066    3    0    1
 -2       116       580       124       953
 -1      1067    3    0    1
 -2       566       567       914       951
 -1      1068    3    0    1
 -2       853      1113       873      2150
 -1      1069    3    0    1
 -2       779       762      1038      2406
 -1      1070    3    0    1
 -2       948       575      1183      1184
 -1      1071    3    0    1
 -2       517      1237       974      1300
 -1      1072    3    0    1
 -2       982      1301      3519      3154
 -1      1073    3    0    1
 -2       319      1561      1715      3725
 -1      1074    3    0    1
 -2       552       573       950      2549
 -1      1075    3    0    1
 -2       566       338       567       951
 -1      1076    3    0    1
 -2       409       660       996      1918
 -1      1077    3    0    1
 -2       104       360       945      2361
 -1      1078    3    0    1
 -2       261       259      1054      2270
 -1      1079    3    0    1
 -2      1300      2001      2280      2358
 -1      1080    3    0    1
 -2       696       700       899      1007
 -1      1081    3    0    1
 -2       994       671       995      2041
 -1      1082    3    0    1
 -2       825       501      1070      1209
 -1      1083    3    0    1
 -2      1306       349      2098      2348
 -1      1084    3    0    1
 -2      1965       377      2095      2162
 -1      1085    3    0    1
 -2      1955      2065      2132      2317
 -1      1086    3    0    1
 -2       909      1284       551       942
 -1      1087    3    0    1
 -2      1595      1442      3527      3681
 -1      1088    3    0    1
 -2      1008      2081      2113      2151
 -1      1089    3    0    1
 -2      1042       242      2029      2200
 -1      1090    3    0    1
 -2       609       606       618       970
 -1      1091    3    0    1
 -2       575       122       948      1290
 -1      1092    3    0    1
 -2      2427      2993      3140      3638
 -1      1093    3    0    1
 -2       135      1295      2259      2441
 -1      1094    3    0    1
 -2       265       266      2325      2419
 -1      1095    3    0    1
 -2       966       385      2033      2057
 -1      1096    3    0    1
 -2       106       337      2656      3537
 -1      1097    3    0    1
 -2      2012      1960      2058      2060
 -1      1098    3    0    1
 -2      2226      2342      2383      2408
 -1      1099    3    0    1
 -2      1363       845       846      2230
 -1      1100    3    0    1
 -2      2353       415      3732      1922
 -1      1101    3    0    1
 -2      1069       279      1072      2085
 -1      1102    3    0    1
 -2       382      1290      2365      2370
 -1      1103    3    0    1
 -2       486       569       581       582
 -1      1104    3    0    1
 -2      2498      3597      3315      3741
 -1      1105    3    0    1
 -2      2190      3505      3686      3704
 -1      1106    3    0    1
 -2       219       220      2148      2307
 -1      1107    3    0    1
 -2       580       569       915       953
 -1      1108    3    0    1
 -2       401      1017      1933      2326
 -1      1109    3    0    1
 -2       569       116       952       953
 -1      1110    3    0    1
 -2       756       749      1034      2179
 -1      1111    3    0    1
 -2      1572      1573      2819      2833
 -1      1112    3    0    1
 -2       511       772      1043      1221
 -1      1113    3    0    1
 -2      2095      1963      2207      2215
 -1      1114    3    0    1
 -2      2025      2011      2076      2166
 -1      1115    3    0    1
 -2      3536       144      3552      1805
 -1      1116    3    0    1
 -2      2162       325      2179      2195
 -1      1117    3    0    1
 -2       756      1034      2027      2195
 -1      1118    3    0    1
 -2       841      1353      2114      2183
 -1      1119    3    0    1
 -2       787       797      1052      1055
 -1      1120    3    0    1
 -2       142       962      2053      2138
 -1      1121    3    0    1
 -2      1290       948       568      2197
 -1      1122    3    0    1
 -2      2104      1338      2272      2359
 -1      1123    3    0    1
 -2       551       477       556       563
 -1      1124    3    0    1
 -2      2086       133      2392      2453
 -1      1125    3    0    1
 -2      1338       923       818      1211
 -1      1126    3    0    1
 -2       957       589      1293      2453
 -1      1127    3    0    1
 -2       465       611       617       618
 -1      1128    3    0    1
 -2      2180      2003      2261      2302
 -1      1129    3    0    1
 -2       824       832      1069      1072
 -1      1130    3    0    1
 -2      1934      1941      2173      2183
 -1      1131    3    0    1
 -2       500       825       831       832
 -1      1132    3    0    1
 -2       336       100       556       944
 -1      1133    3    0    1
 -2      2733      2880      3573      3597
 -1      1134    3    0    1
 -2      2169       866      2204      2415
 -1      1135    3    0    1
 -2       470       968       611       905
 -1      1136    3    0    1
 -2       482      1295      1180       955
 -1      1137    3    0    1
 -2      3135      3134      3580      3174
 -1      1138    3    0    1
 -2       557       478       563       945
 -1      1139    3    0    1
 -2       467       963       604       466
 -1      1140    3    0    1
 -2       487       954       570       916
 -1      1141    3    0    1
 -2      2040      2014      2266      2340
 -1      1142    3    0    1
 -2       981      1305       643      2540
 -1      1143    3    0    1
 -2       104        99      1286      2414
 -1      1144    3    0    1
 -2      3518       987      1798      1799
 -1      1145    3    0    1
 -2      2130      1309      2135      2283
 -1      1146    3    0    1
 -2      1398      1955      2019      2092
 -1      1147    3    0    1
 -2      2188       708      2194      2222
 -1      1148    3    0    1
 -2      1318       717       715      2274
 -1      1149    3    0    1
 -2      1006      1316      3598      3599
 -1      1150    3    0    1
 -2       753       752      1033      2236
 -1      1151    3    0    1
 -2      1339       921       821      1205
 -1      1152    3    0    1
 -2       109      2146      2365      2414
 -1      1153    3    0    1
 -2      3541      3498      3619      3627
 -1      1154    3    0    1
 -2       228       754      1035      1038
 -1      1155    3    0    1
 -2      1633      2775      2841      3385
 -1      1156    3    0    1
 -2       609       465       617       618
 -1      1157    3    0    1
 -2       558      2023      2265      2413
 -1      1158    3    0    1
 -2      1305      2213      2250      2456
 -1      1159    3    0    1
 -2      2073      1133      2109      2119
 -1      1160    3    0    1
 -2      2700      3128      3654      3655
 -1      1161    3    0    1
 -2      2001      1994      2096      2260
 -1      1162    3    0    1
 -2       890       862      2055      2207
 -1      1163    3    0    1
 -2       388       119       570      1288
 -1      1164    3    0    1
 -2       510      1052       790       797
 -1      1165    3    0    1
 -2      1949       385      2057      2338
 -1      1166    3    0    1
 -2      2126      1950      2208      2216
 -1      1167    3    0    1
 -2       121       384      3503      3736
 -1      1168    3    0    1
 -2      1393       861      1097      2350
 -1      1169    3    0    1
 -2      1538      1537      2928      2960
 -1      1170    3    0    1
 -2       158       157       627       975
 -1      1171    3    0    1
 -2       568      2197      2380      2403
 -1      1172    3    0    1
 -2      1937      1972      2010      2013
 -1      1173    3    0    1
 -2       807       788      1336      2429
 -1      1174    3    0    1
 -2      1102       294      1394      2038
 -1      1175    3    0    1
 -2       357       297      2173      2183
 -1      1176    3    0    1
 -2       992       405      2030      2426
 -1      1177    3    0    1
 -2      1968      2072      2167      2279
 -1      1178    3    0    1
 -2      2126      2208      2212      2216
 -1      1179    3    0    1
 -2      1039       767      2251      2366
 -1      1180    3    0    1
 -2       175       994      2041      2135
 -1      1181    3    0    1
 -2      1444      1443      1720      3164
 -1      1182    3    0    1
 -2       766       773       779      1044
 -1      1183    3    0    1
 -2       671       993       996      2041
 -1      1184    3    0    1
 -2       818       273       817      1211
 -1      1185    3    0    1
 -2      1075       834      2111      2143
 -1      1186    3    0    1
 -2       163       986      2205      2221
 -1      1187    3    0    1
 -2      2043      1951      2216      2237
 -1      1188    3    0    1
 -2       951       576      1287      2197
 -1      1189    3    0    1
 -2      2832      3571      3237      3664
 -1      1190    3    0    1
 -2       840      2122      2201      2372
 -1      1191    3    0    1
 -2       109        99      2146      2414
 -1      1192    3    0    1
 -2       100       551       556       944
 -1      1193    3    0    1
 -2       800       927      1056      1060
 -1      1194    3    0    1
 -2      1327       756      1991      2179
 -1      1195    3    0    1
 -2       824       821       832      1072
 -1      1196    3    0    1
 -2       558       943      2265      2276
 -1      1197    3    0    1
 -2       482      1182       958      1292
 -1      1198    3    0    1
 -2      1966      2050      2239      2273
 -1      1199    3    0    1
 -2      1966      2028      2120      2206
 -1      1200    3    0    1
 -2       550      1177       911        30
 -1      1201    3    0    1
 -2       834       833      2111      2143
 -1      1202    3    0    1
 -2      1987      1975      2119      2344
 -1      1203    3    0    1
 -2       939       711      1013      1281
 -1      1204    3    0    1
 -2        81      1743      1856      1883
 -1      1205    3    0    1
 -2       309      1075      1342      2111
 -1      1206    3    0    1
 -2       326       163       986      2205
 -1      1207    3    0    1
 -2      2006      2195      2299      2399
 -1      1208    3    0    1
 -2       772       769       779      1043
 -1      1209    3    0    1
 -2       208       317      1318      2202
 -1      1210    3    0    1
 -2      1052       254      2437      3497
 -1      1211    3    0    1
 -2      2803      1223      2880      1766
 -1      1212    3    0    1
 -2       580       116       569       953
 -1      1213    3    0    1
 -2      2011      1973      2013      2159
 -1      1214    3    0    1
 -2      1976      1998      2046      2166
 -1      1215    3    0    1
 -2       486       487       570       916
 -1      1216    3    0    1
 -2       603        17       141      1159
 -1      1217    3    0    1
 -2       525       627       975      1247
 -1      1218    3    0    1
 -2      2754      2737      3571      3626
 -1      1219    3    0    1
 -2       989       402      2133      2135
 -1      1220    3    0    1
 -2      1431      3586      3608      3643
 -1      1221    3    0    1
 -2       511       526       766       780
 -1      1222    3    0    1
 -2      1749      1784      3723      3728
 -1      1223    3    0    1
 -2       326      2189      2283      2339
 -1      1224    3    0    1
 -2      2016      1970      2024      2045
 -1      1225    3    0    1
 -2      3273      2609      1844      3343
 -1      1226    3    0    1
 -2       478       556       563       944
 -1      1227    3    0    1
 -2       350      1946      2062      2341
 -1      1228    3    0    1
 -2       684       676      1000      2223
 -1      1229    3    0    1
 -2      2000       359      2026      2249
 -1      1230    3    0    1
 -2       532      1028       737       933
 -1      1231    3    0    1
 -2       443       305      1129      2288
 -1      1232    3    0    1
 -2       341       301      1940      2261
 -1      1233    3    0    1
 -2       696       541       707       708
 -1      1234    3    0    1
 -2      1393       881      2350      2363
 -1      1235    3    0    1
 -2       451       452       682      1135
 -1      1236    3    0    1
 -2      1355      2114      2174      2183
 -1      1237    3    0    1
 -2       541      1277       936       695
 -1      1238    3    0    1
 -2       541       696       700      1275
 -1      1239    3    0    1
 -2      1309       178      2135      2283
 -1      1240    3    0    1
 -2      2141      2049      2172      2396
 -1      1241    3    0    1
 -2       700       696       707      1009
 -1      1242    3    0    1
 -2      2679      2704      3618      3717
 -1      1243    3    0    1
 -2       461       751       754       902
 -1      1244    3    0    1
 -2       319      2724      3044      1715
 -1      1245    3    0    1
 -2       865      1129      1376      2021
 -1      1246    3    0    1
 -2       354       126       593      1295
 -1      1247    3    0    1
 -2        30      1177       105       557
 -1      1248    3    0    1
 -2       517      1303      1233       971
 -1      1249    3    0    1
 -2      1304      2171      2282      2585
 -1      1250    3    0    1
 -2        49       805       808       925
 -1      1251    3    0    1
 -2        27       551       909      1171
 -1      1252    3    0    1
 -2       587       126       593       959
 -1      1253    3    0    1
 -2       372      2009      2069      2123
 -1      1254    3    0    1
 -2      2036       321      2354      2229
 -1      1255    3    0    1
 -2       960       126      2421      2425
 -1      1256    3    0    1
 -2       243       769       772      1043
 -1      1257    3    0    1
 -2      2603      3523      3606      3488
 -1      1258    3    0    1
 -2       695      1005      1267      1317
 -1      1259    3    0    1
 -2       419       417      1966      2050
 -1      1260    3    0    1
 -2      1306       351      2221      2231
 -1      1261    3    0    1
 -2       401      1933      2024      2064
 -1      1262    3    0    1
 -2      2326      2034      2342      2408
 -1      1263    3    0    1
 -2      1100      2077      2238      2288
 -1      1264    3    0    1
 -2       227       228      2063      2257
 -1      1265    3    0    1
 -2      2007      2224      2239      2273
 -1      1266    3    0    1
 -2       297       357      1353      2183
 -1      1267    3    0    1
 -2       563       945      2361      2379
 -1      1268    3    0    1
 -2        76       240       769      1249
 -1      1269    3    0    1
 -2       717      1992      2274      2275
 -1      1270    3    0    1
 -2        28        27       556       909
 -1      1271    3    0    1
 -2      1952      2000      2112      2184
 -1      1272    3    0    1
 -2      2350      2094      2363      2377
 -1      1273    3    0    1
 -2      1042      1328      1964      2209
 -1      1274    3    0    1
 -2       259       258      2270      2346
 -1      1275    3    0    1
 -2       725       726      2187      2222
 -1      1276    3    0    1
 -2      1743      2849      1856      1883
 -1      1277    3    0    1
 -2       356       951      1287      2404
 -1      1278    3    0    1
 -2       641       464       647       903
 -1      1279    3    0    1
 -2       570       578       916       954
 -1      1280    3    0    1
 -2       329       427      1563      2949
 -1      1281    3    0    1
 -2       721        87        88      1265
 -1      1282    3    0    1
 -2      1307       409      2420      3441
 -1      1283    3    0    1
 -2      1447      2858      3215      3650
 -1      1284    3    0    1
 -2      2313      2069      2389      2448
 -1      1285    3    0    1
 -2       604       962       966      2156
 -1      1286    3    0    1
 -2       369      2141      2172      2312
 -1      1287    3    0    1
 -2      2049      2020      2068      2141
 -1      1288    3    0    1
 -2        35       117       570      1169
 -1      1289    3    0    1
 -2       356       338       566       951
 -1      1290    3    0    1
 -2       291      1962      1985      2201
 -1      1291    3    0    1
 -2       625       646       982      2539
 -1      1292    3    0    1
 -2       523       648       979       983
 -1      1293    3    0    1
 -2      1062       367      2411      2419
 -1      1294    3    0    1
 -2      2021      1996      2072      2279
 -1      1295    3    0    1
 -2       783      1047      1051      1193
 -1      1296    3    0    1
 -2      1628      1422      3522      3557
 -1      1297    3    0    1
 -2      1046      1052      3497      1899
 -1      1298    3    0    1
 -2      1034       756      2179      2195
 -1      1299    3    0    1
 -2      3513      2500      3514      3640
 -1      1300    3    0    1
 -2       109       946       952      2146
 -1      1301    3    0    1
 -2       955       126      2318      2425
 -1      1302    3    0    1
 -2       313      1391       407      2010
 -1      1303    3    0    1
 -2      1989      2111      2143      2184
 -1      1304    3    0    1
 -2       607       610       965      2773
 -1      1305    3    0    1
 -2       624       157       627       973
 -1      1306    3    0    1
 -2       359      1283      2026      2249
 -1      1307    3    0    1
 -2      2177      1988      2298      2343
 -1      1308    3    0    1
 -2      1609      1429      3534      3652
 -1      1309    3    0    1
 -2        29       548       102       912
 -1      1310    3    0    1
 -2      1487      1488      2965      3000
 -1      1311    3    0    1
 -2       776       769      1046      1249
 -1      1312    3    0    1
 -2       497      1331      1203       496
 -1      1313    3    0    1
 -2       452       682      1135      1136
 -1      1314    3    0    1
 -2       249      1045      2084      2321
 -1      1315    3    0    1
 -2      1962      1985      2201      2262
 -1      1316    3    0    1
 -2       510       787       790       928
 -1      1317    3    0    1
 -2      1287      2170      2311      2403
 -1      1318    3    0    1
 -2      1318      2202      2495      3709
 -1      1319    3    0    1
 -2       265       272      1057      2452
 -1      1320    3    0    1
 -2       807      1059      2412      2429
 -1      1321    3    0    1
 -2      3524      1635      3050      3658
 -1      1322    3    0    1
 -2      1557      1558      2729      3337
 -1      1323    3    0    1
 -2      1499      3521      3227      3683
 -1      1324    3    0    1
 -2      2197       356      2309      2311
 -1      1325    3    0    1
 -2      1966      2050      2120      2224
 -1      1326    3    0    1
 -2       144       392       606       970
 -1      1327    3    0    1
 -2      2189       326      2205      2221
 -1      1328    3    0    1
 -2      1353       357      1941      2183
 -1      1329    3    0    1
 -2       319      1501      3587      3406
 -1      1330    3    0    1
 -2       677       452       683      1137
 -1      1331    3    0    1
 -2       980      1306      2189      2248
 -1      1332    3    0    1
 -2      1501       430      1502      3406
 -1      1333    3    0    1
 -2       143       147       611      1158
 -1      1334    3    0    1
 -2       815       805       816      1064
 -1      1335    3    0    1
 -2       559        28       107      1175
 -1      1336    3    0    1
 -2       604       466       612       966
 -1      1337    3    0    1
 -2       499      1067       498       921
 -1      1338    3    0    1
 -2      1948      2309      2373      2434
 -1      1339    3    0    1
 -2       750      2922      3100      3669
 -1      1340    3    0    1
 -2       524       980      1244      1245
 -1      1341    3    0    1
 -2      1031       749      2031      2048
 -1      1342    3    0    1
 -2       690      1001      1004      2308
 -1      1343    3    0    1
 -2      2518      2507      3598      3599
 -1      1344    3    0    1
 -2       924      2964      3008      3650
 -1      1345    3    0    1
 -2       751      1033      1222      1224
 -1      1346    3    0    1
 -2       696       193      1007      1315
 -1      1347    3    0    1
 -2      2909      3561      3621      3692
 -1      1348    3    0    1
 -2       133      2086      2392      3552
 -1      1349    3    0    1
 -2       412       185      1919      3737
 -1      1350    3    0    1
 -2       791      1048      1194      1334
 -1      1351    3    0    1
 -2       510      1052       928       790
 -1      1352    3    0    1
 -2       501       824       831      1069
 -1      1353    3    0    1
 -2       805       267       808      1059
 -1      1354    3    0    1
 -2      1463      2910      3026      3579
 -1      1355    3    0    1
 -2       697       717      1016      1992
 -1      1356    3    0    1
 -2      1420      1725      3594      3604
 -1      1357    3    0    1
 -2       963      2097      2161      2245
 -1      1358    3    0    1
 -2      2930      1591      1771      1772
 -1      1359    3    0    1
 -2       193      1007      1315      2292
 -1      1360    3    0    1
 -2      2488       753      2622      2813
 -1      1361    3    0    1
 -2      2021      2072      2238      2288
 -1      1362    3    0    1
 -2      2765      2931      3629      3639
 -1      1363    3    0    1
 -2      1545       319      3587      3406
 -1      1364    3    0    1
 -2      3549      2951      3264      3659
 -1      1365    3    0    1
 -2      1474      1473      1634      2775
 -1      1366    3    0    1
 -2      3087      1539      3190      3459
 -1      1367    3    0    1
 -2      1013      2022      2298      2374
 -1      1368    3    0    1
 -2      2090      1307      2420      3441
 -1      1369    3    0    1
 -2       815       802      1062      1063
 -1      1370    3    0    1
 -2       514       515      1034      1226
 -1      1371    3    0    1
 -2      1983      1955      2019      2039
 -1      1372    3    0    1
 -2       490       491       792      1047
 -1      1373    3    0    1
 -2       266       367      1062      2419
 -1      1374    3    0    1
 -2      1556      1555      2720      2850
 -1      1375    3    0    1
 -2       524       523       640       979
 -1      1376    3    0    1
 -2       398       211      1019      2187
 -1      1377    3    0    1
 -2       375       233      2145      2254
 -1      1378    3    0    1
 -2       309       310      2111      2112
 -1      1379    3    0    1
 -2        70       642       645      1242
 -1      1380    3    0    1
 -2      1112       438      2073      2224
 -1      1381    3    0    1
 -2      1372      1388      2164      2181
 -1      1382    3    0    1
 -2      1734      1562      2973      3247
 -1      1383    3    0    1
 -2      2402      1326      3594      3495
 -1      1384    3    0    1
 -2       698       691      1896      3413
 -1      1385    3    0    1
 -2       934      1313       997       537
 -1      1386    3    0    1
 -2       684      1313      2125      2140
 -1      1387    3    0    1
 -2      1115       311       339      2174
 -1      1388    3    0    1
 -2      1960      2012      2058      2335
 -1      1389    3    0    1
 -2       208       714      1018      1021
 -1      1390    3    0    1
 -2       744      1029      2258      2439
 -1      1391    3    0    1
 -2       749       514       756      1034
 -1      1392    3    0    1
 -2      2686      3182      3185      3469
 -1      1393    3    0    1
 -2       328       166      3518      1799
 -1      1394    3    0    1
 -2      3074      3036      3127      3607
 -1      1395    3    0    1
 -2      1469      1470      1626      2838
 -1      1396    3    0    1
 -2      2002      1971      2008      2107
 -1      1397    3    0    1
 -2      1041       769      1198      1200
 -1      1398    3    0    1
 -2       579       575       952      1186
 -1      1399    3    0    1
 -2      1612      2809      3576      3223
 -1      1400    3    0    1
 -2      1055      1061      2015      3708
 -1      1401    3    0    1
 -2      1511      2667      3372      3422
 -1      1402    3    0    1
 -2      2145       375      2254      2405
 -1      1403    3    0    1
 -2        46       820       825      1208
 -1      1404    3    0    1
 -2       132       588       591      1296
 -1      1405    3    0    1
 -2      1508      2804      2907      3358
 -1      1406    3    0    1
 -2      1314       694      2124      2310
 -1      1407    3    0    1
 -2      3571      2754      3626      3664
 -1      1408    3    0    1
 -2      3630      3565      3678      3716
 -1      1409    3    0    1
 -2      2323      2461      2817      2866
 -1      1410    3    0    1
 -2        41       236      1869      3411
 -1      1411    3    0    1
 -2       676       537       684      1000
 -1      1412    3    0    1
 -2       437      1968      2072      2169
 -1      1413    3    0    1
 -2       925      1335       805      1059
 -1      1414    3    0    1
 -2       279       282      2085      2391
 -1      1415    3    0    1
 -2      1980      1939      2033      2070
 -1      1416    3    0    1
 -2       640       523       648       979
 -1      1417    3    0    1
 -2      2032      1980      2099      2154
 -1      1418    3    0    1
 -2       516      1238       525       629
 -1      1419    3    0    1
 -2       962       467      1157      1159
 -1      1420    3    0    1
 -2      2042       414      2144      2294
 -1      1421    3    0    1
 -2        27       551       556       909
 -1      1422    3    0    1
 -2       551       477       563       564
 -1      1423    3    0    1
 -2       864      1394       882      2176
 -1      1424    3    0    1
 -2      1295       594      2259      2441
 -1      1425    3    0    1
 -2        85       730       737       933
 -1      1426    3    0    1
 -2      2477      1569      1570      3412
 -1      1427    3    0    1
 -2      1617      1616      3018      3242
 -1      1428    3    0    1
 -2        98      2212      2216      2413
 -1      1429    3    0    1
 -2       500       820      1071      1208
 -1      1430    3    0    1
 -2       412       411      3711      1919
 -1      1431    3    0    1
 -2       761       762      1037      2145
 -1      1432    3    0    1
 -2       507       808      1061      1218
 -1      1433    3    0    1
 -2      3209       241      3643      3482
 -1      1434    3    0    1
 -2       666      1309      2283      2339
 -1      1435    3    0    1
 -2      3551      3602      3618      3634
 -1      1436    3    0    1
 -2      2108      2078      2153      2176
 -1      1437    3    0    1
 -2       566       914      1185      1287
 -1      1438    3    0    1
 -2       496      1203      1199      1039
 -1      1439    3    0    1
 -2      1434      3499      3539      3578
 -1      1440    3    0    1
 -2      2503      3500      3546      3563
 -1      1441    3    0    1
 -2      2043      1951      2079      2126
 -1      1442    3    0    1
 -2      1648      1499      2759      3554
 -1      1443    3    0    1
 -2       510      1053       797       791
 -1      1444    3    0    1
 -2       326      2189      2205      2283
 -1      1445    3    0    1
 -2       321       399      1020      2229
 -1      1446    3    0    1
 -2       328      3518      1798      1799
 -1      1447    3    0    1
 -2       766        75       778      1250
 -1      1448    3    0    1
 -2       348       343      2001      2260
 -1      1449    3    0    1
 -2       218       736       739      1902
 -1      1450    3    0    1
 -2       223        85       730       937
 -1      1451    3    0    1
 -2       733        78      1248      1259
 -1      1452    3    0    1
 -2       695       541       701       936
 -1      1453    3    0    1
 -2       658       992       539       666
 -1      1454    3    0    1
 -2       822       823      2332      2355
 -1      1455    3    0    1
 -2       754         7       757      1138
 -1      1456    3    0    1
 -2       488       489       587       600
 -1      1457    3    0    1
 -2       563       551       564       947
 -1      1458    3    0    1
 -2       388       119      1288      2584
 -1      1459    3    0    1
 -2       702      1008      2081      2113
 -1      1460    3    0    1
 -2      2106      2142      2241      2298
 -1      1461    3    0    1
 -2      3603      3220      3304      3679
 -1      1462    3    0    1
 -2      1386       301       341      2261
 -1      1463    3    0    1
 -2       446       358      1079      2198
 -1      1464    3    0    1
 -2       576       568      1287      2197
 -1      1465    3    0    1
 -2      3022      3006      3560      3214
 -1      1466    3    0    1
 -2      1066      1340       823      3516
 -1      1467    3    0    1
 -2        56       766      1199      1203
 -1      1468    3    0    1
 -2       494      1200      1041      1198
 -1      1469    3    0    1
 -2       610       607       965      2242
 -1      1470    3    0    1
 -2       133       132       588      1293
 -1      1471    3    0    1
 -2      1947      1997      2153      2155
 -1      1472    3    0    1
 -2      1932      1938      2018      2210
 -1      1473    3    0    1
 -2        56      1250       766       930
 -1      1474    3    0    1
 -2      1496      1661      1662      3293
 -1      1475    3    0    1
 -2       365      1956      2240      2336
 -1      1476    3    0    1
 -2      1175       551        27       910
 -1      1477    3    0    1
 -2      2801      2463      3059      3667
 -1      1478    3    0    1
 -2      1121      1369      2044      2079
 -1      1479    3    0    1
 -2      1333      1049      3511      3643
 -1      1480    3    0    1
 -2       730       531       737       933
 -1      1481    3    0    1
 -2       714       533      1021      1261
 -1      1482    3    0    1
 -2       628      2242      2250      2394
 -1      1483    3    0    1
 -2       531       532       737       933
 -1      1484    3    0    1
 -2       524      1306       640       523
 -1      1485    3    0    1
 -2      2171       327      2544      2564
 -1      1486    3    0    1
 -2       628      1302      2250      2464
 -1      1487    3    0    1
 -2       730       216      1028      1029
 -1      1488    3    0    1
 -2      2202       208      2222      2472
 -1      1489    3    0    1
 -2       755       759       897      1036
 -1      1490    3    0    1
 -2      2360      2297      2509      2778
 -1      1491    3    0    1
 -2      2738      1513      1676      1677
 -1      1492    3    0    1
 -2       517      1237      1232       974
 -1      1493    3    0    1
 -2      1400       858      1091      2129
 -1      1494    3    0    1
 -2       752       753      1032      2236
 -1      1495    3    0    1
 -2      1348      1077      2180      2302
 -1      1496    3    0    1
 -2       963       604      2097      2349
 -1      1497    3    0    1
 -2      1349      2122      2372      2446
 -1      1498    3    0    1
 -2      2063       227      2257      2263
 -1      1499    3    0    1
 -2      1674        57      1924      1925
 -1      1500    3    0    1
 -2       623       156       976       977
 -1      1501    3    0    1
 -2       516       623       636       977
 -1      1502    3    0    1
 -2       582       581       954      2409
 -1      1503    3    0    1
 -2       525       516       629       635
 -1      1504    3    0    1
 -2       516       525       627       635
 -1      1505    3    0    1
 -2       516       623       629       635
 -1      1506    3    0    1
 -2       156       394       629       976
 -1      1507    3    0    1
 -2       624       516       627       635
 -1      1508    3    0    1
 -2       541      1010       707       701
 -1      1509    3    0    1
 -2      1877       171      1887      1888
 -1      1510    3    0    1
 -2       679       681       999      2637
 -1      1511    3    0    1
 -2       599       959      2269      2421
 -1      1512    3    0    1
 -2       372      1935      2009      2123
 -1      1513    3    0    1
 -2       670        10       179      1143
 -1      1514    3    0    1
 -2      1283      2186      2249      2276
 -1      1515    3    0    1
 -2       419      1966      2124      2273
 -1      1516    3    0    1
 -2       659       670       995      1143
 -1      1517    3    0    1
 -2       287       315      1381      2163
 -1      1518    3    0    1
 -2       641        71       647      1245
 -1      1519    3    0    1
 -2      2025      2011      2166      2193
 -1      1520    3    0    1
 -2       292       352      1078      2088
 -1      1521    3    0    1
 -2      1026       397      2298      2300
 -1      1522    3    0    1
 -2       541       700      1009      1275
 -1      1523    3    0    1
 -2       537      1313       997       684
 -1      1524    3    0    1
 -2       441       362      1086      2065
 -1      1525    3    0    1
 -2      1979      1946      2062      2075
 -1      1526    3    0    1
 -2       454       641       653       654
 -1      1527    3    0    1
 -2       456       455       660       672
 -1      1528    3    0    1
 -2      3060      3061      3116      3592
 -1      1529    3    0    1
 -2      3556      2712      3581      3610
 -1      1530    3    0    1
 -2       801       365       368      1060
 -1      1531    3    0    1
 -2       980       647      1244      1245
 -1      1532    3    0    1
 -2       647        71      1244      1245
 -1      1533    3    0    1
 -2       452       451       682       690
 -1      1534    3    0    1
 -2       660        82       663      1141
 -1      1535    3    0    1
 -2      1654      1655      2938      3111
 -1      1536    3    0    1
 -2       859      1387      1092      2003
 -1      1537    3    0    1
 -2       639       979      1243      1246
 -1      1538    3    0    1
 -2      1952      1989      2000      2184
 -1      1539    3    0    1
 -2      2059      1934      2170      2311
 -1      1540    3    0    1
 -2       465       606       609      1155
 -1      1541    3    0    1
 -2       327       642       645       984
 -1      1542    3    0    1
 -2       624       635       975       978
 -1      1543    3    0    1
 -2      2304       947      2379      2416
 -1      1544    3    0    1
 -2       419      1314      2124      2310
 -1      1545    3    0    1
 -2      2234      1957      2068      1986
 -1      1546    3    0    1
 -2       464       641       647       653
 -1      1547    3    0    1
 -2      2538      1782      3221      3673
 -1      1548    3    0    1
 -2       641       647       653       985
 -1      1549    3    0    1
 -2       642       464       645       653
 -1      1550    3    0    1
 -2       454       464       642       653
 -1      1551    3    0    1
 -2       464       454       641       653
 -1      1552    3    0    1
 -2       964       607      2242      2464
 -1      1553    3    0    1
 -2       163       652       326       986
 -1      1554    3    0    1
 -2       648       640       979      2248
 -1      1555    3    0    1
 -2       931       624       973      1301
 -1      1556    3    0    1
 -2       454       641       654       986
 -1      1557    3    0    1
 -2       641       653       654       985
 -1      1558    3    0    1
 -2       452       678       682      1136
 -1      1559    3    0    1
 -2      2002      1984      2128      2214
 -1      1560    3    0    1
 -2      3616      2573      3671      3738
 -1      1561    3    0    1
 -2       327       642       984       987
 -1      1562    3    0    1
 -2      2189      2247      2339      2398
 -1      1563    3    0    1
 -2       539      1273       989      1272
 -1      1564    3    0    1
 -2       656       657       988      1274
 -1      1565    3    0    1
 -2       656        93       657      1274
 -1      1566    3    0    1
 -2      2266       298      2330      2438
 -1      1567    3    0    1
 -2        10       670       659      1143
 -1      1568    3    0    1
 -2       668       173       660      1142
 -1      1569    3    0    1
 -2      2693       908      2854      3561
 -1      1570    3    0    1
 -2       451       682       689      1001
 -1      1571    3    0    1
 -2       968       151      2244      2577
 -1      1572    3    0    1
 -2       694       535      1008      1314
 -1      1573    3    0    1
 -2       656       935       988       992
 -1      1574    3    0    1
 -2        14         3       682      1151
 -1      1575    3    0    1
 -2        78       733       736      1252
 -1      1576    3    0    1
 -2      1957      1986      2040      2172
 -1      1577    3    0    1
 -2        79        78       736      1252
 -1      1578    3    0    1
 -2       403       656       988       992
 -1      1579    3    0    1
 -2      2078       292      2088      2176
 -1      1580    3    0    1
 -2       408       413      2076      2223
 -1      1581    3    0    1
 -2      1597      1598      3323      1892
 -1      1582    3    0    1
 -2       866      1377      2169      2204
 -1      1583    3    0    1
 -2      2080      1999      2178      2256
 -1      1584    3    0    1
 -2      2019      1954      2052      2067
 -1      1585    3    0    1
 -2        11      1145       194       696
 -1      1586    3    0    1
 -2       941      1289      1931      2281
 -1      1587    3    0    1
 -2       453       461       754      1138
 -1      1588    3    0    1
 -2      2145       761      2263      2329
 -1      1589    3    0    1
 -2      1251       530      2562      2663
 -1      1590    3    0    1
 -2       455       659       665       671
 -1      1591    3    0    1
 -2      1977      2050      2120      2206
 -1      1592    3    0    1
 -2       660       455       663       671
 -1      1593    3    0    1
 -2      1375       863      2077      2305
 -1      1594    3    0    1
 -2       184       185       682       999
 -1      1595    3    0    1
 -2       498      1339      1067       822
 -1      1596    3    0    1
 -2       343      1994      2053      2252
 -1      1597    3    0    1
 -2       659       671       672       995
 -1      1598    3    0    1
 -2       671       659       994       995
 -1      1599    3    0    1
 -2       536      1314       535       694
 -1      1600    3    0    1
 -2      1347       288       289      2096
 -1      1601    3    0    1
 -2      1578      1418      2667      3422
 -1      1602    3    0    1
 -2      1027      2148      2220      2307
 -1      1603    3    0    1
 -2      1997      1946      2038      2153
 -1      1604    3    0    1
 -2      1001       185      3711      1919
 -1      1605    3    0    1
 -2       696       707      1009      1012
 -1      1606    3    0    1
 -2       962      2053      2138      2161
 -1      1607    3    0    1
 -2       686       678      1004      1136
 -1      1608    3    0    1
 -2      1335      1059      2093      2595
 -1      1609    3    0    1
 -2       172        93       656       935
 -1      1610    3    0    1
 -2      1080       447      1396      1953
 -1      1611    3    0    1
 -2       803      1056      2296      2327
 -1      1612    3    0    1
 -2       452       677       683       690
 -1      1613    3    0    1
 -2       736       733       743      1027
 -1      1614    3    0    1
 -2       450       554      2726      1736
 -1      1615    3    0    1
 -2       683       451      1134      1137
 -1      1616    3    0    1
 -2       541       695       707       708
 -1      1617    3    0    1
 -2      1145       696       899      1315
 -1      1618    3    0    1
 -2      1150       463      2636      2637
 -1      1619    3    0    1
 -2       676       538       537      1000
 -1      1620    3    0    1
 -2      2106      2142      2169      2241
 -1      1621    3    0    1
 -2       678         3       682      1136
 -1      1622    3    0    1
 -2      1120       286      1368      1950
 -1      1623    3    0    1
 -2       682       678       999      1151
 -1      1624    3    0    1
 -2       696       193       700      1007
 -1      1625    3    0    1
 -2       494      2629      2762      2832
 -1      1626    3    0    1
 -2         3        14       682      1136
 -1      1627    3    0    1
 -2         4       677       683      1137
 -1      1628    3    0    1
 -2       678       452      1004      1136
 -1      1629    3    0    1
 -2      1967      2021      2238      2288
 -1      1630    3    0    1
 -2      3569      3544      3715      3743
 -1      1631    3    0    1
 -2       677       688      1003      1137
 -1      1632    3    0    1
 -2       416      1011      2194      2268
 -1      1633    3    0    1
 -2       451       682      1001      1135
 -1      1634    3    0    1
 -2       451       683       689       690
 -1      1635    3    0    1
 -2       227       228      2257      2263
 -1      1636    3    0    1
 -2       870      1132      1380      2045
 -1      1637    3    0    1
 -2       537       676       684       997
 -1      1638    3    0    1
 -2      1984      1971      2002      2227
 -1      1639    3    0    1
 -2       660       671       993       996
 -1      1640    3    0    1
 -2       726       713      1019      1020
 -1      1641    3    0    1
 -2      1977      2007      2224      2239
 -1      1642    3    0    1
 -2       216      1023      1323      2354
 -1      1643    3    0    1
 -2       733       219       736      1025
 -1      1644    3    0    1
 -2      3645      3591      3661      3705
 -1      1645    3    0    1
 -2       609       618       967       970
 -1      1646    3    0    1
 -2      1989      1952      2112      2184
 -1      1647    3    0    1
 -2       704       194       696      1276
 -1      1648    3    0    1
 -2       452       677       690      1003
 -1      1649    3    0    1
 -2       683       451       689      1002
 -1      1650    3    0    1
 -2       713       398      1019      1020
 -1      1651    3    0    1
 -2      1007       699      2292      3431
 -1      1652    3    0    1
 -2       531       730      1029      1260
 -1      1653    3    0    1
 -2       194       704       200      1276
 -1      1654    3    0    1
 -2       682       678       690      1004
 -1      1655    3    0    1
 -2       420      1076      1345      2120
 -1      1656    3    0    1
 -2       692       192       693      1269
 -1      1657    3    0    1
 -2      2749      2563      3645      3705
 -1      1658    3    0    1
 -2       695        95       706      1277
 -1      1659    3    0    1
 -2       541      1010       701       936
 -1      1660    3    0    1
 -2       461      1038       762       751
 -1      1661    3    0    1
 -2       714       533       725       726
 -1      1662    3    0    1
 -2      1123       296      1085      2052
 -1      1663    3    0    1
 -2       704       696      1012      1276
 -1      1664    3    0    1
 -2      2030       979      2339      2398
 -1      1665    3    0    1
 -2      1971      2107      2227      2357
 -1      1666    3    0    1
 -2       535      1268       536      1005
 -1      1667    3    0    1
 -2       696       542       708      1012
 -1      1668    3    0    1
 -2       589      1294       956      2139
 -1      1669    3    0    1
 -2      1813      1485      1814      3327
 -1      1670    3    0    1
 -2        58        59       748      1149
 -1      1671    3    0    1
 -2      1306      2098      2231      2248
 -1      1672    3    0    1
 -2       416      1011      1019      2194
 -1      1673    3    0    1
 -2      3505      3506      2807      3658
 -1      1674    3    0    1
 -2      2420      2586      2673      3542
 -1      1675    3    0    1
 -2      1980      2032      2099      2338
 -1      1676    3    0    1
 -2      2746      2936      3119      3244
 -1      1677    3    0    1
 -2       716      2587      2685      2876
 -1      1678    3    0    1
 -2       415       193       700      1009
 -1      1679    3    0    1
 -2       193       696       700      1009
 -1      1680    3    0    1
 -2      1099       442      1402      2455
 -1      1681    3    0    1
 -2      2168       416      2342      2408
 -1      1682    3    0    1
 -2       973       625      1301      2192
 -1      1683    3    0    1
 -2      1065       819      1981      2023
 -1      1684    3    0    1
 -2       357      1382      2150      2173
 -1      1685    3    0    1
 -2       298      1124       432      2438
 -1      1686    3    0    1
 -2       162      1945      2155      2341
 -1      1687    3    0    1
 -2      1316       697       699      1992
 -1      1688    3    0    1
 -2       774      2031      2117      2209
 -1      1689    3    0    1
 -2       374      1962      1964      2232
 -1      1690    3    0    1
 -2       849      1079      2005      2126
 -1      1691    3    0    1
 -2       541       695       701       707
 -1      1692    3    0    1
 -2      2475      2511      3521      3738
 -1      1693    3    0    1
 -2       696       541       700       707
 -1      1694    3    0    1
 -2      3583      3526      3176      3189
 -1      1695    3    0    1
 -2       713       719       725      1019
 -1      1696    3    0    1
 -2       149       968      2191      2577
 -1      1697    3    0    1
 -2       701       705       936      1010
 -1      1698    3    0    1
 -2       707       696       708      1012
 -1      1699    3    0    1
 -2      2213       982      2282      2585
 -1      1700    3    0    1
 -2      1385       301      1373      1940
 -1      1701    3    0    1
 -2      1013       546       939      1281
 -1      1702    3    0    1
 -2      1975      1987      2007      2239
 -1      1703    3    0    1
 -2       211      2187      2367      2383
 -1      1704    3    0    1
 -2        86       714       718      1147
 -1      1705    3    0    1
 -2      1404       865      1103      2072
 -1      1706    3    0    1
 -2       959      2421      2425      2441
 -1      1707    3    0    1
 -2       728       938      1022      1026
 -1      1708    3    0    1
 -2       711       710       939      1017
 -1      1709    3    0    1
 -2       749       756      1031      2254
 -1      1710    3    0    1
 -2      2028       417      2113      2151
 -1      1711    3    0    1
 -2       453       461       755       762
 -1      1712    3    0    1
 -2       751       226       754       902
 -1      1713    3    0    1
 -2       733      1025      1252      1254
 -1      1714    3    0    1
 -2      2921      1853      1854      3340
 -1      1715    3    0    1
 -2      1313       934       677      1270
 -1      1716    3    0    1
 -2       718       721      1018      1265
 -1      1717    3    0    1
 -2       464       454       642      1139
 -1      1718    3    0    1
 -2       226       230       754       902
 -1      1719    3    0    1
 -2       523      1306       640       648
 -1      1720    3    0    1
 -2       691       698      1535      3437
 -1      1721    3    0    1
 -2       779      1038      1043      2406
 -1      1722    3    0    1
 -2       219       220      1030      2148
 -1      1723    3    0    1
 -2      1316      1006      1992      3599
 -1      1724    3    0    1
 -2       803       810      1337      2267
 -1      1725    3    0    1
 -2       198       192       692      1266
 -1      1726    3    0    1
 -2      2061      1982      2324      2382
 -1      1727    3    0    1
 -2       208       714       718      1018
 -1      1728    3    0    1
 -2      1995      1972      2013      2083
 -1      1729    3    0    1
 -2      1118       304      1096      2377
 -1      1730    3    0    1
 -2       712      1014      2047      2374
 -1      1731    3    0    1
 -2       343       974      1300      2001
 -1      1732    3    0    1
 -2      2181      1939      2210      2401
 -1      1733    3    0    1
 -2      2514      3513      3342      3698
 -1      1734    3    0    1
 -2      2051       983      2248      2348
 -1      1735    3    0    1
 -2       534       713       719       725
 -1      1736    3    0    1
 -2       625      1302       628      2640
 -1      1737    3    0    1
 -2      2031       774      2048      2209
 -1      1738    3    0    1
 -2       714       534       718       725
 -1      1739    3    0    1
 -2       714       534      1261      1265
 -1      1740    3    0    1
 -2       533       534       714       725
 -1      1741    3    0    1
 -2       534       533       713       725
 -1      1742    3    0    1
 -2       769       779      1043      1046
 -1      1743    3    0    1
 -2       967       144      2293      3536
 -1      1744    3    0    1
 -2       398       724       399      1020
 -1      1745    3    0    1
 -2      2270       259      2346      2381
 -1      1746    3    0    1
 -2       348       343      1300      2001
 -1      1747    3    0    1
 -2       533       713       726      1020
 -1      1748    3    0    1
 -2       215        96       728       938
 -1      1749    3    0    1
 -2       722       714      1021      1261
 -1      1750    3    0    1
 -2      1002       689      2134      2316
 -1      1751    3    0    1
 -2       971      2098      2280      2422
 -1      1752    3    0    1
 -2        71       164       641       903
 -1      1753    3    0    1
 -2       222       216       737      1323
 -1      1754    3    0    1
 -2       453       755       761       762
 -1      1755    3    0    1
 -2       708      1011      2042      2268
 -1      1756    3    0    1
 -2       713       724      1020      1262
 -1      1757    3    0    1
 -2      2055      1965      2215      2433
 -1      1758    3    0    1
 -2       410       180      1750      1801
 -1      1759    3    0    1
 -2        82       660       663      1256
 -1      1760    3    0    1
 -2       538      1310      1271      1000
 -1      1761    3    0    1
 -2      2149      2030      2247      2398
 -1      1762    3    0    1
 -2       761       754       762      1035
 -1      1763    3    0    1
 -2       624      1247       627       516
 -1      1764    3    0    1
 -2       632       624       978      1230
 -1      1765    3    0    1
 -2       614       606       970      1155
 -1      1766    3    0    1
 -2       882      1394      2153      2176
 -1      1767    3    0    1
 -2       880      1117      2046      2193
 -1      1768    3    0    1
 -2       730       531       933      1260
 -1      1769    3    0    1
 -2       769       526      1046      1249
 -1      1770    3    0    1
 -2       544      1026       738       543
 -1      1771    3    0    1
 -2      1385       857       875      2154
 -1      1772    3    0    1
 -2       538       997       676       537
 -1      1773    3    0    1
 -2      1508      1507      1585      2907
 -1      1774    3    0    1
 -2       393       344       969      2246
 -1      1775    3    0    1
 -2        78       733      1252      1254
 -1      1776    3    0    1
 -2      3034      2872      1861      3455
 -1      1777    3    0    1
 -2       325       377      1965      2162
 -1      1778    3    0    1
 -2       868      1131      1378      2303
 -1      1779    3    0    1
 -2      1401       291      1962      1985
 -1      1780    3    0    1
 -2       532       736       743      1027
 -1      1781    3    0    1
 -2      2454      2560      2578      3537
 -1      1782    3    0    1
 -2      1985      2058      2060      2232
 -1      1783    3    0    1
 -2      2136      2500      2514      3513
 -1      1784    3    0    1
 -2      1452      2891      3320      3481
 -1      1785    3    0    1
 -2       532       531       737       743
 -1      1786    3    0    1
 -2       531       532       736       743
 -1      1787    3    0    1
 -2      1762      2692      3418      3424
 -1      1788    3    0    1
 -2      2031      2048      2200      2209
 -1      1789    3    0    1
 -2      2081      1008      2082      2151
 -1      1790    3    0    1
 -2       531       730       737       743
 -1      1791    3    0    1
 -2      3196        68      1634      1633
 -1      1792    3    0    1
 -2       733       531       736       743
 -1      1793    3    0    1
 -2      1032      1326       753      2488
 -1      1794    3    0    1
 -2       531       730       744      1029
 -1      1795    3    0    1
 -2      2177      1969      2241      2298
 -1      1796    3    0    1
 -2      1034       514      1226      1228
 -1      1797    3    0    1
 -2       751       227      1033      1325
 -1      1798    3    0    1
 -2       746        60       747      1228
 -1      1799    3    0    1
 -2       645       649       984      1154
 -1      1800    3    0    1
 -2      2394      1297      2556      3710
 -1      1801    3    0    1
 -2      2545      2608      3504      3670
 -1      1802    3    0    1
 -2      3540       410      1801      3651
 -1      1803    3    0    1
 -2      2041       402      2135      2320
 -1      1804    3    0    1
 -2        18        19       609      1155
 -1      1805    3    0    1
 -2       571       949      1294      2139
 -1      1806    3    0    1
 -2       642       454       987      1139
 -1      1807    3    0    1
 -2       187       183      1313      2160
 -1      1808    3    0    1
 -2      1047       491      1051      1193
 -1      1809    3    0    1
 -2       798       784      1053      1054
 -1      1810    3    0    1
 -2      3096      1446      1852      3393
 -1      1811    3    0    1
 -2      1961      1976      2028      2082
 -1      1812    3    0    1
 -2       514       515       756      1034
 -1      1813    3    0    1
 -2       455       663       993      1141
 -1      1814    3    0    1
 -2       326       163      2205      2221
 -1      1815    3    0    1
 -2      1435      1599      3526      3449
 -1      1816    3    0    1
 -2       748        58       755      1229
 -1      1817    3    0    1
 -2       464       985       653       647
 -1      1818    3    0    1
 -2       455       994       671       665
 -1      1819    3    0    1
 -2         9      1143       659       898
 -1      1820    3    0    1
 -2      2074      2051      2218      2358
 -1      1821    3    0    1
 -2       678       999      1151      1153
 -1      1822    3    0    1
 -2        89        90       719      1280
 -1      1823    3    0    1
 -2       733       531       744      1030
 -1      1824    3    0    1
 -2       351       980      1306      2221
 -1      1825    3    0    1
 -2       219       220       733      1030
 -1      1826    3    0    1
 -2       659       455       665       898
 -1      1827    3    0    1
 -2      2051       983      2218      2248
 -1      1828    3    0    1
 -2       401      2024      2034      2064
 -1      1829    3    0    1
 -2       244      2384      2508      3696
 -1      1830    3    0    1
 -2      2668      3517      2977      3241
 -1      1831    3    0    1
 -2      2918      2624      3555      3300
 -1      1832    3    0    1
 -2       507       808       815      1061
 -1      1833    3    0    1
 -2      1941       357      2173      2183
 -1      1834    3    0    1
 -2       808       805       815      1061
 -1      1835    3    0    1
 -2      2058       860      1126       889
 -1      1836    3    0    1
 -2       461       748       762      1037
 -1      1837    3    0    1
 -2       943       558      2265      2413
 -1      1838    3    0    1
 -2      1968      2106      2169      2204
 -1      1839    3    0    1
 -2      1380       870      2045      2344
 -1      1840    3    0    1
 -2       227       751       754      1038
 -1      1841    3    0    1
 -2       428       229      1566      2835
 -1      1842    3    0    1
 -2        44        47       821       921
 -1      1843    3    0    1
 -2       787       794       913      1055
 -1      1844    3    0    1
 -2      2095      1965      2162      2215
 -1      1845    3    0    1
 -2      1982       852      2067      2382
 -1      1846    3    0    1
 -2       244       243       769      1329
 -1      1847    3    0    1
 -2       769        43      1198      1200
 -1      1848    3    0    1
 -2       782       783      1051      1193
 -1      1849    3    0    1
 -2       769       511       779       780
 -1      1850    3    0    1
 -2       787       254       790      1332
 -1      1851    3    0    1
 -2      1119       882      2153      2176
 -1      1852    3    0    1
 -2       510      1053       791       929
 -1      1853    3    0    1
 -2      2228      3496      2760      3583
 -1      1854    3    0    1
 -2       247        75       766      1250
 -1      1855    3    0    1
 -2      2481      2655      3576      3607
 -1      1856    3    0    1
 -2      2195      2006      2299      2362
 -1      1857    3    0    1
 -2       754       751      1033      1222
 -1      1858    3    0    1
 -2      1996      2006      2299      2399
 -1      1859    3    0    1
 -2      1051       792      2278      2313
 -1      1860    3    0    1
 -2        47        44       821      1207
 -1      1861    3    0    1
 -2      2098       622      2280      2358
 -1      1862    3    0    1
 -2      1322      2116      2798      3525
 -1      1863    3    0    1
 -2        44       821       824       921
 -1      1864    3    0    1
 -2      1454      1453      2609      2802
 -1      1865    3    0    1
 -2      1422      1652      3583      3456
 -1      1866    3    0    1
 -2       331       248       773      1331
 -1      1867    3    0    1
 -2       317       208      1018      2222
 -1      1868    3    0    1
 -2       810      1337      2020      2049
 -1      1869    3    0    1
 -2       699       679      1316      2185
 -1      1870    3    0    1
 -2      1485      1486      2975      3384
 -1      1871    3    0    1
 -2       564       563       947      2379
 -1      1872    3    0    1
 -2      1976      2028      2082      2206
 -1      1873    3    0    1
 -2      1501      2724      3523      2843
 -1      1874    3    0    1
 -2       773       777       930      1044
 -1      1875    3    0    1
 -2       526       766       780      1045
 -1      1876    3    0    1
 -2       547        98       548       943
 -1      1877    3    0    1
 -2      1954      1983      2039      2240
 -1      1878    3    0    1
 -2       511       766       773       779
 -1      1879    3    0    1
 -2       769       511       772       779
 -1      1880    3    0    1
 -2      1662      1661      2857      3293
 -1      1881    3    0    1
 -2       797       787       798      1055
 -1      1882    3    0    1
 -2       528       527      2480      2558
 -1      1883    3    0    1
 -2       217      1022      2196      2300
 -1      1884    3    0    1
 -2      2098      2051      2348      2358
 -1      1885    3    0    1
 -2      1037      1044      2405      2406
 -1      1886    3    0    1
 -2      1635      3524      3532      3599
 -1      1887    3    0    1
 -2       482      1182      1179       958
 -1      1888    3    0    1
 -2       491      1334       490       792
 -1      1889    3    0    1
 -2      1317       694       702      2168
 -1      1890    3    0    1
 -2        55      1219       800       927
 -1      1891    3    0    1
 -2       784       258       791      1053
 -1      1892    3    0    1
 -2        31       784       791       929
 -1      1893    3    0    1
 -2       818       363      1068      1338
 -1      1894    3    0    1
 -2       113       566       567       914
 -1      1895    3    0    1
 -2       927       508      1056      1060
 -1      1896    3    0    1
 -2       805       506       815       816
 -1      1897    3    0    1
 -2      1130       436      1377      2204
 -1      1898    3    0    1
 -2      2118       803      2296      2327
 -1      1899    3    0    1
 -2      3517      2830      2890      3568
 -1      1900    3    0    1
 -2       156       976       977      1936
 -1      1901    3    0    1
 -2       351       163       980      2221
 -1      1902    3    0    1
 -2       784       510       791       929
 -1      1903    3    0    1
 -2       481       784       797       798
 -1      1904    3    0    1
 -2       769       243       772      1041
 -1      1905    3    0    1
 -2      3606      3187      3687      3445
 -1      1906    3    0    1
 -2      2921      3553      3081      3466
 -1      1907    3    0    1
 -2       511      1044       779       773
 -1      1908    3    0    1
 -2      1533      1493      1534      3158
 -1      1909    3    0    1
 -2      1044       779      1045      2306
 -1      1910    3    0    1
 -2      1620      3170      3616      3738
 -1      1911    3    0    1
 -2       190      2125      2133      2316
 -1      1912    3    0    1
 -2      1963      2004      2122      2372
 -1      1913    3    0    1
 -2      1953      2037      2044      2101
 -1      1914    3    0    1
 -2       232      1036      2145      2334
 -1      1915    3    0    1
 -2       585       584       958      1179
 -1      1916    3    0    1
 -2       766       511       773       930
 -1      1917    3    0    1
 -2       766       248      1044      1045
 -1      1918    3    0    1
 -2      2309      1934      2373      2434
 -1      1919    3    0    1
 -2        39        31       791       929
 -1      1920    3    0    1
 -2       802       265      1062      1063
 -1      1921    3    0    1
 -2      1007       697      1315      1992
 -1      1922    3    0    1
 -2       588       596       917       961
 -1      1923    3    0    1
 -2       510       784       791       797
 -1      1924    3    0    1
 -2       119      2395      2549      2584
 -1      1925    3    0    1
 -2       787       510       790       797
 -1      1926    3    0    1
 -2       972      1305      2250      2456
 -1      1927    3    0    1
 -2       425      1885      3720      3457
 -1      1928    3    0    1
 -2       982      1242      1304      2643
 -1      1929    3    0    1
 -2       481       510       787       797
 -1      1930    3    0    1
 -2       510       481       784       797
 -1      1931    3    0    1
 -2       481       784       798      1054
 -1      1932    3    0    1
 -2      1972      1937      2010      2128
 -1      1933    3    0    1
 -2       259       258       784      1053
 -1      1934    3    0    1
 -2       570       578       954      1910
 -1      1935    3    0    1
 -2      1676      2812      3560      3415
 -1      1936    3    0    1
 -2       809       507      1062      1217
 -1      1937    3    0    1
 -2       319      3044       430      1715
 -1      1938    3    0    1
 -2       509      1337      1220       508
 -1      1939    3    0    1
 -2       334       787      1052      1055
 -1      1940    3    0    1
 -2      1379      2011      2083      2159
 -1      1941    3    0    1
 -2       658      2130      2140      2388
 -1      1942    3    0    1
 -2      1608       395      3630      2999
 -1      1943    3    0    1
 -2      1969      2110      2177      2415
 -1      1944    3    0    1
 -2       808       811      1061      1218
 -1      1945    3    0    1
 -2      1973       413      2025      2076
 -1      1946    3    0    1
 -2      1395       849      1079      2005
 -1      1947    3    0    1
 -2        49      1213        51       805
 -1      1948    3    0    1
 -2       312      1117      1110      2193
 -1      1949    3    0    1
 -2      2930      3011      1771      3296
 -1      1950    3    0    1
 -2       811        49       269      1218
 -1      1951    3    0    1
 -2       577       574      1187      1291
 -1      1952    3    0    1
 -2       100       336       942      2431
 -1      1953    3    0    1
 -2       396      2282      2544      3519
 -1      1954    3    0    1
 -2       628       607      2242      2394
 -1      1955    3    0    1
 -2       502      1338      1068       819
 -1      1956    3    0    1
 -2       445       306      2109      2119
 -1      1957    3    0    1
 -2      1574      1575      3064      3331
 -1      1958    3    0    1
 -2       921      1339       498      1205
 -1      1959    3    0    1
 -2       802      1217      1216       506
 -1      1960    3    0    1
 -2       508       927      1056      1219
 -1      1961    3    0    1
 -2       266       265       809      1337
 -1      1962    3    0    1
 -2       802       814      1063      1216
 -1      1963    3    0    1
 -2      3215      1687      1822      3254
 -1      1964    3    0    1
 -2       258       259       784      1048
 -1      1965    3    0    1
 -2      3503       599       954      2269
 -1      1966    3    0    1
 -2       509      1060       810       508
 -1      1967    3    0    1
 -2       672       689       995      2316
 -1      1968    3    0    1
 -2       296      1397      1082      2052
 -1      1969    3    0    1
 -2       547       548       912       943
 -1      1970    3    0    1
 -2       646       625       972      2250
 -1      1971    3    0    1
 -2       507       506       809       815
 -1      1972    3    0    1
 -2       506       507       808       815
 -1      1973    3    0    1
 -2       810      1060      2285      2296
 -1      1974    3    0    1
 -2      1297       965       607      2242
 -1      1975    3    0    1
 -2       506       802       809       815
 -1      1976    3    0    1
 -2       805       506       808       815
 -1      1977    3    0    1
 -2       595       591      1190      1296
 -1      1978    3    0    1
 -2       245      1044      2306      2405
 -1      1979    3    0    1
 -2      1941      1934      2173      2373
 -1      1980    3    0    1
 -2       809       507       815      1062
 -1      1981    3    0    1
 -2      1114       857      1090      2154
 -1      1982    3    0    1
 -2       506       802       816      1063
 -1      1983    3    0    1
 -2       183      1003      2144      2308
 -1      1984    3    0    1
 -2       824       827      1069      1210
 -1      1985    3    0    1
 -2       831       824       832      1069
 -1      1986    3    0    1
 -2      1987      2034      2064      2326
 -1      1987    3    0    1
 -2      2024      1987      2064      2344
 -1      1988    3    0    1
 -2        44       824      1207      1210
 -1      1989    3    0    1
 -2      3101      2567      3106      3229
 -1      1990    3    0    1
 -2       503      1065       922       502
 -1      1991    3    0    1
 -2       501       824      1069      1210
 -1      1992    3    0    1
 -2      1990      1343      1998      2120
 -1      1993    3    0    1
 -2       273       818       275      1211
 -1      1994    3    0    1
 -2       282       279       821      1067
 -1      1995    3    0    1
 -2       819       502       826      1068
 -1      1996    3    0    1
 -2      1302       625       628      2250
 -1      1997    3    0    1
 -2       821       279       824      1067
 -1      1998    3    0    1
 -2       550        99       945       946
 -1      1999    3    0    1
 -2      1338      2023      2237      2418
 -1      2000    3    0    1
 -2       105       561       108      1174
 -1      2001    3    0    1
 -2       122       382       952      2370
 -1      2002    3    0    1
 -2       500       820       825       832
 -1      2003    3    0    1
 -2        48       829       283      1209
 -1      2004    3    0    1
 -2       125      1932      2070      2217
 -1      2005    3    0    1
 -2       824       500       831       832
 -1      2006    3    0    1
 -2       312      1379      1973      2011
 -1      2007    3    0    1
 -2       805       815      1061      1064
 -1      2008    3    0    1
 -2      3503       388      1910      3736
 -1      2009    3    0    1
 -2      1940      2032      2099      2154
 -1      2010    3    0    1
 -2      1354      1355      2114      2174
 -1      2011    3    0    1
 -2       501       500       825       831
 -1      2012    3    0    1
 -2       500       501       824       831
 -1      2013    3    0    1
 -2      1972      2010      2013      2083
 -1      2014    3    0    1
 -2       365      1056      2240      2296
 -1      2015    3    0    1
 -2       551       560       910       947
 -1      2016    3    0    1
 -2      1072       832      2085      2391
 -1      2017    3    0    1
 -2       551       563       944       947
 -1      2018    3    0    1
 -2       293      1116      1106      2227
 -1      2019    3    0    1
 -2       197      1010      1011      2268
 -1      2020    3    0    1
 -2       637      1593      1594      2962
 -1      2021    3    0    1
 -2       823      2332      2355      2767
 -1      2022    3    0    1
 -2      1588      2652      3517      2896
 -1      2023    3    0    1
 -2       185       682      1001      1004
 -1      2024    3    0    1
 -2      1320       720      2226      2367
 -1      2025    3    0    1
 -2      2132      1957      2234      2330
 -1      2026    3    0    1
 -2       301      1385       341      1940
 -1      2027    3    0    1
 -2      1002      2134      2308      2316
 -1      2028    3    0    1
 -2       771       752      1330      2127
 -1      2029    3    0    1
 -2       486      1291       574       581
 -1      2030    3    0    1
 -2       666      2130      2247      2283
 -1      2031    3    0    1
 -2       815       798      2015      2411
 -1      2032    3    0    1
 -2      1981      1065      2368      2376
 -1      2033    3    0    1
 -2      1523      1522      2837      2857
 -1      2034    3    0    1
 -2       368      1060      1956      2285
 -1      2035    3    0    1
 -2      1338      1981      2023      2418
 -1      2036    3    0    1
 -2       582       569       952       953
 -1      2037    3    0    1
 -2       726      1020      2187      2220
 -1      2038    3    0    1
 -2       969       344      2191      2246
 -1      2039    3    0    1
 -2       587       593       599       959
 -1      2040    3    0    1
 -2       962      1949      2156      2161
 -1      2041    3    0    1
 -2       622       517       630       974
 -1      2042    3    0    1
 -2      1003       690      1010      2042
 -1      2043    3    0    1
 -2       284      1065      1981      2023
 -1      2044    3    0    1
 -2      1938      1932      2018      2054
 -1      2045    3    0    1
 -2      2019      1983      2067      2092
 -1      2046    3    0    1
 -2      1664      1453      1665      2802
 -1      2047    3    0    1
 -2      1941      2071      2114      2183
 -1      2048    3    0    1
 -2       408       675       413      1310
 -1      2049    3    0    1
 -2       304       431      2230      2377
 -1      2050    3    0    1
 -2       405      1993      2008      2030
 -1      2051    3    0    1
 -2       979      2030      2149      2398
 -1      2052    3    0    1
 -2      2178      1999      2255      2256
 -1      2053    3    0    1
 -2       914       566       951      1287
 -1      2054    3    0    1
 -2      1977      1345      1990      2120
 -1      2055    3    0    1
 -2      2612      1449      1549      2794
 -1      2056    3    0    1
 -2       274      2037      2104      2237
 -1      2057    3    0    1
 -2      1119       292      1101      2176
 -1      2058    3    0    1
 -2       413      1961      2076      2152
 -1      2059    3    0    1
 -2       500       820       832      1071
 -1      2060    3    0    1
 -2      2117       331      2321      2405
 -1      2061    3    0    1
 -2      1511      2667      3146      3372
 -1      2062    3    0    1
 -2      1580      1579      2897      1770
 -1      2063    3    0    1
 -2      1343       287      1344      2163
 -1      2064    3    0    1
 -2      1973       312      2011      2193
 -1      2065    3    0    1
 -2      2476      2536      2605      3633
 -1      2066    3    0    1
 -2       787       790      1196      1332
 -1      2067    3    0    1
 -2      3219      3142      3701      3719
 -1      2068    3    0    1
 -2      1023       216      2322      2354
 -1      2069    3    0    1
 -2      2047       399      2229      2374
 -1      2070    3    0    1
 -2      3504      3493      2558      3746
 -1      2071    3    0    1
 -2       122       116       948      2370
 -1      2072    3    0    1
 -2      2101      2037      2103      2104
 -1      2073    3    0    1
 -2      1458      1457      2763      2766
 -1      2074    3    0    1
 -2      2111      2112      2143      2184
 -1      2075    3    0    1
 -2      1077      2158      2180      2302
 -1      2076    3    0    1
 -2      2588      1417      1635      3599
 -1      2077    3    0    1
 -2       831      1069      2085      2444
 -1      2078    3    0    1
 -2      1991      1327      2254      2334
 -1      2079    3    0    1
 -2      2037      2043      2104      2418
 -1      2080    3    0    1
 -2      1954      2039      2219      2240
 -1      2081    3    0    1
 -2       217       397      1026      2300
 -1      2082    3    0    1
 -2       359        98      1283      2276
 -1      2083    3    0    1
 -2      1934      1941      2170      2373
 -1      2084    3    0    1
 -2       726       725      1021      2222
 -1      2085    3    0    1
 -2       961       599      1296      2421
 -1      2086    3    0    1
 -2       842       841      2114      2183
 -1      2087    3    0    1
 -2      1389       869      1108      2083
 -1      2088    3    0    1
 -2       821       282      1067      1339
 -1      2089    3    0    1
 -2      1569       709      1570      3412
 -1      2090    3    0    1
 -2       803       508       810      1060
 -1      2091    3    0    1
 -2       282      1072      2085      2391
 -1      2092    3    0    1
 -2       392       390      1905      3710
 -1      2093    3    0    1
 -2      2233      2121      2323      2369
 -1      2094    3    0    1
 -2       606       465       618       970
 -1      2095    3    0    1
 -2      2902      2900      3633      3380
 -1      2096    3    0    1
 -2       658       989      1974      2140
 -1      2097    3    0    1
 -2       819      1338      1981      2023
 -1      2098    3    0    1
 -2      2039       365      2240      2336
 -1      2099    3    0    1
 -2      2062      2218      2351      2352
 -1      2100    3    0    1
 -2      1127       890      2055      2207
 -1      2101    3    0    1
 -2       375      2031      2254      2405
 -1      2102    3    0    1
 -2       600       960      2421      2435
 -1      2103    3    0    1
 -2        46        48       825      1212
 -1      2104    3    0    1
 -2       957      1288      2453      3492
 -1      2105    3    0    1
 -2      1807      2782      1808      3180
 -1      2106    3    0    1
 -2      2469      3514      3534      3562
 -1      2107    3    0    1
 -2       689       672       996      2134
 -1      2108    3    0    1
 -2       175       989      1309      2135
 -1      2109    3    0    1
 -2      2062      1944      2218      2352
 -1      2110    3    0    1
 -2      1668      1667      3214      3415
 -1      2111    3    0    1
 -2      2169      2204      2241      2415
 -1      2112    3    0    1
 -2      1109      2109      2119      2344
 -1      2113    3    0    1
 -2       484      1290       568       576
 -1      2114    3    0    1
 -2       738       731      1026      2300
 -1      2115    3    0    1
 -2      2132      1957      2330      2438
 -1      2116    3    0    1
 -2       327      2291      2544      2564
 -1      2117    3    0    1
 -2       664       661       991      2090
 -1      2118    3    0    1
 -2       385       602       962       966
 -1      2119    3    0    1
 -2      1934      1941      2054      2071
 -1      2120    3    0    1
 -2      1934      2170      2311      2373
 -1      2121    3    0    1
 -2      1388       855       877      2181
 -1      2122    3    0    1
 -2       630      2097      2314      2349
 -1      2123    3    0    1
 -2      1938       339      2174      2401
 -1      2124    3    0    1
 -2       983       350      2218      2248
 -1      2125    3    0    1
 -2       183      2125      2144      2160
 -1      2126    3    0    1
 -2      1047       369      1935      2141
 -1      2127    3    0    1
 -2      1369       358       446      2198
 -1      2128    3    0    1
 -2      1947      1997      2108      2153
 -1      2129    3    0    1
 -2       370       249      2084      2366
 -1      2130    3    0    1
 -2       862      1127      1098      2207
 -1      2131    3    0    1
 -2       785       490       792      1047
 -1      2132    3    0    1
 -2       491       792      1047      1051
 -1      2133    3    0    1
 -2      1943      1393      2350      2363
 -1      2134    3    0    1
 -2       150       149      2191      2577
 -1      2135    3    0    1
 -2      1013      1933      2298       400
 -1      2136    3    0    1
 -2       491      1047      1192      1193
 -1      2137    3    0    1
 -2      1986      1957      2266      2330
 -1      2138    3    0    1
 -2       769      1041      1198      1329
 -1      2139    3    0    1
 -2       630      2097      2349      2390
 -1      2140    3    0    1
 -2       243       775       330      1881
 -1      2141    3    0    1
 -2       227       228      1033      2063
 -1      2142    3    0    1
 -2      1310       676      2152      2223
 -1      2143    3    0    1
 -2       627       631       975      1247
 -1      2144    3    0    1
 -2       364      2368      2376      2447
 -1      2145    3    0    1
 -2      1119       864       882      2176
 -1      2146    3    0    1
 -2      1946      1997      2038      2341
 -1      2147    3    0    1
 -2       647       980      1244      1306
 -1      2148    3    0    1
 -2      1045      2084      2321      2387
 -1      2149    3    0    1
 -2       142      2165      2277      2410
 -1      2150    3    0    1
 -2      2039       365      2219      2240
 -1      2151    3    0    1
 -2      2297      2211      2360      2509
 -1      2152    3    0    1
 -2      1015      2597      2603      3523
 -1      2153    3    0    1
 -2      1427      1428      1510      2561
 -1      2154    3    0    1
 -2       762       779      1044      2406
 -1      2155    3    0    1
 -2       765       764      1202      1328
 -1      2156    3    0    1
 -2       193       415      1007      2292
 -1      2157    3    0    1
 -2       356      2309      2311      2373
 -1      2158    3    0    1
 -2       514      1324      1228      1034
 -1      2159    3    0    1
 -2       991       661      1307      2090
 -1      2160    3    0    1
 -2       780      1045      2306      2387
 -1      2161    3    0    1
 -2      1084      1113      2150      2255
 -1      2162    3    0    1
 -2       392       144       965      2450
 -1      2163    3    0    1
 -2       743       730      1028      1029
 -1      2164    3    0    1
 -2       377      2162      2179      2182
 -1      2165    3    0    1
 -2      2131      1001      2134      2308
 -1      2166    3    0    1
 -2      1053       370      2084      2301
 -1      2167    3    0    1
 -2       586       955      2318      2425
 -1      2168    3    0    1
 -2      1020       726      1028      2220
 -1      2169    3    0    1
 -2      1019       725      2187      2222
 -1      2170    3    0    1
 -2       184      1004      2131      3732
 -1      2171    3    0    1
 -2      1063      2325      2444      2447
 -1      2172    3    0    1
 -2       404       995      1002      2316
 -1      2173    3    0    1
 -2      2168       702      2294      2310
 -1      2174    3    0    1
 -2      2051      1944      2094      2218
 -1      2175    3    0    1
 -2       401       400      1970      2343
 -1      2176    3    0    1
 -2      1991      1327      2179      2254
 -1      2177    3    0    1
 -2       979       162       983      1945
 -1      2178    3    0    1
 -2       535      1269      1008      1314
 -1      2179    3    0    1
 -2       326       980      2189      2339
 -1      2180    3    0    1
 -2      1973      2025      2046      2193
 -1      2181    3    0    1
 -2       983       350      2051      2218
 -1      2182    3    0    1
 -2      1007       699      1992      2292
 -1      2183    3    0    1
 -2      1947      2008      2078      2108
 -1      2184    3    0    1
 -2      1081       309      1383      2178
 -1      2185    3    0    1
 -2      1328      2069      2251      2366
 -1      2186    3    0    1
 -2       564       581       946      2146
 -1      2187    3    0    1
 -2      2168      1317      2268      2294
 -1      2188    3    0    1
 -2       583      1757      1758      3375
 -1      2189    3    0    1
 -2      1970      2016      2024      2343
 -1      2190    3    0    1
 -2       712       545       720      1013
 -1      2191    3    0    1
 -2        76       769       776      1249
 -1      2192    3    0    1
 -2       752      1032      1330      2127
 -1      2193    3    0    1
 -2      1404       436       437      2072
 -1      2194    3    0    1
 -2      2077      1965      2305      2362
 -1      2195    3    0    1
 -2      2080       309      2111      2112
 -1      2196    3    0    1
 -2      2722      2793      3637      3702
 -1      2197    3    0    1
 -2      1961       413      2025      2082
 -1      2198    3    0    1
 -2       798      1055      1061      2015
 -1      2199    3    0    1
 -2      2003      1942      2017      2165
 -1      2200    3    0    1
 -2      1545       430      3477      3730
 -1      2201    3    0    1
 -2       317      1016      1318      2202
 -1      2202    3    0    1
 -2      1056       365      1956      2296
 -1      2203    3    0    1
 -2      2154      1939      2157      2164
 -1      2204    3    0    1
 -2       230       754       902      1138
 -1      2205    3    0    1
 -2      1950       286      2126      2208
 -1      2206    3    0    1
 -2       104       360      2361      2378
 -1      2207    3    0    1
 -2       125      1292      2033      2070
 -1      2208    3    0    1
 -2       453      1036       761       755
 -1      2209    3    0    1
 -2       784       259      1053      1054
 -1      2210    3    0    1
 -2      3187      2823      3606      3687
 -1      2211    3    0    1
 -2         3       678      1151      1153
 -1      2212    3    0    1
 -2      2093      1059      2515      2595
 -1      2213    3    0    1
 -2      1752       410      3647      3651
 -1      2214    3    0    1
 -2      1877      3054      3356      1887
 -1      2215    3    0    1
 -2        58       759       231       897
 -1      2216    3    0    1
 -2       759        58       755       897
 -1      2217    3    0    1
 -2         9      1143        10       659
 -1      2218    3    0    1
 -2         9       669       177       898
 -1      2219    3    0    1
 -2       669         9       665       898
 -1      2220    3    0    1
 -2      2869      2793      3022      3560
 -1      2221    3    0    1
 -2      1312      3534      3640      3652
 -1      2222    3    0    1
 -2      1290      2365      2371      2445
 -1      2223    3    0    1
 -2      2142      2167      2196      2279
 -1      2224    3    0    1
 -2       226       758       234       902
 -1      2225    3    0    1
 -2       758       226       751       902
 -1      2226    3    0    1
 -2        15       647       651       903
 -1      2227    3    0    1
 -2        15        71       647       903
 -1      2228    3    0    1
 -2       467       963       466       904
 -1      2229    3    0    1
 -2       467       466       966      1157
 -1      2230    3    0    1
 -2       147       615       148       905
 -1      2231    3    0    1
 -2       615       147       611       905
 -1      2232    3    0    1
 -2      3606      2541      3240      3687
 -1      2233    3    0    1
 -2       573       552      2440      2549
 -1      2234    3    0    1
 -2       991       664      2420      2585
 -1      2235    3    0    1
 -2        35       570       574      1169
 -1      2236    3    0    1
 -2      3566      3520      3638      3404
 -1      2237    3    0    1
 -2      2234      1956      2317      2336
 -1      2238    3    0    1
 -2      2783      2727      1782      3679
 -1      2239    3    0    1
 -2       242      2029      2200      2235
 -1      2240    3    0    1
 -2        27      1175        28       556
 -1      2241    3    0    1
 -2        27       560       103       910
 -1      2242    3    0    1
 -2       560        27       551       910
 -1      2243    3    0    1
 -2       481       784      1054      1178
 -1      2244    3    0    1
 -2       784       796      1054      1178
 -1      2245    3    0    1
 -2       548        29       547       912
 -1      2246    3    0    1
 -2       550      1177        30       557
 -1      2247    3    0    1
 -2       480       943       479       912
 -1      2248    3    0    1
 -2       317      2202      2222      2485
 -1      2249    3    0    1
 -2        52       813        53      1217
 -1      2250    3    0    1
 -2        38       794       256       913
 -1      2251    3    0    1
 -2       794        38       787       913
 -1      2252    3    0    1
 -2       118       114       575      1186
 -1      2253    3    0    1
 -2       486      1291      1187       574
 -1      2254    3    0    1
 -2       569        34       580       915
 -1      2255    3    0    1
 -2       114        34       569       915
 -1      2256    3    0    1
 -2       587       598       960      1188
 -1      2257    3    0    1
 -2       117       578       120       916
 -1      2258    3    0    1
 -2       578       117       570       916
 -1      2259    3    0    1
 -2        23      1190       131       591
 -1      2260    3    0    1
 -2        23       596       137       917
 -1      2261    3    0    1
 -2       596        23       588       917
 -1      2262    3    0    1
 -2       353       958      1932      2424
 -1      2263    3    0    1
 -2       920      1328      1042       496
 -1      2264    3    0    1
 -2       238       764       920      1202
 -1      2265    3    0    1
 -2       766        56       773      1203
 -1      2266    3    0    1
 -2       497      1042       496       920
 -1      2267    3    0    1
 -2      1360       431      2075      2230
 -1      2268    3    0    1
 -2      1814      1813      3327      3382
 -1      2269    3    0    1
 -2      1014       712      1320      2367
 -1      2270    3    0    1
 -2       502      1065       819       826
 -1      2271    3    0    1
 -2       661      1308       990      3169
 -1      2272    3    0    1
 -2      1341       922       820      1212
 -1      2273    3    0    1
 -2       922      1341      1065       503
 -1      2274    3    0    1
 -2       503      1068       502       923
 -1      2275    3    0    1
 -2      1530      3548      1828      3368
 -1      2276    3    0    1
 -2        51        49       805      1215
 -1      2277    3    0    1
 -2       812       805      1064      1215
 -1      2278    3    0    1
 -2      2267       810      2285      2296
 -1      2279    3    0    1
 -2      1994      1943      2096      2260
 -1      2280    3    0    1
 -2       526       766      1045      1250
 -1      2281    3    0    1
 -2       511       769       772      1221
 -1      2282    3    0    1
 -2       772       775      1043      1221
 -1      2283    3    0    1
 -2       818       274       363      1338
 -1      2284    3    0    1
 -2        55      1219       264       800
 -1      2285    3    0    1
 -2       940       109      2365      2414
 -1      2286    3    0    1
 -2        38        37       787       928
 -1      2287    3    0    1
 -2        38       787       913       928
 -1      2288    3    0    1
 -2       793        37       262       928
 -1      2289    3    0    1
 -2        37       793       790       928
 -1      2290    3    0    1
 -2        39       795       257       929
 -1      2291    3    0    1
 -2       795        39       791       929
 -1      2292    3    0    1
 -2        56      1250       247       766
 -1      2293    3    0    1
 -2        56       777       246       930
 -1      2294    3    0    1
 -2       777        56       773       930
 -1      2295    3    0    1
 -2       971       623      1233      1236
 -1      2296    3    0    1
 -2       623        66      1233      1236
 -1      2297    3    0    1
 -2      2474      2290      3499      3631
 -1      2298    3    0    1
 -2      1457      1650      1651      2763
 -1      2299    3    0    1
 -2        85      1260       730       933
 -1      2300    3    0    1
 -2        85      1260       223       730
 -1      2301    3    0    1
 -2        85       741       221       933
 -1      2302    3    0    1
 -2       741        85       737       933
 -1      2303    3    0    1
 -2       675        91        92      1271
 -1      2304    3    0    1
 -2       538       997       537       934
 -1      2305    3    0    1
 -2       696        11       700      1275
 -1      2306    3    0    1
 -2       700       703      1009      1275
 -1      2307    3    0    1
 -2       288       289      2096      2350
 -1      2308    3    0    1
 -2        94      1277       695       936
 -1      2309    3    0    1
 -2        94      1277       202       695
 -1      2310    3    0    1
 -2        94       705       204       936
 -1      2311    3    0    1
 -2       705        94       701       936
 -1      2312    3    0    1
 -2       713       719      1014      1280
 -1      2313    3    0    1
 -2        85       730       937      1279
 -1      2314    3    0    1
 -2       730        85       737      1279
 -1      2315    3    0    1
 -2       746       325      1034      1324
 -1      2316    3    0    1
 -2      2689      2697      2752      3622
 -1      2317    3    0    1
 -2       710        97       711       939
 -1      2318    3    0    1
 -2        99       940      1286      2414
 -1      2319    3    0    1
 -2      1316      1992      2185      2190
 -1      2320    3    0    1
 -2       837      1348      1077      2158
 -1      2321    3    0    1
 -2      1117       314      1973      2193
 -1      2322    3    0    1
 -2      1934      1941      2071      2170
 -1      2323    3    0    1
 -2       291      1351      1350      2201
 -1      2324    3    0    1
 -2       484       576       568      1287
 -1      2325    3    0    1
 -2       566       356       951      1287
 -1      2326    3    0    1
 -2      2211      2297      2360      3178
 -1      2327    3    0    1
 -2      1338      1068       819      2272
 -1      2328    3    0    1
 -2      1058      2332      2093      3067
 -1      2329    3    0    1
 -2      2027      1991      2105      2322
 -1      2330    3    0    1
 -2       175       402       989      2135
 -1      2331    3    0    1
 -2      1319       316      3601      3704
 -1      2332    3    0    1
 -2       810       803      1060      2296
 -1      2333    3    0    1
 -2       417      1966      2050      2206
 -1      2334    3    0    1
 -2      1026       738      2036      2047
 -1      2335    3    0    1
 -2      2043      1951      2126      2216
 -1      2336    3    0    1
 -2       211       398      1014      2367
 -1      2337    3    0    1
 -2       477       947       551       910
 -1      2338    3    0    1
 -2       282      1072      2391      1917
 -1      2339    3    0    1
 -2      3695      1072      1916      1917
 -1      2340    3    0    1
 -2       282       821      1072      1917
 -1      2341    3    0    1
 -2       971       622      2098      2348
 -1      2342    3    0    1
 -2      1959      2089      2129      2287
 -1      2343    3    0    1
 -2       550       557       563       945
 -1      2344    3    0    1
 -2       550        99       557       945
 -1      2345    3    0    1
 -2       850      1396       884      2345
 -1      2346    3    0    1
 -2       561       104       360       945
 -1      2347    3    0    1
 -2       104       561       557       945
 -1      2348    3    0    1
 -2        99       562       109       946
 -1      2349    3    0    1
 -2       562        99       550       946
 -1      2350    3    0    1
 -2      1047       369      2141      2172
 -1      2351    3    0    1
 -2        98      2175      2212      2276
 -1      2352    3    0    1
 -2      2104      1338      2237      2418
 -1      2353    3    0    1
 -2       274      2037      2101      2104
 -1      2354    3    0    1
 -2      1955      1086       362      2065
 -1      2355    3    0    1
 -2       398      1019      1020      2187
 -1      2356    3    0    1
 -2      1291       119      3735      1929
 -1      2357    3    0    1
 -2      1008      2081      2082      2337
 -1      2358    3    0    1
 -2       816       831      1063      2444
 -1      2359    3    0    1
 -2      1487      1488      1547      2620
 -1      2360    3    0    1
 -2      2997      3571      3247      3669
 -1      2361    3    0    1
 -2      1300       348      2001      2358
 -1      2362    3    0    1
 -2      1060      1956      2285      2296
 -1      2363    3    0    1
 -2      1320       210      2226      2342
 -1      2364    3    0    1
 -2      3183      3198      3221      3673
 -1      2365    3    0    1
 -2       368      1956      2068      2285
 -1      2366    3    0    1
 -2      1492      1491      1632      2750
 -1      2367    3    0    1
 -2       248       331      1044      2306
 -1      2368    3    0    1
 -2      1957      2068      1986      2172
 -1      2369    3    0    1
 -2       569       575       581       952
 -1      2370    3    0    1
 -2       569       116       575       952
 -1      2371    3    0    1
 -2       569       581       582       952
 -1      2372    3    0    1
 -2       960      2244      2425      2435
 -1      2373    3    0    1
 -2       579       122       382       952
 -1      2374    3    0    1
 -2       122       579       575       952
 -1      2375    3    0    1
 -2      3503       954      1909      1910
 -1      2376    3    0    1
 -2       191       183      1003      2144
 -1      2377    3    0    1
 -2       581      1291      2409      3442
 -1      2378    3    0    1
 -2      2146       581      2409      3442
 -1      2379    3    0    1
 -2       606       965      1163      1297
 -1      2380    3    0    1
 -2      1290       568       576      2197
 -1      2381    3    0    1
 -2       482       483       586       955
 -1      2382    3    0    1
 -2       588       132       961      1296
 -1      2383    3    0    1
 -2       867       879      1984      2227
 -1      2384    3    0    1
 -2      1947      1993      2108      2149
 -1      2385    3    0    1
 -2       587        32      1180      1181
 -1      2386    3    0    1
 -2       599       588       961      1296
 -1      2387    3    0    1
 -2      2075      1979      2230      2352
 -1      2388    3    0    1
 -2      2570      2484      2650      3554
 -1      2389    3    0    1
 -2      1125       300      1374      2287
 -1      2390    3    0    1
 -2      2226      2326      2342      2408
 -1      2391    3    0    1
 -2      2181      2210      2217      2401
 -1      2392    3    0    1
 -2       585       125       353       958
 -1      2393    3    0    1
 -2       125       585       584       958
 -1      2394    3    0    1
 -2       483      1292      1182       482
 -1      2395    3    0    1
 -2       666       992      2247      2426
 -1      2396    3    0    1
 -2      1403       305       443      2288
 -1      2397    3    0    1
 -2       354       135       593       959
 -1      2398    3    0    1
 -2       593       135       597       959
 -1      2399    3    0    1
 -2      1345      1076      1990      2120
 -1      2400    3    0    1
 -2       587       599       600       960
 -1      2401    3    0    1
 -2       126       598       134       960
 -1      2402    3    0    1
 -2       598       126       587       960
 -1      2403    3    0    1
 -2      2509      2808      3567      3658
 -1      2404    3    0    1
 -2      3536       139      1804      1805
 -1      2405    3    0    1
 -2       967       144      3536      1805
 -1      2406    3    0    1
 -2       286      1073      1074      2143
 -1      2407    3    0    1
 -2       386       139      3536      1805
 -1      2408    3    0    1
 -2      2569      3108      3273      3413
 -1      2409    3    0    1
 -2       142       385       602       962
 -1      2410    3    0    1
 -2       142       602       603       962
 -1      2411    3    0    1
 -2       470       609       617       967
 -1      2412    3    0    1
 -2      2848      2644      3167      3688
 -1      2413    3    0    1
 -2       466       604       612       963
 -1      2414    3    0    1
 -2      1983      2039      2240      2336
 -1      2415    3    0    1
 -2       385      1940      2032      2338
 -1      2416    3    0    1
 -2       602       603       962      1159
 -1      2417    3    0    1
 -2      2094      2074      2350      2363
 -1      2418    3    0    1
 -2       149       605       611      1299
 -1      2419    3    0    1
 -2       394       156       629      1303
 -1      2420    3    0    1
 -2       272      1063      2447      2452
 -1      2421    3    0    1
 -2      1500      1499      1649      3156
 -1      2422    3    0    1
 -2      1986      1957      2040      2340
 -1      2423    3    0    1
 -2      1371       447       448      2382
 -1      2424    3    0    1
 -2      3006       608      3560      3214
 -1      2425    3    0    1
 -2      1025      1254      1321      2480
 -1      2426    3    0    1
 -2      1998      1976      2046      2163
 -1      2427    3    0    1
 -2      3590      3520      3619      3627
 -1      2428    3    0    1
 -2       815      1061      1064      2364
 -1      2429    3    0    1
 -2      1637      1636      1655      2981
 -1      2430    3    0    1
 -2       604       467       466       966
 -1      2431    3    0    1
 -2       467       604       962       966
 -1      2432    3    0    1
 -2       279       282      1072      2085
 -1      2433    3    0    1
 -2      1016       717      2274      2275
 -1      2434    3    0    1
 -2      1746      3093      3675      3459
 -1      2435    3    0    1
 -2      3544      3569      3594      3604
 -1      2436    3    0    1
 -2      2132      2330      2423      2438
 -1      2437    3    0    1
 -2      2034       419      2124      2273
 -1      2438    3    0    1
 -2       615       149       151       968
 -1      2439    3    0    1
 -2       149       615       611       968
 -1      2440    3    0    1
 -2      2186       549      2249      2365
 -1      2441    3    0    1
 -2       150       149       605       969
 -1      2442    3    0    1
 -2       605       611       618       969
 -1      2443    3    0    1
 -2       968       617       611       969
 -1      2444    3    0    1
 -2       611       617       618       969
 -1      2445    3    0    1
 -2       605       149       611       969
 -1      2446    3    0    1
 -2       611       149       968       969
 -1      2447    3    0    1
 -2       150       616       344       969
 -1      2448    3    0    1
 -2       616       150       605       969
 -1      2449    3    0    1
 -2       217      2006      2147      2399
 -1      2450    3    0    1
 -2      1299       963       612      2245
 -1      2451    3    0    1
 -2       397      2106      2142      2279
 -1      2452    3    0    1
 -2       409       170       660      1307
 -1      2453    3    0    1
 -2       849      1395       883      2005
 -1      2454    3    0    1
 -2      2191       344      2245      2246
 -1      2455    3    0    1
 -2      2050       419      2239      2273
 -1      2456    3    0    1
 -2       522      1240      2540      2643
 -1      2457    3    0    1
 -2       187       190      1002      2125
 -1      2458    3    0    1
 -2      2544       396      3519      3588
 -1      2459    3    0    1
 -2       708       707      1012      2188
 -1      2460    3    0    1
 -2       311      1115      1087      2174
 -1      2461    3    0    1
 -2       520      1300       517       622
 -1      2462    3    0    1
 -2      3516      2694      2902      3553
 -1      2463    3    0    1
 -2       520      1300      1237       517
 -1      2464    3    0    1
 -2      1625      1469      1626      2838
 -1      2465    3    0    1
 -2      1996      1967      2021      2238
 -1      2466    3    0    1
 -2      3502       970      1904      1905
 -1      2467    3    0    1
 -2       623       629       635       976
 -1      2468    3    0    1
 -2       623       156       629       976
 -1      2469    3    0    1
 -2       642       327       645      1304
 -1      2470    3    0    1
 -2       163       351       647       985
 -1      2471    3    0    1
 -2       624       516       636       978
 -1      2472    3    0    1
 -2       623      1238       516       629
 -1      2473    3    0    1
 -2       516       623       977      1231
 -1      2474    3    0    1
 -2       394       393       629       976
 -1      2475    3    0    1
 -2       629       393       633       976
 -1      2476    3    0    1
 -2       635       623       976       977
 -1      2477    3    0    1
 -2       623       635       636       977
 -1      2478    3    0    1
 -2       156       634       345       977
 -1      2479    3    0    1
 -2       634       156       623       977
 -1      2480    3    0    1
 -2       178       326       986      2205
 -1      2481    3    0    1
 -2       396       347      3588      1890
 -1      2482    3    0    1
 -2      2138      1942      2165      2410
 -1      2483    3    0    1
 -2      2544       396      3588      1890
 -1      2484    3    0    1
 -2       464       645       653       984
 -1      2485    3    0    1
 -2       365      1056      2219      2240
 -1      2486    3    0    1
 -2       396       327       645       984
 -1      2487    3    0    1
 -2       649       645       984      1890
 -1      2488    3    0    1
 -2       606        18       609      1155
 -1      2489    3    0    1
 -2      2612      1449      2731      3208
 -1      2490    3    0    1
 -2       997       183      2144      2160
 -1      2491    3    0    1
 -2      2581      2395      3733      3735
 -1      2492    3    0    1
 -2      1388       299      1372      2164
 -1      2493    3    0    1
 -2       380       100      3733      3735
 -1      2494    3    0    1
 -2       659       175       989      1309
 -1      2495    3    0    1
 -2      1965       325      2162      2362
 -1      2496    3    0    1
 -2      1258      1307      2562      2663
 -1      2497    3    0    1
 -2      1943      2096      2260      2350
 -1      2498    3    0    1
 -2      2532      2672      3516      3553
 -1      2499    3    0    1
 -2      2028      1998      2120      2206
 -1      2500    3    0    1
 -2       974       630      2314      2349
 -1      2501    3    0    1
 -2       639       979       983      1243
 -1      2502    3    0    1
 -2       162       638       639       983
 -1      2503    3    0    1
 -2       162       639       979       983
 -1      2504    3    0    1
 -2       645       642       653       984
 -1      2505    3    0    1
 -2      1984      1972      2128      2214
 -1      2506    3    0    1
 -2       369      1935      2141      2312
 -1      2507    3    0    1
 -2      2014      1935      2040      2312
 -1      2508    3    0    1
 -2       823       806      1058      2093
 -1      2509    3    0    1
 -2      2982      3598      3599      3448
 -1      2510    3    0    1
 -2      2982      3182      3598      3448
 -1      2511    3    0    1
 -2      1738      3014      3039      1891
 -1      2512    3    0    1
 -2      1347      1346      2096      2253
 -1      2513    3    0    1
 -2       351       349       647       985
 -1      2514    3    0    1
 -2       647       349       651       985
 -1      2515    3    0    1
 -2      1944      2062      2075      2352
 -1      2516    3    0    1
 -2       652       163       641       986
 -1      2517    3    0    1
 -2       653       642       654       987
 -1      2518    3    0    1
 -2      1478      1477      1660      3150
 -1      2519    3    0    1
 -2      3501      1410      1529      3718
 -1      2520    3    0    1
 -2       659       175       665       994
 -1      2521    3    0    1
 -2       659       665       671       994
 -1      2522    3    0    1
 -2       663       660       671       993
 -1      2523    3    0    1
 -2       658       992       988       539
 -1      2524    3    0    1
 -2       540       539       658       988
 -1      2525    3    0    1
 -2       403       656       657       988
 -1      2526    3    0    1
 -2       170       660       663       993
 -1      2527    3    0    1
 -2       733      1025      1254      1321
 -1      2528    3    0    1
 -2       539      1274       935       988
 -1      2529    3    0    1
 -2       539       540       658       989
 -1      2530    3    0    1
 -2       989       659      1272      1273
 -1      2531    3    0    1
 -2       658      1309       666       539
 -1      2532    3    0    1
 -2       671       672       995      2041
 -1      2533    3    0    1
 -2       674      1000      1271      1310
 -1      2534    3    0    1
 -2       162       350       983      1945
 -1      2535    3    0    1
 -2      1326       753      2116      2236
 -1      2536    3    0    1
 -2        82      1258       660      1256
 -1      2537    3    0    1
 -2       336       106      3695      1916
 -1      2538    3    0    1
 -2      1951      2005      2126      2216
 -1      2539    3    0    1
 -2       345       971      2098      2348
 -1      2540    3    0    1
 -2       398       211      2187      2367
 -1      2541    3    0    1
 -2      1986      2040      2266      2340
 -1      2542    3    0    1
 -2      1302      3498      3589      3629
 -1      2543    3    0    1
 -2       455       663       671       993
 -1      2544    3    0    1
 -2       959       135      2269      2441
 -1      2545    3    0    1
 -2      1114      2154      2157      2164
 -1      2546    3    0    1
 -2      1719      3052      3281      3285
 -1      2547    3    0    1
 -2       985       654       986      2115
 -1      2548    3    0    1
 -2      1056      2296      2327      2443
 -1      2549    3    0    1
 -2       327       987      3518      1799
 -1      2550    3    0    1
 -2       166       327      3518      1799
 -1      2551    3    0    1
 -2       642       650       987      1799
 -1      2552    3    0    1
 -2       456       659       995      1143
 -1      2553    3    0    1
 -2       660       456       672       996
 -1      2554    3    0    1
 -2       669       175       178       994
 -1      2555    3    0    1
 -2       175       669       665       994
 -1      2556    3    0    1
 -2       659       175       994       995
 -1      2557    3    0    1
 -2       738      1026      2036      2300
 -1      2558    3    0    1
 -2       997      2144      2152      2160
 -1      2559    3    0    1
 -2      1950       359      2175      2216
 -1      2560    3    0    1
 -2       402       670       404       995
 -1      2561    3    0    1
 -2       670       402       659       995
 -1      2562    3    0    1
 -2      3521      2687      3671      3738
 -1      2563    3    0    1
 -2       604       963      2097      2161
 -1      2564    3    0    1
 -2       157       158       973      2192
 -1      2565    3    0    1
 -2       681       679       999      2333
 -1      2566    3    0    1
 -2      1997      1947      2149      2155
 -1      2567    3    0    1
 -2      1292       125      1932      2286
 -1      2568    3    0    1
 -2       187       183       683      1313
 -1      2569    3    0    1
 -2       243      1041      1329      2284
 -1      2570    3    0    1
 -2      3052      1719      1802      1803
 -1      2571    3    0    1
 -2      1369       446      2079      2198
 -1      2572    3    0    1
 -2      1499      1500      1658      2768
 -1      2573    3    0    1
 -2      2014      1958      2287      2340
 -1      2574    3    0    1
 -2       999      1151      1153      2637
 -1      2575    3    0    1
 -2       681       999      2090      2565
 -1      2576    3    0    1
 -2      1029       744      2329      2439
 -1      2577    3    0    1
 -2       719       534      1019      1264
 -1      2578    3    0    1
 -2       538      1310      1000       676
 -1      2579    3    0    1
 -2       415      2292      2521      3731
 -1      2580    3    0    1
 -2       163       326      2189      2221
 -1      2581    3    0    1
 -2      1317      2268       197       201
 -1      2582    3    0    1
 -2       162       979      2149      2398
 -1      2583    3    0    1
 -2      1053       797      2270      2301
 -1      2584    3    0    1
 -2        77      1511      1512      3484
 -1      2585    3    0    1
 -2      1577      3419      3467      3484
 -1      2586    3    0    1
 -2       546      1320       545       720
 -1      2587    3    0    1
 -2      1042       242      2200      2209
 -1      2588    3    0    1
 -2       687       187       190      1002
 -1      2589    3    0    1
 -2       187       687       683      1002
 -1      2590    3    0    1
 -2      1334      2278      2366      2389
 -1      2591    3    0    1
 -2       677       183       683      1003
 -1      2592    3    0    1
 -2       677       683       690      1003
 -1      2593    3    0    1
 -2       689       683      1002      1003
 -1      2594    3    0    1
 -2       683       689       690      1003
 -1      2595    3    0    1
 -2       183       187       683      1003
 -1      2596    3    0    1
 -2       683       187      1002      1003
 -1      2597    3    0    1
 -2       183       688       191      1003
 -1      2598    3    0    1
 -2      1116       867      1106      2227
 -1      2599    3    0    1
 -2       688       183       677      1003
 -1      2600    3    0    1
 -2      2141      2068      2172      2312
 -1      2601    3    0    1
 -2      1124      2266      2340      2438
 -1      2602    3    0    1
 -2      1005       695      1267      1268
 -1      2603    3    0    1
 -2      1017       401      2034      2326
 -1      2604    3    0    1
 -2       694      1317       702       535
 -1      2605    3    0    1
 -2      1317       201       197       695
 -1      2606    3    0    1
 -2      3512      1749      3723      3728
 -1      2607    3    0    1
 -2       197       695       701      1317
 -1      2608    3    0    1
 -2      2212        98      2276      2413
 -1      2609    3    0    1
 -2      2364      1064      2444      2594
 -1      2610    3    0    1
 -2      1941      2054      2071      2183
 -1      2611    3    0    1
 -2       617       618       969      2191
 -1      2612    3    0    1
 -2        11      1145       696       899
 -1      2613    3    0    1
 -2       695        94       701      1267
 -1      2614    3    0    1
 -2       153       395      3570      3611
 -1      2615    3    0    1
 -2      1495      1537      1538      2960
 -1      2616    3    0    1
 -2       408      1937      1995      2035
 -1      2617    3    0    1
 -2      1307      2090      2565      3441
 -1      2618    3    0    1
 -2      1327       232      2254      2334
 -1      2619    3    0    1
 -2       678       686      1004      1923
 -1      2620    3    0    1
 -2      3732      1004      1922      1923
 -1      2621    3    0    1
 -2       695       701       707      1010
 -1      2622    3    0    1
 -2       695       197       701      1010
 -1      2623    3    0    1
 -2       695       706      1011      1277
 -1      2624    3    0    1
 -2       534       714       718      1265
 -1      2625    3    0    1
 -2       282      1067      1339      2355
 -1      2626    3    0    1
 -2       705       197       414      1010
 -1      2627    3    0    1
 -2       197       705       701      1010
 -1      2628    3    0    1
 -2       695       707       708      1011
 -1      2629    3    0    1
 -2       201       197       695      1011
 -1      2630    3    0    1
 -2       695       197      1010      1011
 -1      2631    3    0    1
 -2      1351       839      1350      2201
 -1      2632    3    0    1
 -2      1022       731      2105      2300
 -1      2633    3    0    1
 -2       292      1078      1359      2088
 -1      2634    3    0    1
 -2       201       706       416      1011
 -1      2635    3    0    1
 -2       706       201       695      1011
 -1      2636    3    0    1
 -2       345       349      2098      2231
 -1      2637    3    0    1
 -2       398       211       713      1019
 -1      2638    3    0    1
 -2       718       317      1018      1915
 -1      2639    3    0    1
 -2       534       718       725      1018
 -1      2640    3    0    1
 -2       545       546       720      1013
 -1      2641    3    0    1
 -2       317       208       718      1018
 -1      2642    3    0    1
 -2       546      1017       720      1013
 -1      2643    3    0    1
 -2      2115       653      2243      2417
 -1      2644    3    0    1
 -2       823      1058      1340      2093
 -1      2645    3    0    1
 -2      1100      1403      2077      2288
 -1      2646    3    0    1
 -2       448       447      1080      1953
 -1      2647    3    0    1
 -2      1397       852      1082      1982
 -1      2648    3    0    1
 -2       986       654      2205      2291
 -1      2649    3    0    1
 -2       416       201      1011      2268
 -1      2650    3    0    1
 -2       969       976      2246      2393
 -1      2651    3    0    1
 -2      2701      2855      3265      3636
 -1      2652    3    0    1
 -2      1449      2612      2731      2794
 -1      2653    3    0    1
 -2      1994      2158      2252      2253
 -1      2654    3    0    1
 -2      2626      1497      2724      3523
 -1      2655    3    0    1
 -2      1010       197      2042      2268
 -1      2656    3    0    1
 -2       909       475      1171      2599
 -1      2657    3    0    1
 -2      2920      3187      3240      3687
 -1      2658    3    0    1
 -2       718       714       725      1018
 -1      2659    3    0    1
 -2      2058      2012      2060      2232
 -1      2660    3    0    1
 -2       419       417      1314      2113
 -1      2661    3    0    1
 -2       841      1355       842      2114
 -1      2662    3    0    1
 -2      1942      2017      2165      2410
 -1      2663    3    0    1
 -2      1329      2508      2781      3696
 -1      2664    3    0    1
 -2       653       636       984      2243
 -1      2665    3    0    1
 -2      2059      1934      2071      2170
 -1      2666    3    0    1
 -2      1072       944      3695      1916
 -1      2667    3    0    1
 -2       716      1509      3475      3483
 -1      2668    3    0    1
 -2       713       725       726      1019
 -1      2669    3    0    1
 -2      2454      2355      2560      3537
 -1      2670    3    0    1
 -2       211       210       719      1019
 -1      2671    3    0    1
 -2       719       210       723      1019
 -1      2672    3    0    1
 -2       860      1095      2058      2060
 -1      2673    3    0    1
 -2       724       398       713      1020
 -1      2674    3    0    1
 -2       725       714       726      1021
 -1      2675    3    0    1
 -2       128       424      1797      3703
 -1      2676    3    0    1
 -2      3578       128      3631      3703
 -1      2677    3    0    1
 -2      3566      3539      3631      3703
 -1      2678    3    0    1
 -2       737       741       933      1028
 -1      2679    3    0    1
 -2       191       997      2144      2337
 -1      2680    3    0    1
 -2       544      1026       543       938
 -1      2681    3    0    1
 -2       217       728       729      1022
 -1      2682    3    0    1
 -2       747       325       746      1324
 -1      2683    3    0    1
 -2      1297       965      2242      2450
 -1      2684    3    0    1
 -2      1966       419      2124      2310
 -1      2685    3    0    1
 -2      1582      1581      2878      3040
 -1      2686    3    0    1
 -2       437       436      1130      2204
 -1      2687    3    0    1
 -2      2226      1320      2367      2383
 -1      2688    3    0    1
 -2      1778      1620      1779      3245
 -1      2689    3    0    1
 -2       725       726      1019      2187
 -1      2690    3    0    1
 -2      3558      2875      3451      3727
 -1      2691    3    0    1
 -2      2470      2545      3641      3670
 -1      2692    3    0    1
 -2       717      1318       715      2597
 -1      2693    3    0    1
 -2       807      1335      1059      2093
 -1      2694    3    0    1
 -2      1306       648      2098      2248
 -1      2695    3    0    1
 -2       336       100       944      2304
 -1      2696    3    0    1
 -2       493      1197      2678      2789
 -1      2697    3    0    1
 -2       543       731      1022      1026
 -1      2698    3    0    1
 -2      3524      1635      3532      3050
 -1      2699    3    0    1
 -2      1944      2051      2062      2218
 -1      2700    3    0    1
 -2      1113       853      1084      2150
 -1      2701    3    0    1
 -2      1946       162      2155      2341
 -1      2702    3    0    1
 -2      1903      3709       218      3507
 -1      2703    3    0    1
 -2       218      3507      1902      1903
 -1      2704    3    0    1
 -2       730       737       743      1028
 -1      2705    3    0    1
 -2       730       216       737      1028
 -1      2706    3    0    1
 -2       201       416      2168      2268
 -1      2707    3    0    1
 -2       741       222       321      1028
 -1      2708    3    0    1
 -2       222       741       737      1028
 -1      2709    3    0    1
 -2      2219      1954      2240      2324
 -1      2710    3    0    1
 -2       730       743       744      1029
 -1      2711    3    0    1
 -2       216       742       379      1029
 -1      2712    3    0    1
 -2       742       216       730      1029
 -1      2713    3    0    1
 -2       743       733       744      1030
 -1      2714    3    0    1
 -2      1967      2077      2238      2362
 -1      2715    3    0    1
 -2      1976      1990      1998      2206
 -1      2716    3    0    1
 -2      1948      2150      2255      2434
 -1      2717    3    0    1
 -2       210       211      1320      2383
 -1      2718    3    0    1
 -2      1117       312       314      2193
 -1      2719    3    0    1
 -2       515       514       756      1031
 -1      2720    3    0    1
 -2      2993      2461      3068      3638
 -1      2721    3    0    1
 -2       329       427      2949      1908
 -1      2722    3    0    1
 -2      1980      2033      2057      2070
 -1      2723    3    0    1
 -2       232       748       755      1327
 -1      2724    3    0    1
 -2       156       394       976      1936
 -1      2725    3    0    1
 -2       644       637      1519      2757
 -1      2726    3    0    1
 -2      1310       413      1961      2082
 -1      2727    3    0    1
 -2      3527      2748      2949      3247
 -1      2728    3    0    1
 -2      2133       995      2316      2320
 -1      2729    3    0    1
 -2      1722      1475      1723      3212
 -1      2730    3    0    1
 -2      1112       872      2007      2073
 -1      2731    3    0    1
 -2      1414      1413      1484      2489
 -1      2732    3    0    1
 -2      2592      2591      3549      3137
 -1      2733    3    0    1
 -2      3614      1435      3722      3740
 -1      2734    3    0    1
 -2       514      1324      1034       749
 -1      2735    3    0    1
 -2      1593      1527      1594      3103
 -1      2736    3    0    1
 -2       333       267      2364      2515
 -1      2737    3    0    1
 -2      1997      1946      2155      2341
 -1      2738    3    0    1
 -2       497      1331       496       774
 -1      2739    3    0    1
 -2      2552      1033      3440      3745
 -1      2740    3    0    1
 -2      1321      2552      3440      3745
 -1      2741    3    0    1
 -2       220       322      3734      3745
 -1      2742    3    0    1
 -2      1466      1465      1504      2822
 -1      2743    3    0    1
 -2       780      2306      2384      2387
 -1      2744    3    0    1
 -2       759       232       324      1036
 -1      2745    3    0    1
 -2       232       759       755      1036
 -1      2746    3    0    1
 -2       233       232       748      1037
 -1      2747    3    0    1
 -2       748       755       762      1037
 -1      2748    3    0    1
 -2      1036       761       755      1037
 -1      2749    3    0    1
 -2       755       761       762      1037
 -1      2750    3    0    1
 -2       748       232       755      1037
 -1      2751    3    0    1
 -2       755       232      1036      1037
 -1      2752    3    0    1
 -2       233       760       375      1037
 -1      2753    3    0    1
 -2       353       958      2059      2170
 -1      2754    3    0    1
 -2       760       233       748      1037
 -1      2755    3    0    1
 -2       751      1033      1224      1325
 -1      2756    3    0    1
 -2      3493      3504      2558      2487
 -1      2757    3    0    1
 -2      1992      1315      3410      3699
 -1      2758    3    0    1
 -2       660       991      1258      1307
 -1      2759    3    0    1
 -2      2493      3526      3528      3680
 -1      2760    3    0    1
 -2      1002       689      1003      2308
 -1      2761    3    0    1
 -2       821       500      1072      1207
 -1      2762    3    0    1
 -2       735      2116      2274      2798
 -1      2763    3    0    1
 -2      1956       368      2234      2317
 -1      2764    3    0    1
 -2      1011      1010      2042      2268
 -1      2765    3    0    1
 -2      2037      2104      2237      2418
 -1      2766    3    0    1
 -2       679       998      1316      2185
 -1      2767    3    0    1
 -2       494       495       771      1041
 -1      2768    3    0    1
 -2      2259       568      2380      2403
 -1      2769    3    0    1
 -2      3520      3499      3539      3638
 -1      2770    3    0    1
 -2       247        56       766      1199
 -1      2771    3    0    1
 -2       769       243      1041      1329
 -1      2772    3    0    1
 -2      1541      1542      2839      3332
 -1      2773    3    0    1
 -2       249      1039      2084      2366
 -1      2774    3    0    1
 -2       751       758      1038      1882
 -1      2775    3    0    1
 -2      3582      1038      1881      1882
 -1      2776    3    0    1
 -2       376       227      3582      1882
 -1      2777    3    0    1
 -2       766       248       773      1044
 -1      2778    3    0    1
 -2       784       791       797      1053
 -1      2779    3    0    1
 -2       769       526       780      1046
 -1      2780    3    0    1
 -2       766       778      1045      1250
 -1      2781    3    0    1
 -2       331       245       773      1044
 -1      2782    3    0    1
 -2       773       245       777      1044
 -1      2783    3    0    1
 -2      2058      2012      2232      2335
 -1      2784    3    0    1
 -2       779       766      1044      1045
 -1      2785    3    0    1
 -2       766       779       780      1045
 -1      2786    3    0    1
 -2      1977      2007      2073      2224
 -1      2787    3    0    1
 -2       233       232      1037      2145
 -1      2788    3    0    1
 -2       248       778       249      1045
 -1      2789    3    0    1
 -2       778       248       766      1045
 -1      2790    3    0    1
 -2      1932       125      2210      2217
 -1      2791    3    0    1
 -2       779       769       780      1046
 -1      2792    3    0    1
 -2      1052      3497      1899      1900
 -1      2793    3    0    1
 -2       790       254      1052      1900
 -1      2794    3    0    1
 -2      1052       254      3497      1900
 -1      2795    3    0    1
 -2       254       371      3696      1900
 -1      2796    3    0    1
 -2       793       790       928      1052
 -1      2797    3    0    1
 -2      2058      1126      2060      2356
 -1      2798    3    0    1
 -2       490       491      1047      1192
 -1      2799    3    0    1
 -2      2053      1942      2138      2252
 -1      2800    3    0    1
 -2      1027       219      2148      2307
 -1      2801    3    0    1
 -2       344       150      2191      2245
 -1      2802    3    0    1
 -2      2854      2898      2972      3561
 -1      2803    3    0    1
 -2      2563      2924      3645      3705
 -1      2804    3    0    1
 -2      1348       837       838      2158
 -1      2805    3    0    1
 -2      1318      2202      2274      2495
 -1      2806    3    0    1
 -2      3006      2869      3022      3560
 -1      2807    3    0    1
 -2      1095      1985      2058      2060
 -1      2808    3    0    1
 -2      1413      3280      3346      3677
 -1      2809    3    0    1
 -2      2595      2442      2767      3529
 -1      2810    3    0    1
 -2      2492      2523      3577      3687
 -1      2811    3    0    1
 -2       564      2146      2379      2416
 -1      2812    3    0    1
 -2       369       783      1047      1051
 -1      2813    3    0    1
 -2       254       787       790      1052
 -1      2814    3    0    1
 -2       790       787       797      1052
 -1      2815    3    0    1
 -2       254       334       787      1052
 -1      2816    3    0    1
 -2      1056       365      1060      1956
 -1      2817    3    0    1
 -2       481      1055       787       913
 -1      2818    3    0    1
 -2      1016      1315      1992      3699
 -1      2819    3    0    1
 -2      1016      1992      2275      3699
 -1      2820    3    0    1
 -2      1315       193      3410      3699
 -1      2821    3    0    1
 -2       784       797       798      1053
 -1      2822    3    0    1
 -2      2002      2008      2078      2107
 -1      2823    3    0    1
 -2       795       258       370      1053
 -1      2824    3    0    1
 -2       258       795       791      1053
 -1      2825    3    0    1
 -2       789       770      2331      2451
 -1      2826    3    0    1
 -2       796       259       784      1054
 -1      2827    3    0    1
 -2      1510      1509      2575      3435
 -1      2828    3    0    1
 -2      1313       190      2125      2140
 -1      2829    3    0    1
 -2       265       266       809      1062
 -1      2830    3    0    1
 -2       379       216      1029      2439
 -1      2831    3    0    1
 -2       267       805       808      1061
 -1      2832    3    0    1
 -2       509      1060       508       927
 -1      2833    3    0    1
 -2      1381      1998      2046      2163
 -1      2834    3    0    1
 -2       333       267       808      1061
 -1      2835    3    0    1
 -2       797       798      2270      2301
 -1      2836    3    0    1
 -2      1991       756      2027      2195
 -1      2837    3    0    1
 -2       923      1338       502      1211
 -1      2838    3    0    1
 -2       267       333       808      1059
 -1      2839    3    0    1
 -2       277      1724      3291      1870
 -1      2840    3    0    1
 -2      1287       356      2197      2311
 -1      2841    3    0    1
 -2      1111       872      2073      2109
 -1      2842    3    0    1
 -2      1660      1659      3209      3395
 -1      2843    3    0    1
 -2      1001      2131      2134      2589
 -1      2844    3    0    1
 -2       243      1041      2284      2705
 -1      2845    3    0    1
 -2      1487      1546      1547      3000
 -1      2846    3    0    1
 -2      1939      1980      2033      2057
 -1      2847    3    0    1
 -2        49      1213       805       925
 -1      2848    3    0    1
 -2       365       800      1056      1060
 -1      2849    3    0    1
 -2       365       801       800      1060
 -1      2850    3    0    1
 -2       508       803      1056      1060
 -1      2851    3    0    1
 -2      1979      1361      2075      2230
 -1      2852    3    0    1
 -2      1946      1979      2062      2341
 -1      2853    3    0    1
 -2      2125       190      2133      2140
 -1      2854    3    0    1
 -2       334      1055      3708      1907
 -1      2855    3    0    1
 -2       255       334      3708      1907
 -1      2856    3    0    1
 -2      2097       393      2349      2390
 -1      2857    3    0    1
 -2       802       809       815      1062
 -1      2858    3    0    1
 -2       802       265       809      1062
 -1      2859    3    0    1
 -2       885       852      1982      2382
 -1      2860    3    0    1
 -2        52        54       802      1216
 -1      2861    3    0    1
 -2       813       266       367      1062
 -1      2862    3    0    1
 -2       266       813       809      1062
 -1      2863    3    0    1
 -2       802       815       816      1063
 -1      2864    3    0    1
 -2       884      1396      2044      2345
 -1      2865    3    0    1
 -2      1133       306      1111      2109
 -1      2866    3    0    1
 -2       265       814       272      1063
 -1      2867    3    0    1
 -2       814       265       802      1063
 -1      2868    3    0    1
 -2       279       278      3707      1921
 -1      2869    3    0    1
 -2       825       501       831      1070
 -1      2870    3    0    1
 -2      2034      1017      2326      2342
 -1      2871    3    0    1
 -2      1535      1503      1536      2780
 -1      2872    3    0    1
 -2       503      1065       502       826
 -1      2873    3    0    1
 -2      2071      2054      2114      2183
 -1      2874    3    0    1
 -2       364       276       825      1341
 -1      2875    3    0    1
 -2       404       402       995      2133
 -1      2876    3    0    1
 -2       479      1283       943       549
 -1      2877    3    0    1
 -2       822       498       823      1067
 -1      2878    3    0    1
 -2      1127       862       890      2207
 -1      2879    3    0    1
 -2      2645      2502      2860      3650
 -1      2880    3    0    1
 -2       833      1073      2111      2143
 -1      2881    3    0    1
 -2      1073       355      1950      2143
 -1      2882    3    0    1
 -2       190       187      1313      2125
 -1      2883    3    0    1
 -2      2131      1004      3430      3732
 -1      2884    3    0    1
 -2      1009      2353      3430      3732
 -1      2885    3    0    1
 -2      1950       359      1989      2175
 -1      2886    3    0    1
 -2       821       500       832      1072
 -1      2887    3    0    1
 -2       820       830      1071      1208
 -1      2888    3    0    1
 -2       821       828      1072      1917
 -1      2889    3    0    1
 -2       829       364       366      1070
 -1      2890    3    0    1
 -2       364       829       825      1070
 -1      2891    3    0    1
 -2      2088       352      2153      2176
 -1      2892    3    0    1
 -2       820       276       825      1071
 -1      2893    3    0    1
 -2       820       825       832      1071
 -1      2894    3    0    1
 -2       831       825      1070      1071
 -1      2895    3    0    1
 -2       825       831       832      1071
 -1      2896    3    0    1
 -2       276       364       825      1071
 -1      2897    3    0    1
 -2       825       364      1070      1071
 -1      2898    3    0    1
 -2       276       830       284      1071
 -1      2899    3    0    1
 -2       830       276       820      1071
 -1      2900    3    0    1
 -2      1007       699       697      1992
 -1      2901    3    0    1
 -2       279       824      1069      1072
 -1      2902    3    0    1
 -2       279       821       824      1072
 -1      2903    3    0    1
 -2       413      1310      1961      2152
 -1      2904    3    0    1
 -2      2306      1045      2321      2387
 -1      2905    3    0    1
 -2       837       838      2158      2253
 -1      2906    3    0    1
 -2       303       291      1985      2201
 -1      2907    3    0    1
 -2      2203      3502      3420      3710
 -1      2908    3    0    1
 -2       420       438      1076      2120
 -1      2909    3    0    1
 -2      1362      1361      1979      2230
 -1      2910    3    0    1
 -2      3526      3583      3585      3189
 -1      2911    3    0    1
 -2      2097       630      2314      2390
 -1      2912    3    0    1
 -2      2652      3517      2896      3568
 -1      2913    3    0    1
 -2      1128      1375      2077      2305
 -1      2914    3    0    1
 -2      1394      2038      2153      2176
 -1      2915    3    0    1
 -2       290      1349      1352      2372
 -1      2916    3    0    1
 -2      2218      2051      2248      2348
 -1      2917    3    0    1
 -2       584       958      1182      1292
 -1      2918    3    0    1
 -2      2156      1299      2245      2385
 -1      2919    3    0    1
 -2      1585      2771      3522      3593
 -1      2920    3    0    1
 -2      1312       998      3652      3685
 -1      2921    3    0    1
 -2       392       970      2293      3502
 -1      2922    3    0    1
 -2      2029      1324      2031      2182
 -1      2923    3    0    1
 -2      1328      1042       767      2209
 -1      2924    3    0    1
 -2      2269       116      2370      2380
 -1      2925    3    0    1
 -2       999      1307      2565      3491
 -1      2926    3    0    1
 -2       298      1367      2330      2438
 -1      2927    3    0    1
 -2       292      1359      2078      2088
 -1      2928    3    0    1
 -2      1985      1962      2232      2262
 -1      2929    3    0    1
 -2       331       245      2306      2405
 -1      2930    3    0    1
 -2      1079       358      1395      2198
 -1      2931    3    0    1
 -2       664       643      1308      2319
 -1      2932    3    0    1
 -2      2033      2056      2057      2070
 -1      2933    3    0    1
 -2       355       286      1120      1950
 -1      2934    3    0    1
 -2       325      2006      2195      2362
 -1      2935    3    0    1
 -2      1952      2080      2178      2256
 -1      2936    3    0    1
 -2      1958      1959      2014      2287
 -1      2937    3    0    1
 -2      2033      1292      2056      2286
 -1      2938    3    0    1
 -2      1537      1538      2928      1744
 -1      2939    3    0    1
 -2       697      1016      1315      1992
 -1      2940    3    0    1
 -2      1961      2025      2076      2166
 -1      2941    3    0    1
 -2       864      1119      1101      2176
 -1      2942    3    0    1
 -2       184       999      1311      2333
 -1      2943    3    0    1
 -2       420      1345      1977      2120
 -1      2944    3    0    1
 -2      1764      1527      1765      3231
 -1      2945    3    0    1
 -2       363      2104      1338       274
 -1      2946    3    0    1
 -2      2208      2175      2212      2216
 -1      2947    3    0    1
 -2       725      1018      1021      2222
 -1      2948    3    0    1
 -2       980       640      2189      2339
 -1      2949    3    0    1
 -2       183       997      1313      2160
 -1      2950    3    0    1
 -2       843      1359      1078      2088
 -1      2951    3    0    1
 -2      3510      3657      3436      3715
 -1      2952    3    0    1
 -2       702       694      1008      2310
 -1      2953    3    0    1
 -2       406      1116      2227      2357
 -1      2954    3    0    1
 -2      2037      2043      2103      2104
 -1      2955    3    0    1
 -2       419      1314      2034      2124
 -1      2956    3    0    1
 -2      1299       612      2156      2245
 -1      2957    3    0    1
 -2      2199      2056      2318      2385
 -1      2958    3    0    1
 -2       767       774      1331      2117
 -1      2959    3    0    1
 -2      1008       417      2082      2151
 -1      2960    3    0    1
 -2      2074      1943      2350      2363
 -1      2961    3    0    1
 -2       589      2139      2392      2453
 -1      2962    3    0    1
 -2       399       398      1020      2187
 -1      2963    3    0    1
 -2      1988      1970      2430      2432
 -1      2964    3    0    1
 -2      1982      1954      2061      2324
 -1      2965    3    0    1
 -2       860      2058      1126      2060
 -1      2966    3    0    1
 -2       274       818       817      1338
 -1      2967    3    0    1
 -2       817       818      1211      1338
 -1      2968    3    0    1
 -2      2150      1948      2373      2434
 -1      2969    3    0    1
 -2       436       437      2072      2169
 -1      2970    3    0    1
 -2       803      1056      1060      2296
 -1      2971    3    0    1
 -2       344      2097      2245      2246
 -1      2972    3    0    1
 -2      1034      2006      2027      2195
 -1      2973    3    0    1
 -2      1381       871      2046      2193
 -1      2974    3    0    1
 -2      1981       284      2361      2368
 -1      2975    3    0    1
 -2       966      2033      2056      2156
 -1      2976    3    0    1
 -2      1369      1121      2044      2345
 -1      2977    3    0    1
 -2      1396      1080      1953      2345
 -1      2978    3    0    1
 -2       779      1043      2384      2406
 -1      2979    3    0    1
 -2      1123       854       886      2092
 -1      2980    3    0    1
 -2       672      2134      2316      2320
 -1      2981    3    0    1
 -2      3079      3581      3610      3263
 -1      2982    3    0    1
 -2      2380      2259      2403      2441
 -1      2983    3    0    1
 -2      1353      1941      2114      2183
 -1      2984    3    0    1
 -2       845      1362       846      2230
 -1      2985    3    0    1
 -2       654       671      2205      2291
 -1      2986    3    0    1
 -2       363       274      1953      2101
 -1      2987    3    0    1
 -2       858      1400       888      2129
 -1      2988    3    0    1
 -2       372      1935      1958      2009
 -1      2989    3    0    1
 -2      1953       274      2037      2101
 -1      2990    3    0    1
 -2       259       258      2346      2381
 -1      2991    3    0    1
 -2       735       734      1025      2264
 -1      2992    3    0    1
 -2      1995      2011      2013      2076
 -1      2993    3    0    1
 -2       299      1388       340      2164
 -1      2994    3    0    1
 -2      2060      1960      2356      2386
 -1      2995    3    0    1
 -2      2331      1049      2429      3511
 -1      2996    3    0    1
 -2      1080       448      1953      2101
 -1      2997    3    0    1
 -2      1994       343      2001      2252
 -1      2998    3    0    1
 -2      1367      1364      2330      2438
 -1      2999    3    0    1
 -2       744      2148      2329      2439
 -1      3000    3    0    1
 -2       568      1287      2197      2403
 -1      3001    3    0    1
 -2      1082       296      2052      2067
 -1      3002    3    0    1
 -2      2293       144      2579      2745
 -1      3003    3    0    1
 -2      1989      1952      2111      2112
 -1      3004    3    0    1
 -2       201       197      1011      2268
 -1      3005    3    0    1
 -2       227      1033      1325      2063
 -1      3006    3    0    1
 -2       965       610      2242      2392
 -1      3007    3    0    1
 -2      1988      1970      2343      2430
 -1      3008    3    0    1
 -2       356      1287      2197      2404
 -1      3009    3    0    1
 -2      2078      2088      2153      2176
 -1      3010    3    0    1
 -2       797       780      2137      2301
 -1      3011    3    0    1
 -2       187      1313      2125      2160
 -1      3012    3    0    1
 -2       604       612       963      2245
 -1      3013    3    0    1
 -2      1361      1946      1979      2075
 -1      3014    3    0    1
 -2      2136      1308      2319      3169
 -1      3015    3    0    1
 -2      1341       366      2118      2327
 -1      3016    3    0    1
 -2       187      1002      1003      2308
 -1      3017    3    0    1
 -2       976       635       977      1936
 -1      3018    3    0    1
 -2      1379       312      1973      2159
 -1      3019    3    0    1
 -2       604       962      2156      2161
 -1      3020    3    0    1
 -2       528      2480      2487      2558
 -1      3021    3    0    1
 -2      2036      2022      2047      2374
 -1      3022    3    0    1
 -2       327       166      3518      3542
 -1      3023    3    0    1
 -2       363      1068      1338      2359
 -1      3024    3    0    1
 -2      2672       499      2694      2905
 -1      3025    3    0    1
 -2      1946      1394      2038      2153
 -1      3026    3    0    1
 -2       305      1100      2238      2288
 -1      3027    3    0    1
 -2      3504      2806      3095      3667
 -1      3028    3    0    1
 -2      1969      2106      2241      2298
 -1      3029    3    0    1
 -2        99       104      2379      2414
 -1      3030    3    0    1
 -2      1939      1980      2157      2181
 -1      3031    3    0    1
 -2       494      1329      1041       770
 -1      3032    3    0    1
 -2      2247      2030      2339      2398
 -1      3033    3    0    1
 -2      2468      3501      3563      3565
 -1      3034    3    0    1
 -2       288      1347      1346      2096
 -1      3035    3    0    1
 -2       906      1166      2547      3433
 -1      3036    3    0    1
 -2       178       986       994      2205
 -1      3037    3    0    1
 -2       662       655      1522      2837
 -1      3038    3    0    1
 -2      2237      2023      2413      2418
 -1      3039    3    0    1
 -2      2752      2697      2899      3622
 -1      3040    3    0    1
 -2      1942      2158      2180      2252
 -1      3041    3    0    1
 -2       622      2098      2348      2358
 -1      3042    3    0    1
 -2       689       672      2134      2316
 -1      3043    3    0    1
 -2      1303       622       630      2280
 -1      3044    3    0    1
 -2      1039       767      1331      2117
 -1      3045    3    0    1
 -2      1951      2037      2043      2103
 -1      3046    3    0    1
 -2      1959      1958      2089      2287
 -1      3047    3    0    1
 -2       156       345       971      2422
 -1      3048    3    0    1
 -2      1692      1871      1872      3354
 -1      3049    3    0    1
 -2      1442      2748      3527      3664
 -1      3050    3    0    1
 -2       385      2032      2033      2057
 -1      3051    3    0    1
 -2      1614      1479      1615      2894
 -1      3052    3    0    1
 -2      2100      2087      2679      3717
 -1      3053    3    0    1
 -2      1748      1432      3572      3615
 -1      3054    3    0    1
 -2       636       978       984      2243
 -1      3055    3    0    1
 -2       743      1028      2220      2258
 -1      3056    3    0    1
 -2      2072      1968      2167      2169
 -1      3057    3    0    1
 -2       124       116       953      2269
 -1      3058    3    0    1
 -2      2167      1996      2196      2279
 -1      3059    3    0    1
 -2      2000       359      2175      2184
 -1      3060    3    0    1
 -2       942      1284       552      2599
 -1      3061    3    0    1
 -2       261      1048      2020      2049
 -1      3062    3    0    1
 -2      2006      1996      2147      2399
 -1      3063    3    0    1
 -2      2008      1947      2078      2088
 -1      3064    3    0    1
 -2       402      2133      2135      2320
 -1      3065    3    0    1
 -2       144       392      2293      2450
 -1      3066    3    0    1
 -2      2051       350      2062      2218
 -1      3067    3    0    1
 -2      1112       420      1408      2073
 -1      3068    3    0    1
 -2      1426      1425      1512      3146
 -1      3069    3    0    1
 -2      2006      2027      2195      2399
 -1      3070    3    0    1
 -2       780      1046      2137      2387
 -1      3071    3    0    1
 -2       178       994      2135      2205
 -1      3072    3    0    1
 -2      1004      1001      2131      2308
 -1      3073    3    0    1
 -2      1308      2136      2319      3565
 -1      3074    3    0    1
 -2      2014      1986      2040      2266
 -1      3075    3    0    1
 -2       947       564      2379      2416
 -1      3076    3    0    1
 -2       839      1351       840      2201
 -1      3077    3    0    1
 -2       377      1324      2029      2182
 -1      3078    3    0    1
 -2       635       618       970      2393
 -1      3079    3    0    1
 -2       324       232      1327      2334
 -1      3080    3    0    1
 -2      2032      1939      2033      2057
 -1      3081    3    0    1
 -2       343      1943      1994      2001
 -1      3082    3    0    1
 -2      2029      2004      2200      2235
 -1      3083    3    0    1
 -2      2356      2129      1960      2089
 -1      3084    3    0    1
 -2      2361       104      2378      2414
 -1      3085    3    0    1
 -2      1011       725      1019      2194
 -1      3086    3    0    1
 -2      2191       617      2293      2397
 -1      3087    3    0    1
 -2      2158      1348      2180      2253
 -1      3088    3    0    1
 -2       363      1068      2359      2443
 -1      3089    3    0    1
 -2       731      2105      2300      2354
 -1      3090    3    0    1
 -2      2102      1978      2233      2369
 -1      3091    3    0    1
 -2      2056      2033      2057      2156
 -1      3092    3    0    1
 -2      2356      1094       373      1126
 -1      3093    3    0    1
 -2       979       640      2339      2398
 -1      3094    3    0    1
 -2      2932       608      2978      3560
 -1      3095    3    0    1
 -2       995       672      2316      2320
 -1      3096    3    0    1
 -2       190      1002      2125      2316
 -1      3097    3    0    1
 -2       977       985      2231      2417
 -1      3098    3    0    1
 -2      2192       628      2250      2394
 -1      3099    3    0    1
 -2      2023      1981      2265      2418
 -1      3100    3    0    1
 -2       735       528      2480      2487
 -1      3101    3    0    1
 -2       122       948      1290      2370
 -1      3102    3    0    1
 -2       618      2191      2293      2393
 -1      3103    3    0    1
 -2      2065      1955      2234      2317
 -1      3104    3    0    1
 -2      1384       851       874      2178
 -1      3105    3    0    1
 -2       666      1309      2130      2283
 -1      3106    3    0    1
 -2       733       219      1025      1321
 -1      3107    3    0    1
 -2      1063      2452       265      2325
 -1      3108    3    0    1
 -2      2020      2049      2068      2285
 -1      3109    3    0    1
 -2      3553      2889      3011      3296
 -1      3110    3    0    1
 -2      2018      1938      2054      2174
 -1      3111    3    0    1
 -2       653       654       985      2115
 -1      3112    3    0    1
 -2       738      1323      2036      2047
 -1      3113    3    0    1
 -2      1939      1980      2181      2217
 -1      3114    3    0    1
 -2      1048       785      2020      2049
 -1      3115    3    0    1
 -2      1996      1967      2238      2299
 -1      3116    3    0    1
 -2      1961      2082      2151      2152
 -1      3117    3    0    1
 -2      2607      3535      3132      3433
 -1      3118    3    0    1
 -2      1008       694      1314      2310
 -1      3119    3    0    1
 -2      1935      1958      1959      2014
 -1      3120    3    0    1
 -2      1940       385      2277      2338
 -1      3121    3    0    1
 -2      1394      1102      2038      2176
 -1      3122    3    0    1
 -2      1047       785      2049      2141
 -1      3123    3    0    1
 -2      2072      1376      2238      2288
 -1      3124    3    0    1
 -2       242      1964      2200      2209
 -1      3125    3    0    1
 -2      1620      1778      1779      3170
 -1      3126    3    0    1
 -2       291      1350      1962      2201
 -1      3127    3    0    1
 -2      2604      1427      3435      3488
 -1      3128    3    0    1
 -2       838      1348      2158      2253
 -1      3129    3    0    1
 -2       365       368      1060      1956
 -1      3130    3    0    1
 -2      2623      3517      2890      2896
 -1      3131    3    0    1
 -2       157       973      1301      2192
 -1      3132    3    0    1
 -2      1973      1995      2013      2159
 -1      3133    3    0    1
 -2       855       877      2181      2401
 -1      3134    3    0    1
 -2      3517      2618      3238      3740
 -1      3135    3    0    1
 -2      1972      1389      2083      2159
 -1      3136    3    0    1
 -2      1064       816      2364      2444
 -1      3137    3    0    1
 -2       375      1031      2031      2048
 -1      3138    3    0    1
 -2       353      2059      2071      2170
 -1      3139    3    0    1
 -2       958       586      1292      2286
 -1      3140    3    0    1
 -2      2054      1932      2059      2071
 -1      3141    3    0    1
 -2       296      1085      2052      2092
 -1      3142    3    0    1
 -2      1118       861       881      2363
 -1      3143    3    0    1
 -2       414      2081      2144      2294
 -1      3144    3    0    1
 -2       709       716      2587      2685
 -1      3145    3    0    1
 -2      2545      3504      3412      3483
 -1      3146    3    0    1
 -2       254      2412      2437      2451
 -1      3147    3    0    1
 -2       180      1750      1751      1752
 -1      3148    3    0    1
 -2      1075       833      1342      2111
 -1      3149    3    0    1
 -2      2325      1062      2411      2419
 -1      3150    3    0    1
 -2       865      1404       892      2072
 -1      3151    3    0    1
 -2       690       707      2042      2308
 -1      3152    3    0    1
 -2      2265      2212      2276      2413
 -1      3153    3    0    1
 -2      1975      1987      2239      2273
 -1      3154    3    0    1
 -2       960       968      2244      2397
 -1      3155    3    0    1
 -2       310      1075      2111      2112
 -1      3156    3    0    1
 -2       360       284      2361      2378
 -1      3157    3    0    1
 -2       689       690      1003      2308
 -1      3158    3    0    1
 -2      2330      1364      2423      2438
 -1      3159    3    0    1
 -2      1334       370      2346      2366
 -1      3160    3    0    1
 -2       943       558      2186      2276
 -1      3161    3    0    1
 -2       210       416      2194      2383
 -1      3162    3    0    1
 -2       707      2188      2042      2353
 -1      3163    3    0    1
 -2       359      1989      2000      2328
 -1      3164    3    0    1
 -2       954      1291      2395      2409
 -1      3165    3    0    1
 -2       301      1386      1093      2261
 -1      3166    3    0    1
 -2       826       819      1068      2272
 -1      3167    3    0    1
 -2       163       326       980      2189
 -1      3168    3    0    1
 -2       420       438      1977      2073
 -1      3169    3    0    1
 -2      2118       366      2376      2447
 -1      3170    3    0    1
 -2       687       683      1002      1134
 -1      3171    3    0    1
 -2       683       451      1002      1134
 -1      3172    3    0    1
 -2       453       754      1035      1138
 -1      3173    3    0    1
 -2       754       461       902      1138
 -1      3174    3    0    1
 -2       754       757      1035      1138
 -1      3175    3    0    1
 -2         2       683       687      1134
 -1      3176    3    0    1
 -2         2       188       683      1134
 -1      3177    3    0    1
 -2       685        14       189      1135
 -1      3178    3    0    1
 -2        14       685       682      1135
 -1      3179    3    0    1
 -2       682        14      1135      1136
 -1      3180    3    0    1
 -2         3       686         5      1136
 -1      3181    3    0    1
 -2       686         3       678      1136
 -1      3182    3    0    1
 -2       188         4       683      1137
 -1      3183    3    0    1
 -2       188       683      1134      1137
 -1      3184    3    0    1
 -2       688         4         6      1137
 -1      3185    3    0    1
 -2         4       688       677      1137
 -1      3186    3    0    1
 -2       606       465       970      1155
 -1      3187    3    0    1
 -2         8       642       650      1139
 -1      3188    3    0    1
 -2         8       165       642      1139
 -1      3189    3    0    1
 -2       164       652       641      1140
 -1      3190    3    0    1
 -2       455      1142       456       660
 -1      3191    3    0    1
 -2        82      1142      1141       660
 -1      3192    3    0    1
 -2       455      1142       660      1141
 -1      3193    3    0    1
 -2       667        82       176      1141
 -1      3194    3    0    1
 -2        82       667       663      1141
 -1      3195    3    0    1
 -2      3505      3524      3599      3704
 -1      3196    3    0    1
 -2       455      1143       659       456
 -1      3197    3    0    1
 -2      2094      2074      2260      2350
 -1      3198    3    0    1
 -2      1417      3505      3524      3686
 -1      3199    3    0    1
 -2      2936      2746      3119      3639
 -1      3200    3    0    1
 -2       461       748      1037      1149
 -1      3201    3    0    1
 -2       748       461       755      1149
 -1      3202    3    0    1
 -2      1318       901       718      1147
 -1      3203    3    0    1
 -2      1614      1615      2881      2894
 -1      3204    3    0    1
 -2       901      1318       718      1016
 -1      3205    3    0    1
 -2      2855      2859      3265      3636
 -1      3206    3    0    1
 -2        87       718       901      1147
 -1      3207    3    0    1
 -2      2185      1316      3506      3534
 -1      3208    3    0    1
 -2       461       453       755      1149
 -1      3209    3    0    1
 -2       755       453       897      1149
 -1      3210    3    0    1
 -2        58       755       897      1149
 -1      3211    3    0    1
 -2        58       748       755      1149
 -1      3212    3    0    1
 -2       760        59       235      1149
 -1      3213    3    0    1
 -2        59       760       748      1149
 -1      3214    3    0    1
 -2       464       645       984      1154
 -1      3215    3    0    1
 -2      2688      1336      2712      2825
 -1      3216    3    0    1
 -2       642       464      1139      1154
 -1      3217    3    0    1
 -2       464       642       645      1154
 -1      3218    3    0    1
 -2       642        70       645      1154
 -1      3219    3    0    1
 -2       165        70       642      1154
 -1      3220    3    0    1
 -2       165       642      1139      1154
 -1      3221    3    0    1
 -2       649        70       167      1154
 -1      3222    3    0    1
 -2        70       649       645      1154
 -1      3223    3    0    1
 -2        16       606       614      1155
 -1      3224    3    0    1
 -2        16        18       606      1155
 -1      3225    3    0    1
 -2       611       470       905      1156
 -1      3226    3    0    1
 -2       147       143       611      1156
 -1      3227    3    0    1
 -2       147       611       905      1156
 -1      3228    3    0    1
 -2       616       143       152      1156
 -1      3229    3    0    1
 -2       143       616       605      1156
 -1      3230    3    0    1
 -2       605       143       611      1158
 -1      3231    3    0    1
 -2       904      1299       605       963
 -1      3232    3    0    1
 -2       143       605       904      1158
 -1      3233    3    0    1
 -2        17       602      1157      1159
 -1      3234    3    0    1
 -2      2629       495      2762      2797
 -1      3235    3    0    1
 -2       606       965      1161      1163
 -1      3236    3    0    1
 -2      1638      1639      2852      1835
 -1      3237    3    0    1
 -2       609       613       967      1164
 -1      3238    3    0    1
 -2       470       609       967      1164
 -1      3239    3    0    1
 -2      2671      2867      3574      3262
 -1      3240    3    0    1
 -2      2121      1978      2297      2467
 -1      3241    3    0    1
 -2       470       465       609      1164
 -1      3242    3    0    1
 -2       609       465      1155      1164
 -1      3243    3    0    1
 -2       613        19       146      1164
 -1      3244    3    0    1
 -2        19       613       609      1164
 -1      3245    3    0    1
 -2      1546      2858      3000      3650
 -1      3246    3    0    1
 -2      2207      2055      2433      2455
 -1      3247    3    0    1
 -2      2307      2504      3507      3709
 -1      3248    3    0    1
 -2      2492      1418      2534      2602
 -1      3249    3    0    1
 -2       550      1174       477       557
 -1      3250    3    0    1
 -2      1811        42      1812      1816
 -1      3251    3    0    1
 -2      2594      2442      2595      3529
 -1      3252    3    0    1
 -2       574       950      1167      1169
 -1      3253    3    0    1
 -2        35       574      1167      1169
 -1      3254    3    0    1
 -2        12       195      1572      2819
 -1      3255    3    0    1
 -2       556       559       944      1175
 -1      3256    3    0    1
 -2       477      1174       478       557
 -1      3257    3    0    1
 -2      1174       550       477      1173
 -1      3258    3    0    1
 -2       562        30       110      1173
 -1      3259    3    0    1
 -2        30       562       550      1173
 -1      3260    3    0    1
 -2       551      1175       477       910
 -1      3261    3    0    1
 -2       477      1175       556       478
 -1      3262    3    0    1
 -2      1283       912       547      1176
 -1      3263    3    0    1
 -2       327      1304      2171      2282
 -1      3264    3    0    1
 -2        31       784       929      1178
 -1      3265    3    0    1
 -2       796        31       260      1178
 -1      3266    3    0    1
 -2        31       796       784      1178
 -1      3267    3    0    1
 -2       585       127       584      1179
 -1      3268    3    0    1
 -2       482      1181       483       955
 -1      3269    3    0    1
 -2       482      1181       955      1180
 -1      3270    3    0    1
 -2      1001       689      2134      2308
 -1      3271    3    0    1
 -2       485      1290       568       484
 -1      3272    3    0    1
 -2      1290       485       948      1183
 -1      3273    3    0    1
 -2      1019       726      1020      2187
 -1      3274    3    0    1
 -2       485      1290       948       568
 -1      3275    3    0    1
 -2      2428      2584      3503      3736
 -1      3276    3    0    1
 -2       485      1287       484       568
 -1      3277    3    0    1
 -2       487       486       569      1186
 -1      3278    3    0    1
 -2       915       487       569      1186
 -1      3279    3    0    1
 -2       569       114       915      1186
 -1      3280    3    0    1
 -2       114       569       575      1186
 -1      3281    3    0    1
 -2        33       575       579      1186
 -1      3282    3    0    1
 -2        33       118       575      1186
 -1      3283    3    0    1
 -2        35       577       574      1187
 -1      3284    3    0    1
 -2       598        32       138      1188
 -1      3285    3    0    1
 -2        32       598       587      1188
 -1      3286    3    0    1
 -2       131       595       591      1190
 -1      3287    3    0    1
 -2       588      1190        23       591
 -1      3288    3    0    1
 -2      1528      1764      3321      3403
 -1      3289    3    0    1
 -2        43       240       769      1198
 -1      3290    3    0    1
 -2       491      1334      1194       490
 -1      3291    3    0    1
 -2       805       267      1059      1335
 -1      3292    3    0    1
 -2       791      1048      1191      1194
 -1      3293    3    0    1
 -2       783       252      1192      1193
 -1      3294    3    0    1
 -2      1047       783      1192      1193
 -1      3295    3    0    1
 -2      1048       490      1191      1194
 -1      3296    3    0    1
 -2       494      1329      1198      1041
 -1      3297    3    0    1
 -2      1332       918       790      1196
 -1      3298    3    0    1
 -2      1319      1015      3515      3601
 -1      3299    3    0    1
 -2      1516       229      2675      1602
 -1      3300    3    0    1
 -2       918      1332       790      1050
 -1      3301    3    0    1
 -2        37       790       918      1196
 -1      3302    3    0    1
 -2      1688      1722      3212      3669
 -1      3303    3    0    1
 -2       494      1200       495      1041
 -1      3304    3    0    1
 -2      1285       941      3614      3722
 -1      3305    3    0    1
 -2       828       821      1072      1207
 -1      3306    3    0    1
 -2      2473      2402      3509      3605
 -1      3307    3    0    1
 -2      2909      3621      3646      3692
 -1      3308    3    0    1
 -2      1979      1946      2038      2341
 -1      3309    3    0    1
 -2       764       238       765      1202
 -1      3310    3    0    1
 -2       920      1328       764      1042
 -1      3311    3    0    1
 -2      1517      1518      1551      2690
 -1      3312    3    0    1
 -2       766      1039      1199      1203
 -1      3313    3    0    1
 -2      1289       571       573      3508
 -1      3314    3    0    1
 -2       821        44       824      1207
 -1      3315    3    0    1
 -2      1978      2121      2233      2369
 -1      3316    3    0    1
 -2      2244       134      2318      2385
 -1      3317    3    0    1
 -2      3556      3004      3272      3328
 -1      3318    3    0    1
 -2      1720      1719      3152      3164
 -1      3319    3    0    1
 -2        47       828       281      1207
 -1      3320    3    0    1
 -2       828        47       821      1207
 -1      3321    3    0    1
 -2       500       501       825      1208
 -1      3322    3    0    1
 -2       830        46       285      1208
 -1      3323    3    0    1
 -2        46       830       820      1208
 -1      3324    3    0    1
 -2       829        48       825      1209
 -1      3325    3    0    1
 -2       501       500       824      1210
 -1      3326    3    0    1
 -2       824       500      1207      1210
 -1      3327    3    0    1
 -2       827        44       280      1210
 -1      3328    3    0    1
 -2        44       827       824      1210
 -1      3329    3    0    1
 -2       923      1338       818      1068
 -1      3330    3    0    1
 -2       275       818       923      1211
 -1      3331    3    0    1
 -2       820        46       825      1212
 -1      3332    3    0    1
 -2       922      1341       820      1065
 -1      3333    3    0    1
 -2        46       820       922      1212
 -1      3334    3    0    1
 -2       393       344      2097      2349
 -1      3335    3    0    1
 -2       366       272      2118      2327
 -1      3336    3    0    1
 -2       805      1218        49       808
 -1      3337    3    0    1
 -2       805      1218       808       506
 -1      3338    3    0    1
 -2      1218       805        49      1215
 -1      3339    3    0    1
 -2       506      1218       808       507
 -1      3340    3    0    1
 -2        51       812       268      1215
 -1      3341    3    0    1
 -2       812        51       805      1215
 -1      3342    3    0    1
 -2       506      1217       507       809
 -1      3343    3    0    1
 -2       814        54       271      1216
 -1      3344    3    0    1
 -2        54       814       802      1216
 -1      3345    3    0    1
 -2        49       811       808      1218
 -1      3346    3    0    1
 -2       805      1218       506      1215
 -1      3347    3    0    1
 -2       802        52       809      1220
 -1      3348    3    0    1
 -2       630      1303      2280      2390
 -1      3349    3    0    1
 -2      1959      1960      2009      2123
 -1      3350    3    0    1
 -2       509      1337       508       810
 -1      3351    3    0    1
 -2      2107       406      2227      2357
 -1      3352    3    0    1
 -2       511      1249       526       769
 -1      3353    3    0    1
 -2        43      1249      1221       769
 -1      3354    3    0    1
 -2       511      1249       769      1221
 -1      3355    3    0    1
 -2       775        43       250      1221
 -1      3356    3    0    1
 -2        43       775       772      1221
 -1      3357    3    0    1
 -2      2672      2694      3516      3553
 -1      3358    3    0    1
 -2      1746      1747      3058      3326
 -1      3359    3    0    1
 -2       157       158      2192      2537
 -1      3360    3    0    1
 -2      2192       973      2394      2537
 -1      3361    3    0    1
 -2       515      1327      1229      1031
 -1      3362    3    0    1
 -2      1031       515      1227      1229
 -1      3363    3    0    1
 -2       532       736      1027      1248
 -1      3364    3    0    1
 -2        61        60       746      1228
 -1      3365    3    0    1
 -2       746      1034      1226      1228
 -1      3366    3    0    1
 -2        61       746      1226      1228
 -1      3367    3    0    1
 -2        59        58       748      1229
 -1      3368    3    0    1
 -2       748      1031      1227      1229
 -1      3369    3    0    1
 -2        59       748      1227      1229
 -1      3370    3    0    1
 -2        64      1247       159       627
 -1      3371    3    0    1
 -2        63       624       632      1230
 -1      3372    3    0    1
 -2        63        64       624      1230
 -1      3373    3    0    1
 -2        72       639       638      1243
 -1      3374    3    0    1
 -2       623        62       634      1231
 -1      3375    3    0    1
 -2        66        62       623      1231
 -1      3376    3    0    1
 -2       517      1236       520       971
 -1      3377    3    0    1
 -2       517      1236       971      1233
 -1      3378    3    0    1
 -2       832       831      1069      2085
 -1      3379    3    0    1
 -2       633        74       629      1238
 -1      3380    3    0    1
 -2       623      1238        66      1231
 -1      3381    3    0    1
 -2        66      1238       629        74
 -1      3382    3    0    1
 -2       639        72        73      1243
 -1      3383    3    0    1
 -2       631       159       160      1247
 -1      3384    3    0    1
 -2        70       165       642      1242
 -1      3385    3    0    1
 -2      1832      3273      1844      3343
 -1      3386    3    0    1
 -2       726      1021      2220      2472
 -1      3387    3    0    1
 -2       645       982      1239      1242
 -1      3388    3    0    1
 -2        70       645      1239      1242
 -1      3389    3    0    1
 -2      1306       524       980      1244
 -1      3390    3    0    1
 -2       524      1306       980       640
 -1      3391    3    0    1
 -2       979       523      1243      1246
 -1      3392    3    0    1
 -2       159       631       627      1247
 -1      3393    3    0    1
 -2       624      1247       516      1230
 -1      3394    3    0    1
 -2       516      1247       627       525
 -1      3395    3    0    1
 -2       532       531       736      1248
 -1      3396    3    0    1
 -2       733        78       736      1248
 -1      3397    3    0    1
 -2       531       733       736      1248
 -1      3398    3    0    1
 -2       739        79       224      1248
 -1      3399    3    0    1
 -2        79       739       736      1248
 -1      3400    3    0    1
 -2      2090       661      3168      3169
 -1      3401    3    0    1
 -2       511      1250       766       526
 -1      3402    3    0    1
 -2       175       659       665      1309
 -1      3403    3    0    1
 -2      3591      2789      3645      3661
 -1      3404    3    0    1
 -2       660       991      1256      1258
 -1      3405    3    0    1
 -2       736       733      1025      1252
 -1      3406    3    0    1
 -2      1117      1973      2046      2193
 -1      3407    3    0    1
 -2       128      3539      1827      3703
 -1      3408    3    0    1
 -2        82      1258       173       660
 -1      3409    3    0    1
 -2      1339      2355      2454      3537
 -1      3410    3    0    1
 -2       733       531      1030      1259
 -1      3411    3    0    1
 -2       740       733      1030      1259
 -1      3412    3    0    1
 -2       531       733      1248      1259
 -1      3413    3    0    1
 -2        78       740        83      1259
 -1      3414    3    0    1
 -2       740        78       733      1259
 -1      3415    3    0    1
 -2       223        84       730      1260
 -1      3416    3    0    1
 -2       535      1269      1266      1008
 -1      3417    3    0    1
 -2        86       722       214      1261
 -1      3418    3    0    1
 -2       722        86       714      1261
 -1      3419    3    0    1
 -2       534       718      1018      1265
 -1      3420    3    0    1
 -2       724        89       212      1262
 -1      3421    3    0    1
 -2        89       724       713      1262
 -1      3422    3    0    1
 -2       713       534       719      1264
 -1      3423    3    0    1
 -2       533       534       713      1264
 -1      3424    3    0    1
 -2       533       713      1262      1264
 -1      3425    3    0    1
 -2       713        89      1262      1264
 -1      3426    3    0    1
 -2        89       713       719      1264
 -1      3427    3    0    1
 -2        90       723       213      1264
 -1      3428    3    0    1
 -2       723        90       719      1264
 -1      3429    3    0    1
 -2        87       721       718      1265
 -1      3430    3    0    1
 -2       535      1317      1267      1005
 -1      3431    3    0    1
 -2      2420       991      2585      2586
 -1      3432    3    0    1
 -2       192       692      1266      1269
 -1      3433    3    0    1
 -2        94      1268       695       202
 -1      3434    3    0    1
 -2       692      1008      1266      1269
 -1      3435    3    0    1
 -2      1600      2921      3081      3466
 -1      3436    3    0    1
 -2       677         4       683      1270
 -1      3437    3    0    1
 -2       934      1313       677       997
 -1      3438    3    0    1
 -2         4       677       934      1270
 -1      3439    3    0    1
 -2        91       675       674      1271
 -1      3440    3    0    1
 -2       674      1000      1263      1271
 -1      3441    3    0    1
 -2        91       674      1263      1271
 -1      3442    3    0    1
 -2       970       618      2293      2393
 -1      3443    3    0    1
 -2        93       656       935      1274
 -1      3444    3    0    1
 -2         9      1273       659        10
 -1      3445    3    0    1
 -2       542       695      1011      1277
 -1      3446    3    0    1
 -2       541      1276       542       696
 -1      3447    3    0    1
 -2        11      1276      1275       696
 -1      3448    3    0    1
 -2       541      1276       696      1275
 -1      3449    3    0    1
 -2       703        11       203      1275
 -1      3450    3    0    1
 -2        11       703       700      1275
 -1      3451    3    0    1
 -2       541      1277       695       542
 -1      3452    3    0    1
 -2       728        96       729      1278
 -1      3453    3    0    1
 -2      1954      1982      2067      2324
 -1      3454    3    0    1
 -2       713        89       719      1280
 -1      3455    3    0    1
 -2       544      1323       543       738
 -1      3456    3    0    1
 -2      1036      1029      2329      2439
 -1      3457    3    0    1
 -2      1963      2004      2029      2235
 -1      3458    3    0    1
 -2       545       546      1013      1281
 -1      3459    3    0    1
 -2      1288       950      2440      2584
 -1      3460    3    0    1
 -2       546      1320      1282       545
 -1      3461    3    0    1
 -2      1014       545      1280      1282
 -1      3462    3    0    1
 -2      1061       333      2364      2610
 -1      3463    3    0    1
 -2       388       954      1291      2395
 -1      3464    3    0    1
 -2      2021      1376      2072      2288
 -1      3465    3    0    1
 -2       359        98       547      1283
 -1      3466    3    0    1
 -2       912      1283       479      1176
 -1      3467    3    0    1
 -2      1283       549      2026      2249
 -1      3468    3    0    1
 -2      2906      3125      3612      3676
 -1      3469    3    0    1
 -2      1455      1413      1456      3207
 -1      3470    3    0    1
 -2       145        20      3418      3424
 -1      3471    3    0    1
 -2      1631        41      3211      3411
 -1      3472    3    0    1
 -2       756       749      2179      2254
 -1      3473    3    0    1
 -2      2038      1997      2153      2176
 -1      3474    3    0    1
 -2      2004      2095      2182      2215
 -1      3475    3    0    1
 -2       550      1177       557      1286
 -1      3476    3    0    1
 -2        99       550       557      1286
 -1      3477    3    0    1
 -2       299       340      2157      2164
 -1      3478    3    0    1
 -2       788       789      2331      2451
 -1      3479    3    0    1
 -2       479       549       558      1286
 -1      3480    3    0    1
 -2      1177       550       911      1286
 -1      3481    3    0    1
 -2       415       193      1009      2188
 -1      3482    3    0    1
 -2       550        99       940      1286
 -1      3483    3    0    1
 -2       479       940       549      1286
 -1      3484    3    0    1
 -2       940       479       911      1286
 -1      3485    3    0    1
 -2       479      1177       911      1286
 -1      3486    3    0    1
 -2       911       550       940      1286
 -1      3487    3    0    1
 -2      2631      1006      3599      3287
 -1      3488    3    0    1
 -2       835      1343      1990      2120
 -1      3489    3    0    1
 -2       574       950      1169      1288
 -1      3490    3    0    1
 -2       570       574      1169      1288
 -1      3491    3    0    1
 -2       570       119       574      1288
 -1      3492    3    0    1
 -2       946       581       952      2146
 -1      3493    3    0    1
 -2       574       119       950      1288
 -1      3494    3    0    1
 -2      1716      2719      3283      3352
 -1      3495    3    0    1
 -2      2221      1306      2231      2248
 -1      3496    3    0    1
 -2       125      1292      2070      2286
 -1      3497    3    0    1
 -2      1129       305      1376      2288
 -1      3498    3    0    1
 -2       485      1290       484      1183
 -1      3499    3    0    1
 -2      1338      1068      2272      2359
 -1      3500    3    0    1
 -2       306      1133       445      2109
 -1      3501    3    0    1
 -2       574       570       581      1291
 -1      3502    3    0    1
 -2       581       570       954      1291
 -1      3503    3    0    1
 -2       119       570       574      1291
 -1      3504    3    0    1
 -2       119       388       570      1291
 -1      3505    3    0    1
 -2       570       388       954      1291
 -1      3506    3    0    1
 -2      3467      2558      3493      3746
 -1      3507    3    0    1
 -2      3667      2558      3467      3746
 -1      3508    3    0    1
 -2      2496      2458      3667      3746
 -1      3509    3    0    1
 -2       584       125       958      1292
 -1      3510    3    0    1
 -2      2056      1292      2199      2286
 -1      3511    3    0    1
 -2      1008      1314      2113      2310
 -1      3512    3    0    1
 -2       588       906      1166      1293
 -1      3513    3    0    1
 -2       906       588       957      1293
 -1      3514    3    0    1
 -2       969       618       976      2393
 -1      3515    3    0    1
 -2      1477      2942      3230      3664
 -1      3516    3    0    1
 -2      2307       220      2264       219
 -1      3517    3    0    1
 -2      1951      2043      2079      2103
 -1      3518    3    0    1
 -2       587       955      1180      1295
 -1      3519    3    0    1
 -2       593       587      1180      1295
 -1      3520    3    0    1
 -2       126       587       593      1295
 -1      3521    3    0    1
 -2       216      1028      1029      2258
 -1      3522    3    0    1
 -2       325      1034      2179      2195
 -1      3523    3    0    1
 -2      1942      2017      2138      2252
 -1      3524    3    0    1
 -2      1398       854      1086      2092
 -1      3525    3    0    1
 -2       586      1295       482       955
 -1      3526    3    0    1
 -2      1941       357      2150      2173
 -1      3527    3    0    1
 -2       587       126       955      1295
 -1      3528    3    0    1
 -2      1952      2080      2111      2112
 -1      3529    3    0    1
 -2      1201      2797      1728      3265
 -1      3530    3    0    1
 -2       854      1398       886      2092
 -1      3531    3    0    1
 -2      2129      1400      2356      2386
 -1      3532    3    0    1
 -2       611       605      1158      1299
 -1      3533    3    0    1
 -2       149       150       605      1299
 -1      3534    3    0    1
 -2       904      1299       466      1158
 -1      3535    3    0    1
 -2       605       150       963      1299
 -1      3536    3    0    1
 -2       620      1237       621      1300
 -1      3537    3    0    1
 -2      1237       620       974      1300
 -1      3538    3    0    1
 -2       343       621       348      1300
 -1      3539    3    0    1
 -2       620       343       974      1300
 -1      3540    3    0    1
 -2       621       343       620      1300
 -1      3541    3    0    1
 -2       624       157       973      1301
 -1      3542    3    0    1
 -2      2624      2891      3555      3300
 -1      3543    3    0    1
 -2       370      2084      2301      2346
 -1      3544    3    0    1
 -2      1993      2002      2008      2078
 -1      3545    3    0    1
 -2       439      1125      1958      2287
 -1      3546    3    0    1
 -2       267       333      1059      2515
 -1      3547    3    0    1
 -2      3510      3544      3316      3700
 -1      3548    3    0    1
 -2      3525      1024      3694      3713
 -1      3549    3    0    1
 -2       292       352      2088      2176
 -1      3550    3    0    1
 -2       849       883      1120      2005
 -1      3551    3    0    1
 -2       623       971      1233      1303
 -1      3552    3    0    1
 -2       629       623      1233      1303
 -1      3553    3    0    1
 -2       156       623       629      1303
 -1      3554    3    0    1
 -2        98       943      1283      2276
 -1      3555    3    0    1
 -2       622      1303       517       971
 -1      3556    3    0    1
 -2       623       156       971      1303
 -1      3557    3    0    1
 -2       645       982      1242      1304
 -1      3558    3    0    1
 -2       642       645      1242      1304
 -1      3559    3    0    1
 -2       327       396       645      1304
 -1      3560    3    0    1
 -2       220      2148      3439      3734
 -1      3561    3    0    1
 -2      2668      2977      3149      3241
 -1      3562    3    0    1
 -2      2266      1957      2340      2438
 -1      3563    3    0    1
 -2       645       396       982      1304
 -1      3564    3    0    1
 -2       396       327       984      2544
 -1      3565    3    0    1
 -2       153      1608      3611      3434
 -1      3566    3    0    1
 -2       524      1306       523      1244
 -1      3567    3    0    1
 -2      1042      2029      2048      2200
 -1      3568    3    0    1
 -2      2035       403      2128      2214
 -1      3569    3    0    1
 -2      1479      1480      2894      2938
 -1      3570    3    0    1
 -2      1319      3515      3201      3704
 -1      3571    3    0    1
 -2      1382       853       873      2173
 -1      3572    3    0    1
 -2      1133      1111      2073      2109
 -1      3573    3    0    1
 -2       659       989      1272      1309
 -1      3574    3    0    1
 -2       665       659      1272      1309
 -1      3575    3    0    1
 -2      1129      1376      2021      2288
 -1      3576    3    0    1
 -2       774      2031      2048      2117
 -1      3577    3    0    1
 -2       779       780      1045      2306
 -1      3578    3    0    1
 -2       658      1309       539       989
 -1      3579    3    0    1
 -2       674       408      1000      1310
 -1      3580    3    0    1
 -2       675       408       674      1310
 -1      3581    3    0    1
 -2      1960      1959      2089      2129
 -1      3582    3    0    1
 -2      1388      2164      2181      2401
 -1      3583    3    0    1
 -2      3531      3575      3614      3642
 -1      3584    3    0    1
 -2      1657      1499      1658      2768
 -1      3585    3    0    1
 -2      2098       345      2231      2422
 -1      3586    3    0    1
 -2       683       677      1270      1313
 -1      3587    3    0    1
 -2       183       677       683      1313
 -1      3588    3    0    1
 -2       934      1313       537      1270
 -1      3589    3    0    1
 -2       677       183       997      1313
 -1      3590    3    0    1
 -2       693       692      1269      1314
 -1      3591    3    0    1
 -2      2061       363      2101      2225
 -1      3592    3    0    1
 -2      2266      1124       856      1088
 -1      3593    3    0    1
 -2       359      2000      2026      2328
 -1      3594    3    0    1
 -2       417       693       419      1314
 -1      3595    3    0    1
 -2       692       417      1008      1314
 -1      3596    3    0    1
 -2       693       417       692      1314
 -1      3597    3    0    1
 -2       899       696      1007      1315
 -1      3598    3    0    1
 -2      2212      2043      2216      2237
 -1      3599    3    0    1
 -2      2247       666      2283      2339
 -1      3600    3    0    1
 -2       217       397      2142      2279
 -1      3601    3    0    1
 -2      2596       716      3235      2587
 -1      3602    3    0    1
 -2       701       695      1267      1317
 -1      3603    3    0    1
 -2      1390       869       878      2159
 -1      3604    3    0    1
 -2      2032      1940      2099      2338
 -1      3605    3    0    1
 -2       408      1000      1310      2223
 -1      3606    3    0    1
 -2       694      1317       535      1005
 -1      3607    3    0    1
 -2      1942      2003      2017      2302
 -1      3608    3    0    1
 -2      1996      2021      2147      2279
 -1      3609    3    0    1
 -2       714       718      1147      1318
 -1      3610    3    0    1
 -2       208       317       718      1318
 -1      3611    3    0    1
 -2      2567      3106      3603      3625
 -1      3612    3    0    1
 -2       718       317      1016      1318
 -1      3613    3    0    1
 -2       476       475       909      2599
 -1      3614    3    0    1
 -2      1597      1505      2953      3039
 -1      3615    3    0    1
 -2       749      2031      2179      2254
 -1      3616    3    0    1
 -2      1035      2263      2329      2553
 -1      3617    3    0    1
 -2       545       712       720      1320
 -1      3618    3    0    1
 -2      1014       545      1282      1320
 -1      3619    3    0    1
 -2       555       476      2599      2600
 -1      3620    3    0    1
 -2      1936       635      2203      2393
 -1      3621    3    0    1
 -2       712       545      1014      1320
 -1      3622    3    0    1
 -2       866      1405       893      2400
 -1      3623    3    0    1
 -2      1473      1474      2747      2775
 -1      3624    3    0    1
 -2       343      1943      2001      2260
 -1      3625    3    0    1
 -2      1580      1579      2864      2897
 -1      3626    3    0    1
 -2      2004      2200      2235      2262
 -1      3627    3    0    1
 -2       737       730      1279      1323
 -1      3628    3    0    1
 -2       216       730       737      1323
 -1      3629    3    0    1
 -2      1292      2033      2070      2286
 -1      3630    3    0    1
 -2      1337       810      2020      2267
 -1      3631    3    0    1
 -2       762      1037      2145      2406
 -1      3632    3    0    1
 -2       543       731       738      1323
 -1      3633    3    0    1
 -2       730       937      1279      1323
 -1      3634    3    0    1
 -2       730       216      1023      1323
 -1      3635    3    0    1
 -2       543      1023       731      1323
 -1      3636    3    0    1
 -2      1023       543       937      1323
 -1      3637    3    0    1
 -2       543      1279       937      1323
 -1      3638    3    0    1
 -2       937       730      1023      1323
 -1      3639    3    0    1
 -2      2293       392      3502      2556
 -1      3640    3    0    1
 -2      2712      2688      2825      3556
 -1      3641    3    0    1
 -2      1676      1667      1677      3415
 -1      3642    3    0    1
 -2       748      1031      1229      1327
 -1      3643    3    0    1
 -2       755       748      1229      1327
 -1      3644    3    0    1
 -2       232       233       748      1327
 -1      3645    3    0    1
 -2      1989      2175      2184      2208
 -1      3646    3    0    1
 -2       748       233      1031      1327
 -1      3647    3    0    1
 -2       242       765       374      1328
 -1      3648    3    0    1
 -2       920      1328       496      1202
 -1      3649    3    0    1
 -2       764       242      1042      1328
 -1      3650    3    0    1
 -2       765       242       764      1328
 -1      3651    3    0    1
 -2      2074      1943      2260      2350
 -1      3652    3    0    1
 -2      1467      1588      1589      2674
 -1      3653    3    0    1
 -2       976      1936      2246      2393
 -1      3654    3    0    1
 -2      1485      1824      1825      3384
 -1      3655    3    0    1
 -2      3544      3569      3681      3743
 -1      3656    3    0    1
 -2      2898      1735      2972      3027
 -1      3657    3    0    1
 -2       676       684      2160      2223
 -1      3658    3    0    1
 -2      1972       407      2010      2083
 -1      3659    3    0    1
 -2       496      1203      1039      1331
 -1      3660    3    0    1
 -2       766      1039      1203      1331
 -1      3661    3    0    1
 -2       773       766      1203      1331
 -1      3662    3    0    1
 -2       248       766       773      1331
 -1      3663    3    0    1
 -2      1005       694      2168      2342
 -1      3664    3    0    1
 -2       496       767       774      1331
 -1      3665    3    0    1
 -2       766       248      1039      1331
 -1      3666    3    0    1
 -2       767       496      1039      1331
 -1      3667    3    0    1
 -2       790       254      1050      1332
 -1      3668    3    0    1
 -2      1009       193      1012      2188
 -1      3669    3    0    1
 -2       315       287      1343      2163
 -1      3670    3    0    1
 -2       490       785       792      1334
 -1      3671    3    0    1
 -2      1048       490      1194      1334
 -1      3672    3    0    1
 -2      3533      3258      3626      3636
 -1      3673    3    0    1
 -2        80      1764      1831      3320
 -1      3674    3    0    1
 -2       785       490      1048      1334
 -1      3675    3    0    1
 -2      1709      1710      3028      3075
 -1      3676    3    0    1
 -2      1315      1007      1992      2292
 -1      3677    3    0    1
 -2      2007      2073      2109      2239
 -1      3678    3    0    1
 -2       436      1404      1103      2072
 -1      3679    3    0    1
 -2       809       802      1220      1337
 -1      3680    3    0    1
 -2       265       802       809      1337
 -1      3681    3    0    1
 -2       132       957      2453      3443
 -1      3682    3    0    1
 -2      1981      1338      2104      2418
 -1      3683    3    0    1
 -2      1786      1559      3305      3373
 -1      3684    3    0    1
 -2       508       803       810      1337
 -1      3685    3    0    1
 -2       802       926      1220      1337
 -1      3686    3    0    1
 -2       249      1045      1053      2084
 -1      3687    3    0    1
 -2      2031      1324      2179      2182
 -1      3688    3    0    1
 -2       802       265      1057      1337
 -1      3689    3    0    1
 -2       508      1057       803      1337
 -1      3690    3    0    1
 -2      1057       508       926      1337
 -1      3691    3    0    1
 -2       508      1220       926      1337
 -1      3692    3    0    1
 -2       926       802      1057      1337
 -1      3693    3    0    1
 -2       771      1041      2063      2284
 -1      3694    3    0    1
 -2      1557      2729      3612      3337
 -1      3695    3    0    1
 -2      1432      3508      3528      3572
 -1      3696    3    0    1
 -2      1022       217      2105      2399
 -1      3697    3    0    1
 -2      2142       397      2196      2300
 -1      3698    3    0    1
 -2       770      2284      2331      2451
 -1      3699    3    0    1
 -2       825       820      1212      1341
 -1      3700    3    0    1
 -2       276       820       825      1341
 -1      3701    3    0    1
 -2       922      1341       503      1212
 -1      3702    3    0    1
 -2       820       276      1065      1341
 -1      3703    3    0    1
 -2      1391      1105      1984      2010
 -1      3704    3    0    1
 -2      2005      1079      2079      2126
 -1      3705    3    0    1
 -2      2357      1358       406      1357
 -1      3706    3    0    1
 -2      2028      1961      2082      2151
 -1      3707    3    0    1
 -2      1459      1569      1570      3417
 -1      3708    3    0    1
 -2      2062      1979      2075      2352
 -1      3709    3    0    1
 -2      2229       399      2367      2374
 -1      3710    3    0    1
 -2      1997      2108      2153      2176
 -1      3711    3    0    1
 -2       635       970       975      2393
 -1      3712    3    0    1
 -2      1999       338      2256      2328
 -1      3713    3    0    1
 -2      2353      2521      3430      3732
 -1      3714    3    0    1
 -2       284       276      1071      2368
 -1      3715    3    0    1
 -2       815      2015      2325      2411
 -1      3716    3    0    1
 -2      1961      1976      1998      2028
 -1      3717    3    0    1
 -2       312      1390       314      2159
 -1      3718    3    0    1
 -2      1343      1990      1998      2163
 -1      3719    3    0    1
 -2       679       681       998      2185
 -1      3720    3    0    1
 -2      1967      2238      2299      2362
 -1      3721    3    0    1
 -2      1018       208      1021      2222
 -1      3722    3    0    1
 -2      2144       997      2152      2337
 -1      3723    3    0    1
 -2      1387      1092      2003      2302
 -1      3724    3    0    1
 -2      1001       185      1004      2131
 -1      3725    3    0    1
 -2      1329       244      2284      3696
 -1      3726    3    0    1
 -2      3520      3068      3638      3404
 -1      3727    3    0    1
 -2       216       379      2322      2439
 -1      3728    3    0    1
 -2      2122      1962      2201      2262
 -1      3729    3    0    1
 -2      2838      2680      2972      3027
 -1      3730    3    0    1
 -2      2088       844      2107      2357
 -1      3731    3    0    1
 -2      1020      2187      2220      2229
 -1      3732    3    0    1
 -2       217      2147      2196      2399
 -1      3733    3    0    1
 -2      1091      1400      2129      2386
 -1      3734    3    0    1
 -2      1937       408      1974      2035
 -1      3735    3    0    1
 -2       873       853      2150      2173
 -1      3736    3    0    1
 -2      2022      1026      2036      2047
 -1      3737    3    0    1
 -2      2005      1951      2079      2198
 -1      3738    3    0    1
 -2      1006       697      1992      3201
 -1      3739    3    0    1
 -2      2027      2006      2105      2399
 -1      3740    3    0    1
 -2      1964       242      2200      2262
 -1      3741    3    0    1
 -2      2168       416      2194      2268
 -1      3742    3    0    1
 -2      1477      3051      1863      1864
 -1      3743    3    0    1
 -2      1499      1500      1649      2759
 -1      3744    3    0    1
 -2       333       270      2582      3744
 -1      3745    3    0    1
 -2       210      2226      2342      2383
 -1      3746    3    0    1
 -2       321      2229      2258      2354
 -1      3747    3    0    1
 -2       888      1400      2089      2129
 -1      3748    3    0    1
 -2      1079      2005      2079      2198
 -1      3749    3    0    1
 -2       753       734      1024      2116
 -1      3750    3    0    1
 -2       126       960      2244      2425
 -1      3751    3    0    1
 -2      2212      2237      2413      2418
 -1      3752    3    0    1
 -2       331      1331      2117      2321
 -1      3753    3    0    1
 -2       354       135      2425      2441
 -1      3754    3    0    1
 -2      2170       356      2311      2373
 -1      3755    3    0    1
 -2      1031       375      2031      2254
 -1      3756    3    0    1
 -2       187       183      2125      2308
 -1      3757    3    0    1
 -2       244       243      1329      2284
 -1      3758    3    0    1
 -2       858      1125      1374      2129
 -1      3759    3    0    1
 -2      2162       325      2195      2362
 -1      3760    3    0    1
 -2      1297       392      2450      2556
 -1      3761    3    0    1
 -2      1998      2046      2166      2193
 -1      3762    3    0    1
 -2       753      1024      1326      2116
 -1      3763    3    0    1
 -2      3148      2635      3597      3677
 -1      3764    3    0    1
 -2       370       249      1053      2084
 -1      3765    3    0    1
 -2      1036       761      1037      2145
 -1      3766    3    0    1
 -2      1440      1565      1566      2725
 -1      3767    3    0    1
 -2      2926      2927      2998      3558
 -1      3768    3    0    1
 -2      2130       989      2133      2135
 -1      3769    3    0    1
 -2      1051      1047      1935      2278
 -1      3770    3    0    1
 -2      2900      3584      3633      3380
 -1      3771    3    0    1
 -2       995       404      2133      2316
 -1      3772    3    0    1
 -2      1985      1962      2058      2232
 -1      3773    3    0    1
 -2      1294       589       592      2139
 -1      3774    3    0    1
 -2      1376       865      2021      2072
 -1      3775    3    0    1
 -2      1990      1976      1998      2163
 -1      3776    3    0    1
 -2       872      1133      1111      2073
 -1      3777    3    0    1
 -2       958       594      2286      2424
 -1      3778    3    0    1
 -2       684      2125      2160      2407
 -1      3779    3    0    1
 -2      2079      2044      2103      2345
 -1      3780    3    0    1
 -2       331       245      1044      2306
 -1      3781    3    0    1
 -2       150       344       963      2245
 -1      3782    3    0    1
 -2      1061       267      1064      2364
 -1      3783    3    0    1
 -2       907      3036      1849      3468
 -1      3784    3    0    1
 -2      1972      2035      2128      2214
 -1      3785    3    0    1
 -2       699      1316      1992      2185
 -1      3786    3    0    1
 -2      2007      1112      2073      2224
 -1      3787    3    0    1
 -2        98       359      2175      2276
 -1      3788    3    0    1
 -2      1741      2957      2979      3646
 -1      3789    3    0    1
 -2      1027       219      1030      2148
 -1      3790    3    0    1
 -2      2044      1951      2079      2103
 -1      3791    3    0    1
 -2       125       353       958      1932
 -1      3792    3    0    1
 -2       396       982      1304      2282
 -1      3793    3    0    1
 -2      2030       162      2149      2155
 -1      3794    3    0    1
 -2       393       969       976      2246
 -1      3795    3    0    1
 -2       581       582       952      2409
 -1      3796    3    0    1
 -2      1131      1378      2303      2415
 -1      3797    3    0    1
 -2      1954      1983      2019      2039
 -1      3798    3    0    1
 -2      1362       294       295      2038
 -1      3799    3    0    1
 -2       792      1047      1051      2278
 -1      3800    3    0    1
 -2      1044      2306      2405      2406
 -1      3801    3    0    1
 -2      1962      2058      2232      2335
 -1      3802    3    0    1
 -2       661       999      1307      2090
 -1      3803    3    0    1
 -2      2033       125      2070      2210
 -1      3804    3    0    1
 -2      1994      1942      2053      2252
 -1      3805    3    0    1
 -2      1891      1597      1892      3447
 -1      3806    3    0    1
 -2      1932       125      1938      2210
 -1      3807    3    0    1
 -2      2050      1977      2224      2239
 -1      3808    3    0    1
 -2      2006      1022      2105      2399
 -1      3809    3    0    1
 -2      3209      3591      3395      3482
 -1      3810    3    0    1
 -2      1060      1056      1956      2296
 -1      3811    3    0    1
 -2       279      1067      2355      2767
 -1      3812    3    0    1
 -2       792      1334      2278      2366
 -1      3813    3    0    1
 -2      1010       707      1011      2042
 -1      3814    3    0    1
 -2       404       190      2133      2316
 -1      3815    3    0    1
 -2      2106      1969      2241      2400
 -1      3816    3    0    1
 -2       966       962      1949      2156
 -1      3817    3    0    1
 -2      2150      1084      2255      2434
 -1      3818    3    0    1
 -2      1338       819      1981      2104
 -1      3819    3    0    1
 -2       867      1116       879      2227
 -1      3820    3    0    1
 -2      1968      2142      2167      2169
 -1      3821    3    0    1
 -2       201       416      1005      2168
 -1      3822    3    0    1
 -2       413      1310      2152      2223
 -1      3823    3    0    1
 -2       150       963      1299      2245
 -1      3824    3    0    1
 -2      2055      1965      2095      2215
 -1      3825    3    0    1
 -2      1572        12      1573      3159
 -1      3826    3    0    1
 -2      1014       712      2367      2374
 -1      3827    3    0    1
 -2      1049       788      2331      2429
 -1      3828    3    0    1
 -2       968       617      2191      2397
 -1      3829    3    0    1
 -2       183       187      1003      2308
 -1      3830    3    0    1
 -2      1047       369      1051      1935
 -1      3831    3    0    1
 -2      1372       299      2157      2164
 -1      3832    3    0    1
 -2      1022       731      2027      2105
 -1      3833    3    0    1
 -2       170       409       996      2436
 -1      3834    3    0    1
 -2      2051      2098      2218      2358
 -1      3835    3    0    1
 -2      2095       377      2182      2215
 -1      3836    3    0    1
 -2      1065       819       826      2272
 -1      3837    3    0    1
 -2      1973      2011      2025      2193
 -1      3838    3    0    1
 -2      1635      1417      3524      3686
 -1      3839    3    0    1
 -2      2011      2013      2083      2159
 -1      3840    3    0    1
 -2      2162      2299      2305      2362
 -1      3841    3    0    1
 -2       833      1074      1073      2143
 -1      3842    3    0    1
 -2      1017       720      2226      2326
 -1      3843    3    0    1
 -2       694       702      2168      2310
 -1      3844    3    0    1
 -2       599       600       960      2421
 -1      3845    3    0    1
 -2       163       985       986      2115
 -1      3846    3    0    1
 -2      1324       749      2031      2179
 -1      3847    3    0    1
 -2      1396       850      1080      2345
 -1      3848    3    0    1
 -2       549      1283      2186      2249
 -1      3849    3    0    1
 -2      1999      2255      2256      2309
 -1      3850    3    0    1
 -2      1317       201       695      1005
 -1      3851    3    0    1
 -2       944       100       947      2304
 -1      3852    3    0    1
 -2      2175        98      2212      2216
 -1      3853    3    0    1
 -2       630      2280      2314      2390
 -1      3854    3    0    1
 -2      1014       399      2047      2374
 -1      3855    3    0    1
 -2       697      1316      1006      1992
 -1      3856    3    0    1
 -2       731      1022      1026      2300
 -1      3857    3    0    1
 -2      2029      2004      2182      2200
 -1      3858    3    0    1
 -2      1045      1053      2084      2301
 -1      3859    3    0    1
 -2       866       893      1130      2204
 -1      3860    3    0    1
 -2       353      1932      2059      2424
 -1      3861    3    0    1
 -2      3515      1319      3601      3704
 -1      3862    3    0    1
 -2      1961      1310      2082      2152
 -1      3863    3    0    1
 -2       715      1318      2274      2495
 -1      3864    3    0    1
 -2      1389       407      1972      2083
 -1      3865    3    0    1
 -2      2742      1475      2950      1734
 -1      3866    3    0    1
 -2      1999      1948      2255      2309
 -1      3867    3    0    1
 -2      3528      3531      3614      3642
 -1      3868    3    0    1
 -2      1389       313       407      2083
 -1      3869    3    0    1
 -2      1975      2007      2109      2239
 -1      3870    3    0    1
 -2      2080      1384      2178      2255
 -1      3871    3    0    1
 -2      1400       373      2356      2386
 -1      3872    3    0    1
 -2      1980      1939      2032      2057
 -1      3873    3    0    1
 -2      1989      1952      2000      2328
 -1      3874    3    0    1
 -2       847      1364      2132      2423
 -1      3875    3    0    1
 -2       743      1027      2148      2220
 -1      3876    3    0    1
 -2       958      1292      1932      2286
 -1      3877    3    0    1
 -2      1331       774      2048      2117
 -1      3878    3    0    1
 -2      2224      1966      2239      2273
 -1      3879    3    0    1
 -2       853      1084      2150      2173
 -1      3880    3    0    1
 -2       211      1019      2187      2383
 -1      3881    3    0    1
 -2      1984      1972      2010      2128
 -1      3882    3    0    1
 -2      1408       872      1112      2073
 -1      3883    3    0    1
 -2      1971      2008      2107      2357
 -1      3884    3    0    1
 -2       302       342      1077      2302
 -1      3885    3    0    1
 -2       417      1008      2113      2151
 -1      3886    3    0    1
 -2       859      1386       876      2261
 -1      3887    3    0    1
 -2       648       979       983      2248
 -1      3888    3    0    1
 -2       671      2041      2205      2291
 -1      3889    3    0    1
 -2       879      1116      1984      2227
 -1      3890    3    0    1
 -2       974       622      1300      2280
 -1      3891    3    0    1
 -2      2084      1039      2251      2389
 -1      3892    3    0    1
 -2      1039       767      2117      2251
 -1      3893    3    0    1
 -2       731      1023      2322      2354
 -1      3894    3    0    1
 -2      2191       969      2246      2393
 -1      3895    3    0    1
 -2       612       966      2056      2156
 -1      3896    3    0    1
 -2       622      1303       971      2280
 -1      3897    3    0    1
 -2      2101      2061      2225      2382
 -1      3898    3    0    1
 -2       592       571      1294      2139
 -1      3899    3    0    1
 -2       968       617       969      2191
 -1      3900    3    0    1
 -2       296      2052      2067      2092
 -1      3901    3    0    1
 -2       703       700      1009      1922
 -1      3902    3    0    1
 -2      1516      1602      3605      3694
 -1      3903    3    0    1
 -2      1713       565      1714      2937
 -1      3904    3    0    1
 -2      1954      1982      2052      2067
 -1      3905    3    0    1
 -2       594       586       958      2286
 -1      3906    3    0    1
 -2       403      2128      2289      2388
 -1      3907    3    0    1
 -2      2242       628      2250      2464
 -1      3908    3    0    1
 -2       726      1021      1027      2220
 -1      3909    3    0    1
 -2       344       150       969      2191
 -1      3910    3    0    1
 -2      1996      2021      2072      2238
 -1      3911    3    0    1
 -2      1404       437      1968      2072
 -1      3912    3    0    1
 -2      2278      1334      2346      2389
 -1      3913    3    0    1
 -2      1148      2602      2785      2818
 -1      3914    3    0    1
 -2      2032      1980      2057      2338
 -1      3915    3    0    1
 -2      2202      1016      2274      2275
 -1      3916    3    0    1
 -2      1667      3560      3214      3415
 -1      3917    3    0    1
 -2      2002      1993      2008      2289
 -1      3918    3    0    1
 -2      2043      2037      2237      2418
 -1      3919    3    0    1
 -2       233      2145      2254      2334
 -1      3920    3    0    1
 -2      1312       998       681      2185
 -1      3921    3    0    1
 -2       132       133       961      2086
 -1      3922    3    0    1
 -2      1317       702      2081      2294
 -1      3923    3    0    1
 -2      2044      1121      2079      2198
 -1      3924    3    0    1
 -2       707       708      1011      2042
 -1      3925    3    0    1
 -2       654       671       994      2205
 -1      3926    3    0    1
 -2      1006      1992      3599      3704
 -1      3927    3    0    1
 -2      2002      1971      2107      2227
 -1      3928    3    0    1
 -2       296      1123       361      2052
 -1      3929    3    0    1
 -2       359      2000      2175      2249
 -1      3930    3    0    1
 -2      2005      1950      2126      2216
 -1      3931    3    0    1
 -2      1555      3250      3706      3470
 -1      3932    3    0    1
 -2       774       767      1042      2209
 -1      3933    3    0    1
 -2       266       265      1337      2419
 -1      3934    3    0    1
 -2      1310      1000       676      2223
 -1      3935    3    0    1
 -2      1397       296       361      2052
 -1      3936    3    0    1
 -2      1120      1368      2005      2126
 -1      3937    3    0    1
 -2      1955      1086      2065      2092
 -1      3938    3    0    1
 -2      1004      1009      3430      3732
 -1      3939    3    0    1
 -2       618       969      2191      2393
 -1      3940    3    0    1
 -2      1326      1032       753      2236
 -1      3941    3    0    1
 -2       628       625      2192      2250
 -1      3942    3    0    1
 -2      2102      2091      2233      2297
 -1      3943    3    0    1
 -2       126       955      1295      2425
 -1      3944    3    0    1
 -2      1932       353      2059      2071
 -1      3945    3    0    1
 -2      1972       407      1984      2010
 -1      3946    3    0    1
 -2       852      1397       885      1982
 -1      3947    3    0    1
 -2      1987      1975      2024      2034
 -1      3948    3    0    1
 -2      1958      1935      1959      2009
 -1      3949    3    0    1
 -2       843       844      2088      2357
 -1      3950    3    0    1
 -2       325      1034      1324      2179
 -1      3951    3    0    1
 -2       708      2188      2194      2268
 -1      3952    3    0    1
 -2      2062       350      2341      2351
 -1      3953    3    0    1
 -2       402       995      2133      2320
 -1      3954    3    0    1
 -2       607       964      1302      2464
 -1      3955    3    0    1
 -2      2869      2793      3560      3637
 -1      3956    3    0    1
 -2       849      1120      1368      2005
 -1      3957    3    0    1
 -2      1939      2181      2210      2217
 -1      3958    3    0    1
 -2      1381       315      1998      2163
 -1      3959    3    0    1
 -2      1994      2001      2096      2252
 -1      3960    3    0    1
 -2       359      1989      2175      2184
 -1      3961    3    0    1
 -2       563      2304      2379      2449
 -1      3962    3    0    1
 -2       350      1945      2218      2248
 -1      3963    3    0    1
 -2      2168       694      2310      2408
 -1      3964    3    0    1
 -2       377      2162      2182      2215
 -1      3965    3    0    1
 -2       417       419      1966      2113
 -1      3966    3    0    1
 -2       408       413      1973      2076
 -1      3967    3    0    1
 -2       672       671       996      2041
 -1      3968    3    0    1
 -2      1373      1385      1940      2099
 -1      3969    3    0    1
 -2       872      1408       896      2073
 -1      3970    3    0    1
 -2      1962      1350      2122      2201
 -1      3971    3    0    1
 -2      1898      1616      3418      3455
 -1      3972    3    0    1
 -2       249       248      1045      2321
 -1      3973    3    0    1
 -2      2189      1306      2221      2248
 -1      3974    3    0    1
 -2       400      1933      2298      2343
 -1      3975    3    0    1
 -2       309       310      2112      2178
 -1      3976    3    0    1
 -2      2053       142      2138      2165
 -1      3977    3    0    1
 -2      1105       867      1984      2227
 -1      3978    3    0    1
 -2      2122      2004      2235      2262
 -1      3979    3    0    1
 -2       720      1320      2226      2342
 -1      3980    3    0    1
 -2      2075      1944      2352      2377
 -1      3981    3    0    1
 -2       402       175      2041      2135
 -1      3982    3    0    1
 -2      2049      1047      2141      2172
 -1      3983    3    0    1
 -2      1005       201      2168      2268
 -1      3984    3    0    1
 -2      2170      2311      2403      2424
 -1      3985    3    0    1
 -2      2037      2044      2101      2103
 -1      3986    3    0    1
 -2       338      1999      2256      2309
 -1      3987    3    0    1
 -2      1513      1514      1638      3157
 -1      3988    3    0    1
 -2      1956       368      2068      2234
 -1      3989    3    0    1
 -2       190       404      2133      2140
 -1      3990    3    0    1
 -2      1406       433       434      2432
 -1      3991    3    0    1
 -2      1505      1506      1575      3331
 -1      3992    3    0    1
 -2      1118      1096      2363      2377
 -1      3993    3    0    1
 -2      1045       248      2306      2321
 -1      3994    3    0    1
 -2      1955      1983      2065      2336
 -1      3995    3    0    1
 -2      1935       369      1958      2040
 -1      3996    3    0    1
 -2      1092       859      2003      2261
 -1      3997    3    0    1
 -2      1965      2305      2433      2455
 -1      3998    3    0    1
 -2      1987      1975      2007      2109
 -1      3999    3    0    1
 -2      1359       844      2078      2088
 -1      4000    3    0    1
 -2      1359       843       844      2088
 -1      4001    3    0    1
 -2      1323       321      2036      2047
 -1      4002    3    0    1
 -2      2099      1940      2277      2338
 -1      4003    3    0    1
 -2      1982      1082      2052      2067
 -1      4004    3    0    1
 -2      3192      3657      3414      3715
 -1      4005    3    0    1
 -2      1123      2019      2052      2092
 -1      4006    3    0    1
 -2       689      1002      2134      2308
 -1      4007    3    0    1
 -2      1039      2084      2366      2389
 -1      4008    3    0    1
 -2       752      1032      2127      2236
 -1      4009    3    0    1
 -2      2146        99      2379      2414
 -1      4010    3    0    1
 -2      1966      2050      2224      2239
 -1      4011    3    0    1
 -2      2122      1963      2372      2446
 -1      4012    3    0    1
 -2      1967      1996      2147      2299
 -1      4013    3    0    1
 -2      1404      1968      2021      2072
 -1      4014    3    0    1
 -2       279       282      2391      2442
 -1      4015    3    0    1
 -2      1953      2061      2101      2382
 -1      4016    3    0    1
 -2       989      2130      2133      2140
 -1      4017    3    0    1
 -2      2100      1978      2297      2360
 -1      4018    3    0    1
 -2      2220      1028      2229      2258
 -1      4019    3    0    1
 -2       646      1305      2213      2250
 -1      4020    3    0    1
 -2       819      1981      2104      2272
 -1      4021    3    0    1
 -2      1313       684      1974      2140
 -1      4022    3    0    1
 -2      1283       943      2186      2276
 -1      4023    3    0    1
 -2      2105       731      2322      2354
 -1      4024    3    0    1
 -2      1937       408      1995      2013
 -1      4025    3    0    1
 -2      2088      2107      2008      2357
 -1      4026    3    0    1
 -2       394       393       976      2246
 -1      4027    3    0    1
 -2      2078      1947      2153      2088
 -1      4028    3    0    1
 -2       351       985      2115      2231
 -1      4029    3    0    1
 -2      2201      2122      2262      2372
 -1      4030    3    0    1
 -2       351       349       985      2231
 -1      4031    3    0    1
 -2      1950      2175      2208      2216
 -1      4032    3    0    1
 -2       847      1367      1364      2423
 -1      4033    3    0    1
 -2       708       725      1011      2194
 -1      4034    3    0    1
 -2      1501      1502      2548      3406
 -1      4035    3    0    1
 -2      2004      1963      2207      2446
 -1      4036    3    0    1
 -2      2258       216      2322      2439
 -1      4037    3    0    1
 -2       383      1530      3548      1828
 -1      4038    3    0    1
 -2      1036       761      2145      2329
 -1      4039    3    0    1
 -2       244       332      3497      3696
 -1      4040    3    0    1
 -2      1096       861      2363      2377
 -1      4041    3    0    1
 -2      1045       780      2301      2387
 -1      4042    3    0    1
 -2       994       671      2041      2205
 -1      4043    3    0    1
 -2      1983      1955      2039      2336
 -1      4044    3    0    1
 -2       197      2042      2268      2294
 -1      4045    3    0    1
 -2      1403       863      1100      2077
 -1      4046    3    0    1
 -2       992       658       988      2130
 -1      4047    3    0    1
 -2       716       709      1569      3412
 -1      4048    3    0    1
 -2       343       348      1943      2260
 -1      4049    3    0    1
 -2       974      1300      2001      2280
 -1      4050    3    0    1
 -2      2328      2000      2371      2404
 -1      4051    3    0    1
 -2       216      2258      2322      2354
 -1      4052    3    0    1
 -2      3133      3031      3397      3727
 -1      4053    3    0    1
 -2       622      1300      2280      2358
 -1      4054    3    0    1
 -2       211       210      1019      2383
 -1      4055    3    0    1
 -2       284      1071      2361      2368
 -1      4056    3    0    1
 -2      2251      1039      2366      2389
 -1      4057    3    0    1
 -2      1987      2034      2124      2273
 -1      4058    3    0    1
 -2      1612      1678      1679      3223
 -1      4059    3    0    1
 -2      2421       960      2425      2435
 -1      4060    3    0    1
 -2      2106      1968      2142      2279
 -1      4061    3    0    1
 -2       643      2213      2319      2585
 -1      4062    3    0    1
 -2       438      1977      2073      2224
 -1      4063    3    0    1
 -2      2278       792      2366      2389
 -1      4064    3    0    1
 -2       404       989      2133      2140
 -1      4065    3    0    1
 -2       832      1069      1072      2085
 -1      4066    3    0    1
 -2      1133       445      2109      2119
 -1      4067    3    0    1
 -2      2006      1022      2027      2105
 -1      4068    3    0    1
 -2      2012      2232      2335      2448
 -1      4069    3    0    1
 -2       336       100      2304      2431
 -1      4070    3    0    1
 -2       321      1020      1028      2229
 -1      4071    3    0    1
 -2      2028       417      2082      2206
 -1      4072    3    0    1
 -2      1017      1933      2326      2375
 -1      4073    3    0    1
 -2      2118      1341      2272      2376
 -1      4074    3    0    1
 -2       151       134      2244      2385
 -1      4075    3    0    1
 -2      3441       409      3444      3737
 -1      4076    3    0    1
 -2       358      1369      1121      2198
 -1      4077    3    0    1
 -2      1071       945      2361      2449
 -1      4078    3    0    1
 -2       299      1114      1090      2157
 -1      4079    3    0    1
 -2      2040       369      2172      2312
 -1      4080    3    0    1
 -2       854      1123      1085      2092
 -1      4081    3    0    1
 -2       359        98      2175      2216
 -1      4082    3    0    1
 -2      1361      1362      1979      2038
 -1      4083    3    0    1
 -2      1958      1125      2089      2287
 -1      4084    3    0    1
 -2      1337       367      2020      2049
 -1      4085    3    0    1
 -2      1052       797      2137      2301
 -1      4086    3    0    1
 -2      1034       325      2006      2195
 -1      4087    3    0    1
 -2       582       954      2269      2409
 -1      4088    3    0    1
 -2       401      1933      2064      2326
 -1      4089    3    0    1
 -2      1993       405      2289      2426
 -1      4090    3    0    1
 -2      1313       997       684      2160
 -1      4091    3    0    1
 -2       377       325      1324      2179
 -1      4092    3    0    1
 -2      2203       970      2293      2393
 -1      4093    3    0    1
 -2      1341      1065       826      2272
 -1      4094    3    0    1
 -2      1972      1937      1995      2013
 -1      4095    3    0    1
 -2       413      1961      2025      2076
 -1      4096    3    0    1
 -2       419      1966      2113      2310
 -1      4097    3    0    1
 -2       321      2036      2047      2229
 -1      4098    3    0    1
 -2      1020       399      2187      2229
 -1      4099    3    0    1
 -2      1942      1994      2158      2252
 -1      4100    3    0    1
 -2      1116      1971      2227      2357
 -1      4101    3    0    1
 -2       349      1306      2098      2231
 -1      4102    3    0    1
 -2      2231       345      2417      2422
 -1      4103    3    0    1
 -2       100       947      2304      2416
 -1      4104    3    0    1
 -2      1979      2062      2341      2351
 -1      4105    3    0    1
 -2       555       552       942      1931
 -1      4106    3    0    1
 -2       552       555      1285      1931
 -1      4107    3    0    1
 -2       941       552      1285      1931
 -1      4108    3    0    1
 -2       266      1062      2325      2419
 -1      4109    3    0    1
 -2      2156       604      2161      2245
 -1      4110    3    0    1
 -2      1407       306       445      2119
 -1      4111    3    0    1
 -2       839       840      2122      2201
 -1      4112    3    0    1
 -2       359      1283      2249      2276
 -1      4113    3    0    1
 -2      1309       989      2130      2135
 -1      4114    3    0    1
 -2      2003      1092      2261      2302
 -1      4115    3    0    1
 -2      1955      1365      2132      2423
 -1      4116    3    0    1
 -2      1968      2106      2142      2169
 -1      4117    3    0    1
 -2      1935      1047      2141      2278
 -1      4118    3    0    1
 -2      1950      1989      2111      2143
 -1      4119    3    0    1
 -2      1394       864      1102      2176
 -1      4120    3    0    1
 -2       354       126      1295      2425
 -1      4121    3    0    1
 -2      1976      1998      2028      2206
 -1      4122    3    0    1
 -2      2116       735      2274      2495
 -1      4123    3    0    1
 -2      1386      1940      2003      2261
 -1      4124    3    0    1
 -2      1934      2054      2059      2071
 -1      4125    3    0    1
 -2      1074       833       834      2143
 -1      4126    3    0    1
 -2      1969      2241      2400      2415
 -1      4127    3    0    1
 -2       658      1309       989      2130
 -1      4128    3    0    1
 -2      2309      1934      2311      2373
 -1      4129    3    0    1
 -2      1028      1020      2220      2229
 -1      4130    3    0    1
 -2      1962       242      1964      2262
 -1      4131    3    0    1
 -2       658       992       666      2130
 -1      4132    3    0    1
 -2       450       554      2625      2726
 -1      4133    3    0    1
 -2      1294       589       956      2547
 -1      4134    3    0    1
 -2      1306       980      2189      2221
 -1      4135    3    0    1
 -2       183       191       997      2144
 -1      4136    3    0    1
 -2      2125      1002      2308      2316
 -1      4137    3    0    1
 -2       816      2325      2364      2444
 -1      4138    3    0    1
 -2      2034      1987      2124      2326
 -1      4139    3    0    1
 -2      1991      2027      2105      2399
 -1      4140    3    0    1
 -2       356      2197      2309      2404
 -1      4141    3    0    1
 -2       661       681       999      2090
 -1      4142    3    0    1
 -2      1284       942       552      1931
 -1      4143    3    0    1
 -2       193      3693      3410      3699
 -1      4144    3    0    1
 -2      1057       803      1337      2267
 -1      4145    3    0    1
 -2      2116      1326      2236      2402
 -1      4146    3    0    1
 -2       694      2168      2342      2408
 -1      4147    3    0    1
 -2      2026       576      2371      2445
 -1      4148    3    0    1
 -2       707      1009      2188      2353
 -1      4149    3    0    1
 -2       865       892      2021      2072
 -1      4150    3    0    1
 -2       863      1403       891      2077
 -1      4151    3    0    1
 -2      1967      1996      2021      2147
 -1      4152    3    0    1
 -2       197       414      1010      2042
 -1      4153    3    0    1
 -2      2114      2054      2174      2183
 -1      4154    3    0    1
 -2       973       628       625      2192
 -1      4155    3    0    1
 -2      1951      2005      2079      2126
 -1      4156    3    0    1
 -2      1970      2016      2343      2430
 -1      4157    3    0    1
 -2       394       976      1936      2246
 -1      4158    3    0    1
 -2       672       995      2041      2320
 -1      4159    3    0    1
 -2       844      2078      2088      2107
 -1      4160    3    0    1
 -2       815       798      1061      2015
 -1      4161    3    0    1
 -2      2081       702      2113      2294
 -1      4162    3    0    1
 -2       573       571      1288      2440
 -1      4163    3    0    1
 -2       406       293      2107      2227
 -1      4164    3    0    1
 -2      2034      1975      2239      2273
 -1      4165    3    0    1
 -2       622       971      2098      2280
 -1      4166    3    0    1
 -2       417      1008      1314      2113
 -1      4167    3    0    1
 -2      1010      1003      2042      2144
 -1      4168    3    0    1
 -2       797       798      1053      2270
 -1      4169    3    0    1
 -2      3195      1455      3248      3347
 -1      4170    3    0    1
 -2      2135       178      2205      2283
 -1      4171    3    0    1
 -2      1396      1953      2044      2345
 -1      4172    3    0    1
 -2      1973      1995      2011      2013
 -1      4173    3    0    1
 -2       988       403      2289      2388
 -1      4174    3    0    1
 -2      1939      1980      2032      2154
 -1      4175    3    0    1
 -2       205       316      1685      3532
 -1      4176    3    0    1
 -2      1939      1980      2154      2157
 -1      4177    3    0    1
 -2       286      1950      2143      2208
 -1      4178    3    0    1
 -2      1932       958      2286      2424
 -1      4179    3    0    1
 -2      1935      1959      2009      2123
 -1      4180    3    0    1
 -2      1311       999       679      2333
 -1      4181    3    0    1
 -2      1938      1932      2054      2071
 -1      4182    3    0    1
 -2       744       743      1030      2148
 -1      4183    3    0    1
 -2      1948      2255      2309      2434
 -1      4184    3    0    1
 -2      1965      2162      2215      2305
 -1      4185    3    0    1
 -2       835      1345      1076      1990
 -1      4186    3    0    1
 -2      2593      1152      2636      2711
 -1      4187    3    0    1
 -2      2332      2228      3496      2760
 -1      4188    3    0    1
 -2       399      1014      2367      2374
 -1      4189    3    0    1
 -2      1384       874      2080      2178
 -1      4190    3    0    1
 -2      1993      1947      2008      2030
 -1      4191    3    0    1
 -2       734       735      1322      2116
 -1      4192    3    0    1
 -2       720      2226      2326      2342
 -1      4193    3    0    1
 -2      2094      2074      2218      2358
 -1      4194    3    0    1
 -2       163       351       985      2115
 -1      4195    3    0    1
 -2      1073      1950      2111      2143
 -1      4196    3    0    1
 -2      1292      2033      2056      2199
 -1      4197    3    0    1
 -2      1959      1958      2009      2089
 -1      4198    3    0    1
 -2       857      1114       875      2154
 -1      4199    3    0    1
 -2      2006      1967      2147      2299
 -1      4200    3    0    1
 -2       835      1344       836      1990
 -1      4201    3    0    1
 -2       185       184      1004      2131
 -1      4202    3    0    1
 -2      2091      2807      3219      3701
 -1      4203    3    0    1
 -2      1350       839      2122      2201
 -1      4204    3    0    1
 -2      2137      2384      3497      3696
 -1      4205    3    0    1
 -2       436       437      2169      2204
 -1      4206    3    0    1
 -2      1053       798      1054      2270
 -1      4207    3    0    1
 -2      1364      2132      2423      2438
 -1      4208    3    0    1
 -2       333       267      1061      2364
 -1      4209    3    0    1
 -2       870       895      2045      2344
 -1      4210    3    0    1
 -2       878       869      2083      2159
 -1      4211    3    0    1
 -2      1368       849      2005      2126
 -1      4212    3    0    1
 -2       184       185       999      2333
 -1      4213    3    0    1
 -2      1044       779      2306      2406
 -1      4214    3    0    1
 -2       316      3547      3601      3704
 -1      4215    3    0    1
 -2       819      1065      1981      2272
 -1      4216    3    0    1
 -2       860      1401       889      2058
 -1      4217    3    0    1
 -2       792      2278      2313      2389
 -1      4218    3    0    1
 -2      2215      1965      2305      2433
 -1      4219    3    0    1
 -2      1085      1123      2052      2092
 -1      4220    3    0    1
 -2      2712      3556      3172      3610
 -1      4221    3    0    1
 -2       407       313      2010      2083
 -1      4222    3    0    1
 -2       350      2062      2218      2351
 -1      4223    3    0    1
 -2      1090      1114      2154      2157
 -1      4224    3    0    1
 -2       374       242      1328      1964
 -1      4225    3    0    1
 -2       866       893      2204      2400
 -1      4226    3    0    1
 -2       951      2328      2371      2404
 -1      4227    3    0    1
 -2       618       635       976      2393
 -1      4228    3    0    1
 -2       276       364      2368      2376
 -1      4229    3    0    1
 -2      1997      1947      2108      2149
 -1      4230    3    0    1
 -2       284       360      2023      2378
 -1      4231    3    0    1
 -2      2360      2211      2520      3042
 -1      4232    3    0    1
 -2       385       966      1949      2156
 -1      4233    3    0    1
 -2      1425      1426      3432      3486
 -1      4234    3    0    1
 -2       851      1384      1370      2178
 -1      4235    3    0    1
 -2      1076       835      1990      2120
 -1      4236    3    0    1
 -2      1391       867       879      1984
 -1      4237    3    0    1
 -2      1983      1954      2019      2067
 -1      4238    3    0    1
 -2       196      1609      2839      1760
 -1      4239    3    0    1
 -2       162      1945      2149      2155
 -1      4240    3    0    1
 -2      2027      1991      2195      2399
 -1      4241    3    0    1
 -2      1949       142      2277      2410
 -1      4242    3    0    1
 -2       134      2199      2318      2385
 -1      4243    3    0    1
 -2       408      1937      1974      2407
 -1      4244    3    0    1
 -2       871      1117       880      2193
 -1      4245    3    0    1
 -2      1038       762      2263      2406
 -1      4246    3    0    1
 -2      2726      2536      3584      3633
 -1      4247    3    0    1
 -2       752       771      2063      2236
 -1      4248    3    0    1
 -2      1002       187      2125      2308
 -1      4249    3    0    1
 -2      2534      2602      1681      2818
 -1      4250    3    0    1
 -2       749      1031      2031      2254
 -1      4251    3    0    1
 -2       612      2056      2385      2156
 -1      4252    3    0    1
 -2      1965      2162      2305      2362
 -1      4253    3    0    1
 -2       558       549       943      2186
 -1      4254    3    0    1
 -2      2152       676      2160      2223
 -1      4255    3    0    1
 -2       995       689      1002      2316
 -1      4256    3    0    1
 -2       702      1008      2113      2310
 -1      4257    3    0    1
 -2       350      1945      2341      2351
 -1      4258    3    0    1
 -2       402       404       989      2133
 -1      4259    3    0    1
 -2       646       643      1304      2213
 -1      4260    3    0    1
 -2      1114       299       340      2157
 -1      4261    3    0    1
 -2      1024       734      1322      2116
 -1      4262    3    0    1
 -2       437      1968      2169      2204
 -1      4263    3    0    1
 -2      1951      2044      2079      2198
 -1      4264    3    0    1
 -2      1428      1427      1510      3435
 -1      4265    3    0    1
 -2      1037       762      1044      2406
 -1      4266    3    0    1
 -2       881       861      2350      2363
 -1      4267    3    0    1
 -2       438       420      1977      2120
 -1      4268    3    0    1
 -2       286       355      1073      2143
 -1      4269    3    0    1
 -2       393      2097      2246      2390
 -1      4270    3    0    1
 -2      1005      2268      1317       201
 -1      4271    3    0    1
 -2      3132      3127      3607      3386
 -1      4272    3    0    1
 -2       869      1379      2083      2159
 -1      4273    3    0    1
 -2      1976      1961      2025      2082
 -1      4274    3    0    1
 -2       315      1343      1998      2163
 -1      4275    3    0    1
 -2       306      1109      2109      2119
 -1      4276    3    0    1
 -2      1635      1685      3532      3050
 -1      4277    3    0    1
 -2      1401      1095      1985      2058
 -1      4278    3    0    1
 -2      1283       943       549      2186
 -1      4279    3    0    1
 -2       363      1953      2061      2101
 -1      4280    3    0    1
 -2      2029      2004      2095      2182
 -1      4281    3    0    1
 -2      2805      2611      2904      3559
 -1      4282    3    0    1
 -2       858       888      1125      2129
 -1      4283    3    0    1
 -2      1487      2826      3553      3081
 -1      4284    3    0    1
 -2      2001       974      2280      2314
 -1      4285    3    0    1
 -2       362      1366      1365      2423
 -1      4286    3    0    1
 -2      2085       831      2444      2447
 -1      4287    3    0    1
 -2      1297      2242      2394      2450
 -1      4288    3    0    1
 -2      1950      1989      2143      2208
 -1      4289    3    0    1
 -2      1351       291       303      2201
 -1      4290    3    0    1
 -2       142       962      2138      2161
 -1      4291    3    0    1
 -2      1094      2060      2356      2386
 -1      4292    3    0    1
 -2       967       144       970      2293
 -1      4293    3    0    1
 -2       407      1391      1984      2010
 -1      4294    3    0    1
 -2      1354       311      1355      2174
 -1      4295    3    0    1
 -2      2033       966      2056      2199
 -1      4296    3    0    1
 -2       294      1361      1946      2038
 -1      4297    3    0    1
 -2      2150      1941      2173      2373
 -1      4298    3    0    1
 -2      1324       377      2179      2182
 -1      4299    3    0    1
 -2      1943       348      2074      2260
 -1      4300    3    0    1
 -2       630       622       974      2280
 -1      4301    3    0    1
 -2      3535      2658      3579      3307
 -1      4302    3    0    1
 -2      2044      2101      2103      2345
 -1      4303    3    0    1
 -2      2007      1977      2073      2239
 -1      4304    3    0    1
 -2      1960      2012      2129      2386
 -1      4305    3    0    1
 -2      1394       294      1946      2038
 -1      4306    3    0    1
 -2      1937      1972      1995      2035
 -1      4307    3    0    1
 -2       374      2232      2251      2335
 -1      4308    3    0    1
 -2      1939      2157      2164      2181
 -1      4309    3    0    1
 -2       414      1010      2042      2144
 -1      4310    3    0    1
 -2      1988      1969      2177      2298
 -1      4311    3    0    1
 -2       866      1104      2400      2415
 -1      4312    3    0    1
 -2      2125       183      2144      2308
 -1      4313    3    0    1
 -2      2204      2106      2241      2400
 -1      4314    3    0    1
 -2      1990      1977      2120      2206
 -1      4315    3    0    1
 -2      1332       788      2412      2451
 -1      4316    3    0    1
 -2       409       170      1307      2420
 -1      4317    3    0    1
 -2       369       372      1051      1935
 -1      4318    3    0    1
 -2       149       968       969      2191
 -1      4319    3    0    1
 -2       413       408      1310      2223
 -1      4320    3    0    1
 -2      2296      2118      2327      2443
 -1      4321    3    0    1
 -2       708      2042      2188      2268
 -1      4322    3    0    1
 -2       294      1362      1361      2038
 -1      4323    3    0    1
 -2       362      1365      1955      2065
 -1      4324    3    0    1
 -2       397       217      2142      2196
 -1      4325    3    0    1
 -2      2146       382      2365      2370
 -1      4326    3    0    1
 -2      1013       400      1017      1933
 -1      4327    3    0    1
 -2      1952      2080      2112      2178
 -1      4328    3    0    1
 -2      1960      2012      2069      2123
 -1      4329    3    0    1
 -2       244       243      2284      2384
 -1      4330    3    0    1
 -2      2270       258      2301      2346
 -1      4331    3    0    1
 -2       594      2286      2318       586
 -1      4332    3    0    1
 -2       400       401      1017      1933
 -1      4333    3    0    1
 -2       987       327      2291      2544
 -1      4334    3    0    1
 -2      1955      1983      2019      2092
 -1      4335    3    0    1
 -2      2124      2034      2326      2408
 -1      4336    3    0    1
 -2       940       549      1286      2186
 -1      4337    3    0    1
 -2       600       599       961      2421
 -1      4338    3    0    1
 -2       699      1992      2292      3431
 -1      4339    3    0    1
 -2      1079      1395      2005      2198
 -1      4340    3    0    1
 -2      1361       845      2075      2230
 -1      4341    3    0    1
 -2      1389       878      2083      2159
 -1      4342    3    0    1
 -2      1989      1950      2175      2208
 -1      4343    3    0    1
 -2      1978      2102      2233      2297
 -1      4344    3    0    1
 -2       414      1003      1010      2144
 -1      4345    3    0    1
 -2       984       327       987      2544
 -1      4346    3    0    1
 -2      2109      1987      2119      2344
 -1      4347    3    0    1
 -2      2111      1989      2112      2184
 -1      4348    3    0    1
 -2       958      2059      2170      2424
 -1      4349    3    0    1
 -2      2041       996      2320      2436
 -1      4350    3    0    1
 -2       857      1090      2154      2157
 -1      4351    3    0    1
 -2       377      2095      2162      2215
 -1      4352    3    0    1
 -2       662      2739      3338      3672
 -1      4353    3    0    1
 -2      1765      1764      3231      3394
 -1      4354    3    0    1
 -2      2051      1944      2074      2094
 -1      4355    3    0    1
 -2      2023       558      2265      2378
 -1      4356    3    0    1
 -2      1309       658       666      2130
 -1      4357    3    0    1
 -2       396       982      3519      3154
 -1      4358    3    0    1
 -2      1291      2395      2409      3442
 -1      4359    3    0    1
 -2       966       612      2056      2199
 -1      4360    3    0    1
 -2      1943       288      2096      2350
 -1      4361    3    0    1
 -2      2188       707      2042       708
 -1      4362    3    0    1
 -2      2107      2088      2008      2078
 -1      4363    3    0    1
 -2       378      1349      2372      2446
 -1      4364    3    0    1
 -2       850      1121      1369      2345
 -1      4365    3    0    1
 -2      1355       842      2114      2183
 -1      4366    3    0    1
 -2       981       643      2213      2319
 -1      4367    3    0    1
 -2      1313       684      2125      2160
 -1      4368    3    0    1
 -2      2440       950      2549      2584
 -1      4369    3    0    1
 -2      1338       819      2104      2272
 -1      4370    3    0    1
 -2       242      1042      1328      1964
 -1      4371    3    0    1
 -2       771       752      2127      2236
 -1      4372    3    0    1
 -2      1386       859      1093      2261
 -1      4373    3    0    1
 -2      2849      1424      3243      3674
 -1      4374    3    0    1
 -2      2361       563      2379      2449
 -1      4375    3    0    1
 -2      2034       401      2064      2326
 -1      4376    3    0    1
 -2      1022       217      1026      2300
 -1      4377    3    0    1
 -2       573       941      1289      1931
 -1      4378    3    0    1
 -2      1369      2044      2079      2345
 -1      4379    3    0    1
 -2      1987      1975      2109      2119
 -1      4380    3    0    1
 -2      1976      1961      1998      2166
 -1      4381    3    0    1
 -2      1295       586       594      2425
 -1      4382    3    0    1
 -2       288      1346      1943      2096
 -1      4383    3    0    1
 -2      1348      1077      2158      2180
 -1      4384    3    0    1
 -2       853      1382      1083      2173
 -1      4385    3    0    1
 -2      1988       400      2298      2343
 -1      4386    3    0    1
 -2      2117      1039      2251      2321
 -1      4387    3    0    1
 -2      2055      2095      2207      2215
 -1      4388    3    0    1
 -2      1980      1939      2070      2217
 -1      4389    3    0    1
 -2      2157      1372      2164      2181
 -1      4390    3    0    1
 -2       845      1360      2075      2230
 -1      4391    3    0    1
 -2      2540       981      2687      2761
 -1      4392    3    0    1
 -2      1329      1041       770      2284
 -1      4393    3    0    1
 -2       886      1398      2019      2092
 -1      4394    3    0    1
 -2       600       617       960      2397
 -1      4395    3    0    1
 -2       573       552       941      1931
 -1      4396    3    0    1
 -2       863      1128      1375      2077
 -1      4397    3    0    1
 -2       259      1053      1054      2270
 -1      4398    3    0    1
 -2      1052       334      1055      2437
 -1      4399    3    0    1
 -2       798      2270      2301      2437
 -1      4400    3    0    1
 -2      1943      1994      2001      2260
 -1      4401    3    0    1
 -2       635       975      2203      2393
 -1      4402    3    0    1
 -2      1771       799      1772      3328
 -1      4403    3    0    1
 -2       304      1360      1363      2230
 -1      4404    3    0    1
 -2      2412       334      2437      2457
 -1      4405    3    0    1
 -2      2238      2077      2299      2362
 -1      4406    3    0    1
 -2       290       378      2372      2446
 -1      4407    3    0    1
 -2       712       720      1320      2367
 -1      4408    3    0    1
 -2      1029       216      2258      2439
 -1      4409    3    0    1
 -2       690       707      1010      2042
 -1      4410    3    0    1
 -2      2037      1951      2044      2103
 -1      4411    3    0    1
 -2       676       684       997      2160
 -1      4412    3    0    1
 -2      2142      1968      2167      2279
 -1      4413    3    0    1
 -2      1060       810      2285      2396
 -1      4414    3    0    1
 -2      2110      2177      2430      2432
 -1      4415    3    0    1
 -2      2137      1046      2384      2387
 -1      4416    3    0    1
 -2      2173      2150      2373      2434
 -1      4417    3    0    1
 -2      2077       863      2238      2305
 -1      4418    3    0    1
 -2      2024      1987      2034      2064
 -1      4419    3    0    1
 -2      1376       305      2238      2288
 -1      4420    3    0    1
 -2       635       636       977      1936
 -1      4421    3    0    1
 -2       190      1313      1974      2140
 -1      4422    3    0    1
 -2      2025      1976      2046      2166
 -1      4423    3    0    1
 -2       321      2036      2354      1323
 -1      4424    3    0    1
 -2       982       646      1304      2213
 -1      4425    3    0    1
 -2      1954      2219      2225      2324
 -1      4426    3    0    1
 -2       364      1070      1071      2368
 -1      4427    3    0    1
 -2      2073      1975      2109      2239
 -1      4428    3    0    1
 -2       643       664      1304      2585
 -1      4429    3    0    1
 -2      1960      1959      2009      2089
 -1      4430    3    0    1
 -2       397      2142      2298      2300
 -1      4431    3    0    1
 -2       132       133      2086      2453
 -1      4432    3    0    1
 -2      2018      1932      2210      2217
 -1      4433    3    0    1
 -2       197       414      2042      2294
 -1      4434    3    0    1
 -2      2033       966      2057      2156
 -1      4435    3    0    1
 -2       363       274      2101      2104
 -1      4436    3    0    1
 -2      2012      1960      2060      2386
 -1      4437    3    0    1
 -2       810      2049      2285      2396
 -1      4438    3    0    1
 -2      2077      2238      2299      2305
 -1      4439    3    0    1
 -2       863       891      1128      2077
 -1      4440    3    0    1
 -2      1947      1993      2008      2108
 -1      4441    3    0    1
 -2      2269       599      2421      2428
 -1      4442    3    0    1
 -2      1624      1591      2903      3272
 -1      4443    3    0    1
 -2       948      2197      2370      2380
 -1      4444    3    0    1
 -2      2026      2249      2365      2371
 -1      4445    3    0    1
 -2      1123       886      2019      2092
 -1      4446    3    0    1
 -2       756      1991      2179      2195
 -1      4447    3    0    1
 -2       581       952      2146      2409
 -1      4448    3    0    1
 -2       822      1339      2355      2454
 -1      4449    3    0    1
 -2       762      2145      2263      2406
 -1      4450    3    0    1
 -2       178       326      2205      2283
 -1      4451    3    0    1
 -2       549       558      1286      2186
 -1      4452    3    0    1
 -2      1132      1380      2045      2430
 -1      4453    3    0    1
 -2       402       175       995      2041
 -1      4454    3    0    1
 -2       743      1027      1030      2148
 -1      4455    3    0    1
 -2      2848      2644      3688      3400
 -1      4456    3    0    1
 -2      2020      1337      2267      2419
 -1      4457    3    0    1
 -2       132       961      1296      2086
 -1      4458    3    0    1
 -2      1998      1990      2120      2206
 -1      4459    3    0    1
 -2      2072      1996      2167      2279
 -1      4460    3    0    1
 -2      2046      2025      2166      2193
 -1      4461    3    0    1
 -2      1934      2173      2373      2434
 -1      4462    3    0    1
 -2       395      1608      3630      3611
 -1      4463    3    0    1
 -2      1428      1427      1502      2548
 -1      4464    3    0    1
 -2      2265      2212      2413      2418
 -1      4465    3    0    1
 -2      1975      2073      2109      2119
 -1      4466    3    0    1
 -2       353      1932      1938      2071
 -1      4467    3    0    1
 -2       994      2041      2135      2205
 -1      4468    3    0    1
 -2      2076       413      2152      2223
 -1      4469    3    0    1
 -2       606       614       970      1905
 -1      4470    3    0    1
 -2      1935      1958      2014      2040
 -1      4471    3    0    1
 -2      1327       324      1991      2027
 -1      4472    3    0    1
 -2       325       377      2162      2179
 -1      4473    3    0    1
 -2      1966       417      2028      2206
 -1      4474    3    0    1
 -2       208       317      2202      2222
 -1      4475    3    0    1
 -2       983       979      1945      2248
 -1      4476    3    0    1
 -2      1046       780      2384      2387
 -1      4477    3    0    1
 -2      1963      2004      2207      2215
 -1      4478    3    0    1
 -2      1344       835      1343      1990
 -1      4479    3    0    1
 -2      2004      1963      2029      2095
 -1      4480    3    0    1
 -2       338       356      2309      2404
 -1      4481    3    0    1
 -2       552      1931      2440      2549
 -1      4482    3    0    1
 -2      1857      1559      1858      3373
 -1      4483    3    0    1
 -2      1931       552      2431      2549
 -1      4484    3    0    1
 -2       205      3547      3050      1793
 -1      4485    3    0    1
 -2       109       940      2365      2445
 -1      4486    3    0    1
 -2      2187      1019      2194      2383
 -1      4487    3    0    1
 -2      2589      2436      3711      3444
 -1      4488    3    0    1
 -2      2055      1127      2207      2446
 -1      4489    3    0    1
 -2       363      2061      2219      2225
 -1      4490    3    0    1
 -2      2545      3504      3366      3670
 -1      4491    3    0    1
 -2      2061      1954      2219      2225
 -1      4492    3    0    1
 -2       845      1363      1360      2230
 -1      4493    3    0    1
 -2      2024      2016      2064      2343
 -1      4494    3    0    1
 -2      1043       243      1046      2384
 -1      4495    3    0    1
 -2      1944      2094      2352      2377
 -1      4496    3    0    1
 -2      1128      1375      2305      2455
 -1      4497    3    0    1
 -2      1933       401      2024      2343
 -1      4498    3    0    1
 -2      1339       282      2355      3537
 -1      4499    3    0    1
 -2       401      1970      2024      2343
 -1      4500    3    0    1
 -2      1407       870      1109      2344
 -1      4501    3    0    1
 -2       400       401      1933      2343
 -1      4502    3    0    1
 -2      1975      1987      2024      2344
 -1      4503    3    0    1
 -2      2876      2603      3606      3488
 -1      4504    3    0    1
 -2       396       327      2171      2282
 -1      4505    3    0    1
 -2       999       185      2315      2333
 -1      4506    3    0    1
 -2      2742      2845      1733      1734
 -1      4507    3    0    1
 -2       699       679      2185      2333
 -1      4508    3    0    1
 -2      1341       826      2118      2272
 -1      4509    3    0    1
 -2      2230      2075      2352      2377
 -1      4510    3    0    1
 -2      2212      2043      2237      2418
 -1      4511    3    0    1
 -2       345       977       985      2231
 -1      4512    3    0    1
 -2       349       345       985      2231
 -1      4513    3    0    1
 -2       349       351      1306      2231
 -1      4514    3    0    1
 -2       210      1320      2226      2383
 -1      4515    3    0    1
 -2      2138       142      2161      2410
 -1      4516    3    0    1
 -2       259       261      1048      2381
 -1      4517    3    0    1
 -2      1983      1954      2067      2324
 -1      4518    3    0    1
 -2      2061      1954      2225      2324
 -1      4519    3    0    1
 -2       792       785      2278      2381
 -1      4520    3    0    1
 -2      1063      2325      2447      2452
 -1      4521    3    0    1
 -2       788       789      1333      2331
 -1      4522    3    0    1
 -2       586      2199      2286      2318
 -1      4523    3    0    1
 -2      2199      2056      2286      2318
 -1      4524    3    0    1
 -2      1035       228      1038      2263
 -1      4525    3    0    1
 -2       228       227      1038      2263
 -1      4526    3    0    1
 -2       762      1035      1038      2263
 -1      4527    3    0    1
 -2      2063       771      2127      2236
 -1      4528    3    0    1
 -2       753       734      2116      2236
 -1      4529    3    0    1
 -2      2045      1132      2430      2432
 -1      4530    3    0    1
 -2      1325       752      2063      2236
 -1      4531    3    0    1
 -2      1033      1325      2063      2236
 -1      4532    3    0    1
 -2      1325      1033       752      2236
 -1      4533    3    0    1
 -2      2204       866      2400      2415
 -1      4534    3    0    1
 -2       142      2138      2165      2410
 -1      4535    3    0    1
 -2      2030      1993      2247      2426
 -1      4536    3    0    1
 -2       734       735      1025      2480
 -1      4537    3    0    1
 -2       823       822      1067      2355
 -1      4538    3    0    1
 -2      1030       744      2148      2553
 -1      4539    3    0    1
 -2      2526       823      2532      3516
 -1      4540    3    0    1
 -2       952       382      2146      2370
 -1      4541    3    0    1
 -2       216       222      1028      2258
 -1      4542    3    0    1
 -2       416      1005      2168      2342
 -1      4543    3    0    1
 -2      1049       788      1333      2331
 -1      4544    3    0    1
 -2        40      1800      1891      1892
 -1      4545    3    0    1
 -2      2069      2251      2366      2389
 -1      4546    3    0    1
 -2      2018      1938      2174      2401
 -1      4547    3    0    1
 -2      1996      2006      2147      2299
 -1      4548    3    0    1
 -2      1115      1087      2174      2401
 -1      4549    3    0    1
 -2       868      1406       894      2432
 -1      4550    3    0    1
 -2       855      1115       877      2401
 -1      4551    3    0    1
 -2      2164      1939      2181      2401
 -1      4552    3    0    1
 -2       339      1115      2174      2401
 -1      4553    3    0    1
 -2      2115       986      2205      2291
 -1      4554    3    0    1
 -2      2284      1329      2508      2781
 -1      4555    3    0    1
 -2       607      1297      2242      2394
 -1      4556    3    0    1
 -2       654       653       987      2291
 -1      4557    3    0    1
 -2       654       986      2115      2291
 -1      4558    3    0    1
 -2      1956       365      2240      2296
 -1      4559    3    0    1
 -2       970       975      2393      3502
 -1      4560    3    0    1
 -2       653       654      2115      2291
 -1      4561    3    0    1
 -2      2453      1288      3443      3492
 -1      4562    3    0    1
 -2       362      1365      2065      2423
 -1      4563    3    0    1
 -2      3605      3525      3694      3713
 -1      4564    3    0    1
 -2       976       635      1936      2393
 -1      4565    3    0    1
 -2      1303      2280      2390      2422
 -1      4566    3    0    1
 -2       410      1750      1753      1801
 -1      4567    3    0    1
 -2       702      1317      2168      2294
 -1      4568    3    0    1
 -2       640      2189      2339      2398
 -1      4569    3    0    1
 -2       344       393      2097      2246
 -1      4570    3    0    1
 -2      1332      1050       789      2451
 -1      4571    3    0    1
 -2       300      1399      1089      2287
 -1      4572    3    0    1
 -2      1399       439      1958      2287
 -1      4573    3    0    1
 -2      2246       394      2390      2422
 -1      4574    3    0    1
 -2       664       661      2090      2319
 -1      4575    3    0    1
 -2      2189       640      2248      2398
 -1      4576    3    0    1
 -2       317      1016      2275      3699
 -1      4577    3    0    1
 -2       302      1387       342      2302
 -1      4578    3    0    1
 -2       961      1296      2086      2421
 -1      4579    3    0    1
 -2      1312       998      3534      3652
 -1      4580    3    0    1
 -2       134       960       968      2244
 -1      4581    3    0    1
 -2      1945       162      2149      2398
 -1      4582    3    0    1
 -2       151       134       968      2244
 -1      4583    3    0    1
 -2       979      1945      2248      2398
 -1      4584    3    0    1
 -2       767      1328      2251      2366
 -1      4585    3    0    1
 -2      2069      1051      2313      2366
 -1      4586    3    0    1
 -2      1964       374      2232      2251
 -1      4587    3    0    1
 -2      1328      1964      2209      2251
 -1      4588    3    0    1
 -2      1328       374      1964      2251
 -1      4589    3    0    1
 -2      1996      2147      2196      2279
 -1      4590    3    0    1
 -2      2147       217      2196      2279
 -1      4591    3    0    1
 -2      2117       767      2209      2251
 -1      4592    3    0    1
 -2       767      1328      2209      2251
 -1      4593    3    0    1
 -2      1017      1013      1933      2375
 -1      4594    3    0    1
 -2       374      1328      2069      2251
 -1      4595    3    0    1
 -2       837      1347       838      2253
 -1      4596    3    0    1
 -2      1347       837      1346      2253
 -1      4597    3    0    1
 -2      1346       837      2158      2253
 -1      4598    3    0    1
 -2      1943      1346      2158      2253
 -1      4599    3    0    1
 -2      1994      1943      2158      2253
 -1      4600    3    0    1
 -2      1327       756      2179      2254
 -1      4601    3    0    1
 -2      1327      1031       756      2254
 -1      4602    3    0    1
 -2       233      1031      1327      2254
 -1      4603    3    0    1
 -2       374      1962      2232      2335
 -1      4604    3    0    1
 -2       232       233      1327      2254
 -1      4605    3    0    1
 -2       233       375      1031      2254
 -1      4606    3    0    1
 -2      1999      2080      2178      2255
 -1      4607    3    0    1
 -2      2063      1033      2236      2257
 -1      4608    3    0    1
 -2      2017      2003      2165      2277
 -1      4609    3    0    1
 -2       307       308      1370      2255
 -1      4610    3    0    1
 -2       308       307      1084      2255
 -1      4611    3    0    1
 -2       307      1370      1384      2255
 -1      4612    3    0    1
 -2      1084       307      1113      2255
 -1      4613    3    0    1
 -2       307      1384      1948      2255
 -1      4614    3    0    1
 -2      1948      1384      2080      2255
 -1      4615    3    0    1
 -2      1113      1948      2150      2255
 -1      4616    3    0    1
 -2      1113       307      1948      2255
 -1      4617    3    0    1
 -2       744       761      2329      2553
 -1      4618    3    0    1
 -2      1999      1948      2080      2255
 -1      4619    3    0    1
 -2       228      1033      2063      2257
 -1      4620    3    0    1
 -2      2030       992      2247      2339
 -1      4621    3    0    1
 -2      1321      1025       734      2264
 -1      4622    3    0    1
 -2       220       219      1321      2264
 -1      4623    3    0    1
 -2       734       735      2116      2264
 -1      4624    3    0    1
 -2      2815      1680      3106      3161
 -1      4625    3    0    1
 -2      2148       744      2329      2553
 -1      4626    3    0    1
 -2      2148       743      2220      2258
 -1      4627    3    0    1
 -2      1028       743      1029      2258
 -1      4628    3    0    1
 -2       222       321      1028      2258
 -1      4629    3    0    1
 -2      1028       321      2229      2258
 -1      4630    3    0    1
 -2       744       743      2148      2258
 -1      4631    3    0    1
 -2       743       744      1029      2258
 -1      4632    3    0    1
 -2       958       353      2059      2424
 -1      4633    3    0    1
 -2      1962      2122      2235      2262
 -1      4634    3    0    1
 -2       242      1962      2235      2262
 -1      4635    3    0    1
 -2      2100      3192      3657      3717
 -1      4636    3    0    1
 -2       972      1305      2456      3500
 -1      4637    3    0    1
 -2      2259      2170      2403      2424
 -1      4638    3    0    1
 -2       690       689      1001      2308
 -1      4639    3    0    1
 -2       761       762      2145      2263
 -1      4640    3    0    1
 -2       762       761      1035      2263
 -1      4641    3    0    1
 -2      2704      2478      3545      3586
 -1      4642    3    0    1
 -2      2228      3496      3456      3742
 -1      4643    3    0    1
 -2       408      1000      2223      2407
 -1      4644    3    0    1
 -2      2687      3521      3716      3738
 -1      4645    3    0    1
 -2      2565      1307      3441      3491
 -1      4646    3    0    1
 -2       761      1035      2329      2553
 -1      4647    3    0    1
 -2      1003       690      2042      2308
 -1      4648    3    0    1
 -2       618       967       970      2293
 -1      4649    3    0    1
 -2       104      2361      2379      2414
 -1      4650    3    0    1
 -2       350       162      1946      2341
 -1      4651    3    0    1
 -2      1017       720      2326      2342
 -1      4652    3    0    1
 -2      2149      1997      2155      2341
 -1      4653    3    0    1
 -2      1945      2149      2155      2341
 -1      4654    3    0    1
 -2      1413      2489      3207      3667
 -1      4655    3    0    1
 -2      1979      2062      2351      2352
 -1      4656    3    0    1
 -2      1944      2094      2218      2352
 -1      4657    3    0    1
 -2       162       350      1945      2341
 -1      4658    3    0    1
 -2      2534      2818      2819      2833
 -1      4659    3    0    1
 -2       991       664      2090      2420
 -1      4660    3    0    1
 -2      2110      2177      2303      2430
 -1      4661    3    0    1
 -2      1630      1629      2966      3197
 -1      4662    3    0    1
 -2       941      1289      3508      3642
 -1      4663    3    0    1
 -2      1477      1478      1660      2984
 -1      4664    3    0    1
 -2       951       576      2197      2371
 -1      4665    3    0    1
 -2      1290      2365      2370      2371
 -1      4666    3    0    1
 -2      1405       866      1104      2400
 -1      4667    3    0    1
 -2      1303       971      2280      2422
 -1      4668    3    0    1
 -2       345       977      2417      2422
 -1      4669    3    0    1
 -2       971       345      2098      2422
 -1      4670    3    0    1
 -2       960       617       968      2397
 -1      4671    3    0    1
 -2       217      1022      2006      2399
 -1      4672    3    0    1
 -2      2147      1996      2196      2399
 -1      4673    3    0    1
 -2      2068      2141      2172      2396
 -1      4674    3    0    1
 -2       785       792      1334      2381
 -1      4675    3    0    1
 -2      1125      1374      2129      2287
 -1      4676    3    0    1
 -2      2068      1986      2172      2312
 -1      4677    3    0    1
 -2      1460      1459      1570      3417
 -1      4678    3    0    1
 -2      2068       368      2285      2396
 -1      4679    3    0    1
 -2       953       582       959      2269
 -1      4680    3    0    1
 -2       135       953       959      2269
 -1      4681    3    0    1
 -2       582       599       959      2269
 -1      4682    3    0    1
 -2       135       124       953      2269
 -1      4683    3    0    1
 -2       788       807      2412      2429
 -1      4684    3    0    1
 -2      1468      1467      1589      2674
 -1      4685    3    0    1
 -2      1334      2278      2346      2381
 -1      4686    3    0    1
 -2      1048       785      1334      2381
 -1      4687    3    0    1
 -2      1588      2652      2674      3517
 -1      4688    3    0    1
 -2      2228      3583      3176      3456
 -1      4689    3    0    1
 -2       392      2293      2450      2556
 -1      4690    3    0    1
 -2      1016      1318      2202      2274
 -1      4691    3    0    1
 -2      1318      1016       717      2274
 -1      4692    3    0    1
 -2       715      1015      1322      2274
 -1      4693    3    0    1
 -2       735       715      1322      2274
 -1      4694    3    0    1
 -2      1467      1468      1742      3238
 -1      4695    3    0    1
 -2      2175       359      2249      2276
 -1      4696    3    0    1
 -2       272      2118      2327      2452
 -1      4697    3    0    1
 -2      1062       815      2325      2411
 -1      4698    3    0    1
 -2       142       385      1949      2277
 -1      4699    3    0    1
 -2       992       666      2247      2339
 -1      4700    3    0    1
 -2      2003      1940      2165      2277
 -1      4701    3    0    1
 -2      1940       142      2165      2277
 -1      4702    3    0    1
 -2       385       142      1940      2277
 -1      4703    3    0    1
 -2       792       785      1047      2278
 -1      4704    3    0    1
 -2      1047       785      2141      2278
 -1      4705    3    0    1
 -2       448      1953      2101      2382
 -1      4706    3    0    1
 -2       282      2355      2391      2442
 -1      4707    3    0    1
 -2       586      1295       955      2425
 -1      4708    3    0    1
 -2      3509      2402      3178      3605
 -1      4709    3    0    1
 -2       852      1122      1371      2382
 -1      4710    3    0    1
 -2       448       447      1953      2382
 -1      4711    3    0    1
 -2       354       959      2421      2425
 -1      4712    3    0    1
 -2      1982      2067      2324      2382
 -1      4713    3    0    1
 -2       343      2001      2252      2314
 -1      4714    3    0    1
 -2      2097      2053      2138      2314
 -1      4715    3    0    1
 -2      2234      2132      2330      2423
 -1      4716    3    0    1
 -2      3243      2849      3674      1883
 -1      4717    3    0    1
 -2      2065      1955      2132      2423
 -1      4718    3    0    1
 -2      1296      2086      2421      2428
 -1      4719    3    0    1
 -2      2202       208      2472      3507
 -1      4720    3    0    1
 -2       368      2234      2317      2396
 -1      4721    3    0    1
 -2      2068      2049      2141      2396
 -1      4722    3    0    1
 -2       973      2394      2537      3710
 -1      4723    3    0    1
 -2      2977      2668      3310      3712
 -1      4724    3    0    1
 -2      1958      2014      2040      2340
 -1      4725    3    0    1
 -2      1057       803      2267      2452
 -1      4726    3    0    1
 -2       771       770      1041      2284
 -1      4727    3    0    1
 -2      1340       823      2093      2332
 -1      4728    3    0    1
 -2      3518      2041       671      2291
 -1      4729    3    0    1
 -2       680       673      2783      1846
 -1      4730    3    0    1
 -2      1507      1508      1585      2788
 -1      4731    3    0    1
 -2      3101      1465      3106      3625
 -1      4732    3    0    1
 -2      1335       267      2515      2595
 -1      4733    3    0    1
 -2      1170      2599      2600      2830
 -1      4734    3    0    1
 -2      3508       949      3572      3615
 -1      4735    3    0    1
 -2       803      2118      2296      2452
 -1      4736    3    0    1
 -2      1416      3520      1700      3404
 -1      4737    3    0    1
 -2      1057      2267      2419      2452
 -1      4738    3    0    1
 -2      1932       125      2070      2286
 -1      4739    3    0    1
 -2      1986      2014      2040      2312
 -1      4740    3    0    1
 -2      1292       586      2199      2286
 -1      4741    3    0    1
 -2       305      1403      1100      2288
 -1      4742    3    0    1
 -2      1971      2002      2008      2289
 -1      4743    3    0    1
 -2      2128      2002      2214      2289
 -1      4744    3    0    1
 -2       403      2128      2214      2289
 -1      4745    3    0    1
 -2      2313      2069      2366      2389
 -1      4746    3    0    1
 -2      2680      2972      3027      3561
 -1      4747    3    0    1
 -2      2002      1971      2214      2289
 -1      4748    3    0    1
 -2       405      1971      2008      2289
 -1      4749    3    0    1
 -2       405       403      2214      2289
 -1      4750    3    0    1
 -2      1971       405      2214      2289
 -1      4751    3    0    1
 -2      1320       211      2367      2383
 -1      4752    3    0    1
 -2      1567      1463      1568      2910
 -1      4753    3    0    1
 -2       700       415      1009      1922
 -1      4754    3    0    1
 -2       957       592       589      2453
 -1      4755    3    0    1
 -2       112      3548      3449      1828
 -1      4756    3    0    1
 -2       984       653      2115      2291
 -1      4757    3    0    1
 -2       653       984       987      2291
 -1      4758    3    0    1
 -2       661       991      1307      2562
 -1      4759    3    0    1
 -2       671       654       993      2291
 -1      4760    3    0    1
 -2       654       987       993      2291
 -1      4761    3    0    1
 -2       664       643      2319      2585
 -1      4762    3    0    1
 -2       144       392       970      2293
 -1      4763    3    0    1
 -2       119       388      1291      2395
 -1      4764    3    0    1
 -2      1367       847       848      2423
 -1      4765    3    0    1
 -2      1317      2268      2294       197
 -1      4766    3    0    1
 -2      1317      2168      2268      1005
 -1      4767    3    0    1
 -2       414       197      1317      2294
 -1      4768    3    0    1
 -2       334       254      2412      2437
 -1      4769    3    0    1
 -2      2041       993      3518       671
 -1      4770    3    0    1
 -2      1284       100      2431      3733
 -1      4771    3    0    1
 -2      3591      3209      3643      3482
 -1      4772    3    0    1
 -2      3251      2940      3673      3685
 -1      4773    3    0    1
 -2      1452      2891      3300      3320
 -1      4774    3    0    1
 -2      1952      1999      2256      2328
 -1      4775    3    0    1
 -2      2000      1952      2256      2328
 -1      4776    3    0    1
 -2      2121      1978      2323      2369
 -1      4777    3    0    1
 -2       563       564       946      2379
 -1      4778    3    0    1
 -2      3521      2511      3716      3738
 -1      4779    3    0    1
 -2      1026      2022      2036      2298
 -1      4780    3    0    1
 -2      2016      1380      2045      2344
 -1      4781    3    0    1
 -2      2024      2016      2045      2344
 -1      4782    3    0    1
 -2      2232      2251      2335      2448
 -1      4783    3    0    1
 -2      1933      1013      2298      2375
 -1      4784    3    0    1
 -2       276       364      1071      2368
 -1      4785    3    0    1
 -2      1065       284      1981      2368
 -1      4786    3    0    1
 -2      1969      2022      2106      2298
 -1      4787    3    0    1
 -2      1969      1988      2022      2298
 -1      4788    3    0    1
 -2      2022       397      2106      2298
 -1      4789    3    0    1
 -2      1026       397      2022      2298
 -1      4790    3    0    1
 -2      1988       400      2022      2298
 -1      4791    3    0    1
 -2       400      1013      2022      2298
 -1      4792    3    0    1
 -2      1013       712      2374      2375
 -1      4793    3    0    1
 -2      1553      1706      3574      3262
 -1      4794    3    0    1
 -2       594      1295      2424      2441
 -1      4795    3    0    1
 -2       940       549      2186      2365
 -1      4796    3    0    1
 -2      2177      1988      2430      2432
 -1      4797    3    0    1
 -2       258      1053      2270      2301
 -1      4798    3    0    1
 -2      1667      1676      1677      2994
 -1      4799    3    0    1
 -2      1045       797      1053      2301
 -1      4800    3    0    1
 -2       780       797      1045      2301
 -1      4801    3    0    1
 -2       302      1077      1348      2302
 -1      4802    3    0    1
 -2      1387       302      1092      2302
 -1      4803    3    0    1
 -2       302      1348      2180      2302
 -1      4804    3    0    1
 -2      1092       302      2180      2302
 -1      4805    3    0    1
 -2      1092      2180      2261      2302
 -1      4806    3    0    1
 -2      1402       862      1099      2455
 -1      4807    3    0    1
 -2       100       942      1284      2431
 -1      4808    3    0    1
 -2      3439       220      3734      3745
 -1      4809    3    0    1
 -2       132       957      3443      3736
 -1      4810    3    0    1
 -2       868       894      1131      2303
 -1      4811    3    0    1
 -2      1131       894      2110      2303
 -1      4812    3    0    1
 -2      1132       434      2430      2432
 -1      4813    3    0    1
 -2      2304       100      2416      2431
 -1      4814    3    0    1
 -2      2403      2259      2424      2441
 -1      4815    3    0    1
 -2       862      1402       890      2455
 -1      4816    3    0    1
 -2      2299      2077      2305      2362
 -1      4817    3    0    1
 -2       334      1055      2437      3708
 -1      4818    3    0    1
 -2       434       433      2430      2432
 -1      4819    3    0    1
 -2      1307      3441      3491      3737
 -1      4820    3    0    1
 -2       868      2303      2430      2432
 -1      4821    3    0    1
 -2      1400      2089      2129      2356
 -1      4822    3    0    1
 -2       780      2137      2301      2387
 -1      4823    3    0    1
 -2      1358       843      1357      2357
 -1      4824    3    0    1
 -2      2242       965      2392      2450
 -1      4825    3    0    1
 -2      3020      3705      3591      3399
 -1      4826    3    0    1
 -2       862      2055      2207      2455
 -1      4827    3    0    1
 -2      2006      1967      2299      2362
 -1      4828    3    0    1
 -2      2162      2195      2299      2362
 -1      4829    3    0    1
 -2      1050      1332      2412      2451
 -1      4830    3    0    1
 -2      2049      2068      2285      2396
 -1      4831    3    0    1
 -2      1960      2058      2060      2356
 -1      4832    3    0    1
 -2      1126      1094      2060      2356
 -1      4833    3    0    1
 -2       979       162      1945      2398
 -1      4834    3    0    1
 -2      3510      2459      3544      3715
 -1      4835    3    0    1
 -2      2056       612      2385      2199
 -1      4836    3    0    1
 -2      1974      1937      2140      2407
 -1      4837    3    0    1
 -2      1000       684      2223      2407
 -1      4838    3    0    1
 -2      1065      1981      2272      2376
 -1      4839    3    0    1
 -2       338      1948      1999      2309
 -1      4840    3    0    1
 -2      2022      2036      2298      2374
 -1      4841    3    0    1
 -2       258       259      1048      2381
 -1      4842    3    0    1
 -2       258      1334      2346      2381
 -1      4843    3    0    1
 -2      1334       792      2278      2381
 -1      4844    3    0    1
 -2       785      2141      2278      2381
 -1      4845    3    0    1
 -2      1048       261      2020      2381
 -1      4846    3    0    1
 -2      2197       951      2371      2404
 -1      4847    3    0    1
 -2       356      1287      2170      2311
 -1      4848    3    0    1
 -2      2036      2047      2229      2374
 -1      4849    3    0    1
 -2      1935      1051      2278      2313
 -1      4850    3    0    1
 -2       372      1051      1935      2313
 -1      4851    3    0    1
 -2       372      1935      2123      2313
 -1      4852    3    0    1
 -2       712      2367      2374      2375
 -1      4853    3    0    1
 -2      1051       372      2069      2313
 -1      4854    3    0    1
 -2       974       630      2280      2314
 -1      4855    3    0    1
 -2      2053       343      2252      2314
 -1      4856    3    0    1
 -2      2138      2053      2252      2314
 -1      4857    3    0    1
 -2       974       343      2053      2314
 -1      4858    3    0    1
 -2       558      2186      2265      2378
 -1      4859    3    0    1
 -2      2306       779      2384      2406
 -1      4860    3    0    1
 -2       232       324      1036      2334
 -1      4861    3    0    1
 -2      1512      1511      3419      3484
 -1      4862    3    0    1
 -2      2384       243      2705      3582
 -1      4863    3    0    1
 -2      2701      2855      2934      3265
 -1      4864    3    0    1
 -2       233       232      2145      2334
 -1      4865    3    0    1
 -2       389       158      3502      3710
 -1      4866    3    0    1
 -2      2452      1063       265       272
 -1      4867    3    0    1
 -2      2416       947      3442      3735
 -1      4868    3    0    1
 -2      3520      3541      3068      3404
 -1      4869    3    0    1
 -2      1297      2394      2580      3710
 -1      4870    3    0    1
 -2       390       389      3502      3710
 -1      4871    3    0    1
 -2      3502      2203      2556      3710
 -1      4872    3    0    1
 -2      1957      2234      2068      2317
 -1      4873    3    0    1
 -2       261       259      2270      2381
 -1      4874    3    0    1
 -2       440       373      1091      2386
 -1      4875    3    0    1
 -2      1091       373      1400      2386
 -1      4876    3    0    1
 -2       403       405       992      2426
 -1      4877    3    0    1
 -2      2394       973      2580      3710
 -1      4878    3    0    1
 -2       126       354      2421      2425
 -1      4879    3    0    1
 -2       156       394      1936      2422
 -1      4880    3    0    1
 -2       405       403      2289      2426
 -1      4881    3    0    1
 -2       298      1364      1367      2438
 -1      4882    3    0    1
 -2      1936       394      2246      2422
 -1      4883    3    0    1
 -2       586       955      2199      2318
 -1      4884    3    0    1
 -2       955       134      2199      2318
 -1      4885    3    0    1
 -2       126       134       955      2318
 -1      4886    3    0    1
 -2      3502       392      1905      3710
 -1      4887    3    0    1
 -2       405      1993      2030      2426
 -1      4888    3    0    1
 -2       643       981      1308      2319
 -1      4889    3    0    1
 -2       995       402      2041      2320
 -1      4890    3    0    1
 -2       254       334      1052      2437
 -1      4891    3    0    1
 -2       798      2015      2270      2437
 -1      4892    3    0    1
 -2      2137      1052      2301      2437
 -1      4893    3    0    1
 -2       265      1057      2419      2452
 -1      4894    3    0    1
 -2       248      1039      1331      2321
 -1      4895    3    0    1
 -2      1331      1039      2117      2321
 -1      4896    3    0    1
 -2      1039       249      2084      2321
 -1      4897    3    0    1
 -2      1067      1335      2767      2769
 -1      4898    3    0    1
 -2       248       249      1039      2321
 -1      4899    3    0    1
 -2       731      2027      2105      2322
 -1      4900    3    0    1
 -2      2216      2212      2237      2413
 -1      4901    3    0    1
 -2      2016      1970      2045      2430
 -1      4902    3    0    1
 -2      2015      1061      2610      3708
 -1      4903    3    0    1
 -2      1339      1067       822      2355
 -1      4904    3    0    1
 -2       555       822      1931      2454
 -1      4905    3    0    1
 -2       324      1991      2027      2322
 -1      4906    3    0    1
 -2      2170      2059      2311      2424
 -1      4907    3    0    1
 -2       216       379      1023      2322
 -1      4908    3    0    1
 -2      1023       379      2027      2322
 -1      4909    3    0    1
 -2       731      1023      2027      2322
 -1      4910    3    0    1
 -2       379       324      2027      2322
 -1      4911    3    0    1
 -2      1550       449      1551      2885
 -1      4912    3    0    1
 -2      2365      2026      2371      2445
 -1      4913    3    0    1
 -2       815       816      1063      2325
 -1      4914    3    0    1
 -2      2118       272      2447      2452
 -1      4915    3    0    1
 -2      2123      2069      2313      2448
 -1      4916    3    0    1
 -2      2012      2069      2123      2448
 -1      4917    3    0    1
 -2      1307       991      2090      2420
 -1      4918    3    0    1
 -2       265      1062      1063      2325
 -1      4919    3    0    1
 -2      2026      2000      2249      2371
 -1      4920    3    0    1
 -2      1124      1088      2266      2438
 -1      4921    3    0    1
 -2      1062       815      1063      2325
 -1      4922    3    0    1
 -2       254      1050      1332      2412
 -1      4923    3    0    1
 -2       265       266      1062      2325
 -1      4924    3    0    1
 -2       382       109      2146      2365
 -1      4925    3    0    1
 -2      1963      2004      2372      2446
 -1      4926    3    0    1
 -2      2177      1988      2343      2430
 -1      4927    3    0    1
 -2       803      1057      2327      2452
 -1      4928    3    0    1
 -2      2118       803      2327      2452
 -1      4929    3    0    1
 -2      1290       382      2365      2445
 -1      4930    3    0    1
 -2       816      1063      2325      2444
 -1      4931    3    0    1
 -2      1955      2065      2234      2336
 -1      4932    3    0    1
 -2       145      1849      3351      3468
 -1      4933    3    0    1
 -2      3495      2402      2473      3605
 -1      4934    3    0    1
 -2       253      1596      1802      1837
 -1      4935    3    0    1
 -2       761      1035      2263      2329
 -1      4936    3    0    1
 -2      2593      2940      3659      2637
 -1      4937    3    0    1
 -2       815      1061      2364      2610
 -1      4938    3    0    1
 -2      1029       761      1036      2329
 -1      4939    3    0    1
 -2       744       761      1029      2329
 -1      4940    3    0    1
 -2      2012      1960      2069      2335
 -1      4941    3    0    1
 -2       349       345      2098      2348
 -1      4942    3    0    1
 -2       983       648      2248      2348
 -1      4943    3    0    1
 -2       831       816      1064      2444
 -1      4944    3    0    1
 -2      3591      3399      3705      3482
 -1      4945    3    0    1
 -2       648      2098      2248      2348
 -1      4946    3    0    1
 -2      2267       803      2296      2452
 -1      4947    3    0    1
 -2       789      1040      1333      2331
 -1      4948    3    0    1
 -2       789       770      1040      2331
 -1      4949    3    0    1
 -2       220       733      1030      1926
 -1      4950    3    0    1
 -2      1992       699      2185      2333
 -1      4951    3    0    1
 -2      1511      1512      3419      3432
 -1      4952    3    0    1
 -2      3018      1616      3351      3468
 -1      4953    3    0    1
 -2      1511      1425      1512      3432
 -1      4954    3    0    1
 -2       571       949      2139      2440
 -1      4955    3    0    1
 -2      1955      2234      2317      2336
 -1      4956    3    0    1
 -2       365       368      1956      2336
 -1      4957    3    0    1
 -2      1956       368      2317      2336
 -1      4958    3    0    1
 -2      1955       365      2039      2336
 -1      4959    3    0    1
 -2       368       365      1955      2336
 -1      4960    3    0    1
 -2       368      1955      2317      2336
 -1      4961    3    0    1
 -2      2082      2081      2151      2337
 -1      4962    3    0    1
 -2      2082      2151      2152      2337
 -1      4963    3    0    1
 -2      1310      2082      2152      2337
 -1      4964    3    0    1
 -2       676      1310      2152      2337
 -1      4965    3    0    1
 -2       414       191      2144      2337
 -1      4966    3    0    1
 -2      2081       414      2144      2337
 -1      4967    3    0    1
 -2      2081      1317      2294      2337
 -1      4968    3    0    1
 -2       414      2081      2294      2337
 -1      4969    3    0    1
 -2      1317       414      2294      2337
 -1      4970    3    0    1
 -2      2081      2144      2152      2337
 -1      4971    3    0    1
 -2      2151      2081      2152      2337
 -1      4972    3    0    1
 -2       178       326      2283      2339
 -1      4973    3    0    1
 -2      1309       178      2283      2339
 -1      4974    3    0    1
 -2      2189      2247      2283      2339
 -1      4975    3    0    1
 -2      1036      2329      2334      2439
 -1      4976    3    0    1
 -2      1124       856       887      2340
 -1      4977    3    0    1
 -2       856      1399       887      2340
 -1      4978    3    0    1
 -2      2266      2014      2287      2340
 -1      4979    3    0    1
 -2      1124      2266       856      2340
 -1      4980    3    0    1
 -2      1089       856      2266      2340
 -1      4981    3    0    1
 -2      1399       856      1089      2340
 -1      4982    3    0    1
 -2      1089      2266      2287      2340
 -1      4983    3    0    1
 -2      1314      2034      2124      2342
 -1      4984    3    0    1
 -2       694      1314      2124      2342
 -1      4985    3    0    1
 -2       345       977      2231      2417
 -1      4986    3    0    1
 -2      2250       972      2456      3500
 -1      4987    3    0    1
 -2       952       122      2370      2409
 -1      4988    3    0    1
 -2      2146       952      2370      2409
 -1      4989    3    0    1
 -2       954       581      1291      2409
 -1      4990    3    0    1
 -2       870      1407       895      2344
 -1      4991    3    0    1
 -2      2045      1407      2119      2344
 -1      4992    3    0    1
 -2       895      1407      2045      2344
 -1      4993    3    0    1
 -2      1975      2045      2119      2344
 -1      4994    3    0    1
 -2      1975      2024      2045      2344
 -1      4995    3    0    1
 -2       850       884      1121      2345
 -1      4996    3    0    1
 -2      1121       884      2044      2345
 -1      4997    3    0    1
 -2       370      2301       258      2346
 -1      4998    3    0    1
 -2      2301       370       258      1053
 -1      4999    3    0    1
 -2       370       258      1334      2346
 -1      5000    3    0    1
 -2      2854      2680      2972      3073
 -1      5001    3    0    1
 -2       424      3306      3404      3703
 -1      5002    3    0    1
 -2      2542      2805      2904      3559
 -1      5003    3    0    1
 -2      3597      3530      3315      3741
 -1      5004    3    0    1
 -2       388       954      2395      3503
 -1      5005    3    0    1
 -2      1726      2926      2927      2998
 -1      5006    3    0    1
 -2      1288      2440      2453      2584
 -1      5007    3    0    1
 -2      2650      1648      2759      3554
 -1      5008    3    0    1
 -2      1978      2100      2297      2467
 -1      5009    3    0    1
 -2      2098      2218      2248      2348
 -1      5010    3    0    1
 -2      2053       974      2314      2349
 -1      5011    3    0    1
 -2      2053      2097      2138      2349
 -1      5012    3    0    1
 -2      2053      2138      2161      2349
 -1      5013    3    0    1
 -2       962      2053      2161      2349
 -1      5014    3    0    1
 -2       604       962      2161      2349
 -1      5015    3    0    1
 -2      2138      2097      2161      2349
 -1      5016    3    0    1
 -2       861      1393       881      2350
 -1      5017    3    0    1
 -2      2849      1537      3294      3674
 -1      5018    3    0    1
 -2      1969      2177      2241      2415
 -1      5019    3    0    1
 -2      1097       288      1393      2350
 -1      5020    3    0    1
 -2      1393       288      1943      2350
 -1      5021    3    0    1
 -2       815       816      2325      2364
 -1      5022    3    0    1
 -2       289       288      1097      2350
 -1      5023    3    0    1
 -2      1009       415      2188      2353
 -1      5024    3    0    1
 -2      2437      2137      3497      3696
 -1      5025    3    0    1
 -2      1659      1477      3230      3664
 -1      5026    3    0    1
 -2       661      1308       664      2562
 -1      5027    3    0    1
 -2      1992       699      2333      3431
 -1      5028    3    0    1
 -2       216       222      2258      2354
 -1      5029    3    0    1
 -2       222       216      1323      2354
 -1      5030    3    0    1
 -2      1323       738      2036      2354
 -1      5031    3    0    1
 -2      2036       738      2300      2354
 -1      5032    3    0    1
 -2      1023       731      1323      2354
 -1      5033    3    0    1
 -2       222       321      2258      2354
 -1      5034    3    0    1
 -2       738       731      2300      2354
 -1      5035    3    0    1
 -2       731       738      1323      2354
 -1      5036    3    0    1
 -2       321       222      1323      2354
 -1      5037    3    0    1
 -2      2652      1588      1644      2896
 -1      5038    3    0    1
 -2       282       279      1067      2355
 -1      5039    3    0    1
 -2      1965      2077      2305      2455
 -1      5040    3    0    1
 -2       840       839      2122      2372
 -1      5041    3    0    1
 -2      1104      1405      2400      2415
 -1      5042    3    0    1
 -2       862       890      2055      2455
 -1      5043    3    0    1
 -2      2055      1965      2433      2455
 -1      5044    3    0    1
 -2      2219      2225      2240      2443
 -1      5045    3    0    1
 -2       406      2107      1358      2357
 -1      5046    3    0    1
 -2       844      1358      2107      2357
 -1      5047    3    0    1
 -2       843      1358       844      2357
 -1      5048    3    0    1
 -2       348      2074      2260      2358
 -1      5049    3    0    1
 -2       348      1300      2051      2358
 -1      5050    3    0    1
 -2      2051      1300      2348      2358
 -1      5051    3    0    1
 -2      1300       622      2348      2358
 -1      5052    3    0    1
 -2       348      2051      2074      2358
 -1      5053    3    0    1
 -2       831      1064      1069      2444
 -1      5054    3    0    1
 -2       594      2318      2425       586
 -1      5055    3    0    1
 -2      2110      1131      2303      2415
 -1      5056    3    0    1
 -2      1287       951      2197      2404
 -1      5057    3    0    1
 -2       124       116      2269      2380
 -1      5058    3    0    1
 -2       135       124      2269      2380
 -1      5059    3    0    1
 -2      2256       338      2309      2404
 -1      5060    3    0    1
 -2       394      1303      2390      2422
 -1      5061    3    0    1
 -2       338      2256      2328      2404
 -1      5062    3    0    1
 -2      2875      3171      3451      3727
 -1      5063    3    0    1
 -2       945       360      1071      2361
 -1      5064    3    0    1
 -2       360       284      1071      2361
 -1      5065    3    0    1
 -2       946       564      2146      2379
 -1      5066    3    0    1
 -2       284      1981      2361      2378
 -1      5067    3    0    1
 -2       861      1118      1096      2363
 -1      5068    3    0    1
 -2      1981      2023      2265      2378
 -1      5069    3    0    1
 -2       360      1286      2023      2378
 -1      5070    3    0    1
 -2       558      1286      2186      2378
 -1      5071    3    0    1
 -2       360       104      1286      2378
 -1      5072    3    0    1
 -2      2225       363      2359      2443
 -1      5073    3    0    1
 -2      1068      2219      2327      2443
 -1      5074    3    0    1
 -2      1056      2240      2296      2443
 -1      5075    3    0    1
 -2       826      2118      2272      2443
 -1      5076    3    0    1
 -2      1068      2272      2359      2443
 -1      5077    3    0    1
 -2      2219       363      2225      2443
 -1      5078    3    0    1
 -2       394       393      2246      2390
 -1      5079    3    0    1
 -2       211      1014      1320      2367
 -1      5080    3    0    1
 -2       684      1974      2140      2407
 -1      5081    3    0    1
 -2       243       244      1046      2384
 -1      5082    3    0    1
 -2      2298      1013      2374      2375
 -1      5083    3    0    1
 -2       398       399      1014      2367
 -1      5084    3    0    1
 -2      1528      1527      3103      3321
 -1      5085    3    0    1
 -2      1332      2412      2582      3744
 -1      5086    3    0    1
 -2      2069      2251      2389      2448
 -1      5087    3    0    1
 -2      2069      2012      2335      2448
 -1      5088    3    0    1
 -2       431      2075      2230      2377
 -1      5089    3    0    1
 -2      2094      1944      2363      2377
 -1      5090    3    0    1
 -2       861      2350      2363      2377
 -1      5091    3    0    1
 -2       276       284      1065      2368
 -1      5092    3    0    1
 -2       785      2020      2141      2381
 -1      5093    3    0    1
 -2       785      1048      2020      2381
 -1      5094    3    0    1
 -2       258      1048      1334      2381
 -1      5095    3    0    1
 -2       382       122      1290      2370
 -1      5096    3    0    1
 -2      2031       375      2048      2405
 -1      5097    3    0    1
 -2      2000      2026      2328      2371
 -1      5098    3    0    1
 -2      2076       408      2223      2407
 -1      5099    3    0    1
 -2       576       951      2026      2371
 -1      5100    3    0    1
 -2      1963      2055      2207      2446
 -1      5101    3    0    1
 -2      2026       951      2328      2371
 -1      5102    3    0    1
 -2      1070      1063      2444      2447
 -1      5103    3    0    1
 -2       839      1349      2122      2372
 -1      5104    3    0    1
 -2       839      1352      1349      2372
 -1      5105    3    0    1
 -2       290       378      1349      2372
 -1      5106    3    0    1
 -2       364      1070      2368      2447
 -1      5107    3    0    1
 -2       720       712      1013      2375
 -1      5108    3    0    1
 -2       720      2226      2367      2375
 -1      5109    3    0    1
 -2       712       720      2367      2375
 -1      5110    3    0    1
 -2       720      1017      2226      2375
 -1      5111    3    0    1
 -2      1017       720      1013      2375
 -1      5112    3    0    1
 -2       364       276      1341      2376
 -1      5113    3    0    1
 -2      1341      1065      2272      2376
 -1      5114    3    0    1
 -2      2335      2251      2069      2448
 -1      5115    3    0    1
 -2      1065       276      2368      2376
 -1      5116    3    0    1
 -2       276      1065      1341      2376
 -1      5117    3    0    1
 -2       366       364      1341      2376
 -1      5118    3    0    1
 -2       431      1118      2363      2377
 -1      5119    3    0    1
 -2       304      1118       431      2377
 -1      5120    3    0    1
 -2      2075       431      2363      2377
 -1      5121    3    0    1
 -2      1944      2075      2363      2377
 -1      5122    3    0    1
 -2      1286       558      2023      2378
 -1      5123    3    0    1
 -2       945       563       946      2379
 -1      5124    3    0    1
 -2       944       563      2304      2379
 -1      5125    3    0    1
 -2       563       944       947      2379
 -1      5126    3    0    1
 -2       947       944      2304      2379
 -1      5127    3    0    1
 -2        99       945       946      2379
 -1      5128    3    0    1
 -2      2177      2110      2303      2415
 -1      5129    3    0    1
 -2        99       104       945      2379
 -1      5130    3    0    1
 -2       945       104      2361      2379
 -1      5131    3    0    1
 -2       977      1936      2417      2422
 -1      5132    3    0    1
 -2       948       568      2197      2380
 -1      5133    3    0    1
 -2       356       338       951      2404
 -1      5134    3    0    1
 -2       345       156       977      2422
 -1      5135    3    0    1
 -2       977       156      1936      2422
 -1      5136    3    0    1
 -2      2256      2000      2328      2404
 -1      5137    3    0    1
 -2       951       338      2328      2404
 -1      5138    3    0    1
 -2       116       948      2370      2380
 -1      5139    3    0    1
 -2       382       109      2365      2445
 -1      5140    3    0    1
 -2       948       124      2259      2380
 -1      5141    3    0    1
 -2       568       948      2259      2380
 -1      5142    3    0    1
 -2       116       124       948      2380
 -1      5143    3    0    1
 -2       852       885      1122      2382
 -1      5144    3    0    1
 -2      1953      1982      2061      2382
 -1      5145    3    0    1
 -2      1953      1122      1982      2382
 -1      5146    3    0    1
 -2      1122       885      1982      2382
 -1      5147    3    0    1
 -2       447      1122      1953      2382
 -1      5148    3    0    1
 -2      1365       847      2132      2423
 -1      5149    3    0    1
 -2       684      2160      2223      2407
 -1      5150    3    0    1
 -2      3126      1620      3170      3616
 -1      5151    3    0    1
 -2      3255      3373      3688      3400
 -1      5152    3    0    1
 -2       779      1043      1046      2384
 -1      5153    3    0    1
 -2       779       780      2306      2384
 -1      5154    3    0    1
 -2       780       779      1046      2384
 -1      5155    3    0    1
 -2       612      1299      2156      2385
 -1      5156    3    0    1
 -2       151      1299      2199      2385
 -1      5157    3    0    1
 -2       151       149      1299      2385
 -1      5158    3    0    1
 -2       134       151      2199      2385
 -1      5159    3    0    1
 -2      1299       612      2199      2385
 -1      5160    3    0    1
 -2      1094      2356       373      2386
 -1      5161    3    0    1
 -2      2084      1045      2301      2387
 -1      5162    3    0    1
 -2       658       988      2130      2388
 -1      5163    3    0    1
 -2      1937      1974      2140      2388
 -1      5164    3    0    1
 -2      2035      1937      2128      2388
 -1      5165    3    0    1
 -2       403      2035      2128      2388
 -1      5166    3    0    1
 -2      1974      1937      2035      2388
 -1      5167    3    0    1
 -2      1974       658      2140      2388
 -1      5168    3    0    1
 -2       403       988      2035      2388
 -1      5169    3    0    1
 -2       988      1974      2035      2388
 -1      5170    3    0    1
 -2       988       658      1974      2388
 -1      5171    3    0    1
 -2      2346      1334      2366      2389
 -1      5172    3    0    1
 -2       832      1071      2368      2449
 -1      5173    3    0    1
 -2      2085       832      2368      2449
 -1      5174    3    0    1
 -2      1051      2313      2366      2389
 -1      5175    3    0    1
 -2      1051       792      2313      2389
 -1      5176    3    0    1
 -2      1071      2361      2368      2449
 -1      5177    3    0    1
 -2       832      2085      2391      2449
 -1      5178    3    0    1
 -2       792      1051      2366      2389
 -1      5179    3    0    1
 -2      1364      1367      2330      2423
 -1      5180    3    0    1
 -2       441       362      2065      2423
 -1      5181    3    0    1
 -2      2148       744      2258      2439
 -1      5182    3    0    1
 -2       393       394      1303      2390
 -1      5183    3    0    1
 -2      1303       630      2349      2390
 -1      5184    3    0    1
 -2       393      1303      2349      2390
 -1      5185    3    0    1
 -2       392       965      1297      2450
 -1      5186    3    0    1
 -2      2077      1128      2305      2455
 -1      5187    3    0    1
 -2      2293       144      2450      2579
 -1      5188    3    0    1
 -2      2980      1541      1840      1841
 -1      5189    3    0    1
 -2      1284      1931      2431      2454
 -1      5190    3    0    1
 -2       942      1284      2431      2454
 -1      5191    3    0    1
 -2      2134      1001      2589      3711
 -1      5192    3    0    1
 -2       254      1050      2412      2451
 -1      5193    3    0    1
 -2      2412       788      2429      2451
 -1      5194    3    0    1
 -2       368      1060      2285      2396
 -1      5195    3    0    1
 -2      1380      2016      2045      2430
 -1      5196    3    0    1
 -2       368      2068      2234      2396
 -1      5197    3    0    1
 -2      2234      2068      2317      2396
 -1      5198    3    0    1
 -2      2461      2323      2993      3068
 -1      5199    3    0    1
 -2       589       965      1293      2392
 -1      5200    3    0    1
 -2       589       610       965      2392
 -1      5201    3    0    1
 -2       788      2331      2429      2451
 -1      5202    3    0    1
 -2      1025      1318      2495      3421
 -1      5203    3    0    1
 -2      1713       572      3621      3405
 -1      5204    3    0    1
 -2      1546      2858      3215      3254
 -1      5205    3    0    1
 -2       973      1297      2394      2580
 -1      5206    3    0    1
 -2      2068      2172      2317      2396
 -1      5207    3    0    1
 -2       628       973      1297      2394
 -1      5208    3    0    1
 -2      1307       409      3441      3737
 -1      5209    3    0    1
 -2      2813      2865      3597      3315
 -1      5210    3    0    1
 -2       607       628      1297      2394
 -1      5211    3    0    1
 -2       653       636      2243      2417
 -1      5212    3    0    1
 -2      2017      1942      2138      2410
 -1      5213    3    0    1
 -2       142      1949      2161      2410
 -1      5214    3    0    1
 -2       135       354      1295      2441
 -1      5215    3    0    1
 -2       135      2380      2259       124
 -1      5216    3    0    1
 -2       415      2292      2353      2521
 -1      5217    3    0    1
 -2       868       894      2303      2432
 -1      5218    3    0    1
 -2      2303      2110      2430      2432
 -1      5219    3    0    1
 -2      1295       354      2425      2441
 -1      5220    3    0    1
 -2       847      1366       848      2423
 -1      5221    3    0    1
 -2      1366       847      1365      2423
 -1      5222    3    0    1
 -2      2259       594      2424      2441
 -1      5223    3    0    1
 -2       135       959      2425      2441
 -1      5224    3    0    1
 -2      1059       807      2093      2429
 -1      5225    3    0    1
 -2       394       156      1303      2422
 -1      5226    3    0    1
 -2       788      1049      1336      2429
 -1      5227    3    0    1
 -2      1335       925      1213      2712
 -1      5228    3    0    1
 -2      2325       265      2419      2452
 -1      5229    3    0    1
 -2       894      2110      2303      2432
 -1      5230    3    0    1
 -2      2110      1988      2177      2432
 -1      5231    3    0    1
 -2      1059      1332      2412      2582
 -1      5232    3    0    1
 -2      1970      2045      2430      2432
 -1      5233    3    0    1
 -2      1057       272      2327      2452
 -1      5234    3    0    1
 -2      2018      2181      2217      2401
 -1      5235    3    0    1
 -2      1115       855      1087      2401
 -1      5236    3    0    1
 -2      1087       855      2181      2401
 -1      5237    3    0    1
 -2      2018      1087      2181      2401
 -1      5238    3    0    1
 -2      1087      2018      2174      2401
 -1      5239    3    0    1
 -2      2572      1550      1551      2690
 -1      5240    3    0    1
 -2      1469      1517      1518      2887
 -1      5241    3    0    1
 -2       628       607      1302      2464
 -1      5242    3    0    1
 -2      2369      2233      2681      3698
 -1      5243    3    0    1
 -2       594      2318      2424      2425
 -1      5244    3    0    1
 -2      2170      1287      2259      2403
 -1      5245    3    0    1
 -2      1287       568      2259      2403
 -1      5246    3    0    1
 -2      1037       375      2145      2405
 -1      5247    3    0    1
 -2      1331       331      2117      2405
 -1      5248    3    0    1
 -2      2048      1331      2117      2405
 -1      5249    3    0    1
 -2      2031      2048      2117      2405
 -1      5250    3    0    1
 -2       375       245      2048      2405
 -1      5251    3    0    1
 -2       245      1037      1044      2405
 -1      5252    3    0    1
 -2       245       375      1037      2405
 -1      5253    3    0    1
 -2       245       331      1331      2405
 -1      5254    3    0    1
 -2       245      1331      2048      2405
 -1      5255    3    0    1
 -2      2125       684      2140      2407
 -1      5256    3    0    1
 -2      1937       408      2013      2407
 -1      5257    3    0    1
 -2      2013       408      2076      2407
 -1      5258    3    0    1
 -2       684      1000      1974      2407
 -1      5259    3    0    1
 -2      1000       408      1974      2407
 -1      5260    3    0    1
 -2      2124       694      2342      2408
 -1      5261    3    0    1
 -2       694      2124      2310      2408
 -1      5262    3    0    1
 -2       416      2194      2383      2408
 -1      5263    3    0    1
 -2       416      2168      2194      2408
 -1      5264    3    0    1
 -2       210       416      2383      2408
 -1      5265    3    0    1
 -2      2342       210      2383      2408
 -1      5266    3    0    1
 -2       416       210      2342      2408
 -1      5267    3    0    1
 -2       952       582       953      2409
 -1      5268    3    0    1
 -2       953       582      2269      2409
 -1      5269    3    0    1
 -2       116      2269      2370      2409
 -1      5270    3    0    1
 -2       122       116      2370      2409
 -1      5271    3    0    1
 -2       116       122       952      2409
 -1      5272    3    0    1
 -2       116       953      2269      2409
 -1      5273    3    0    1
 -2       116       952       953      2409
 -1      5274    3    0    1
 -2      1054       261      2270      2411
 -1      5275    3    0    1
 -2       798      1054      2270      2411
 -1      5276    3    0    1
 -2      2015       798      2270      2411
 -1      5277    3    0    1
 -2       261       367      2020      2411
 -1      5278    3    0    1
 -2       261      2020      2381      2411
 -1      5279    3    0    1
 -2      2270       261      2381      2411
 -1      5280    3    0    1
 -2       798       815      1062      2411
 -1      5281    3    0    1
 -2       367      1054      1062      2411
 -1      5282    3    0    1
 -2      1054       798      1062      2411
 -1      5283    3    0    1
 -2       367       261      1054      2411
 -1      5284    3    0    1
 -2      2090       664      2319      2420
 -1      5285    3    0    1
 -2      1299       149      2245      2577
 -1      5286    3    0    1
 -2      1301       157      3519      3154
 -1      5287    3    0    1
 -2       208      1021      2472      3507
 -1      5288    3    0    1
 -2       807      1059      1332      2412
 -1      5289    3    0    1
 -2      1459      1460      2596      3065
 -1      5290    3    0    1
 -2       788       807      1332      2412
 -1      5291    3    0    1
 -2      1316      3599      3628      3448
 -1      5292    3    0    1
 -2       950       119      2549      2584
 -1      5293    3    0    1
 -2      1286       940      2186      2414
 -1      5294    3    0    1
 -2      1286      2186      2378      2414
 -1      5295    3    0    1
 -2       104      1286      2378      2414
 -1      5296    3    0    1
 -2        99       109       940      2414
 -1      5297    3    0    1
 -2      2241      2204      2400      2415
 -1      5298    3    0    1
 -2       418      2110      2400      2415
 -1      5299    3    0    1
 -2       435       418      1104      2415
 -1      5300    3    0    1
 -2      1378       418       435      2415
 -1      5301    3    0    1
 -2      2110      1969      2400      2415
 -1      5302    3    0    1
 -2       418      1131      2110      2415
 -1      5303    3    0    1
 -2      1405       418      2400      2415
 -1      5304    3    0    1
 -2      1104       418      1405      2415
 -1      5305    3    0    1
 -2       418      1378      1131      2415
 -1      5306    3    0    1
 -2       985      2115      2231      2417
 -1      5307    3    0    1
 -2       985       653      2115      2417
 -1      5308    3    0    1
 -2      1365      1955      2065      2423
 -1      5309    3    0    1
 -2      2065      2132      2234      2423
 -1      5310    3    0    1
 -2       636       653       977      2417
 -1      5311    3    0    1
 -2       977       653       985      2417
 -1      5312    3    0    1
 -2       132       957      1293      2453
 -1      5313    3    0    1
 -2       367      2020      2411      2419
 -1      5314    3    0    1
 -2       367      1337      2020      2419
 -1      5315    3    0    1
 -2       265      1057      1337      2419
 -1      5316    3    0    1
 -2      1337      1057      2267      2419
 -1      5317    3    0    1
 -2       589       592      2139      2453
 -1      5318    3    0    1
 -2       367       266      1337      2419
 -1      5319    3    0    1
 -2      2687      2715      3671      3738
 -1      5320    3    0    1
 -2       565       572      1713      3094
 -1      5321    3    0    1
 -2      2531      3654      3672      3682
 -1      5322    3    0    1
 -2       972      1305      3500      3546
 -1      5323    3    0    1
 -2      1650      1651      2867      3012
 -1      5324    3    0    1
 -2       390      3502      1905      3710
 -1      5325    3    0    1
 -2       992       666      2130      2426
 -1      5326    3    0    1
 -2       988       992      2130      2426
 -1      5327    3    0    1
 -2       126       354       959      2421
 -1      5328    3    0    1
 -2       126       959       960      2421
 -1      5329    3    0    1
 -2       282       279      2355      2442
 -1      5330    3    0    1
 -2       988       403       992      2426
 -1      5331    3    0    1
 -2      1295       594      2424      2425
 -1      5332    3    0    1
 -2      1366       362       441      2423
 -1      5333    3    0    1
 -2       992      2030      2247      2426
 -1      5334    3    0    1
 -2      2286       594      2318      2424
 -1      5335    3    0    1
 -2      2627      1433      3074      3351
 -1      5336    3    0    1
 -2      2130       666      2247      2426
 -1      5337    3    0    1
 -2       423      3653      3476      3489
 -1      5338    3    0    1
 -2      2289       988      2388      2426
 -1      5339    3    0    1
 -2       403       988      2289      2426
 -1      5340    3    0    1
 -2       594       958      2259      2424
 -1      5341    3    0    1
 -2       958      2170      2259      2424
 -1      5342    3    0    1
 -2       988      2130      2388      2426
 -1      5343    3    0    1
 -2       134      2244      2318      2425
 -1      5344    3    0    1
 -2       126       134      2318      2425
 -1      5345    3    0    1
 -2       134       126      2244      2425
 -1      5346    3    0    1
 -2      2085       279      2391      2442
 -1      5347    3    0    1
 -2      2680      2838      2972      3072
 -1      5348    3    0    1
 -2      1428      1427      2486      2561
 -1      5349    3    0    1
 -2       555       942      1339      2454
 -1      5350    3    0    1
 -2       395       153      1543      2999
 -1      5351    3    0    1
 -2      1148      2602      2615      2785
 -1      5352    3    0    1
 -2       383       112      2970      1828
 -1      5353    3    0    1
 -2      1509      1427      1510      2561
 -1      5354    3    0    1
 -2      2304       336      2431      2454
 -1      5355    3    0    1
 -2      2615      2602      2661      2785
 -1      5356    3    0    1
 -2      1333      2678      2744      2789
 -1      5357    3    0    1
 -2       643      1304      2213      2585
 -1      5358    3    0    1
 -2      2207      2055      2215      2433
 -1      5359    3    0    1
 -2      1132       433      1380      2430
 -1      5360    3    0    1
 -2      1470      1469      2800      2871
 -1      5361    3    0    1
 -2       434       433      1132      2430
 -1      5362    3    0    1
 -2      2424      1295      2425      2441
 -1      5363    3    0    1
 -2      1107       868      2430      2432
 -1      5364    3    0    1
 -2      1406       868      1107      2432
 -1      5365    3    0    1
 -2       433      1107      2430      2432
 -1      5366    3    0    1
 -2       433      1406      1107      2432
 -1      5367    3    0    1
 -2      1978      2121      2323      2466
 -1      5368    3    0    1
 -2       661       990      2562      2663
 -1      5369    3    0    1
 -2      1978      2121      2466      2467
 -1      5370    3    0    1
 -2        50      1546      3215      3254
 -1      5371    3    0    1
 -2      1001       185      2131      2589
 -1      5372    3    0    1
 -2       170      2295      2420      2436
 -1      5373    3    0    1
 -2       409       170      2420      2436
 -1      5374    3    0    1
 -2      2320       996      2134      2436
 -1      5375    3    0    1
 -2       996      2320      2134       672
 -1      5376    3    0    1
 -2       681       679       998      2637
 -1      5377    3    0    1
 -2       993      2041      2295      2436
 -1      5378    3    0    1
 -2       993       996      2041      2436
 -1      5379    3    0    1
 -2       170       993      2295      2436
 -1      5380    3    0    1
 -2       993       170       996      2436
 -1      5381    3    0    1
 -2      2127      3544      3569      3594
 -1      5382    3    0    1
 -2      3598      3105      3603      3679
 -1      5383    3    0    1
 -2      2696      3553      3296      3466
 -1      5384    3    0    1
 -2       798      1055      2015      2437
 -1      5385    3    0    1
 -2      1052       797      2301      2437
 -1      5386    3    0    1
 -2       797      1052      1055      2437
 -1      5387    3    0    1
 -2       797       798      2301      2437
 -1      5388    3    0    1
 -2       798       797      1055      2437
 -1      5389    3    0    1
 -2      1124       298      1088      2438
 -1      5390    3    0    1
 -2      1088       298      2266      2438
 -1      5391    3    0    1
 -2      1991       324      2334      2439
 -1      5392    3    0    1
 -2       324      1991      2322      2439
 -1      5393    3    0    1
 -2       379       324      2322      2439
 -1      5394    3    0    1
 -2       324      1036      2334      2439
 -1      5395    3    0    1
 -2       379      1029      1036      2439
 -1      5396    3    0    1
 -2       324       379      1036      2439
 -1      5397    3    0    1
 -2       942       555      1931      2454
 -1      5398    3    0    1
 -2       950       573      1288      2440
 -1      5399    3    0    1
 -2      1284       942      1931      2454
 -1      5400    3    0    1
 -2      1289       573      1931      2440
 -1      5401    3    0    1
 -2      1289      1931      2281      2440
 -1      5402    3    0    1
 -2       573       552      1931      2440
 -1      5403    3    0    1
 -2      3495      2402      3605      3739
 -1      5404    3    0    1
 -2       999      1311       679      2637
 -1      5405    3    0    1
 -2      1069      2085      2444      3707
 -1      5406    3    0    1
 -2      1453      1454      2609      1843
 -1      5407    3    0    1
 -2      3555      2918      3320      3403
 -1      5408    3    0    1
 -2      2807      2778      2946      3658
 -1      5409    3    0    1
 -2      2687      2540      2761      3521
 -1      5410    3    0    1
 -2       716       709      2587      2596
 -1      5411    3    0    1
 -2      1068       363      2219      2443
 -1      5412    3    0    1
 -2      2219      1056      2327      2443
 -1      5413    3    0    1
 -2       826      1068      2327      2443
 -1      5414    3    0    1
 -2      1063       831      1070      2444
 -1      5415    3    0    1
 -2       576      1290      2371      2445
 -1      5416    3    0    1
 -2       549      2026      2249      2445
 -1      5417    3    0    1
 -2      2249      2026      2365      2445
 -1      5418    3    0    1
 -2       549      2249      2365      2445
 -1      5419    3    0    1
 -2      1127      1098      2207      2446
 -1      5420    3    0    1
 -2       290      1127       378      2446
 -1      5421    3    0    1
 -2      2004      2207      2372      2446
 -1      5422    3    0    1
 -2      1098       290      2372      2446
 -1      5423    3    0    1
 -2      1127       290      1098      2446
 -1      5424    3    0    1
 -2      2207      1098      2372      2446
 -1      5425    3    0    1
 -2       832      2085      2368      2447
 -1      5426    3    0    1
 -2       832       831      2085      2447
 -1      5427    3    0    1
 -2      1070       831      1071      2447
 -1      5428    3    0    1
 -2      1070      1071      2368      2447
 -1      5429    3    0    1
 -2       366       364      2376      2447
 -1      5430    3    0    1
 -2       364       366      1070      2447
 -1      5431    3    0    1
 -2       577       574      1291      1929
 -1      5432    3    0    1
 -2       272       366      2118      2447
 -1      5433    3    0    1
 -2       831       832      1071      2447
 -1      5434    3    0    1
 -2      1071       832      2368      2447
 -1      5435    3    0    1
 -2       272      1063      1070      2447
 -1      5436    3    0    1
 -2       366       272      1070      2447
 -1      5437    3    0    1
 -2       965      2392      2450      2579
 -1      5438    3    0    1
 -2       945       563      2361      2449
 -1      5439    3    0    1
 -2       563       944      2304      2449
 -1      5440    3    0    1
 -2       832       945      1071      2449
 -1      5441    3    0    1
 -2       563       832      1072      2449
 -1      5442    3    0    1
 -2       832       563       945      2449
 -1      5443    3    0    1
 -2       944       563      1072      2449
 -1      5444    3    0    1
 -2      2436      2134      2589      3711
 -1      5445    3    0    1
 -2      2914      2875      3558      3682
 -1      5446    3    0    1
 -2       770      1329      2284      2451
 -1      5447    3    0    1
 -2       770       789      1050      2451
 -1      5448    3    0    1
 -2       770      1050      1329      2451
 -1      5449    3    0    1
 -2      1293       589      2392      2453
 -1      5450    3    0    1
 -2       133      1293      2392      2453
 -1      5451    3    0    1
 -2       133       132      1293      2453
 -1      5452    3    0    1
 -2       592       571      2139      2453
 -1      5453    3    0    1
 -2      2139       571      2440      2453
 -1      5454    3    0    1
 -2       571      1288      2440      2453
 -1      5455    3    0    1
 -2       947      1291      3442      3735
 -1      5456    3    0    1
 -2       381       380      3438      3733
 -1      5457    3    0    1
 -2       592       957      1288      2453
 -1      5458    3    0    1
 -2      3549      2592      3137      3673
 -1      5459    3    0    1
 -2       571       592      1288      2453
 -1      5460    3    0    1
 -2       822       555      1339      2454
 -1      5461    3    0    1
 -2       442      1375      1128      2455
 -1      5462    3    0    1
 -2       444       442      1099      2455
 -1      5463    3    0    1
 -2       862      2207      2433      2455
 -1      5464    3    0    1
 -2      1099       862      2433      2455
 -1      5465    3    0    1
 -2       444      1099      2433      2455
 -1      5466    3    0    1
 -2      1375       442       444      2455
 -1      5467    3    0    1
 -2      1375       444      2433      2455
 -1      5468    3    0    1
 -2      2305      1375      2433      2455
 -1      5469    3    0    1
 -2      1583      1457      1584      2766
 -1      5470    3    0    1
 -2      3515      2462      3201      3203
 -1      5471    3    0    1
 -2      1582      1581      3040      1875
 -1      5472    3    0    1
 -2      3163      3049      3595      3721
 -1      5473    3    0    1
 -2      2606      3517      2784      3722
 -1      5474    3    0    1
 -2      2663      1251      2829      3558
 -1      5475    3    0    1
 -2      2482      1501      2548      3406
 -1      5476    3    0    1
 -2      2482      1545      3587      3406
 -1      5477    3    0    1
 -2      2758      1493      3283      3352
 -1      5478    3    0    1
 -2      2202       317      2275      2485
 -1      5479    3    0    1
 -2      2188       708      2222      2485
 -1      5480    3    0    1
 -2       430       319      1545      3406
 -1      5481    3    0    1
 -2      1636      1637      2939      2981
 -1      5482    3    0    1
 -2      2892      2849      3294      3674
 -1      5483    3    0    1
 -2      1519      2914      3554      3682
 -1      5484    3    0    1
 -2       494       919      2762      3265
 -1      5485    3    0    1
 -2      3527       241      1729      3664
 -1      5486    3    0    1
 -2      1040       770      1330      3316
 -1      5487    3    0    1
 -2      1325      2063      2512      3543
 -1      5488    3    0    1
 -2      2632      2642      3550      2986
 -1      5489    3    0    1
 -2      1706      2870      1707      2988
 -1      5490    3    0    1
 -2      2570      2650      2759      3554
 -1      5491    3    0    1
 -2      2323      2233      2369      2461
 -1      5492    3    0    1
 -2      2602      1148      1681      2818
 -1      5493    3    0    1
 -2       282      2391      2560      3537
 -1      5494    3    0    1
 -2      3526      2228      3575      3583
 -1      5495    3    0    1
 -2       133       139      3552      3070
 -1      5496    3    0    1
 -2        12       195      1682      3159
 -1      5497    3    0    1
 -2      3526      3176      3189      3270
 -1      5498    3    0    1
 -2        80      1765      1764      3446
 -1      5499    3    0    1
 -2      1678      1450      1679      3223
 -1      5500    3    0    1
 -2      1595       329      2949      1908
 -1      5501    3    0    1
 -2      1326      1032      2236      3594
 -1      5502    3    0    1
 -2      1455      1456      1775      3347
 -1      5503    3    0    1
 -2      2711      1686      3549      3311
 -1      5504    3    0    1
 -2       218       219      3507      3709
 -1      5505    3    0    1
 -2      3639      2850      3706      3470
 -1      5506    3    0    1
 -2      1329      2284      2451      2781
 -1      5507    3    0    1
 -2      3516      2526      2900      2902
 -1      5508    3    0    1
 -2      1018       317      2222      3693
 -1      5509    3    0    1
 -2       655       662      2713      2739
 -1      5510    3    0    1
 -2      3535      2683      3036      3433
 -1      5511    3    0    1
 -2      2213       646      2250      2539
 -1      5512    3    0    1
 -2       158       973      2192      2537
 -1      5513    3    0    1
 -2      2192       157      2528      3519
 -1      5514    3    0    1
 -2      2733      3573      3574      3597
 -1      5515    3    0    1
 -2      1464      1463      2662      2910
 -1      5516    3    0    1
 -2       139       386      3536      3552
 -1      5517    3    0    1
 -2       628       973       625      2640
 -1      5518    3    0    1
 -2      1225      1223      2622      2803
 -1      5519    3    0    1
 -2      1853       799      1854      3340
 -1      5520    3    0    1
 -2      1482      1481      1544      2616
 -1      5521    3    0    1
 -2        50      3215      1822      3254
 -1      5522    3    0    1
 -2      2483      2464      3498      3627
 -1      5523    3    0    1
 -2      2191       968      2397      2577
 -1      5524    3    0    1
 -2       646       625      2250      2539
 -1      5525    3    0    1
 -2       732      1774      3130      3248
 -1      5526    3    0    1
 -2      2858      1687      3215      3254
 -1      5527    3    0    1
 -2      1537      1495      1538      3294
 -1      5528    3    0    1
 -2      3604      3569      3739      3743
 -1      5529    3    0    1
 -2      2587      2575      2876      3606
 -1      5530    3    0    1
 -2       600       617      2397      2506
 -1      5531    3    0    1
 -2      1536      1535      2780      3437
 -1      5532    3    0    1
 -2       391       140      1834      1836
 -1      5533    3    0    1
 -2      2712      3556      3581      2688
 -1      5534    3    0    1
 -2      1474      1473      2747      1697
 -1      5535    3    0    1
 -2       328       170      3518      3542
 -1      5536    3    0    1
 -2      3305      3373      3670      3688
 -1      5537    3    0    1
 -2      1541      2518      2980      3448
 -1      5538    3    0    1
 -2      3124      2792      3612      3676
 -1      5539    3    0    1
 -2      1434      3512      3578      3728
 -1      5540    3    0    1
 -2      3526      2228      3583      3176
 -1      5541    3    0    1
 -2       907      2683      3036      3468
 -1      5542    3    0    1
 -2      1041      1325      2063      2512
 -1      5543    3    0    1
 -2      3205      1713      1818      1819
 -1      5544    3    0    1
 -2      1296      2428       599      3503
 -1      5545    3    0    1
 -2      1585      2601      3596      3358
 -1      5546    3    0    1
 -2      2655      2527      3535      3690
 -1      5547    3    0    1
 -2      2762      2629      2797      3533
 -1      5548    3    0    1
 -2       572       565      1610      2714
 -1      5549    3    0    1
 -2      3018      1763      3351      3374
 -1      5550    3    0    1
 -2      2593      2636      2637      3549
 -1      5551    3    0    1
 -2       625      2192      2250      2539
 -1      5552    3    0    1
 -2      2520      2211      3509      3042
 -1      5553    3    0    1
 -2      1459      1425      1460      3065
 -1      5554    3    0    1
 -2      3025      3705      3020      3401
 -1      5555    3    0    1
 -2      1465      1466      1504      3101
 -1      5556    3    0    1
 -2      2490      2566      3598      3679
 -1      5557    3    0    1
 -2       699      1007       697      2790
 -1      5558    3    0    1
 -2      2535      1508      2788      3593
 -1      5559    3    0    1
 -2       150      2191      2245      2577
 -1      5560    3    0    1
 -2      1522      2913      3279      3672
 -1      5561    3    0    1
 -2      1033      2236      2257      2552
 -1      5562    3    0    1
 -2      2809      1612      1838      1839
 -1      5563    3    0    1
 -2      2517      2592      3549      3673
 -1      5564    3    0    1
 -2      3140      3512      3638      3464
 -1      5565    3    0    1
 -2       625       972      2640      2931
 -1      5566    3    0    1
 -2      2547       956      2607      2658
 -1      5567    3    0    1
 -2      1296      2086      2428      3503
 -1      5568    3    0    1
 -2      1409      3618      3476      3742
 -1      5569    3    0    1
 -2      2355       282      2560      3537
 -1      5570    3    0    1
 -2      3576      1450      3242      1865
 -1      5571    3    0    1
 -2      1307       661      2562      2663
 -1      5572    3    0    1
 -2       476      1172      2599      2600
 -1      5573    3    0    1
 -2      3532      3524      3050      3658
 -1      5574    3    0    1
 -2      1529      3501      3663      3698
 -1      5575    3    0    1
 -2      1644       553      2743      2896
 -1      5576    3    0    1
 -2      2875      2914      3558      3654
 -1      5577    3    0    1
 -2       236        41      1773      3408
 -1      5578    3    0    1
 -2       965      2392      2579      3552
 -1      5579    3    0    1
 -2       901       460      2597      2615
 -1      5580    3    0    1
 -2      2880      2803      1766      3252
 -1      5581    3    0    1
 -2       565       572      1610      3269
 -1      5582    3    0    1
 -2      2507      2518      2588      3599
 -1      5583    3    0    1
 -2      2087      2520      3178      3715
 -1      5584    3    0    1
 -2       982      2213      2282      2539
 -1      5585    3    0    1
 -2       617       967      2293      2506
 -1      5586    3    0    1
 -2      1025      1321       734      2480
 -1      5587    3    0    1
 -2       662      2739      1789      3338
 -1      5588    3    0    1
 -2      1413      1414      1484      3280
 -1      5589    3    0    1
 -2       750       745      2870      2922
 -1      5590    3    0    1
 -2      1059      1335      2515      2595
 -1      5591    3    0    1
 -2       553      2885      2983      3033
 -1      5592    3    0    1
 -2      1483      1484      3082      3280
 -1      5593    3    0    1
 -2       745       750      1688      2922
 -1      5594    3    0    1
 -2      3107      1606      3277      3622
 -1      5595    3    0    1
 -2      2488       513      1223      2622
 -1      5596    3    0    1
 -2      2091      2102      2233      2514
 -1      5597    3    0    1
 -2      2596      1459      1569      1570
 -1      5598    3    0    1
 -2      2812      3022      3560      3415
 -1      5599    3    0    1
 -2      3252      3573      3259      3319
 -1      5600    3    0    1
 -2      2923      2733      3573      3574
 -1      5601    3    0    1
 -2      2459      2347      3510      3544
 -1      5602    3    0    1
 -2      3509      3178      2520      3605
 -1      5603    3    0    1
 -2      1049      1336      2429      3511
 -1      5604    3    0    1
 -2       571       949      2440      3508
 -1      5605    3    0    1
 -2      1811      2995      1812      1859
 -1      5606    3    0    1
 -2      1172       475       476      2599
 -1      5607    3    0    1
 -2      2100      2087      2467      2679
 -1      5608    3    0    1
 -2      1416      1704      3541      3271
 -1      5609    3    0    1
 -2      1425      1426      1512      3432
 -1      5610    3    0    1
 -2      1435      2606      3722      3740
 -1      5611    3    0    1
 -2      2646      3233      3333      3677
 -1      5612    3    0    1
 -2      2295       170      2420      2673
 -1      5613    3    0    1
 -2      3608       426      3656      3378
 -1      5614    3    0    1
 -2       987       993      3518      1798
 -1      5615    3    0    1
 -2       626       619      2810      2850
 -1      5616    3    0    1
 -2      2664      2484      3623      3655
 -1      5617    3    0    1
 -2       195        12      1571      2819
 -1      5618    3    0    1
 -2      1477      1478      3009      3150
 -1      5619    3    0    1
 -2      1646      3048      3136      3217
 -1      5620    3    0    1
 -2       241      1659      1660      2963
 -1      5621    3    0    1
 -2       954      1296      3503      1909
 -1      5622    3    0    1
 -2      2869      3560      3612      3620
 -1      5623    3    0    1
 -2      1148      1146      2597      2602
 -1      5624    3    0    1
 -2      1046       780      2137      3497
 -1      5625    3    0    1
 -2      3363       572      3369      3690
 -1      5626    3    0    1
 -2      2137      1052       780       797
 -1      5627    3    0    1
 -2      1585      2529      2788      3593
 -1      5628    3    0    1
 -2      2514      2102      2681      3142
 -1      5629    3    0    1
 -2      2761      3521      3173      3227
 -1      5630    3    0    1
 -2      2724      2604      3523      2843
 -1      5631    3    0    1
 -2      3049      3129      3662      3721
 -1      5632    3    0    1
 -2      1699      2772      3381      3481
 -1      5633    3    0    1
 -2      2516      2668      3568      3712
 -1      5634    3    0    1
 -2       346       347      3519      3154
 -1      5635    3    0    1
 -2      3586      3657      3452      3717
 -1      5636    3    0    1
 -2       991      1304      2585      3224
 -1      5637    3    0    1
 -2       715       717      2597      3523
 -1      5638    3    0    1
 -2      3117      1559      3218      3333
 -1      5639    3    0    1
 -2      1024      3525      3587      3713
 -1      5640    3    0    1
 -2      1557       608      3210      3721
 -1      5641    3    0    1
 -2      2459      3510      3436      3715
 -1      5642    3    0    1
 -2       726      2187      2222      2472
 -1      5643    3    0    1
 -2      2187       726      2220      2472
 -1      5644    3    0    1
 -2      1809      3181      1846      1847
 -1      5645    3    0    1
 -2       982      1304      2282      2585
 -1      5646    3    0    1
 -2      2529      3522      3584      3593
 -1      5647    3    0    1
 -2      2845      1562      1733      1734
 -1      5648    3    0    1
 -2      1764      1765      3300      3446
 -1      5649    3    0    1
 -2      2745      2086      3536      3552
 -1      5650    3    0    1
 -2      1473      2641      2847      3555
 -1      5651    3    0    1
 -2      2782      1524      1807      1808
 -1      5652    3    0    1
 -2      3205      3621      3289      3405
 -1      5653    3    0    1
 -2      2569      2609      3273      3343
 -1      5654    3    0    1
 -2      2567      3101      3106      3625
 -1      5655    3    0    1
 -2      1470      1469      1626      2800
 -1      5656    3    0    1
 -2      2290      2483      3520      3627
 -1      5657    3    0    1
 -2       494       770      2629      2832
 -1      5658    3    0    1
 -2      2462      3515      2808      3203
 -1      5659    3    0    1
 -2      2465      2332      3496      3165
 -1      5660    3    0    1
 -2      1653      3575      3585      3189
 -1      5661    3    0    1
 -2      1519      2650      1648      1649
 -1      5662    3    0    1
 -2      3041      1533      3084      3676
 -1      5663    3    0    1
 -2      3064      2795      3336      3697
 -1      5664    3    0    1
 -2      3576      3018      3351      3468
 -1      5665    3    0    1
 -2      3186      2538      3221      3673
 -1      5666    3    0    1
 -2      1657      2768      3521      3227
 -1      5667    3    0    1
 -2      1713      1714      3094      1819
 -1      5668    3    0    1
 -2      2707      2574      2909      3692
 -1      5669    3    0    1
 -2      2887      2886      3027      3288
 -1      5670    3    0    1
 -2      2723      3250      3662      3706
 -1      5671    3    0    1
 -2      1667      1711      1712      3214
 -1      5672    3    0    1
 -2       981      2213      1305      3565
 -1      5673    3    0    1
 -2      1585      2601      2907      3291
 -1      5674    3    0    1
 -2      3477      3668      3724      3730
 -1      5675    3    0    1
 -2      1604      1605      3040      1875
 -1      5676    3    0    1
 -2      2211      2360      2842      3042
 -1      5677    3    0    1
 -2      1475      2742      1733      1734
 -1      5678    3    0    1
 -2      1516       229      3594      3741
 -1      5679    3    0    1
 -2       735      2116      2264      2495
 -1      5680    3    0    1
 -2      3681      1595      3429      1908
 -1      5681    3    0    1
 -2      2492      1418      2602      3422
 -1      5682    3    0    1
 -2      2688      2728      3556      3581
 -1      5683    3    0    1
 -2       735       715      2274      2495
 -1      5684    3    0    1
 -2      2746      3118      3629      3423
 -1      5685    3    0    1
 -2       972       395      3570      3629
 -1      5686    3    0    1
 -2        45        50      1822      3254
 -1      5687    3    0    1
 -2      3024      2471      3558      3727
 -1      5688    3    0    1
 -2      2461      2483      3498      3541
 -1      5689    3    0    1
 -2      1472      1471      1808      3180
 -1      5690    3    0    1
 -2      1061       815      2015      2610
 -1      5691    3    0    1
 -2      3599      2190      3686      3704
 -1      5692    3    0    1
 -2       429      1877      3684      3407
 -1      5693    3    0    1
 -2       716      2596      3235      1569
 -1      5694    3    0    1
 -2       788      1049      1333      2678
 -1      5695    3    0    1
 -2       661       990      3168      3169
 -1      5696    3    0    1
 -2      1931      2281      3531      3614
 -1      5697    3    0    1
 -2      2480      2487      2558      2806
 -1      5698    3    0    1
 -2      2546      2487      3504      3416
 -1      5699    3    0    1
 -2      2468      2503      3563      3427
 -1      5700    3    0    1
 -2      2662      1463      1776      3579
 -1      5701    3    0    1
 -2      2233      2102      2369      2681
 -1      5702    3    0    1
 -2      2532      2672      2694      3516
 -1      5703    3    0    1
 -2      1015      2274      2462      2798
 -1      5704    3    0    1
 -2      3556      2825      3172      3596
 -1      5705    3    0    1
 -2      3504      2522      3366      3641
 -1      5706    3    0    1
 -2      1032      1326      2813      3530
 -1      5707    3    0    1
 -2      2137      1052      2437      3497
 -1      5708    3    0    1
 -2      3232      3021      3618      3742
 -1      5709    3    0    1
 -2      2528      2282      2539      3519
 -1      5710    3    0    1
 -2       965      2392      3552      3070
 -1      5711    3    0    1
 -2       157      2192      2528      2537
 -1      5712    3    0    1
 -2      2332      1058      2093      1340
 -1      5713    3    0    1
 -2       551       560       947      1928
 -1      5714    3    0    1
 -2      1411      3509      3605      3713
 -1      5715    3    0    1
 -2       709      2596      1569      1570
 -1      5716    3    0    1
 -2      2709      2615      3523      3606
 -1      5717    3    0    1
 -2       734      2116      2236      2552
 -1      5718    3    0    1
 -2       734      1321      2264      2552
 -1      5719    3    0    1
 -2      1458      1457      1584      2699
 -1      5720    3    0    1
 -2       387      1746      3267      3646
 -1      5721    3    0    1
 -2      2754      3626      3664      3454
 -1      5722    3    0    1
 -2      2444      2085      2594      3707
 -1      5723    3    0    1
 -2      1611      1610      2714      3075
 -1      5724    3    0    1
 -2      1025      1252      1254      2480
 -1      5725    3    0    1
 -2       909      1284       942      2599
 -1      5726    3    0    1
 -2      1322      3587      3724      3730
 -1      5727    3    0    1
 -2       119       388      2395      2584
 -1      5728    3    0    1
 -2      1604      1605      2958      3040
 -1      5729    3    0    1
 -2       196      1316      3609      3628
 -1      5730    3    0    1
 -2      1561      1497      3056      3668
 -1      5731    3    0    1
 -2      1562      1733      1734      2973
 -1      5732    3    0    1
 -2      3592      2758      3283      3352
 -1      5733    3    0    1
 -2      3581      2614      3278      3650
 -1      5734    3    0    1
 -2      2466      2100      2467      3021
 -1      5735    3    0    1
 -2      1665      1664      2802      3234
 -1      5736    3    0    1
 -2      3546      1608      3563      3314
 -1      5737    3    0    1
 -2      2228      2466      2467      3232
 -1      5738    3    0    1
 -2      2770      1757      3076      3579
 -1      5739    3    0    1
 -2       383      1530      2970      3646
 -1      5740    3    0    1
 -2      1588      2652      1589      2674
 -1      5741    3    0    1
 -2      2939      1636      1736      1737
 -1      5742    3    0    1
 -2      1693      1692      1872      3354
 -1      5743    3    0    1
 -2      2615      2785      3577      3606
 -1      5744    3    0    1
 -2      1631      2702      2750      2859
 -1      5745    3    0    1
 -2      2810      1620      1829      3639
 -1      5746    3    0    1
 -2      3544      1040      3316      3700
 -1      5747    3    0    1
 -2      1713       572      2937      3621
 -1      5748    3    0    1
 -2      3090      1423      3161      3204
 -1      5749    3    0    1
 -2      1833      1832      3273      1843
 -1      5750    3    0    1
 -2      3624      3510      3648      3700
 -1      5751    3    0    1
 -2       528       527      1252      2480
 -1      5752    3    0    1
 -2      1252       527      1254      2480
 -1      5753    3    0    1
 -2       735       528      1025      2480
 -1      5754    3    0    1
 -2      3504      2477      3416      3417
 -1      5755    3    0    1
 -2      1025       528      1252      2480
 -1      5756    3    0    1
 -2       753       752      1032      2488
 -1      5757    3    0    1
 -2       145      1616      3351      3374
 -1      5758    3    0    1
 -2      2599       555      2600      2619
 -1      5759    3    0    1
 -2       552       941      1285      2599
 -1      5760    3    0    1
 -2      3508      3528      3614      3642
 -1      5761    3    0    1
 -2      2507      2518      3598      3448
 -1      5762    3    0    1
 -2      1007       899      2568      2790
 -1      5763    3    0    1
 -2      2620      1546      2794      3151
 -1      5764    3    0    1
 -2      1066      1340      3516      3522
 -1      5765    3    0    1
 -2      3171      3558      3682      3727
 -1      5766    3    0    1
 -2      3093      1713      3690      3459
 -1      5767    3    0    1
 -2      2786      2633      3573      3145
 -1      5768    3    0    1
 -2      1871      3626      3354      3454
 -1      5769    3    0    1
 -2      3034      1861      3409      3455
 -1      5770    3    0    1
 -2      1531      1532      2625      2996
 -1      5771    3    0    1
 -2      2647      3632      3636      3665
 -1      5772    3    0    1
 -2      3163      2851      3290      3721
 -1      5773    3    0    1
 -2      2712      3079      3581      3610
 -1      5774    3    0    1
 -2       450      1736      1737      3149
 -1      5775    3    0    1
 -2      1326      3495      3525      3694
 -1      5776    3    0    1
 -2       698       691      1535      3240
 -1      5777    3    0    1
 -2      2621      2820      3161      3603
 -1      5778    3    0    1
 -2       327       642       987      1799
 -1      5779    3    0    1
 -2      3088      2877      3654      3655
 -1      5780    3    0    1
 -2      2102      2233      2514      2681
 -1      5781    3    0    1
 -2       625      1301      2192      2539
 -1      5782    3    0    1
 -2       149       151       968      2577
 -1      5783    3    0    1
 -2      2528      2544      3519      3588
 -1      5784    3    0    1
 -2       717      1319      3515      3201
 -1      5785    3    0    1
 -2       195        12      1572      3159
 -1      5786    3    0    1
 -2      2773      2872      2888      3620
 -1      5787    3    0    1
 -2      3178      3509      2520      2211
 -1      5788    3    0    1
 -2      1515      1759      3252      3259
 -1      5789    3    0    1
 -2       942      1339      2454      2656
 -1      5790    3    0    1
 -2      1605      1604      3001      3045
 -1      5791    3    0    1
 -2      2692      3550      3676      3409
 -1      5792    3    0    1
 -2       530      1258      2562      2663
 -1      5793    3    0    1
 -2      2655      3535      3576      3607
 -1      5794    3    0    1
 -2      2087      2100      2297      2520
 -1      5795    3    0    1
 -2      1511        77      1512      3474
 -1      5796    3    0    1
 -2      1304       982      2213      2585
 -1      5797    3    0    1
 -2      1550      2572      2743      3568
 -1      5798    3    0    1
 -2       552      1284      2431      2549
 -1      5799    3    0    1
 -2       474      2574      2693      2909
 -1      5800    3    0    1
 -2      2332       822      2355      2760
 -1      5801    3    0    1
 -2      2297      2100      2360      2520
 -1      5802    3    0    1
 -2      1730      1438      3563      3678
 -1      5803    3    0    1
 -2       781       786      1731      3202
 -1      5804    3    0    1
 -2      1440      2725      3071      3741
 -1      5805    3    0    1
 -2       229       428      1602      3694
 -1      5806    3    0    1
 -2      2758      2551      3158      3592
 -1      5807    3    0    1
 -2       993      2295      3518      1798
 -1      5808    3    0    1
 -2      1491      1631      1632      2750
 -1      5809    3    0    1
 -2      2211      2360      2520      3178
 -1      5810    3    0    1
 -2       193      2188      3693      1914
 -1      5811    3    0    1
 -2       781       786      1755      3122
 -1      5812    3    0    1
 -2      1012      1018      3693      1914
 -1      5813    3    0    1
 -2      2332      2228      2465      3496
 -1      5814    3    0    1
 -2      2866      2461      3541      3068
 -1      5815    3    0    1
 -2      1410      3501      3513      3718
 -1      5816    3    0    1
 -2      3514      1429      1753      3652
 -1      5817    3    0    1
 -2      3592      2883      3129      3662
 -1      5818    3    0    1
 -2       961       600      2435      2506
 -1      5819    3    0    1
 -2       981      1305      2687      3521
 -1      5820    3    0    1
 -2      2905      2731      3313      3649
 -1      5821    3    0    1
 -2      1025       735      2264      2495
 -1      5822    3    0    1
 -2       637       644      1519      2703
 -1      5823    3    0    1
 -2      2886      2479      3561      3288
 -1      5824    3    0    1
 -2      2885      1550      2991      3288
 -1      5825    3    0    1
 -2       823       499      2526      2532
 -1      5826    3    0    1
 -2      1067       823      2355      2767
 -1      5827    3    0    1
 -2      1654      2666      2938      3584
 -1      5828    3    0    1
 -2       391       140      3617      3619
 -1      5829    3    0    1
 -2        41      1631      1632      3411
 -1      5830    3    0    1
 -2      1046      2137      2384      3497
 -1      5831    3    0    1
 -2       244      1046      2384      3497
 -1      5832    3    0    1
 -2      1533      1493      3158      3592
 -1      5833    3    0    1
 -2       128       424      1795      1797
 -1      5834    3    0    1
 -2       371      3497      3696      1900
 -1      5835    3    0    1
 -2       780      1046      1052      3497
 -1      5836    3    0    1
 -2      2886      2838      2887      3027
 -1      5837    3    0    1
 -2      1052      2137       780      3497
 -1      5838    3    0    1
 -2      3085      1557      3210      3721
 -1      5839    3    0    1
 -2       998       196      1316      3534
 -1      5840    3    0    1
 -2       332       371      3497      3696
 -1      5841    3    0    1
 -2      1024       229      3694      3713
 -1      5842    3    0    1
 -2      2116       734      2264      2552
 -1      5843    3    0    1
 -2      2973      2748      3571      3247
 -1      5844    3    0    1
 -2      3162      1539      3286      3289
 -1      5845    3    0    1
 -2      1544      1543      3244      3450
 -1      5846    3    0    1
 -2      2601      2907      3596      3358
 -1      5847    3    0    1
 -2       975      2203      2393      3502
 -1      5848    3    0    1
 -2      1584      1583      1812      3360
 -1      5849    3    0    1
 -2       392       970      3502      1905
 -1      5850    3    0    1
 -2      1476      1475      1733      2973
 -1      5851    3    0    1
 -2      1301       157      2192      3519
 -1      5852    3    0    1
 -2       752       753      1033      2488
 -1      5853    3    0    1
 -2      1033      1222      1224      2488
 -1      5854    3    0    1
 -2      1033      1224      1325      2488
 -1      5855    3    0    1
 -2       697      1007      1315      2568
 -1      5856    3    0    1
 -2      2477      2545      3504      3412
 -1      5857    3    0    1
 -2      1616       145      1898      3418
 -1      5858    3    0    1
 -2      2600      2599      2619      2623
 -1      5859    3    0    1
 -2       513       512      1222      2488
 -1      5860    3    0    1
 -2       753       513      1033      2488
 -1      5861    3    0    1
 -2      3273      1896      1897      3413
 -1      5862    3    0    1
 -2      1033       513      1222      2488
 -1      5863    3    0    1
 -2      1222       512      1224      2488
 -1      5864    3    0    1
 -2      2086       133      3536      3552
 -1      5865    3    0    1
 -2      2619       941      2599      1285
 -1      5866    3    0    1
 -2      2636      1150      2637      2665
 -1      5867    3    0    1
 -2      3509      1411      3525      3713
 -1      5868    3    0    1
 -2      2990      3590       964      1298
 -1      5869    3    0    1
 -2      1294       592      2547      2607
 -1      5870    3    0    1
 -2      2542      2805      3559      3697
 -1      5871    3    0    1
 -2      1016       901      2597      2615
 -1      5872    3    0    1
 -2       750       745      1688      3309
 -1      5873    3    0    1
 -2      1806      3211      1869      3411
 -1      5874    3    0    1
 -2      2466      2467      2493      3526
 -1      5875    3    0    1
 -2       236        41      1632      3411
 -1      5876    3    0    1
 -2      3211        41      1869      3411
 -1      5877    3    0    1
 -2      2853      3030      3260      3702
 -1      5878    3    0    1
 -2      2284       244      2384      2508
 -1      5879    3    0    1
 -2      3211      1806      3303      3411
 -1      5880    3    0    1
 -2      2749      2542      3661      3697
 -1      5881    3    0    1
 -2       673      2783      1846      1847
 -1      5882    3    0    1
 -2       227      1038      3582      1882
 -1      5883    3    0    1
 -2       717       715      1319      3523
 -1      5884    3    0    1
 -2      1340      1066       823      3522
 -1      5885    3    0    1
 -2       319      1322      3725      3730
 -1      5886    3    0    1
 -2       329      1595      3681      1908
 -1      5887    3    0    1
 -2      2491      2541      3606      3687
 -1      5888    3    0    1
 -2      1471      1472      3136      3180
 -1      5889    3    0    1
 -2       626      3134      3174      3616
 -1      5890    3    0    1
 -2      1631      1701      2855      2859
 -1      5891    3    0    1
 -2      2691      2479      3561      3644
 -1      5892    3    0    1
 -2      2220      1027      2307      3507
 -1      5893    3    0    1
 -2      2526      2532      2694      3516
 -1      5894    3    0    1
 -2      2402      2127      3569      3594
 -1      5895    3    0    1
 -2      3545      2704      3586      3717
 -1      5896    3    0    1
 -2      1746      1539      1747      3166
 -1      5897    3    0    1
 -2      1330      3527      3544      3681
 -1      5898    3    0    1
 -2      1652      3583      3189      3600
 -1      5899    3    0    1
 -2      2619      3517      3184      3241
 -1      5900    3    0    1
 -2      3517      2576      3184      3241
 -1      5901    3    0    1
 -2      2663      2829      2908      3558
 -1      5902    3    0    1
 -2      1055      2015      2437      3708
 -1      5903    3    0    1
 -2      1294      2139      2494      3512
 -1      5904    3    0    1
 -2       279      1067      2767      3529
 -1      5905    3    0    1
 -2       140      1834      1835      1884
 -1      5906    3    0    1
 -2       949      1294      2139      2494
 -1      5907    3    0    1
 -2       625       973      1301      2640
 -1      5908    3    0    1
 -2      1335       267      2595      3529
 -1      5909    3    0    1
 -2      1519       637      1520      2757
 -1      5910    3    0    1
 -2       735      1025      1318      2495
 -1      5911    3    0    1
 -2      2492      2602      3577      3422
 -1      5912    3    0    1
 -2       715       735      1318      2495
 -1      5913    3    0    1
 -2      2667      3577      3372      3422
 -1      5914    3    0    1
 -2      2667      2492      3577      3422
 -1      5915    3    0    1
 -2       185      2315      2589      3711
 -1      5916    3    0    1
 -2       715      1015      2274      3515
 -1      5917    3    0    1
 -2      1565      1566      2835      2848
 -1      5918    3    0    1
 -2      1001      3711      1918      1919
 -1      5919    3    0    1
 -2      2951      2711      3549      3264
 -1      5920    3    0    1
 -2      2600      1172      2976      3114
 -1      5921    3    0    1
 -2      2475      3521      3683      3738
 -1      5922    3    0    1
 -2      1465      1466      2796      2822
 -1      5923    3    0    1
 -2       941      2619      2599      2623
 -1      5924    3    0    1
 -2      2282       982      2539      3519
 -1      5925    3    0    1
 -2      1541      1840      3332      3345
 -1      5926    3    0    1
 -2       475      1172      1170      2599
 -1      5927    3    0    1
 -2       229       428      1566      2675
 -1      5928    3    0    1
 -2      3112      3108      3625      3413
 -1      5929    3    0    1
 -2      1565       229      1566      2675
 -1      5930    3    0    1
 -2      1043      2384      2406      2513
 -1      5931    3    0    1
 -2       956      1294      2547      2607
 -1      5932    3    0    1
 -2       998      1316      2185      3534
 -1      5933    3    0    1
 -2      1316      2982      3598      3599
 -1      5934    3    0    1
 -2      3299      1600      1853      1854
 -1      5935    3    0    1
 -2      3242      1616      1865      1866
 -1      5936    3    0    1
 -2      3134      2741      3616      3312
 -1      5937    3    0    1
 -2       149       150      2245      2577
 -1      5938    3    0    1
 -2       661      2090      2319      3169
 -1      5939    3    0    1
 -2       499      2526      2532      2694
 -1      5940    3    0    1
 -2       329      1562      1563      3249
 -1      5941    3    0    1
 -2      1419      2692      3676      3409
 -1      5942    3    0    1
 -2      3053      3578      3675      3728
 -1      5943    3    0    1
 -2      3142      2514      3342      3698
 -1      5944    3    0    1
 -2      3399      1863      3401      3705
 -1      5945    3    0    1
 -2      3555      1473      3359      3381
 -1      5946    3    0    1
 -2       101       422      3585      3600
 -1      5947    3    0    1
 -2      1506      1505      1598      2954
 -1      5948    3    0    1
 -2       316       205      1685      3234
 -1      5949    3    0    1
 -2      3516      3011      3593      3296
 -1      5950    3    0    1
 -2       383      1741      3246      3740
 -1      5951    3    0    1
 -2       949      2139      2440      3508
 -1      5952    3    0    1
 -2       644       637      2757      2916
 -1      5953    3    0    1
 -2       993      2041      3518      2295
 -1      5954    3    0    1
 -2       229       428      1576      2835
 -1      5955    3    0    1
 -2       327       396      2171      2544
 -1      5956    3    0    1
 -2      2093      1059      2429      2515
 -1      5957    3    0    1
 -2       335       267      2769      3529
 -1      5958    3    0    1
 -2      1485      2996      1824      3649
 -1      5959    3    0    1
 -2       993       671      2291      3518
 -1      5960    3    0    1
 -2      1059      2412      2429      2515
 -1      5961    3    0    1
 -2       608       601      1557      3210
 -1      5962    3    0    1
 -2      1555       619      1556      3134
 -1      5963    3    0    1
 -2      3520      1416      3541      3404
 -1      5964    3    0    1
 -2      1439      2501      1587      2927
 -1      5965    3    0    1
 -2      1501      2724      2843      3044
 -1      5966    3    0    1
 -2      1796      1421      3629      3423
 -1      5967    3    0    1
 -2      2830      3568      3712      3726
 -1      5968    3    0    1
 -2      2602      1690      3372      3422
 -1      5969    3    0    1
 -2      3009      1477      3150      3705
 -1      5970    3    0    1
 -2      1519      1520      2755      2757
 -1      5971    3    0    1
 -2      2347      3510      3657      3436
 -1      5972    3    0    1
 -2       527      1253      2480      2558
 -1      5973    3    0    1
 -2      2087      2704      3657      3436
 -1      5974    3    0    1
 -2      1546      1564      2672      2794
 -1      5975    3    0    1
 -2      1427      1501      2548      3366
 -1      5976    3    0    1
 -2      2127      2459      3544      3316
 -1      5977    3    0    1
 -2       643       646      1304      2643
 -1      5978    3    0    1
 -2      1488      1487      1601      3081
 -1      5979    3    0    1
 -2      2772      3555      3381      3481
 -1      5980    3    0    1
 -2      2731      1813      3208      3350
 -1      5981    3    0    1
 -2      1322       735      2274      2798
 -1      5982    3    0    1
 -2      3003      1497      3567      3668
 -1      5983    3    0    1
 -2      2812      2853      3260      3702
 -1      5984    3    0    1
 -2      1638      2852      3595      1834
 -1      5985    3    0    1
 -2      2924      3591      3645      3705
 -1      5986    3    0    1
 -2       646       982      1304      2643
 -1      5987    3    0    1
 -2      2465      3496      3232      3742
 -1      5988    3    0    1
 -2      3509      1545      3477      3724
 -1      5989    3    0    1
 -2      2464      2066      2483      3498
 -1      5990    3    0    1
 -2      1992      2190      3599      3704
 -1      5991    3    0    1
 -2      1514      1513      2738      3157
 -1      5992    3    0    1
 -2      2874      1705      3073      1817
 -1      5993    3    0    1
 -2      1438      3546      3563      3630
 -1      5994    3    0    1
 -2      1546        45      1547      3254
 -1      5995    3    0    1
 -2      1865      3550      3364      3455
 -1      5996    3    0    1
 -2      1465      1466      1573      2833
 -1      5997    3    0    1
 -2       254      2437      3497      3696
 -1      5998    3    0    1
 -2      1581      1582      2878      2917
 -1      5999    3    0    1
 -2       655       662      1789      3297
 -1      6000    3    0    1
 -2      3506      2469      3562      3701
 -1      6001    3    0    1
 -2      1050      1329      2451      2781
 -1      6002    3    0    1
 -2      1561      3515      3601      3666
 -1      6003    3    0    1
 -2      1285      1931      2760      3531
 -1      6004    3    0    1
 -2      3496      2465      3165      3602
 -1      6005    3    0    1
 -2      2870       750      2922      3100
 -1      6006    3    0    1
 -2      2766      1583      2934      2995
 -1      6007    3    0    1
 -2       627       158       975      1904
 -1      6008    3    0    1
 -2      2804      2907      3556      3596
 -1      6009    3    0    1
 -2      1496      1661      3293      1495
 -1      6010    3    0    1
 -2      2171       396      2282      2544
 -1      6011    3    0    1
 -2      2613      2611      2805      3559
 -1      6012    3    0    1
 -2      3550      1450      3069      1865
 -1      6013    3    0    1
 -2      2779      3603      3304      3679
 -1      6014    3    0    1
 -2      1711       601      1712      3214
 -1      6015    3    0    1
 -2      1467      2623      3517      1741
 -1      6016    3    0    1
 -2      1445      1446      3096      1840
 -1      6017    3    0    1
 -2      3105      3598      3387      3679
 -1      6018    3    0    1
 -2      2694      2902      3553      3633
 -1      6019    3    0    1
 -2      1496      1495      1538      2960
 -1      6020    3    0    1
 -2      1746       387      1747      3326
 -1      6021    3    0    1
 -2      2066      2456      2503      3500
 -1      6022    3    0    1
 -2      3547      3515      3601      3704
 -1      6023    3    0    1
 -2      2066      2250      2456      3500
 -1      6024    3    0    1
 -2      2635      2803      3145      1850
 -1      6025    3    0    1
 -2       316      1006      3599      3704
 -1      6026    3    0    1
 -2      3561      2854      3276      3644
 -1      6027    3    0    1
 -2      1741      2957      2970      2979
 -1      6028    3    0    1
 -2       982      1239      1242      2643
 -1      6029    3    0    1
 -2       267      1059      1335      2515
 -1      6030    3    0    1
 -2       573       571      2440      3508
 -1      6031    3    0    1
 -2      3220      2811      3603      3304
 -1      6032    3    0    1
 -2      3060      1622      3061      3062
 -1      6033    3    0    1
 -2      1168      2854      2898      1735
 -1      6034    3    0    1
 -2       708      2222      2485      3693
 -1      6035    3    0    1
 -2      3668       430      3725      3730
 -1      6036    3    0    1
 -2      1625        24      1735      2972
 -1      6037    3    0    1
 -2      1467      2945      3055      3066
 -1      6038    3    0    1
 -2      2643      2772      2791      3555
 -1      6039    3    0    1
 -2      3155      3521      3156      3683
 -1      6040    3    0    1
 -2      2462      3515      2798      3666
 -1      6041    3    0    1
 -2       157       346      3519      3154
 -1      6042    3    0    1
 -2      1426      1425      2831      3065
 -1      6043    3    0    1
 -2      1427      1428      2486      2548
 -1      6044    3    0    1
 -2       457       900      2568      2790
 -1      6045    3    0    1
 -2       279      2355      2442      2767
 -1      6046    3    0    1
 -2       253      1721      1802      3596
 -1      6047    3    0    1
 -2      1009       415      2353      1922
 -1      6048    3    0    1
 -2      1616       145      3351      3468
 -1      6049    3    0    1
 -2       664      2319      2420      2585
 -1      6050    3    0    1
 -2      2480       735      2487      2522
 -1      6051    3    0    1
 -2      1308       661       990      2562
 -1      6052    3    0    1
 -2      3217        13      1647      1646
 -1      6053    3    0    1
 -2      1479      1480      2784      2947
 -1      6054    3    0    1
 -2       327       166       642      1799
 -1      6055    3    0    1
 -2      2203       970      2393      3502
 -1      6056    3    0    1
 -2       460      1148      2597      2615
 -1      6057    3    0    1
 -2      2347      2459      3510      3436
 -1      6058    3    0    1
 -2      3541      3498      3266      3402
 -1      6059    3    0    1
 -2      2984      1659      3230      3664
 -1      6060    3    0    1
 -2      2780      1535      3625      3437
 -1      6061    3    0    1
 -2      2724       319      3044      1501
 -1      6062    3    0    1
 -2       106       337      3537      3695
 -1      6063    3    0    1
 -2      3567      3056      3003      3668
 -1      6064    3    0    1
 -2      2468      2136      2514      3501
 -1      6065    3    0    1
 -2      1781      1780      3109      3298
 -1      6066    3    0    1
 -2      2456      2136      2468      3501
 -1      6067    3    0    1
 -2       128      3566      3590      3631
 -1      6068    3    0    1
 -2      3053      1567      3578      1794
 -1      6069    3    0    1
 -2       336       106      2656      3537
 -1      6070    3    0    1
 -2       998      1312       681      2593
 -1      6071    3    0    1
 -2       387      1746      1747      3267
 -1      6072    3    0    1
 -2      1588      1467      1589      3055
 -1      6073    3    0    1
 -2      2622      2488      3530      3597
 -1      6074    3    0    1
 -2      3373      1559      3670      3688
 -1      6075    3    0    1
 -2       982       646      2213      2539
 -1      6076    3    0    1
 -2      3097      1453      3660      3426
 -1      6077    3    0    1
 -2      2955      3080      3581      3193
 -1      6078    3    0    1
 -2      2934        42      1811      1845
 -1      6079    3    0    1
 -2       925      1335      1059      2712
 -1      6080    3    0    1
 -2      3618      1409      3634      3742
 -1      6081    3    0    1
 -2      1755      3610      3263      3398
 -1      6082    3    0    1
 -2      2636      2665      3549      3236
 -1      6083    3    0    1
 -2       498       822       823      2526
 -1      6084    3    0    1
 -2       981      1308      3663      3684
 -1      6085    3    0    1
 -2       823       499       498      2526
 -1      6086    3    0    1
 -2      1304       327      2171      3542
 -1      6087    3    0    1
 -2      2741      3126      3616      3312
 -1      6088    3    0    1
 -2      1585       277      3596      3291
 -1      6089    3    0    1
 -2       277       423      2971      1895
 -1      6090    3    0    1
 -2      3301      1592      1624      1623
 -1      6091    3    0    1
 -2      2846      2991      3561      3692
 -1      6092    3    0    1
 -2       789      1332       788      2678
 -1      6093    3    0    1
 -2       950       573      2440      2549
 -1      6094    3    0    1
 -2       786      1755      3122      3263
 -1      6095    3    0    1
 -2      3090      3136      2621      3048
 -1      6096    3    0    1
 -2       745       750      2870      1706
 -1      6097    3    0    1
 -2      3532      3524      3547      3704
 -1      6098    3    0    1
 -2      2360      2297      2520      3178
 -1      6099    3    0    1
 -2       241      1040      3527      3624
 -1      6100    3    0    1
 -2      2274      1015      2462      3515
 -1      6101    3    0    1
 -2      1517      1550      1551      3288
 -1      6102    3    0    1
 -2      1671      1423      3090      3204
 -1      6103    3    0    1
 -2       243      2284      2384      2705
 -1      6104    3    0    1
 -2      1440      1857      1858      3400
 -1      6105    3    0    1
 -2      3538      2877      3623      3322
 -1      6106    3    0    1
 -2      1297       392      2556      3710
 -1      6107    3    0    1
 -2       336       942      2454      3537
 -1      6108    3    0    1
 -2       229       428      2675      1602
 -1      6109    3    0    1
 -2       941      2619      2623      3517
 -1      6110    3    0    1
 -2      1493      1533      1534      3041
 -1      6111    3    0    1
 -2      1507      1508      2535      1624
 -1      6112    3    0    1
 -2      2697      2899      3622      3659
 -1      6113    3    0    1
 -2      1027      2307      3507      1902
 -1      6114    3    0    1
 -2       182       196      1760      3691
 -1      6115    3    0    1
 -2      1455      1774      3092      3677
 -1      6116    3    0    1
 -2      2921      1853      3340      3466
 -1      6117    3    0    1
 -2      2618      2674      3517      3238
 -1      6118    3    0    1
 -2      2601      1585      2907      3358
 -1      6119    3    0    1
 -2      2121      2323      2466      2919
 -1      6120    3    0    1
 -2      2748      2959      3571      3664
 -1      6121    3    0    1
 -2      2570      1410      2664      3623
 -1      6122    3    0    1
 -2      2583      3327      3712      3465
 -1      6123    3    0    1
 -2      2854      2693      3561      3276
 -1      6124    3    0    1
 -2      3025       768      3661      3401
 -1      6125    3    0    1
 -2      3500       972      3564      3629
 -1      6126    3    0    1
 -2      1443      3038      3164      3302
 -1      6127    3    0    1
 -2       429      3678      1893      3480
 -1      6128    3    0    1
 -2      3062      1533      3158      3592
 -1      6129    3    0    1
 -2      2948      2814      3116      3592
 -1      6130    3    0    1
 -2      2937       572      3269      3621
 -1      6131    3    0    1
 -2      3054      1529      3623      1887
 -1      6132    3    0    1
 -2      2868      2737      3626      3632
 -1      6133    3    0    1
 -2      3118      2746      3244      3423
 -1      6134    3    0    1
 -2       781      1755      1756      3122
 -1      6135    3    0    1
 -2       589      1294       592      2547
 -1      6136    3    0    1
 -2      1333      3020      3591      3482
 -1      6137    3    0    1
 -2      1477      1659      3150      3482
 -1      6138    3    0    1
 -2      2457      2015      2610      3708
 -1      6139    3    0    1
 -2      2586      2171      2673      3542
 -1      6140    3    0    1
 -2       267      2364      2515      2595
 -1      6141    3    0    1
 -2      1427      1509      1510      3435
 -1      6142    3    0    1
 -2       334       787      1055      1907
 -1      6143    3    0    1
 -2      1431      3586      3452      3717
 -1      6144    3    0    1
 -2       334      2437      2457      3708
 -1      6145    3    0    1
 -2      2534      2796      2818      2833
 -1      6146    3    0    1
 -2       410      3540      3640      3647
 -1      6147    3    0    1
 -2      1591      2771      3593      3296
 -1      6148    3    0    1
 -2      2509      3505      2808      3658
 -1      6149    3    0    1
 -2       522      1240      1241      2540
 -1      6150    3    0    1
 -2      1741       383      2970      3646
 -1      6151    3    0    1
 -2      2619      2600      2623      3517
 -1      6152    3    0    1
 -2      1731      1732      3193      3222
 -1      6153    3    0    1
 -2      2480      3504      2806      3095
 -1      6154    3    0    1
 -2      2355       282      2391      2560
 -1      6155    3    0    1
 -2      1487      1488      1601      2965
 -1      6156    3    0    1
 -2      2676      1495      2960      3177
 -1      6157    3    0    1
 -2       823      2093      2332      2767
 -1      6158    3    0    1
 -2      2608      2458      3504      3670
 -1      6159    3    0    1
 -2      1729       241      3624      1862
 -1      6160    3    0    1
 -2       347       396      3519      3154
 -1      6161    3    0    1
 -2       970      2203      2293      3502
 -1      6162    3    0    1
 -2      1539      1540      3166      3286
 -1      6163    3    0    1
 -2       101      1652      3600      3635
 -1      6164    3    0    1
 -2      2572      1550      2690      3568
 -1      6165    3    0    1
 -2       253       426      3608      1837
 -1      6166    3    0    1
 -2      1467      1588      2674      3517
 -1      6167    3    0    1
 -2       241      3527      3357      3664
 -1      6168    3    0    1
 -2      1460      1459      2596      1570
 -1      6169    3    0    1
 -2      1529      3663      3407      3698
 -1      6170    3    0    1
 -2      2203      2293      3502      2556
 -1      6171    3    0    1
 -2      2468      2233      3563      3698
 -1      6172    3    0    1
 -2      2623      1467      3517      2896
 -1      6173    3    0    1
 -2       592       957       589      2547
 -1      6174    3    0    1
 -2       906      1166      1293      2547
 -1      6175    3    0    1
 -2       957       906      1293      2547
 -1      6176    3    0    1
 -2      3559      2824      3179      3344
 -1      6177    3    0    1
 -2      2190      3505      3506      3686
 -1      6178    3    0    1
 -2      1438      1608      3546      3630
 -1      6179    3    0    1
 -2       717      1016      2597      2615
 -1      6180    3    0    1
 -2      1692      1871      3354      3454
 -1      6181    3    0    1
 -2      3563      3546      3314      3434
 -1      6182    3    0    1
 -2      1714      1713      3205      1819
 -1      6183    3    0    1
 -2      1731       781      1732      3222
 -1      6184    3    0    1
 -2      2854      1168      2898      3561
 -1      6185    3    0    1
 -2      2420       409      2436      3441
 -1      6186    3    0    1
 -2       753       734      2236      2552
 -1      6187    3    0    1
 -2      1033       753      2236      2552
 -1      6188    3    0    1
 -2       734      1033      1321      2552
 -1      6189    3    0    1
 -2       734       753      1033      2552
 -1      6190    3    0    1
 -2      1033      1321      2552      3440
 -1      6191    3    0    1
 -2       100      2416      3735      1928
 -1      6192    3    0    1
 -2       761      1030      1035      2553
 -1      6193    3    0    1
 -2      3735       380      1928      1929
 -1      6194    3    0    1
 -2       761       744      1030      2553
 -1      6195    3    0    1
 -2       947      1291      3735      1928
 -1      6196    3    0    1
 -2      1657      1499      2768      3227
 -1      6197    3    0    1
 -2      1478      1477      2942      3230
 -1      6198    3    0    1
 -2      2607      2547      3535      3433
 -1      6199    3    0    1
 -2       607      2773      2888      3620
 -1      6200    3    0    1
 -2      1836      1656      3617      3402
 -1      6201    3    0    1
 -2      3501      1529      3663      3718
 -1      6202    3    0    1
 -2      2573      2475      3671      3738
 -1      6203    3    0    1
 -2       100      2416      2431      2581
 -1      6204    3    0    1
 -2      3205      3162      3286      3405
 -1      6205    3    0    1
 -2      3546      1608      3314      3434
 -1      6206    3    0    1
 -2      2771      2696      3593      3296
 -1      6207    3    0    1
 -2       554       450      1531      2925
 -1      6208    3    0    1
 -2      2720      2747      1696      1697
 -1      6209    3    0    1
 -2      2526      3516      2900      3584
 -1      6210    3    0    1
 -2      1727      2814      2935      3592
 -1      6211    3    0    1
 -2      1497      1561      3666      3668
 -1      6212    3    0    1
 -2      1648      1519      3019      3554
 -1      6213    3    0    1
 -2      2264       220      3439      3745
 -1      6214    3    0    1
 -2      1255       528      2487      2558
 -1      6215    3    0    1
 -2      1540      1539      1819      3286
 -1      6216    3    0    1
 -2      2597      1148      2602      2615
 -1      6217    3    0    1
 -2       101       422      1708      3585
 -1      6218    3    0    1
 -2       319      3044      1501       430
 -1      6219    3    0    1
 -2       991      1258      1307      2562
 -1      6220    3    0    1
 -2       991      1256      1258      2562
 -1      6221    3    0    1
 -2      1058      1336      2825      3596
 -1      6222    3    0    1
 -2      2870      2737      3632      3669
 -1      6223    3    0    1
 -2      1500      1499      1658      2912
 -1      6224    3    0    1
 -2      1251       529      1257      2562
 -1      6225    3    0    1
 -2      3533      2832      3571      3237
 -1      6226    3    0    1
 -2      2751      1431      3591      3643
 -1      6227    3    0    1
 -2       530       529      1251      2562
 -1      6228    3    0    1
 -2      1476      1475      2742      1733
 -1      6229    3    0    1
 -2      1525      1524      2782      1808
 -1      6230    3    0    1
 -2      1258       529       530      2562
 -1      6231    3    0    1
 -2       529      1258      1256      2562
 -1      6232    3    0    1
 -2       987       993      2291      3518
 -1      6233    3    0    1
 -2       999      1307      2090      2565
 -1      6234    3    0    1
 -2       392      3502      2556      3710
 -1      6235    3    0    1
 -2      1487      1546      3000      3650
 -1      6236    3    0    1
 -2      3684       429      3407      3480
 -1      6237    3    0    1
 -2      1850      3145      3346      3494
 -1      6238    3    0    1
 -2      2694      2672      2905      3553
 -1      6239    3    0    1
 -2      2668      2925      3310      3712
 -1      6240    3    0    1
 -2      2520      3178      3715      3739
 -1      6241    3    0    1
 -2      2500      2514      3513      3514
 -1      6242    3    0    1
 -2      2542      3559      3661      3697
 -1      6243    3    0    1
 -2      2609      1453      1843      1844
 -1      6244    3    0    1
 -2       229      1516      3594      3694
 -1      6245    3    0    1
 -2      1543      3118      3244      3423
 -1      6246    3    0    1
 -2      2527      2530      3579      3675
 -1      6247    3    0    1
 -2      1144       900      2790      3603
 -1      6248    3    0    1
 -2      1547      1546      2858      3000
 -1      6249    3    0    1
 -2      2364       333      2515      2610
 -1      6250    3    0    1
 -2      1430      1642      3116      3385
 -1      6251    3    0    1
 -2      2520      3509      2816      3042
 -1      6252    3    0    1
 -2       716       709      2596      1569
 -1      6253    3    0    1
 -2      1561       319      2724      3523
 -1      6254    3    0    1
 -2      2603      1015      3523      3488
 -1      6255    3    0    1
 -2      1425      2831      3065      3577
 -1      6256    3    0    1
 -2      3657      3192      3353      3717
 -1      6257    3    0    1
 -2       899      1145      1315      2568
 -1      6258    3    0    1
 -2      1007       899      1315      2568
 -1      6259    3    0    1
 -2        22       111      1770      1817
 -1      6260    3    0    1
 -2      3675      3093      3690      3459
 -1      6261    3    0    1
 -2      3087      3094      1818      3459
 -1      6262    3    0    1
 -2      1197      2678      2789      3559
 -1      6263    3    0    1
 -2      1513      1514      2738      1676
 -1      6264    3    0    1
 -2      1632      1631      3303      3411
 -1      6265    3    0    1
 -2       458       457       900      2568
 -1      6266    3    0    1
 -2      2604      2626      2724      3523
 -1      6267    3    0    1
 -2      2604      2510      2626      3523
 -1      6268    3    0    1
 -2      1145       457       458      2568
 -1      6269    3    0    1
 -2      1058      1336      3596      3602
 -1      6270    3    0    1
 -2       457      1145       899      2568
 -1      6271    3    0    1
 -2      2597       717      2615      3523
 -1      6272    3    0    1
 -2       632       157       346      1889
 -1      6273    3    0    1
 -2       228       323      3734      1927
 -1      6274    3    0    1
 -2      2042       707      2353      3430
 -1      6275    3    0    1
 -2      1429      1609      3562      3701
 -1      6276    3    0    1
 -2       149      1299      2385      2577
 -1      6277    3    0    1
 -2       151       149      2385      2577
 -1      6278    3    0    1
 -2      2934      1618      2995      1859
 -1      6279    3    0    1
 -2      2139       949      2494      3508
 -1      6280    3    0    1
 -2      1299      2245      2385      2577
 -1      6281    3    0    1
 -2      2499      2634      3689      3741
 -1      6282    3    0    1
 -2      1431      2659      2751      3591
 -1      6283    3    0    1
 -2      1474      1473      1697      2847
 -1      6284    3    0    1
 -2      2654      1614      2894      3584
 -1      6285    3    0    1
 -2       571       573      1288      2574
 -1      6286    3    0    1
 -2       573       950      1288      2574
 -1      6287    3    0    1
 -2       950      1169      1288      2574
 -1      6288    3    0    1
 -2       950      1167      1169      2574
 -1      6289    3    0    1
 -2      1253      2480      2558      2806
 -1      6290    3    0    1
 -2      1446      3096      1840      3345
 -1      6291    3    0    1
 -2      2295       170      2673      3518
 -1      6292    3    0    1
 -2      1873        40      1891      1892
 -1      6293    3    0    1
 -2      2836      1214      3008      3039
 -1      6294    3    0    1
 -2       473       474      1169      2574
 -1      6295    3    0    1
 -2      1750      3001      3206      3652
 -1      6296    3    0    1
 -2      1288       474       571      2574
 -1      6297    3    0    1
 -2       474      1288      1169      2574
 -1      6298    3    0    1
 -2      1167       473      1169      2574
 -1      6299    3    0    1
 -2      1489      1490      1710      3075
 -1      6300    3    0    1
 -2      1646        13      3330      3388
 -1      6301    3    0    1
 -2      1871      3017      3661      3705
 -1      6302    3    0    1
 -2      1676      1677      2812      3415
 -1      6303    3    0    1
 -2      2416       947      3735      1928
 -1      6304    3    0    1
 -2       409       411      3711      3737
 -1      6305    3    0    1
 -2       132      2086      2428      3443
 -1      6306    3    0    1
 -2      2086       132      2453      3443
 -1      6307    3    0    1
 -2       811       808      1061      1906
 -1      6308    3    0    1
 -2       733       740      1030      1926
 -1      6309    3    0    1
 -2      1427      1509      3435      3488
 -1      6310    3    0    1
 -2      1055      1061      3708      1906
 -1      6311    3    0    1
 -2      3523      1501      2843      3488
 -1      6312    3    0    1
 -2      2518      1552      3599      3448
 -1      6313    3    0    1
 -2      2747      1473      2775      3274
 -1      6314    3    0    1
 -2       941      1289      2281      3508
 -1      6315    3    0    1
 -2       196      1316      3628      3448
 -1      6316    3    0    1
 -2      2814      2841      2948      3116
 -1      6317    3    0    1
 -2      3511      3551      3608      3656
 -1      6318    3    0    1
 -2       119       950      1288      2584
 -1      6319    3    0    1
 -2      2475      2573      3616      3738
 -1      6320    3    0    1
 -2      3126      2475      3616      3738
 -1      6321    3    0    1
 -2      2428       132      3443      3736
 -1      6322    3    0    1
 -2       409      2436      3441      3444
 -1      6323    3    0    1
 -2       664       991      1304      2585
 -1      6324    3    0    1
 -2      1562       329      1563      2949
 -1      6325    3    0    1
 -2      2738      1514      3157      3595
 -1      6326    3    0    1
 -2      2748      1595      3527      2949
 -1      6327    3    0    1
 -2      1661      2676      2913      3177
 -1      6328    3    0    1
 -2      1284       909      1171      2599
 -1      6329    3    0    1
 -2      2964      2836      3008      3581
 -1      6330    3    0    1
 -2      1296       132      2086      3503
 -1      6331    3    0    1
 -2      3226      1620      3616      3738
 -1      6332    3    0    1
 -2      3521      3671      3683      3738
 -1      6333    3    0    1
 -2      2269       599      2428      3503
 -1      6334    3    0    1
 -2      2428      1296       599      2421
 -1      6335    3    0    1
 -2       954      2269      2409      3503
 -1      6336    3    0    1
 -2      2086       132      2428      3503
 -1      6337    3    0    1
 -2       388       954      3503      1910
 -1      6338    3    0    1
 -2       987      2291      2564      3518
 -1      6339    3    0    1
 -2      2315       999      2565      3737
 -1      6340    3    0    1
 -2      2395       954      2409      3503
 -1      6341    3    0    1
 -2       388      2395      2584      3503
 -1      6342    3    0    1
 -2       388       570       954      1910
 -1      6343    3    0    1
 -2      2269       599       954       582
 -1      6344    3    0    1
 -2       599      3503       954      1296
 -1      6345    3    0    1
 -2      2409      2269      2428      3503
 -1      6346    3    0    1
 -2      2395      2409      2428      3503
 -1      6347    3    0    1
 -2      2395      2428      2584      3503
 -1      6348    3    0    1
 -2      1636      3111      3584      3380
 -1      6349    3    0    1
 -2      2131       185      2315      2589
 -1      6350    3    0    1
 -2       595       591      1296      1909
 -1      6351    3    0    1
 -2       591       132      1296      1909
 -1      6352    3    0    1
 -2       132       384      3503      1909
 -1      6353    3    0    1
 -2      2775      1633      2841      2948
 -1      6354    3    0    1
 -2       932      2723      2814      2948
 -1      6355    3    0    1
 -2      1590      3053      3578      1794
 -1      6356    3    0    1
 -2      1464      1463      1568      3098
 -1      6357    3    0    1
 -2      1424      1669      2849      3243
 -1      6358    3    0    1
 -2       681       998      2593      2637
 -1      6359    3    0    1
 -2      1506      1505      2954      3331
 -1      6360    3    0    1
 -2      1195      2824      3559      3344
 -1      6361    3    0    1
 -2      1840      3096      3332      3345
 -1      6362    3    0    1
 -2      3598      3108      3287      3343
 -1      6363    3    0    1
 -2      2534      2602      2818      3577
 -1      6364    3    0    1
 -2      2917      1606      3128      3655
 -1      6365    3    0    1
 -2       763       768      1629      3197
 -1      6366    3    0    1
 -2      3531      3526      3575      3642
 -1      6367    3    0    1
 -2      2644      2470      3641      3688
 -1      6368    3    0    1
 -2       608      1711      3560      3214
 -1      6369    3    0    1
 -2      1526      2558      2801      3348
 -1      6370    3    0    1
 -2      2603      2597      2615      3523
 -1      6371    3    0    1
 -2      2740      3248      3667      3670
 -1      6372    3    0    1
 -2      2466      2228      2467      3526
 -1      6373    3    0    1
 -2      1757       590      3076      3307
 -1      6374    3    0    1
 -2      1505      1506      1598      2953
 -1      6375    3    0    1
 -2       462      2593      2636      2637
 -1      6376    3    0    1
 -2      2568      2815      3598      3603
 -1      6377    3    0    1
 -2      1473      1474      1634      3216
 -1      6378    3    0    1
 -2      1058       807      2688      1336
 -1      6379    3    0    1
 -2      3399      1477      3705      3482
 -1      6380    3    0    1
 -2      2395      2549      2581      3733
 -1      6381    3    0    1
 -2      1016      1318       717      2597
 -1      6382    3    0    1
 -2       219      2264      2307      3709
 -1      6383    3    0    1
 -2      1285       555      2599      2619
 -1      6384    3    0    1
 -2      1318       901      1147      2597
 -1      6385    3    0    1
 -2      1546      1487      1547      2620
 -1      6386    3    0    1
 -2       327       987      2564      3518
 -1      6387    3    0    1
 -2       219      1025      2264      3709
 -1      6388    3    0    1
 -2       901      1318      1016      2597
 -1      6389    3    0    1
 -2      1146       459      1148      2597
 -1      6390    3    0    1
 -2       459       460      1148      2597
 -1      6391    3    0    1
 -2      1552      3599      3628      3686
 -1      6392    3    0    1
 -2      1146      2602      1690      3372
 -1      6393    3    0    1
 -2       460       459      1147      2597
 -1      6394    3    0    1
 -2      1597      3104      3323      3344
 -1      6395    3    0    1
 -2      1318      2495      3421      3709
 -1      6396    3    0    1
 -2       901       460      1147      2597
 -1      6397    3    0    1
 -2      2504      2202      3507      3709
 -1      6398    3    0    1
 -2      3498      1302      3589      3627
 -1      6399    3    0    1
 -2      2923      1457      3573      3319
 -1      6400    3    0    1
 -2      3530      2499      3689      3741
 -1      6401    3    0    1
 -2      2952      1450      3576      1865
 -1      6402    3    0    1
 -2      3547      3505      3203      3704
 -1      6403    3    0    1
 -2       429       171      3678      3684
 -1      6404    3    0    1
 -2      3129      2935      3592      3352
 -1      6405    3    0    1
 -2       961       967      2506      3536
 -1      6406    3    0    1
 -2      1058       807       806      2688
 -1      6407    3    0    1
 -2       469       607      2773      2888
 -1      6408    3    0    1
 -2      1448      2701      2934      2995
 -1      6409    3    0    1
 -2       768       763      3138      3197
 -1      6410    3    0    1
 -2      3708      2610      3487      3744
 -1      6411    3    0    1
 -2      1481      1543      1544      2616
 -1      6412    3    0    1
 -2      1305      2213      2456      3565
 -1      6413    3    0    1
 -2      2673      2171      3518      3542
 -1      6414    3    0    1
 -2      1653      1435      3526      3189
 -1      6415    3    0    1
 -2      1533        21      3060      3062
 -1      6416    3    0    1
 -2       768       763      1629      2911
 -1      6417    3    0    1
 -2        68       154      1634      3385
 -1      6418    3    0    1
 -2      2063      1041      2512      3543
 -1      6419    3    0    1
 -2      3103      1528      3321      3403
 -1      6420    3    0    1
 -2      2991      2886      3027      3561
 -1      6421    3    0    1
 -2      1467      1588      3517      2896
 -1      6422    3    0    1
 -2      3024      1439      1815      3391
 -1      6423    3    0    1
 -2      3265      2701      3636      3665
 -1      6424    3    0    1
 -2      3329      3103      3671      3403
 -1      6425    3    0    1
 -2       337       282      2656      3537
 -1      6426    3    0    1
 -2      3342      3513      3389      3698
 -1      6427    3    0    1
 -2      2756      2869      3612      3620
 -1      6428    3    0    1
 -2      2824      2744      3559      3083
 -1      6429    3    0    1
 -2       395       153      3570      1886
 -1      6430    3    0    1
 -2       244       769      1046      1899
 -1      6431    3    0    1
 -2      1581      1582      1781      3109
 -1      6432    3    0    1
 -2      3550      2756      3612      3620
 -1      6433    3    0    1
 -2      2737      3533      3571      3626
 -1      6434    3    0    1
 -2      2233      2369      3563      3698
 -1      6435    3    0    1
 -2      3569      3604      3729      3743
 -1      6436    3    0    1
 -2      2015       815      2325      2610
 -1      6437    3    0    1
 -2      2325       815      2364      2610
 -1      6438    3    0    1
 -2       270       333       808      1906
 -1      6439    3    0    1
 -2      2610       333      3708      1906
 -1      6440    3    0    1
 -2       808       333      1061      1906
 -1      6441    3    0    1
 -2      1061       333      2610      1906
 -1      6442    3    0    1
 -2      1569      2477      1570      3417
 -1      6443    3    0    1
 -2      3663      3678      3684      3407
 -1      6444    3    0    1
 -2       170       667       328      1798
 -1      6445    3    0    1
 -2       663       170       993      1798
 -1      6446    3    0    1
 -2      1583      2766      2934      3665
 -1      6447    3    0    1
 -2      2102      2297      2360      2778
 -1      6448    3    0    1
 -2      1435      1599      3614      3642
 -1      6449    3    0    1
 -2      2870       745      1706      1707
 -1      6450    3    0    1
 -2      2264      1025      2495      3709
 -1      6451    3    0    1
 -2      1543      1481      1544      3244
 -1      6452    3    0    1
 -2      2490      3598      3603      3679
 -1      6453    3    0    1
 -2      3025      2893      3661      3478
 -1      6454    3    0    1
 -2      1522       655      1523      2837
 -1      6455    3    0    1
 -2      3013      2614      3039      3110
 -1      6456    3    0    1
 -2      3074      2862      3127      3335
 -1      6457    3    0    1
 -2      1432      2941      2957      3646
 -1      6458    3    0    1
 -2      1683      3048      3090      3603
 -1      6459    3    0    1
 -2       154        68      1634      1820
 -1      6460    3    0    1
 -2      3563      1438      3630      3678
 -1      6461    3    0    1
 -2      2640      1234      2814      2883
 -1      6462    3    0    1
 -2      2688      2712      2964      3581
 -1      6463    3    0    1
 -2      1058      1340      2332      3602
 -1      6464    3    0    1
 -2      2767      1067      2769      3529
 -1      6465    3    0    1
 -2      1335      2595      2767      3529
 -1      6466    3    0    1
 -2       322       220      3734      1926
 -1      6467    3    0    1
 -2       383       112      3548      3642
 -1      6468    3    0    1
 -2      1066      1285      2760      3531
 -1      6469    3    0    1
 -2      1762      2692      3409      3418
 -1      6470    3    0    1
 -2      2681      2514      3142      3698
 -1      6471    3    0    1
 -2      1913      3367      1924      1925
 -1      6472    3    0    1
 -2       279       278      3529      3707
 -1      6473    3    0    1
 -2      2569      2554      3625      3413
 -1      6474    3    0    1
 -2       769       776      1046      1899
 -1      6475    3    0    1
 -2      1661      1522      1662      2857
 -1      6476    3    0    1
 -2      2514      3501      3513      3698
 -1      6477    3    0    1
 -2      2487      2522      2546      3504
 -1      6478    3    0    1
 -2      2477      2458      2555      3504
 -1      6479    3    0    1
 -2      3367      3145      3082      2786
 -1      6480    3    0    1
 -2      1335      2767      2769      3529
 -1      6481    3    0    1
 -2      1480      1479      1615      2947
 -1      6482    3    0    1
 -2      2458      2477      2608      3504
 -1      6483    3    0    1
 -2      1477      2942      3664      3454
 -1      6484    3    0    1
 -2       267      2364      2595      3529
 -1      6485    3    0    1
 -2      1410      3501      1529      3698
 -1      6486    3    0    1
 -2       329      1330      3527      3247
 -1      6487    3    0    1
 -2      1668      1667      1677      2994
 -1      6488    3    0    1
 -2      2477      2545      2608      3504
 -1      6489    3    0    1
 -2      1006      1319      3201      3704
 -1      6490    3    0    1
 -2      2442       279      3529      3707
 -1      6491    3    0    1
 -2      3419      1511      3467      3484
 -1      6492    3    0    1
 -2      3138       768      3197      3626
 -1      6493    3    0    1
 -2      1638      2852      1834      1835
 -1      6494    3    0    1
 -2      3187      2956      2920      1535
 -1      6495    3    0    1
 -2      2712      2836      2964      3581
 -1      6496    3    0    1
 -2      3038      1443      3164      3398
 -1      6497    3    0    1
 -2       195      1571      1681      2819
 -1      6498    3    0    1
 -2        45        50      1546      1670
 -1      6499    3    0    1
 -2       144      2579      2745      3552
 -1      6500    3    0    1
 -2      2749      3645      3661      3705
 -1      6501    3    0    1
 -2      1552       182      3628      3428
 -1      6502    3    0    1
 -2      2602      1146      2661      3577
 -1      6503    3    0    1
 -2      3549      2636      3236      3388
 -1      6504    3    0    1
 -2       101      2844      1615      1614
 -1      6505    3    0    1
 -2      1601      1600      2921      3081
 -1      6506    3    0    1
 -2      1223       513      1225      2622
 -1      6507    3    0    1
 -2       513      2488      1223       512
 -1      6508    3    0    1
 -2      2688       807      1335      2712
 -1      6509    3    0    1
 -2      2281      1289      2440      3508
 -1      6510    3    0    1
 -2      1285       941      1931      3614
 -1      6511    3    0    1
 -2       804       799      3299      1853
 -1      6512    3    0    1
 -2      2292       415      2353      3410
 -1      6513    3    0    1
 -2      3026      2658      3579      3675
 -1      6514    3    0    1
 -2      3017      2749      3661      3705
 -1      6515    3    0    1
 -2      3505      2509      2808      3203
 -1      6516    3    0    1
 -2      3661      3025      3401      3705
 -1      6517    3    0    1
 -2      1477      3009      1863      3705
 -1      6518    3    0    1
 -2      1871      3661      3401      3705
 -1      6519    3    0    1
 -2      3009      1692      1863      3705
 -1      6520    3    0    1
 -2      2867      1650      3012      3574
 -1      6521    3    0    1
 -2      2801      1521      1674      3120
 -1      6522    3    0    1
 -2      2509      2190      3505      3506
 -1      6523    3    0    1
 -2      3009      2749      3017      3705
 -1      6524    3    0    1
 -2      3167      2644      3641      3688
 -1      6525    3    0    1
 -2      2190      2509      3505      3203
 -1      6526    3    0    1
 -2      1592      1591      2930      1772
 -1      6527    3    0    1
 -2      3573      2460      3597      3677
 -1      6528    3    0    1
 -2      2293       144      2745      3536
 -1      6529    3    0    1
 -2      3678       429      3684      3480
 -1      6530    3    0    1
 -2      2891      2624      3555      3196
 -1      6531    3    0    1
 -2      1461      1579      1580      3268
 -1      6532    3    0    1
 -2      1527      1593      1594      3133
 -1      6533    3    0    1
 -2      3508      2494      2684      3572
 -1      6534    3    0    1
 -2       967      2293      2506      3536
 -1      6535    3    0    1
 -2      1688       745      1689      3309
 -1      6536    3    0    1
 -2      2392      1293      3552      3070
 -1      6537    3    0    1
 -2      3498      2461      3541      3427
 -1      6538    3    0    1
 -2      2185      2190      2469      3506
 -1      6539    3    0    1
 -2      2469      2190      2509      3506
 -1      6540    3    0    1
 -2      2091      2469      2509      3506
 -1      6541    3    0    1
 -2      1444      1443      3164      3302
 -1      6542    3    0    1
 -2      1445      2980      1840      1841
 -1      6543    3    0    1
 -2      3514      2500      3534      3640
 -1      6544    3    0    1
 -2      1705      1437      2874      3073
 -1      6545    3    0    1
 -2       450      1531      1532      2625
 -1      6546    3    0    1
 -2       636      2243      2417      3392
 -1      6547    3    0    1
 -2      1503      1504      1536      2780
 -1      6548    3    0    1
 -2      1528      1527      1764      3231
 -1      6549    3    0    1
 -2       450       554      1531      2625
 -1      6550    3    0    1
 -2      1418      2534      2602      1571
 -1      6551    3    0    1
 -2      1877      1529      3684      3407
 -1      6552    3    0    1
 -2         1      1813      1814      3382
 -1      6553    3    0    1
 -2       789      1050      2678      2789
 -1      6554    3    0    1
 -2      2934      2701      3265      3665
 -1      6555    3    0    1
 -2       626      3134      3616      3312
 -1      6556    3    0    1
 -2      1553      1706      2988      3632
 -1      6557    3    0    1
 -2        21      3062      1534      1879
 -1      6558    3    0    1
 -2      1441      1440      1566      2725
 -1      6559    3    0    1
 -2      1579      2874      1769      1770
 -1      6560    3    0    1
 -2      1620      3126      1829      3616
 -1      6561    3    0    1
 -2      3693      2485      3410      3699
 -1      6562    3    0    1
 -2      1539      3286      3289      3405
 -1      6563    3    0    1
 -2      2935      1533      3060      3592
 -1      6564    3    0    1
 -2      1566      1565      2675      2725
 -1      6565    3    0    1
 -2      3525      1411      3587      3713
 -1      6566    3    0    1
 -2      3145      3082      3346      3494
 -1      6567    3    0    1
 -2      2869      3560      3620      3637
 -1      6568    3    0    1
 -2      3681      3429      3414      3743
 -1      6569    3    0    1
 -2      2743      2652      2896      3568
 -1      6570    3    0    1
 -2       806      1067      1335      2767
 -1      6571    3    0    1
 -2      3618      3339      3355      3476
 -1      6572    3    0    1
 -2      1420      1725      3604      3739
 -1      6573    3    0    1
 -2      1519      1520      2650      1649
 -1      6574    3    0    1
 -2      2472      2307      2504      3507
 -1      6575    3    0    1
 -2      2220      2307      2472      3507
 -1      6576    3    0    1
 -2      2202      2472      2504      3507
 -1      6577    3    0    1
 -2       668       409       411      1918
 -1      6578    3    0    1
 -2      2578       336      2454      3537
 -1      6579    3    0    1
 -2      2541      3606      3240      3445
 -1      6580    3    0    1
 -2      2271      3545      3551      3717
 -1      6581    3    0    1
 -2      3565       981      3663      3678
 -1      6582    3    0    1
 -2      2817      2461      3541      2866
 -1      6583    3    0    1
 -2      2498      2499      3530      3741
 -1      6584    3    0    1
 -2      2541      3240      3292      3445
 -1      6585    3    0    1
 -2      1591      1771      1772      3328
 -1      6586    3    0    1
 -2      3549      2637      3659      3673
 -1      6587    3    0    1
 -2      3119      1620      3639      3471
 -1      6588    3    0    1
 -2      2295       170      3518      1798
 -1      6589    3    0    1
 -2      3517      3614      3722      3740
 -1      6590    3    0    1
 -2      2877       990      3613      3322
 -1      6591    3    0    1
 -2      1572      1465      1573      2833
 -1      6592    3    0    1
 -2       608       601      1711      3214
 -1      6593    3    0    1
 -2      2672      1487      3553      3466
 -1      6594    3    0    1
 -2      1626      1625      1791      3282
 -1      6595    3    0    1
 -2      2525      2493      3526      3528
 -1      6596    3    0    1
 -2      1816      1811      3252      3259
 -1      6597    3    0    1
 -2       495       494       771      2629
 -1      6598    3    0    1
 -2      1024      1326      3525      3694
 -1      6599    3    0    1
 -2       396       982      2282      3519
 -1      6600    3    0    1
 -2       494       770       771      2629
 -1      6601    3    0    1
 -2      1543      3629      3423      3450
 -1      6602    3    0    1
 -2      2901      2660      2937      3621
 -1      6603    3    0    1
 -2      3187      3240      3687      3445
 -1      6604    3    0    1
 -2      2384       243      3582      1881
 -1      6605    3    0    1
 -2      1519      1648      3173      3683
 -1      6606    3    0    1
 -2       982      1301      2539      3519
 -1      6607    3    0    1
 -2       241       425      1885      3720
 -1      6608    3    0    1
 -2       554      2625      2726      3633
 -1      6609    3    0    1
 -2      2669      3097      3660      3426
 -1      6610    3    0    1
 -2      1582      1581      3045      3109
 -1      6611    3    0    1
 -2       781       786      2944      1755
 -1      6612    3    0    1
 -2      3585       422      3189      3600
 -1      6613    3    0    1
 -2        67        21      1754      3084
 -1      6614    3    0    1
 -2      1414      1413      1456      3228
 -1      6615    3    0    1
 -2      1844      3292      3660      3426
 -1      6616    3    0    1
 -2      1731      1574      3080      3193
 -1      6617    3    0    1
 -2      2969      3560      3260      3620
 -1      6618    3    0    1
 -2      3080      2955      3581      3263
 -1      6619    3    0    1
 -2       153      1543      1544      3450
 -1      6620    3    0    1
 -2      1419      2692      2879      3676
 -1      6621    3    0    1
 -2      1305       643      2540      2643
 -1      6622    3    0    1
 -2      1448      2701      2702      2855
 -1      6623    3    0    1
 -2      2566      2490      3598      3625
 -1      6624    3    0    1
 -2      2591      3549      3236      3388
 -1      6625    3    0    1
 -2      1473      3144      1697      2847
 -1      6626    3    0    1
 -2      1461      3276      3644      3341
 -1      6627    3    0    1
 -2      3589      1656      3617      3629
 -1      6628    3    0    1
 -2      1572      1681      2818      2819
 -1      6629    3    0    1
 -2      2904      2542      3559      3661
 -1      6630    3    0    1
 -2      2559      2918      3580      3671
 -1      6631    3    0    1
 -2      1767      2895      3645      3370
 -1      6632    3    0    1
 -2       996      2134      2436      3711
 -1      6633    3    0    1
 -2      3513      3169      2500      3640
 -1      6634    3    0    1
 -2      1489      2691      3007      3341
 -1      6635    3    0    1
 -2      2944      1755      3324      3370
 -1      6636    3    0    1
 -2       219       218      3507      1902
 -1      6637    3    0    1
 -2      3555      2791      3671      3403
 -1      6638    3    0    1
 -2      1711      1667      2978      3560
 -1      6639    3    0    1
 -2      3026      1640      3579      3307
 -1      6640    3    0    1
 -2       601      1711      1712      3290
 -1      6641    3    0    1
 -2      2102      2091      2297      2778
 -1      6642    3    0    1
 -2      1152       462      2593      2636
 -1      6643    3    0    1
 -2       637       644      2703      2987
 -1      6644    3    0    1
 -2      2600      2623      2830      2599
 -1      6645    3    0    1
 -2      2791      2772      2915      3555
 -1      6646    3    0    1
 -2      1581      1582      3045      1875
 -1      6647    3    0    1
 -2      2331      1333      3643      3700
 -1      6648    3    0    1
 -2      1801      3540      3651      3719
 -1      6649    3    0    1
 -2       463       462      2636      2637
 -1      6650    3    0    1
 -2      1436      2721      3043      3465
 -1      6651    3    0    1
 -2        68      1633      1663      2841
 -1      6652    3    0    1
 -2       462       463      1151      2637
 -1      6653    3    0    1
 -2       462      1151      2593      2637
 -1      6654    3    0    1
 -2       999       681      2593      2637
 -1      6655    3    0    1
 -2      1151       463      1153      2637
 -1      6656    3    0    1
 -2      1151       999      2593      2637
 -1      6657    3    0    1
 -2      3195      3095      3667      3670
 -1      6658    3    0    1
 -2      1289       573      2440      3508
 -1      6659    3    0    1
 -2      2537      2203      3502      3420
 -1      6660    3    0    1
 -2       996      1001      2134      3711
 -1      6661    3    0    1
 -2      1440      1565      2725      3741
 -1      6662    3    0    1
 -2      3546      3611      3434      3714
 -1      6663    3    0    1
 -2      2281      2139      2494      3508
 -1      6664    3    0    1
 -2      2139      2281      2440      3508
 -1      6665    3    0    1
 -2      1322      1015      3515      2798
 -1      6666    3    0    1
 -2      1457      1458      1584      2766
 -1      6667    3    0    1
 -2       973       931      1301      2640
 -1      6668    3    0    1
 -2      3124      1716      3612      3337
 -1      6669    3    0    1
 -2      2706      1032      2813      3530
 -1      6670    3    0    1
 -2       931      1235      1301      2640
 -1      6671    3    0    1
 -2      3078      3639      3662      3470
 -1      6672    3    0    1
 -2      2849      1743      3674      1883
 -1      6673    3    0    1
 -2      1301       519       625      2640
 -1      6674    3    0    1
 -2      1235       518       519      2640
 -1      6675    3    0    1
 -2       518      1235       931      2640
 -1      6676    3    0    1
 -2       519      1301      1235      2640
 -1      6677    3    0    1
 -2       181        13      1792      3330
 -1      6678    3    0    1
 -2      1302      2250      2464      3629
 -1      6679    3    0    1
 -2      1574      3064      3179      3331
 -1      6680    3    0    1
 -2      3205      2937      3621      3405
 -1      6681    3    0    1
 -2      2814      1727      3060      3592
 -1      6682    3    0    1
 -2      2658      3535      3579      3675
 -1      6683    3    0    1
 -2      1546      1547      2858      3254
 -1      6684    3    0    1
 -2      3495      1516      3605      3694
 -1      6685    3    0    1
 -2       522       521      1240      2643
 -1      6686    3    0    1
 -2       521       522      1242      2643
 -1      6687    3    0    1
 -2      1242       522      2540      2643
 -1      6688    3    0    1
 -2      1239       521      1242      2643
 -1      6689    3    0    1
 -2      3527      2832      3357      3664
 -1      6690    3    0    1
 -2       643      1304      2540      2643
 -1      6691    3    0    1
 -2      1304      1242      2540      2643
 -1      6692    3    0    1
 -2      2369      2974      3563      3698
 -1      6693    3    0    1
 -2      1513      1638      1639      3157
 -1      6694    3    0    1
 -2      2857      1522      3264      3308
 -1      6695    3    0    1
 -2       799      3299      1853      1854
 -1      6696    3    0    1
 -2      3629      1796      3423      3450
 -1      6697    3    0    1
 -2      1529       171      3623      1877
 -1      6698    3    0    1
 -2      3613       990      3640      3647
 -1      6699    3    0    1
 -2      1617      1616      3242      1866
 -1      6700    3    0    1
 -2      1414      1413      2489      3207
 -1      6701    3    0    1
 -2      1501      1427      1502      2843
 -1      6702    3    0    1
 -2      3598      2518      3599      3448
 -1      6703    3    0    1
 -2      2593      2951      3549      3659
 -1      6704    3    0    1
 -2      1678      3550      3032      3261
 -1      6705    3    0    1
 -2      1553      1650      1651      2867
 -1      6706    3    0    1
 -2      2402      2211      2473      3509
 -1      6707    3    0    1
 -2      2831      2667      3577      3146
 -1      6708    3    0    1
 -2      1815      3024      3391      3394
 -1      6709    3    0    1
 -2      2093      1335      2595      2767
 -1      6710    3    0    1
 -2      3589      3541      3617      3402
 -1      6711    3    0    1
 -2      1469      1470      1518      2871
 -1      6712    3    0    1
 -2      1336       807      2688      2712
 -1      6713    3    0    1
 -2      1688      1689      3213      3309
 -1      6714    3    0    1
 -2      1336      3551      3596      3602
 -1      6715    3    0    1
 -2      1562      2748      2949      2973
 -1      6716    3    0    1
 -2      1440      1441      1566      2848
 -1      6717    3    0    1
 -2      1565      1440      1566      2848
 -1      6718    3    0    1
 -2      2683      2658      3535      3099
 -1      6719    3    0    1
 -2      3198      3221      3673      3462
 -1      6720    3    0    1
 -2      1457      1583      1584      2699
 -1      6721    3    0    1
 -2       101      1614      1615      2881
 -1      6722    3    0    1
 -2      3162      3205      3289      3405
 -1      6723    3    0    1
 -2      1301      2192      2539      3519
 -1      6724    3    0    1
 -2      2613      1740      3104      3323
 -1      6725    3    0    1
 -2      1049      1333      2678      2744
 -1      6726    3    0    1
 -2       383      1821      3642      3740
 -1      6727    3    0    1
 -2      2602      2597      2615      2661
 -1      6728    3    0    1
 -2       277      1628      3557      1895
 -1      6729    3    0    1
 -2      2945      3066      3646      3692
 -1      6730    3    0    1
 -2      2503      2468      3563      3565
 -1      6731    3    0    1
 -2      1555      2720      1696      1697
 -1      6732    3    0    1
 -2      1146      2597      2602      2661
 -1      6733    3    0    1
 -2      2897      1579      1769      1770
 -1      6734    3    0    1
 -2       972      1302      2640      2931
 -1      6735    3    0    1
 -2      2906      3620      2872      3676
 -1      6736    3    0    1
 -2      2854      2680      3073      3644
 -1      6737    3    0    1
 -2      2454       942      2656      3537
 -1      6738    3    0    1
 -2      2635      1225      2803      1850
 -1      6739    3    0    1
 -2      2652      1644      2743      2896
 -1      6740    3    0    1
 -2       619       626      2810      1829
 -1      6741    3    0    1
 -2      1579      1580      2874      1770
 -1      6742    3    0    1
 -2      2228      2465      3496      3232
 -1      6743    3    0    1
 -2      1470      1469      1518      2887
 -1      6744    3    0    1
 -2       789       788      1333      2678
 -1      6745    3    0    1
 -2      1835      1834      3383      1884
 -1      6746    3    0    1
 -2      2627      3074      3576      3351
 -1      6747    3    0    1
 -2       241      1673      3648      1885
 -1      6748    3    0    1
 -2      2862      1603      2897      3074
 -1      6749    3    0    1
 -2      1463      1464      1568      2910
 -1      6750    3    0    1
 -2      1599      3614      3642      3740
 -1      6751    3    0    1
 -2      2744      3645      3661      3697
 -1      6752    3    0    1
 -2      1409      3551      3618      3634
 -1      6753    3    0    1
 -2      1596       253      3608      1837
 -1      6754    3    0    1
 -2       736       219      1027      1902
 -1      6755    3    0    1
 -2      1601      1600      2860      3299
 -1      6756    3    0    1
 -2      3505      2808      3567      3203
 -1      6757    3    0    1
 -2      1588      1467      3055      3066
 -1      6758    3    0    1
 -2      2852      1656      1834      1836
 -1      6759    3    0    1
 -2       426      1868      3656      3479
 -1      6760    3    0    1
 -2       207      3422      1901      3474
 -1      6761    3    0    1
 -2      2821      2614      2953      3278
 -1      6762    3    0    1
 -2      3509      3525      3605      3713
 -1      6763    3    0    1
 -2      2845      1562      1734      3689
 -1      6764    3    0    1
 -2      2831      1425      3146      3372
 -1      6765    3    0    1
 -2      2663       990      2735      2877
 -1      6766    3    0    1
 -2      3527      2629      3571      3247
 -1      6767    3    0    1
 -2      1610       565      1611      2714
 -1      6768    3    0    1
 -2       101       422      1615      1708
 -1      6769    3    0    1
 -2      1607      1606      2917      1781
 -1      6770    3    0    1
 -2      2772      2643      2791      2915
 -1      6771    3    0    1
 -2      2784      3517      3184      3722
 -1      6772    3    0    1
 -2       763      1629      1630      3197
 -1      6773    3    0    1
 -2      2931      3118      3629      3639
 -1      6774    3    0    1
 -2      2613      1415      3559      3104
 -1      6775    3    0    1
 -2       387       421      1747      3326
 -1      6776    3    0    1
 -2      3574       750      3200      3262
 -1      6777    3    0    1
 -2      1619      2680      2972      3072
 -1      6778    3    0    1
 -2      3147      1599      3246      3740
 -1      6779    3    0    1
 -2      2696      3516      3593      3296
 -1      6780    3    0    1
 -2      2746      2630      3629      3639
 -1      6781    3    0    1
 -2      3623       171      1308      1887
 -1      6782    3    0    1
 -2      2566      3191      3598      3461
 -1      6783    3    0    1
 -2      3092      1455      1775      1774
 -1      6784    3    0    1
 -2      1624      1592      2930      1623
 -1      6785    3    0    1
 -2      1747      1746      3058      3190
 -1      6786    3    0    1
 -2      1524      1525      1783      3186
 -1      6787    3    0    1
 -2      2500      2185      3534      3640
 -1      6788    3    0    1
 -2      1322      1024      3587      3641
 -1      6789    3    0    1
 -2      1541      1542      2980      3428
 -1      6790    3    0    1
 -2      2510      3523      3606      3660
 -1      6791    3    0    1
 -2      3586      3511      3608      3643
 -1      6792    3    0    1
 -2      2748      3527      3571      3247
 -1      6793    3    0    1
 -2      1517      1518      2690      2871
 -1      6794    3    0    1
 -2      3583      1652      3176      3456
 -1      6795    3    0    1
 -2       219      2307      3507      3709
 -1      6796    3    0    1
 -2      1640      3141      3637      3334
 -1      6797    3    0    1
 -2      3182      2686      3598      3448
 -1      6798    3    0    1
 -2      2635      2803      3573      3145
 -1      6799    3    0    1
 -2      1420      3495      3569      3594
 -1      6800    3    0    1
 -2      1214      1738      3008      3039
 -1      6801    3    0    1
 -2      1608      1438      3546      3563
 -1      6802    3    0    1
 -2      3532       205      3547      3050
 -1      6803    3    0    1
 -2      2956      3187      2920      3687
 -1      6804    3    0    1
 -2      2487      2522      3504      3641
 -1      6805    3    0    1
 -2      2538      1782      3186      3221
 -1      6806    3    0    1
 -2      1692      3017      1871      3705
 -1      6807    3    0    1
 -2      1479      1654      1655      2938
 -1      6808    3    0    1
 -2      2704      2347      3586      3657
 -1      6809    3    0    1
 -2      1809      3181      1851      1852
 -1      6810    3    0    1
 -2      1539      1746      1747      3190
 -1      6811    3    0    1
 -2       964      2242      3590      3627
 -1      6812    3    0    1
 -2      1616      1865      1866      3364
 -1      6813    3    0    1
 -2      3276      3073      1848      3644
 -1      6814    3    0    1
 -2      1339      2454      2656      3537
 -1      6815    3    0    1
 -2      1477      1478      3051      1864
 -1      6816    3    0    1
 -2      1448      2701      2855      2934
 -1      6817    3    0    1
 -2      1455      3207      3347      3667
 -1      6818    3    0    1
 -2       499       498      2694      2905
 -1      6819    3    0    1
 -2       244      1046      3497      1899
 -1      6820    3    0    1
 -2      1597      1505      1598      2953
 -1      6821    3    0    1
 -2      2744      1049      3591      3645
 -1      6822    3    0    1
 -2       949       387      3615      3646
 -1      6823    3    0    1
 -2       243      1041      2705      3543
 -1      6824    3    0    1
 -2      1041      2063      2705      3543
 -1      6825    3    0    1
 -2      3250      3078      3662      3706
 -1      6826    3    0    1
 -2      2360      2211      2842      3658
 -1      6827    3    0    1
 -2      1453      1844      3660      3426
 -1      6828    3    0    1
 -2      1413      3228      3280      3677
 -1      6829    3    0    1
 -2      1473      1633      1634      2775
 -1      6830    3    0    1
 -2       424      1827      3306      3703
 -1      6831    3    0    1
 -2      1504      1503      1536      2956
 -1      6832    3    0    1
 -2      1487      1600      1601      3081
 -1      6833    3    0    1
 -2      2185      1316      2190      3686
 -1      6834    3    0    1
 -2      1503      1504      2822      2956
 -1      6835    3    0    1
 -2      3069      3550      1865      3455
 -1      6836    3    0    1
 -2      2759      1499      2912      3554
 -1      6837    3    0    1
 -2      2534      2492      3577      3687
 -1      6838    3    0    1
 -2      2799      3530      3574      3597
 -1      6839    3    0    1
 -2      1444      1443      2895      3285
 -1      6840    3    0    1
 -2      3064      2805      3179      3331
 -1      6841    3    0    1
 -2      3511      2271      3545      3551
 -1      6842    3    0    1
 -2      3534      3514      3640      3652
 -1      6843    3    0    1
 -2      1789      3277      3622      3659
 -1      6844    3    0    1
 -2      2991      2886      3561      3288
 -1      6845    3    0    1
 -2      1049       253      1336      3511
 -1      6846    3    0    1
 -2      2429      2271      2478      3511
 -1      6847    3    0    1
 -2      2331      2429      2478      3511
 -1      6848    3    0    1
 -2       644       637      2916      2962
 -1      6849    3    0    1
 -2      2927      2501      2928      2960
 -1      6850    3    0    1
 -2       171      1887      1893      3716
 -1      6851    3    0    1
 -2      3076       590      1838      3307
 -1      6852    3    0    1
 -2      3048      3136      3603      3304
 -1      6853    3    0    1
 -2      1629      1491      1630      2961
 -1      6854    3    0    1
 -2      1555       626      3134      3174
 -1      6855    3    0    1
 -2      1417      2518      1552      3599
 -1      6856    3    0    1
 -2      1172      1170      2600      2830
 -1      6857    3    0    1
 -2       504      2688      2712      2964
 -1      6858    3    0    1
 -2       644      3173      3671      3683
 -1      6859    3    0    1
 -2      2086      2506      2745      3536
 -1      6860    3    0    1
 -2      2228      3531      3575      3583
 -1      6861    3    0    1
 -2      1415      2611      3559      3211
 -1      6862    3    0    1
 -2      3614       383      3642      3740
 -1      6863    3    0    1
 -2      1040      1333      2331      3700
 -1      6864    3    0    1
 -2      1050      1332       789      2678
 -1      6865    3    0    1
 -2      1332       918      1196      2678
 -1      6866    3    0    1
 -2       918      1332      1050      2678
 -1      6867    3    0    1
 -2      1195       492      1197      2678
 -1      6868    3    0    1
 -2       492       493      1197      2678
 -1      6869    3    0    1
 -2       697      1007      2568      2790
 -1      6870    3    0    1
 -2      1316       697      1006      2790
 -1      6871    3    0    1
 -2       493       492      1196      2678
 -1      6872    3    0    1
 -2       918       493      1196      2678
 -1      6873    3    0    1
 -2      1741       112      1742      2970
 -1      6874    3    0    1
 -2       316       205      1664      3123
 -1      6875    3    0    1
 -2        41      1631      1701      2855
 -1      6876    3    0    1
 -2      2945      2695      3066      3692
 -1      6877    3    0    1
 -2       282      1339      2656      3537
 -1      6878    3    0    1
 -2      1813         1      1814      3350
 -1      6879    3    0    1
 -2      2483      3498      3541      3627
 -1      6880    3    0    1
 -2      1604      2958      1750      3322
 -1      6881    3    0    1
 -2       942       336      2656      3537
 -1      6882    3    0    1
 -2       279       278      2769      3529
 -1      6883    3    0    1
 -2      1600      1601      2860      2965
 -1      6884    3    0    1
 -2      2484      2700      3654      3655
 -1      6885    3    0    1
 -2      2136      2514      3501      3513
 -1      6886    3    0    1
 -2       112      1741      1742      3246
 -1      6887    3    0    1
 -2      3517      2619      2977      3241
 -1      6888    3    0    1
 -2      1664      1453      2802      3287
 -1      6889    3    0    1
 -2      1693      1692      3009      3017
 -1      6890    3    0    1
 -2      2864      2862      2897      3335
 -1      6891    3    0    1
 -2      3561      2479      3621      3692
 -1      6892    3    0    1
 -2      2770      1757      1758      3076
 -1      6893    3    0    1
 -2      2139      2474      2494      3512
 -1      6894    3    0    1
 -2      2474      2427      2494      3512
 -1      6895    3    0    1
 -2      2952      2683      3036      3576
 -1      6896    3    0    1
 -2      1747      1746      3166      3267
 -1      6897    3    0    1
 -2      3531      3526      2228      3575
 -1      6898    3    0    1
 -2      1467      1468      1589      3055
 -1      6899    3    0    1
 -2       716       709      1509      2685
 -1      6900    3    0    1
 -2      1509      1510      2575      2685
 -1      6901    3    0    1
 -2      1509       709      1510      2685
 -1      6902    3    0    1
 -2      1629       763      1630      2911
 -1      6903    3    0    1
 -2      1531       450      1532      2925
 -1      6904    3    0    1
 -2      2576      2606      3517      2784
 -1      6905    3    0    1
 -2      3008      1738      3013      3039
 -1      6906    3    0    1
 -2      2735      2663      3538      3654
 -1      6907    3    0    1
 -2      1463      1464      2985      3098
 -1      6908    3    0    1
 -2      3496      2465      3602      3634
 -1      6909    3    0    1
 -2      2908      2663      3558      3654
 -1      6910    3    0    1
 -2      3394        80      1765      1764
 -1      6911    3    0    1
 -2      1312       998      2185      3534
 -1      6912    3    0    1
 -2      2921      2889      3553      3340
 -1      6913    3    0    1
 -2      2540      1305      2643      2687
 -1      6914    3    0    1
 -2       981      1305      2540      2687
 -1      6915    3    0    1
 -2       449       553      1644      3033
 -1      6916    3    0    1
 -2      3191      3185      3598      3461
 -1      6917    3    0    1
 -2      3569      1420      3594      3604
 -1      6918    3    0    1
 -2      1223      2488      2622      2803
 -1      6919    3    0    1
 -2      1569      1459      3416      3417
 -1      6920    3    0    1
 -2      1493      1494      1534      3158
 -1      6921    3    0    1
 -2      1487      1488      2620      3081
 -1      6922    3    0    1
 -2      3026      2910      3053      3579
 -1      6923    3    0    1
 -2      2723      2640      2814      2883
 -1      6924    3    0    1
 -2      2629      2762      2832      3533
 -1      6925    3    0    1
 -2      2820      1572      3106      3229
 -1      6926    3    0    1
 -2      1584      1583      2766      2995
 -1      6927    3    0    1
 -2       601      1557      1558      2729
 -1      6928    3    0    1
 -2       601       608      1557      2729
 -1      6929    3    0    1
 -2      2629      2832      3527      3533
 -1      6930    3    0    1
 -2      3097      1664      3123      3660
 -1      6931    3    0    1
 -2      1724       277      3596      3602
 -1      6932    3    0    1
 -2      2602      2785      2818      3577
 -1      6933    3    0    1
 -2      1709      1489      1710      3075
 -1      6934    3    0    1
 -2      1537      2927      2928      2998
 -1      6935    3    0    1
 -2      1531      1532      2996      1825
 -1      6936    3    0    1
 -2      3511      2271      3551      3602
 -1      6937    3    0    1
 -2      1437      2874      3073      3644
 -1      6938    3    0    1
 -2      2591      2550      3549      3674
 -1      6939    3    0    1
 -2      1430      1622      3061      3116
 -1      6940    3    0    1
 -2      2491      2587      3577      3606
 -1      6941    3    0    1
 -2      1757       590      3334      3375
 -1      6942    3    0    1
 -2      3152      1721      1802      1868
 -1      6943    3    0    1
 -2      1528      3231      3451      3727
 -1      6944    3    0    1
 -2      1559      1786      1787      3373
 -1      6945    3    0    1
 -2       697      1316       699      2790
 -1      6946    3    0    1
 -2       427      3429      1908      3729
 -1      6947    3    0    1
 -2      2570      2759      2912      3554
 -1      6948    3    0    1
 -2      1484      1483      3082      3367
 -1      6949    3    0    1
 -2      1595       329      3527      2949
 -1      6950    3    0    1
 -2      1495      2676      1661      3177
 -1      6951    3    0    1
 -2      2395       119      2549      3733
 -1      6952    3    0    1
 -2      2678      2744      2789      3559
 -1      6953    3    0    1
 -2      1505      1506      2953      3015
 -1      6954    3    0    1
 -2      1480      1479      1655      2938
 -1      6955    3    0    1
 -2      1646      1683      3048      3090
 -1      6956    3    0    1
 -2      2755      3155      3156      3683
 -1      6957    3    0    1
 -2      1724      2601      3596      3291
 -1      6958    3    0    1
 -2      1644      1588      1645      3033
 -1      6959    3    0    1
 -2      3561      2691      3644      3341
 -1      6960    3    0    1
 -2      3550      2632      2986      3016
 -1      6961    3    0    1
 -2      2658      3535      3099      3307
 -1      6962    3    0    1
 -2      1475      2742      2950      3213
 -1      6963    3    0    1
 -2      3277      2951      3622      3659
 -1      6964    3    0    1
 -2      3096      2863      3345      3393
 -1      6965    3    0    1
 -2        68      1633      2841      3385
 -1      6966    3    0    1
 -2      1491      1492      1632      2777
 -1      6967    3    0    1
 -2      3531      1066      3585      3635
 -1      6968    3    0    1
 -2      2902      3516      3553      3633
 -1      6969    3    0    1
 -2      1794       128      1795      1797
 -1      6970    3    0    1
 -2      2633      2786      3082      3145
 -1      6971    3    0    1
 -2       170      2420      2673      3542
 -1      6972    3    0    1
 -2      1581      3045      3109      3622
 -1      6973    3    0    1
 -2      1797       424      3404      3703
 -1      6974    3    0    1
 -2      3638      3512      3376      3464
 -1      6975    3    0    1
 -2      2484      2570      3538      3554
 -1      6976    3    0    1
 -2      1451      1450      3261      1866
 -1      6977    3    0    1
 -2      2872      3550      3034      3676
 -1      6978    3    0    1
 -2       655       662      1522      3279
 -1      6979    3    0    1
 -2      3004      2834      3556      3581
 -1      6980    3    0    1
 -2      3094       572      3690      3369
 -1      6981    3    0    1
 -2      2894      1479      2938      3584
 -1      6982    3    0    1
 -2      2171       327      3518      3542
 -1      6983    3    0    1
 -2      1472      1471      1647      3175
 -1      6984    3    0    1
 -2      1461      1462      1710      3275
 -1      6985    3    0    1
 -2      2488      2733      3530      3597
 -1      6986    3    0    1
 -2      1721       253      1802      1868
 -1      6987    3    0    1
 -2      2420       991      2586      3542
 -1      6988    3    0    1
 -2      1298       128      3590      3631
 -1      6989    3    0    1
 -2      1624      2903      1592      3301
 -1      6990    3    0    1
 -2      2836      1214      2964      3008
 -1      6991    3    0    1
 -2      2471      2873      3682      3727
 -1      6992    3    0    1
 -2      2741      2573      3580      3616
 -1      6993    3    0    1
 -2      1583      2934      1811      1845
 -1      6994    3    0    1
 -2      1774       727      1775      3092
 -1      6995    3    0    1
 -2      1579      1461      1580      2864
 -1      6996    3    0    1
 -2      1613      1612      2809      1839
 -1      6997    3    0    1
 -2      2530      3053      3675      3728
 -1      6998    3    0    1
 -2      3556      2825      3596      3358
 -1      6999    3    0    1
 -2      1461      1462      1580      2864
 -1      7000    3    0    1
 -2      1764      3300      3321      3403
 -1      7001    3    0    1
 -2      1731      1574      3064      3336
 -1      7002    3    0    1
 -2      3115      3113      1846      3673
 -1      7003    3    0    1
 -2      1760      1542       196       182
 -1      7004    3    0    1
 -2      2839       196      1542      1541
 -1      7005    3    0    1
 -2      1719      3052      1802      3281
 -1      7006    3    0    1
 -2      3106      2815      3161      3603
 -1      7007    3    0    1
 -2       193       318      3693      3699
 -1      7008    3    0    1
 -2       637      1519      1520      2703
 -1      7009    3    0    1
 -2      1520      1519      2650      2703
 -1      7010    3    0    1
 -2       981      2687      2761      3521
 -1      7011    3    0    1
 -2      1453      1454      1665      2802
 -1      7012    3    0    1
 -2      2211      2360      2509      3658
 -1      7013    3    0    1
 -2      1741      2979      3066      3646
 -1      7014    3    0    1
 -2      1635      2946      3050      3658
 -1      7015    3    0    1
 -2      3510      3624      3657      3453
 -1      7016    3    0    1
 -2      1482      1481      2616      3047
 -1      7017    3    0    1
 -2      3073      1769      1848      3644
 -1      7018    3    0    1
 -2      3135      2741      3580      3616
 -1      7019    3    0    1
 -2      2677      3190      3675      3459
 -1      7020    3    0    1
 -2      3530      2813      3597      3315
 -1      7021    3    0    1
 -2      2640       519      2723      2814
 -1      7022    3    0    1
 -2      3128      3088      3654      3655
 -1      7023    3    0    1
 -2      1493      1716      3283      3352
 -1      7024    3    0    1
 -2      3590      2290      3627      3631
 -1      7025    3    0    1
 -2      3508      1432      3528      3548
 -1      7026    3    0    1
 -2      1600      1487      1601      2965
 -1      7027    3    0    1
 -2        45      1546      1547      1670
 -1      7028    3    0    1
 -2       158       631       389      1904
 -1      7029    3    0    1
 -2      1574      1575      3015      3193
 -1      7030    3    0    1
 -2      2872      1162      2888      3034
 -1      7031    3    0    1
 -2      1742      1741      2970      2979
 -1      7032    3    0    1
 -2      1473      3144      1696      1697
 -1      7033    3    0    1
 -2      1555      1556      2720      1697
 -1      7034    3    0    1
 -2      1588      1589      1645      3033
 -1      7035    3    0    1
 -2        68      1699      3381      3481
 -1      7036    3    0    1
 -2       170      2673      3518      3542
 -1      7037    3    0    1
 -2       990      3168      3169      3640
 -1      7038    3    0    1
 -2      2641      1473      3144      1696
 -1      7039    3    0    1
 -2      3080      2821      3193      3278
 -1      7040    3    0    1
 -2      1453      1664      3097      3660
 -1      7041    3    0    1
 -2      3080      2836      3581      3278
 -1      7042    3    0    1
 -2      1583      1811      1812      3360
 -1      7043    3    0    1
 -2        25        24      1626      3072
 -1      7044    3    0    1
 -2      1499      1648      3156      3683
 -1      7045    3    0    1
 -2      1477      1478      2984      3230
 -1      7046    3    0    1
 -2      1584      1583      2995      1812
 -1      7047    3    0    1
 -2       727       732      1786      3233
 -1      7048    3    0    1
 -2      2458      3504      2740      3667
 -1      7049    3    0    1
 -2      1588      1589      3033      3055
 -1      7050    3    0    1
 -2      1785      1452      3300      3320
 -1      7051    3    0    1
 -2      1507      2535      1623      1624
 -1      7052    3    0    1
 -2      2629      2797      3533      2989
 -1      7053    3    0    1
 -2      2953      2614      3039      3278
 -1      7054    3    0    1
 -2      1440      1441      2848      3400
 -1      7055    3    0    1
 -2      3113      3183      1846      3673
 -1      7056    3    0    1
 -2      2500      2469      2514      3514
 -1      7057    3    0    1
 -2      2469      2091      2514      3514
 -1      7058    3    0    1
 -2      2721      1643      3043      3282
 -1      7059    3    0    1
 -2      3520      2483      2461      3541
 -1      7060    3    0    1
 -2      2573      2475      2755      3683
 -1      7061    3    0    1
 -2      1648      1519      3156      3683
 -1      7062    3    0    1
 -2      3551      3618      3717      3479
 -1      7063    3    0    1
 -2       807      2688      1335       806
 -1      7064    3    0    1
 -2      1335      2712       807      1059
 -1      7065    3    0    1
 -2      3306      3284      3638      3376
 -1      7066    3    0    1
 -2      1465      1503      1504      2822
 -1      7067    3    0    1
 -2      1214       504       505      2712
 -1      7068    3    0    1
 -2       505       504       925      2712
 -1      7069    3    0    1
 -2       504      1214       924      2712
 -1      7070    3    0    1
 -2      1597      3323      1891      1892
 -1      7071    3    0    1
 -2       925       504      1213      2712
 -1      7072    3    0    1
 -2      2688      2712      1335       504
 -1      7073    3    0    1
 -2       504      1335      1213      2712
 -1      7074    3    0    1
 -2      2928        81      1743      1744
 -1      7075    3    0    1
 -2      2427      2494      3512      3572
 -1      7076    3    0    1
 -2      2494      1294      3512      3572
 -1      7077    3    0    1
 -2      2490      2554      2567      3625
 -1      7078    3    0    1
 -2      1871      3138      1872      3354
 -1      7079    3    0    1
 -2       553       449      1550      2885
 -1      7080    3    0    1
 -2      2485      2188      3693      3410
 -1      7081    3    0    1
 -2      2648      2531      2713      3672
 -1      7082    3    0    1
 -2      2533      3028      3607      3386
 -1      7083    3    0    1
 -2      2710      2505      3516      3593
 -1      7084    3    0    1
 -2      1308       990      3169      3613
 -1      7085    3    0    1
 -2      2505      2529      3584      3593
 -1      7086    3    0    1
 -2      2958      3623      3322      3655
 -1      7087    3    0    1
 -2      3231      1528      3397      3727
 -1      7088    3    0    1
 -2      3624      1862      3720      3457
 -1      7089    3    0    1
 -2      2497      2551      2719      3592
 -1      7090    3    0    1
 -2      2803      3573      3145      3252
 -1      7091    3    0    1
 -2      3191      1809      1846      1847
 -1      7092    3    0    1
 -2      1322      1024      2116      3587
 -1      7093    3    0    1
 -2       768      1629      3197      3626
 -1      7094    3    0    1
 -2      1495      1496      1538      3294
 -1      7095    3    0    1
 -2      1599      1821      3642      3449
 -1      7096    3    0    1
 -2      1650      2923      3573      3574
 -1      7097    3    0    1
 -2       430      3044      1501      1502
 -1      7098    3    0    1
 -2      1709      1489      3075      3132
 -1      7099    3    0    1
 -2      3160      1638      3595      1834
 -1      7100    3    0    1
 -2      2985      1463      1776      1777
 -1      7101    3    0    1
 -2      2519      1610      2714      3363
 -1      7102    3    0    1
 -2      3047      1481      1778      1779
 -1      7103    3    0    1
 -2      2915      2791      3555      3403
 -1      7104    3    0    1
 -2      1680      1682      3159      3161
 -1      7105    3    0    1
 -2      1015       715      1319      3515
 -1      7106    3    0    1
 -2      1612      1613      3032      1839
 -1      7107    3    0    1
 -2      1461      1462      2864      3028
 -1      7108    3    0    1
 -2      2795      1731      1732      3064
 -1      7109    3    0    1
 -2       583      3076      1838      1839
 -1      7110    3    0    1
 -2       804       799      3011      1771
 -1      7111    3    0    1
 -2      1423      2621      3161      3204
 -1      7112    3    0    1
 -2      1764        80      3391      3394
 -1      7113    3    0    1
 -2      1316      1992      2190      3599
 -1      7114    3    0    1
 -2       717       715      2274      3515
 -1      7115    3    0    1
 -2       715       717      1319      3515
 -1      7116    3    0    1
 -2      1545      3477      3724      3730
 -1      7117    3    0    1
 -2      3187       698      3240      3445
 -1      7118    3    0    1
 -2       786      2944      1755      3324
 -1      7119    3    0    1
 -2      1559      1560      3117      3218
 -1      7120    3    0    1
 -2      3034      1419      3676      3409
 -1      7121    3    0    1
 -2       267      1335      2769      3529
 -1      7122    3    0    1
 -2      2694      2905      3313      3649
 -1      7123    3    0    1
 -2      1755      1756      1768      3370
 -1      7124    3    0    1
 -2      2826      2921      3553      3081
 -1      7125    3    0    1
 -2       637       644      2987      3010
 -1      7126    3    0    1
 -2      2661      2615      2785      3577
 -1      7127    3    0    1
 -2      1752       180      3651      3472
 -1      7128    3    0    1
 -2       383       941      3614      3642
 -1      7129    3    0    1
 -2      1471      1472      3137      3175
 -1      7130    3    0    1
 -2      2263      1038      2406      3582
 -1      7131    3    0    1
 -2       166       328      3518      3542
 -1      7132    3    0    1
 -2      1555      1556      1697      3144
 -1      7133    3    0    1
 -2      2586      2585      3542      3224
 -1      7134    3    0    1
 -2       750      2870      1706      3100
 -1      7135    3    0    1
 -2      3009      3150      3591      3705
 -1      7136    3    0    1
 -2      1667      1676      3560      3415
 -1      7137    3    0    1
 -2      2451      2284      2508      2781
 -1      7138    3    0    1
 -2      3005      1447      3013      3650
 -1      7139    3    0    1
 -2      3237      3357      3664      3454
 -1      7140    3    0    1
 -2       101       422      1652      2881
 -1      7141    3    0    1
 -2       745       750      3200      3309
 -1      7142    3    0    1
 -2      1601      1600      3299      1854
 -1      7143    3    0    1
 -2      3573      2617      3252      3259
 -1      7144    3    0    1
 -2      3496      3522      3557      3602
 -1      7145    3    0    1
 -2       553       449      2885      3033
 -1      7146    3    0    1
 -2      2667      3577      3146      3372
 -1      7147    3    0    1
 -2      1659      1660      2963      2984
 -1      7148    3    0    1
 -2      1659      1477      1660      2984
 -1      7149    3    0    1
 -2      1646      1471      1647      3136
 -1      7150    3    0    1
 -2      1058      1336      2688      2825
 -1      7151    3    0    1
 -2      1992      1006      3201      3704
 -1      7152    3    0    1
 -2      1305       395      1543      3630
 -1      7153    3    0    1
 -2      2486      1427      2548      3366
 -1      7154    3    0    1
 -2      3606      2709      3256      3660
 -1      7155    3    0    1
 -2       518       519      2640      2814
 -1      7156    3    0    1
 -2      1469      1625      1626      2800
 -1      7157    3    0    1
 -2      2900      1654      3584      3380
 -1      7158    3    0    1
 -2      2501      1587      2927      2928
 -1      7159    3    0    1
 -2      1831      2915      3320      3403
 -1      7160    3    0    1
 -2      2563      2749      3661      3697
 -1      7161    3    0    1
 -2      3533      2629      2989      3571
 -1      7162    3    0    1
 -2       981      3663      3678      3684
 -1      7163    3    0    1
 -2      1590      1434      3539      3578
 -1      7164    3    0    1
 -2      3533      2647      3626      3632
 -1      7165    3    0    1
 -2      3284      2993      3638      3376
 -1      7166    3    0    1
 -2      1594      1593      3010      3133
 -1      7167    3    0    1
 -2      2990       964      3702      3620
 -1      7168    3    0    1
 -2       519       932      2723      2814
 -1      7169    3    0    1
 -2      2609      3598      3287      3343
 -1      7170    3    0    1
 -2      1066       822      2332      2760
 -1      7171    3    0    1
 -2      1661      2913      1496      1662
 -1      7172    3    0    1
 -2      2570      2484      3538      3623
 -1      7173    3    0    1
 -2      1340      2532      3516      2771
 -1      7174    3    0    1
 -2      3083      3324      3645      3697
 -1      7175    3    0    1
 -2      1450      1451      3242      1866
 -1      7176    3    0    1
 -2      3218      3117      3315      3741
 -1      7177    3    0    1
 -2       990      2562      2663      2735
 -1      7178    3    0    1
 -2       990      1308      2562      2735
 -1      7179    3    0    1
 -2      2517      3549      3659      3673
 -1      7180    3    0    1
 -2      1152      2636      2711      1686
 -1      7181    3    0    1
 -2      2739       662      1789      3128
 -1      7182    3    0    1
 -2      3533      2647      3632      3636
 -1      7183    3    0    1
 -2      1436      2721      1643      3043
 -1      7184    3    0    1
 -2      1425      1511      3146      3372
 -1      7185    3    0    1
 -2      1302      3589      3617      3629
 -1      7186    3    0    1
 -2      2729       608      3006      3214
 -1      7187    3    0    1
 -2      2643      1240      2791      2915
 -1      7188    3    0    1
 -2      3505      2509      3506      3658
 -1      7189    3    0    1
 -2      2958      3613      3623      3647
 -1      7190    3    0    1
 -2      1414      1413      3228      3280
 -1      7191    3    0    1
 -2      1487      1600      3081      3466
 -1      7192    3    0    1
 -2       990      2735      2877      3538
 -1      7193    3    0    1
 -2      3256      3606      3660      3445
 -1      7194    3    0    1
 -2      1493      2758      3592      3352
 -1      7195    3    0    1
 -2      2758      2719      3592      3283
 -1      7196    3    0    1
 -2      1509      1427      2561      3366
 -1      7197    3    0    1
 -2      3005      2614      3013      3110
 -1      7198    3    0    1
 -2      2700      2484      2878      3655
 -1      7199    3    0    1
 -2      1308      3501      3565      3718
 -1      7200    3    0    1
 -2      3064      1574      3179      3336
 -1      7201    3    0    1
 -2      2946      3003      3050      3658
 -1      7202    3    0    1
 -2      1653      3526      3575      3189
 -1      7203    3    0    1
 -2      3012      1650      3573      3574
 -1      7204    3    0    1
 -2      3136      1471      3180      3304
 -1      7205    3    0    1
 -2      3541      3266      3271      3402
 -1      7206    3    0    1
 -2      3261      1865      3550      3364
 -1      7207    3    0    1
 -2      2587      2523      3577      3235
 -1      7208    3    0    1
 -2      1708      1653      3585      3189
 -1      7209    3    0    1
 -2      2862      2864      3607      3386
 -1      7210    3    0    1
 -2       128      3566      3631      3703
 -1      7211    3    0    1
 -2      1664       316      3599      3234
 -1      7212    3    0    1
 -2      2505      2710      3516      3584
 -1      7213    3    0    1
 -2      1513      1676      1677      2812
 -1      7214    3    0    1
 -2      2795      1731      3064      3336
 -1      7215    3    0    1
 -2      1588      2652      1644      1645
 -1      7216    3    0    1
 -2      2652      1588      1589      1645
 -1      7217    3    0    1
 -2      1700      2992      1794      3590
 -1      7218    3    0    1
 -2      3589      1302      3617      3627
 -1      7219    3    0    1
 -2      1633      1663      2841      2948
 -1      7220    3    0    1
 -2      3243      3549      3311      3674
 -1      7221    3    0    1
 -2      3553      2694      3633      3649
 -1      7222    3    0    1
 -2      1547      1546      2620      3151
 -1      7223    3    0    1
 -2      2936      1481      3119      3244
 -1      7224    3    0    1
 -2       553       449      1644      2743
 -1      7225    3    0    1
 -2      3617      3541      3619      3271
 -1      7226    3    0    1
 -2      1214       924      2964      3008
 -1      7227    3    0    1
 -2       449       553      1550      2743
 -1      7228    3    0    1
 -2      1612      1613      1679      3032
 -1      7229    3    0    1
 -2      2886      2680      3027      3561
 -1      7230    3    0    1
 -2      1568      1567      3053      1795
 -1      7231    3    0    1
 -2      1644       449      1645      2743
 -1      7232    3    0    1
 -2      2652      1644      1645      2743
 -1      7233    3    0    1
 -2      1550      2572      1551      2743
 -1      7234    3    0    1
 -2       449      1550      1551      2743
 -1      7235    3    0    1
 -2      1668      1667      1712      3214
 -1      7236    3    0    1
 -2       770       771      2629      3527
 -1      7237    3    0    1
 -2        26      1813      3382      3465
 -1      7238    3    0    1
 -2      2471      2501      3024      3558
 -1      7239    3    0    1
 -2      3088      1780      3322      3655
 -1      7240    3    0    1
 -2      2588      1664      2802      3287
 -1      7241    3    0    1
 -2      2649      2775      2948      3274
 -1      7242    3    0    1
 -2      1043      2384      2513      3582
 -1      7243    3    0    1
 -2      2972      2898      3027      3561
 -1      7244    3    0    1
 -2      3136      3090      3204      3217
 -1      7245    3    0    1
 -2       429       171      1877      1888
 -1      7246    3    0    1
 -2      1606      2917      1780      3655
 -1      7247    3    0    1
 -2       775       243       772      1881
 -1      7248    3    0    1
 -2      3595      3049      3662      3721
 -1      7249    3    0    1
 -2      2917      1606      1780      1781
 -1      7250    3    0    1
 -2      1508      1507      2535      2788
 -1      7251    3    0    1
 -2      1626      1625      2838      3072
 -1      7252    3    0    1
 -2      2919      2427      3140      3680
 -1      7253    3    0    1
 -2      2623      3517      2830      2890
 -1      7254    3    0    1
 -2       822       823      2526      3516
 -1      7255    3    0    1
 -2       823       822      1066      3516
 -1      7256    3    0    1
 -2      2737      2882      3571      3669
 -1      7257    3    0    1
 -2      3516      2900      3584      3633
 -1      7258    3    0    1
 -2      1507      1585      1586      2788
 -1      7259    3    0    1
 -2      1636      1736      1737      3111
 -1      7260    3    0    1
 -2      2466      2228      3526      3176
 -1      7261    3    0    1
 -2      3520      2290      3590      3631
 -1      7262    3    0    1
 -2      2683      3535      3036      3607
 -1      7263    3    0    1
 -2      3108      2569      3625      3413
 -1      7264    3    0    1
 -2       823      1340      2532      3516
 -1      7265    3    0    1
 -2      2747      1473      1696      1697
 -1      7266    3    0    1
 -2      3094      2968      3369      3690
 -1      7267    3    0    1
 -2      2997      2989      3571      3669
 -1      7268    3    0    1
 -2      1637      1636      1737      3111
 -1      7269    3    0    1
 -2      1066       822      2526      3516
 -1      7270    3    0    1
 -2      2624      2847      3555      3216
 -1      7271    3    0    1
 -2      1467      1741      2979      3066
 -1      7272    3    0    1
 -2      2576      2618      2652      3517
 -1      7273    3    0    1
 -2      2576      2606      2618      3517
 -1      7274    3    0    1
 -2      2459      2127      3544      3569
 -1      7275    3    0    1
 -2      2652      2618      2674      3517
 -1      7276    3    0    1
 -2      1425      1426      1460      3065
 -1      7277    3    0    1
 -2      2478      3511      3545      3586
 -1      7278    3    0    1
 -2      2402      2127      2459      3569
 -1      7279    3    0    1
 -2      2091      2778      2807      3658
 -1      7280    3    0    1
 -2      2529      1585      2788      2971
 -1      7281    3    0    1
 -2        22       111      1603      2897
 -1      7282    3    0    1
 -2      3162      1539      3166      3286
 -1      7283    3    0    1
 -2      1519      2755      3156      3683
 -1      7284    3    0    1
 -2      1542      1541      1841      3332
 -1      7285    3    0    1
 -2      2614      2953      3039      3110
 -1      7286    3    0    1
 -2      2945      1467      2979      3066
 -1      7287    3    0    1
 -2      2564      2295      2673      3518
 -1      7288    3    0    1
 -2      2291      2295      2564      3518
 -1      7289    3    0    1
 -2      2171      2564      2673      3518
 -1      7290    3    0    1
 -2      3313      3208      3325      3649
 -1      7291    3    0    1
 -2       391       140      3619      1884
 -1      7292    3    0    1
 -2      1551      1550      2885      3288
 -1      7293    3    0    1
 -2      3625      3112      3413      3437
 -1      7294    3    0    1
 -2      1756      1755      1768      3302
 -1      7295    3    0    1
 -2      2666      1654      2938      3111
 -1      7296    3    0    1
 -2      3666      3567      3668      3724
 -1      7297    3    0    1
 -2      2897      2862      3074      3335
 -1      7298    3    0    1
 -2      2242       964      2464      3627
 -1      7299    3    0    1
 -2      2927      2501      2960      2998
 -1      7300    3    0    1
 -2       590      3037      1838      3334
 -1      7301    3    0    1
 -2       768      3237      3626      1871
 -1      7302    3    0    1
 -2      3066      2695      1588      3692
 -1      7303    3    0    1
 -2      2927      1537      2928      1743
 -1      7304    3    0    1
 -2      2796      1465      2818      2833
 -1      7305    3    0    1
 -2      1635      3524      3599      3686
 -1      7306    3    0    1
 -2        81      2927      2928      1743
 -1      7307    3    0    1
 -2      1485      1813      1814      3325
 -1      7308    3    0    1
 -2      1015      1322      2274      2798
 -1      7309    3    0    1
 -2      2282      2528      2544      3519
 -1      7310    3    0    1
 -2      1631      2702      2855      3408
 -1      7311    3    0    1
 -2      2192      2528      2539      3519
 -1      7312    3    0    1
 -2      2768      2708      3521      3155
 -1      7313    3    0    1
 -2      3597      2646      3333      3677
 -1      7314    3    0    1
 -2      1572      1680      3159      3161
 -1      7315    3    0    1
 -2      1466      1465      2796      2833
 -1      7316    3    0    1
 -2      3142      2091      3701      3719
 -1      7317    3    0    1
 -2       495       494      2629      2762
 -1      7318    3    0    1
 -2      1680      1572      3106      3161
 -1      7319    3    0    1
 -2      1640      1641      1758      3077
 -1      7320    3    0    1
 -2       330       376      3543      3582
 -1      7321    3    0    1
 -2      1450      1451      1679      3223
 -1      7322    3    0    1
 -2      1767      1443      1768      3302
 -1      7323    3    0    1
 -2      2297      2087      2520      3178
 -1      7324    3    0    1
 -2      1676      2738      1677      2994
 -1      7325    3    0    1
 -2      2638      2484      3538      3554
 -1      7326    3    0    1
 -2       140       391      1834      1884
 -1      7327    3    0    1
 -2      1581      3322      3655      1874
 -1      7328    3    0    1
 -2       956       128      3578      1794
 -1      7329    3    0    1
 -2      1667      1668      1677      3415
 -1      7330    3    0    1
 -2      3546      2503      3563      3565
 -1      7331    3    0    1
 -2      3520      1700      3590      1416
 -1      7332    3    0    1
 -2      1501      2522      3641      3366
 -1      7333    3    0    1
 -2      3609       182      3225      3691
 -1      7334    3    0    1
 -2      1340       823      2332      3522
 -1      7335    3    0    1
 -2      1648      1499      1649      2759
 -1      7336    3    0    1
 -2      2650      1648      1649      2759
 -1      7337    3    0    1
 -2      2540      2761      3521      2967
 -1      7338    3    0    1
 -2       474       571      2574      2909
 -1      7339    3    0    1
 -2      3004       804      3299      3390
 -1      7340    3    0    1
 -2      3074      2627      3576      3607
 -1      7341    3    0    1
 -2      2490      2567      3603      3625
 -1      7342    3    0    1
 -2      1479      1480      1615      2894
 -1      7343    3    0    1
 -2       169        81      2928      1744
 -1      7344    3    0    1
 -2      2538      3113      3115      3673
 -1      7345    3    0    1
 -2       229      1565      1566      2835
 -1      7346    3    0    1
 -2      2355       822      2454      2760
 -1      7347    3    0    1
 -2       822      1931      2454      2760
 -1      7348    3    0    1
 -2       555      1285      1931      2760
 -1      7349    3    0    1
 -2       822       555      1931      2760
 -1      7350    3    0    1
 -2       822      1066      1285      2760
 -1      7351    3    0    1
 -2       555       822      1285      2760
 -1      7352    3    0    1
 -2       336      2578      2454      2304
 -1      7353    3    0    1
 -2      2532      2696      3516      2771
 -1      7354    3    0    1
 -2      1789      2899      3622      3298
 -1      7355    3    0    1
 -2      1477      1659      1660      3150
 -1      7356    3    0    1
 -2      3526      3642      3680      3449
 -1      7357    3    0    1
 -2      1555      2720      2850      3706
 -1      7358    3    0    1
 -2       735      1322      2116      2798
 -1      7359    3    0    1
 -2      1015      2462      3515      2798
 -1      7360    3    0    1
 -2      3013      1738      3014      3039
 -1      7361    3    0    1
 -2       318       193      3693      1914
 -1      7362    3    0    1
 -2      1499      1500      2759      2912
 -1      7363    3    0    1
 -2        24      1625      1626      3072
 -1      7364    3    0    1
 -2      1533      1534      3062      3158
 -1      7365    3    0    1
 -2      2911      3017      1871      1872
 -1      7366    3    0    1
 -2      2927      2501      2998      3558
 -1      7367    3    0    1
 -2      2801      1526      3348      1924
 -1      7368    3    0    1
 -2      3018      2627      3576      3351
 -1      7369    3    0    1
 -2      1750       180      1751      1801
 -1      7370    3    0    1
 -2      1829       626      3616      3312
 -1      7371    3    0    1
 -2      1829      3126      1830      3312
 -1      7372    3    0    1
 -2      1497      1672      3547      3601
 -1      7373    3    0    1
 -2      3201      3515      3203      3704
 -1      7374    3    0    1
 -2      1487      1546      2672      2794
 -1      7375    3    0    1
 -2       608       601      3210      3290
 -1      7376    3    0    1
 -2      2936      1481      1778      3119
 -1      7377    3    0    1
 -2      2467      2466      2493      3680
 -1      7378    3    0    1
 -2      1721      3551      3656      3479
 -1      7379    3    0    1
 -2      1791      1625      3043      3282
 -1      7380    3    0    1
 -2      1413      1455      3228      3677
 -1      7381    3    0    1
 -2      3233      3194      3333      3677
 -1      7382    3    0    1
 -2      1832      3273      1843      1844
 -1      7383    3    0    1
 -2      3504      2480      2856      3095
 -1      7384    3    0    1
 -2      2643      2540      2687      3521
 -1      7385    3    0    1
 -2       637       644      1593      2962
 -1      7386    3    0    1
 -2       662      1522      3279      3672
 -1      7387    3    0    1
 -2      1413      1455      1456      3228
 -1      7388    3    0    1
 -2      3495      2473      3525      3605
 -1      7389    3    0    1
 -2       424       128      1827      3703
 -1      7390    3    0    1
 -2      1600      1601      2921      1854
 -1      7391    3    0    1
 -2      1574      1505      1575      3331
 -1      7392    3    0    1
 -2      3638      3566      3404      3703
 -1      7393    3    0    1
 -2      1499      1500      2768      3156
 -1      7394    3    0    1
 -2      2475      2511      2708      3521
 -1      7395    3    0    1
 -2      1040      3510      3527      3624
 -1      7396    3    0    1
 -2       171       981      3678      3684
 -1      7397    3    0    1
 -2       181        13      1647      1911
 -1      7398    3    0    1
 -2       571      1289       573      3646
 -1      7399    3    0    1
 -2      3077      1757      3637      3375
 -1      7400    3    0    1
 -2      3516      2505      3584      3593
 -1      7401    3    0    1
 -2       590      3037      3334      3375
 -1      7402    3    0    1
 -2      1456      1455      1775      3228
 -1      7403    3    0    1
 -2      1489      2691      1709      3275
 -1      7404    3    0    1
 -2       387      1784      3326      3728
 -1      7405    3    0    1
 -2      1223      2488      2803      2880
 -1      7406    3    0    1
 -2      2471      2531      2648      3672
 -1      7407    3    0    1
 -2      1240      1241      2540      2791
 -1      7408    3    0    1
 -2      2323      2121      2427      2993
 -1      7409    3    0    1
 -2       253      1802      1803      1837
 -1      7410    3    0    1
 -2      1616      3364      3424      3455
 -1      7411    3    0    1
 -2      2844       101      1615      1708
 -1      7412    3    0    1
 -2      1435      3526      3189      3270
 -1      7413    3    0    1
 -2      1064      1069      2444      3707
 -1      7414    3    0    1
 -2       965      1161      1163      2773
 -1      7415    3    0    1
 -2      1454      1453      1665      3097
 -1      7416    3    0    1
 -2       965      1297       607      2773
 -1      7417    3    0    1
 -2      3106      3086      3603      3625
 -1      7418    3    0    1
 -2      1546        50      1564      2794
 -1      7419    3    0    1
 -2       965      1163      1297      2773
 -1      7420    3    0    1
 -2      1618      1448      2934      2995
 -1      7421    3    0    1
 -2       468       469      1161      2773
 -1      7422    3    0    1
 -2       196      2839      1542      1760
 -1      7423    3    0    1
 -2      1161       469      1163      2773
 -1      7424    3    0    1
 -2      2832      3527      3571      3664
 -1      7425    3    0    1
 -2       469      1297      1163      2773
 -1      7426    3    0    1
 -2      1297       469       607      2773
 -1      7427    3    0    1
 -2      2213       643      1305       646
 -1      7428    3    0    1
 -2      1312       410      3640      3647
 -1      7429    3    0    1
 -2      1465      1466      3101      3229
 -1      7430    3    0    1
 -2      3621       572      3349      3405
 -1      7431    3    0    1
 -2      2801      1483      3059      3120
 -1      7432    3    0    1
 -2      3136      3090      2621      3204
 -1      7433    3    0    1
 -2      1858      1857      3373      3400
 -1      7434    3    0    1
 -2      2501      2998      3558      3177
 -1      7435    3    0    1
 -2      2211      2473      3509      2808
 -1      7436    3    0    1
 -2      2622      2488      2813      3530
 -1      7437    3    0    1
 -2      2297      2091      2509      2778
 -1      7438    3    0    1
 -2      2803      2880      3573      3252
 -1      7439    3    0    1
 -2      2429      2271      3511      3067
 -1      7440    3    0    1
 -2      3613      1308      3623      3718
 -1      7441    3    0    1
 -2      2412       334      2457      3744
 -1      7442    3    0    1
 -2      3181      3113      1846      1847
 -1      7443    3    0    1
 -2      3629       395      1886      3450
 -1      7444    3    0    1
 -2      1700       128      3566      3590
 -1      7445    3    0    1
 -2      2782      2727      1782      1783
 -1      7446    3    0    1
 -2      2290      3253      3627      3631
 -1      7447    3    0    1
 -2      2733      3574      3379      3396
 -1      7448    3    0    1
 -2      3030      2812      3260      3365
 -1      7449    3    0    1
 -2      1571      2534      1681      2819
 -1      7450    3    0    1
 -2      1572       195      1681      2819
 -1      7451    3    0    1
 -2      1459      2596      1569      3235
 -1      7452    3    0    1
 -2      2671      3012      3573      3574
 -1      7453    3    0    1
 -2      2263      2406      2513      3582
 -1      7454    3    0    1
 -2      1302       972      2250      3629
 -1      7455    3    0    1
 -2      2347      3510      3586      3657
 -1      7456    3    0    1
 -2      2617      2786      3573      3145
 -1      7457    3    0    1
 -2      2926      2501      2927      3558
 -1      7458    3    0    1
 -2      3656      3551      3717      3479
 -1      7459    3    0    1
 -2       822      1066      2332      3522
 -1      7460    3    0    1
 -2       823       822      2332      3522
 -1      7461    3    0    1
 -2       822       823      1066      3522
 -1      7462    3    0    1
 -2      3516      1340      2771      3522
 -1      7463    3    0    1
 -2      3620      2906      2872      2888
 -1      7464    3    0    1
 -2      2683      3036      3576      3607
 -1      7465    3    0    1
 -2      2854      2898      1735      2972
 -1      7466    3    0    1
 -2      1422      2529      1628      3522
 -1      7467    3    0    1
 -2      1809      3181      3183      1846
 -1      7468    3    0    1
 -2      1340       277      1585      3522
 -1      7469    3    0    1
 -2      2663      1257      2562      1251
 -1      7470    3    0    1
 -2      1340      1585      2771      3522
 -1      7471    3    0    1
 -2      2127      1032      3544      3594
 -1      7472    3    0    1
 -2      1669      2849      3243      1856
 -1      7473    3    0    1
 -2      2654      1614      2881      2894
 -1      7474    3    0    1
 -2      3008      2964      3581      3650
 -1      7475    3    0    1
 -2       918       493      2678      2789
 -1      7476    3    0    1
 -2      1050       918      2678      2789
 -1      7477    3    0    1
 -2      1560      1559      1787      3373
 -1      7478    3    0    1
 -2       347       346      3519      3588
 -1      7479    3    0    1
 -2      2461      2817      3541      3427
 -1      7480    3    0    1
 -2      2467      2100      2679      3021
 -1      7481    3    0    1
 -2      1541       196      3428      3448
 -1      7482    3    0    1
 -2      2484      2664      2878      3655
 -1      7483    3    0    1
 -2      1625      1469      2838      3027
 -1      7484    3    0    1
 -2      1550       553      2885      2983
 -1      7485    3    0    1
 -2      1316      2185      3506      3686
 -1      7486    3    0    1
 -2      1711      1667      3560      3214
 -1      7487    3    0    1
 -2       900       457      1144      2790
 -1      7488    3    0    1
 -2      1443      2895      1767      1768
 -1      7489    3    0    1
 -2      1006       697      2568      2790
 -1      7490    3    0    1
 -2      1657      1499      3019      3554
 -1      7491    3    0    1
 -2       745      1688      1689      2922
 -1      7492    3    0    1
 -2      2815       900      1680      3161
 -1      7493    3    0    1
 -2      3557      3653      1895      3489
 -1      7494    3    0    1
 -2      2100      2679      3023      3717
 -1      7495    3    0    1
 -2      2862      2627      3074      3607
 -1      7496    3    0    1
 -2      3196        68      3381      3481
 -1      7497    3    0    1
 -2      1462      1461      1580      3268
 -1      7498    3    0    1
 -2      1497      1561      2724      3523
 -1      7499    3    0    1
 -2      1015       715      2597      3523
 -1      7500    3    0    1
 -2       319      1015      1501      3523
 -1      7501    3    0    1
 -2       277      1058      3596      3602
 -1      7502    3    0    1
 -2       717      1319      2615      3523
 -1      7503    3    0    1
 -2      1160      2906      3034      1867
 -1      7504    3    0    1
 -2      2774      3463      3739      3743
 -1      7505    3    0    1
 -2      2495      1025      3421      3709
 -1      7506    3    0    1
 -2      1687      1447      2858      3215
 -1      7507    3    0    1
 -2      1531      1532      1825      3384
 -1      7508    3    0    1
 -2      1427      1428      1502      2843
 -1      7509    3    0    1
 -2      1692      1871      3401      3705
 -1      7510    3    0    1
 -2      2271      1336      3067      3602
 -1      7511    3    0    1
 -2      1709      1461      3644      3341
 -1      7512    3    0    1
 -2      1605      1604      1751      3001
 -1      7513    3    0    1
 -2      2558      2487      3504      2806
 -1      7514    3    0    1
 -2      2684      2493      3528      3680
 -1      7515    3    0    1
 -2      1522      1523      1662      2857
 -1      7516    3    0    1
 -2      2487      2480      3504      2806
 -1      7517    3    0    1
 -2      1549      2612      2794      3151
 -1      7518    3    0    1
 -2      1681      2534      2818      2819
 -1      7519    3    0    1
 -2      2817      3563      3314      3714
 -1      7520    3    0    1
 -2      3323      1873      1891      1892
 -1      7521    3    0    1
 -2      2518      1541      3428      3448
 -1      7522    3    0    1
 -2      2917      1581      1780      3655
 -1      7523    3    0    1
 -2      1667      1668      2851      2994
 -1      7524    3    0    1
 -2      2762       495      3265      2797
 -1      7525    3    0    1
 -2       205       316      3532      3547
 -1      7526    3    0    1
 -2      2479      2691      3561      3621
 -1      7527    3    0    1
 -2      3194      3597      3333      3677
 -1      7528    3    0    1
 -2      2914      3538      3019      3554
 -1      7529    3    0    1
 -2      1517      1469      1518      2871
 -1      7530    3    0    1
 -2      1251      2829      2926      2998
 -1      7531    3    0    1
 -2      3178      2402      3715      3739
 -1      7532    3    0    1
 -2      1494      1493      3041      3124
 -1      7533    3    0    1
 -2      3551      1409      3596      3602
 -1      7534    3    0    1
 -2      2989      3100      3632      3669
 -1      7535    3    0    1
 -2      1580      1579      2874      3268
 -1      7536    3    0    1
 -2      1493      1494      1717      3124
 -1      7537    3    0    1
 -2      3530      2733      3574      3597
 -1      7538    3    0    1
 -2      2729      3199      3612      3337
 -1      7539    3    0    1
 -2      3634      1409      3476      3742
 -1      7540    3    0    1
 -2      1757      3076      3579      3307
 -1      7541    3    0    1
 -2      1443      1719      3281      3285
 -1      7542    3    0    1
 -2      2087      2100      3192      3657
 -1      7543    3    0    1
 -2      2803      2635      3573      3597
 -1      7544    3    0    1
 -2       636       978      2243      3392
 -1      7545    3    0    1
 -2      3061      2551      3116      3592
 -1      7546    3    0    1
 -2      2551      2649      3116      3592
 -1      7547    3    0    1
 -2      3108      3112      1896      3413
 -1      7548    3    0    1
 -2       422       101      1615      2881
 -1      7549    3    0    1
 -2      2607      2547      2658      3535
 -1      7550    3    0    1
 -2      1530      1432      3548      3368
 -1      7551    3    0    1
 -2      1225      2622      2635      2803
 -1      7552    3    0    1
 -2      2992      1794      1795      1797
 -1      7553    3    0    1
 -2      2992      1700      1794      1797
 -1      7554    3    0    1
 -2      1066       101      3585      3635
 -1      7555    3    0    1
 -2      1748      1432      3615      3646
 -1      7556    3    0    1
 -2      3531      3575      3583      3585
 -1      7557    3    0    1
 -2      1722      1688      1723      3213
 -1      7558    3    0    1
 -2      2661      2876      3577      3235
 -1      7559    3    0    1
 -2       572      1610      3269      3349
 -1      7560    3    0    1
 -2      3621      3007      3341      3349
 -1      7561    3    0    1
 -2      3575      3526      3585      3189
 -1      7562    3    0    1
 -2      3048      3090      3136      3217
 -1      7563    3    0    1
 -2      3100      2870      3632      3669
 -1      7564    3    0    1
 -2      3090      1671      3204      3217
 -1      7565    3    0    1
 -2      3269      3007      3621      3349
 -1      7566    3    0    1
 -2      2986      3550      3016      3261
 -1      7567    3    0    1
 -2      2488      2706      2813      3530
 -1      7568    3    0    1
 -2        21        67      1534      3084
 -1      7569    3    0    1
 -2      3509      2473      2798      2808
 -1      7570    3    0    1
 -2      2895      3317      3645      3370
 -1      7571    3    0    1
 -2      2820      3106      3159      3161
 -1      7572    3    0    1
 -2       619      1829      1830      3312
 -1      7573    3    0    1
 -2      2874      1769      1770      1817
 -1      7574    3    0    1
 -2      2727      2783      1782      1783
 -1      7575    3    0    1
 -2      2855      1675      1773      3408
 -1      7576    3    0    1
 -2      3528      1432      3572      3680
 -1      7577    3    0    1
 -2      2783       673      1782      1783
 -1      7578    3    0    1
 -2      3178      2520      3605      3739
 -1      7579    3    0    1
 -2      1586      1585      2907      3291
 -1      7580    3    0    1
 -2      3521       981      3227      2761
 -1      7581    3    0    1
 -2      1491      1629      1630      3318
 -1      7582    3    0    1
 -2      1058      2332      3067      3602
 -1      7583    3    0    1
 -2      1493      1716      1717      3283
 -1      7584    3    0    1
 -2       644      2987      3010      3682
 -1      7585    3    0    1
 -2      3206      3002      3652      3685
 -1      7586    3    0    1
 -2      2790      2568      3598      3603
 -1      7587    3    0    1
 -2      2815      3086      3598      3603
 -1      7588    3    0    1
 -2      1496      1495      2892      3294
 -1      7589    3    0    1
 -2       395      3564      3570      3629
 -1      7590    3    0    1
 -2      1513      1514      1676      2812
 -1      7591    3    0    1
 -2       415       199      3732      1922
 -1      7592    3    0    1
 -2      1613      1612      1679      3223
 -1      7593    3    0    1
 -2      3681      3414      3715      3743
 -1      7594    3    0    1
 -2      1519      2914      3019      3554
 -1      7595    3    0    1
 -2      1304       327      3542      3224
 -1      7596    3    0    1
 -2      3569      1420      3604      3739
 -1      7597    3    0    1
 -2      1609       196      3534      3691
 -1      7598    3    0    1
 -2      2692      2632      2879      3676
 -1      7599    3    0    1
 -2      2934      2766      2995      3665
 -1      7600    3    0    1
 -2      1440      2848      3688      3400
 -1      7601    3    0    1
 -2      3075      2519      3607      3363
 -1      7602    3    0    1
 -2      3422      1578      1901      3474
 -1      7603    3    0    1
 -2      3578      1294      3675      3728
 -1      7604    3    0    1
 -2      1032      1326      2488      2813
 -1      7605    3    0    1
 -2      2694      2526      3516      2902
 -1      7606    3    0    1
 -2      1614      1066      3584      3635
 -1      7607    3    0    1
 -2      1469      1470      2838      2887
 -1      7608    3    0    1
 -2       662       655      2837      3297
 -1      7609    3    0    1
 -2      1559      3218      1857      1858
 -1      7610    3    0    1
 -2      2891      3555      3300      3320
 -1      7611    3    0    1
 -2      3527      2629      3533      3571
 -1      7612    3    0    1
 -2      3125      3124      3612      3676
 -1      7613    3    0    1
 -2      1032      2488      2706      2813
 -1      7614    3    0    1
 -2      1458      1457      2699      3012
 -1      7615    3    0    1
 -2      3225      2807      3609      3701
 -1      7616    3    0    1
 -2      2649      2775      2841      2948
 -1      7617    3    0    1
 -2      2705       243      3543      3582
 -1      7618    3    0    1
 -2      3182      2686      3185      3598
 -1      7619    3    0    1
 -2        24      1625      1691      3043
 -1      7620    3    0    1
 -2      1528      1527      3231      3397
 -1      7621    3    0    1
 -2      2829      3558      3177      3672
 -1      7622    3    0    1
 -2      1554      1553      1651      2867
 -1      7623    3    0    1
 -2      1495      1496      2676      2960
 -1      7624    3    0    1
 -2      2636      2711      1686      3549
 -1      7625    3    0    1
 -2      1543       153      1544      2999
 -1      7626    3    0    1
 -2      1691      1170      2976      3371
 -1      7627    3    0    1
 -2      2799      2651      3309      3396
 -1      7628    3    0    1
 -2      2907      3556      3596      3358
 -1      7629    3    0    1
 -2      1769      2897      1842      3335
 -1      7630    3    0    1
 -2       415       193      2188      3410
 -1      7631    3    0    1
 -2        50        45      1546      3254
 -1      7632    3    0    1
 -2      1483      1924      1930      3494
 -1      7633    3    0    1
 -2       770      2331      3316      3700
 -1      7634    3    0    1
 -2      2702      1631      2855      2859
 -1      7635    3    0    1
 -2      2924      3009      3591      3705
 -1      7636    3    0    1
 -2      3586      3643      3648      3700
 -1      7637    3    0    1
 -2      2651      3530      3213      3396
 -1      7638    3    0    1
 -2       554      1531      2625      3633
 -1      7639    3    0    1
 -2      1789       655      1790      3128
 -1      7640    3    0    1
 -2      2611      2777      3559      3211
 -1      7641    3    0    1
 -2      2919      2427      2993      3140
 -1      7642    3    0    1
 -2      2900      3516      2902      3633
 -1      7643    3    0    1
 -2       428      1576      3605      3713
 -1      7644    3    0    1
 -2      3075      1709      3132      3607
 -1      7645    3    0    1
 -2      3549      3137      3236      3462
 -1      7646    3    0    1
 -2      1507      1508      1624      3301
 -1      7647    3    0    1
 -2      2988      1706      3100      3632
 -1      7648    3    0    1
 -2      2086       961      2506      3536
 -1      7649    3    0    1
 -2       727      1774      1775      3130
 -1      7650    3    0    1
 -2      2506      2293      2745      3536
 -1      7651    3    0    1
 -2      2901      2660      3621      3692
 -1      7652    3    0    1
 -2      3021      2466      3176      3232
 -1      7653    3    0    1
 -2      1610      2519      2714      3075
 -1      7654    3    0    1
 -2      1464      1463      2985      1777
 -1      7655    3    0    1
 -2      1024      1326      2116      3525
 -1      7656    3    0    1
 -2      2116      1326      3495      3525
 -1      7657    3    0    1
 -2      2402      3495      2473      3525
 -1      7658    3    0    1
 -2      2402      2116      3495      3525
 -1      7659    3    0    1
 -2       642       166       650      1799
 -1      7660    3    0    1
 -2      1455      1413      3207      3667
 -1      7661    3    0    1
 -2      3317      2944      3324      3370
 -1      7662    3    0    1
 -2      2578       336      3537      3695
 -1      7663    3    0    1
 -2       667       663       993      1798
 -1      7664    3    0    1
 -2      2925      2668      2977      3149
 -1      7665    3    0    1
 -2      3551      3545      3608      3717
 -1      7666    3    0    1
 -2      2116      2473      2798      3525
 -1      7667    3    0    1
 -2      2116      2402      2473      3525
 -1      7668    3    0    1
 -2      1072       944      2449      3695
 -1      7669    3    0    1
 -2        68      3196      1634      1820
 -1      7670    3    0    1
 -2       253      1721      3596      3656
 -1      7671    3    0    1
 -2      1336       253      3596      3656
 -1      7672    3    0    1
 -2      1413      1414      1456      3207
 -1      7673    3    0    1
 -2       119       381      3438      3733
 -1      7674    3    0    1
 -2      3132      3535      3188      3607
 -1      7675    3    0    1
 -2      1459      1425      3065      3235
 -1      7676    3    0    1
 -2      2271      2478      3511      3545
 -1      7677    3    0    1
 -2       423       277      3653      1895
 -1      7678    3    0    1
 -2      1587        81      2927      2928
 -1      7679    3    0    1
 -2      1509       716      2685      2876
 -1      7680    3    0    1
 -2       319      1561      2724      1715
 -1      7681    3    0    1
 -2      1533        21      1727      3060
 -1      7682    3    0    1
 -2      2867      1553      3574      3262
 -1      7683    3    0    1
 -2      2511      1543      2616      2999
 -1      7684    3    0    1
 -2      3074      3036      3576      3351
 -1      7685    3    0    1
 -2       169        81      1587      2928
 -1      7686    3    0    1
 -2      3653       423      1895      3489
 -1      7687    3    0    1
 -2      1654      1479      2784      3184
 -1      7688    3    0    1
 -2       655       662      2739      3128
 -1      7689    3    0    1
 -2      1445      1851      1852      3469
 -1      7690    3    0    1
 -2      2619      2600      3517      2977
 -1      7691    3    0    1
 -2      3617       391      3619      3627
 -1      7692    3    0    1
 -2      2744      1333      2789      3020
 -1      7693    3    0    1
 -2       316      1635      1685      3532
 -1      7694    3    0    1
 -2      1615      1614      2844      2947
 -1      7695    3    0    1
 -2      1585       277      1586      2971
 -1      7696    3    0    1
 -2      1610      1489      1611      3007
 -1      7697    3    0    1
 -2      2364      2594      2595      3529
 -1      7698    3    0    1
 -2      2993      3140      3638      3376
 -1      7699    3    0    1
 -2      3126      1829      3616      3312
 -1      7700    3    0    1
 -2       422       101      1652      3600
 -1      7701    3    0    1
 -2       807      1335      2093       806
 -1      7702    3    0    1
 -2      2493      2228      2525      3526
 -1      7703    3    0    1
 -2       278       335      2769      3529
 -1      7704    3    0    1
 -2      2467      2228      2493      3526
 -1      7705    3    0    1
 -2      1032      2127      2236      3594
 -1      7706    3    0    1
 -2      1067       279      2769      3529
 -1      7707    3    0    1
 -2       554      1736      3149      3241
 -1      7708    3    0    1
 -2      1426      1425      1460      3417
 -1      7709    3    0    1
 -2      1336      2271      3511      3602
 -1      7710    3    0    1
 -2       316       205      3123      1793
 -1      7711    3    0    1
 -2      1640      2985      3077      3637
 -1      7712    3    0    1
 -2      3516      2696      3553      3296
 -1      7713    3    0    1
 -2      1600      2921      1853      1854
 -1      7714    3    0    1
 -2      3005      3013      3014      3110
 -1      7715    3    0    1
 -2      2737      3571      3632      3669
 -1      7716    3    0    1
 -2      1782      2538      1783      3115
 -1      7717    3    0    1
 -2       170       328      3518      1798
 -1      7718    3    0    1
 -2      2945      2695      3055      3066
 -1      7719    3    0    1
 -2      3512      2427      3140      3638
 -1      7720    3    0    1
 -2      2632      2692      3550      3676
 -1      7721    3    0    1
 -2      1686      2636      3549      3243
 -1      7722    3    0    1
 -2      1468      1467      2945      3055
 -1      7723    3    0    1
 -2      1924        57      1930      3494
 -1      7724    3    0    1
 -2       771       770      1330      3527
 -1      7725    3    0    1
 -2       770      2629      2832      3527
 -1      7726    3    0    1
 -2      2185      2469      2500      3534
 -1      7727    3    0    1
 -2      1466      1465      1573      3229
 -1      7728    3    0    1
 -2      2998      2829      3558      3177
 -1      7729    3    0    1
 -2      2953      1505      3015      3278
 -1      7730    3    0    1
 -2      1531      2996      1824      1825
 -1      7731    3    0    1
 -2      1427      2486      2561      3366
 -1      7732    3    0    1
 -2      2500      2469      3514      3534
 -1      7733    3    0    1
 -2      2995      1583      1811      1812
 -1      7734    3    0    1
 -2      2914      3558      3654      3682
 -1      7735    3    0    1
 -2      3546      3565      1305      3500
 -1      7736    3    0    1
 -2       395       153      1886      3450
 -1      7737    3    0    1
 -2      1040       770      2832      3527
 -1      7738    3    0    1
 -2      1595      1442      2748      3527
 -1      7739    3    0    1
 -2      3556      2804      3301      3358
 -1      7740    3    0    1
 -2      3508       383      3642      1289
 -1      7741    3    0    1
 -2       771      1330      2629      3527
 -1      7742    3    0    1
 -2       277      1585      3596      3358
 -1      7743    3    0    1
 -2      3275      1709      3644      3341
 -1      7744    3    0    1
 -2       990      1308      3538      3613
 -1      7745    3    0    1
 -2      2558      1695      3467      3493
 -1      7746    3    0    1
 -2      2525      2281      2684      3528
 -1      7747    3    0    1
 -2      2493      2525      2684      3528
 -1      7748    3    0    1
 -2      2585      2171      2586      3542
 -1      7749    3    0    1
 -2      1625      1691      3043      3371
 -1      7750    3    0    1
 -2      3514      1429      3534      3562
 -1      7751    3    0    1
 -2      2754      2598      2942      3664
 -1      7752    3    0    1
 -2      1485      1486      1814      3327
 -1      7753    3    0    1
 -2      2839      1541      3332      3345
 -1      7754    3    0    1
 -2      1630      1629      2961      2966
 -1      7755    3    0    1
 -2      1479      1614      1615      2947
 -1      7756    3    0    1
 -2      1559      3117      1786      3333
 -1      7757    3    0    1
 -2      2518      1417      2588      3599
 -1      7758    3    0    1
 -2      1308      3538      3613      3623
 -1      7759    3    0    1
 -2      3566      3520      3590      3631
 -1      7760    3    0    1
 -2      2696      2532      3516      3553
 -1      7761    3    0    1
 -2      2501      2960      2998      3177
 -1      7762    3    0    1
 -2      1483      3367      1924      3494
 -1      7763    3    0    1
 -2      2498      2499      2651      3530
 -1      7764    3    0    1
 -2      2714      2519      3363      3690
 -1      7765    3    0    1
 -2        57      2801      1674      1924
 -1      7766    3    0    1
 -2      2651      2499      2742      3530
 -1      7767    3    0    1
 -2      3499      3520      3539      3631
 -1      7768    3    0    1
 -2      2498      2651      2799      3530
 -1      7769    3    0    1
 -2      2706      2488      2733      3530
 -1      7770    3    0    1
 -2      2960      1495      2998      3177
 -1      7771    3    0    1
 -2       941      3508      3614      3642
 -1      7772    3    0    1
 -2      2737      3533      3626      3632
 -1      7773    3    0    1
 -2      2641      1696      3144      3359
 -1      7774    3    0    1
 -2      2913      1661      3177      3672
 -1      7775    3    0    1
 -2      2676      2501      3558      3177
 -1      7776    3    0    1
 -2      1487      2620      2826      3081
 -1      7777    3    0    1
 -2      2467      2466      3021      3232
 -1      7778    3    0    1
 -2      1024       229      1326      3694
 -1      7779    3    0    1
 -2      1326       229      3594      3694
 -1      7780    3    0    1
 -2      1495      1496      2892      3293
 -1      7781    3    0    1
 -2      2969      2978      3560      3620
 -1      7782    3    0    1
 -2      1027       219      2307      1902
 -1      7783    3    0    1
 -2       607       610      2773      3620
 -1      7784    3    0    1
 -2      1463      1567      1568      3098
 -1      7785    3    0    1
 -2      1483      2801      3348      1924
 -1      7786    3    0    1
 -2      1553      1706      1707      2988
 -1      7787    3    0    1
 -2      1518      1517      1551      3288
 -1      7788    3    0    1
 -2       624       632       978      1889
 -1      7789    3    0    1
 -2      1759      1816      3252      3259
 -1      7790    3    0    1
 -2      3541      3589      3617      3619
 -1      7791    3    0    1
 -2       428      3605      3694      3713
 -1      7792    3    0    1
 -2      3240      3292      1896      1897
 -1      7793    3    0    1
 -2      2875      1257      3558      3451
 -1      7794    3    0    1
 -2      3054      3623      3356      1887
 -1      7795    3    0    1
 -2       964      1302      2464      3627
 -1      7796    3    0    1
 -2      2525      2228      2760      3531
 -1      7797    3    0    1
 -2      1931      2525      2760      3531
 -1      7798    3    0    1
 -2      1931      2281      2525      3531
 -1      7799    3    0    1
 -2      2874      1769      3073      3644
 -1      7800    3    0    1
 -2       590       583      3076      1838
 -1      7801    3    0    1
 -2      3530      2813      3315      3741
 -1      7802    3    0    1
 -2      2427      2121      2919      2993
 -1      7803    3    0    1
 -2      1674      2801      3120      1924
 -1      7804    3    0    1
 -2      3555      2641      3580      3144
 -1      7805    3    0    1
 -2      3038      1443      1767      3302
 -1      7806    3    0    1
 -2       941       383      1289      3642
 -1      7807    3    0    1
 -2      1473      2641      3144      2847
 -1      7808    3    0    1
 -2      1736      2939      1737      3149
 -1      7809    3    0    1
 -2      1432      3508      3572      3615
 -1      7810    3    0    1
 -2      1494      1493      2758      3158
 -1      7811    3    0    1
 -2      2514      3142      3342      3719
 -1      7812    3    0    1
 -2      2852      1834      1835      1836
 -1      7813    3    0    1
 -2      1465      3101      3106      3229
 -1      7814    3    0    1
 -2      2775      2649      2841      3385
 -1      7815    3    0    1
 -2      1628       277      3522      2971
 -1      7816    3    0    1
 -2      3499      2290      3520      3631
 -1      7817    3    0    1
 -2      2315      2589      3711      3737
 -1      7818    3    0    1
 -2      1240      2772      1699      2915
 -1      7819    3    0    1
 -2      3577      2831      3146      3372
 -1      7820    3    0    1
 -2      3237      3533      3258      3626
 -1      7821    3    0    1
 -2      3571      3533      3237      3626
 -1      7822    3    0    1
 -2      3045      1581      3206      3622
 -1      7823    3    0    1
 -2      3121      2829      3177      3672
 -1      7824    3    0    1
 -2      1786      3117      3233      3333
 -1      7825    3    0    1
 -2      3538      2877      3613      3623
 -1      7826    3    0    1
 -2      1416      3541      3068      3271
 -1      7827    3    0    1
 -2      3222      3122      3610      3263
 -1      7828    3    0    1
 -2      2460      2671      3573      3574
 -1      7829    3    0    1
 -2      1556      1555      3134      3144
 -1      7830    3    0    1
 -2      1696      1555      1697      3144
 -1      7831    3    0    1
 -2      2779      2490      3603      3679
 -1      7832    3    0    1
 -2      1474      1473      2847      3216
 -1      7833    3    0    1
 -2      3500       972      3546      3570
 -1      7834    3    0    1
 -2      2707      2909      3646      3692
 -1      7835    3    0    1
 -2      1305      1543      2687      3630
 -1      7836    3    0    1
 -2      2617      2786      3252      3259
 -1      7837    3    0    1
 -2      3102      2860      3581      3650
 -1      7838    3    0    1
 -2       391       140      1836      3617
 -1      7839    3    0    1
 -2      2751      2924      3150      3591
 -1      7840    3    0    1
 -2      3292      2669      3660      3426
 -1      7841    3    0    1
 -2         1        26      1813      3382
 -1      7842    3    0    1
 -2       786      3122      3222      3263
 -1      7843    3    0    1
 -2      3079      3080      3581      3263
 -1      7844    3    0    1
 -2       425       241      2963      1862
 -1      7845    3    0    1
 -2      1503      1535      2956      3187
 -1      7846    3    0    1
 -2      1333      2744      3591      3020
 -1      7847    3    0    1
 -2      1433      1603      2862      3074
 -1      7848    3    0    1
 -2       673      1782      1783      3115
 -1      7849    3    0    1
 -2      2851      1711      3163      3290
 -1      7850    3    0    1
 -2       421       387      1784      3326
 -1      7851    3    0    1
 -2        20      1616      1617      3424
 -1      7852    3    0    1
 -2      1679      1678      3032      3261
 -1      7853    3    0    1
 -2      3042      3056      3567      3668
 -1      7854    3    0    1
 -2        57       225      1913      1925
 -1      7855    3    0    1
 -2      1066       101      1285      3585
 -1      7856    3    0    1
 -2      3575      3526      3583      3585
 -1      7857    3    0    1
 -2      1479      1614      2947      3184
 -1      7858    3    0    1
 -2      3506      2091      2807      3658
 -1      7859    3    0    1
 -2         1        26      1826      3350
 -1      7860    3    0    1
 -2      3569      3544      3681      3729
 -1      7861    3    0    1
 -2      1294      2139      3512      3578
 -1      7862    3    0    1
 -2      1294       956      2139      3578
 -1      7863    3    0    1
 -2      3117      1559      1786      1787
 -1      7864    3    0    1
 -2      3558      1880      3391      3451
 -1      7865    3    0    1
 -2      3581      3222      3610      3263
 -1      7866    3    0    1
 -2      1411      1576      3587      3713
 -1      7867    3    0    1
 -2      3172      3556      3596      3610
 -1      7868    3    0    1
 -2      1489      1490      1611      3007
 -1      7869    3    0    1
 -2        13      3090      3217      1911
 -1      7870    3    0    1
 -2      2990       964      3620      1298
 -1      7871    3    0    1
 -2      1035      3734      1926      1927
 -1      7872    3    0    1
 -2      1567      2992      1794      1795
 -1      7873    3    0    1
 -2      1640      1641      2985      1777
 -1      7874    3    0    1
 -2      1656       391      1836      3617
 -1      7875    3    0    1
 -2      3550      2872      3620      3676
 -1      7876    3    0    1
 -2      3066      2707      3646      3692
 -1      7877    3    0    1
 -2      2909      2574      3561      3692
 -1      7878    3    0    1
 -2      1757      1640      3637      3334
 -1      7879    3    0    1
 -2      1453      1454      1843      3426
 -1      7880    3    0    1
 -2      2680      2854      2972      3561
 -1      7881    3    0    1
 -2       253       426      1803      1868
 -1      7882    3    0    1
 -2      1528      1593      3133      3727
 -1      7883    3    0    1
 -2      2674      1467      3517      3238
 -1      7884    3    0    1
 -2      2903      1624      1592      1591
 -1      7885    3    0    1
 -2      2866      3541      3266      3271
 -1      7886    3    0    1
 -2      1620      1621      2810      1830
 -1      7887    3    0    1
 -2      2680      1437      2972      3073
 -1      7888    3    0    1
 -2      3346      1483      1930      3494
 -1      7889    3    0    1
 -2      2573      2559      3580      3671
 -1      7890    3    0    1
 -2      3456      3557      3489      3742
 -1      7891    3    0    1
 -2      1624      2903      3556      3272
 -1      7892    3    0    1
 -2      2731      1627      2905      3313
 -1      7893    3    0    1
 -2      1700      3520      3590      3566
 -1      7894    3    0    1
 -2       386       144      3552      3070
 -1      7895    3    0    1
 -2       144       965      3552      3070
 -1      7896    3    0    1
 -2      2825      1336      3172      3596
 -1      7897    3    0    1
 -2       139       386      3552      3070
 -1      7898    3    0    1
 -2      1541      1840      1841      3332
 -1      7899    3    0    1
 -2       972      3500      3564      3570
 -1      7900    3    0    1
 -2      3500      3546      3563      3714
 -1      7901    3    0    1
 -2      3138       768      3626      1871
 -1      7902    3    0    1
 -2      1467      1468      2945      2979
 -1      7903    3    0    1
 -2      2895      1443      1767      3645
 -1      7904    3    0    1
 -2      3509      3042      3567      3668
 -1      7905    3    0    1
 -2      2872      1162      3034      1861
 -1      7906    3    0    1
 -2      1471      1646      3175      3236
 -1      7907    3    0    1
 -2      3137      3549      3673      3462
 -1      7908    3    0    1
 -2      2816      1602      3605      3458
 -1      7909    3    0    1
 -2      2468      2456      3501      3565
 -1      7910    3    0    1
 -2      3589      3617      3619      3627
 -1      7911    3    0    1
 -2       263        40      1873      1892
 -1      7912    3    0    1
 -2      1007      1311      3431      3485
 -1      7913    3    0    1
 -2      3011      2930      3593      3296
 -1      7914    3    0    1
 -2      1702      2854      3073      3276
 -1      7915    3    0    1
 -2      2877      3613      3623      3322
 -1      7916    3    0    1
 -2        22       111      2897      1770
 -1      7917    3    0    1
 -2      1640      1757      3579      3307
 -1      7918    3    0    1
 -2      1606      1607      2917      3128
 -1      7919    3    0    1
 -2      1625        24      1626      1791
 -1      7920    3    0    1
 -2      2902      2694      3046      3633
 -1      7921    3    0    1
 -2      1776      1640      1777      3377
 -1      7922    3    0    1
 -2        22      2897      1769      1770
 -1      7923    3    0    1
 -2      2735      2663      2877      3538
 -1      7924    3    0    1
 -2       990      1308      2735      3538
 -1      7925    3    0    1
 -2      2740      3248      3347      3667
 -1      7926    3    0    1
 -2      3094      3087      1818      1819
 -1      7927    3    0    1
 -2      1538      1537      2849      1744
 -1      7928    3    0    1
 -2      1701      2855      2859      3265
 -1      7929    3    0    1
 -2      2849      1537      1743      1744
 -1      7930    3    0    1
 -2      1492      1491      2750      2961
 -1      7931    3    0    1
 -2      1537      2928      1743      1744
 -1      7932    3    0    1
 -2      2677      2530      3675      3728
 -1      7933    3    0    1
 -2      2587      2575      2685      2876
 -1      7934    3    0    1
 -2      2669      2510      3606      3660
 -1      7935    3    0    1
 -2      2783       680      1846      3387
 -1      7936    3    0    1
 -2      2700      2878      2917      3655
 -1      7937    3    0    1
 -2      1692      3009      1863      1864
 -1      7938    3    0    1
 -2      1554      1553      1707      2988
 -1      7939    3    0    1
 -2      1523      1522      1662      2913
 -1      7940    3    0    1
 -2      2676      1661      1496      1495
 -1      7941    3    0    1
 -2      2951      3107      3277      3622
 -1      7942    3    0    1
 -2      1559      1560      1858      3373
 -1      7943    3    0    1
 -2      1475      1734      2973      3247
 -1      7944    3    0    1
 -2      1511      2667      3422      3474
 -1      7945    3    0    1
 -2      3037      3620      3550      3334
 -1      7946    3    0    1
 -2       133       139      3536      3552
 -1      7947    3    0    1
 -2       153       395      1543      3450
 -1      7948    3    0    1
 -2      1543      1544      2616      2999
 -1      7949    3    0    1
 -2      1585      1507      1586      2907
 -1      7950    3    0    1
 -2      1611      1610      3007      3269
 -1      7951    3    0    1
 -2       144       965      2450      3552
 -1      7952    3    0    1
 -2      2450       965      2579      3552
 -1      7953    3    0    1
 -2      1796      3629      1886      3450
 -1      7954    3    0    1
 -2      1833      1832      1843      3292
 -1      7955    3    0    1
 -2      1625      1626      2800      3282
 -1      7956    3    0    1
 -2      1600      1487      2965      3102
 -1      7957    3    0    1
 -2      3558      2676      3177      3672
 -1      7958    3    0    1
 -2       662       655      2713      3279
 -1      7959    3    0    1
 -2       644       637      1593      3010
 -1      7960    3    0    1
 -2      2670      2984      3230      3664
 -1      7961    3    0    1
 -2      1603        22      2897      1842
 -1      7962    3    0    1
 -2      2719      1716      3085      3352
 -1      7963    3    0    1
 -2      3051      1477      3454      2942
 -1      7964    3    0    1
 -2      1456      1455      3207      3347
 -1      7965    3    0    1
 -2      1506      1505      1575      3015
 -1      7966    3    0    1
 -2      2928      2927      2960      2998
 -1      7967    3    0    1
 -2       229       428      3694      3713
 -1      7968    3    0    1
 -2       241      3527      1729      3624
 -1      7969    3    0    1
 -2      1766      2880      3252      3319
 -1      7970    3    0    1
 -2      2606      2784      3184      3722
 -1      7971    3    0    1
 -2      3253      3590      3627      3631
 -1      7972    3    0    1
 -2      1667      1668      1712      3290
 -1      7973    3    0    1
 -2      1305      2456      3500      3565
 -1      7974    3    0    1
 -2      2573      2755      2757      3683
 -1      7975    3    0    1
 -2      1490      1489      1710      3275
 -1      7976    3    0    1
 -2      3367      1483      1924      1925
 -1      7977    3    0    1
 -2      2872      3550      3091      3295
 -1      7978    3    0    1
 -2      1602       428      3605      3694
 -1      7979    3    0    1
 -2      1517      1518      2887      3288
 -1      7980    3    0    1
 -2      1012       708      2188      3693
 -1      7981    3    0    1
 -2      1450      1678      3576      3223
 -1      7982    3    0    1
 -2      2680      1437      1619      2972
 -1      7983    3    0    1
 -2      3108      2569      3598      3625
 -1      7984    3    0    1
 -2      2456      2136      3501      3565
 -1      7985    3    0    1
 -2      2829      1251      2926      3558
 -1      7986    3    0    1
 -2      2501      2926      3024      3558
 -1      7987    3    0    1
 -2      2622      2635      2803      3597
 -1      7988    3    0    1
 -2      2601      1585      3596      3291
 -1      7989    3    0    1
 -2      2228      2760      3531      3583
 -1      7990    3    0    1
 -2       750      1706      3574      3379
 -1      7991    3    0    1
 -2      2323      2461      2866      3068
 -1      7992    3    0    1
 -2      1698      1197      3559      3211
 -1      7993    3    0    1
 -2      1453      2609      3287      3343
 -1      7994    3    0    1
 -2      1716      1493      1717      3124
 -1      7995    3    0    1
 -2      2888      1162       469      1160
 -1      7996    3    0    1
 -2       469      2773      1162      2888
 -1      7997    3    0    1
 -2      1162      2773      2872      2888
 -1      7998    3    0    1
 -2      1495      1661      3293      3308
 -1      7999    3    0    1
 -2      2213       981      1305       643
 -1      8000    3    0    1
 -2      3591      2751      3209      3395
 -1      8001    3    0    1
 -2      2733      2706      3530      3396
 -1      8002    3    0    1
 -2      2665      2637      3549      3673
 -1      8003    3    0    1
 -2      1664       205      1665      3123
 -1      8004    3    0    1
 -2      3613      1410      3647      3718
 -1      8005    3    0    1
 -2      3535      2683      3099      3576
 -1      8006    3    0    1
 -2      1499      1657      1658      2912
 -1      8007    3    0    1
 -2      2562      2663      2735      3654
 -1      8008    3    0    1
 -2      2885      1550      2983      2991
 -1      8009    3    0    1
 -2      1567      1463      2910      3026
 -1      8010    3    0    1
 -2       227       751      1038      1882
 -1      8011    3    0    1
 -2      1676      1667      3560      3365
 -1      8012    3    0    1
 -2       949      2494      3508      3572
 -1      8013    3    0    1
 -2      2825      2712      3556      3172
 -1      8014    3    0    1
 -2      2838      1469      2887      3027
 -1      8015    3    0    1
 -2      1540      1539      3087      1819
 -1      8016    3    0    1
 -2      1553      1650      2867      3574
 -1      8017    3    0    1
 -2      1606      1789      1790      3128
 -1      8018    3    0    1
 -2       205      1664      1665      3234
 -1      8019    3    0    1
 -2      1667      2851      1711      3163
 -1      8020    3    0    1
 -2      2643      2715      3555      3580
 -1      8021    3    0    1
 -2      1527      1528      1593      3133
 -1      8022    3    0    1
 -2      2658      2547      2683      3535
 -1      8023    3    0    1
 -2      1469      1517      2887      3027
 -1      8024    3    0    1
 -2      1535       691      1536      3240
 -1      8025    3    0    1
 -2      1824      1531      1825      3384
 -1      8026    3    0    1
 -2      3498      3500      3564      3629
 -1      8027    3    0    1
 -2      2641      3135      3580      3144
 -1      8028    3    0    1
 -2      3013      3008      3039      3650
 -1      8029    3    0    1
 -2      3134      1555      3135      3144
 -1      8030    3    0    1
 -2      2598      2670      3230      3664
 -1      8031    3    0    1
 -2       227      1038      2263      3582
 -1      8032    3    0    1
 -2      1716      2719      3085      3283
 -1      8033    3    0    1
 -2       662       655      1789      3128
 -1      8034    3    0    1
 -2      1606      3088      1789      3128
 -1      8035    3    0    1
 -2      1553      1554      1707      3262
 -1      8036    3    0    1
 -2      1433      2627      3018      3351
 -1      8037    3    0    1
 -2      2526      1066      3516      3584
 -1      8038    3    0    1
 -2      1735      1625      2972      3027
 -1      8039    3    0    1
 -2      3508      2684      3528      3572
 -1      8040    3    0    1
 -2       241      1729      2963      1862
 -1      8041    3    0    1
 -2       277      1585      1586      3291
 -1      8042    3    0    1
 -2      2091      2469      3506      3701
 -1      8043    3    0    1
 -2      2736      1593      2962      3103
 -1      8044    3    0    1
 -2      3580      2715      3174      3616
 -1      8045    3    0    1
 -2       804       799      3004      3299
 -1      8046    3    0    1
 -2      1417      3505      2807      3658
 -1      8047    3    0    1
 -2      1694      2958      1750      1752
 -1      8048    3    0    1
 -2      1658      1657      2768      3153
 -1      8049    3    0    1
 -2      3252      1811      1860      3319
 -1      8050    3    0    1
 -2      1659       241      1660      3209
 -1      8051    3    0    1
 -2       588       596       961      1804
 -1      8052    3    0    1
 -2      1834       140      1835      1836
 -1      8053    3    0    1
 -2      1757      2770      1758      3377
 -1      8054    3    0    1
 -2      3642      3548      3680      3449
 -1      8055    3    0    1
 -2      2889      2476      3553      3633
 -1      8056    3    0    1
 -2      1739      3005      3013      3014
 -1      8057    3    0    1
 -2      3036      3074      3576      3607
 -1      8058    3    0    1
 -2      1741      1467      1742      3238
 -1      8059    3    0    1
 -2      3633      2710      3584      3516
 -1      8060    3    0    1
 -2      3516      2710      3553      3633
 -1      8061    3    0    1
 -2      3196      1633      3216      3381
 -1      8062    3    0    1
 -2       975       158      2537      1904
 -1      8063    3    0    1
 -2      3327      1813      3712      3465
 -1      8064    3    0    1
 -2      3558      1257      1880      3451
 -1      8065    3    0    1
 -2       383       112      1821      3246
 -1      8066    3    0    1
 -2      1490      1489      1611      3075
 -1      8067    3    0    1
 -2      1652      3583      3600      3635
 -1      8068    3    0    1
 -2      2953      1597      3039      3110
 -1      8069    3    0    1
 -2      1731      1574      1732      3064
 -1      8070    3    0    1
 -2       277      3602      3634      3653
 -1      8071    3    0    1
 -2      3545      3511      3551      3608
 -1      8072    3    0    1
 -2      3521      1657      3227      3716
 -1      8073    3    0    1
 -2      1640      2985      1776      1777
 -1      8074    3    0    1
 -2      2694      1204      1627      2905
 -1      8075    3    0    1
 -2      1206       499      2672      2905
 -1      8076    3    0    1
 -2       498      1204      2694      2905
 -1      8077    3    0    1
 -2      1564      1206      2672      2905
 -1      8078    3    0    1
 -2      1746      1539      3166      3289
 -1      8079    3    0    1
 -2      2762      2832      3533      3237
 -1      8080    3    0    1
 -2      1293       133      2392      3552
 -1      8081    3    0    1
 -2      2629      2997      3571      3247
 -1      8082    3    0    1
 -2      3585       101      3600      3635
 -1      8083    3    0    1
 -2      1468      1467      1742      2979
 -1      8084    3    0    1
 -2      2780      1503      3101      3625
 -1      8085    3    0    1
 -2       277      1628      3522      3557
 -1      8086    3    0    1
 -2      1489      1610      3075      3363
 -1      8087    3    0    1
 -2      2514      2468      3501      3698
 -1      8088    3    0    1
 -2      3137      1471      1807      1808
 -1      8089    3    0    1
 -2      2523      2491      3577      3687
 -1      8090    3    0    1
 -2      2958      1694      1750      3647
 -1      8091    3    0    1
 -2      1646        13      1683      3090
 -1      8092    3    0    1
 -2      1608      1438      3563      3314
 -1      8093    3    0    1
 -2      1724       277      3602      3634
 -1      8094    3    0    1
 -2       745      1706      1707      3262
 -1      8095    3    0    1
 -2      2946      2842      3003      3658
 -1      8096    3    0    1
 -2      1294      1746      3675      3728
 -1      8097    3    0    1
 -2      1240      1241      2791      2915
 -1      8098    3    0    1
 -2      2614      2821      3581      3278
 -1      8099    3    0    1
 -2      1718      1195      3559      3344
 -1      8100    3    0    1
 -2       709      1509      1510      3475
 -1      8101    3    0    1
 -2      3007      2691      3621      3341
 -1      8102    3    0    1
 -2      3561      3089      3621      3341
 -1      8103    3    0    1
 -2      1704      3619      3271      1884
 -1      8104    3    0    1
 -2      1638      1513      1639      3030
 -1      8105    3    0    1
 -2      1043       243      2384      1881
 -1      8106    3    0    1
 -2      1780      1581      3322      3655
 -1      8107    3    0    1
 -2      1505      1574      3015      3278
 -1      8108    3    0    1
 -2      2762      3533      3265      3636
 -1      8109    3    0    1
 -2      3089      3621      3349      3405
 -1      8110    3    0    1
 -2      2693      2909      3561      3089
 -1      8111    3    0    1
 -2      3058      1746      3326      3728
 -1      8112    3    0    1
 -2      1410      1694      3623      3647
 -1      8113    3    0    1
 -2      2918      3555      3580      3671
 -1      8114    3    0    1
 -2      1032       329      3594      3689
 -1      8115    3    0    1
 -2      3057      2671      3574      3262
 -1      8116    3    0    1
 -2      3513      3514      3540      3640
 -1      8117    3    0    1
 -2      1440      2848      3167      3688
 -1      8118    3    0    1
 -2      1421      3498      3564      3629
 -1      8119    3    0    1
 -2       768      1871      3661      3401
 -1      8120    3    0    1
 -2       410      1312      3640      3652
 -1      8121    3    0    1
 -2      1240      2643      2772      2915
 -1      8122    3    0    1
 -2      3526      1599      3642      3449
 -1      8123    3    0    1
 -2      2569      2566      3598      3625
 -1      8124    3    0    1
 -2      2242      1298      3590      3631
 -1      8125    3    0    1
 -2      3539      3520      3566      3631
 -1      8126    3    0    1
 -2       727       732      1774      3130
 -1      8127    3    0    1
 -2      1298      2242      3253      3631
 -1      8128    3    0    1
 -2      3181      1809      3183      3393
 -1      8129    3    0    1
 -2      1521      2801      3059      3120
 -1      8130    3    0    1
 -2      3557      3634      3653      3742
 -1      8131    3    0    1
 -2      3565       981      3678      3716
 -1      8132    3    0    1
 -2      2466      2228      3176      3232
 -1      8133    3    0    1
 -2      3623      1657      3356      1887
 -1      8134    3    0    1
 -2       171      3623      1877      1887
 -1      8135    3    0    1
 -2       410      1750      3613      3322
 -1      8136    3    0    1
 -2      2812      1676      3560      3365
 -1      8137    3    0    1
 -2       391       964      3619      3627
 -1      8138    3    0    1
 -2      2369      2233      3563      3427
 -1      8139    3    0    1
 -2      3495      1420      1516      3594
 -1      8140    3    0    1
 -2      2644      3255      3688      3400
 -1      8141    3    0    1
 -2      1733      1475      1734      2973
 -1      8142    3    0    1
 -2       978       984      3588      1889
 -1      8143    3    0    1
 -2      3019      1657      3623      1887
 -1      8144    3    0    1
 -2      1420      3495      1516      3739
 -1      8145    3    0    1
 -2      1438      1730      3563      3480
 -1      8146    3    0    1
 -2      3533      2737      3571      3632
 -1      8147    3    0    1
 -2      2909      3621      3289      3646
 -1      8148    3    0    1
 -2      2989      3533      3571      3632
 -1      8149    3    0    1
 -2      1667      2978      3560      3365
 -1      8150    3    0    1
 -2      1736       554      3633      3380
 -1      8151    3    0    1
 -2      1703      3074      3127      3335
 -1      8152    3    0    1
 -2      1439      2501      2926      3024
 -1      8153    3    0    1
 -2      1305      3546      3611      3630
 -1      8154    3    0    1
 -2      1593       637      1594      3010
 -1      8155    3    0    1
 -2       128      1590      3578      1794
 -1      8156    3    0    1
 -2      3619       140      3271      1884
 -1      8157    3    0    1
 -2      1434      3499      3512      3638
 -1      8158    3    0    1
 -2      2888      1160      2906      3034
 -1      8159    3    0    1
 -2      1588      1644      2983      3033
 -1      8160    3    0    1
 -2      2701      2702      2855      3636
 -1      8161    3    0    1
 -2      1809      3191      3461      3469
 -1      8162    3    0    1
 -2      2939      1636      2981      3241
 -1      8163    3    0    1
 -2      1644       553      2983      3033
 -1      8164    3    0    1
 -2      1678      1612      1679      3032
 -1      8165    3    0    1
 -2      3512      2427      3572      3140
 -1      8166    3    0    1
 -2      2501      1439      2926      2927
 -1      8167    3    0    1
 -2      1823       329      3249      3689
 -1      8168    3    0    1
 -2      2486      2548      3641      3366
 -1      8169    3    0    1
 -2      2534      2492      2602      3577
 -1      8170    3    0    1
 -2      2809      2717      3576      3223
 -1      8171    3    0    1
 -2      2456      2503      3500      3565
 -1      8172    3    0    1
 -2      1574      1731      1732      3193
 -1      8173    3    0    1
 -2      1482      1481      3047      1779
 -1      8174    3    0    1
 -2      3618      3339      3476      3742
 -1      8175    3    0    1
 -2      2744      3559      3083      3697
 -1      8176    3    0    1
 -2      3515      2462      2808      3666
 -1      8177    3    0    1
 -2      1015      1319      3523      3601
 -1      8178    3    0    1
 -2      1624      1592      1591      2930
 -1      8179    3    0    1
 -2      2535      1623      1624      2930
 -1      8180    3    0    1
 -2      1650      1457      1651      3012
 -1      8181    3    0    1
 -2      1457      1458      1651      3012
 -1      8182    3    0    1
 -2      3060      1533      3062      3592
 -1      8183    3    0    1
 -2       626      1555      2850      3470
 -1      8184    3    0    1
 -2      2841      2649      3116      3385
 -1      8185    3    0    1
 -2      3573      3259      3319      3360
 -1      8186    3    0    1
 -2       519       625      2640      2931
 -1      8187    3    0    1
 -2       519      2640      2723      2931
 -1      8188    3    0    1
 -2      1606      1780      1781      3298
 -1      8189    3    0    1
 -2      2402      2459      3715      3739
 -1      8190    3    0    1
 -2      2930      1591      3593      3296
 -1      8191    3    0    1
 -2      2213       981      2319      3565
 -1      8192    3    0    1
 -2      3011       804      1771      3296
 -1      8193    3    0    1
 -2      3678      1730      1893      3480
 -1      8194    3    0    1
 -2      1591      2930      1771      3296
 -1      8195    3    0    1
 -2      2640      1302      2765      2931
 -1      8196    3    0    1
 -2      2548      1501      3641      3366
 -1      8197    3    0    1
 -2      2908      3121      3338      3672
 -1      8198    3    0    1
 -2      1811      1816      3252      1860
 -1      8199    3    0    1
 -2      3651       180      3719      3472
 -1      8200    3    0    1
 -2      3504      2856      3641      3670
 -1      8201    3    0    1
 -2      1750      1694      1752      3647
 -1      8202    3    0    1
 -2      3039      2836      3581      3650
 -1      8203    3    0    1
 -2      1467      1741      1742      2979
 -1      8204    3    0    1
 -2       277       423      1586      2971
 -1      8205    3    0    1
 -2        41       236      1632      3408
 -1      8206    3    0    1
 -2      1462      1461      1710      3028
 -1      8207    3    0    1
 -2       277      1585      3522      2971
 -1      8208    3    0    1
 -2      1197      1195      2678      3559
 -1      8209    3    0    1
 -2      3120      1674      1924      1925
 -1      8210    3    0    1
 -2      2662      1776      1777      3377
 -1      8211    3    0    1
 -2      2809      1612      3099      1838
 -1      8212    3    0    1
 -2      1639      1638      2852      3157
 -1      8213    3    0    1
 -2      2484      2638      3538      3654
 -1      8214    3    0    1
 -2      1800      1891      1892      3447
 -1      8215    3    0    1
 -2      1503      1465      3101      3625
 -1      8216    3    0    1
 -2      2483      3520      2461      2290
 -1      8217    3    0    1
 -2       972      1305      3546      3570
 -1      8218    3    0    1
 -2      2721      2976      3043      3465
 -1      8219    3    0    1
 -2      1711       608      3163      3290
 -1      8220    3    0    1
 -2      1739      3014      1800      3447
 -1      8221    3    0    1
 -2      2652      2576      3517      3568
 -1      8222    3    0    1
 -2      2770      1640      1757      3579
 -1      8223    3    0    1
 -2      2402      2211      3509      3178
 -1      8224    3    0    1
 -2       205       316      1664      3234
 -1      8225    3    0    1
 -2      1754      3084      1867      3676
 -1      8226    3    0    1
 -2      2814      1234      1727      2935
 -1      8227    3    0    1
 -2      3538      3019      3554      3623
 -1      8228    3    0    1
 -2      3662      3639      3706      3470
 -1      8229    3    0    1
 -2       572       565      1713      2937
 -1      8230    3    0    1
 -2       128      1700      1794      3590
 -1      8231    3    0    1
 -2      1529       171      1877      3718
 -1      8232    3    0    1
 -2      1425      1426      2831      3146
 -1      8233    3    0    1
 -2      2658      3026      3579      3307
 -1      8234    3    0    1
 -2      1515      1548      2786      3145
 -1      8235    3    0    1
 -2       993       170      2295      1798
 -1      8236    3    0    1
 -2      1511      1512      3146      3474
 -1      8237    3    0    1
 -2      2631      1006      3598      3599
 -1      8238    3    0    1
 -2      2726       450      1736      1737
 -1      8239    3    0    1
 -2      1637      1636      2939      1737
 -1      8240    3    0    1
 -2      3061      3060      3062      3592
 -1      8241    3    0    1
 -2      3517      2890      2896      3568
 -1      8242    3    0    1
 -2      1562      1563      2845      1733
 -1      8243    3    0    1
 -2      2510      2626      3523      3660
 -1      8244    3    0    1
 -2      1530      1432      3508      3548
 -1      8245    3    0    1
 -2      3575      1435      3614      3642
 -1      8246    3    0    1
 -2      1477      1478      2942      3051
 -1      8247    3    0    1
 -2       241       425      1660      3209
 -1      8248    3    0    1
 -2      1441      1440      2725      3071
 -1      8249    3    0    1
 -2      2243       984      2544      3588
 -1      8250    3    0    1
 -2      2551      2497      2649      3592
 -1      8251    3    0    1
 -2       396       347      3519      3588
 -1      8252    3    0    1
 -2       346       157      3519      3588
 -1      8253    3    0    1
 -2       157      2528      3519      3588
 -1      8254    3    0    1
 -2      1438      3563      3314      3480
 -1      8255    3    0    1
 -2      2996      1485      1824      1825
 -1      8256    3    0    1
 -2      2948      2649      3274      3706
 -1      8257    3    0    1
 -2       978       984      2243      3588
 -1      8258    3    0    1
 -2      1465      1503      2822      3035
 -1      8259    3    0    1
 -2        81      1726      2927      1743
 -1      8260    3    0    1
 -2      1308      3663      3684      3718
 -1      8261    3    0    1
 -2      1533        21      1534      3084
 -1      8262    3    0    1
 -2      2944       781      1755      1756
 -1      8263    3    0    1
 -2      2574      2693      2909      3561
 -1      8264    3    0    1
 -2      2893      3559      3661      3478
 -1      8265    3    0    1
 -2      2638      3538      3654      3682
 -1      8266    3    0    1
 -2      2331      1333      3511      3643
 -1      8267    3    0    1
 -2      1539      1818      3286      3405
 -1      8268    3    0    1
 -2      1652       101      2881      3635
 -1      8269    3    0    1
 -2      1040      1330      3527      3544
 -1      8270    3    0    1
 -2        42      2934      1811      1859
 -1      8271    3    0    1
 -2      1774      1455      1775      3347
 -1      8272    3    0    1
 -2      1774      2740      3248      3347
 -1      8273    3    0    1
 -2      3668      3666      3724      3725
 -1      8274    3    0    1
 -2      2756      2869      3620      3637
 -1      8275    3    0    1
 -2       721       718      1018      1915
 -1      8276    3    0    1
 -2      2731        26      1813      3350
 -1      8277    3    0    1
 -2      1663      2814      2841      2948
 -1      8278    3    0    1
 -2      1663       932      2814      2948
 -1      8279    3    0    1
 -2      2897        22      1769      1842
 -1      8280    3    0    1
 -2        42       237      1812      1816
 -1      8281    3    0    1
 -2       610      2242      2392      3253
 -1      8282    3    0    1
 -2      1452      1666      2891      3481
 -1      8283    3    0    1
 -2      2493      2466      3526      3680
 -1      8284    3    0    1
 -2      1461      1709      1710      3028
 -1      8285    3    0    1
 -2        80      3391      3394      1894
 -1      8286    3    0    1
 -2      3132      1489      3607      3363
 -1      8287    3    0    1
 -2      2463      1412      2801      3059
 -1      8288    3    0    1
 -2      2657      1719      3152      3596
 -1      8289    3    0    1
 -2       410       990      3613      3647
 -1      8290    3    0    1
 -2      1330      2629      3527      3247
 -1      8291    3    0    1
 -2      3296      3553      3340      3466
 -1      8292    3    0    1
 -2      2940      2593      3659      2951
 -1      8293    3    0    1
 -2       128       956      3578      3631
 -1      8294    3    0    1
 -2      1827      3539      3306      3703
 -1      8295    3    0    1
 -2      2965      1487      3000      3650
 -1      8296    3    0    1
 -2       949      1294      2494      3572
 -1      8297    3    0    1
 -2      1483      1484      2489      3059
 -1      8298    3    0    1
 -2      1755      1767      1768      3302
 -1      8299    3    0    1
 -2      2692      2632      3550      3016
 -1      8300    3    0    1
 -2      2877      3538      3654      3655
 -1      8301    3    0    1
 -2      1322      2116      3525      3587
 -1      8302    3    0    1
 -2      2242      3590      3253      3631
 -1      8303    3    0    1
 -2       193       415      2292      3410
 -1      8304    3    0    1
 -2      2813      2622      3530      3597
 -1      8305    3    0    1
 -2      1446      1445      1852      3469
 -1      8306    3    0    1
 -2      2793      2812      3560      3365
 -1      8307    3    0    1
 -2      1636      1637      1655      3111
 -1      8308    3    0    1
 -2      1505      1597      1598      2954
 -1      8309    3    0    1
 -2      1514      2812      3030      3365
 -1      8310    3    0    1
 -2      3504      2558      2806      3667
 -1      8311    3    0    1
 -2      2466      2121      2919      3680
 -1      8312    3    0    1
 -2      1325       227      2063      3543
 -1      8313    3    0    1
 -2      3598      2566      3387      3679
 -1      8314    3    0    1
 -2       241      3624      1862      3720
 -1      8315    3    0    1
 -2      2063       227      2263      3543
 -1      8316    3    0    1
 -2      1617      1616      3364      3424
 -1      8317    3    0    1
 -2       243       330      2512      3543
 -1      8318    3    0    1
 -2       330       376      2512      3543
 -1      8319    3    0    1
 -2      1041       243      2512      3543
 -1      8320    3    0    1
 -2      2063      2513      2705      3543
 -1      8321    3    0    1
 -2       376       227      2512      3543
 -1      8322    3    0    1
 -2       227      1325      2512      3543
 -1      8323    3    0    1
 -2      2063      2263      2513      3543
 -1      8324    3    0    1
 -2      2529      1628      3522      2971
 -1      8325    3    0    1
 -2      2719      2497      3592      3721
 -1      8326    3    0    1
 -2      3591      1049      3643      3645
 -1      8327    3    0    1
 -2       383      1289      3508      3646
 -1      8328    3    0    1
 -2      3118      1543      3629      3423
 -1      8329    3    0    1
 -2      3248      3195      3347      3667
 -1      8330    3    0    1
 -2      2958      1604      1750      1751
 -1      8331    3    0    1
 -2      1049      1333      3591      3643
 -1      8332    3    0    1
 -2      1491      1492      2777      3063
 -1      8333    3    0    1
 -2      3355      3362      3717      3479
 -1      8334    3    0    1
 -2      3550      2692      3364      3455
 -1      8335    3    0    1
 -2      1442      3510      3527      3544
 -1      8336    3    0    1
 -2      3555      3196      3381      3481
 -1      8337    3    0    1
 -2       644      2703      2987      3682
 -1      8338    3    0    1
 -2      2754      3138      3626      3354
 -1      8339    3    0    1
 -2      1049      3281      3643      3645
 -1      8340    3    0    1
 -2      3654      3558      3672      3682
 -1      8341    3    0    1
 -2      2427      2461      2993      3638
 -1      8342    3    0    1
 -2      2290      3499      3520      3638
 -1      8343    3    0    1
 -2      3520      3539      3566      3638
 -1      8344    3    0    1
 -2      2494      2427      2684      3572
 -1      8345    3    0    1
 -2      1503      1535      1536      2956
 -1      8346    3    0    1
 -2      1736      2939      3149      3241
 -1      8347    3    0    1
 -2      1585      1586      2788      2971
 -1      8348    3    0    1
 -2      1743      3311      3674      1883
 -1      8349    3    0    1
 -2       410      1750      1752      3647
 -1      8350    3    0    1
 -2      3613      1410      3623      3647
 -1      8351    3    0    1
 -2       428       229      1576      3713
 -1      8352    3    0    1
 -2      3051      1692      1863      1864
 -1      8353    3    0    1
 -2       329      3527      2949      3247
 -1      8354    3    0    1
 -2      2761      3521      2967      3173
 -1      8355    3    0    1
 -2      2748      1562      2949      3247
 -1      8356    3    0    1
 -2      1605      1604      2958      1751
 -1      8357    3    0    1
 -2      1716      1557      3612      3337
 -1      8358    3    0    1
 -2      2710      2889      3553      3633
 -1      8359    3    0    1
 -2      1562       329      2949      3247
 -1      8360    3    0    1
 -2      3208      1813      3313      3325
 -1      8361    3    0    1
 -2      1750      2958      1751      1752
 -1      8362    3    0    1
 -2      3039      3581      3278      3650
 -1      8363    3    0    1
 -2      2478      2271      2704      3545
 -1      8364    3    0    1
 -2       144      2745      3536      3552
 -1      8365    3    0    1
 -2      2627      3018      3576      3242
 -1      8366    3    0    1
 -2       180       410      1750      1752
 -1      8367    3    0    1
 -2      1713      2937      3205      3405
 -1      8368    3    0    1
 -2      1834      1638      3383      3702
 -1      8369    3    0    1
 -2      1481      2936      1778      1779
 -1      8370    3    0    1
 -2      3499      1434      3512      3578
 -1      8371    3    0    1
 -2      3106      1572      3159      3161
 -1      8372    3    0    1
 -2       153       395      1608      2999
 -1      8373    3    0    1
 -2      3516      3553      3011      3296
 -1      8374    3    0    1
 -2      2789      2744      3645      3661
 -1      8375    3    0    1
 -2      2699      2617      3573      3259
 -1      8376    3    0    1
 -2      1548      2786      3145      3367
 -1      8377    3    0    1
 -2      1429      3514      3534      3652
 -1      8378    3    0    1
 -2       425       241      1660      2963
 -1      8379    3    0    1
 -2       924       504      2712      2964
 -1      8380    3    0    1
 -2      2862      3074      3127      3607
 -1      8381    3    0    1
 -2      3550      3034      3409      3455
 -1      8382    3    0    1
 -2      1214       924      2712      2964
 -1      8383    3    0    1
 -2      3583      3585      3189      3600
 -1      8384    3    0    1
 -2      1415      2613      1740      3104
 -1      8385    3    0    1
 -2      1195      1718      3559      3104
 -1      8386    3    0    1
 -2      2594      2442      3529      3707
 -1      8387    3    0    1
 -2      2612      2620      2794      3151
 -1      8388    3    0    1
 -2      1546      1547      1670      3151
 -1      8389    3    0    1
 -2      1315       193      2292      3410
 -1      8390    3    0    1
 -2      2633      2460      3573      3677
 -1      8391    3    0    1
 -2       961       967      3536      1804
 -1      8392    3    0    1
 -2      1214      2712      2836      2964
 -1      8393    3    0    1
 -2      1591      2903      3272      3328
 -1      8394    3    0    1
 -2      1465      1572      1573      3229
 -1      8395    3    0    1
 -2      3102      2964      3581      3390
 -1      8396    3    0    1
 -2       626       619      1555      3134
 -1      8397    3    0    1
 -2      3034      1754      1867      3676
 -1      8398    3    0    1
 -2      1813      2731      3208      3313
 -1      8399    3    0    1
 -2      2540      3671      3521      2643
 -1      8400    3    0    1
 -2      3037      3637      3334      3375
 -1      8401    3    0    1
 -2      2473      3509      3525      3605
 -1      8402    3    0    1
 -2      1638      1514      3030      3260
 -1      8403    3    0    1
 -2      1505      1574      3179      3331
 -1      8404    3    0    1
 -2        13       181      1647      3330
 -1      8405    3    0    1
 -2      1583      1584      2699      3360
 -1      8406    3    0    1
 -2      3522      3516      3584      3593
 -1      8407    3    0    1
 -2      3076      2809      1838      1839
 -1      8408    3    0    1
 -2      1810      1809      3181      1851
 -1      8409    3    0    1
 -2      2609      2569      3598      3343
 -1      8410    3    0    1
 -2      1757      1640      1758      3077
 -1      8411    3    0    1
 -2      1694      2958      3623      3647
 -1      8412    3    0    1
 -2      1607      1606      1790      3128
 -1      8413    3    0    1
 -2       590       583      1757      3076
 -1      8414    3    0    1
 -2      3105      3220      3603      3679
 -1      8415    3    0    1
 -2      3511      1336      3551      3656
 -1      8416    3    0    1
 -2      1434      3306      3638      3376
 -1      8417    3    0    1
 -2      3583      3585      3600      3635
 -1      8418    3    0    1
 -2      1473      1633      2775      3274
 -1      8419    3    0    1
 -2      1497      3547      3567      3666
 -1      8420    3    0    1
 -2      2347      3510      3316      3700
 -1      8421    3    0    1
 -2      3089      2909      3621      3289
 -1      8422    3    0    1
 -2      1443      1444      1768      3302
 -1      8423    3    0    1
 -2      3082      1483      3346      3494
 -1      8424    3    0    1
 -2      1241      2915      1831      3403
 -1      8425    3    0    1
 -2      1559      3218      3315      3473
 -1      8426    3    0    1
 -2      3564       972      3570      3629
 -1      8427    3    0    1
 -2      2290      3520      3590      3627
 -1      8428    3    0    1
 -2      3541      3498      3589      3619
 -1      8429    3    0    1
 -2      3520      2483      3541      3627
 -1      8430    3    0    1
 -2      1468      1467      2674      3238
 -1      8431    3    0    1
 -2      1495      1537      2960      2998
 -1      8432    3    0    1
 -2      2742      2651      3530      3213
 -1      8433    3    0    1
 -2      1562      1563      1733      2973
 -1      8434    3    0    1
 -2      1563      1562      2949      2973
 -1      8435    3    0    1
 -2      1475      1722      1723      3213
 -1      8436    3    0    1
 -2      1475      1476      2742      3213
 -1      8437    3    0    1
 -2        68      3196      1820      3481
 -1      8438    3    0    1
 -2      1625        24      2972      3072
 -1      8439    3    0    1
 -2      2742      3530      2950      3213
 -1      8440    3    0    1
 -2      1688      1689      1723      3213
 -1      8441    3    0    1
 -2      1476      1475      1723      3213
 -1      8442    3    0    1
 -2      3008      2836      3039      3650
 -1      8443    3    0    1
 -2       237        42      1812      1859
 -1      8444    3    0    1
 -2      3506      1417      2807      3609
 -1      8445    3    0    1
 -2      1502      1501      2843      3044
 -1      8446    3    0    1
 -2      2637      2636      2665      3549
 -1      8447    3    0    1
 -2      2636      2593      2711      3549
 -1      8448    3    0    1
 -2      2947      2606      3184      3722
 -1      8449    3    0    1
 -2      1040      3510      3624      3700
 -1      8450    3    0    1
 -2      2501      2676      2960      3177
 -1      8451    3    0    1
 -2      3011       804      3296      3340
 -1      8452    3    0    1
 -2       673       680      1782      3115
 -1      8453    3    0    1
 -2      3003      2842      3567      3658
 -1      8454    3    0    1
 -2      3540      3513      3640      3647
 -1      8455    3    0    1
 -2       732      1786      3233      3333
 -1      8456    3    0    1
 -2      2863      3251      3673      3685
 -1      8457    3    0    1
 -2      2841      2649      2948      3116
 -1      8458    3    0    1
 -2        81      1743      1744      1856
 -1      8459    3    0    1
 -2      3037      2756      3637      3375
 -1      8460    3    0    1
 -2      2590      2517      2592      3549
 -1      8461    3    0    1
 -2       395       153      1608      3611
 -1      8462    3    0    1
 -2      3563      3546      3434      3714
 -1      8463    3    0    1
 -2      2591      2550      2592      3549
 -1      8464    3    0    1
 -2      2711      2593      2951      3549
 -1      8465    3    0    1
 -2      3565      3501      3663      3718
 -1      8466    3    0    1
 -2      1305      3546      3570      3611
 -1      8467    3    0    1
 -2      2771      3516      3522      3593
 -1      8468    3    0    1
 -2      3495      1326      3594      3694
 -1      8469    3    0    1
 -2       990      3169      3613      3640
 -1      8470    3    0    1
 -2       278       335      3529      3707
 -1      8471    3    0    1
 -2       395      1305      3570      3611
 -1      8472    3    0    1
 -2      3134      3580      3174      3616
 -1      8473    3    0    1
 -2      1627      2731      1813      3313
 -1      8474    3    0    1
 -2      2985      1463      3098      3637
 -1      8475    3    0    1
 -2      3037       590      1838      3375
 -1      8476    3    0    1
 -2      2756      3077      3637      3375
 -1      8477    3    0    1
 -2      3136      2779      3603      3304
 -1      8478    3    0    1
 -2       965      1293      2392      3070
 -1      8479    3    0    1
 -2      2475      2573      3671      3683
 -1      8480    3    0    1
 -2      2665      3198      3673      3462
 -1      8481    3    0    1
 -2      2875      2663      1257      2562
 -1      8482    3    0    1
 -2      2829      2926      2998      3558
 -1      8483    3    0    1
 -2       601       608      2729      3214
 -1      8484    3    0    1
 -2      1633        68      1634      3385
 -1      8485    3    0    1
 -2      2484      3538      3623      3655
 -1      8486    3    0    1
 -2      3086      3108      3598      3625
 -1      8487    3    0    1
 -2      3243      3549      3674      3388
 -1      8488    3    0    1
 -2       112       383      3548      1828
 -1      8489    3    0    1
 -2      2391      1072      3695      1917
 -1      8490    3    0    1
 -2      3236      1646      3330      3388
 -1      8491    3    0    1
 -2      2233      2369      2461      3427
 -1      8492    3    0    1
 -2      3626      3138      1871      3354
 -1      8493    3    0    1
 -2      1719      1720      3152      1803
 -1      8494    3    0    1
 -2      3620      2990      3637      3702
 -1      8495    3    0    1
 -2      1417      1552      3609      3686
 -1      8496    3    0    1
 -2      3499      3539      3578      3631
 -1      8497    3    0    1
 -2      2691      1489      1709      3341
 -1      8498    3    0    1
 -2      2691      3275      3644      3341
 -1      8499    3    0    1
 -2      1606      3088      3128      3655
 -1      8500    3    0    1
 -2      2719      3592      3352      3721
 -1      8501    3    0    1
 -2      2579      2086      2745      3552
 -1      8502    3    0    1
 -2      1636      1654      1655      2981
 -1      8503    3    0    1
 -2      3518      2041      2291      2295
 -1      8504    3    0    1
 -2      1480      1479      2784      2981
 -1      8505    3    0    1
 -2      1479      1480      1655      2981
 -1      8506    3    0    1
 -2      2522      1322      3587      3641
 -1      8507    3    0    1
 -2      1479      1654      2784      2981
 -1      8508    3    0    1
 -2      1654      1479      1655      2981
 -1      8509    3    0    1
 -2      1539      1818      1819      3286
 -1      8510    3    0    1
 -2      1527      1764      1765      3321
 -1      8511    3    0    1
 -2       697       717      1992      3201
 -1      8512    3    0    1
 -2       316      1635      3532      3599
 -1      8513    3    0    1
 -2      3192      3657      3353      3452
 -1      8514    3    0    1
 -2      2507      2588      3598      3599
 -1      8515    3    0    1
 -2      2934      2995      1811      1859
 -1      8516    3    0    1
 -2      3550      2872      3069      3295
 -1      8517    3    0    1
 -2      2775      1633      2948      3274
 -1      8518    3    0    1
 -2       717      1006      1319      3201
 -1      8519    3    0    1
 -2      3113      3115      1846      1847
 -1      8520    3    0    1
 -2      1435      3526      3270      3449
 -1      8521    3    0    1
 -2       717       697      1006      3201
 -1      8522    3    0    1
 -2      1409      1724      3596      3602
 -1      8523    3    0    1
 -2      3495      2402      3569      3594
 -1      8524    3    0    1
 -2      2612      2731      2794      3553
 -1      8525    3    0    1
 -2      2620      2612      2794      3553
 -1      8526    3    0    1
 -2      2672      2794      2905      3553
 -1      8527    3    0    1
 -2      2794      2672      2905      1564
 -1      8528    3    0    1
 -2      2620      1487      2826      3553
 -1      8529    3    0    1
 -2      2672      1487      2794      3553
 -1      8530    3    0    1
 -2      2794      1487      2620      3553
 -1      8531    3    0    1
 -2      1487      2794      2620      1546
 -1      8532    3    0    1
 -2      2672      2532      2696      3553
 -1      8533    3    0    1
 -2       423       277      3291      1870
 -1      8534    3    0    1
 -2      2188       708      2485      3693
 -1      8535    3    0    1
 -2      2476      2826      2921      3553
 -1      8536    3    0    1
 -2      1692      1693      3051      3354
 -1      8537    3    0    1
 -2      2889      2476      2921      3553
 -1      8538    3    0    1
 -2      2476      2612      2826      3553
 -1      8539    3    0    1
 -2      2634      1516      3689      3741
 -1      8540    3    0    1
 -2      2860      2502      3581      3650
 -1      8541    3    0    1
 -2      2612      2620      2826      3553
 -1      8542    3    0    1
 -2      2801      1412      3667      3467
 -1      8543    3    0    1
 -2      1813      1814      3325      3350
 -1      8544    3    0    1
 -2      2794      2731      2905      3553
 -1      8545    3    0    1
 -2      1726      2927      1743      2998
 -1      8546    3    0    1
 -2      1499      1648      3019      3554
 -1      8547    3    0    1
 -2      2484      2638      2650      3554
 -1      8548    3    0    1
 -2      2650      2638      2703      3554
 -1      8549    3    0    1
 -2      2757       644      3671      3683
 -1      8550    3    0    1
 -2      1499      1657      2912      3554
 -1      8551    3    0    1
 -2      2838      1625      2972      3072
 -1      8552    3    0    1
 -2      2927      1537      1743      2998
 -1      8553    3    0    1
 -2      3561      3276      3341      3644
 -1      8554    3    0    1
 -2      1519      2650      2703      3554
 -1      8555    3    0    1
 -2      1478      1477      3009      1864
 -1      8556    3    0    1
 -2      3276      3561      3341      2693
 -1      8557    3    0    1
 -2      3569      3715      3739      3743
 -1      8558    3    0    1
 -2      3017      1692      1871      1872
 -1      8559    3    0    1
 -2      3587      1545      3724      3730
 -1      8560    3    0    1
 -2      2642      2756      3550      3037
 -1      8561    3    0    1
 -2      2574       474      2693      3561
 -1      8562    3    0    1
 -2      1059      2412      2515      3744
 -1      8563    3    0    1
 -2      2642      3550      2986      3037
 -1      8564    3    0    1
 -2      1434      3512      1749      3376
 -1      8565    3    0    1
 -2      3613      1750      3623      3322
 -1      8566    3    0    1
 -2      1298       610      2242      3590
 -1      8567    3    0    1
 -2      1461      2716      3275      3644
 -1      8568    3    0    1
 -2      2609      1453      1844      3343
 -1      8569    3    0    1
 -2      3524      3505      3599      3686
 -1      8570    3    0    1
 -2      3653      3634      3476      3742
 -1      8571    3    0    1
 -2      1432      1530      3508      3646
 -1      8572    3    0    1
 -2       335       267      3707      1920
 -1      8573    3    0    1
 -2      3043      1643      1791      3282
 -1      8574    3    0    1
 -2      3053      1567      1794      1795
 -1      8575    3    0    1
 -2       972       395      1305      3570
 -1      8576    3    0    1
 -2      1293       133      3552      3070
 -1      8577    3    0    1
 -2      1659       241      3357      3664
 -1      8578    3    0    1
 -2      1719      1443      1720      3285
 -1      8579    3    0    1
 -2      1443      1444      1720      3285
 -1      8580    3    0    1
 -2      3551      1336      3596      3656
 -1      8581    3    0    1
 -2      1757       583      1758      3076
 -1      8582    3    0    1
 -2      3080      2821      3581      3193
 -1      8583    3    0    1
 -2      3261      1450      1865      1866
 -1      8584    3    0    1
 -2      1450      1678      3550      3069
 -1      8585    3    0    1
 -2      3512      1749      3464      3723
 -1      8586    3    0    1
 -2      2855      2702      2859      3636
 -1      8587    3    0    1
 -2      2323      2427      2461      2993
 -1      8588    3    0    1
 -2      1421      1656      3589      3629
 -1      8589    3    0    1
 -2      3087      1539      1818      1819
 -1      8590    3    0    1
 -2      1753      3540      1801      3719
 -1      8591    3    0    1
 -2      2890      1469      3568      3371
 -1      8592    3    0    1
 -2      1015      1322      3666      3725
 -1      8593    3    0    1
 -2      2702      2750      2859      3636
 -1      8594    3    0    1
 -2        24      1619      2972      3072
 -1      8595    3    0    1
 -2      1616        20      1617      3374
 -1      8596    3    0    1
 -2        24        25      1619      3072
 -1      8597    3    0    1
 -2      1524      1807      3186      3221
 -1      8598    3    0    1
 -2      1782      1524      3186      3221
 -1      8599    3    0    1
 -2      1750      2958      3613      3623
 -1      8600    3    0    1
 -2       673       680      2783      1782
 -1      8601    3    0    1
 -2      1563      1562      2845      3249
 -1      8602    3    0    1
 -2      2541      2669      3606      3660
 -1      8603    3    0    1
 -2      1486      1485      1814      3325
 -1      8604    3    0    1
 -2      1750      2958      3623      3322
 -1      8605    3    0    1
 -2       572       565      2937      3269
 -1      8606    3    0    1
 -2      1251      2926      1726      2998
 -1      8607    3    0    1
 -2      1780      1606      3622      3298
 -1      8608    3    0    1
 -2      1706       750      3574      3262
 -1      8609    3    0    1
 -2      1409      1724      3602      3634
 -1      8610    3    0    1
 -2        42      1811      1812      1859
 -1      8611    3    0    1
 -2      3579      2527      3675      3690
 -1      8612    3    0    1
 -2      1567       956      3578      1794
 -1      8613    3    0    1
 -2      1604      1750      1751      3001
 -1      8614    3    0    1
 -2      3637      1757      3334      3375
 -1      8615    3    0    1
 -2      1598      1597      2953      3110
 -1      8616    3    0    1
 -2      2940      3251      3673      3393
 -1      8617    3    0    1
 -2      2487      3504      3416      3493
 -1      8618    3    0    1
 -2      3546      1608      3611      3630
 -1      8619    3    0    1
 -2      3573      2617      3145      3252
 -1      8620    3    0    1
 -2      3144      1555      3174      3359
 -1      8621    3    0    1
 -2      3089      3621      3341      3349
 -1      8622    3    0    1
 -2      1604      3040      1874      1875
 -1      8623    3    0    1
 -2      3181      3183      3673      3393
 -1      8624    3    0    1
 -2      3183      2940      3673      3393
 -1      8625    3    0    1
 -2      3553      2889      3296      3340
 -1      8626    3    0    1
 -2      3088      1606      1780      3655
 -1      8627    3    0    1
 -2      2700      2917      3128      3655
 -1      8628    3    0    1
 -2      2139      2474      3578      3631
 -1      8629    3    0    1
 -2       409       668       660      1918
 -1      8630    3    0    1
 -2       956      2139      3578      3631
 -1      8631    3    0    1
 -2      2877      3088      3322      3655
 -1      8632    3    0    1
 -2      1552      1417      3599      3686
 -1      8633    3    0    1
 -2      2792      3124      3612      3337
 -1      8634    3    0    1
 -2      2957      1741      2970      3646
 -1      8635    3    0    1
 -2      2476      3553      3633      3649
 -1      8636    3    0    1
 -2       732       727      1774      3092
 -1      8637    3    0    1
 -2      3661      3020      3705      3591
 -1      8638    3    0    1
 -2      3550      2986      3032      3261
 -1      8639    3    0    1
 -2      2821      2955      3581      3193
 -1      8640    3    0    1
 -2      1620      2810      1829      1830
 -1      8641    3    0    1
 -2      1421      3564      1796      3629
 -1      8642    3    0    1
 -2      1040       241      3527      3357
 -1      8643    3    0    1
 -2      2731      2905      3553      3649
 -1      8644    3    0    1
 -2      3549      1686      3243      3311
 -1      8645    3    0    1
 -2      2897      3074      1842      3335
 -1      8646    3    0    1
 -2      3557      3496      3602      3634
 -1      8647    3    0    1
 -2      2624      3555      3196      3216
 -1      8648    3    0    1
 -2      1654      1636      1655      3111
 -1      8649    3    0    1
 -2      1721       253      1868      3656
 -1      8650    3    0    1
 -2      2862      2864      3127      3335
 -1      8651    3    0    1
 -2       205       316      3547      1793
 -1      8652    3    0    1
 -2      1633      1634      3196      3216
 -1      8653    3    0    1
 -2       799      3011      1771      1772
 -1      8654    3    0    1
 -2      2889      2710      3553      3011
 -1      8655    3    0    1
 -2      2710      3516      3553      3011
 -1      8656    3    0    1
 -2      2768      1499      3156      3683
 -1      8657    3    0    1
 -2      3267      1746      3289      3646
 -1      8658    3    0    1
 -2      3556      2571      3596      3610
 -1      8659    3    0    1
 -2      1447      1739      3005      3013
 -1      8660    3    0    1
 -2      1505      1574      1575      3015
 -1      8661    3    0    1
 -2      1429      1609      3534      3562
 -1      8662    3    0    1
 -2      1719      3152      1802      1803
 -1      8663    3    0    1
 -2      1736      2726      1737      3111
 -1      8664    3    0    1
 -2      1514      1513      1638      3030
 -1      8665    3    0    1
 -2      1513      1514      2812      3030
 -1      8666    3    0    1
 -2      3538      2735      2914      3019
 -1      8667    3    0    1
 -2      1308      2735      3538      3019
 -1      8668    3    0    1
 -2      1657      3356      1887      1888
 -1      8669    3    0    1
 -2      3057      3574      3200      3262
 -1      8670    3    0    1
 -2      1706      1553      1707      3262
 -1      8671    3    0    1
 -2      3056      3567      3003      2842
 -1      8672    3    0    1
 -2      1693      1692      3017      1872
 -1      8673    3    0    1
 -2      3681      3569      3729      3743
 -1      8674    3    0    1
 -2      1706      2870      2988      3100
 -1      8675    3    0    1
 -2      2935      1533      3592      3352
 -1      8676    3    0    1
 -2      1678      1450      3550      3261
 -1      8677    3    0    1
 -2      2694      3046      3633      3649
 -1      8678    3    0    1
 -2       112       383      1741      3246
 -1      8679    3    0    1
 -2      2812      2793      3260      3365
 -1      8680    3    0    1
 -2      2596      1459      3065      3235
 -1      8681    3    0    1
 -2      3563      3565      3663      3678
 -1      8682    3    0    1
 -2      2744      1333      3591      1049
 -1      8683    3    0    1
 -2      2719      2551      2758      3592
 -1      8684    3    0    1
 -2      3117      3218      3315      3333
 -1      8685    3    0    1
 -2      2814      3060      3116      3592
 -1      8686    3    0    1
 -2      2551      3061      3062      3592
 -1      8687    3    0    1
 -2      2486      2545      2561      3366
 -1      8688    3    0    1
 -2      2551      3062      3158      3592
 -1      8689    3    0    1
 -2      2627      2481      3576      3607
 -1      8690    3    0    1
 -2      2808      3505      3567      3658
 -1      8691    3    0    1
 -2      3028      3075      3607      3386
 -1      8692    3    0    1
 -2      3505      3547      3567      3658
 -1      8693    3    0    1
 -2      2789      2893      3559      3661
 -1      8694    3    0    1
 -2      2513      2705      3543      3582
 -1      8695    3    0    1
 -2      1778      3047      1779      3170
 -1      8696    3    0    1
 -2      3188      3132      3607      3363
 -1      8697    3    0    1
 -2      1457      2763      2766      3665
 -1      8698    3    0    1
 -2      3378      3656      3717      3479
 -1      8699    3    0    1
 -2      1493      2758      3158      3592
 -1      8700    3    0    1
 -2      3014      3013      3039      3110
 -1      8701    3    0    1
 -2      1597      3014      3039      3110
 -1      8702    3    0    1
 -2      2680      2838      2886      3027
 -1      8703    3    0    1
 -2      1597      1598      1892      3447
 -1      8704    3    0    1
 -2        80      1764      3320      3446
 -1      8705    3    0    1
 -2      1713      3094      1818      1819
 -1      8706    3    0    1
 -2      3657      3353      3452      3717
 -1      8707    3    0    1
 -2      2976      2721      3043      3726
 -1      8708    3    0    1
 -2      1561       319      3515      3666
 -1      8709    3    0    1
 -2       430      1715      3668      3725
 -1      8710    3    0    1
 -2      1561       319      3666      3725
 -1      8711    3    0    1
 -2       430       319      1715      3725
 -1      8712    3    0    1
 -2      1535      2920      3187      3240
 -1      8713    3    0    1
 -2      2804      2903      3556      3301
 -1      8714    3    0    1
 -2      2497      3592      3662      3706
 -1      8715    3    0    1
 -2      1832      3273      1896      1897
 -1      8716    3    0    1
 -2      2540      2643      2791      3555
 -1      8717    3    0    1
 -2      1678      1612      3576      3223
 -1      8718    3    0    1
 -2      2969       964      3620      3702
 -1      8719    3    0    1
 -2      3035      2823      3187      3687
 -1      8720    3    0    1
 -2      1479      1654      2938      3584
 -1      8721    3    0    1
 -2      2641      1473      1696      3555
 -1      8722    3    0    1
 -2      1471      1472      1647      3136
 -1      8723    3    0    1
 -2      1647      1646      3136      3217
 -1      8724    3    0    1
 -2      2624      2559      2918      3555
 -1      8725    3    0    1
 -2      2559      2624      2641      3555
 -1      8726    3    0    1
 -2      2643      2715      2772      3555
 -1      8727    3    0    1
 -2       956      1298      3253      3631
 -1      8728    3    0    1
 -2      2641      2624      2847      3555
 -1      8729    3    0    1
 -2       583       590      1757      3375
 -1      8730    3    0    1
 -2      3306      3638      3404      3703
 -1      8731    3    0    1
 -2      3115       673      1846      1847
 -1      8732    3    0    1
 -2      2696      3516      2771      3593
 -1      8733    3    0    1
 -2      3573      2699      3259      3360
 -1      8734    3    0    1
 -2      3129      3592      3662      3721
 -1      8735    3    0    1
 -2      1583      2699      3319      3360
 -1      8736    3    0    1
 -2      3011      2930      1771      1772
 -1      8737    3    0    1
 -2      1593      1528      3103      3329
 -1      8738    3    0    1
 -2      3678      3684      3407      3480
 -1      8739    3    0    1
 -2      1446      3096      3345      3393
 -1      8740    3    0    1
 -2      2815       900      3161      3603
 -1      8741    3    0    1
 -2       981      1305      3521      3716
 -1      8742    3    0    1
 -2      2688      2728      2825      3556
 -1      8743    3    0    1
 -2      2571      2804      2828      3556
 -1      8744    3    0    1
 -2      2863      3181      3673      3393
 -1      8745    3    0    1
 -2      2717      2627      3576      3242
 -1      8746    3    0    1
 -2      2828      2804      2903      3556
 -1      8747    3    0    1
 -2      3572      3512      3464      3723
 -1      8748    3    0    1
 -2      3520      1416      3590      3619
 -1      8749    3    0    1
 -2      2692      3409      3418      3455
 -1      8750    3    0    1
 -2      2676      2913      3177      3672
 -1      8751    3    0    1
 -2      2190      1316      3599      3686
 -1      8752    3    0    1
 -2      2834      2828      3004      3556
 -1      8753    3    0    1
 -2      2501      2471      2676      3558
 -1      8754    3    0    1
 -2      2691      3561      3621      3341
 -1      8755    3    0    1
 -2      3561      2693      3089      3341
 -1      8756    3    0    1
 -2      2139       956      3253      3631
 -1      8757    3    0    1
 -2      2958      1604      3040      3655
 -1      8758    3    0    1
 -2      1251      1257      2926      3558
 -1      8759    3    0    1
 -2      1764      1831      3320      3403
 -1      8760    3    0    1
 -2      1530       383      2970      1828
 -1      8761    3    0    1
 -2      2878      2664      3040      3655
 -1      8762    3    0    1
 -2      3501      2468      3563      3698
 -1      8763    3    0    1
 -2      1489      3075      3607      3363
 -1      8764    3    0    1
 -2      2701      2934      2995      3665
 -1      8765    3    0    1
 -2      2613      2805      2954      3559
 -1      8766    3    0    1
 -2      2820      3106      3161      3603
 -1      8767    3    0    1
 -2      1415      2611      2613      3559
 -1      8768    3    0    1
 -2      2574      2707      2909      3646
 -1      8769    3    0    1
 -2      2647      2763      3632      3665
 -1      8770    3    0    1
 -2      2692      3418      3424      3455
 -1      8771    3    0    1
 -2      1698      1197      2893      3559
 -1      8772    3    0    1
 -2      1809      1810      3181      1847
 -1      8773    3    0    1
 -2      2678      1195      2824      3559
 -1      8774    3    0    1
 -2      3153      1657      1887      1888
 -1      8775    3    0    1
 -2      1472      1471      3137      1808
 -1      8776    3    0    1
 -2      2744      2678      2824      3559
 -1      8777    3    0    1
 -2      1197      2789      2893      3559
 -1      8778    3    0    1
 -2      2918      3103      3321      3403
 -1      8779    3    0    1
 -2      2760      1066      3531      3635
 -1      8780    3    0    1
 -2      1620      2810      3245      3639
 -1      8781    3    0    1
 -2      1533      1534      3041      3084
 -1      8782    3    0    1
 -2       608      1711      2978      3560
 -1      8783    3    0    1
 -2      2723      2640      2883      3662
 -1      8784    3    0    1
 -2      1604      3040      3655      1874
 -1      8785    3    0    1
 -2       473       474      2574      3561
 -1      8786    3    0    1
 -2      3623      3538      3322      3655
 -1      8787    3    0    1
 -2      2898      2846      2991      3561
 -1      8788    3    0    1
 -2      2898      2991      3027      3561
 -1      8789    3    0    1
 -2      2574      2846      2898      3561
 -1      8790    3    0    1
 -2      3103      2918      3671      3403
 -1      8791    3    0    1
 -2      1539      3162      3166      3289
 -1      8792    3    0    1
 -2      1765      1764      3300      3321
 -1      8793    3    0    1
 -2      2479      2628      2886      3561
 -1      8794    3    0    1
 -2      1168      2574      2898      3561
 -1      8795    3    0    1
 -2      1528      3103      3329      3403
 -1      8796    3    0    1
 -2      3107      3002      3206      3622
 -1      8797    3    0    1
 -2      2805      2954      3559      3344
 -1      8798    3    0    1
 -2      2628      2680      2886      3561
 -1      8799    3    0    1
 -2       908      1168      2854      3561
 -1      8800    3    0    1
 -2      1168       473      2574      3561
 -1      8801    3    0    1
 -2      2922      1688      3212      3669
 -1      8802    3    0    1
 -2      3068      3284      3638      3404
 -1      8803    3    0    1
 -2       908       474      1168      3561
 -1      8804    3    0    1
 -2       474       908      2693      3561
 -1      8805    3    0    1
 -2       474       473      1168      3561
 -1      8806    3    0    1
 -2      1724       277      3634      1870
 -1      8807    3    0    1
 -2      1755      1756      3122      3302
 -1      8808    3    0    1
 -2      3122      3038      3610      3302
 -1      8809    3    0    1
 -2      2658      2607      3535      3675
 -1      8810    3    0    1
 -2      1755      3122      3610      3302
 -1      8811    3    0    1
 -2      2754      3051      3354      3454
 -1      8812    3    0    1
 -2      1411      3525      3587      3724
 -1      8813    3    0    1
 -2      2555      2477      3504      3417
 -1      8814    3    0    1
 -2       768      3025      3661      3478
 -1      8815    3    0    1
 -2      3505      2190      3203      3704
 -1      8816    3    0    1
 -2      3510      3544      3681      3715
 -1      8817    3    0    1
 -2      2477      1569      3416      3417
 -1      8818    3    0    1
 -2       900      2568      2790      3603
 -1      8819    3    0    1
 -2      2977       554      3149      3241
 -1      8820    3    0    1
 -2      3090      2621      3161      3603
 -1      8821    3    0    1
 -2      2121      2466      2467      3680
 -1      8822    3    0    1
 -2      1457      1650      2763      3665
 -1      8823    3    0    1
 -2      1493      1533      3041      3676
 -1      8824    3    0    1
 -2      1811      3252      3259      3360
 -1      8825    3    0    1
 -2      1443      1719      1720      3164
 -1      8826    3    0    1
 -2      1533      2906      1867      3676
 -1      8827    3    0    1
 -2      2527      2662      2770      3579
 -1      8828    3    0    1
 -2      1664      1665      3097      3123
 -1      8829    3    0    1
 -2      1646        13      1647      3330
 -1      8830    3    0    1
 -2      2699      3573      3319      3360
 -1      8831    3    0    1
 -2       991      2586      3542      3224
 -1      8832    3    0    1
 -2      2585      1304      3542      3224
 -1      8833    3    0    1
 -2      3549      2590      3308      3674
 -1      8834    3    0    1
 -2      1440      3071      1857      3473
 -1      8835    3    0    1
 -2      3429      3681      3414      1595
 -1      8836    3    0    1
 -2       171      1308      3684      3718
 -1      8837    3    0    1
 -2       981      1308      2319      3565
 -1      8838    3    0    1
 -2      2136      1308      3501      3565
 -1      8839    3    0    1
 -2      2213      2319      2456      3565
 -1      8840    3    0    1
 -2      2456      2468      2503      3565
 -1      8841    3    0    1
 -2      2319      2136      2456      3565
 -1      8842    3    0    1
 -2      1720      1719      3052      1803
 -1      8843    3    0    1
 -2      2474      3499      3578      3631
 -1      8844    3    0    1
 -2      2808      3509      3567      3666
 -1      8845    3    0    1
 -2      2136      3613      1308      3169
 -1      8846    3    0    1
 -2      2910      1567      3026      3053
 -1      8847    3    0    1
 -2      1568      1567      2910      3053
 -1      8848    3    0    1
 -2      1302       391      3617      3627
 -1      8849    3    0    1
 -2      1505      2953      3039      3278
 -1      8850    3    0    1
 -2      3523      2709      3606      3660
 -1      8851    3    0    1
 -2      1832      1844      3292      3660
 -1      8852    3    0    1
 -2      2091      3506      2807      3701
 -1      8853    3    0    1
 -2      1579      2897      1769      3335
 -1      8854    3    0    1
 -2      3067       807      1058      1336
 -1      8855    3    0    1
 -2      1533      1727      2935      3060
 -1      8856    3    0    1
 -2      2797      3533      3632      3665
 -1      8857    3    0    1
 -2      3063      1491      3318      3478
 -1      8858    3    0    1
 -2      2576      2668      3517      3568
 -1      8859    3    0    1
 -2      1572      2820      3106      3159
 -1      8860    3    0    1
 -2      3062        21      1534      1533
 -1      8861    3    0    1
 -2        67        21      1534      1879
 -1      8862    3    0    1
 -2      1431      3545      3586      3717
 -1      8863    3    0    1
 -2       184      1004      3732      1923
 -1      8864    3    0    1
 -2      1435      1653      3526      3575
 -1      8865    3    0    1
 -2      1700       128      1794      1797
 -1      8866    3    0    1
 -2      2797      3533      2989      3632
 -1      8867    3    0    1
 -2      1528      1527      1593      3103
 -1      8868    3    0    1
 -2       565      1713      1714      3094
 -1      8869    3    0    1
 -2      2701      2647      3636      3665
 -1      8870    3    0    1
 -2      3632      3533      3636      3665
 -1      8871    3    0    1
 -2      2760      3531      3583      3635
 -1      8872    3    0    1
 -2       422      1652      3189      3600
 -1      8873    3    0    1
 -2      2895      1767      1768      3370
 -1      8874    3    0    1
 -2      1755      1767      3324      3370
 -1      8875    3    0    1
 -2      3509      2211      2808      3567
 -1      8876    3    0    1
 -2      1483      2801      3059      3667
 -1      8877    3    0    1
 -2      3195      1455      3347      3667
 -1      8878    3    0    1
 -2      1443      1444      2895      1768
 -1      8879    3    0    1
 -2      3351      1763      1876      3374
 -1      8880    3    0    1
 -2      1412      2463      2801      3667
 -1      8881    3    0    1
 -2      2211      3509      3042      3567
 -1      8882    3    0    1
 -2      1672      3547      3003      3567
 -1      8883    3    0    1
 -2      1672      1497      3547      3567
 -1      8884    3    0    1
 -2      1769        22      1770      1817
 -1      8885    3    0    1
 -2      2801      1483      3348      3667
 -1      8886    3    0    1
 -2      2489      1483      3059      3667
 -1      8887    3    0    1
 -2      3324      1767      3645      3370
 -1      8888    3    0    1
 -2      1413      1483      2489      3667
 -1      8889    3    0    1
 -2      2842      2211      3042      3567
 -1      8890    3    0    1
 -2      2740      1774      1775      3347
 -1      8891    3    0    1
 -2      1455      1774      3248      3347
 -1      8892    3    0    1
 -2      1528      3133      3397      3727
 -1      8893    3    0    1
 -2      3567      1497      3666      3668
 -1      8894    3    0    1
 -2      3171      1528      3451      3727
 -1      8895    3    0    1
 -2      1629       768      3661      3478
 -1      8896    3    0    1
 -2      3060      1622      3062      1879
 -1      8897    3    0    1
 -2      2875      3558      3171      3727
 -1      8898    3    0    1
 -2      1497      1672      3003      3567
 -1      8899    3    0    1
 -2      2842      3042      3056      3567
 -1      8900    3    0    1
 -2      2211      2509      2808      3567
 -1      8901    3    0    1
 -2      1715      1561      3668      3725
 -1      8902    3    0    1
 -2      1170      2830      2976      3371
 -1      8903    3    0    1
 -2       553      2743      2896      3568
 -1      8904    3    0    1
 -2       553      1550      2743      3568
 -1      8905    3    0    1
 -2      1550      1517      2690      3568
 -1      8906    3    0    1
 -2      3510      2347      3586      3700
 -1      8907    3    0    1
 -2      1517      1469      2871      3568
 -1      8908    3    0    1
 -2      2690      1517      2871      3568
 -1      8909    3    0    1
 -2      1146      2661      3577      3372
 -1      8910    3    0    1
 -2      1425      3577      3235      3372
 -1      8911    3    0    1
 -2      1425      2831      3577      3372
 -1      8912    3    0    1
 -2      3510      3586      3648      3700
 -1      8913    3    0    1
 -2      3577      2661      3235      3372
 -1      8914    3    0    1
 -2      2516      2572      2639      3568
 -1      8915    3    0    1
 -2      2572      2516      2668      3568
 -1      8916    3    0    1
 -2      2890      1550      2896      3568
 -1      8917    3    0    1
 -2      2639      2572      2690      3568
 -1      8918    3    0    1
 -2      2576      2572      2668      3568
 -1      8919    3    0    1
 -2      2572      2652      2743      3568
 -1      8920    3    0    1
 -2      3024      3558      3391      3727
 -1      8921    3    0    1
 -2      2572      2576      2652      3568
 -1      8922    3    0    1
 -2      1550       553      2896      3568
 -1      8923    3    0    1
 -2      1517      1550      2890      3568
 -1      8924    3    0    1
 -2      2602      1146      3577      3372
 -1      8925    3    0    1
 -2      1469      1517      2890      3568
 -1      8926    3    0    1
 -2      2958      1750      3613      3647
 -1      8927    3    0    1
 -2       908      2693      2854      3276
 -1      8928    3    0    1
 -2       990      1312      3640      3647
 -1      8929    3    0    1
 -2      2211      2509      3567      3658
 -1      8930    3    0    1
 -2      1336      2429      3511      3067
 -1      8931    3    0    1
 -2      2271      1336      3511      3067
 -1      8932    3    0    1
 -2       807      2093      2429      3067
 -1      8933    3    0    1
 -2      1336       807      2429      3067
 -1      8934    3    0    1
 -2      1058      2093       807      3067
 -1      8935    3    0    1
 -2      1453      2609      2802      3287
 -1      8936    3    0    1
 -2      1539      1540      1747      3166
 -1      8937    3    0    1
 -2      3595      2765      3629      3639
 -1      8938    3    0    1
 -2      2091      2514      3514      3719
 -1      8939    3    0    1
 -2      2670      2598      2748      3664
 -1      8940    3    0    1
 -2      2746      3118      3119      3639
 -1      8941    3    0    1
 -2      1719      1720      3052      3285
 -1      8942    3    0    1
 -2      3510      1442      3527      3624
 -1      8943    3    0    1
 -2      2810       626      2850      3639
 -1      8944    3    0    1
 -2      1811        42      1816      1860
 -1      8945    3    0    1
 -2      1813      3327      3382      3465
 -1      8946    3    0    1
 -2      2091      2102      3142      3219
 -1      8947    3    0    1
 -2      3504      2458      2740      3670
 -1      8948    3    0    1
 -2      3504      2740      3667      3670
 -1      8949    3    0    1
 -2      3548       112      3449      3642
 -1      8950    3    0    1
 -2      2228      3496      3583      3456
 -1      8951    3    0    1
 -2      2832      3527      3533      3571
 -1      8952    3    0    1
 -2      2091      3514      3701      3719
 -1      8953    3    0    1
 -2      2903      3556      3272      3328
 -1      8954    3    0    1
 -2      1484      1483      3367      1925
 -1      8955    3    0    1
 -2        21      3060      3062      1879
 -1      8956    3    0    1
 -2      2709      2823      3606      3256
 -1      8957    3    0    1
 -2      3498      1421      3266      3402
 -1      8958    3    0    1
 -2      1561      3666      3668      3725
 -1      8959    3    0    1
 -2      1332       334      2412      3744
 -1      8960    3    0    1
 -2      1489      1709      1710      3275
 -1      8961    3    0    1
 -2      2598      2737      2882      3571
 -1      8962    3    0    1
 -2      2598      2882      2959      3571
 -1      8963    3    0    1
 -2      2989      2629      2997      3571
 -1      8964    3    0    1
 -2      2737      2598      2754      3571
 -1      8965    3    0    1
 -2        57      1913      1924      1925
 -1      8966    3    0    1
 -2      2740      3130      3248      3670
 -1      8967    3    0    1
 -2      2748      2959      2973      3571
 -1      8968    3    0    1
 -2      1421      3498      3589      3402
 -1      8969    3    0    1
 -2      1497      3003      3056      3668
 -1      8970    3    0    1
 -2      2643      2715      3580      3671
 -1      8971    3    0    1
 -2      2615      2603      3523      3606
 -1      8972    3    0    1
 -2       145        20      1616      3374
 -1      8973    3    0    1
 -2      3248      3195      3667      3670
 -1      8974    3    0    1
 -2      1505      2954      3331      3344
 -1      8975    3    0    1
 -2      3523      2626      3601      3660
 -1      8976    3    0    1
 -2      3020      3705      3399      3401
 -1      8977    3    0    1
 -2      2709      3523      3601      3660
 -1      8978    3    0    1
 -2      2956      1503      3187      3687
 -1      8979    3    0    1
 -2      2627      1433      2862      3074
 -1      8980    3    0    1
 -2      1657      2912      3554      3623
 -1      8981    3    0    1
 -2      1606      1607      1790      3298
 -1      8982    3    0    1
 -2        24        25      1626      1791
 -1      8983    3    0    1
 -2      2757       644      2916      3671
 -1      8984    3    0    1
 -2      2916       644      2962      3671
 -1      8985    3    0    1
 -2      3071      3218      1857      3473
 -1      8986    3    0    1
 -2      2765      2640      2931      3662
 -1      8987    3    0    1
 -2      1593      1594      2962      3103
 -1      8988    3    0    1
 -2      2471      2648      2676      3672
 -1      8989    3    0    1
 -2      1641      1640      2985      3077
 -1      8990    3    0    1
 -2      3615      3572      3464      3723
 -1      8991    3    0    1
 -2      3512      1294      3578      3723
 -1      8992    3    0    1
 -2      1573      1572      3159      3229
 -1      8993    3    0    1
 -2      2642      2632      3550      3612
 -1      8994    3    0    1
 -2      3599      1316      3628      3686
 -1      8995    3    0    1
 -2      3169      3513      2500      2136
 -1      8996    3    0    1
 -2      3168      2500      3169      3640
 -1      8997    3    0    1
 -2      2936      1778      1779      3245
 -1      8998    3    0    1
 -2      2850      1555      3706      3470
 -1      8999    3    0    1
 -2      2527      2655      3535      3579
 -1      9000    3    0    1
 -2      1441      1440      3071      1858
 -1      9001    3    0    1
 -2      1936       636      2417      3392
 -1      9002    3    0    1
 -2       786      1731      3202      3336
 -1      9003    3    0    1
 -2       426      3608      1837      3378
 -1      9004    3    0    1
 -2      3506      3505      2807      3686
 -1      9005    3    0    1
 -2      3071      1440      1857      1858
 -1      9006    3    0    1
 -2      1257      2926      3558      1880
 -1      9007    3    0    1
 -2      1326      2813      3689      3741
 -1      9008    3    0    1
 -2      2637      2593      3549      3659
 -1      9009    3    0    1
 -2      3558      2908      3654      3672
 -1      9010    3    0    1
 -2      3525      3495      3605      3694
 -1      9011    3    0    1
 -2        26         1      1813      3350
 -1      9012    3    0    1
 -2      1516       229      1602      3694
 -1      9013    3    0    1
 -2      3113      3181      3183      3673
 -1      9014    3    0    1
 -2      3549      2711      3311      3674
 -1      9015    3    0    1
 -2      2116      1024      3525      3587
 -1      9016    3    0    1
 -2      1457      2699      3012      3573
 -1      9017    3    0    1
 -2      1542      1541      2980      1841
 -1      9018    3    0    1
 -2      1704      1416      3541      3619
 -1      9019    3    0    1
 -2      1650      1457      3012      3573
 -1      9020    3    0    1
 -2      2483      2461      3498      3427
 -1      9021    3    0    1
 -2      1308      3019      3623      1887
 -1      9022    3    0    1
 -2      3021      2467      3232      3618
 -1      9023    3    0    1
 -2      2460      2617      2633      3573
 -1      9024    3    0    1
 -2      1787      1786      3305      3373
 -1      9025    3    0    1
 -2      2617      2460      2671      3573
 -1      9026    3    0    1
 -2      2633      2617      2786      3573
 -1      9027    3    0    1
 -2      3528      3508      3548      3642
 -1      9028    3    0    1
 -2      1539      1540      3087      3190
 -1      9029    3    0    1
 -2      2733      2880      2923      3573
 -1      9030    3    0    1
 -2      3007      1489      3341      3349
 -1      9031    3    0    1
 -2      2699      2617      3012      3573
 -1      9032    3    0    1
 -2      1473      1696      3555      3359
 -1      9033    3    0    1
 -2      2617      2671      3012      3573
 -1      9034    3    0    1
 -2      1653       101      1708      3585
 -1      9035    3    0    1
 -2      2554      3625      3413      3437
 -1      9036    3    0    1
 -2       572      3269      3621      3349
 -1      9037    3    0    1
 -2      3526      3531      2228      2525
 -1      9038    3    0    1
 -2        80      1765      3446        69
 -1      9039    3    0    1
 -2      1457      1650      2923      3573
 -1      9040    3    0    1
 -2       128      1700      3566      1797
 -1      9041    3    0    1
 -2      3535      2607      3132      3188
 -1      9042    3    0    1
 -2      2860      1600      2965      3102
 -1      9043    3    0    1
 -2      1537      1495      3294      3674
 -1      9044    3    0    1
 -2      1622      3060      3061      3116
 -1      9045    3    0    1
 -2      3085      2719      3352      3721
 -1      9046    3    0    1
 -2      1714      1713      2937      3205
 -1      9047    3    0    1
 -2      3501      3563      3565      3663
 -1      9048    3    0    1
 -2      1463      2662      1776      1777
 -1      9049    3    0    1
 -2      1463      1464      2662      1777
 -1      9050    3    0    1
 -2      1537      2849      1743      3674
 -1      9051    3    0    1
 -2      3061      1430      3116      3385
 -1      9052    3    0    1
 -2      1489      1490      3007      3275
 -1      9053    3    0    1
 -2      1483      1484      3059      3120
 -1      9054    3    0    1
 -2      2528      2243      3588      3392
 -1      9055    3    0    1
 -2      1581      1582      2917      1781
 -1      9056    3    0    1
 -2      3513      1410      3342      3389
 -1      9057    3    0    1
 -2      3602      3557      3634      3653
 -1      9058    3    0    1
 -2      2663      2877      3538      3654
 -1      9059    3    0    1
 -2      2188       193      3693      3410
 -1      9060    3    0    1
 -2      2691      1709      3275      3341
 -1      9061    3    0    1
 -2      1612      1613      2809      3223
 -1      9062    3    0    1
 -2      1581      2917      1780      1781
 -1      9063    3    0    1
 -2      2590      2517      3549      3659
 -1      9064    3    0    1
 -2      3602      2465      3618      3634
 -1      9065    3    0    1
 -2      2711      3549      3308      3674
 -1      9066    3    0    1
 -2      2711      3308      3311      3674
 -1      9067    3    0    1
 -2      2689      2752      3045      3622
 -1      9068    3    0    1
 -2      2941      2945      3646      3692
 -1      9069    3    0    1
 -2      1450      1678      1679      3261
 -1      9070    3    0    1
 -2       607       964      2242      3590
 -1      9071    3    0    1
 -2      2817      2866      3541      3266
 -1      9072    3    0    1
 -2      2566      2783      3387      3679
 -1      9073    3    0    1
 -2      2915      3555      3320      3403
 -1      9074    3    0    1
 -2      2937      2660      3205      3621
 -1      9075    3    0    1
 -2      1527      1528      1764      3321
 -1      9076    3    0    1
 -2      1546      1684      3215      3650
 -1      9077    3    0    1
 -2      3292      1832      1896      1897
 -1      9078    3    0    1
 -2      3085      1716      1558      1557
 -1      9079    3    0    1
 -2       227      2263      3543      3582
 -1      9080    3    0    1
 -2       376       227      3543      3582
 -1      9081    3    0    1
 -2      1608      3546      3611      3434
 -1      9082    3    0    1
 -2      3409      1898      3418      3455
 -1      9083    3    0    1
 -2      1006      1316      2790      3598
 -1      9084    3    0    1
 -2      3042      3056      3668      3477
 -1      9085    3    0    1
 -2      2636      3549      3243      3388
 -1      9086    3    0    1
 -2      2726      1736      3633      3380
 -1      9087    3    0    1
 -2      3391      3558      3451      3727
 -1      9088    3    0    1
 -2      1636      1736      3111      3380
 -1      9089    3    0    1
 -2      1736      2726      3111      3380
 -1      9090    3    0    1
 -2      1650      1553      2923      3574
 -1      9091    3    0    1
 -2      2671      2867      3012      3574
 -1      9092    3    0    1
 -2      2671      2460      3057      3574
 -1      9093    3    0    1
 -2      2568      1006      2790      3598
 -1      9094    3    0    1
 -2      1610      1489      3007      3349
 -1      9095    3    0    1
 -2      1654      1636      3584      3380
 -1      9096    3    0    1
 -2      1568      1567      2992      3098
 -1      9097    3    0    1
 -2      2406      1043      2513      3582
 -1      9098    3    0    1
 -2       243       330      3543      3582
 -1      9099    3    0    1
 -2      1038      1043      2406      3582
 -1      9100    3    0    1
 -2      1786       727      1787      3130
 -1      9101    3    0    1
 -2      1851      1809      1852      3469
 -1      9102    3    0    1
 -2      1612      3037      1839      3032
 -1      9103    3    0    1
 -2      1623      1507      1624      3301
 -1      9104    3    0    1
 -2      2605      2536      2726      3633
 -1      9105    3    0    1
 -2      2859      2762      3265      3636
 -1      9106    3    0    1
 -2      1774      2740      1775      3130
 -1      9107    3    0    1
 -2      3078      3662      3706      3470
 -1      9108    3    0    1
 -2      3014      3005      3110      3447
 -1      9109    3    0    1
 -2      1780      1581      3109      3622
 -1      9110    3    0    1
 -2      1612      2809      3099      3576
 -1      9111    3    0    1
 -2      2655      3535      3099      3576
 -1      9112    3    0    1
 -2      2809      2655      3099      3576
 -1      9113    3    0    1
 -2      3499      2427      3512      3638
 -1      9114    3    0    1
 -2      1818      3205      3286      3405
 -1      9115    3    0    1
 -2       327       166      3542      3224
 -1      9116    3    0    1
 -2      1635      2588      3599      3234
 -1      9117    3    0    1
 -2      3541      3498      3427      3714
 -1      9118    3    0    1
 -2       166       328      3542      3224
 -1      9119    3    0    1
 -2      2627      2481      2717      3576
 -1      9120    3    0    1
 -2      2683      2952      3099      3576
 -1      9121    3    0    1
 -2      2717      2481      2809      3576
 -1      9122    3    0    1
 -2      2952      1612      3099      3576
 -1      9123    3    0    1
 -2      1450      3242      1865      1866
 -1      9124    3    0    1
 -2       171      1887      1888      1893
 -1      9125    3    0    1
 -2      1450      1678      2952      3576
 -1      9126    3    0    1
 -2      2481      2655      2809      3576
 -1      9127    3    0    1
 -2      1678      1612      2952      3576
 -1      9128    3    0    1
 -2      1524      2782      1782      1783
 -1      9129    3    0    1
 -2      1524      1525      2782      1783
 -1      9130    3    0    1
 -2      1503      1504      2780      3101
 -1      9131    3    0    1
 -2      1503      1465      1504      3101
 -1      9132    3    0    1
 -2      2602      2661      2785      3577
 -1      9133    3    0    1
 -2      2651      2799      3530      3396
 -1      9134    3    0    1
 -2      1832      1833      3273      1897
 -1      9135    3    0    1
 -2      1581      3045      1874      1875
 -1      9136    3    0    1
 -2      1633      1473      1634      3216
 -1      9137    3    0    1
 -2      3547      3003      3050      1793
 -1      9138    3    0    1
 -2      3138       763      1871      1872
 -1      9139    3    0    1
 -2      1336      1058      3067      3602
 -1      9140    3    0    1
 -2       421      3615      3464      3723
 -1      9141    3    0    1
 -2      1748       387      3267      3646
 -1      9142    3    0    1
 -2       786       781      1731      3222
 -1      9143    3    0    1
 -2      3300      2918      3321      3403
 -1      9144    3    0    1
 -2      2978      2969      3560      3260
 -1      9145    3    0    1
 -2      1750      1753      3001      3652
 -1      9146    3    0    1
 -2      1465      2796      2818      3687
 -1      9147    3    0    1
 -2      3547      1672      3003      1793
 -1      9148    3    0    1
 -2      1992       717      2274      3201
 -1      9149    3    0    1
 -2      2886      2991      3027      3288
 -1      9150    3    0    1
 -2      1517      2887      3027      3288
 -1      9151    3    0    1
 -2      1780      1581      1781      3109
 -1      9152    3    0    1
 -2       182       196      3628      3428
 -1      9153    3    0    1
 -2      3095      3504      3667      3670
 -1      9154    3    0    1
 -2      1640      1757      1758      3377
 -1      9155    3    0    1
 -2      3108      2569      3273      3343
 -1      9156    3    0    1
 -2       277      3634      1870      3653
 -1      9157    3    0    1
 -2      1451      1450      1679      3261
 -1      9158    3    0    1
 -2      1673      1431      3648      3452
 -1      9159    3    0    1
 -2      1489      3075      3132      3607
 -1      9160    3    0    1
 -2       319      1545      3587      3730
 -1      9161    3    0    1
 -2      1688      2651      3213      3396
 -1      9162    3    0    1
 -2      3545      1431      3586      3608
 -1      9163    3    0    1
 -2      2121      2427      2919      3680
 -1      9164    3    0    1
 -2       425       241      1862      3720
 -1      9165    3    0    1
 -2      3511       253      3643      1049
 -1      9166    3    0    1
 -2      3511      3545      3586      3608
 -1      9167    3    0    1
 -2      2492      2523      2831      3577
 -1      9168    3    0    1
 -2      2667      2492      2831      3577
 -1      9169    3    0    1
 -2       572       565      2714      3369
 -1      9170    3    0    1
 -2       319       430      1545      3730
 -1      9171    3    0    1
 -2      1722      1475      3212      3669
 -1      9172    3    0    1
 -2      2922      2870      3100      3669
 -1      9173    3    0    1
 -2       750      1688      2922      3669
 -1      9174    3    0    1
 -2      2831      2523      3065      3577
 -1      9175    3    0    1
 -2      2733      3530      3574      3396
 -1      9176    3    0    1
 -2      3200       750      3379      3396
 -1      9177    3    0    1
 -2      3571      2989      3632      3669
 -1      9178    3    0    1
 -2      1894      1765        80        69
 -1      9179    3    0    1
 -2      3150      2751      3591      3395
 -1      9180    3    0    1
 -2      2744      2789      3559      3661
 -1      9181    3    0    1
 -2       565      1610      1611      3269
 -1      9182    3    0    1
 -2      2523      2491      2587      3577
 -1      9183    3    0    1
 -2      3322      1604      3655      1874
 -1      9184    3    0    1
 -2      2793      3560      3260      3365
 -1      9185    3    0    1
 -2       610      1298      2242      3253
 -1      9186    3    0    1
 -2      2621      3090      3161      3204
 -1      9187    3    0    1
 -2      3048      1471      3136      3304
 -1      9188    3    0    1
 -2      2784      1479      2947      3184
 -1      9189    3    0    1
 -2      1654      2784      2981      3184
 -1      9190    3    0    1
 -2      3587      1024      3167      3641
 -1      9191    3    0    1
 -2      1294       956      3578      3675
 -1      9192    3    0    1
 -2      3499      2427      2290      2474
 -1      9193    3    0    1
 -2      1486      1485      2996      1825
 -1      9194    3    0    1
 -2      1743      2849      1744      1856
 -1      9195    3    0    1
 -2      3240       698      1896      3445
 -1      9196    3    0    1
 -2      3240      3606      3687      3445
 -1      9197    3    0    1
 -2      2830      2600      2976      3114
 -1      9198    3    0    1
 -2      2461      2290      3520      3638
 -1      9199    3    0    1
 -2      2976      1172      1761      3114
 -1      9200    3    0    1
 -2       169        81      1744      1856
 -1      9201    3    0    1
 -2      2865      3148      3597      3677
 -1      9202    3    0    1
 -2      2551      2649      3061      3116
 -1      9203    3    0    1
 -2      3194      2865      3597      3677
 -1      9204    3    0    1
 -2      3030      1638      3260      3702
 -1      9205    3    0    1
 -2      1560      1559      3117      1787
 -1      9206    3    0    1
 -2      2474      3499      3512      3578
 -1      9207    3    0    1
 -2      2139      2474      3512      3578
 -1      9208    3    0    1
 -2      2932      3612      3620      3676
 -1      9209    3    0    1
 -2      1567      1568      2992      1795
 -1      9210    3    0    1
 -2      2792      2632      3612      3676
 -1      9211    3    0    1
 -2      3533      2762      3258      3636
 -1      9212    3    0    1
 -2      3084      1533      1867      3676
 -1      9213    3    0    1
 -2       267      1064      2364      1920
 -1      9214    3    0    1
 -2       732       727      1786      3130
 -1      9215    3    0    1
 -2      1493      3041      3124      3676
 -1      9216    3    0    1
 -2      1493      3124      3125      3676
 -1      9217    3    0    1
 -2      3311      3243      3674      1883
 -1      9218    3    0    1
 -2      2849      3243      1856      1883
 -1      9219    3    0    1
 -2       329      3594      3604      3729
 -1      9220    3    0    1
 -2       956      2658      3026      3578
 -1      9221    3    0    1
 -2      3612      3550      3620      3676
 -1      9222    3    0    1
 -2      1567       956      3026      3578
 -1      9223    3    0    1
 -2      2906      2932      3620      3676
 -1      9224    3    0    1
 -2      2632      3550      3612      3676
 -1      9225    3    0    1
 -2      1425      1511      1512      3146
 -1      9226    3    0    1
 -2      3109      1780      3622      3298
 -1      9227    3    0    1
 -2      3559      2744      3661      3697
 -1      9228    3    0    1
 -2      2680      1437      3073      3644
 -1      9229    3    0    1
 -2      2545      2486      3641      3366
 -1      9230    3    0    1
 -2      3645      2563      3661      3697
 -1      9231    3    0    1
 -2      2858      1546      3215      3650
 -1      9232    3    0    1
 -2      1486      1485      1825      3384
 -1      9233    3    0    1
 -2      2744      3083      3645      3697
 -1      9234    3    0    1
 -2      2637      2940      3659      3673
 -1      9235    3    0    1
 -2      1853      3296      3340      3466
 -1      9236    3    0    1
 -2      1716      1493      3124      3125
 -1      9237    3    0    1
 -2       154        68      1788      3385
 -1      9238    3    0    1
 -2       241       425      3209      1885
 -1      9239    3    0    1
 -2      3657      3192      3453      3457
 -1      9240    3    0    1
 -2      2906      3034      1867      3676
 -1      9241    3    0    1
 -2      1455      3092      3228      3677
 -1      9242    3    0    1
 -2      3280      2633      3346      3677
 -1      9243    3    0    1
 -2       732      3194      3233      3677
 -1      9244    3    0    1
 -2      2633      3573      3346      3677
 -1      9245    3    0    1
 -2       991      2585      2586      3224
 -1      9246    3    0    1
 -2      1627      2694      2905      3313
 -1      9247    3    0    1
 -2      2786      3252      1515      3145
 -1      9248    3    0    1
 -2      1333      3591      3643      3482
 -1      9249    3    0    1
 -2      1624      2535      2930      3593
 -1      9250    3    0    1
 -2      3555      2891      3196      3481
 -1      9251    3    0    1
 -2      1648      1499      3227      3683
 -1      9252    3    0    1
 -2      2623      3517      1741      3740
 -1      9253    3    0    1
 -2      3590      2242      3253      3627
 -1      9254    3    0    1
 -2      2876      2587      3606      3235
 -1      9255    3    0    1
 -2      3513      1694      3647      3651
 -1      9256    3    0    1
 -2      3577      2876      3606      3235
 -1      9257    3    0    1
 -2      2523      3065      3577      3235
 -1      9258    3    0    1
 -2       410      3540      3647      3651
 -1      9259    3    0    1
 -2      1635       316      1685      3234
 -1      9260    3    0    1
 -2       180       410      1752      3651
 -1      9261    3    0    1
 -2      1694      1752      3647      3651
 -1      9262    3    0    1
 -2      3540      3513      3647      3651
 -1      9263    3    0    1
 -2      1165      1703      3036      3127
 -1      9264    3    0    1
 -2      3036      1703      3074      3127
 -1      9265    3    0    1
 -2       410       180      1801      3651
 -1      9266    3    0    1
 -2      1709      3132      3607      3386
 -1      9267    3    0    1
 -2      1719      2657      3152      3164
 -1      9268    3    0    1
 -2      1024       229      3587      3167
 -1      9269    3    0    1
 -2      1565      1440      2848      3167
 -1      9270    3    0    1
 -2      1442      3527      1729      3664
 -1      9271    3    0    1
 -2      2427      2684      3572      3680
 -1      9272    3    0    1
 -2      3563      1730      3678      3480
 -1      9273    3    0    1
 -2       253      1336      3511      3656
 -1      9274    3    0    1
 -2      2677      3675      3690      3459
 -1      9275    3    0    1
 -2      1322      2798      3666      3724
 -1      9276    3    0    1
 -2      2655      2527      2770      3579
 -1      9277    3    0    1
 -2      1417      3506      2807      3686
 -1      9278    3    0    1
 -2      2527      2530      2662      3579
 -1      9279    3    0    1
 -2      2932      2906      3612      3676
 -1      9280    3    0    1
 -2      1661      1522      2857      3308
 -1      9281    3    0    1
 -2      2655      2770      3076      3579
 -1      9282    3    0    1
 -2      2662      2530      2910      3579
 -1      9283    3    0    1
 -2      3026      1640      1776      3579
 -1      9284    3    0    1
 -2      2910      2530      3053      3579
 -1      9285    3    0    1
 -2      1463      3026      1776      3579
 -1      9286    3    0    1
 -2        26         1      1855      3382
 -1      9287    3    0    1
 -2      3065      1425      3577      3235
 -1      9288    3    0    1
 -2      1432      3548      3368      3680
 -1      9289    3    0    1
 -2       727      1786      1787      3233
 -1      9290    3    0    1
 -2       316      1635      3599      3234
 -1      9291    3    0    1
 -2      3141      3091      3637      3334
 -1      9292    3    0    1
 -2      2665      3549      3236      3462
 -1      9293    3    0    1
 -2      1786      3117      1787      3233
 -1      9294    3    0    1
 -2      1471      1646      3048      3136
 -1      9295    3    0    1
 -2      1471      1646      1647      3175
 -1      9296    3    0    1
 -2      1508      1507      2907      3301
 -1      9297    3    0    1
 -2      1758      1757      3077      3375
 -1      9298    3    0    1
 -2      3356      1877      1887      1888
 -1      9299    3    0    1
 -2      2559      2918      3555      3580
 -1      9300    3    0    1
 -2      2641      2559      3555      3580
 -1      9301    3    0    1
 -2      1424      2591      1792      3388
 -1      9302    3    0    1
 -2      1004      1009      3732      1922
 -1      9303    3    0    1
 -2      3520      3541      3619      3627
 -1      9304    3    0    1
 -2      1559      3143      3670      3688
 -1      9305    3    0    1
 -2      1614      1479      2894      3584
 -1      9306    3    0    1
 -2      1686      3243      3311      1883
 -1      9307    3    0    1
 -2      1646      1647      3175      3330
 -1      9308    3    0    1
 -2      2573      2559      2741      3580
 -1      9309    3    0    1
 -2       949      3572      3615      3723
 -1      9310    3    0    1
 -2      2741      2559      3135      3580
 -1      9311    3    0    1
 -2      2798      3509      2808      3666
 -1      9312    3    0    1
 -2       662      2713      2739      3672
 -1      9313    3    0    1
 -2      2648      2713      3279      3672
 -1      9314    3    0    1
 -2      2559      2641      3135      3580
 -1      9315    3    0    1
 -2      3522      2529      2971      3593
 -1      9316    3    0    1
 -2      1523      1522      2913      3279
 -1      9317    3    0    1
 -2      2796      1465      2822      3687
 -1      9318    3    0    1
 -2      1503      2822      3035      3687
 -1      9319    3    0    1
 -2      3540      3514      1753      3652
 -1      9320    3    0    1
 -2      2836      3079      3080      3581
 -1      9321    3    0    1
 -2      2836      2712      3079      3581
 -1      9322    3    0    1
 -2      3544      2459      3569      3715
 -1      9323    3    0    1
 -2      2728      2688      2964      3581
 -1      9324    3    0    1
 -2      2834      2502      2955      3581
 -1      9325    3    0    1
 -2      2698      2834      2955      3581
 -1      9326    3    0    1
 -2      2502      2821      2955      3581
 -1      9327    3    0    1
 -2      2502      2834      2860      3581
 -1      9328    3    0    1
 -2      2860      2834      3004      3581
 -1      9329    3    0    1
 -2      1750       410      1753      3652
 -1      9330    3    0    1
 -2      1579      2864      2897      3335
 -1      9331    3    0    1
 -2      2290      2464      2483      3627
 -1      9332    3    0    1
 -2      3533      2762      3237      3258
 -1      9333    3    0    1
 -2      2503      2066      3500      3427
 -1      9334    3    0    1
 -2      3565      3563      3630      3678
 -1      9335    3    0    1
 -2      2630      2557      3595      3639
 -1      9336    3    0    1
 -2      2651      1688      3213      3309
 -1      9337    3    0    1
 -2      1809      1810      3191      3469
 -1      9338    3    0    1
 -2      2513      2384      2705      3582
 -1      9339    3    0    1
 -2      2087      2100      3657      3717
 -1      9340    3    0    1
 -2      3090      1671      3217      1911
 -1      9341    3    0    1
 -2      1543       395      2999      3630
 -1      9342    3    0    1
 -2      2091      2102      2514      3142
 -1      9343    3    0    1
 -2      2958      3040      3623      3655
 -1      9344    3    0    1
 -2      2878      1581      2917      3655
 -1      9345    3    0    1
 -2      1604      2958      3322      3655
 -1      9346    3    0    1
 -2      3526      3176      3270      3680
 -1      9347    3    0    1
 -2      3528      3526      3642      3680
 -1      9348    3    0    1
 -2      3549      2591      3674      3388
 -1      9349    3    0    1
 -2      3252      2786      1515      3259
 -1      9350    3    0    1
 -2      2550      1424      2849      3674
 -1      9351    3    0    1
 -2        13      1792      3330      3388
 -1      9352    3    0    1
 -2       949      1289       571      3646
 -1      9353    3    0    1
 -2       450       554      1736      3149
 -1      9354    3    0    1
 -2       554       450      2925      3149
 -1      9355    3    0    1
 -2      1559      1560      3218      1858
 -1      9356    3    0    1
 -2      2978      2932      3560      3620
 -1      9357    3    0    1
 -2      1806      1415      3211      3303
 -1      9358    3    0    1
 -2      3551      1409      3602      3634
 -1      9359    3    0    1
 -2      2710      3633      3584      2536
 -1      9360    3    0    1
 -2      1640      1641      1777      3377
 -1      9361    3    0    1
 -2      3181      3113      3183      1846
 -1      9362    3    0    1
 -2      2687      1305      3630      3716
 -1      9363    3    0    1
 -2      1641      1640      1758      3377
 -1      9364    3    0    1
 -2      1654      1636      3111      3584
 -1      9365    3    0    1
 -2      2666      1654      3111      3584
 -1      9366    3    0    1
 -2      2811      3048      3603      3304
 -1      9367    3    0    1
 -2      2550      1424      3674      3388
 -1      9368    3    0    1
 -2      1471      1807      3180      3304
 -1      9369    3    0    1
 -2      1424      3243      3674      3388
 -1      9370    3    0    1
 -2      2753      2654      2894      3584
 -1      9371    3    0    1
 -2      2505      2654      2753      3584
 -1      9372    3    0    1
 -2      2753      2894      2938      3584
 -1      9373    3    0    1
 -2      2666      2753      2938      3584
 -1      9374    3    0    1
 -2      2666      2505      2753      3584
 -1      9375    3    0    1
 -2      1614      1066      2900      3584
 -1      9376    3    0    1
 -2      2505      2529      2654      3584
 -1      9377    3    0    1
 -2      1479      1614      2900      3584
 -1      9378    3    0    1
 -2      2726      2666      3111      3584
 -1      9379    3    0    1
 -2      2536      2666      2726      3584
 -1      9380    3    0    1
 -2      2505      2666      2710      3584
 -1      9381    3    0    1
 -2      1066      2526      2900      3584
 -1      9382    3    0    1
 -2      2529      1422      2654      3584
 -1      9383    3    0    1
 -2      1654      1479      2900      3584
 -1      9384    3    0    1
 -2      2772      3555      3359      3381
 -1      9385    3    0    1
 -2      2666      2536      2710      3584
 -1      9386    3    0    1
 -2      2636      1498      3236      3388
 -1      9387    3    0    1
 -2       673       680      3115      1846
 -1      9388    3    0    1
 -2      1741      1742      3147      3238
 -1      9389    3    0    1
 -2      2487      1255      2558      3493
 -1      9390    3    0    1
 -2       554      2726      1736      3633
 -1      9391    3    0    1
 -2       387       949      3615      3723
 -1      9392    3    0    1
 -2      2842      2211      3567      3658
 -1      9393    3    0    1
 -2      1417      1635      3524      3658
 -1      9394    3    0    1
 -2      1575      1574      1732      3193
 -1      9395    3    0    1
 -2       655      1522      1523      3279
 -1      9396    3    0    1
 -2      2347      2478      2704      3586
 -1      9397    3    0    1
 -2      3508      1530      3548      3646
 -1      9398    3    0    1
 -2      3573      2460      3574      3597
 -1      9399    3    0    1
 -2      1610      3007      3269      3349
 -1      9400    3    0    1
 -2      1755      2944      1756      3370
 -1      9401    3    0    1
 -2      2798      1322      3525      3587
 -1      9402    3    0    1
 -2      1767      1755      1768      3370
 -1      9403    3    0    1
 -2      2127       771      2284      3316
 -1      9404    3    0    1
 -2       681      1312      2185      3168
 -1      9405    3    0    1
 -2       572      2714      3363      3369
 -1      9406    3    0    1
 -2        77       207      1901      3474
 -1      9407    3    0    1
 -2       626       619      3134      3312
 -1      9408    3    0    1
 -2       771       770      2284      3316
 -1      9409    3    0    1
 -2      1411      2482      1545      3587
 -1      9410    3    0    1
 -2      1411      1545      3509      3724
 -1      9411    3    0    1
 -2      1322       319      1501      3587
 -1      9412    3    0    1
 -2      2369      2817      3563      3314
 -1      9413    3    0    1
 -2      1322      1501      2522      3587
 -1      9414    3    0    1
 -2       619       626      1829      3312
 -1      9415    3    0    1
 -2      2085       279      2442      3707
 -1      9416    3    0    1
 -2      1750      1751      3001      1801
 -1      9417    3    0    1
 -2      3538      2484      3654      3655
 -1      9418    3    0    1
 -2       207        77      1511      3474
 -1      9419    3    0    1
 -2      2814      2883      2935      3592
 -1      9420    3    0    1
 -2      2964      2728      3581      3390
 -1      9421    3    0    1
 -2      1670      1546      2794        50
 -1      9422    3    0    1
 -2      1546      1670      2794      3151
 -1      9423    3    0    1
 -2      1549      2794      1670      3151
 -1      9424    3    0    1
 -2       607      1298      3590       610
 -1      9425    3    0    1
 -2        40       263      1800      1892
 -1      9426    3    0    1
 -2      2996      1485      3325      3649
 -1      9427    3    0    1
 -2      2905      2694      3553      3649
 -1      9428    3    0    1
 -2       346       157      3588      1889
 -1      9429    3    0    1
 -2      3001      2689      3206      3685
 -1      9430    3    0    1
 -2      1658      1657      3153      1888
 -1      9431    3    0    1
 -2       984      3588      1889      1890
 -1      9432    3    0    1
 -2      2528      2243      2544      3588
 -1      9433    3    0    1
 -2      1620      1829      3639      3471
 -1      9434    3    0    1
 -2       645       396       984      1890
 -1      9435    3    0    1
 -2       984       396      2544      1890
 -1      9436    3    0    1
 -2      1316      2982      3599      3448
 -1      9437    3    0    1
 -2       421       387      1748      3615
 -1      9438    3    0    1
 -2      2628      2680      3561      3644
 -1      9439    3    0    1
 -2       140      1836      3617      3271
 -1      9440    3    0    1
 -2      3514      3540      1753      3719
 -1      9441    3    0    1
 -2      3521      2768      3155      3156
 -1      9442    3    0    1
 -2      1499      1648      1649      3156
 -1      9443    3    0    1
 -2      1535       698      3625      3437
 -1      9444    3    0    1
 -2      2514      2091      3142      3719
 -1      9445    3    0    1
 -2       171       429      1877      3684
 -1      9446    3    0    1
 -2      1520      1519      2755      3156
 -1      9447    3    0    1
 -2      1519      1520      1649      3156
 -1      9448    3    0    1
 -2      3513      2514      3342      3719
 -1      9449    3    0    1
 -2      1648      1519      1649      3156
 -1      9450    3    0    1
 -2      2979      2945      3066      3646
 -1      9451    3    0    1
 -2      3306      3539      3638      3703
 -1      9452    3    0    1
 -2      2751      2659      2924      3591
 -1      9453    3    0    1
 -2      3508       949      3615      3646
 -1      9454    3    0    1
 -2      2983      1588      3033      3692
 -1      9455    3    0    1
 -2      2789      2744      3020      3591
 -1      9456    3    0    1
 -2      1625      1791      3043        24
 -1      9457    3    0    1
 -2      3621      3162      3289      3646
 -1      9458    3    0    1
 -2      1604      1750      3001      3206
 -1      9459    3    0    1
 -2       195      1680      1682      3159
 -1      9460    3    0    1
 -2       195      1572      1680      3159
 -1      9461    3    0    1
 -2      1721      3152      1802      3596
 -1      9462    3    0    1
 -2      2951      3002      3622      3685
 -1      9463    3    0    1
 -2      2470      3255      3670      3688
 -1      9464    3    0    1
 -2      3152      1719      1802      3596
 -1      9465    3    0    1
 -2      2601      1409      1724      3596
 -1      9466    3    0    1
 -2      3143      3167      3641      3688
 -1      9467    3    0    1
 -2       277      1058      2825      3596
 -1      9468    3    0    1
 -2       957       906      2547      3433
 -1      9469    3    0    1
 -2      3003      3547      3050      3658
 -1      9470    3    0    1
 -2      3547      3003      3567      3658
 -1      9471    3    0    1
 -2      2571      2804      3556      3596
 -1      9472    3    0    1
 -2      2554      2780      3625      3437
 -1      9473    3    0    1
 -2      1682      1423      2820      3161
 -1      9474    3    0    1
 -2      1423      2621      2820      3161
 -1      9475    3    0    1
 -2      1682      2820      3159      3161
 -1      9476    3    0    1
 -2       610       607      2242      3590
 -1      9477    3    0    1
 -2       607      1298       964      3590
 -1      9478    3    0    1
 -2      3621      3162      3646      3692
 -1      9479    3    0    1
 -2      2660      3162      3621      3692
 -1      9480    3    0    1
 -2      1596      3052      1802      1837
 -1      9481    3    0    1
 -2       426       253      1803      1837
 -1      9482    3    0    1
 -2      2906      2872      2888      3034
 -1      9483    3    0    1
 -2      3541      1704      3619      3271
 -1      9484    3    0    1
 -2       140      3617      3619      3271
 -1      9485    3    0    1
 -2      3566       128      1797      3703
 -1      9486    3    0    1
 -2       739       736      1027      1902
 -1      9487    3    0    1
 -2       722       208       320      1903
 -1      9488    3    0    1
 -2      3539       128      3578      3703
 -1      9489    3    0    1
 -2      2461      2369      2817      3427
 -1      9490    3    0    1
 -2      1298       128      1794      3590
 -1      9491    3    0    1
 -2      1802      3052      1803      1837
 -1      9492    3    0    1
 -2      1757      1640      3077      3637
 -1      9493    3    0    1
 -2      2990      1298      1794      3590
 -1      9494    3    0    1
 -2      1567      2990      1794      3590
 -1      9495    3    0    1
 -2      2924      3009      3150      3591
 -1      9496    3    0    1
 -2      1725      3594      3604      3689
 -1      9497    3    0    1
 -2      2880      3573      3252      3319
 -1      9498    3    0    1
 -2      3604       329      1823      3689
 -1      9499    3    0    1
 -2      1766      3252      1860      3319
 -1      9500    3    0    1
 -2       941      2619      3517      3722
 -1      9501    3    0    1
 -2      3009      1477      1863      1864
 -1      9502    3    0    1
 -2      2880      2923      3573      3319
 -1      9503    3    0    1
 -2      3048      1646      3090      3217
 -1      9504    3    0    1
 -2        50      1546      1684      3215
 -1      9505    3    0    1
 -2      2704      2271      3618      3717
 -1      9506    3    0    1
 -2      1646        13      3090      3217
 -1      9507    3    0    1
 -2      3023      3618      3355      3717
 -1      9508    3    0    1
 -2      2667      1511      3146      3474
 -1      9509    3    0    1
 -2      3367      1913      1924      3494
 -1      9510    3    0    1
 -2       335       267      3529      3707
 -1      9511    3    0    1
 -2      2990      3141      3620      3637
 -1      9512    3    0    1
 -2       229      1565      2835      3167
 -1      9513    3    0    1
 -2      2835      1565      2848      3167
 -1      9514    3    0    1
 -2      2974      2369      3563      3314
 -1      9515    3    0    1
 -2       229      1576      3587      3167
 -1      9516    3    0    1
 -2      1576       229      2835      3167
 -1      9517    3    0    1
 -2      2644      2835      2848      3167
 -1      9518    3    0    1
 -2      1753      1750      3001      1801
 -1      9519    3    0    1
 -2       681      2333      2565      3168
 -1      9520    3    0    1
 -2       661       681      2090      3168
 -1      9521    3    0    1
 -2       679      2185      2333      3168
 -1      9522    3    0    1
 -2       681       679      2333      3168
 -1      9523    3    0    1
 -2       679       681      2185      3168
 -1      9524    3    0    1
 -2       681       990      1312      3168
 -1      9525    3    0    1
 -2       681       661       990      3168
 -1      9526    3    0    1
 -2      1562      2748      2973      3247
 -1      9527    3    0    1
 -2      1308       661       664      3169
 -1      9528    3    0    1
 -2       664       661      2319      3169
 -1      9529    3    0    1
 -2      1308       664      2319      3169
 -1      9530    3    0    1
 -2      2731      3208      3313      3649
 -1      9531    3    0    1
 -2       133       588       961      1804
 -1      9532    3    0    1
 -2      1457      2699      3573      3319
 -1      9533    3    0    1
 -2      3175      2591      3236      3330
 -1      9534    3    0    1
 -2      1593      3010      3133      3682
 -1      9535    3    0    1
 -2       139       133      3536      1804
 -1      9536    3    0    1
 -2       133       961      2086      1804
 -1      9537    3    0    1
 -2      2086       961      3536      1804
 -1      9538    3    0    1
 -2       133      2086      3536      1804
 -1      9539    3    0    1
 -2       596       133       139      1804
 -1      9540    3    0    1
 -2       133       596       588      1804
 -1      9541    3    0    1
 -2       386      3536      3552      1805
 -1      9542    3    0    1
 -2       144       386      3552      1805
 -1      9543    3    0    1
 -2       609       144       967      1805
 -1      9544    3    0    1
 -2       613       609       967      1805
 -1      9545    3    0    1
 -2       144       613       386      1805
 -1      9546    3    0    1
 -2       613       144       609      1805
 -1      9547    3    0    1
 -2      1411      3509      2816      3605
 -1      9548    3    0    1
 -2      2558      1255      1695      3493
 -1      9549    3    0    1
 -2      2531      2638      3654      3682
 -1      9550    3    0    1
 -2      1621      1620      1779      3170
 -1      9551    3    0    1
 -2      3558      2875      3171      3682
 -1      9552    3    0    1
 -2      3521      2768      3156      3683
 -1      9553    3    0    1
 -2      1529      1877      3684      3718
 -1      9554    3    0    1
 -2       171      1529      3623      3718
 -1      9555    3    0    1
 -2      2755      1519      2757      3683
 -1      9556    3    0    1
 -2      3173      3521      3671      3683
 -1      9557    3    0    1
 -2      1499      2768      3521      3683
 -1      9558    3    0    1
 -2      3521      3173      3227      3683
 -1      9559    3    0    1
 -2      2573      2757      3671      3683
 -1      9560    3    0    1
 -2      2475      3521      3155      3683
 -1      9561    3    0    1
 -2      1519       644      2757      3683
 -1      9562    3    0    1
 -2      1769        22      1817      1848
 -1      9563    3    0    1
 -2      1716      1558      1557      3337
 -1      9564    3    0    1
 -2      1840      3096      1841      3332
 -1      9565    3    0    1
 -2      3199      2792      3612      3337
 -1      9566    3    0    1
 -2      3559      2824      3083      3179
 -1      9567    3    0    1
 -2      3255      3305      3670      3688
 -1      9568    3    0    1
 -2      3576      1450      3223      3242
 -1      9569    3    0    1
 -2      3463      1725      3739      3743
 -1      9570    3    0    1
 -2      3135      3580      3144      3174
 -1      9571    3    0    1
 -2      1555      3135      3144      3174
 -1      9572    3    0    1
 -2      1585      3522      2971      3593
 -1      9573    3    0    1
 -2      2529      1585      2971      3593
 -1      9574    3    0    1
 -2      1508      2535      1624      3593
 -1      9575    3    0    1
 -2      1591      1624      2930      3593
 -1      9576    3    0    1
 -2      1789      2899      1790      3297
 -1      9577    3    0    1
 -2      2710      3516      3011      3593
 -1      9578    3    0    1
 -2      1508      1585      2788      3593
 -1      9579    3    0    1
 -2      2752      3109      3622      3298
 -1      9580    3    0    1
 -2      2899      1789      1790      3298
 -1      9581    3    0    1
 -2       655      1789      1790      3297
 -1      9582    3    0    1
 -2      2529      2535      2788      3593
 -1      9583    3    0    1
 -2      2529      2505      2535      3593
 -1      9584    3    0    1
 -2      2535      2710      2930      3593
 -1      9585    3    0    1
 -2      2535      2505      2710      3593
 -1      9586    3    0    1
 -2      1508      1624      2771      3593
 -1      9587    3    0    1
 -2      1624      1591      2771      3593
 -1      9588    3    0    1
 -2      1789      1606      1790      3298
 -1      9589    3    0    1
 -2      2930      2710      3011      3593
 -1      9590    3    0    1
 -2      1585      1508      2771      3593
 -1      9591    3    0    1
 -2      1607      1606      1781      3298
 -1      9592    3    0    1
 -2      1540      1539      1747      3190
 -1      9593    3    0    1
 -2      2889      3011      3296      3340
 -1      9594    3    0    1
 -2      1305      3565      3630      3716
 -1      9595    3    0    1
 -2      3535      2683      3576      3607
 -1      9596    3    0    1
 -2       112       383      1821      3642
 -1      9597    3    0    1
 -2      2520      2774      3458      3739
 -1      9598    3    0    1
 -2      2931      3118      3639      3471
 -1      9599    3    0    1
 -2      2691      1489      3007      3275
 -1      9600    3    0    1
 -2      2607      3093      3188      3690
 -1      9601    3    0    1
 -2      2948      2723      3662      3706
 -1      9602    3    0    1
 -2      1441      1440      1858      3400
 -1      9603    3    0    1
 -2       572      3094      3690      1713
 -1      9604    3    0    1
 -2      2236      2127      2402      3594
 -1      9605    3    0    1
 -2      3592      2948      3662      3706
 -1      9606    3    0    1
 -2      2655      3535      3607      3690
 -1      9607    3    0    1
 -2      1857      1440      3688      3400
 -1      9608    3    0    1
 -2      2860      3102      3581      3390
 -1      9609    3    0    1
 -2      1716      1558      3337      1717
 -1      9610    3    0    1
 -2      1676      2738      2994      3595
 -1      9611    3    0    1
 -2      1514      2738      1676      3595
 -1      9612    3    0    1
 -2      1514      1638      3157      3595
 -1      9613    3    0    1
 -2      1667      2851      3163      3595
 -1      9614    3    0    1
 -2      2851      1667      2994      3595
 -1      9615    3    0    1
 -2      1667      1676      2994      3595
 -1      9616    3    0    1
 -2      2630      2557      2738      3595
 -1      9617    3    0    1
 -2      2614      3005      3013      3650
 -1      9618    3    0    1
 -2      3656      3608      3378      3717
 -1      9619    3    0    1
 -2      3049      2765      3160      3595
 -1      9620    3    0    1
 -2      2738      2557      2851      3595
 -1      9621    3    0    1
 -2      2630      2738      3157      3595
 -1      9622    3    0    1
 -2      3565      3546      1305      3630
 -1      9623    3    0    1
 -2      2852      2630      3157      3595
 -1      9624    3    0    1
 -2      3049      3160      3163      3595
 -1      9625    3    0    1
 -2       644      1593      2962      3671
 -1      9626    3    0    1
 -2        13      3217      1647      1911
 -1      9627    3    0    1
 -2      2738      2851      2994      3595
 -1      9628    3    0    1
 -2       395      1305      3611      3630
 -1      9629    3    0    1
 -2      1600      3299      1853      3390
 -1      9630    3    0    1
 -2      1514      1676      3160      3595
 -1      9631    3    0    1
 -2      1638      1514      3160      3595
 -1      9632    3    0    1
 -2      3160      1667      3163      3595
 -1      9633    3    0    1
 -2      1676      1667      3160      3595
 -1      9634    3    0    1
 -2      1409      2657      1721      3596
 -1      9635    3    0    1
 -2      1409      2601      2657      3596
 -1      9636    3    0    1
 -2      1336       253      3172      3596
 -1      9637    3    0    1
 -2      1800      3014      1891      3447
 -1      9638    3    0    1
 -2      2657      2601      3139      3596
 -1      9639    3    0    1
 -2      2657      3139      3164      3596
 -1      9640    3    0    1
 -2      1721      2657      3152      3596
 -1      9641    3    0    1
 -2       253      1802      3172      3596
 -1      9642    3    0    1
 -2      2601      2571      3139      3596
 -1      9643    3    0    1
 -2      2717      3576      3223      3242
 -1      9644    3    0    1
 -2      2804      2601      2907      3596
 -1      9645    3    0    1
 -2      2571      2601      2804      3596
 -1      9646    3    0    1
 -2      1802      1719      3172      3596
 -1      9647    3    0    1
 -2      2772      2915      3555      3481
 -1      9648    3    0    1
 -2       990      1312      3168      3640
 -1      9649    3    0    1
 -2      2711      3549      3264      3308
 -1      9650    3    0    1
 -2      3617      3541      3271      3402
 -1      9651    3    0    1
 -2      1583      2934      2995      1811
 -1      9652    3    0    1
 -2      2783      3191      1846      1847
 -1      9653    3    0    1
 -2      1764      1528      3231      3451
 -1      9654    3    0    1
 -2      3096      1445      1840      1841
 -1      9655    3    0    1
 -2      1525      1524      1808      3186
 -1      9656    3    0    1
 -2      3169      3513      3613      3640
 -1      9657    3    0    1
 -2      3218      1559      3315      3333
 -1      9658    3    0    1
 -2      2518      1541      2980      3428
 -1      9659    3    0    1
 -2      3270      3526      3680      3449
 -1      9660    3    0    1
 -2      2462      2274      3515      3201
 -1      9661    3    0    1
 -2      2497      2787      3662      3721
 -1      9662    3    0    1
 -2      1810      1809      1851      3469
 -1      9663    3    0    1
 -2      1810      1809      3191      1847
 -1      9664    3    0    1
 -2      3293      1495      3308      3674
 -1      9665    3    0    1
 -2      2662      2770      3579      3377
 -1      9666    3    0    1
 -2      1640      2770      1757      3377
 -1      9667    3    0    1
 -2      3498      3541      3589      3402
 -1      9668    3    0    1
 -2      3610      3079      3263      3398
 -1      9669    3    0    1
 -2      3172      3079      3610      3398
 -1      9670    3    0    1
 -2      3534      3506      3562      3609
 -1      9671    3    0    1
 -2      3517      2576      2784      3184
 -1      9672    3    0    1
 -2      2606      2784      2947      3184
 -1      9673    3    0    1
 -2      1638      3030      3383      3702
 -1      9674    3    0    1
 -2      1659      3209      3395      3482
 -1      9675    3    0    1
 -2      1656      3589      3617      3402
 -1      9676    3    0    1
 -2      1501      2522      3587      3641
 -1      9677    3    0    1
 -2      2482      1501      3587      3641
 -1      9678    3    0    1
 -2       781       786      3122      3222
 -1      9679    3    0    1
 -2      1807      3137      1808      3186
 -1      9680    3    0    1
 -2      1524      1807      1808      3186
 -1      9681    3    0    1
 -2      1782      1524      1783      3186
 -1      9682    3    0    1
 -2      2538      1782      1783      3186
 -1      9683    3    0    1
 -2      2823      2785      3606      3687
 -1      9684    3    0    1
 -2      3200      2799      3309      3396
 -1      9685    3    0    1
 -2      3574      3200      3379      3396
 -1      9686    3    0    1
 -2      3530      2706      2950      3396
 -1      9687    3    0    1
 -2      1659      1660      3150      3395
 -1      9688    3    0    1
 -2       750      3200      3309      3396
 -1      9689    3    0    1
 -2      1617      1616      1866      3364
 -1      9690    3    0    1
 -2      3162      2941      3646      3692
 -1      9691    3    0    1
 -2      1865      3261      1866      3364
 -1      9692    3    0    1
 -2       732       727      3092      3233
 -1      9693    3    0    1
 -2      1652      3583      3176      3189
 -1      9694    3    0    1
 -2       422      1708      3585      3189
 -1      9695    3    0    1
 -2      2509      2360      2778      3658
 -1      9696    3    0    1
 -2      3560      3022      3214      3415
 -1      9697    3    0    1
 -2      1417      2807      2946      3658
 -1      9698    3    0    1
 -2      1711      1667      1712      3290
 -1      9699    3    0    1
 -2      1818      3205      1819      3286
 -1      9700    3    0    1
 -2      2840      1629      2911      3661
 -1      9701    3    0    1
 -2      1629      2840      3318      3661
 -1      9702    3    0    1
 -2      1635      1417      2946      3658
 -1      9703    3    0    1
 -2      3505      3524      3547      3658
 -1      9704    3    0    1
 -2      2091      2509      2778      3658
 -1      9705    3    0    1
 -2      3530      2742      2950      3689
 -1      9706    3    0    1
 -2      2778      2842      2946      3658
 -1      9707    3    0    1
 -2      3524      3532      3547      3658
 -1      9708    3    0    1
 -2      3547      3532      3050      3658
 -1      9709    3    0    1
 -2      1715      1561      3056      3668
 -1      9710    3    0    1
 -2      3586      3510      3648      3657
 -1      9711    3    0    1
 -2      2799      2498      3530      3597
 -1      9712    3    0    1
 -2      3578      3512      3723      3728
 -1      9713    3    0    1
 -2      2488      2622      2803      3597
 -1      9714    3    0    1
 -2      2488      2803      2880      3597
 -1      9715    3    0    1
 -2      2880      2803      3573      3597
 -1      9716    3    0    1
 -2      1664      2588      2802      3234
 -1      9717    3    0    1
 -2      3555      2918      3300      3320
 -1      9718    3    0    1
 -2      3057      2799      3574      3597
 -1      9719    3    0    1
 -2      2460      3057      3574      3597
 -1      9720    3    0    1
 -2      3526      2466      3176      3680
 -1      9721    3    0    1
 -2      3549      2665      3673      3462
 -1      9722    3    0    1
 -2      2622      2865      3148      3597
 -1      9723    3    0    1
 -2      2635      2622      3148      3597
 -1      9724    3    0    1
 -2      2622      2813      2865      3597
 -1      9725    3    0    1
 -2      2733      2488      2880      3597
 -1      9726    3    0    1
 -2      2864      2533      3607      3386
 -1      9727    3    0    1
 -2      2533      2864      3028      3386
 -1      9728    3    0    1
 -2      2460      2646      2799      3597
 -1      9729    3    0    1
 -2      2646      2498      2799      3597
 -1      9730    3    0    1
 -2      2498      2646      3117      3597
 -1      9731    3    0    1
 -2      2460      2799      3057      3597
 -1      9732    3    0    1
 -2      2427      3572      3140      3680
 -1      9733    3    0    1
 -2      1731       786      3222      3263
 -1      9734    3    0    1
 -2      1857      1559      3373      3688
 -1      9735    3    0    1
 -2      3581      2955      3222      3263
 -1      9736    3    0    1
 -2      3122      1755      3610      3263
 -1      9737    3    0    1
 -2       804       799      1771      3328
 -1      9738    3    0    1
 -2      3004       804      3272      3328
 -1      9739    3    0    1
 -2      3553      1487      3081      3466
 -1      9740    3    0    1
 -2      2851      1667      1711      3290
 -1      9741    3    0    1
 -2      2808      3515      3567      3203
 -1      9742    3    0    1
 -2      1731      2795      1732      3202
 -1      9743    3    0    1
 -2      2770      1640      3579      3377
 -1      9744    3    0    1
 -2      3514      1429      3562      3701
 -1      9745    3    0    1
 -2      2820      2567      3106      3603
 -1      9746    3    0    1
 -2      1657      1658      2912      3356
 -1      9747    3    0    1
 -2       277      1724      3596      3291
 -1      9748    3    0    1
 -2      2631      2568      3108      3598
 -1      9749    3    0    1
 -2      3105      2982      3182      3598
 -1      9750    3    0    1
 -2      2568      3086      3108      3598
 -1      9751    3    0    1
 -2      2790      2982      3105      3598
 -1      9752    3    0    1
 -2      1006      2568      2631      3598
 -1      9753    3    0    1
 -2      2569      2566      3185      3598
 -1      9754    3    0    1
 -2      2568      2815      3086      3598
 -1      9755    3    0    1
 -2      2507      2569      3185      3598
 -1      9756    3    0    1
 -2      3185      2566      3191      3598
 -1      9757    3    0    1
 -2       423       277      1586      3291
 -1      9758    3    0    1
 -2      2686      2507      3185      3598
 -1      9759    3    0    1
 -2      2569      2507      2609      3598
 -1      9760    3    0    1
 -2       786       781      2944      3202
 -1      9761    3    0    1
 -2      2790      1316      2982      3598
 -1      9762    3    0    1
 -2      3140      3572      3257      3680
 -1      9763    3    0    1
 -2       423       277      1870      3653
 -1      9764    3    0    1
 -2      1821       112      3642      3449
 -1      9765    3    0    1
 -2       781      1731      1732      3202
 -1      9766    3    0    1
 -2      1843      1832      1844      3292
 -1      9767    3    0    1
 -2      2570      3538      3554      3623
 -1      9768    3    0    1
 -2      2664      1410      1694      3623
 -1      9769    3    0    1
 -2      3019      1657      3554      3623
 -1      9770    3    0    1
 -2      3045      1604      1874      1875
 -1      9771    3    0    1
 -2      3001      2689      3045      3206
 -1      9772    3    0    1
 -2      2832      1040      3527      3357
 -1      9773    3    0    1
 -2      1530       383      3548      3646
 -1      9774    3    0    1
 -2      2651      1688      3309      3396
 -1      9775    3    0    1
 -2      1688       750      3309      3396
 -1      9776    3    0    1
 -2      3530      2950      3213      3396
 -1      9777    3    0    1
 -2      3527      1442      1729      3624
 -1      9778    3    0    1
 -2        26      1627      2731      1813
 -1      9779    3    0    1
 -2       424       128      1795      1827
 -1      9780    3    0    1
 -2      1431      3586      3643      3648
 -1      9781    3    0    1
 -2      1673      1431      3643      3648
 -1      9782    3    0    1
 -2      2658      3026      3578      3675
 -1      9783    3    0    1
 -2      3051      2754      3664      3454
 -1      9784    3    0    1
 -2      1487      2965      3102      3650
 -1      9785    3    0    1
 -2      2836      3008      3581      3650
 -1      9786    3    0    1
 -2      2731      1449      1745      3208
 -1      9787    3    0    1
 -2      2785      3577      3606      3687
 -1      9788    3    0    1
 -2      3608      1596      1837      3378
 -1      9789    3    0    1
 -2      3086      3598      3603      3625
 -1      9790    3    0    1
 -2      1557      1558      3085      3210
 -1      9791    3    0    1
 -2      1557       601      1558      3210
 -1      9792    3    0    1
 -2       950      1284      2549      3438
 -1      9793    3    0    1
 -2      1535      1503      2780      3625
 -1      9794    3    0    1
 -2      1602      1516      3605      3458
 -1      9795    3    0    1
 -2      2520      2816      3605      3458
 -1      9796    3    0    1
 -2      1197      1195      3559      3211
 -1      9797    3    0    1
 -2      3559      1195      3104      3211
 -1      9798    3    0    1
 -2      2893      1698      3559      3211
 -1      9799    3    0    1
 -2      3551      1409      3355      3479
 -1      9800    3    0    1
 -2      1066      2760      3522      3635
 -1      9801    3    0    1
 -2      1652      1422      3583      3635
 -1      9802    3    0    1
 -2      1631        41      1698      3211
 -1      9803    3    0    1
 -2      3362      3378      3717      3479
 -1      9804    3    0    1
 -2      1476      1475      2973      3212
 -1      9805    3    0    1
 -2      1475      1476      1723      3212
 -1      9806    3    0    1
 -2      1688      1689      2922      3212
 -1      9807    3    0    1
 -2      1689      1688      1723      3212
 -1      9808    3    0    1
 -2      1722      1475      2950      3213
 -1      9809    3    0    1
 -2       196      1542      1541      3428
 -1      9810    3    0    1
 -2       319      1015      3523      3601
 -1      9811    3    0    1
 -2      1015       319      3515      3601
 -1      9812    3    0    1
 -2      3510      1442      3624      3453
 -1      9813    3    0    1
 -2      1664       316      3123      3601
 -1      9814    3    0    1
 -2      1319      2709      3523      3601
 -1      9815    3    0    1
 -2      3547      1672      1793      3601
 -1      9816    3    0    1
 -2       316      3547      1793      3601
 -1      9817    3    0    1
 -2      2626      1497      3523      3601
 -1      9818    3    0    1
 -2      1497      1561      3523      3601
 -1      9819    3    0    1
 -2      1561       319      3523      3601
 -1      9820    3    0    1
 -2       319      1561      3515      3601
 -1      9821    3    0    1
 -2      3192      3657      3452      3457
 -1      9822    3    0    1
 -2      3123       316      1793      3601
 -1      9823    3    0    1
 -2      1319       316      1664      3601
 -1      9824    3    0    1
 -2      2709      1319      1664      3601
 -1      9825    3    0    1
 -2      1497      2626      1672      3601
 -1      9826    3    0    1
 -2      1672      2626      3123      3601
 -1      9827    3    0    1
 -2      1672      3123      1793      3601
 -1      9828    3    0    1
 -2      1336      3511      3551      3602
 -1      9829    3    0    1
 -2      2332      1340      3522      3602
 -1      9830    3    0    1
 -2      1340       277      3522      3602
 -1      9831    3    0    1
 -2       763       768      3138      1871
 -1      9832    3    0    1
 -2      2332      3496      3165      3602
 -1      9833    3    0    1
 -2      3496      2332      3522      3602
 -1      9834    3    0    1
 -2      3067      2332      3165      3602
 -1      9835    3    0    1
 -2      2271      3067      3165      3602
 -1      9836    3    0    1
 -2      2465      2271      3165      3602
 -1      9837    3    0    1
 -2      1058       277      1340      3602
 -1      9838    3    0    1
 -2      2271      2704      3545      3717
 -1      9839    3    0    1
 -2      3023      2679      3618      3717
 -1      9840    3    0    1
 -2      3526      2525      3528      3642
 -1      9841    3    0    1
 -2      1599      1435      3526      3642
 -1      9842    3    0    1
 -2      1543       395      3629      3450
 -1      9843    3    0    1
 -2      3526      1435      3575      3642
 -1      9844    3    0    1
 -2      2525      3526      3531      3642
 -1      9845    3    0    1
 -2      3218      3071      1857      1858
 -1      9846    3    0    1
 -2      3528      2525      3531      3642
 -1      9847    3    0    1
 -2      2992      2722      3637      3702
 -1      9848    3    0    1
 -2      1700      2992      3590      3702
 -1      9849    3    0    1
 -2      1621      1620      3126      1830
 -1      9850    3    0    1
 -2      2102      2091      2778      3219
 -1      9851    3    0    1
 -2      2778      2091      2807      3219
 -1      9852    3    0    1
 -2      2591      2550      3674      3388
 -1      9853    3    0    1
 -2      2591      3236      3330      3388
 -1      9854    3    0    1
 -2      1616      3018      3351      3374
 -1      9855    3    0    1
 -2      3548      3528      3642      3680
 -1      9856    3    0    1
 -2      1769      2874      3073      1817
 -1      9857    3    0    1
 -2      3073      1769      1817      1848
 -1      9858    3    0    1
 -2      3105      2790      3598      3603
 -1      9859    3    0    1
 -2      2621      3090      3048      3603
 -1      9860    3    0    1
 -2      1442      3510      3414      3453
 -1      9861    3    0    1
 -2       171      3623      1308      3718
 -1      9862    3    0    1
 -2      2490      2621      2779      3603
 -1      9863    3    0    1
 -2      3086      2815      3106      3603
 -1      9864    3    0    1
 -2      2490      2567      2621      3603
 -1      9865    3    0    1
 -2       900      1144      3161      3603
 -1      9866    3    0    1
 -2      2568       900      2815      3603
 -1      9867    3    0    1
 -2      1683      2811      3048      3603
 -1      9868    3    0    1
 -2      2811      3105      3220      3603
 -1      9869    3    0    1
 -2      2621      2567      2820      3603
 -1      9870    3    0    1
 -2      2684      3528      3572      3680
 -1      9871    3    0    1
 -2      2779      2621      3136      3603
 -1      9872    3    0    1
 -2      2066      3498      3500      3427
 -1      9873    3    0    1
 -2      1144      1683      3161      3603
 -1      9874    3    0    1
 -2      1144      2811      1683      3603
 -1      9875    3    0    1
 -2      1144      2790      2811      3603
 -1      9876    3    0    1
 -2      1683      3090      3161      3603
 -1      9877    3    0    1
 -2      2469      2091      3514      3701
 -1      9878    3    0    1
 -2      2811      2790      3105      3603
 -1      9879    3    0    1
 -2      2906      2872      3034      3676
 -1      9880    3    0    1
 -2      3001      3206      3652      3685
 -1      9881    3    0    1
 -2       170       991      3542      3224
 -1      9882    3    0    1
 -2       328       170      3542      3224
 -1      9883    3    0    1
 -2      1957      2068      2172      2317
 -1      9884    3    0    1
 -2      2793      2812      3260      3702
 -1      9885    3    0    1
 -2      3185      3182      3191      3469
 -1      9886    3    0    1
 -2      2810       619      1829      1830
 -1      9887    3    0    1
 -2      3126      1620      1829      1830
 -1      9888    3    0    1
 -2      2783      2566      3387      3461
 -1      9889    3    0    1
 -2      3137      1471      3236      3462
 -1      9890    3    0    1
 -2      2566      2783      3191      3461
 -1      9891    3    0    1
 -2      2566      3598      3387      3461
 -1      9892    3    0    1
 -2       495      2762      3265       494
 -1      9893    3    0    1
 -2      1809      3191      1846      3461
 -1      9894    3    0    1
 -2      1471      3137      1807      3462
 -1      9895    3    0    1
 -2      1846      2783      3387      3461
 -1      9896    3    0    1
 -2      3191      2783      1846      3461
 -1      9897    3    0    1
 -2      3182      3185      3191      3461
 -1      9898    3    0    1
 -2      2797      2762      3533      3265
 -1      9899    3    0    1
 -2      3361      3342      3719      3472
 -1      9900    3    0    1
 -2      3598      3182      3387      3461
 -1      9901    3    0    1
 -2      3185      3182      3598      3461
 -1      9902    3    0    1
 -2       337       282      3695      1917
 -1      9903    3    0    1
 -2      3412       716      3475      3483
 -1      9904    3    0    1
 -2       336       106      3537      3695
 -1      9905    3    0    1
 -2      2304       336      2578      3695
 -1      9906    3    0    1
 -2       944      2304      2449      3695
 -1      9907    3    0    1
 -2      3094      3087      3690      3459
 -1      9908    3    0    1
 -2      1576      1411      2816      3605
 -1      9909    3    0    1
 -2       428      1576      2816      3605
 -1      9910    3    0    1
 -2      3094      1713      1818      3459
 -1      9911    3    0    1
 -2      1602       428      2816      3605
 -1      9912    3    0    1
 -2      1713      3094      3690      3459
 -1      9913    3    0    1
 -2      1455      3092      1775      3228
 -1      9914    3    0    1
 -2      2864      3127      3335      3386
 -1      9915    3    0    1
 -2      1579      2864      3335      3386
 -1      9916    3    0    1
 -2      2567      2820      3106      3229
 -1      9917    3    0    1
 -2      1572      1465      3106      3229
 -1      9918    3    0    1
 -2      2728      2825      3556      3358
 -1      9919    3    0    1
 -2      1624      3556      3301      3358
 -1      9920    3    0    1
 -2      1553      3029      3632      3665
 -1      9921    3    0    1
 -2      3533      2797      3265      3665
 -1      9922    3    0    1
 -2      2661      2615      3577      3606
 -1      9923    3    0    1
 -2      2876      2661      3577      3606
 -1      9924    3    0    1
 -2      3530      2799      3574      3396
 -1      9925    3    0    1
 -2      1443      1719      3164      3398
 -1      9926    3    0    1
 -2      3596      3172      3610      3398
 -1      9927    3    0    1
 -2      1539      3087      1818      3459
 -1      9928    3    0    1
 -2      1416      3520      3541      3619
 -1      9929    3    0    1
 -2      3014      1597      3039      1891
 -1      9930    3    0    1
 -2      1432      1748      3572      3257
 -1      9931    3    0    1
 -2      2597      2615      2661      3606
 -1      9932    3    0    1
 -2      2597      2603      2615      3606
 -1      9933    3    0    1
 -2      2543      2575      2587      3606
 -1      9934    3    0    1
 -2      2543      2510      2575      3606
 -1      9935    3    0    1
 -2      2491      2541      2543      3606
 -1      9936    3    0    1
 -2      2541      2510      2543      3606
 -1      9937    3    0    1
 -2      2785      2615      2823      3606
 -1      9938    3    0    1
 -2      2491      2543      2587      3606
 -1      9939    3    0    1
 -2      2615      2709      2823      3606
 -1      9940    3    0    1
 -2      2950      1722      3213      3396
 -1      9941    3    0    1
 -2      2510      2541      2669      3606
 -1      9942    3    0    1
 -2      1629      2966      3197      3626
 -1      9943    3    0    1
 -2      2603      2661      2876      3606
 -1      9944    3    0    1
 -2      3574      2799      3200      3396
 -1      9945    3    0    1
 -2      2603      2597      2661      3606
 -1      9946    3    0    1
 -2      1636      2939      1736      3241
 -1      9947    3    0    1
 -2       196      1316      3534      3691
 -1      9948    3    0    1
 -2      3609       196       182      3691
 -1      9949    3    0    1
 -2      3550      3016      3261      3364
 -1      9950    3    0    1
 -2      3550      2692      3016      3364
 -1      9951    3    0    1
 -2      2533      2627      2862      3607
 -1      9952    3    0    1
 -2      2533      2481      2627      3607
 -1      9953    3    0    1
 -2      2481      2533      3075      3607
 -1      9954    3    0    1
 -2      2533      2862      2864      3607
 -1      9955    3    0    1
 -2      1432      3528      3548      3680
 -1      9956    3    0    1
 -2      2533      3028      3075      3607
 -1      9957    3    0    1
 -2      3562      3534      3609      3691
 -1      9958    3    0    1
 -2      2519      2481      3075      3607
 -1      9959    3    0    1
 -2       196      1609      1760      3691
 -1      9960    3    0    1
 -2      1865      3261      3550      1450
 -1      9961    3    0    1
 -2      1514      3030      3260      3365
 -1      9962    3    0    1
 -2      1316       196      3609      3691
 -1      9963    3    0    1
 -2      2523      2596      3065      3235
 -1      9964    3    0    1
 -2      2523      2587      2596      3235
 -1      9965    3    0    1
 -2      2636      1150      2665      3236
 -1      9966    3    0    1
 -2      1741      3147      3246      3740
 -1      9967    3    0    1
 -2      2591      3549      3137      3236
 -1      9968    3    0    1
 -2      3137      1471      3175      3236
 -1      9969    3    0    1
 -2      3517       941      3614      3740
 -1      9970    3    0    1
 -2       241      1333      3643      3482
 -1      9971    3    0    1
 -2      3147      1741      3238      3740
 -1      9972    3    0    1
 -2       333      2610      3708      3744
 -1      9973    3    0    1
 -2      1498      1150      2636      3236
 -1      9974    3    0    1
 -2      2591      3137      3175      3236
 -1      9975    3    0    1
 -2      2804      1508      3301      3358
 -1      9976    3    0    1
 -2      2825       277      3596      3358
 -1      9977    3    0    1
 -2      1508      1624      3301      3358
 -1      9978    3    0    1
 -2      1692      1693      3009      1864
 -1      9979    3    0    1
 -2      1650      1651      2763      3239
 -1      9980    3    0    1
 -2      1501       430      3406       319
 -1      9981    3    0    1
 -2      2804      1508      2907      3301
 -1      9982    3    0    1
 -2      1554      1553      2988      3239
 -1      9983    3    0    1
 -2      1553      1554      1651      3239
 -1      9984    3    0    1
 -2      1650      1553      1651      3239
 -1      9985    3    0    1
 -2      1722      1688      3213      3396
 -1      9986    3    0    1
 -2      3550      2872      3091      3620
 -1      9987    3    0    1
 -2      2920      1535      2956      3240
 -1      9988    3    0    1
 -2      1535      1536      2956      3240
 -1      9989    3    0    1
 -2        69        80      1878      3446
 -1      9990    3    0    1
 -2      3514      3513      3540      3719
 -1      9991    3    0    1
 -2       698      1535      3187      3240
 -1      9992    3    0    1
 -2      1636      1654      2981      3241
 -1      9993    3    0    1
 -2      2981      1654      3184      3241
 -1      9994    3    0    1
 -2      2784      2981      3184      3241
 -1      9995    3    0    1
 -2      2576      2784      3184      3241
 -1      9996    3    0    1
 -2      2668      2576      3517      3241
 -1      9997    3    0    1
 -2      2939      2668      3149      3241
 -1      9998    3    0    1
 -2      2784      2939      2981      3241
 -1      9999    3    0    1
 -2      2784      2576      2939      3241
 -1     10000    3    0    1
 -2      2576      2668      2939      3241
 -1     10001    3    0    1
 -2      2807      1552      3225      3609
 -1     10002    3    0    1
 -2      1417      1552      2807      3609
 -1     10003    3    0    1
 -2      1656      1421      3589      3402
 -1     10004    3    0    1
 -2      2571      3139      3596      3610
 -1     10005    3    0    1
 -2      2828      2571      3556      3610
 -1     10006    3    0    1
 -2      1463      2985      1776      3637
 -1     10007    3    0    1
 -2      2834      3556      3581      3610
 -1     10008    3    0    1
 -2      2698      2834      3581      3610
 -1     10009    3    0    1
 -2      2822      1465      3035      3687
 -1     10010    3    0    1
 -2      1463      1567      3098      3637
 -1     10011    3    0    1
 -2      2834      2828      3556      3610
 -1     10012    3    0    1
 -2        26      2731      1826      3350
 -1     10013    3    0    1
 -2      3222      3581      2698      2955
 -1     10014    3    0    1
 -2      3581      3222      2698      3610
 -1     10015    3    0    1
 -2      3079      2712      3172      3610
 -1     10016    3    0    1
 -2      2626      3123      3601      3660
 -1     10017    3    0    1
 -2      3208      1813      3325      3350
 -1     10018    3    0    1
 -2      3038      2698      3122      3610
 -1     10019    3    0    1
 -2      2571      3038      3139      3610
 -1     10020    3    0    1
 -2      3143      3641      3670      3688
 -1     10021    3    0    1
 -2      2571      2698      3038      3610
 -1     10022    3    0    1
 -2      1763      1433      3018      3351
 -1     10023    3    0    1
 -2      2698      2571      2828      3610
 -1     10024    3    0    1
 -2      3122      2698      3222      3610
 -1     10025    3    0    1
 -2      2818      2534      3577      3687
 -1     10026    3    0    1
 -2      2698      2828      2834      3610
 -1     10027    3    0    1
 -2      3118      2746      3119      3244
 -1     10028    3    0    1
 -2      1482      1481      2936      3244
 -1     10029    3    0    1
 -2      1481      1482      1544      3244
 -1     10030    3    0    1
 -2      1481      1543      3119      3244
 -1     10031    3    0    1
 -2      1543      3118      3119      3244
 -1     10032    3    0    1
 -2      1778      2936      3119      3245
 -1     10033    3    0    1
 -2       975       157       978      3392
 -1     10034    3    0    1
 -2      3040      2664      3623      3655
 -1     10035    3    0    1
 -2      3286      3162      3289      3405
 -1     10036    3    0    1
 -2      3006      2869      3560      3612
 -1     10037    3    0    1
 -2      2756      2642      3550      3612
 -1     10038    3    0    1
 -2      2932       608      3560      3612
 -1     10039    3    0    1
 -2      2557      3595      3662      3721
 -1     10040    3    0    1
 -2      2697      2517      3659      3673
 -1     10041    3    0    1
 -2       608      1557      2729      3612
 -1     10042    3    0    1
 -2       608      3006      3560      3612
 -1     10043    3    0    1
 -2       608      2729      3006      3612
 -1     10044    3    0    1
 -2      3124      1716      3125      3612
 -1     10045    3    0    1
 -2      1673       241      3209      1885
 -1     10046    3    0    1
 -2      2932      2906      3125      3612
 -1     10047    3    0    1
 -2      2632      2642      3199      3612
 -1     10048    3    0    1
 -2      2642      2729      3199      3612
 -1     10049    3    0    1
 -2      2792      2632      3199      3612
 -1     10050    3    0    1
 -2      1557      2932      3125      3612
 -1     10051    3    0    1
 -2      2642      2869      3006      3612
 -1     10052    3    0    1
 -2      2642      2756      2869      3612
 -1     10053    3    0    1
 -2      2729      2642      3006      3612
 -1     10054    3    0    1
 -2      1716      1557      3125      3612
 -1     10055    3    0    1
 -2      1557       608      2932      3612
 -1     10056    3    0    1
 -2       128      1590      3539      3578
 -1     10057    3    0    1
 -2       128      1590      1794      1827
 -1     10058    3    0    1
 -2       128      1794      1795      1827
 -1     10059    3    0    1
 -2      3513      3613      3640      3647
 -1     10060    3    0    1
 -2      1725      3604      1823      3689
 -1     10061    3    0    1
 -2      2222       317      2485      3693
 -1     10062    3    0    1
 -2      1585      1508      2907      3358
 -1     10063    3    0    1
 -2      1289       949      3508      3646
 -1     10064    3    0    1
 -2      1590      3053      1794      1827
 -1     10065    3    0    1
 -2      1794      3053      1795      1827
 -1     10066    3    0    1
 -2      3513      2136      3169      3613
 -1     10067    3    0    1
 -2      3514      1429      3701      3719
 -1     10068    3    0    1
 -2      1485      1486      2996      3325
 -1     10069    3    0    1
 -2      1533      1493      3592      3352
 -1     10070    3    0    1
 -2      1457      1583      2699      3319
 -1     10071    3    0    1
 -2      2821      3015      3193      3278
 -1     10072    3    0    1
 -2      2864      1461      3028      3386
 -1     10073    3    0    1
 -2      2836      3039      3581      3278
 -1     10074    3    0    1
 -2      2614      3039      3278      3650
 -1     10075    3    0    1
 -2      1813      1485      3313      3325
 -1     10076    3    0    1
 -2      2509      2091      3506      3658
 -1     10077    3    0    1
 -2      2877       990      3538      3613
 -1     10078    3    0    1
 -2      1442      1729      3624      3453
 -1     10079    3    0    1
 -2      3546      3500      3570      3714
 -1     10080    3    0    1
 -2      2821      3080      3581      3278
 -1     10081    3    0    1
 -2      1574      3080      3193      3278
 -1     10082    3    0    1
 -2      3015      1574      3193      3278
 -1     10083    3    0    1
 -2      1896       691      1897      3413
 -1     10084    3    0    1
 -2      3127      2862      3607      3386
 -1     10085    3    0    1
 -2      2821      2953      3015      3278
 -1     10086    3    0    1
 -2      3074      1703      1842      3335
 -1     10087    3    0    1
 -2       415      2188      2353      3410
 -1     10088    3    0    1
 -2      1483      1413      1484      3280
 -1     10089    3    0    1
 -2      2481      2655      3607      3690
 -1     10090    3    0    1
 -2      2519      2481      3607      3690
 -1     10091    3    0    1
 -2      2677      2968      3087      3690
 -1     10092    3    0    1
 -2      3087      2968      3094      3690
 -1     10093    3    0    1
 -2       329       427      1823      3249
 -1     10094    3    0    1
 -2       427       329      1563      3249
 -1     10095    3    0    1
 -2      3093      1713      3188      3690
 -1     10096    3    0    1
 -2      2714      3363      3369      3690
 -1     10097    3    0    1
 -2      2968      2519      3369      3690
 -1     10098    3    0    1
 -2      2677      2527      2968      3690
 -1     10099    3    0    1
 -2      1462      1461      2716      3275
 -1     10100    3    0    1
 -2      1477      1659      3357      3664
 -1     10101    3    0    1
 -2      1729       241      2963      3664
 -1     10102    3    0    1
 -2      3237      3571      3626      3664
 -1     10103    3    0    1
 -2       981      1308      3565      3663
 -1     10104    3    0    1
 -2      2942      2598      3230      3664
 -1     10105    3    0    1
 -2      2704      2087      3657      3717
 -1     10106    3    0    1
 -2      1709      1461      1710      3275
 -1     10107    3    0    1
 -2      3586      2704      3657      3717
 -1     10108    3    0    1
 -2      2731      1745      1826      3350
 -1     10109    3    0    1
 -2      3538      1308      3019      3623
 -1     10110    3    0    1
 -2      2863      3096      1852      3393
 -1     10111    3    0    1
 -2      2912      2570      3554      3623
 -1     10112    3    0    1
 -2      3621      3089      3289      3405
 -1     10113    3    0    1
 -2       956       589      2139      3253
 -1     10114    3    0    1
 -2      2139       589      2392      3253
 -1     10115    3    0    1
 -2      2870      2988      3100      3632
 -1     10116    3    0    1
 -2      2719      3592      3283      3352
 -1     10117    3    0    1
 -2      2871      2690      3568      3726
 -1     10118    3    0    1
 -2       589       610      2392      3253
 -1     10119    3    0    1
 -2       610       956      1298      3253
 -1     10120    3    0    1
 -2       610       589       956      3253
 -1     10121    3    0    1
 -2       196      1542      3428       182
 -1     10122    3    0    1
 -2      3512      1434      3638      3376
 -1     10123    3    0    1
 -2      2364      2594      3529      3707
 -1     10124    3    0    1
 -2      2856      3504      3095      3670
 -1     10125    3    0    1
 -2      1322       319      3587      3730
 -1     10126    3    0    1
 -2      3560      2932      3612      3620
 -1     10127    3    0    1
 -2      3140      1748      3615      3464
 -1     10128    3    0    1
 -2      1435      1653      3575      3614
 -1     10129    3    0    1
 -2      3572      3140      3615      3464
 -1     10130    3    0    1
 -2      1931       941      2281      3614
 -1     10131    3    0    1
 -2      3512      1749      3376      3464
 -1     10132    3    0    1
 -2      1285      1931      3531      3614
 -1     10133    3    0    1
 -2      1695      1511      3467      3493
 -1     10134    3    0    1
 -2       949       387      1294      3723
 -1     10135    3    0    1
 -2      1784       421      3464      3723
 -1     10136    3    0    1
 -2      1040      1330      3544      3316
 -1     10137    3    0    1
 -2      2281       941      3508      3614
 -1     10138    3    0    1
 -2      2281      3508      3528      3614
 -1     10139    3    0    1
 -2      2525      3528      3531      3614
 -1     10140    3    0    1
 -2      2281      2525      3531      3614
 -1     10141    3    0    1
 -2      2525      2281      3528      3614
 -1     10142    3    0    1
 -2        26      1761      1813      3465
 -1     10143    3    0    1
 -2      2457       334      3708      3744
 -1     10144    3    0    1
 -2      2583      1436      1855      3465
 -1     10145    3    0    1
 -2      1748       421      3615      3464
 -1     10146    3    0    1
 -2      2459      2347      3544      3316
 -1     10147    3    0    1
 -2      2284       770      2331      3316
 -1     10148    3    0    1
 -2      1330      2127      3544      3316
 -1     10149    3    0    1
 -2       255       270      3708      3744
 -1     10150    3    0    1
 -2      3140      3638      3376      3464
 -1     10151    3    0    1
 -2       949      1294      3572      3723
 -1     10152    3    0    1
 -2      3572      3512      3140      3464
 -1     10153    3    0    1
 -2      2457      3708      3487      3744
 -1     10154    3    0    1
 -2       387       421      1748      3267
 -1     10155    3    0    1
 -2      1656       391      1834      1836
 -1     10156    3    0    1
 -2      1813      3114      3712      3465
 -1     10157    3    0    1
 -2       387       421      1784      3723
 -1     10158    3    0    1
 -2      3572      3140      3257      3615
 -1     10159    3    0    1
 -2      1748      3572      3257      3615
 -1     10160    3    0    1
 -2      3327      1855      3382      3465
 -1     10161    3    0    1
 -2      1761      2976      3114      3465
 -1     10162    3    0    1
 -2      3114      2976      3712      3465
 -1     10163    3    0    1
 -2      1855        26      3382      3465
 -1     10164    3    0    1
 -2       421       387      3615      3723
 -1     10165    3    0    1
 -2      2412      1059      2582      3744
 -1     10166    3    0    1
 -2      3140      1748      3257      3615
 -1     10167    3    0    1
 -2       606       390       614      1905
 -1     10168    3    0    1
 -2      2931      3078      3639      3662
 -1     10169    3    0    1
 -2      3049      2765      3595      3662
 -1     10170    3    0    1
 -2      2640      2723      2931      3662
 -1     10171    3    0    1
 -2       975      2537      3502      1904
 -1     10172    3    0    1
 -2      2765      2931      3639      3662
 -1     10173    3    0    1
 -2       158       389      3502      1904
 -1     10174    3    0    1
 -2      2606      2618      3517      3722
 -1     10175    3    0    1
 -2       714       722      1021      1903
 -1     10176    3    0    1
 -2      2307       219      3507      1902
 -1     10177    3    0    1
 -2      3541      2866      3068      3271
 -1     10178    3    0    1
 -2      2812      2853      3030      3260
 -1     10179    3    0    1
 -2      3539      3578      3631      3703
 -1     10180    3    0    1
 -2      1554      1553      2867      3262
 -1     10181    3    0    1
 -2       750       745      3200      3262
 -1     10182    3    0    1
 -2       745       750      1706      3262
 -1     10183    3    0    1
 -2      1659       241      3209      3482
 -1     10184    3    0    1
 -2      2470      2644      3255      3688
 -1     10185    3    0    1
 -2      3143      1440      3167      3688
 -1     10186    3    0    1
 -2      3193      1731      3222      3263
 -1     10187    3    0    1
 -2      3080      1731      3193      3263
 -1     10188    3    0    1
 -2      2955      3080      3193      3263
 -1     10189    3    0    1
 -2      2955      3193      3222      3263
 -1     10190    3    0    1
 -2      3141      3091      3620      3637
 -1     10191    3    0    1
 -2      1537      1538      2849      3294
 -1     10192    3    0    1
 -2      2689      3045      3206      3622
 -1     10193    3    0    1
 -2      1745      2731      3208      3350
 -1     10194    3    0    1
 -2      3134      3135      3580      3616
 -1     10195    3    0    1
 -2      3174      2715      3226      3616
 -1     10196    3    0    1
 -2      3174      3226      1829      3616
 -1     10197    3    0    1
 -2      1420      3458      3463      3739
 -1     10198    3    0    1
 -2      3226      1620      1829      3616
 -1     10199    3    0    1
 -2       626      3174      1829      3616
 -1     10200    3    0    1
 -2      2573      2741      3126      3616
 -1     10201    3    0    1
 -2       334      1332      2582      3744
 -1     10202    3    0    1
 -2      2475      2573      3126      3616
 -1     10203    3    0    1
 -2      3134      2741      3135      3616
 -1     10204    3    0    1
 -2      2412      2457      3487      3744
 -1     10205    3    0    1
 -2       919      1701      2859      3265
 -1     10206    3    0    1
 -2      2762       919      2859      3265
 -1     10207    3    0    1
 -2      1201       495      2797      3265
 -1     10208    3    0    1
 -2      2623       941      3517      3740
 -1     10209    3    0    1
 -2      1453      1843      1844      3426
 -1     10210    3    0    1
 -2      3566      1797      3404      3703
 -1     10211    3    0    1
 -2      1668      1667      2851      3290
 -1     10212    3    0    1
 -2      1821       383      3246      3740
 -1     10213    3    0    1
 -2      3037      1612      1839      1838
 -1     10214    3    0    1
 -2      1446      1445      2980      1840
 -1     10215    3    0    1
 -2      1576      1411      3605      3713
 -1     10216    3    0    1
 -2      3449      1828      3548      3368
 -1     10217    3    0    1
 -2      3548      3368      3680      3449
 -1     10218    3    0    1
 -2      1415      2611      3211      3303
 -1     10219    3    0    1
 -2      2679      2467      3021      3618
 -1     10220    3    0    1
 -2       799       804      3011      3340
 -1     10221    3    0    1
 -2      3544      3681      3715      3743
 -1     10222    3    0    1
 -2       329      1562      3249      3689
 -1     10223    3    0    1
 -2      2679      2100      3023      3618
 -1     10224    3    0    1
 -2      2100      2679      3021      3618
 -1     10225    3    0    1
 -2      2777      1631      3211      3303
 -1     10226    3    0    1
 -2      1632      1631      2777      3303
 -1     10227    3    0    1
 -2       157       632       624      1889
 -1     10228    3    0    1
 -2      2912      3054      3623      3356
 -1     10229    3    0    1
 -2      1657      2912      3623      3356
 -1     10230    3    0    1
 -2      2611      2777      3211      3303
 -1     10231    3    0    1
 -2      1410      3513      3647      3718
 -1     10232    3    0    1
 -2      2271      3551      3602      3618
 -1     10233    3    0    1
 -2      2465      2271      3602      3618
 -1     10234    3    0    1
 -2      3663      1529      3684      3718
 -1     10235    3    0    1
 -2      1529      1410      3623      3718
 -1     10236    3    0    1
 -2      2467      2679      3232      3618
 -1     10237    3    0    1
 -2       804       799      1853      3340
 -1     10238    3    0    1
 -2      2679      2465      3232      3618
 -1     10239    3    0    1
 -2      2100      3021      3023      3618
 -1     10240    3    0    1
 -2      2271      2465      2679      3618
 -1     10241    3    0    1
 -2      1609      3534      3562      3691
 -1     10242    3    0    1
 -2      2271      2679      2704      3618
 -1     10243    3    0    1
 -2      2885      2983      3033      3692
 -1     10244    3    0    1
 -2      3260      2969      3620      3702
 -1     10245    3    0    1
 -2      2695      3066      1588      3055
 -1     10246    3    0    1
 -2      2347      3510      3544      3316
 -1     10247    3    0    1
 -2      3609       182      3628      3225
 -1     10248    3    0    1
 -2       565       572      3094      3369
 -1     10249    3    0    1
 -2      1576       229      3587      3713
 -1     10250    3    0    1
 -2      2574      2846      3561      3692
 -1     10251    3    0    1
 -2      1631      1632      2750      3408
 -1     10252    3    0    1
 -2        41      2855      1773      3408
 -1     10253    3    0    1
 -2      2522      3504      3366      2546
 -1     10254    3    0    1
 -2      1516      3495      3594      3694
 -1     10255    3    0    1
 -2      1673       241      3648      3643
 -1     10256    3    0    1
 -2      1844      1843      3292      3426
 -1     10257    3    0    1
 -2      2817      2369      3563      3427
 -1     10258    3    0    1
 -2      2503      3500      3563      3427
 -1     10259    3    0    1
 -2       208       714      1021      1903
 -1     10260    3    0    1
 -2      1298       607      3620       610
 -1     10261    3    0    1
 -2        68      2841      1788      3385
 -1     10262    3    0    1
 -2      3092       732      3233      3677
 -1     10263    3    0    1
 -2      1642      2841      3116      3385
 -1     10264    3    0    1
 -2      2558      2801      3667      3467
 -1     10265    3    0    1
 -2      3237      3626      1871      3454
 -1     10266    3    0    1
 -2      3539      3566      3638      3703
 -1     10267    3    0    1
 -2      1541      2980      1840      3448
 -1     10268    3    0    1
 -2      3357      1477      3664      3454
 -1     10269    3    0    1
 -2      2773      2990      3091      3620
 -1     10270    3    0    1
 -2       607      2888      2969      3620
 -1     10271    3    0    1
 -2      2969      2888      2978      3620
 -1     10272    3    0    1
 -2      2773      1298      2990      3620
 -1     10273    3    0    1
 -2      2872      2773      3091      3620
 -1     10274    3    0    1
 -2      2888      2932      2978      3620
 -1     10275    3    0    1
 -2      3091      2990      3141      3620
 -1     10276    3    0    1
 -2       610      1298      2773      3620
 -1     10277    3    0    1
 -2       964       607      2969      3620
 -1     10278    3    0    1
 -2      2888      2906      2932      3620
 -1     10279    3    0    1
 -2       395      3564      3629      1886
 -1     10280    3    0    1
 -2      2660      3162      3205      3621
 -1     10281    3    0    1
 -2      2901      2937      3269      3621
 -1     10282    3    0    1
 -2      2918      3555      3671      3403
 -1     10283    3    0    1
 -2      3007      2901      3269      3621
 -1     10284    3    0    1
 -2      2479      2901      3007      3621
 -1     10285    3    0    1
 -2      2514      3513      3514      3719
 -1     10286    3    0    1
 -2       317       209      3693      1915
 -1     10287    3    0    1
 -2      2691      2479      3007      3621
 -1     10288    3    0    1
 -2      3609      1552      3628      3686
 -1     10289    3    0    1
 -2       601       608      1711      3290
 -1     10290    3    0    1
 -2       708       725      2222      3693
 -1     10291    3    0    1
 -2      2907      2804      3556      3358
 -1     10292    3    0    1
 -2      2590      2550      2892      3674
 -1     10293    3    0    1
 -2      2974      3563      3698      3480
 -1     10294    3    0    1
 -2      3538      2877      3322      3655
 -1     10295    3    0    1
 -2      1780      1606      3107      3622
 -1     10296    3    0    1
 -2      1780      3107      3206      3622
 -1     10297    3    0    1
 -2      3045      2752      3109      3622
 -1     10298    3    0    1
 -2      1417      1635      3599      3686
 -1     10299    3    0    1
 -2      1606      1789      3277      3622
 -1     10300    3    0    1
 -2      2951      3002      3107      3622
 -1     10301    3    0    1
 -2      1581      1780      3206      3622
 -1     10302    3    0    1
 -2      2664      2958      3040      3623
 -1     10303    3    0    1
 -2      1410      2570      3054      3623
 -1     10304    3    0    1
 -2      1529      1410      3054      3623
 -1     10305    3    0    1
 -2      2664      1694      2958      3623
 -1     10306    3    0    1
 -2      2484      2570      2664      3623
 -1     10307    3    0    1
 -2      2570      2912      3054      3623
 -1     10308    3    0    1
 -2       984      2544      3588      1890
 -1     10309    3    0    1
 -2      3002      3206      3622      3685
 -1     10310    3    0    1
 -2       387      1748      3615      3646
 -1     10311    3    0    1
 -2      2806      2558      3348      3667
 -1     10312    3    0    1
 -2      1850      3346      1930      3494
 -1     10313    3    0    1
 -2      3281      3052      3643      3645
 -1     10314    3    0    1
 -2      1629      2840      2911      3318
 -1     10315    3    0    1
 -2      3273      2609      1843      1844
 -1     10316    3    0    1
 -2      3283      1558      1716      1717
 -1     10317    3    0    1
 -2      1494      1493      1717      3283
 -1     10318    3    0    1
 -2      1493      1494      2758      3283
 -1     10319    3    0    1
 -2      3546      3570      3611      3714
 -1     10320    3    0    1
 -2      1716      3085      1558      3283
 -1     10321    3    0    1
 -2       970       975      3502      1904
 -1     10322    3    0    1
 -2      2963      1659      2984      3664
 -1     10323    3    0    1
 -2      3521      2967      3173      3671
 -1     10324    3    0    1
 -2      2573      3580      3616      3671
 -1     10325    3    0    1
 -2      2936      3119      3245      3639
 -1     10326    3    0    1
 -2      2630      3595      3629      3639
 -1     10327    3    0    1
 -2      2937      1713      3621      3405
 -1     10328    3    0    1
 -2      2832      3237      3357      3664
 -1     10329    3    0    1
 -2      2748      2598      2959      3664
 -1     10330    3    0    1
 -2      2754      2942      3051      3664
 -1     10331    3    0    1
 -2      3594       329      3604      3689
 -1     10332    3    0    1
 -2      3599      1664      3234      3287
 -1     10333    3    0    1
 -2      2588      3599      3234      3287
 -1     10334    3    0    1
 -2      1664      2588      3234      3287
 -1     10335    3    0    1
 -2      3598      2631      3599      3287
 -1     10336    3    0    1
 -2      2588      3598      3599      3287
 -1     10337    3    0    1
 -2      3108      2631      3598      3287
 -1     10338    3    0    1
 -2      1718      3559      3104      3344
 -1     10339    3    0    1
 -2       316      1664      3599      3287
 -1     10340    3    0    1
 -2      1006       316      3599      3287
 -1     10341    3    0    1
 -2      2507      2609      3598      3287
 -1     10342    3    0    1
 -2      2588      2507      3598      3287
 -1     10343    3    0    1
 -2      2954      1597      3323      3344
 -1     10344    3    0    1
 -2      1505      1597      2954      3344
 -1     10345    3    0    1
 -2      2609      2588      2802      3287
 -1     10346    3    0    1
 -2      2507      2588      2609      3287
 -1     10347    3    0    1
 -2      2991      1517      3027      3288
 -1     10348    3    0    1
 -2      1550      1517      2991      3288
 -1     10349    3    0    1
 -2      1693      1692      3051      1864
 -1     10350    3    0    1
 -2      3162      3205      3621      3289
 -1     10351    3    0    1
 -2       990       410      1312      3647
 -1     10352    3    0    1
 -2       277      3557      3653      1895
 -1     10353    3    0    1
 -2      1305       981      3565      3716
 -1     10354    3    0    1
 -2      1628       277      2971      1895
 -1     10355    3    0    1
 -2      1410      3513      1694      3647
 -1     10356    3    0    1
 -2      1064      1069      3707      1920
 -1     10357    3    0    1
 -2      2554      2490      2569      3625
 -1     10358    3    0    1
 -2      2567      2554      2780      3625
 -1     10359    3    0    1
 -2      3086      1535      3112      3625
 -1     10360    3    0    1
 -2      3108      3086      3112      3625
 -1     10361    3    0    1
 -2      2490      2566      2569      3625
 -1     10362    3    0    1
 -2      1503      1535      3086      3625
 -1     10363    3    0    1
 -2      1535       698      3112      3625
 -1     10364    3    0    1
 -2      1503      3086      3106      3625
 -1     10365    3    0    1
 -2      2567      2780      3101      3625
 -1     10366    3    0    1
 -2      1465      1503      3106      3625
 -1     10367    3    0    1
 -2      3021      3023      3618      3355
 -1     10368    3    0    1
 -2       171       429      3678      1893
 -1     10369    3    0    1
 -2      1598      1597      3110      3447
 -1     10370    3    0    1
 -2       768      3237      3258      3626
 -1     10371    3    0    1
 -2       763      2911      1871      1872
 -1     10372    3    0    1
 -2      2943      3138      3197      3626
 -1     10373    3    0    1
 -2      2943      2754      3138      3626
 -1     10374    3    0    1
 -2      1629       768      3258      3626
 -1     10375    3    0    1
 -2      2966      2943      3197      3626
 -1     10376    3    0    1
 -2      2737      2754      2943      3626
 -1     10377    3    0    1
 -2      3539      1590      1827      3306
 -1     10378    3    0    1
 -2      2908      3338      3654      3672
 -1     10379    3    0    1
 -2      2868      2737      2943      3626
 -1     10380    3    0    1
 -2      2903      1624      3556      3301
 -1     10381    3    0    1
 -2      2290      2242      2464      3627
 -1     10382    3    0    1
 -2      2242      2290      3253      3627
 -1     10383    3    0    1
 -2       964       391      1302      3627
 -1     10384    3    0    1
 -2      3020      3661      3705      3025
 -1     10385    3    0    1
 -2       430       319      3725      3730
 -1     10386    3    0    1
 -2      1692      3009      3017      3705
 -1     10387    3    0    1
 -2      1552      3225      3609      3628
 -1     10388    3    0    1
 -2      1552       182      3225      3628
 -1     10389    3    0    1
 -2      3037      1612      1838      3295
 -1     10390    3    0    1
 -2      1678      3550      3069      3295
 -1     10391    3    0    1
 -2      3032      1612      3037      3295
 -1     10392    3    0    1
 -2      3550      1678      3032      3295
 -1     10393    3    0    1
 -2      1678      1612      3032      3295
 -1     10394    3    0    1
 -2      3564       395      3570      1886
 -1     10395    3    0    1
 -2      3564      1796      3629      1886
 -1     10396    3    0    1
 -2      3180      2779      3304      3679
 -1     10397    3    0    1
 -2      3550      2986      3037      3295
 -1     10398    3    0    1
 -2      2986      3550      3032      3295
 -1     10399    3    0    1
 -2      2986      3032      3037      3295
 -1     10400    3    0    1
 -2      1302      3498      2464      3627
 -1     10401    3    0    1
 -2      3498      1302      2464      3629
 -1     10402    3    0    1
 -2      3498      2066      3500      3629
 -1     10403    3    0    1
 -2      2185      2500      3168      3640
 -1     10404    3    0    1
 -2      2185      1312      3534      3640
 -1     10405    3    0    1
 -2      1302      2765      2931      3629
 -1     10406    3    0    1
 -2       972      1302      2931      3629
 -1     10407    3    0    1
 -2      2765      3160      3595      3629
 -1     10408    3    0    1
 -2      1312      2185      3168      3640
 -1     10409    3    0    1
 -2       391      1302      3617      3629
 -1     10410    3    0    1
 -2      1656       391      3617      3629
 -1     10411    3    0    1
 -2      2464      2066      3498      3629
 -1     10412    3    0    1
 -2      2250       972      3500      3629
 -1     10413    3    0    1
 -2      2066      2250      3500      3629
 -1     10414    3    0    1
 -2      3563      2817      3427      3714
 -1     10415    3    0    1
 -2      2852      2630      3595      3629
 -1     10416    3    0    1
 -2      1656      2852      1834      3629
 -1     10417    3    0    1
 -2      2852      3595      1834      3629
 -1     10418    3    0    1
 -2      3595      3160      1834      3629
 -1     10419    3    0    1
 -2       391      1656      1834      3629
 -1     10420    3    0    1
 -2      1616       145      3418      3424
 -1     10421    3    0    1
 -2        20       145      1616      3424
 -1     10422    3    0    1
 -2       395       972      1543      3629
 -1     10423    3    0    1
 -2       972      2931      3118      3629
 -1     10424    3    0    1
 -2      1656      1421      2852      3629
 -1     10425    3    0    1
 -2      2765      1302      3160      3629
 -1     10426    3    0    1
 -2      1543       972      3118      3629
 -1     10427    3    0    1
 -2        20      1762      3418      3424
 -1     10428    3    0    1
 -2      2630      1421      2746      3629
 -1     10429    3    0    1
 -2      2250      2066      2464      3629
 -1     10430    3    0    1
 -2      1421      2630      2852      3629
 -1     10431    3    0    1
 -2      3160      1302      1834      3629
 -1     10432    3    0    1
 -2      1302       391      1834      3629
 -1     10433    3    0    1
 -2      2854      3073      3276      3644
 -1     10434    3    0    1
 -2      2479      2628      3561      3644
 -1     10435    3    0    1
 -2      2715      2772      3555      3359
 -1     10436    3    0    1
 -2      1696      1555      3144      3359
 -1     10437    3    0    1
 -2      1461      1579      3268      3644
 -1     10438    3    0    1
 -2      2716      1461      3268      3644
 -1     10439    3    0    1
 -2      1579      2874      3268      3644
 -1     10440    3    0    1
 -2      2874      1579      1769      3644
 -1     10441    3    0    1
 -2      2680      2854      3561      3644
 -1     10442    3    0    1
 -2      2066      2483      3498      3427
 -1     10443    3    0    1
 -2      2290      2474      3253      3631
 -1     10444    3    0    1
 -2      2474      2139      3253      3631
 -1     10445    3    0    1
 -2       956       128      1298      3631
 -1     10446    3    0    1
 -2      3515      3547      3601      3666
 -1     10447    3    0    1
 -2       319      1015      3515      3666
 -1     10448    3    0    1
 -2      3626      2868      2647      2943
 -1     10449    3    0    1
 -2      3118      2746      3629      3639
 -1     10450    3    0    1
 -2      3547      1497      3601      3666
 -1     10451    3    0    1
 -2      1497      1561      3601      3666
 -1     10452    3    0    1
 -2      3029      2989      3100      3632
 -1     10453    3    0    1
 -2      2797      2989      3029      3632
 -1     10454    3    0    1
 -2      2988      2868      3239      3632
 -1     10455    3    0    1
 -2      2737      2868      2870      3632
 -1     10456    3    0    1
 -2      2870      2868      2988      3632
 -1     10457    3    0    1
 -2      2868      2647      3239      3632
 -1     10458    3    0    1
 -2      1553      3029      3100      3632
 -1     10459    3    0    1
 -2      2647      2763      3239      3632
 -1     10460    3    0    1
 -2      3515      2808      3567      3666
 -1     10461    3    0    1
 -2      1706      1553      3100      3632
 -1     10462    3    0    1
 -2      1015       319      1322      3725
 -1     10463    3    0    1
 -2      3547      3515      3567      3666
 -1     10464    3    0    1
 -2      1015      1322      3515      3666
 -1     10465    3    0    1
 -2      2868      3626      2647      3632
 -1     10466    3    0    1
 -2      2965      2860      3102      3650
 -1     10467    3    0    1
 -2      2536      2476      2889      3633
 -1     10468    3    0    1
 -2      2625      2605      2726      3633
 -1     10469    3    0    1
 -2      2710      2536      2889      3633
 -1     10470    3    0    1
 -2      2614      3013      3039      3650
 -1     10471    3    0    1
 -2       554      2902      3046      3633
 -1     10472    3    0    1
 -2      1531       554      3046      3633
 -1     10473    3    0    1
 -2      2964      3102      3581      3650
 -1     10474    3    0    1
 -2        68      1633      3196      3381
 -1     10475    3    0    1
 -2      3555      3196      3216      3381
 -1     10476    3    0    1
 -2      3584      3522      1066      3516
 -1     10477    3    0    1
 -2      1616      3576      3468      3018
 -1     10478    3    0    1
 -2      3522      3584      1066      3635
 -1     10479    3    0    1
 -2      2760      2332      3522      3635
 -1     10480    3    0    1
 -2      1422      3496      3583      3635
 -1     10481    3    0    1
 -2       101      1614      2881      3635
 -1     10482    3    0    1
 -2      1422      2654      3584      3635
 -1     10483    3    0    1
 -2      3496      2760      3583      3635
 -1     10484    3    0    1
 -2      3496      2332      2760      3635
 -1     10485    3    0    1
 -2      2332      3496      3522      3635
 -1     10486    3    0    1
 -2      3522      3496      3557      3635
 -1     10487    3    0    1
 -2      1422      3522      3557      3635
 -1     10488    3    0    1
 -2      3496      1422      3557      3635
 -1     10489    3    0    1
 -2      2654      1614      3584      3635
 -1     10490    3    0    1
 -2      1614      2654      2881      3635
 -1     10491    3    0    1
 -2      2529      1422      3584      3635
 -1     10492    3    0    1
 -2      1422      2529      3522      3635
 -1     10493    3    0    1
 -2      3522      2529      3584      3635
 -1     10494    3    0    1
 -2       101      1066      1614      3635
 -1     10495    3    0    1
 -2      2654      1422      1652      3635
 -1     10496    3    0    1
 -2      2654      1652      2881      3635
 -1     10497    3    0    1
 -2      2779      3136      3180      3304
 -1     10498    3    0    1
 -2      2188      1012      3693      1914
 -1     10499    3    0    1
 -2      3641      2545      3366      3670
 -1     10500    3    0    1
 -2      1787      1786      3130      3305
 -1     10501    3    0    1
 -2      2459      3569      3715      3739
 -1     10502    3    0    1
 -2      1616      1617      3018      3374
 -1     10503    3    0    1
 -2      2647      3533      3626      3636
 -1     10504    3    0    1
 -2       319      1015      3666      3725
 -1     10505    3    0    1
 -2      3515      1322      2798      3666
 -1     10506    3    0    1
 -2      1491      2750      2961      3636
 -1     10507    3    0    1
 -2      2750      1491      2859      3636
 -1     10508    3    0    1
 -2      1629      2966      3626      3636
 -1     10509    3    0    1
 -2      3258      1629      3626      3636
 -1     10510    3    0    1
 -2      1629      2961      2966      3636
 -1     10511    3    0    1
 -2      1629      1491      2961      3636
 -1     10512    3    0    1
 -2      2943      2647      3626      3636
 -1     10513    3    0    1
 -2      2966      2943      3626      3636
 -1     10514    3    0    1
 -2      2702      2701      2827      3636
 -1     10515    3    0    1
 -2      2701      2647      2827      3636
 -1     10516    3    0    1
 -2      2762      2859      3258      3636
 -1     10517    3    0    1
 -2      2750      2702      2827      3636
 -1     10518    3    0    1
 -2      2750      2827      2961      3636
 -1     10519    3    0    1
 -2      2961      2827      2966      3636
 -1     10520    3    0    1
 -2      2859      1491      3258      3636
 -1     10521    3    0    1
 -2      2827      2647      2966      3636
 -1     10522    3    0    1
 -2      1491      1629      3258      3636
 -1     10523    3    0    1
 -2      2647      2943      2966      3636
 -1     10524    3    0    1
 -2      2655      3535      3579      3307
 -1     10525    3    0    1
 -2      3535      2655      3099      3307
 -1     10526    3    0    1
 -2      3076      2655      3579      3307
 -1     10527    3    0    1
 -2      2809      3076      1838      3307
 -1     10528    3    0    1
 -2      3099      2809      1838      3307
 -1     10529    3    0    1
 -2      2655      2809      3099      3307
 -1     10530    3    0    1
 -2      2809      2655      3076      3307
 -1     10531    3    0    1
 -2      2185      2190      3506      3686
 -1     10532    3    0    1
 -2      1446      1445      3096      1852
 -1     10533    3    0    1
 -2       253       426      1868      3656
 -1     10534    3    0    1
 -2      1721      3551      3596      3656
 -1     10535    3    0    1
 -2      1829       626      3639      3471
 -1     10536    3    0    1
 -2       626      2850      3639      3470
 -1     10537    3    0    1
 -2      3181      3096      1851      1852
 -1     10538    3    0    1
 -2      3096      1445      1851      1852
 -1     10539    3    0    1
 -2      2863      3096      3181      1852
 -1     10540    3    0    1
 -2      3504      3641      3366      3670
 -1     10541    3    0    1
 -2      3541      1416      3068      3404
 -1     10542    3    0    1
 -2      2856      3143      3641      3670
 -1     10543    3    0    1
 -2      1308      2136      3501      3718
 -1     10544    3    0    1
 -2      1661      2857      3293      3308
 -1     10545    3    0    1
 -2       383      3508      3642      3548
 -1     10546    3    0    1
 -2      3648      3586      3657      3452
 -1     10547    3    0    1
 -2      2857      2590      3293      3308
 -1     10548    3    0    1
 -2      3560      2978      3260      3365
 -1     10549    3    0    1
 -2      1567      2992      3098      3637
 -1     10550    3    0    1
 -2      1021      1027      3507      1902
 -1     10551    3    0    1
 -2      2793      2756      2985      3637
 -1     10552    3    0    1
 -2      2985      2756      3077      3637
 -1     10553    3    0    1
 -2      2722      2793      2985      3637
 -1     10554    3    0    1
 -2      2722      2985      3098      3637
 -1     10555    3    0    1
 -2       208       722       714      1903
 -1     10556    3    0    1
 -2      2756      2793      2869      3637
 -1     10557    3    0    1
 -2       941       383      3614      3740
 -1     10558    3    0    1
 -2      1776      1640      3141      3637
 -1     10559    3    0    1
 -2      2992      2722      3098      3637
 -1     10560    3    0    1
 -2      2990      1567      3141      3637
 -1     10561    3    0    1
 -2      1463      1776      3141      3637
 -1     10562    3    0    1
 -2      1567      1463      3141      3637
 -1     10563    3    0    1
 -2      3242      1616      3576      1865
 -1     10564    3    0    1
 -2      3553      2921      3340      3466
 -1     10565    3    0    1
 -2      1531       554      2925      3310
 -1     10566    3    0    1
 -2      2668      2925      2977      3310
 -1     10567    3    0    1
 -2      2686      1446      2980      3448
 -1     10568    3    0    1
 -2      1832      1844      3660      3445
 -1     10569    3    0    1
 -2      2980      1446      1840      3448
 -1     10570    3    0    1
 -2      2925      2977       554      3149
 -1     10571    3    0    1
 -2      2977      2925       554      3310
 -1     10572    3    0    1
 -2      2541      3292      3660      3445
 -1     10573    3    0    1
 -2      2686      2507      3598      3448
 -1     10574    3    0    1
 -2      2461      3520      3541      3638
 -1     10575    3    0    1
 -2      3541      3520      3068      3638
 -1     10576    3    0    1
 -2      2461      3541      3068      3638
 -1     10577    3    0    1
 -2      1713      3205      1818      3405
 -1     10578    3    0    1
 -2      3499      1434      3539      3638
 -1     10579    3    0    1
 -2      1434      1590      3539      3638
 -1     10580    3    0    1
 -2      3539      1590      3306      3638
 -1     10581    3    0    1
 -2      2471      2676      3558      3672
 -1     10582    3    0    1
 -2       644      1519      3173      3683
 -1     10583    3    0    1
 -2      2993      3068      3284      3638
 -1     10584    3    0    1
 -2      2739      2531      3654      3672
 -1     10585    3    0    1
 -2      2427      2290      2461      3638
 -1     10586    3    0    1
 -2      2427      3499      2290      3638
 -1     10587    3    0    1
 -2       981       171      1308      3684
 -1     10588    3    0    1
 -2      2755      2475      3155      3683
 -1     10589    3    0    1
 -2      1590      1434      3306      3638
 -1     10590    3    0    1
 -2      3338      2739      3654      3672
 -1     10591    3    0    1
 -2      3119      1778      3245      3639
 -1     10592    3    0    1
 -2      1778      1620      3245      3639
 -1     10593    3    0    1
 -2       241      1659      2963      3664
 -1     10594    3    0    1
 -2       626      2810      1829      3639
 -1     10595    3    0    1
 -2       180      1801      3719      3472
 -1     10596    3    0    1
 -2      2557      2630      2764      3639
 -1     10597    3    0    1
 -2      2730      2557      2764      3639
 -1     10598    3    0    1
 -2      2630      2746      2764      3639
 -1     10599    3    0    1
 -2      2764      2746      2936      3639
 -1     10600    3    0    1
 -2      3342      3513      3719      3472
 -1     10601    3    0    1
 -2      2557      2730      2787      3639
 -1     10602    3    0    1
 -2      2730      2764      2810      3639
 -1     10603    3    0    1
 -2      1442      2670      2748      3664
 -1     10604    3    0    1
 -2       698       691      3240      1896
 -1     10605    3    0    1
 -2      2730      2810      2850      3639
 -1     10606    3    0    1
 -2      2810      2764      3245      3639
 -1     10607    3    0    1
 -2      2764      2936      3245      3639
 -1     10608    3    0    1
 -2      1620      1778      3119      3639
 -1     10609    3    0    1
 -2      1694      1752      3651      3472
 -1     10610    3    0    1
 -2      3118      3119      3639      3471
 -1     10611    3    0    1
 -2      2271      3551      3618      3717
 -1     10612    3    0    1
 -2      2480      3504      2856      3641
 -1     10613    3    0    1
 -2      2480      2487      3504      3641
 -1     10614    3    0    1
 -2      2487      2480      2522      3641
 -1     10615    3    0    1
 -2      2736      1593      3103      3671
 -1     10616    3    0    1
 -2      1593      2736      2962      3671
 -1     10617    3    0    1
 -2      2644      2835      3167      3641
 -1     10618    3    0    1
 -2       556       336       944      1916
 -1     10619    3    0    1
 -2      2480       735      2522      3641
 -1     10620    3    0    1
 -2       734      1024      1322      3641
 -1     10621    3    0    1
 -2      2598      2754      3571      3664
 -1     10622    3    0    1
 -2      1501      2482      2548      3641
 -1     10623    3    0    1
 -2      1411      2482      3587      3641
 -1     10624    3    0    1
 -2      2959      2598      3571      3664
 -1     10625    3    0    1
 -2      1616      1865      3364      3455
 -1     10626    3    0    1
 -2        20       145      1876      3374
 -1     10627    3    0    1
 -2      3671      2540      3521      2967
 -1     10628    3    0    1
 -2      1576      3587      3167      3641
 -1     10629    3    0    1
 -2      2835      1576      3167      3641
 -1     10630    3    0    1
 -2       734       735      2480      3641
 -1     10631    3    0    1
 -2       735       734      1322      3641
 -1     10632    3    0    1
 -2      1576      1411      3587      3641
 -1     10633    3    0    1
 -2      2856      3143      3167      3641
 -1     10634    3    0    1
 -2      1024      2856      3167      3641
 -1     10635    3    0    1
 -2      2482      2470      2486      3641
 -1     10636    3    0    1
 -2      2486      2470      2545      3641
 -1     10637    3    0    1
 -2      2791      2540      3555      3671
 -1     10638    3    0    1
 -2      1024      2480      2856      3641
 -1     10639    3    0    1
 -2      2482      2486      2548      3641
 -1     10640    3    0    1
 -2      2470      2482      2644      3641
 -1     10641    3    0    1
 -2      3527      2748      3571      3664
 -1     10642    3    0    1
 -2      1700      3520      3566      3404
 -1     10643    3    0    1
 -2       145      3351      1876      3374
 -1     10644    3    0    1
 -2      2607      3535      3675      3690
 -1     10645    3    0    1
 -2       735      1322      2522      3641
 -1     10646    3    0    1
 -2      1024       734      2480      3641
 -1     10647    3    0    1
 -2      2482      1411      2644      3641
 -1     10648    3    0    1
 -2      2644      1576      2835      3641
 -1     10649    3    0    1
 -2      1411      1576      2644      3641
 -1     10650    3    0    1
 -2       770       771      1330      3316
 -1     10651    3    0    1
 -2      1330       771      2127      3316
 -1     10652    3    0    1
 -2      1491      1492      3063      3318
 -1     10653    3    0    1
 -2      1492      1491      1630      3318
 -1     10654    3    0    1
 -2      1596      1431      3608      3643
 -1     10655    3    0    1
 -2      1032      1330      3544      3729
 -1     10656    3    0    1
 -2      2751      3591      3209      3643
 -1     10657    3    0    1
 -2       241      1673      3209      3643
 -1     10658    3    0    1
 -2      3052      1596      1802      3643
 -1     10659    3    0    1
 -2       725      1018      2222      3693
 -1     10660    3    0    1
 -2       571       573      2574      3646
 -1     10661    3    0    1
 -2       254      1050      2451      3696
 -1     10662    3    0    1
 -2      1431      2659      3591      3643
 -1     10663    3    0    1
 -2       253      1596      3608      3643
 -1     10664    3    0    1
 -2       253      3511      3643      3608
 -1     10665    3    0    1
 -2      2728      3556      3272      3358
 -1     10666    3    0    1
 -2      2706      1032      3530      3689
 -1     10667    3    0    1
 -2      1322      3724      3725      3730
 -1     10668    3    0    1
 -2       430      3668      3477      3730
 -1     10669    3    0    1
 -2      2499      2742      3530      3689
 -1     10670    3    0    1
 -2      3724      3668      3725      3730
 -1     10671    3    0    1
 -2      3052      1802      3281      3643
 -1     10672    3    0    1
 -2      1596       253      1802      3643
 -1     10673    3    0    1
 -2      1326      2813      3530      3689
 -1     10674    3    0    1
 -2      3556      1624      3272      3358
 -1     10675    3    0    1
 -2      1431      2751      1673      3643
 -1     10676    3    0    1
 -2      1431      1596      3052      3643
 -1     10677    3    0    1
 -2      1673      2751      3209      3643
 -1     10678    3    0    1
 -2       193      1012      2188      1914
 -1     10679    3    0    1
 -2      2659      1431      3052      3643
 -1     10680    3    0    1
 -2      2706      3530      2950      3689
 -1     10681    3    0    1
 -2      1802      1049      3281      3643
 -1     10682    3    0    1
 -2       253      1049      1802      3643
 -1     10683    3    0    1
 -2      3513      3613      3647      3718
 -1     10684    3    0    1
 -2      1709      1461      3275      3644
 -1     10685    3    0    1
 -2      2628      2716      2874      3644
 -1     10686    3    0    1
 -2      1437      2628      2874      3644
 -1     10687    3    0    1
 -2      2628      2691      2716      3644
 -1     10688    3    0    1
 -2      2874      2716      3268      3644
 -1     10689    3    0    1
 -2      2628      1437      2680      3644
 -1     10690    3    0    1
 -2      1579      3276      1848      3644
 -1     10691    3    0    1
 -2      2716      2691      3275      3644
 -1     10692    3    0    1
 -2      2628      2479      2691      3644
 -1     10693    3    0    1
 -2      1579      1461      3276      3644
 -1     10694    3    0    1
 -2      1769      1579      1848      3644
 -1     10695    3    0    1
 -2      3073      3276      1848      1702
 -1     10696    3    0    1
 -2      3509      3567      3666      3724
 -1     10697    3    0    1
 -2      1438      1730      3630      3678
 -1     10698    3    0    1
 -2      2851      3163      3595      3721
 -1     10699    3    0    1
 -2       243       330      3582      1881
 -1     10700    3    0    1
 -2       990       410      3613      3322
 -1     10701    3    0    1
 -2      2707      1289      1741      3646
 -1     10702    3    0    1
 -2       383      3508      3548      3646
 -1     10703    3    0    1
 -2      1432      3508      3615      3646
 -1     10704    3    0    1
 -2       571      2574      2909      3646
 -1     10705    3    0    1
 -2      3162      3166      3289      3646
 -1     10706    3    0    1
 -2      3166      3267      3289      3646
 -1     10707    3    0    1
 -2       225        57      1674      1925
 -1     10708    3    0    1
 -2      2659      2924      3591      3645
 -1     10709    3    0    1
 -2      2789      2744      3591      3645
 -1     10710    3    0    1
 -2      1583      1457      2766      3665
 -1     10711    3    0    1
 -2      3623      1529      1877      1887
 -1     10712    3    0    1
 -2      2659      3591      3643      3645
 -1     10713    3    0    1
 -2      3052      2659      3643      3645
 -1     10714    3    0    1
 -2      3281      1443      3285      3645
 -1     10715    3    0    1
 -2      1443      2895      3285      3645
 -1     10716    3    0    1
 -2      3418      1616      3424      3455
 -1     10717    3    0    1
 -2       157       624       978      1889
 -1     10718    3    0    1
 -2      3052      3281      3285      3645
 -1     10719    3    0    1
 -2      3281      2744      3324      3645
 -1     10720    3    0    1
 -2      2744      3083      3324      3645
 -1     10721    3    0    1
 -2      1049      2744      3281      3645
 -1     10722    3    0    1
 -2      2233      2514      2681      3698
 -1     10723    3    0    1
 -2      2563      2895      3317      3645
 -1     10724    3    0    1
 -2      1767      3281      3324      3645
 -1     10725    3    0    1
 -2      1409      1724      3634      3476
 -1     10726    3    0    1
 -2      2895      2563      2924      3645
 -1     10727    3    0    1
 -2      1767      1443      3281      3645
 -1     10728    3    0    1
 -2      2558      2801      3348      3667
 -1     10729    3    0    1
 -2      1610      2519      3075      3363
 -1     10730    3    0    1
 -2      2895      2659      3285      3645
 -1     10731    3    0    1
 -2      2659      2895      2924      3645
 -1     10732    3    0    1
 -2      2659      3052      3285      3645
 -1     10733    3    0    1
 -2       949      2909      3289      3646
 -1     10734    3    0    1
 -2      2574      1289      2707      3646
 -1     10735    3    0    1
 -2       949       571      2909      3646
 -1     10736    3    0    1
 -2      2941      2945      2957      3646
 -1     10737    3    0    1
 -2      2707      1741      3066      3646
 -1     10738    3    0    1
 -2      2941      1432      3267      3646
 -1     10739    3    0    1
 -2       573      1289      2574      3646
 -1     10740    3    0    1
 -2      2791      3329      3671      3403
 -1     10741    3    0    1
 -2      2957      2945      2979      3646
 -1     10742    3    0    1
 -2      1530      1432      2957      3646
 -1     10743    3    0    1
 -2      1289       383      1741      3646
 -1     10744    3    0    1
 -2      1530      2957      2970      3646
 -1     10745    3    0    1
 -2      1432      1748      3267      3646
 -1     10746    3    0    1
 -2      1746       949      3289      3646
 -1     10747    3    0    1
 -2      3162      2941      3267      3646
 -1     10748    3    0    1
 -2      1241      2791      2915      3403
 -1     10749    3    0    1
 -2      2918      3300      3320      3403
 -1     10750    3    0    1
 -2       387       949      1746      3646
 -1     10751    3    0    1
 -2      3166      3162      3267      3646
 -1     10752    3    0    1
 -2      1486      1485      2975      3327
 -1     10753    3    0    1
 -2      3606      2541      3660      3445
 -1     10754    3    0    1
 -2      1832      3292      1896      3445
 -1     10755    3    0    1
 -2      1844      3256      3660      3445
 -1     10756    3    0    1
 -2      2823      3606      3256      3445
 -1     10757    3    0    1
 -2       799       804      3004      3328
 -1     10758    3    0    1
 -2      1592      1591      1772      3328
 -1     10759    3    0    1
 -2      1591      1592      2903      3328
 -1     10760    3    0    1
 -2      2828      3004      3556      3328
 -1     10761    3    0    1
 -2      2903      2828      3556      3328
 -1     10762    3    0    1
 -2      1771      1591      3272      3328
 -1     10763    3    0    1
 -2       804      1771      3272      3328
 -1     10764    3    0    1
 -2       590       583      1838      3375
 -1     10765    3    0    1
 -2      2713       662      3279      3672
 -1     10766    3    0    1
 -2      1700      3566      1797      3404
 -1     10767    3    0    1
 -2      2908      2829      3121      3672
 -1     10768    3    0    1
 -2      1522      3121      3177      3672
 -1     10769    3    0    1
 -2      2913      2648      3279      3672
 -1     10770    3    0    1
 -2      2713      2531      2739      3672
 -1     10771    3    0    1
 -2      1838       583      1839      3375
 -1     10772    3    0    1
 -2      1522      1661      2913      3672
 -1     10773    3    0    1
 -2      3037      1838      1839      3375
 -1     10774    3    0    1
 -2      3284      3306      3638      3404
 -1     10775    3    0    1
 -2      1294      3512      3572      3723
 -1     10776    3    0    1
 -2      3634      1724      1870      3476
 -1     10777    3    0    1
 -2      3194       732      3233      3333
 -1     10778    3    0    1
 -2      2498      3117      3315      3333
 -1     10779    3    0    1
 -2      3117      2498      3597      3333
 -1     10780    3    0    1
 -2      3597      2498      3315      3333
 -1     10781    3    0    1
 -2      2865      3597      3315      3333
 -1     10782    3    0    1
 -2      2865      3194      3597      3333
 -1     10783    3    0    1
 -2      1461      1709      3028      3386
 -1     10784    3    0    1
 -2      2864      2862      3127      3386
 -1     10785    3    0    1
 -2      2646      3117      3597      3333
 -1     10786    3    0    1
 -2      3117      2646      3233      3333
 -1     10787    3    0    1
 -2      1838      3037      3295      3334
 -1     10788    3    0    1
 -2      3637      3037      3620      2756
 -1     10789    3    0    1
 -2      3550      3091      3295      3334
 -1     10790    3    0    1
 -2      3037      3550      3295      3334
 -1     10791    3    0    1
 -2      3037      3620      2756      3550
 -1     10792    3    0    1
 -2      3091      3620      3637      3334
 -1     10793    3    0    1
 -2      3091      3550      3620      3334
 -1     10794    3    0    1
 -2      3037      3637      3620      3334
 -1     10795    3    0    1
 -2        21      1754      3084      1867
 -1     10796    3    0    1
 -2      1533        21      3084      1867
 -1     10797    3    0    1
 -2      1514      1676      2812      3365
 -1     10798    3    0    1
 -2      2557      2851      3595      3721
 -1     10799    3    0    1
 -2      2649      3061      3116      3385
 -1     10800    3    0    1
 -2      2841      1642      1788      3385
 -1     10801    3    0    1
 -2      2787      2557      3662      3721
 -1     10802    3    0    1
 -2      1802       253      1803      1868
 -1     10803    3    0    1
 -2      3152      1802      1803      1868
 -1     10804    3    0    1
 -2      1581      3045      3206      1874
 -1     10805    3    0    1
 -2      2731      2612      3208      3649
 -1     10806    3    0    1
 -2      2612      2731      3553      3649
 -1     10807    3    0    1
 -2      3046      1531      3633      3649
 -1     10808    3    0    1
 -2      2605      2476      3633      3649
 -1     10809    3    0    1
 -2      2476      2612      3553      3649
 -1     10810    3    0    1
 -2      2996      1531      1824      3649
 -1     10811    3    0    1
 -2      2625      2605      3633      3649
 -1     10812    3    0    1
 -2      1531      2625      3633      3649
 -1     10813    3    0    1
 -2      2625      1531      2996      3649
 -1     10814    3    0    1
 -2      3046      2694      3313      3649
 -1     10815    3    0    1
 -2      1485      3046      3313      3649
 -1     10816    3    0    1
 -2      3046      1485      1824      3649
 -1     10817    3    0    1
 -2      3208      2732      3325      3649
 -1     10818    3    0    1
 -2      2732      2996      3325      3649
 -1     10819    3    0    1
 -2      2612      2732      3208      3649
 -1     10820    3    0    1
 -2      2732      2605      2996      3649
 -1     10821    3    0    1
 -2      2476      2605      2732      3649
 -1     10822    3    0    1
 -2      2612      2476      2732      3649
 -1     10823    3    0    1
 -2      1531      3046      1824      3649
 -1     10824    3    0    1
 -2      2605      2625      2996      3649
 -1     10825    3    0    1
 -2      2614      2502      2645      3650
 -1     10826    3    0    1
 -2      2614      2645      3005      3650
 -1     10827    3    0    1
 -2      2645      2965      3000      3650
 -1     10828    3    0    1
 -2      2964      1684      3102      3650
 -1     10829    3    0    1
 -2      1684      3008      3215      3650
 -1     10830    3    0    1
 -2      2614      3581      2502      3650
 -1     10831    3    0    1
 -2      2645      2858      3005      3650
 -1     10832    3    0    1
 -2      2858      2645      3000      3650
 -1     10833    3    0    1
 -2      1684      1546      3102      3650
 -1     10834    3    0    1
 -2      1684       924      3008      3650
 -1     10835    3    0    1
 -2       924      1684      2964      3650
 -1     10836    3    0    1
 -2      1447      3008      3013      3650
 -1     10837    3    0    1
 -2      1546      1487      3102      3650
 -1     10838    3    0    1
 -2      2858      1447      3005      3650
 -1     10839    3    0    1
 -2      3008      1447      3215      3650
 -1     10840    3    0    1
 -2      2920      2718      2956      3687
 -1     10841    3    0    1
 -2      3540       410      3640      3652
 -1     10842    3    0    1
 -2      3514      3540      3640      3652
 -1     10843    3    0    1
 -2       410      1753      3540      1801
 -1     10844    3    0    1
 -2      1753       410      3540      3652
 -1     10845    3    0    1
 -2      1753      1429      3001      3652
 -1     10846    3    0    1
 -2      1312       410      3002      3652
 -1     10847    3    0    1
 -2      3251      2863      3673      3393
 -1     10848    3    0    1
 -2      2785      2818      3577      3687
 -1     10849    3    0    1
 -2      2663      1257      1251      3558
 -1     10850    3    0    1
 -2      3002       410      3206      3652
 -1     10851    3    0    1
 -2      2863      3251      3345      3393
 -1     10852    3    0    1
 -2      2796      2534      2818      3687
 -1     10853    3    0    1
 -2       410      1750      3206      3652
 -1     10854    3    0    1
 -2       426       253      3608      3656
 -1     10855    3    0    1
 -2       253      3511      3608      3656
 -1     10856    3    0    1
 -2      3522      3557      3602      3653
 -1     10857    3    0    1
 -2       277      3522      3602      3653
 -1     10858    3    0    1
 -2      3522       277      3557      3653
 -1     10859    3    0    1
 -2      3183      2940      3198      3673
 -1     10860    3    0    1
 -2      3296       804      1853      3340
 -1     10861    3    0    1
 -2      2663      2875      3558      3654
 -1     10862    3    0    1
 -2      2663      2562      2875      3654
 -1     10863    3    0    1
 -2      3104      2613      3323      3344
 -1     10864    3    0    1
 -2      2872      3550      3069      3455
 -1     10865    3    0    1
 -2       768       763      2911      1871
 -1     10866    3    0    1
 -2      1305      2687      3521      3716
 -1     10867    3    0    1
 -2      3021      3618      3339      3355
 -1     10868    3    0    1
 -2      1545      1411      3509      3477
 -1     10869    3    0    1
 -2      3509      3042      3668      3477
 -1     10870    3    0    1
 -2      3563      3678      3698      3480
 -1     10871    3    0    1
 -2      3666      1322      3724      3725
 -1     10872    3    0    1
 -2      3056      1715      3668      3477
 -1     10873    3    0    1
 -2      1018       317      3693      1915
 -1     10874    3    0    1
 -2      1610       572      2714      3363
 -1     10875    3    0    1
 -2      3551      1409      3618      3355
 -1     10876    3    0    1
 -2      3429      1908      3729      3743
 -1     10877    3    0    1
 -2      3429      3681      1908      3743
 -1     10878    3    0    1
 -2      1730      3678      1893      3716
 -1     10879    3    0    1
 -2      3534      1316      3609      3691
 -1     10880    3    0    1
 -2      3409      1861      1898      3455
 -1     10881    3    0    1
 -2       981       171      3678      3716
 -1     10882    3    0    1
 -2      1730      1438      3630      3716
 -1     10883    3    0    1
 -2      1730      3630      3678      3716
 -1     10884    3    0    1
 -2      3678       171      1893      3716
 -1     10885    3    0    1
 -2      2797      1728      3265      3665
 -1     10886    3    0    1
 -2      1510      1509      2561      3475
 -1     10887    3    0    1
 -2      2538      2697      3113      3673
 -1     10888    3    0    1
 -2      3506      1316      3609      3534
 -1     10889    3    0    1
 -2      2613      2954      3323      3344
 -1     10890    3    0    1
 -2      2954      2805      3331      3344
 -1     10891    3    0    1
 -2      3088      1789      3128      3654
 -1     10892    3    0    1
 -2      2569      3108      3598      3343
 -1     10893    3    0    1
 -2      2739      1789      3338      3654
 -1     10894    3    0    1
 -2      1789      2739      3128      3654
 -1     10895    3    0    1
 -2      2805      3179      3331      3344
 -1     10896    3    0    1
 -2      3559      2613      3104      3344
 -1     10897    3    0    1
 -2      3173      1648      3227      3683
 -1     10898    3    0    1
 -2      2484      2531      2638      3654
 -1     10899    3    0    1
 -2       680      3115      1846      3673
 -1     10900    3    0    1
 -2      3088      2908      3338      3654
 -1     10901    3    0    1
 -2      1782      2538      3115      3673
 -1     10902    3    0    1
 -2      2531      2484      2700      3654
 -1     10903    3    0    1
 -2      2875      2735      2914      3654
 -1     10904    3    0    1
 -2      2877      2663      2908      3654
 -1     10905    3    0    1
 -2      2877      2908      3088      3654
 -1     10906    3    0    1
 -2      2805      3559      3179      3344
 -1     10907    3    0    1
 -2      2562      2735      2875      3654
 -1     10908    3    0    1
 -2       680      1782      3115      3673
 -1     10909    3    0    1
 -2      3179      1505      3331      3344
 -1     10910    3    0    1
 -2      1789      3088      3338      3654
 -1     10911    3    0    1
 -2      2531      2700      2739      3654
 -1     10912    3    0    1
 -2      2822      1503      2956      3687
 -1     10913    3    0    1
 -2      2954      2613      3559      3344
 -1     10914    3    0    1
 -2      2739      2700      3128      3654
 -1     10915    3    0    1
 -2      1316      3609      3628      3686
 -1     10916    3    0    1
 -2      3181      2863      1852      3393
 -1     10917    3    0    1
 -2      1809      3181      1852      3393
 -1     10918    3    0    1
 -2      1581      3040      3655      2878
 -1     10919    3    0    1
 -2      3040      1581      3655      1874
 -1     10920    3    0    1
 -2      1604      3045      3206      3001
 -1     10921    3    0    1
 -2      3045      1604      3206      1874
 -1     10922    3    0    1
 -2      1483      1413      3280      3346
 -1     10923    3    0    1
 -2      3082      1483      3280      3346
 -1     10924    3    0    1
 -2      3040      1581      1874      1875
 -1     10925    3    0    1
 -2      3145      2635      1850      3346
 -1     10926    3    0    1
 -2      1483      1484      3120      1925
 -1     10927    3    0    1
 -2      3082      2633      3145      3346
 -1     10928    3    0    1
 -2      3075      1709      3607      3386
 -1     10929    3    0    1
 -2      3573      2635      3145      3346
 -1     10930    3    0    1
 -2      2633      3573      3145      3346
 -1     10931    3    0    1
 -2      3028      1709      3075      3386
 -1     10932    3    0    1
 -2      1579      1461      2864      3386
 -1     10933    3    0    1
 -2      2633      3082      3280      3346
 -1     10934    3    0    1
 -2      2563      2749      3645      3661
 -1     10935    3    0    1
 -2      3273      3108      1896      3413
 -1     10936    3    0    1
 -2      3500      3563      3427      3714
 -1     10937    3    0    1
 -2      3498      1421      3564      3714
 -1     10938    3    0    1
 -2      3657      3192      3414      3453
 -1     10939    3    0    1
 -2      3501      2136      3513      3718
 -1     10940    3    0    1
 -2      1308      3565      3663      3718
 -1     10941    3    0    1
 -2      2638      2703      3554      3682
 -1     10942    3    0    1
 -2      2471      2531      3672      3682
 -1     10943    3    0    1
 -2      2914      3538      3554      3682
 -1     10944    3    0    1
 -2      3538      2638      3554      3682
 -1     10945    3    0    1
 -2      3112       698      3413      3437
 -1     10946    3    0    1
 -2      1721      1409      3551      3479
 -1     10947    3    0    1
 -2      3020      2789      3591      3661
 -1     10948    3    0    1
 -2      3613      2136      1308      3718
 -1     10949    3    0    1
 -2       698      3112      3625      3437
 -1     10950    3    0    1
 -2      1633      1634      2775      3385
 -1     10951    3    0    1
 -2      1440      3071      3473      3741
 -1     10952    3    0    1
 -2      3592      2497      3662      3721
 -1     10953    3    0    1
 -2      3558      2471      3672      3682
 -1     10954    3    0    1
 -2      2778      2360      2842      3658
 -1     10955    3    0    1
 -2      1526      1253      2558      3348
 -1     10956    3    0    1
 -2      3231      3394      3451      3727
 -1     10957    3    0    1
 -2      2621      3048      3136      3603
 -1     10958    3    0    1
 -2      3292      3240      1896      3445
 -1     10959    3    0    1
 -2      2899      1789      3622      3659
 -1     10960    3    0    1
 -2      3308      1495      3311      3674
 -1     10961    3    0    1
 -2      2590      3293      3308      3674
 -1     10962    3    0    1
 -2      1640      1776      3579      3377
 -1     10963    3    0    1
 -2      1776      2662      3579      3377
 -1     10964    3    0    1
 -2      3549      3264      3308      3659
 -1     10965    3    0    1
 -2      2590      3549      3308      3659
 -1     10966    3    0    1
 -2      2837       662      3297      3659
 -1     10967    3    0    1
 -2      1522       662      2837      3659
 -1     10968    3    0    1
 -2      1789      2899      3297      3659
 -1     10969    3    0    1
 -2      1537      1743      3311      3674
 -1     10970    3    0    1
 -2      1495      2892      3294      3674
 -1     10971    3    0    1
 -2      2892      1495      3293      3674
 -1     10972    3    0    1
 -2      2550      3549      2590      2592
 -1     10973    3    0    1
 -2      2857      2590      3308      3659
 -1     10974    3    0    1
 -2      3264      2857      3308      3659
 -1     10975    3    0    1
 -2      1522      2857      3264      3659
 -1     10976    3    0    1
 -2      1522      2837      2857      3659
 -1     10977    3    0    1
 -2       662      1789      3297      3659
 -1     10978    3    0    1
 -2      3264      2951      3277      3659
 -1     10979    3    0    1
 -2      2697      2517      2837      3659
 -1     10980    3    0    1
 -2      2697      2837      2899      3659
 -1     10981    3    0    1
 -2      3549      2550      2590      3674
 -1     10982    3    0    1
 -2      2517      2590      2837      3659
 -1     10983    3    0    1
 -2       662      3264      3277      3659
 -1     10984    3    0    1
 -2      2899      2837      3297      3659
 -1     10985    3    0    1
 -2      2590      2892      3293      3674
 -1     10986    3    0    1
 -2      2837      2590      2857      3659
 -1     10987    3    0    1
 -2       662      1522      3264      3659
 -1     10988    3    0    1
 -2      1789       662      3277      3659
 -1     10989    3    0    1
 -2      2550      2849      2892      3674
 -1     10990    3    0    1
 -2      3123      1664      3601      3660
 -1     10991    3    0    1
 -2      1664      2709      3601      3660
 -1     10992    3    0    1
 -2       691      3240      1896      1897
 -1     10993    3    0    1
 -2      1833      1832      3292      1897
 -1     10994    3    0    1
 -2      2626      2669      3097      3660
 -1     10995    3    0    1
 -2      3256      1453      1844      3660
 -1     10996    3    0    1
 -2      3142      2091      3219      3701
 -1     10997    3    0    1
 -2      2626      2510      2669      3660
 -1     10998    3    0    1
 -2      1664      1453      3256      3660
 -1     10999    3    0    1
 -2      3506      3562      3609      3701
 -1     11000    3    0    1
 -2      2626      3097      3123      3660
 -1     11001    3    0    1
 -2      2669      2541      3292      3660
 -1     11002    3    0    1
 -2      2709      1664      3256      3660
 -1     11003    3    0    1
 -2      1562      2845      3249      3689
 -1     11004    3    0    1
 -2      1420      1516      3594      3689
 -1     11005    3    0    1
 -2      1629       768      2911      3661
 -1     11006    3    0    1
 -2      3618      3355      3717      3479
 -1     11007    3    0    1
 -2       426      3656      3378      3479
 -1     11008    3    0    1
 -2      1868      1721      3656      3479
 -1     11009    3    0    1
 -2      2911       768      1871      3661
 -1     11010    3    0    1
 -2      3017      2911      1871      3661
 -1     11011    3    0    1
 -2      1409      3618      3355      3476
 -1     11012    3    0    1
 -2      2749      2542      2840      3661
 -1     11013    3    0    1
 -2      2893      2789      3025      3661
 -1     11014    3    0    1
 -2      2749      2840      2911      3661
 -1     11015    3    0    1
 -2       660       668       996      1918
 -1     11016    3    0    1
 -2      2840      2542      2904      3661
 -1     11017    3    0    1
 -2      2789      3020      3025      3661
 -1     11018    3    0    1
 -2      2749      2911      3017      3661
 -1     11019    3    0    1
 -2      2840      2904      3063      3661
 -1     11020    3    0    1
 -2      1725      1420      3594      3689
 -1     11021    3    0    1
 -2      3535      2527      3579      3690
 -1     11022    3    0    1
 -2      3618      3551      3355      3479
 -1     11023    3    0    1
 -2      2840      3063      3318      3661
 -1     11024    3    0    1
 -2      3663      3407      3698      3480
 -1     11025    3    0    1
 -2      3550      2872      3034      3455
 -1     11026    3    0    1
 -2      2692      3550      3409      3455
 -1     11027    3    0    1
 -2      3244      1543      3423      3450
 -1     11028    3    0    1
 -2      1696      2641      3555      3359
 -1     11029    3    0    1
 -2      3555      2641      3144      3359
 -1     11030    3    0    1
 -2      3580      3144      3174      3359
 -1     11031    3    0    1
 -2      3580      3555      3144      3359
 -1     11032    3    0    1
 -2      2715      3555      3580      3359
 -1     11033    3    0    1
 -2      2715      3580      3174      3359
 -1     11034    3    0    1
 -2      3259      3252      3319      3360
 -1     11035    3    0    1
 -2      1812      1811      1816      3360
 -1     11036    3    0    1
 -2      1816      1811      3259      3360
 -1     11037    3    0    1
 -2      1811      1583      3319      3360
 -1     11038    3    0    1
 -2       241      3648      3700      3720
 -1     11039    3    0    1
 -2      3218      1559      1857      3473
 -1     11040    3    0    1
 -2      3592      3129      3352      3721
 -1     11041    3    0    1
 -2      3624      3648      3657      3720
 -1     11042    3    0    1
 -2      3624       241      3700      3720
 -1     11043    3    0    1
 -2      3560      2793      3260      3702
 -1     11044    3    0    1
 -2      3560      3260      3620      3702
 -1     11045    3    0    1
 -2      3342      3142      3361      3719
 -1     11046    3    0    1
 -2      1429      3219      3701      3719
 -1     11047    3    0    1
 -2       772       243      1043      1881
 -1     11048    3    0    1
 -2      3563      2974      3314      3480
 -1     11049    3    0    1
 -2      3407      2974      3698      3480
 -1     11050    3    0    1
 -2      1410      3613      3623      3718
 -1     11051    3    0    1
 -2      3513      2136      3613      3718
 -1     11052    3    0    1
 -2      1877       171      3684      3718
 -1     11053    3    0    1
 -2       180      1801      3651      3719
 -1     11054    3    0    1
 -2      3029      2797      3632      3665
 -1     11055    3    0    1
 -2      3533      3265      3636      3665
 -1     11056    3    0    1
 -2      3595      2765      3639      3662
 -1     11057    3    0    1
 -2       333      2515      2610      3744
 -1     11058    3    0    1
 -2      2730      2787      3639      3662
 -1     11059    3    0    1
 -2      3605      2520      3458      3739
 -1     11060    3    0    1
 -2       184       678      1004      1923
 -1     11061    3    0    1
 -2       690       707      2308      3430
 -1     11062    3    0    1
 -2      1467      3517      3238      3740
 -1     11063    3    0    1
 -2      1821      1599      3642      3740
 -1     11064    3    0    1
 -2       631       158       627      1904
 -1     11065    3    0    1
 -2      2814      2883      3592      3662
 -1     11066    3    0    1
 -2      2814      2723      2883      3662
 -1     11067    3    0    1
 -2      3495      1420      3569      3739
 -1     11068    3    0    1
 -2      2677      3087      3190      3459
 -1     11069    3    0    1
 -2      2557      3595      3639      3662
 -1     11070    3    0    1
 -2      2787      2557      3639      3662
 -1     11071    3    0    1
 -2      2537       158      3502      1904
 -1     11072    3    0    1
 -2       631       627       975      1904
 -1     11073    3    0    1
 -2      2723      2814      2948      3662
 -1     11074    3    0    1
 -2      2948      2814      3592      3662
 -1     11075    3    0    1
 -2       707      1009      2353      3430
 -1     11076    3    0    1
 -2       389      3502      1904      1905
 -1     11077    3    0    1
 -2      3681       329      1908      3729
 -1     11078    3    0    1
 -2      3517      2619      3184      3722
 -1     11079    3    0    1
 -2      2883      3049      3129      3662
 -1     11080    3    0    1
 -2      2931      2723      3078      3662
 -1     11081    3    0    1
 -2      3078      2723      3250      3662
 -1     11082    3    0    1
 -2      2883      2765      3049      3662
 -1     11083    3    0    1
 -2      2883      3592      3129      2935
 -1     11084    3    0    1
 -2      2402      3495      3569      3739
 -1     11085    3    0    1
 -2      2640      2765      2883      3662
 -1     11086    3    0    1
 -2      2730      2497      2787      3662
 -1     11087    3    0    1
 -2      2606      2618      3722      3740
 -1     11088    3    0    1
 -2      3087      2677      3690      3459
 -1     11089    3    0    1
 -2       707      2042      2308      3430
 -1     11090    3    0    1
 -2      2131      1004      2308      3430
 -1     11091    3    0    1
 -2      1539      1746      3190      3459
 -1     11092    3    0    1
 -2       392       390       606      1905
 -1     11093    3    0    1
 -2       389       390      3502      1905
 -1     11094    3    0    1
 -2      2670      2963      2984      3664
 -1     11095    3    0    1
 -2      2670      1729      2963      3664
 -1     11096    3    0    1
 -2      2670      1442      1729      3664
 -1     11097    3    0    1
 -2      2763      1650      3239      3665
 -1     11098    3    0    1
 -2      2763      3239      3632      3665
 -1     11099    3    0    1
 -2      1583      2934      1845      3665
 -1     11100    3    0    1
 -2      1650      1553      3239      3665
 -1     11101    3    0    1
 -2      2988      1553      3632      3665
 -1     11102    3    0    1
 -2      1553      2988      3239      3665
 -1     11103    3    0    1
 -2      3239      2988      3632      3665
 -1     11104    3    0    1
 -2      2763      2701      2766      3665
 -1     11105    3    0    1
 -2      2647      2701      2763      3665
 -1     11106    3    0    1
 -2      2766      2701      2995      3665
 -1     11107    3    0    1
 -2      1650      1457      3029      3665
 -1     11108    3    0    1
 -2      1457      1583      3029      3665
 -1     11109    3    0    1
 -2      1583      1728      3029      3665
 -1     11110    3    0    1
 -2      1728      2934      3265      3665
 -1     11111    3    0    1
 -2      1728      2797      3029      3665
 -1     11112    3    0    1
 -2      1553      1650      3029      3665
 -1     11113    3    0    1
 -2      2934      1728      1845      3665
 -1     11114    3    0    1
 -2      1728      1583      1845      3665
 -1     11115    3    0    1
 -2      2462      2798      2808      3666
 -1     11116    3    0    1
 -2      2639      2516      3568      3726
 -1     11117    3    0    1
 -2      2463      3131      3207      3667
 -1     11118    3    0    1
 -2      2463      2496      3131      3667
 -1     11119    3    0    1
 -2      3195      2806      3348      3667
 -1     11120    3    0    1
 -2      2489      2463      3207      3667
 -1     11121    3    0    1
 -2      2496      2458      3131      3667
 -1     11122    3    0    1
 -2      2458      2740      3131      3667
 -1     11123    3    0    1
 -2      3131      2740      3347      3667
 -1     11124    3    0    1
 -2      3095      2806      3195      3667
 -1     11125    3    0    1
 -2      3207      3131      3347      3667
 -1     11126    3    0    1
 -2      1413      3195      3348      3667
 -1     11127    3    0    1
 -2      2463      2489      3059      3667
 -1     11128    3    0    1
 -2      3576      2952      1865      3468
 -1     11129    3    0    1
 -2      1413      1455      3195      3667
 -1     11130    3    0    1
 -2      1483      1413      3348      3667
 -1     11131    3    0    1
 -2      3031      3231      3397      3727
 -1     11132    3    0    1
 -2      1593      3171      3682      3727
 -1     11133    3    0    1
 -2      2823      3187      3606      3445
 -1     11134    3    0    1
 -2      3571      2973      3247      3669
 -1     11135    3    0    1
 -2      2882      2959      3571      3669
 -1     11136    3    0    1
 -2      2973      1475      3247      3669
 -1     11137    3    0    1
 -2      1475      2973      3212      3669
 -1     11138    3    0    1
 -2      2959      2973      3571      3669
 -1     11139    3    0    1
 -2      1722      1688      2997      3669
 -1     11140    3    0    1
 -2      2997      1688      3100      3669
 -1     11141    3    0    1
 -2      2989      2997      3100      3669
 -1     11142    3    0    1
 -2      1722      2997      3247      3669
 -1     11143    3    0    1
 -2      2882      2922      3212      3669
 -1     11144    3    0    1
 -2      2882      2737      2922      3669
 -1     11145    3    0    1
 -2      1688       750      3100      3669
 -1     11146    3    0    1
 -2      2737      2870      2922      3669
 -1     11147    3    0    1
 -2      1475      1722      3247      3669
 -1     11148    3    0    1
 -2      2959      2882      3212      3669
 -1     11149    3    0    1
 -2      2973      2959      3212      3669
 -1     11150    3    0    1
 -2      3535      3579      3675      3690
 -1     11151    3    0    1
 -2      1786      3130      3305      3670
 -1     11152    3    0    1
 -2      1559      1786      3305      3670
 -1     11153    3    0    1
 -2      1559      3305      3373      3670
 -1     11154    3    0    1
 -2      3607      3188      3363      3690
 -1     11155    3    0    1
 -2      1786       732      3130      3670
 -1     11156    3    0    1
 -2      3130       732      3248      3670
 -1     11157    3    0    1
 -2      2856      3095      3143      3670
 -1     11158    3    0    1
 -2      2545      2470      2608      3670
 -1     11159    3    0    1
 -2      3143      3095      3248      3670
 -1     11160    3    0    1
 -2      3130      2608      3305      3670
 -1     11161    3    0    1
 -2      2608      3255      3305      3670
 -1     11162    3    0    1
 -2      2608      2470      3255      3670
 -1     11163    3    0    1
 -2      3095      3195      3248      3670
 -1     11164    3    0    1
 -2      2740      2608      3130      3670
 -1     11165    3    0    1
 -2      2458      2608      2740      3670
 -1     11166    3    0    1
 -2      1786      3143      3248      3670
 -1     11167    3    0    1
 -2       941      3517      3614      3722
 -1     11168    3    0    1
 -2      1786      1559      3143      3670
 -1     11169    3    0    1
 -2       732      1786      3248      3670
 -1     11170    3    0    1
 -2      3103      1593      3329      3671
 -1     11171    3    0    1
 -2      1420      1516      3458      3739
 -1     11172    3    0    1
 -2      2459      2402      3569      3739
 -1     11173    3    0    1
 -2      2540      2643      3555      3671
 -1     11174    3    0    1
 -2      3555      2643      3580      3671
 -1     11175    3    0    1
 -2      2687      2643      3521      3671
 -1     11176    3    0    1
 -2      3173      2967      3329      3671
 -1     11177    3    0    1
 -2      2967      2791      3329      3671
 -1     11178    3    0    1
 -2       644      3173      3329      3671
 -1     11179    3    0    1
 -2      2573      2757      2916      3671
 -1     11180    3    0    1
 -2      2736      2573      2916      3671
 -1     11181    3    0    1
 -2      2540      2791      2967      3671
 -1     11182    3    0    1
 -2      2559      2573      2736      3671
 -1     11183    3    0    1
 -2      2736      2916      2962      3671
 -1     11184    3    0    1
 -2      1429      3514      1753      3719
 -1     11185    3    0    1
 -2      1593       644      3329      3671
 -1     11186    3    0    1
 -2      2559      2736      2918      3671
 -1     11187    3    0    1
 -2      2918      2736      3103      3671
 -1     11188    3    0    1
 -2      2643      2687      2715      3671
 -1     11189    3    0    1
 -2      2676      2648      2913      3672
 -1     11190    3    0    1
 -2      3121      1522      3338      3672
 -1     11191    3    0    1
 -2      1661      1522      3177      3672
 -1     11192    3    0    1
 -2      1522       662      3338      3672
 -1     11193    3    0    1
 -2      1316      3506      3609      3686
 -1     11194    3    0    1
 -2      2940      2637      3198      3673
 -1     11195    3    0    1
 -2      2538      2517      2697      3673
 -1     11196    3    0    1
 -2      2517      2538      3186      3673
 -1     11197    3    0    1
 -2      3604      1725      1823      3463
 -1     11198    3    0    1
 -2      2697      2863      3113      3673
 -1     11199    3    0    1
 -2       680      3183      3221      3673
 -1     11200    3    0    1
 -2      2637      2665      3198      3673
 -1     11201    3    0    1
 -2      2592      2517      3186      3673
 -1     11202    3    0    1
 -2      3183       680      1846      3673
 -1     11203    3    0    1
 -2      3113      2863      3181      3673
 -1     11204    3    0    1
 -2      1782       680      3221      3673
 -1     11205    3    0    1
 -2      3137      2592      3186      3673
 -1     11206    3    0    1
 -2      1495      1537      3311      3674
 -1     11207    3    0    1
 -2       330      3582      1881      1882
 -1     11208    3    0    1
 -2       330       376      3582      1882
 -1     11209    3    0    1
 -2       758       227       376      1882
 -1     11210    3    0    1
 -2       227       758       751      1882
 -1     11211    3    0    1
 -2        80      3394      1765      1894
 -1     11212    3    0    1
 -2      1755      1767      3302      3398
 -1     11213    3    0    1
 -2       750      3574      3200      3379
 -1     11214    3    0    1
 -2      1527      1528      3133      3397
 -1     11215    3    0    1
 -2      2891      1666      3196      3481
 -1     11216    3    0    1
 -2      1443      3038      1767      3398
 -1     11217    3    0    1
 -2      3610      1755      3302      3398
 -1     11218    3    0    1
 -2      3555      2915      3320      3481
 -1     11219    3    0    1
 -2      3111      2726      3584      3380
 -1     11220    3    0    1
 -2      3584      2726      3633      3380
 -1     11221    3    0    1
 -2      1633      1473      3216      3381
 -1     11222    3    0    1
 -2      1294      3578      3723      3728
 -1     11223    3    0    1
 -2      1590      1434      3578      3728
 -1     11224    3    0    1
 -2      2847      3555      3216      3381
 -1     11225    3    0    1
 -2      1473      2847      3216      3381
 -1     11226    3    0    1
 -2      2847      1473      3555      3381
 -1     11227    3    0    1
 -2      1784       387      3723      3728
 -1     11228    3    0    1
 -2      3512      1434      1749      3728
 -1     11229    3    0    1
 -2      1746      3058      3190      3728
 -1     11230    3    0    1
 -2      1746       387      3326      3728
 -1     11231    3    0    1
 -2       387      1294      3723      3728
 -1     11232    3    0    1
 -2      3626      3237      3664      3454
 -1     11233    3    0    1
 -2      1638      1639      1835      3383
 -1     11234    3    0    1
 -2      1639      1638      3030      3383
 -1     11235    3    0    1
 -2       218       219       736      1902
 -1     11236    3    0    1
 -2      1531      2682      2925      3384
 -1     11237    3    0    1
 -2      1532      1531      2925      3384
 -1     11238    3    0    1
 -2       956      2607      2658      3675
 -1     11239    3    0    1
 -2       956      1294      2607      3675
 -1     11240    3    0    1
 -2      3053      3026      3579      3675
 -1     11241    3    0    1
 -2      2530      3053      3579      3675
 -1     11242    3    0    1
 -2      1330       329      3681      3729
 -1     11243    3    0    1
 -2       329      3604      1823      3729
 -1     11244    3    0    1
 -2      3594      3544      3604      3729
 -1     11245    3    0    1
 -2      1567      3053      3578      3675
 -1     11246    3    0    1
 -2      3026      1567      3578      3675
 -1     11247    3    0    1
 -2      1567      3026      3053      3675
 -1     11248    3    0    1
 -2      1032       329      1330      3729
 -1     11249    3    0    1
 -2       270       333      3708      3744
 -1     11250    3    0    1
 -2      3544      3569      3604      3729
 -1     11251    3    0    1
 -2      2607      1294      3093      3675
 -1     11252    3    0    1
 -2      2530      2527      2677      3675
 -1     11253    3    0    1
 -2       427       329      1823      3729
 -1     11254    3    0    1
 -2       329       427      1908      3729
 -1     11255    3    0    1
 -2       196      3609       182      3628
 -1     11256    3    0    1
 -2      1294      1746      3093      3675
 -1     11257    3    0    1
 -2       329      1032      3594      3729
 -1     11258    3    0    1
 -2      1481      1543      2616      3460
 -1     11259    3    0    1
 -2       334       255      3708      3744
 -1     11260    3    0    1
 -2      1032      3544      3594      3729
 -1     11261    3    0    1
 -2       333      1059      2515      3744
 -1     11262    3    0    1
 -2      1481      2616      3047      3460
 -1     11263    3    0    1
 -2      3544      1330      3681      3729
 -1     11264    3    0    1
 -2      1419      1754      3034      3676
 -1     11265    3    0    1
 -2      1419      2879      1754      3676
 -1     11266    3    0    1
 -2      2879      2632      3041      3676
 -1     11267    3    0    1
 -2      1754      2879      3084      3676
 -1     11268    3    0    1
 -2      2906      1533      3125      3676
 -1     11269    3    0    1
 -2      2879      3041      3084      3676
 -1     11270    3    0    1
 -2      1533      1493      3125      3676
 -1     11271    3    0    1
 -2      2632      2792      3041      3676
 -1     11272    3    0    1
 -2      3041      2792      3124      3676
 -1     11273    3    0    1
 -2      3573      2635      3346      3677
 -1     11274    3    0    1
 -2      2635      3573      3597      3677
 -1     11275    3    0    1
 -2      1774       732      3092      3677
 -1     11276    3    0    1
 -2      3148      2865      3194      3677
 -1     11277    3    0    1
 -2      2646      2861      3092      3677
 -1     11278    3    0    1
 -2      3092      2861      3228      3677
 -1     11279    3    0    1
 -2      2460      2633      2861      3677
 -1     11280    3    0    1
 -2      2861      2633      3280      3677
 -1     11281    3    0    1
 -2      1455      3148      3194      3677
 -1     11282    3    0    1
 -2      3228      2861      3280      3677
 -1     11283    3    0    1
 -2      2646      3092      3233      3677
 -1     11284    3    0    1
 -2      2646      2460      2861      3677
 -1     11285    3    0    1
 -2      2635      3148      3346      3677
 -1     11286    3    0    1
 -2      1455      1413      3148      3677
 -1     11287    3    0    1
 -2      1774      1455      3194      3677
 -1     11288    3    0    1
 -2      3148      1413      3346      3677
 -1     11289    3    0    1
 -2       732      1774      3194      3677
 -1     11290    3    0    1
 -2      1792      2591      3330      3388
 -1     11291    3    0    1
 -2      1498        13      1646      3388
 -1     11292    3    0    1
 -2      1424      2550      2591      3388
 -1     11293    3    0    1
 -2      1498      1646      3236      3388
 -1     11294    3    0    1
 -2      1631        41      1632      3408
 -1     11295    3    0    1
 -2       592       957      2547      3433
 -1     11296    3    0    1
 -2      3608      1596      3378      3717
 -1     11297    3    0    1
 -2      3002      1312      3652      3685
 -1     11298    3    0    1
 -2      3299       804      1853      3390
 -1     11299    3    0    1
 -2      1600      2860      3299      3390
 -1     11300    3    0    1
 -2      2860      1600      3102      3390
 -1     11301    3    0    1
 -2       804      3004      3272      3390
 -1     11302    3    0    1
 -2      3004      2860      3581      3390
 -1     11303    3    0    1
 -2      3556      2728      3272      3390
 -1     11304    3    0    1
 -2      2728      3556      3581      3390
 -1     11305    3    0    1
 -2      3004      3556      3272      3390
 -1     11306    3    0    1
 -2      3556      3004      3581      3390
 -1     11307    3    0    1
 -2      2860      3004      3299      3390
 -1     11308    3    0    1
 -2      2782      1524      1782      3679
 -1     11309    3    0    1
 -2      2727      2782      1782      3679
 -1     11310    3    0    1
 -2      2783       680      3387      3679
 -1     11311    3    0    1
 -2       680      2783      1782      3679
 -1     11312    3    0    1
 -2      1524      2782      1807      3679
 -1     11313    3    0    1
 -2      1807      3180      3304      3679
 -1     11314    3    0    1
 -2      1807      2782      3180      3679
 -1     11315    3    0    1
 -2      2727      2490      2779      3679
 -1     11316    3    0    1
 -2      2727      2779      2782      3679
 -1     11317    3    0    1
 -2      3220      3105      3387      3679
 -1     11318    3    0    1
 -2      2566      2490      2727      3679
 -1     11319    3    0    1
 -2      1782      3220      3387      3679
 -1     11320    3    0    1
 -2      1782      1524      3220      3679
 -1     11321    3    0    1
 -2      2566      2727      2783      3679
 -1     11322    3    0    1
 -2      2782      2779      3180      3679
 -1     11323    3    0    1
 -2      3220      1524      3304      3679
 -1     11324    3    0    1
 -2       680      1782      3387      3679
 -1     11325    3    0    1
 -2      1524      1807      3304      3679
 -1     11326    3    0    1
 -2      2919      3257      3270      3680
 -1     11327    3    0    1
 -2      3270      3257      3368      3680
 -1     11328    3    0    1
 -2      2466      2919      3270      3680
 -1     11329    3    0    1
 -2      2919      3140      3257      3680
 -1     11330    3    0    1
 -2      2427      2493      2684      3680
 -1     11331    3    0    1
 -2      2427      2121      2493      3680
 -1     11332    3    0    1
 -2      3257      1432      3368      3680
 -1     11333    3    0    1
 -2      3176      2466      3270      3680
 -1     11334    3    0    1
 -2      2121      2467      2493      3680
 -1     11335    3    0    1
 -2      1529      3054      1877      1887
 -1     11336    3    0    1
 -2       347       346      3588      1890
 -1     11337    3    0    1
 -2      3588       346      1889      1890
 -1     11338    3    0    1
 -2       347       396       645      1890
 -1     11339    3    0    1
 -2       347       645       649      1890
 -1     11340    3    0    1
 -2      3104      1597      3323      1891
 -1     11341    3    0    1
 -2      3104      3323      1873      1891
 -1     11342    3    0    1
 -2      3104      1718      3344      1891
 -1     11343    3    0    1
 -2      1597      3104      3344      1891
 -1     11344    3    0    1
 -2      1738        40      3014      1891
 -1     11345    3    0    1
 -2      3014        40      1800      1891
 -1     11346    3    0    1
 -2        40      3104      1873      1891
 -1     11347    3    0    1
 -2        40      1718      3104      1891
 -1     11348    3    0    1
 -2      2926      1439      3024      3391
 -1     11349    3    0    1
 -2       153      3570      1886      3714
 -1     11350    3    0    1
 -2      2926      3024      3558      3391
 -1     11351    3    0    1
 -2      2926      3558      1880      3391
 -1     11352    3    0    1
 -2      1764        80      1880      3391
 -1     11353    3    0    1
 -2      1431      3586      3648      3452
 -1     11354    3    0    1
 -2       635       975       978      3392
 -1     11355    3    0    1
 -2       635       636      1936      3392
 -1     11356    3    0    1
 -2       636       635       978      3392
 -1     11357    3    0    1
 -2      2243       978      3588      3392
 -1     11358    3    0    1
 -2      2537       975      3502      3392
 -1     11359    3    0    1
 -2      2203      2537      3502      3392
 -1     11360    3    0    1
 -2       975      2203      3502      3392
 -1     11361    3    0    1
 -2       635      1936      2203      3392
 -1     11362    3    0    1
 -2       975       635      2203      3392
 -1     11363    3    0    1
 -2       157      2528      3588      3392
 -1     11364    3    0    1
 -2      2528       157      2537      3392
 -1     11365    3    0    1
 -2       158       975      2537      3392
 -1     11366    3    0    1
 -2       157       158      2537      3392
 -1     11367    3    0    1
 -2       158       157       975      3392
 -1     11368    3    0    1
 -2      3588       978      1889      3392
 -1     11369    3    0    1
 -2       157      3588      1889      3392
 -1     11370    3    0    1
 -2       978       157      1889      3392
 -1     11371    3    0    1
 -2       329      1595      3527      3681
 -1     11372    3    0    1
 -2      1330       329      3527      3681
 -1     11373    3    0    1
 -2      3591      3020      3399      3482
 -1     11374    3    0    1
 -2      2703      1519      3554      3682
 -1     11375    3    0    1
 -2       644      1519      2703      3682
 -1     11376    3    0    1
 -2      1593       644      3010      3682
 -1     11377    3    0    1
 -2      2638      2531      2873      3682
 -1     11378    3    0    1
 -2      2638      2873      2987      3682
 -1     11379    3    0    1
 -2      2875      2914      3171      3682
 -1     11380    3    0    1
 -2      2531      2471      2873      3682
 -1     11381    3    0    1
 -2      2703      2638      2987      3682
 -1     11382    3    0    1
 -2      2772      1699      2915      3481
 -1     11383    3    0    1
 -2      3010      2873      3133      3682
 -1     11384    3    0    1
 -2      2987      2873      3010      3682
 -1     11385    3    0    1
 -2      2914       644      3171      3682
 -1     11386    3    0    1
 -2      1519       644      2914      3682
 -1     11387    3    0    1
 -2       644      1593      3171      3682
 -1     11388    3    0    1
 -2      1887      3153      1888      1893
 -1     11389    3    0    1
 -2      2951      3622      3659      3685
 -1     11390    3    0    1
 -2      2940      2951      3659      3685
 -1     11391    3    0    1
 -2      2940      2593      2951      3685
 -1     11392    3    0    1
 -2      3506      1417      3609      3686
 -1     11393    3    0    1
 -2      2940      3659      3673      3685
 -1     11394    3    0    1
 -2      1429      3001      3652      3685
 -1     11395    3    0    1
 -2      1609      1429      3652      3685
 -1     11396    3    0    1
 -2      2689      2697      3622      3685
 -1     11397    3    0    1
 -2       998      2593      2637      3685
 -1     11398    3    0    1
 -2      2637      2593      2940      3685
 -1     11399    3    0    1
 -2       998      1312      2593      3685
 -1     11400    3    0    1
 -2      2697      2863      3673      3685
 -1     11401    3    0    1
 -2      3622      2697      3659      3685
 -1     11402    3    0    1
 -2      3659      2697      3673      3685
 -1     11403    3    0    1
 -2      3332      2839      3345      3685
 -1     11404    3    0    1
 -2      3096      3332      3345      3685
 -1     11405    3    0    1
 -2      2863      3096      3345      3685
 -1     11406    3    0    1
 -2      3251      2863      3345      3685
 -1     11407    3    0    1
 -2       998       196      3534      3685
 -1     11408    3    0    1
 -2       998      3534      3652      3685
 -1     11409    3    0    1
 -2      1609       196      2839      3685
 -1     11410    3    0    1
 -2       196      1541      2839      3685
 -1     11411    3    0    1
 -2      2839      1541      3345      3685
 -1     11412    3    0    1
 -2       196      1609      3534      3685
 -1     11413    3    0    1
 -2      3534      1609      3652      3685
 -1     11414    3    0    1
 -2       998      2940      3251      3685
 -1     11415    3    0    1
 -2      2689      1429      2776      3685
 -1     11416    3    0    1
 -2      2689      2776      2863      3685
 -1     11417    3    0    1
 -2       998      3251      3345      3685
 -1     11418    3    0    1
 -2       998      2637      2940      3685
 -1     11419    3    0    1
 -2      2951      2593      3002      3685
 -1     11420    3    0    1
 -2      1429      2689      3001      3685
 -1     11421    3    0    1
 -2      1429      1609      2776      3685
 -1     11422    3    0    1
 -2      2863      2776      3096      3685
 -1     11423    3    0    1
 -2      2697      2689      2863      3685
 -1     11424    3    0    1
 -2       196       998      3345      3685
 -1     11425    3    0    1
 -2      2593      1312      3002      3685
 -1     11426    3    0    1
 -2      2776      1609      2839      3685
 -1     11427    3    0    1
 -2      2776      2839      3332      3685
 -1     11428    3    0    1
 -2      3096      2776      3332      3685
 -1     11429    3    0    1
 -2      1541       196      3345      3685
 -1     11430    3    0    1
 -2      2541      2920      3240      3687
 -1     11431    3    0    1
 -2      2541      2491      2920      3687
 -1     11432    3    0    1
 -2      2785      2823      3035      3687
 -1     11433    3    0    1
 -2      2718      2822      2956      3687
 -1     11434    3    0    1
 -2      2491      2523      2718      3687
 -1     11435    3    0    1
 -2      2818      2785      3035      3687
 -1     11436    3    0    1
 -2      1503      3035      3187      3687
 -1     11437    3    0    1
 -2      2718      2796      2822      3687
 -1     11438    3    0    1
 -2      2523      2492      2718      3687
 -1     11439    3    0    1
 -2      2718      2534      2796      3687
 -1     11440    3    0    1
 -2      1465      2818      3035      3687
 -1     11441    3    0    1
 -2      2492      2534      2718      3687
 -1     11442    3    0    1
 -2      3038      3610      3302      3398
 -1     11443    3    0    1
 -2      1767      3038      3302      3398
 -1     11444    3    0    1
 -2      1719      3172      3596      3398
 -1     11445    3    0    1
 -2      3139      3596      3610      3398
 -1     11446    3    0    1
 -2      3139      3164      3596      3398
 -1     11447    3    0    1
 -2      3038      3139      3610      3398
 -1     11448    3    0    1
 -2      2657      1719      3596      3398
 -1     11449    3    0    1
 -2      1719      2657      3164      3398
 -1     11450    3    0    1
 -2      3164      2657      3596      3398
 -1     11451    3    0    1
 -2      3139      3038      3164      3398
 -1     11452    3    0    1
 -2      1440      3143      1857      3688
 -1     11453    3    0    1
 -2      3305      3255      3373      3688
 -1     11454    3    0    1
 -2      3143      1559      1857      3688
 -1     11455    3    0    1
 -2      3093      2607      3675      3690
 -1     11456    3    0    1
 -2      3535      2607      3188      3690
 -1     11457    3    0    1
 -2      1516      3495      3605      3739
 -1     11458    3    0    1
 -2       255       334      2582      3744
 -1     11459    3    0    1
 -2      3535      3188      3607      3690
 -1     11460    3    0    1
 -2      1481      3047      1778      3460
 -1     11461    3    0    1
 -2      2527      2677      3675      3690
 -1     11462    3    0    1
 -2      2519      3607      3363      3690
 -1     11463    3    0    1
 -2       207      1511      3422      3474
 -1     11464    3    0    1
 -2      2667      1578      3422      3474
 -1     11465    3    0    1
 -2      2742      2845      1734      3689
 -1     11466    3    0    1
 -2      2950      2742      1734      3689
 -1     11467    3    0    1
 -2      1326      1032      3594      3689
 -1     11468    3    0    1
 -2      1032      1326      3530      3689
 -1     11469    3    0    1
 -2      2801      1483      3120      1924
 -1     11470    3    0    1
 -2        57      1526      2801      1924
 -1     11471    3    0    1
 -2      1420      1725      3249      3689
 -1     11472    3    0    1
 -2      2499      1420      3249      3689
 -1     11473    3    0    1
 -2      1420      2499      2634      3689
 -1     11474    3    0    1
 -2      2845      2499      3249      3689
 -1     11475    3    0    1
 -2      1516      1420      2634      3689
 -1     11476    3    0    1
 -2      1562      1032      2950      3689
 -1     11477    3    0    1
 -2       329      1032      1562      3689
 -1     11478    3    0    1
 -2      1725      1823      3249      3689
 -1     11479    3    0    1
 -2      2742      2499      2845      3689
 -1     11480    3    0    1
 -2      3496      3557      3456      3742
 -1     11481    3    0    1
 -2      1562      2950      1734      3689
 -1     11482    3    0    1
 -2      1032      2706      2950      3689
 -1     11483    3    0    1
 -2      3618      3021      3339      3742
 -1     11484    3    0    1
 -2      2774      2520      3715      3739
 -1     11485    3    0    1
 -2      3188      1713      3363      3690
 -1     11486    3    0    1
 -2      2527      2655      2968      3690
 -1     11487    3    0    1
 -2      2655      2519      2968      3690
 -1     11488    3    0    1
 -2      1713       572      3363      3690
 -1     11489    3    0    1
 -2      2519      2714      3369      3690
 -1     11490    3    0    1
 -2      2481      2519      2655      3690
 -1     11491    3    0    1
 -2      2983      2885      2991      3692
 -1     11492    3    0    1
 -2      2885      2653      2991      3692
 -1     11493    3    0    1
 -2      3561      2991      3288      3692
 -1     11494    3    0    1
 -2      2991      2653      3288      3692
 -1     11495    3    0    1
 -2      2479      2901      3621      3692
 -1     11496    3    0    1
 -2      2479      3561      3288      3692
 -1     11497    3    0    1
 -2      2983      2707      3066      3692
 -1     11498    3    0    1
 -2      2846      2707      2983      3692
 -1     11499    3    0    1
 -2      1588      2983      3066      3692
 -1     11500    3    0    1
 -2      2695      2653      3033      3692
 -1     11501    3    0    1
 -2      2846      2983      2991      3692
 -1     11502    3    0    1
 -2      2574      2707      2846      3692
 -1     11503    3    0    1
 -2      2941      2695      2945      3692
 -1     11504    3    0    1
 -2      2660      2695      2941      3692
 -1     11505    3    0    1
 -2      2660      2653      2695      3692
 -1     11506    3    0    1
 -2      2653      2885      3033      3692
 -1     11507    3    0    1
 -2      2695      1588      3692      3033
 -1     11508    3    0    1
 -2      2660      2941      3162      3692
 -1     11509    3    0    1
 -2      2653      2660      2901      3692
 -1     11510    3    0    1
 -2      2479      2653      2901      3692
 -1     11511    3    0    1
 -2      2653      2479      3288      3692
 -1     11512    3    0    1
 -2       708      1012      1018      3693
 -1     11513    3    0    1
 -2       725       708      1018      3693
 -1     11514    3    0    1
 -2      2437       254      2451      3696
 -1     11515    3    0    1
 -2      1529      3663      3684      3407
 -1     11516    3    0    1
 -2      1425      1459      1460      3417
 -1     11517    3    0    1
 -2      2473      2798      3525      3724
 -1     11518    3    0    1
 -2      3668      3509      3477      3724
 -1     11519    3    0    1
 -2       559       556       944      1916
 -1     11520    3    0    1
 -2      2473      3509      2798      3724
 -1     11521    3    0    1
 -2      3567      3509      3668      3724
 -1     11522    3    0    1
 -2      3314      3563      3434      3714
 -1     11523    3    0    1
 -2      3273      3108      3343      1896
 -1     11524    3    0    1
 -2      1832      3273      3343      1896
 -1     11525    3    0    1
 -2      1739      3005      3014      3447
 -1     11526    3    0    1
 -2      1597      3014      3110      3447
 -1     11527    3    0    1
 -2        80      3320      1878      3446
 -1     11528    3    0    1
 -2      3014      1597      1891      3447
 -1     11529    3    0    1
 -2      3300      1785      3320      3446
 -1     11530    3    0    1
 -2      3320      1785      1878      3446
 -1     11531    3    0    1
 -2      2702      1675      2855      3408
 -1     11532    3    0    1
 -2      2702      1631      2750      3408
 -1     11533    3    0    1
 -2      3496      1422      3583      3456
 -1     11534    3    0    1
 -2      1764      3300      3320      3446
 -1     11535    3    0    1
 -2       282      2391      3537      3695
 -1     11536    3    0    1
 -2       337       282      3537      3695
 -1     11537    3    0    1
 -2      2560      2578      3537      3695
 -1     11538    3    0    1
 -2      2391      2560      3537      3695
 -1     11539    3    0    1
 -2       282      2391      3695      1917
 -1     11540    3    0    1
 -2      2391      2449      2578      3695
 -1     11541    3    0    1
 -2      2449      2304      2578      3695
 -1     11542    3    0    1
 -2      2560      2391      2578      3695
 -1     11543    3    0    1
 -2       332       244      3497      1899
 -1     11544    3    0    1
 -2      3657      2087      3436      3715
 -1     11545    3    0    1
 -2      3192      2087      3657      3715
 -1     11546    3    0    1
 -2      2692      1419      1762      3409
 -1     11547    3    0    1
 -2      2148      1030      2553      3734
 -1     11548    3    0    1
 -2      1849      3036      3351      3468
 -1     11549    3    0    1
 -2      1992      1315      2292      3410
 -1     11550    3    0    1
 -2      2547      2683      3535      3433
 -1     11551    3    0    1
 -2      2284       244      2508      3696
 -1     11552    3    0    1
 -2      1329      2284      2508      3696
 -1     11553    3    0    1
 -2       371       332      2781      3696
 -1     11554    3    0    1
 -2       254       371      2781      3696
 -1     11555    3    0    1
 -2       332       244      2781      3696
 -1     11556    3    0    1
 -2      1050       254      2781      3696
 -1     11557    3    0    1
 -2      2437      2451      2508      3696
 -1     11558    3    0    1
 -2      2137      2437      2508      3696
 -1     11559    3    0    1
 -2      2384      2137      2508      3696
 -1     11560    3    0    1
 -2       244      1329      2781      3696
 -1     11561    3    0    1
 -2      3179      3064      3336      3697
 -1     11562    3    0    1
 -2      3317      2563      3645      3697
 -1     11563    3    0    1
 -2      2944      3317      3324      3697
 -1     11564    3    0    1
 -2      3324      3317      3645      3697
 -1     11565    3    0    1
 -2      3336      3202      2795      1731
 -1     11566    3    0    1
 -2      3202      3336      2795      3697
 -1     11567    3    0    1
 -2      2805      3064      3179      3697
 -1     11568    3    0    1
 -2      3559      2805      3179      3697
 -1     11569    3    0    1
 -2      3202       786      3336      3697
 -1     11570    3    0    1
 -2       786      2944      3324      3697
 -1     11571    3    0    1
 -2      2944       786      3202      3697
 -1     11572    3    0    1
 -2      3324      3083      3336      3697
 -1     11573    3    0    1
 -2      2749      2563      2795      3697
 -1     11574    3    0    1
 -2      2795      2563      2944      3697
 -1     11575    3    0    1
 -2      2795      2944      3202      3697
 -1     11576    3    0    1
 -2      3083      3179      3336      3697
 -1     11577    3    0    1
 -2      2542      2749      2795      3697
 -1     11578    3    0    1
 -2      2542      2795      2805      3697
 -1     11579    3    0    1
 -2      2944      2563      3317      3697
 -1     11580    3    0    1
 -2       786      3324      3336      3697
 -1     11581    3    0    1
 -2      2805      2795      3064      3697
 -1     11582    3    0    1
 -2      2730      2497      3662      3706
 -1     11583    3    0    1
 -2      2850      2730      3639      3706
 -1     11584    3    0    1
 -2       698       691      3413      3437
 -1     11585    3    0    1
 -2       691      1535      1536      3437
 -1     11586    3    0    1
 -2       411       412      3711      3737
 -1     11587    3    0    1
 -2      3715      2774      3739      3743
 -1     11588    3    0    1
 -2      3639      2730      3662      3706
 -1     11589    3    0    1
 -2      2720      1555      1696      3706
 -1     11590    3    0    1
 -2      1741      1467      3238      3740
 -1     11591    3    0    1
 -2       996      1001      3711      1918
 -1     11592    3    0    1
 -2       411       409      3711      1918
 -1     11593    3    0    1
 -2      2436       996      3711      1918
 -1     11594    3    0    1
 -2      3501      1410      3513      3698
 -1     11595    3    0    1
 -2      3513      1410      3389      3698
 -1     11596    3    0    1
 -2      3663      3563      3678      3698
 -1     11597    3    0    1
 -2      3525      2798      3587      3724
 -1     11598    3    0    1
 -2      3509      2473      3525      3724
 -1     11599    3    0    1
 -2      2798      3509      3666      3724
 -1     11600    3    0    1
 -2      2974      2681      3389      3698
 -1     11601    3    0    1
 -2      2233      2468      2514      3698
 -1     11602    3    0    1
 -2      2681      3342      3389      3698
 -1     11603    3    0    1
 -2      2369      2681      2974      3698
 -1     11604    3    0    1
 -2      2974      3389      3407      3698
 -1     11605    3    0    1
 -2      2681      3142      3342      3698
 -1     11606    3    0    1
 -2      3389      1529      3407      3698
 -1     11607    3    0    1
 -2      1410      1529      3389      3698
 -1     11608    3    0    1
 -2       776       244       332      1899
 -1     11609    3    0    1
 -2       244       776       769      1899
 -1     11610    3    0    1
 -2       793       790      1052      1900
 -1     11611    3    0    1
 -2       371       332      3497      1900
 -1     11612    3    0    1
 -2      3497       332      1899      1900
 -1     11613    3    0    1
 -2       254       793       371      1900
 -1     11614    3    0    1
 -2       793       254       790      1900
 -1     11615    3    0    1
 -2       209       317      3693      3699
 -1     11616    3    0    1
 -2       317      2485      3693      3699
 -1     11617    3    0    1
 -2       317      2275      2485      3699
 -1     11618    3    0    1
 -2       318       193      2524      3699
 -1     11619    3    0    1
 -2       209       318      2524      3699
 -1     11620    3    0    1
 -2       193      1315      2524      3699
 -1     11621    3    0    1
 -2      2275      1992      3410      3699
 -1     11622    3    0    1
 -2      1315      1016      2524      3699
 -1     11623    3    0    1
 -2      2485      2275      3410      3699
 -1     11624    3    0    1
 -2       317       209      2524      3699
 -1     11625    3    0    1
 -2      1016       317      2524      3699
 -1     11626    3    0    1
 -2      3036      2952      3576      3468
 -1     11627    3    0    1
 -2      2683      2952      3036      3468
 -1     11628    3    0    1
 -2      1616      3576      1865      3468
 -1     11629    3    0    1
 -2      3036      3576      3351      3468
 -1     11630    3    0    1
 -2       592      2547      2607      3433
 -1     11631    3    0    1
 -2      1616      3242      3576      3018
 -1     11632    3    0    1
 -2      2704      2347      3657      3436
 -1     11633    3    0    1
 -2       207      1511      1690      3422
 -1     11634    3    0    1
 -2      1418      2492      2667      3422
 -1     11635    3    0    1
 -2      1690      1511      3372      3422
 -1     11636    3    0    1
 -2      1040       770      3316      3700
 -1     11637    3    0    1
 -2       770      1040      2331      3700
 -1     11638    3    0    1
 -2      1040      3510      3544      3527
 -1     11639    3    0    1
 -2      3510      1040      3544      3700
 -1     11640    3    0    1
 -2      1333       241      3643      3700
 -1     11641    3    0    1
 -2      3643       241      3648      3700
 -1     11642    3    0    1
 -2      2478      3511      3586      3700
 -1     11643    3    0    1
 -2      3586      3511      3643      3700
 -1     11644    3    0    1
 -2      2478      2331      3511      3700
 -1     11645    3    0    1
 -2      3511      2331      3643      3700
 -1     11646    3    0    1
 -2       241      1040      3624      3700
 -1     11647    3    0    1
 -2      2478      2347      3316      3700
 -1     11648    3    0    1
 -2      2331      2478      3316      3700
 -1     11649    3    0    1
 -2      1040       241      1333      3700
 -1     11650    3    0    1
 -2      1477      3051      3454      1863
 -1     11651    3    0    1
 -2      3626      2754      3354      3454
 -1     11652    3    0    1
 -2       267      2364      3529      3707
 -1     11653    3    0    1
 -2      3524      3505      3547      3704
 -1     11654    3    0    1
 -2       827       824      1069      1921
 -1     11655    3    0    1
 -2      1064      2444      2594      3707
 -1     11656    3    0    1
 -2      1069       279      2085      3707
 -1     11657    3    0    1
 -2      1069      3707      1920      1921
 -1     11658    3    0    1
 -2      2085      2442      2594      3707
 -1     11659    3    0    1
 -2      2364      1064      2594      3707
 -1     11660    3    0    1
 -2      3562      1609      3691      3701
 -1     11661    3    0    1
 -2      3609      3562      3691      3701
 -1     11662    3    0    1
 -2      3225      3609      3691      3701
 -1     11663    3    0    1
 -2      1609      1760      3691      3701
 -1     11664    3    0    1
 -2       182      3225      3691      3701
 -1     11665    3    0    1
 -2      1760       182      3691      3701
 -1     11666    3    0    1
 -2      3219      2807      3225      3701
 -1     11667    3    0    1
 -2      1609      3219      3225      3701
 -1     11668    3    0    1
 -2      3648       241      1885      3720
 -1     11669    3    0    1
 -2      3648      3624      3700      3720
 -1     11670    3    0    1
 -2      1609      1429      3219      3701
 -1     11671    3    0    1
 -2      1760      1609      3225      3701
 -1     11672    3    0    1
 -2       182      1760      3225      3701
 -1     11673    3    0    1
 -2      1834      3383      1884      3702
 -1     11674    3    0    1
 -2      1416      3590      3619      3702
 -1     11675    3    0    1
 -2      1704      1416      3619      3702
 -1     11676    3    0    1
 -2      3560      3620      3637      3702
 -1     11677    3    0    1
 -2      2793      3560      3637      3702
 -1     11678    3    0    1
 -2      1567      2990      3590      3702
 -1     11679    3    0    1
 -2       964       391      3619      3702
 -1     11680    3    0    1
 -2      1567      2992      3637      3702
 -1     11681    3    0    1
 -2      2990      1567      3637      3702
 -1     11682    3    0    1
 -2       391      1834      1884      3702
 -1     11683    3    0    1
 -2      3619       391      1884      3702
 -1     11684    3    0    1
 -2      1704      3619      1884      3702
 -1     11685    3    0    1
 -2      2992      1567      1794      3702
 -1     11686    3    0    1
 -2      1794      1567      3590      3702
 -1     11687    3    0    1
 -2      2992      1794      3590      3702
 -1     11688    3    0    1
 -2      3619      3590      3627      3702
 -1     11689    3    0    1
 -2       964      3619      3627      3702
 -1     11690    3    0    1
 -2      3590       964      3627      3702
 -1     11691    3    0    1
 -2      2722      1416      2853      3702
 -1     11692    3    0    1
 -2      3030      2853      3383      3702
 -1     11693    3    0    1
 -2      2853      1416      3383      3702
 -1     11694    3    0    1
 -2      1416      2722      2992      3702
 -1     11695    3    0    1
 -2       964      2969      3260      3702
 -1     11696    3    0    1
 -2      1416      1704      3383      3702
 -1     11697    3    0    1
 -2      2812      2793      2853      3702
 -1     11698    3    0    1
 -2      2793      2722      2853      3702
 -1     11699    3    0    1
 -2      1700      1416      2992      3702
 -1     11700    3    0    1
 -2       391       964      3260      3702
 -1     11701    3    0    1
 -2      1638      1834      3260      3702
 -1     11702    3    0    1
 -2      3383      1704      1884      3702
 -1     11703    3    0    1
 -2      1834       391      3260      3702
 -1     11704    3    0    1
 -2      2233      2468      3563      3427
 -1     11705    3    0    1
 -2      1692      3051      1863      3454
 -1     11706    3    0    1
 -2      3051      1692      3354      3454
 -1     11707    3    0    1
 -2      2369      2461      2817      2323
 -1     11708    3    0    1
 -2      2942      3051      3664      3454
 -1     11709    3    0    1
 -2       316      3532      3547      3704
 -1     11710    3    0    1
 -2      3515      3547      3567      3704
 -1     11711    3    0    1
 -2      3567      3547      3203      3704
 -1     11712    3    0    1
 -2      3515      3567      3203      3704
 -1     11713    3    0    1
 -2      2190      3201      3203      3704
 -1     11714    3    0    1
 -2      1006       316      1319      3704
 -1     11715    3    0    1
 -2      2190      1992      3201      3704
 -1     11716    3    0    1
 -2      1863      1692      3401      3705
 -1     11717    3    0    1
 -2      2563      2749      3009      3705
 -1     11718    3    0    1
 -2      1477      1863      3399      3705
 -1     11719    3    0    1
 -2      2924      2563      3009      3705
 -1     11720    3    0    1
 -2      2747      2720      1696      3706
 -1     11721    3    0    1
 -2      3274      2649      2747      3706
 -1     11722    3    0    1
 -2      3078      2931      3639      3471
 -1     11723    3    0    1
 -2      2649      2948      3116      3706
 -1     11724    3    0    1
 -2      3116      2948      3592      3706
 -1     11725    3    0    1
 -2      2649      3116      3592      3706
 -1     11726    3    0    1
 -2      2747      1473      3274      3706
 -1     11727    3    0    1
 -2      1473      2747      1696      3706
 -1     11728    3    0    1
 -2      2649      2497      2720      3706
 -1     11729    3    0    1
 -2      2720      2730      2850      3706
 -1     11730    3    0    1
 -2      3250      2948      3274      3706
 -1     11731    3    0    1
 -2      2720      2497      2730      3706
 -1     11732    3    0    1
 -2      1696      3250      3274      3706
 -1     11733    3    0    1
 -2      2649      2720      2747      3706
 -1     11734    3    0    1
 -2      3078      3639      3470      3471
 -1     11735    3    0    1
 -2      1696      1555      3250      3706
 -1     11736    3    0    1
 -2      2723      2948      3250      3706
 -1     11737    3    0    1
 -2      2649      3274      2747      2775
 -1     11738    3    0    1
 -2      1473      1696      3274      3706
 -1     11739    3    0    1
 -2      2131      2521      3731      3732
 -1     11740    3    0    1
 -2       186       184      3731      3732
 -1     11741    3    0    1
 -2      2353       415      2521      3732
 -1     11742    3    0    1
 -2       707      1004      1009      3430
 -1     11743    3    0    1
 -2       707       690      1004      3430
 -1     11744    3    0    1
 -2      3417      1425      3746      3486
 -1     11745    3    0    1
 -2       679      1311      2333      3431
 -1     11746    3    0    1
 -2       699       679      2333      3431
 -1     11747    3    0    1
 -2       415       199      3731      3732
 -1     11748    3    0    1
 -2       184      2131      2333      3731
 -1     11749    3    0    1
 -2       699      1007      1311      3431
 -1     11750    3    0    1
 -2      2292      1007      3431      3731
 -1     11751    3    0    1
 -2       679       699      1311      3431
 -1     11752    3    0    1
 -2      3431      1007      3485      3731
 -1     11753    3    0    1
 -2      3036      1165      3127      3433
 -1     11754    3    0    1
 -2      3132      3535      3607      3433
 -1     11755    3    0    1
 -2      3127      3132      3607      3433
 -1     11756    3    0    1
 -2      2683       907      3036      3433
 -1     11757    3    0    1
 -2      3036      3127      3607      3433
 -1     11758    3    0    1
 -2      3535      3036      3607      3433
 -1     11759    3    0    1
 -2       471      1165      3036      3433
 -1     11760    3    0    1
 -2       472       471      3036      3433
 -1     11761    3    0    1
 -2       471      1166       906      3433
 -1     11762    3    0    1
 -2      1166       471       472      3433
 -1     11763    3    0    1
 -2       907       472      3036      3433
 -1     11764    3    0    1
 -2      1166       472      2547      3433
 -1     11765    3    0    1
 -2       472       907      2547      3433
 -1     11766    3    0    1
 -2      2547       907      2683      3433
 -1     11767    3    0    1
 -2      2437      2015      2457      3708
 -1     11768    3    0    1
 -2       787       794      1055      1907
 -1     11769    3    0    1
 -2       270       808       811      1906
 -1     11770    3    0    1
 -2       270      3708      1906      1907
 -1     11771    3    0    1
 -2       270       255      3708      1907
 -1     11772    3    0    1
 -2       334       255       787      1907
 -1     11773    3    0    1
 -2       787       255       794      1907
 -1     11774    3    0    1
 -2      1725      3604      3739      3743
 -1     11775    3    0    1
 -2      1628      3557      1895      3489
 -1     11776    3    0    1
 -2      3557      1628      3456      3489
 -1     11777    3    0    1
 -2      2604      1427      2843      3435
 -1     11778    3    0    1
 -2      1427      1428      2843      3435
 -1     11779    3    0    1
 -2      2549      2431      2581      3733
 -1     11780    3    0    1
 -2      2431       100      2581      3733
 -1     11781    3    0    1
 -2       950       119      3438      3733
 -1     11782    3    0    1
 -2      1318       208      2202      3709
 -1     11783    3    0    1
 -2      2202       208      3507      3709
 -1     11784    3    0    1
 -2      3507       208      1903      3709
 -1     11785    3    0    1
 -2      3709      1903       218       320
 -1     11786    3    0    1
 -2       208       320      1903      3709
 -1     11787    3    0    1
 -2       219       218      3421      3709
 -1     11788    3    0    1
 -2       218       320      3421      3709
 -1     11789    3    0    1
 -2      1025       219      3421      3709
 -1     11790    3    0    1
 -2      2307      2495      2504      3709
 -1     11791    3    0    1
 -2      2495      2202      2504      3709
 -1     11792    3    0    1
 -2      2307      2264      2495      3709
 -1     11793    3    0    1
 -2       320       208      3421      3709
 -1     11794    3    0    1
 -2       208      1318      3421      3709
 -1     11795    3    0    1
 -2      1657      3153      1887      3716
 -1     11796    3    0    1
 -2      1887      3153      1893      3716
 -1     11797    3    0    1
 -2       119       950      2549      3733
 -1     11798    3    0    1
 -2      1438      1608      3630      3716
 -1     11799    3    0    1
 -2      1908      3681      3729      3743
 -1     11800    3    0    1
 -2      1628      1422      3557      3456
 -1     11801    3    0    1
 -2      3414      3681      3715      1442
 -1     11802    3    0    1
 -2      1035       228      2263      3734
 -1     11803    3    0    1
 -2       380       100      3735      1928
 -1     11804    3    0    1
 -2      2257      1033      2552      3745
 -1     11805    3    0    1
 -2      1035       228      3734      1927
 -1     11806    3    0    1
 -2      2976      2830      3114      3712
 -1     11807    3    0    1
 -2      2458      3504      3667      3746
 -1     11808    3    0    1
 -2       100       560       551      1928
 -1     11809    3    0    1
 -2      3504      2558      3667      3746
 -1     11810    3    0    1
 -2       560       100       380      1928
 -1     11811    3    0    1
 -2      1296       132      3503      1909
 -1     11812    3    0    1
 -2       381       380      3733      3735
 -1     11813    3    0    1
 -2      1291       119      2395      3735
 -1     11814    3    0    1
 -2      1291      2395      3442      3735
 -1     11815    3    0    1
 -2       100      2416      2581      3735
 -1     11816    3    0    1
 -2       119       381      3733      3735
 -1     11817    3    0    1
 -2       158       973      2537      3710
 -1     11818    3    0    1
 -2       158      2537      3502      3710
 -1     11819    3    0    1
 -2      3502      2537      3420      3710
 -1     11820    3    0    1
 -2      2394      2556      3420      3710
 -1     11821    3    0    1
 -2       389       390      2580      3710
 -1     11822    3    0    1
 -2       390       392      2580      3710
 -1     11823    3    0    1
 -2       158       389      2580      3710
 -1     11824    3    0    1
 -2      2556      2203      3420      3710
 -1     11825    3    0    1
 -2       392      1297      2580      3710
 -1     11826    3    0    1
 -2      2537      2394      3420      3710
 -1     11827    3    0    1
 -2       973       158      2580      3710
 -1     11828    3    0    1
 -2       595       132       591      1909
 -1     11829    3    0    1
 -2       384      3503      1909      1910
 -1     11830    3    0    1
 -2       384       121      3503      1910
 -1     11831    3    0    1
 -2       388       121       570      1910
 -1     11832    3    0    1
 -2       570       121       578      1910
 -1     11833    3    0    1
 -2      1035      2263      2553      3734
 -1     11834    3    0    1
 -2       564      2146      2416      3442
 -1     11835    3    0    1
 -2       564       581      2146      3442
 -1     11836    3    0    1
 -2       947       564      2416      3442
 -1     11837    3    0    1
 -2      3441      2565      3491      3737
 -1     11838    3    0    1
 -2       228      2257      2263      3734
 -1     11839    3    0    1
 -2       581       564      1291      3442
 -1     11840    3    0    1
 -2       564       947      1291      3442
 -1     11841    3    0    1
 -2      3711       412      1919      3737
 -1     11842    3    0    1
 -2      3711      2589      3444      3737
 -1     11843    3    0    1
 -2      1288      3443      3492      3736
 -1     11844    3    0    1
 -2      2584       388      3503      3736
 -1     11845    3    0    1
 -2       384       132      3503      3736
 -1     11846    3    0    1
 -2      1288      2584      3443      3736
 -1     11847    3    0    1
 -2      2668      3517      3568      3712
 -1     11848    3    0    1
 -2      3517      2668      2977      3712
 -1     11849    3    0    1
 -2      2600      3517      2977      3712
 -1     11850    3    0    1
 -2      2830      2600      3114      3712
 -1     11851    3    0    1
 -2      1485      1824      3384      3712
 -1     11852    3    0    1
 -2      2975      1485      3384      3712
 -1     11853    3    0    1
 -2      1813      1485      3327      3712
 -1     11854    3    0    1
 -2      1531      2682      3384      3712
 -1     11855    3    0    1
 -2      2696      2672      3553      3466
 -1     11856    3    0    1
 -2      2682      1531      2925      3712
 -1     11857    3    0    1
 -2      2925      1531      3310      3712
 -1     11858    3    0    1
 -2      2471      3024      3031      3727
 -1     11859    3    0    1
 -2      3394      3391      3451      3727
 -1     11860    3    0    1
 -2      3024      3391      3394      3727
 -1     11861    3    0    1
 -2      2873      3133      3682      3727
 -1     11862    3    0    1
 -2      1593      1528      3171      3727
 -1     11863    3    0    1
 -2      3517      2600      2830      3712
 -1     11864    3    0    1
 -2      3517      2830      3568      3712
 -1     11865    3    0    1
 -2      1824      1531      3384      3712
 -1     11866    3    0    1
 -2      2516      2583      2682      3712
 -1     11867    3    0    1
 -2      3114      2977      3310      3712
 -1     11868    3    0    1
 -2      1485      3114      3310      3712
 -1     11869    3    0    1
 -2      2682      2583      2975      3712
 -1     11870    3    0    1
 -2      2975      2583      3327      3712
 -1     11871    3    0    1
 -2      2668      2516      2682      3712
 -1     11872    3    0    1
 -2      3133      1593      3682      3727
 -1     11873    3    0    1
 -2      2600      2977      3114      3712
 -1     11874    3    0    1
 -2      1824      1485      3310      3712
 -1     11875    3    0    1
 -2      2682      2975      3384      3712
 -1     11876    3    0    1
 -2      2668      2682      2925      3712
 -1     11877    3    0    1
 -2      3114      1485      1813      3712
 -1     11878    3    0    1
 -2      3031      3024      3231      3727
 -1     11879    3    0    1
 -2      1531      1824      3310      3712
 -1     11880    3    0    1
 -2      3599      1552      3628      3448
 -1     11881    3    0    1
 -2      3628      1552      3428      3448
 -1     11882    3    0    1
 -2       196      3628      3428      3448
 -1     11883    3    0    1
 -2      3250      3078      3706      3470
 -1     11884    3    0    1
 -2      2518      2507      2686      3448
 -1     11885    3    0    1
 -2      2518      2686      2980      3448
 -1     11886    3    0    1
 -2      1552      2518      3428      3448
 -1     11887    3    0    1
 -2      2891      3555      3320      3481
 -1     11888    3    0    1
 -2      3391      1764      3394      3451
 -1     11889    3    0    1
 -2      1764      3231      3394      3451
 -1     11890    3    0    1
 -2      1746      3675      3190      3459
 -1     11891    3    0    1
 -2      3190      2677      3675      3728
 -1     11892    3    0    1
 -2      3196      1666      1820      3481
 -1     11893    3    0    1
 -2      3570      3564      1886      3714
 -1     11894    3    0    1
 -2      3498      3500      3427      3714
 -1     11895    3    0    1
 -2      3500      3498      3564      3714
 -1     11896    3    0    1
 -2      3500      3564      3570      3714
 -1     11897    3    0    1
 -2      1862       425      3720      3457
 -1     11898    3    0    1
 -2      1421      3498      3266      3714
 -1     11899    3    0    1
 -2      3564      1421      1796      3714
 -1     11900    3    0    1
 -2      2817      3541      3427      3714
 -1     11901    3    0    1
 -2      3541      2817      3266      3714
 -1     11902    3    0    1
 -2      3570       153      3611      3714
 -1     11903    3    0    1
 -2      3611       153      3434      3714
 -1     11904    3    0    1
 -2      3498      3541      3266      3714
 -1     11905    3    0    1
 -2      3425      2817      3434      3714
 -1     11906    3    0    1
 -2      1886      3425      3434      3714
 -1     11907    3    0    1
 -2      2817      3314      3434      3714
 -1     11908    3    0    1
 -2      3266      2817      3425      3714
 -1     11909    3    0    1
 -2       153      1886      3434      3714
 -1     11910    3    0    1
 -2      1886      1796      3425      3714
 -1     11911    3    0    1
 -2      1421      3266      3425      3714
 -1     11912    3    0    1
 -2      1796      1421      3425      3714
 -1     11913    3    0    1
 -2      3364      2692      3424      3455
 -1     11914    3    0    1
 -2      3510      1442      3414      3715
 -1     11915    3    0    1
 -2      1442      3510      3681      3715
 -1     11916    3    0    1
 -2      2100      2087      3192      3715
 -1     11917    3    0    1
 -2      2087      2100      2520      3715
 -1     11918    3    0    1
 -2      3657      3414      3510      3453
 -1     11919    3    0    1
 -2      3414      3657      3510      3715
 -1     11920    3    0    1
 -2      3178      2459      3436      3715
 -1     11921    3    0    1
 -2      2402      2459      3178      3715
 -1     11922    3    0    1
 -2      2774      2520      3414      3715
 -1     11923    3    0    1
 -2      2087      3178      3436      3715
 -1     11924    3    0    1
 -2       270       255      2582      3744
 -1     11925    3    0    1
 -2      2520      3192      3414      3715
 -1     11926    3    0    1
 -2      2520      2100      3192      3715
 -1     11927    3    0    1
 -2      2511      2708      3521      3716
 -1     11928    3    0    1
 -2      1801      3361      3719      3472
 -1     11929    3    0    1
 -2      1543      2687      3630      3716
 -1     11930    3    0    1
 -2      2999      1543      3630      3716
 -1     11931    3    0    1
 -2      1608      2999      3630      3716
 -1     11932    3    0    1
 -2      1657      2768      3153      3716
 -1     11933    3    0    1
 -2      2768      1657      3521      3716
 -1     11934    3    0    1
 -2      2708      2768      3521      3716
 -1     11935    3    0    1
 -2       171       981      3227      3716
 -1     11936    3    0    1
 -2       171      3227      1887      3716
 -1     11937    3    0    1
 -2       981      3521      3227      3716
 -1     11938    3    0    1
 -2      1438      1730      3153      3716
 -1     11939    3    0    1
 -2      3227      1657      1887      3716
 -1     11940    3    0    1
 -2      3153      1730      1893      3716
 -1     11941    3    0    1
 -2      1438      2511      1608      3716
 -1     11942    3    0    1
 -2      2511      1438      2708      3716
 -1     11943    3    0    1
 -2      2708      1438      3153      3716
 -1     11944    3    0    1
 -2      1608      2511      2999      3716
 -1     11945    3    0    1
 -2      2768      2708      3153      3716
 -1     11946    3    0    1
 -2      3545      1431      3608      3717
 -1     11947    3    0    1
 -2      1431      1596      3608      3717
 -1     11948    3    0    1
 -2      3353      3023      3362      3717
 -1     11949    3    0    1
 -2      3353      3362      3378      3717
 -1     11950    3    0    1
 -2      3023      3355      3362      3717
 -1     11951    3    0    1
 -2      3192      3023      3353      3717
 -1     11952    3    0    1
 -2      1431      3353      3378      3717
 -1     11953    3    0    1
 -2      2100      3023      3192      3717
 -1     11954    3    0    1
 -2      2679      2087      2704      3717
 -1     11955    3    0    1
 -2      3353      1431      3452      3717
 -1     11956    3    0    1
 -2      1596      1431      3378      3717
 -1     11957    3    0    1
 -2      1753      1801      3361      3719
 -1     11958    3    0    1
 -2      1429      1753      3361      3719
 -1     11959    3    0    1
 -2      2465      3232      3618      3742
 -1     11960    3    0    1
 -2      3142      3219      3361      3719
 -1     11961    3    0    1
 -2      2465      3618      3634      3742
 -1     11962    3    0    1
 -2      1483      3082      3367      3494
 -1     11963    3    0    1
 -2      3219      1429      3361      3719
 -1     11964    3    0    1
 -2      3648      3657      3720      3457
 -1     11965    3    0    1
 -2      3657      3648      3452      3457
 -1     11966    3    0    1
 -2      1885      3648      3720      3457
 -1     11967    3    0    1
 -2      1729      3624      3453      3457
 -1     11968    3    0    1
 -2      3624      1729      1862      3457
 -1     11969    3    0    1
 -2      3648      1673      3452      3457
 -1     11970    3    0    1
 -2      1673      3648      1885      3457
 -1     11971    3    0    1
 -2      1716      3085      3352      3721
 -1     11972    3    0    1
 -2      1716      1557      3085      3721
 -1     11973    3    0    1
 -2       608      3163      3290      3721
 -1     11974    3    0    1
 -2      3210       608      3290      3721
 -1     11975    3    0    1
 -2      3129      3049      3163      3721
 -1     11976    3    0    1
 -2      2787      2929      2933      3721
 -1     11977    3    0    1
 -2      2933      2929      3085      3721
 -1     11978    3    0    1
 -2      2497      2719      2929      3721
 -1     11979    3    0    1
 -2      2929      2719      3085      3721
 -1     11980    3    0    1
 -2      1557      3129      3163      3721
 -1     11981    3    0    1
 -2      2851      2787      2933      3721
 -1     11982    3    0    1
 -2      2851      2933      3290      3721
 -1     11983    3    0    1
 -2      2787      2497      2929      3721
 -1     11984    3    0    1
 -2      2933      3085      3210      3721
 -1     11985    3    0    1
 -2      3129      1557      3352      3721
 -1     11986    3    0    1
 -2       608      1557      3163      3721
 -1     11987    3    0    1
 -2      2557      2787      2851      3721
 -1     11988    3    0    1
 -2      2933      3210      3290      3721
 -1     11989    3    0    1
 -2      1557      1716      3352      3721
 -1     11990    3    0    1
 -2      1725      1420      3463      3739
 -1     11991    3    0    1
 -2      1435      1599      3147      3740
 -1     11992    3    0    1
 -2      3458      2774      3463      3739
 -1     11993    3    0    1
 -2      1516      3605      3458      3739
 -1     11994    3    0    1
 -2      2402      3178      3605      3739
 -1     11995    3    0    1
 -2      1059       333      2582      3744
 -1     11996    3    0    1
 -2      1807      3137      3186      3462
 -1     11997    3    0    1
 -2      1807      3186      3221      3462
 -1     11998    3    0    1
 -2      3186      3137      3673      3462
 -1     11999    3    0    1
 -2      3221      3186      3673      3462
 -1     12000    3    0    1
 -2      1599      1435      3614      3740
 -1     12001    3    0    1
 -2      2618      3517      3722      3740
 -1     12002    3    0    1
 -2      3517      1467      1741      3740
 -1     12003    3    0    1
 -2       941      1285      2619      3722
 -1     12004    3    0    1
 -2      1435      1653      3614      3722
 -1     12005    3    0    1
 -2      1614      2947      3184      3722
 -1     12006    3    0    1
 -2      1614      2844      2947      3722
 -1     12007    3    0    1
 -2      3531      1285      3614      3722
 -1     12008    3    0    1
 -2      1614       101      2844      3722
 -1     12009    3    0    1
 -2      1285      3531      3585      3722
 -1     12010    3    0    1
 -2       101      1285      3585      3722
 -1     12011    3    0    1
 -2      1653       101      3585      3722
 -1     12012    3    0    1
 -2       101      1653      2844      3722
 -1     12013    3    0    1
 -2      1653       101      2844      1708
 -1     12014    3    0    1
 -2      3575      3531      3614      3722
 -1     12015    3    0    1
 -2      3531      3575      3585      3722
 -1     12016    3    0    1
 -2      1653      3575      3614      3722
 -1     12017    3    0    1
 -2      3575      1653      3585      3722
 -1     12018    3    0    1
 -2      2619      1285      3184      3722
 -1     12019    3    0    1
 -2      1435      2606      2844      3722
 -1     12020    3    0    1
 -2      2844      2606      2947      3722
 -1     12021    3    0    1
 -2      3145      3367      3082      3494
 -1     12022    3    0    1
 -2      1285      1614      3184      3722
 -1     12023    3    0    1
 -2      1653      1435      2844      3722
 -1     12024    3    0    1
 -2      1285       101      1614      3722
 -1     12025    3    0    1
 -2      2583      1855      3327      3465
 -1     12026    3    0    1
 -2      1436      2583      2721      3465
 -1     12027    3    0    1
 -2      1761      3114      1813      3465
 -1     12028    3    0    1
 -2      1565       229      2675      3741
 -1     12029    3    0    1
 -2      1516      3594      3689      3741
 -1     12030    3    0    1
 -2      1565      2675      2725      3741
 -1     12031    3    0    1
 -2      1412      1577      3419      3467
 -1     12032    3    0    1
 -2      1511       207      1695      3467
 -1     12033    3    0    1
 -2      3218      3315      3473      3741
 -1     12034    3    0    1
 -2      2813      3530      3689      3741
 -1     12035    3    0    1
 -2      3191      3182      3461      3469
 -1     12036    3    0    1
 -2      1446      2686      2980      3469
 -1     12037    3    0    1
 -2      1445      1446      2980      3469
 -1     12038    3    0    1
 -2      2686      1446      3448      3469
 -1     12039    3    0    1
 -2      3182      2686      3448      3469
 -1     12040    3    0    1
 -2      1852      1809      3461      3469
 -1     12041    3    0    1
 -2      3182      1852      3461      3469
 -1     12042    3    0    1
 -2      1446      1852      3448      3469
 -1     12043    3    0    1
 -2      1852      3182      3448      3469
 -1     12044    3    0    1
 -2      3639       626      3470      3471
 -1     12045    3    0    1
 -2      3513      1694      3651      3472
 -1     12046    3    0    1
 -2      3540      3651      3719      3472
 -1     12047    3    0    1
 -2      3513      3540      3719      3472
 -1     12048    3    0    1
 -2      3540      3513      3651      3472
 -1     12049    3    0    1
 -2      1410      3513      3342      3472
 -1     12050    3    0    1
 -2      3513      1410      1694      3472
 -1     12051    3    0    1
 -2      3176      2228      3456      3742
 -1     12052    3    0    1
 -2      3557      3653      3489      3742
 -1     12053    3    0    1
 -2      3557      3496      3634      3742
 -1     12054    3    0    1
 -2      3496      2228      3232      3742
 -1     12055    3    0    1
 -2      3176      3021      3232      3742
 -1     12056    3    0    1
 -2      3496      2465      3634      3742
 -1     12057    3    0    1
 -2      3653      3476      3489      3742
 -1     12058    3    0    1
 -2      1913        57      1924      3494
 -1     12059    3    0    1
 -2      3145      1548      3367      3494
 -1     12060    3    0    1
 -2       709       716      1509      3475
 -1     12061    3    0    1
 -2      2561      1509      3366      3475
 -1     12062    3    0    1
 -2      2545      2561      3366      3475
 -1     12063    3    0    1
 -2       409      2436      3711      1918
 -1     12064    3    0    1
 -2       409       996      2436      1918
 -1     12065    3    0    1
 -2      3634      1870      3653      3476
 -1     12066    3    0    1
 -2      1870       423      3653      3476
 -1     12067    3    0    1
 -2       185      3711      1919      3737
 -1     12068    3    0    1
 -2      2549       950      3438      3733
 -1     12069    3    0    1
 -2      1284      2431      2549      3733
 -1     12070    3    0    1
 -2      3604      1725      3463      3743
 -1     12071    3    0    1
 -2      3414      2774      3715      3743
 -1     12072    3    0    1
 -2       185       999      2315      3737
 -1     12073    3    0    1
 -2      1284      2549      3438      3733
 -1     12074    3    0    1
 -2      3509      1411      2816      3477
 -1     12075    3    0    1
 -2      3509      2816      3042      3477
 -1     12076    3    0    1
 -2      1491      1629      3318      3478
 -1     12077    3    0    1
 -2      3318      1629      3661      3478
 -1     12078    3    0    1
 -2      3063      3318      3661      3478
 -1     12079    3    0    1
 -2      2893      1698      3211      3478
 -1     12080    3    0    1
 -2      1698      1631      3211      3478
 -1     12081    3    0    1
 -2      1631      1491      2777      3478
 -1     12082    3    0    1
 -2      1631      2777      3211      3478
 -1     12083    3    0    1
 -2      2777      1491      3063      3478
 -1     12084    3    0    1
 -2      3559      2893      3211      3478
 -1     12085    3    0    1
 -2      2777      3559      3211      3478
 -1     12086    3    0    1
 -2      2904      3063      3661      3478
 -1     12087    3    0    1
 -2      3559      2904      3661      3478
 -1     12088    3    0    1
 -2      2777      2611      3559      3478
 -1     12089    3    0    1
 -2      2611      2904      3559      3478
 -1     12090    3    0    1
 -2      2611      2777      3063      3478
 -1     12091    3    0    1
 -2      2904      2611      3063      3478
 -1     12092    3    0    1
 -2      3678      3663      3698      3480
 -1     12093    3    0    1
 -2      3663      3678      3407      3480
 -1     12094    3    0    1
 -2      2798      1322      3587      3724
 -1     12095    3    0    1
 -2      2830      2976      3371      3726
 -1     12096    3    0    1
 -2      3568      2516      3712      3726
 -1     12097    3    0    1
 -2      1469      2871      3568      3726
 -1     12098    3    0    1
 -2      1469      3568      3371      3726
 -1     12099    3    0    1
 -2      2516      2583      3712      3726
 -1     12100    3    0    1
 -2      2690      2639      3568      3726
 -1     12101    3    0    1
 -2       696       704      1012      1914
 -1     12102    3    0    1
 -2      2830      2890      3568      3726
 -1     12103    3    0    1
 -2      3568      2890      3371      3726
 -1     12104    3    0    1
 -2      3712      2583      3465      3726
 -1     12105    3    0    1
 -2      2976      3712      3465      3726
 -1     12106    3    0    1
 -2      2721      2976      3465      3726
 -1     12107    3    0    1
 -2      2583      2721      3465      3726
 -1     12108    3    0    1
 -2      1691      3043      3371      3726
 -1     12109    3    0    1
 -2      2976      1691      3371      3726
 -1     12110    3    0    1
 -2      1469      2800      2871      3726
 -1     12111    3    0    1
 -2      3043      2721      3282      3726
 -1     12112    3    0    1
 -2      3043      1625      3371      3726
 -1     12113    3    0    1
 -2      1469      1625      2800      3726
 -1     12114    3    0    1
 -2      1625      3043      3282      3726
 -1     12115    3    0    1
 -2      2800      1625      3282      3726
 -1     12116    3    0    1
 -2      2583      2639      2721      3726
 -1     12117    3    0    1
 -2      2721      2639      2800      3726
 -1     12118    3    0    1
 -2      2583      2516      2639      3726
 -1     12119    3    0    1
 -2      2800      2639      2871      3726
 -1     12120    3    0    1
 -2      2639      2690      2871      3726
 -1     12121    3    0    1
 -2      2890      2830      3371      3726
 -1     12122    3    0    1
 -2      1691      2976      3043      3726
 -1     12123    3    0    1
 -2      2721      2800      3282      3726
 -1     12124    3    0    1
 -2      1625      1469      3371      3726
 -1     12125    3    0    1
 -2      3231      3024      3394      3727
 -1     12126    3    0    1
 -2      2873      2471      3031      3727
 -1     12127    3    0    1
 -2      2873      3031      3133      3727
 -1     12128    3    0    1
 -2      3675      1746      3190      3728
 -1     12129    3    0    1
 -2      1749      1434      3058      3728
 -1     12130    3    0    1
 -2      1294       387      1746      3728
 -1     12131    3    0    1
 -2      1784      1749      3326      3728
 -1     12132    3    0    1
 -2      1749      3058      3326      3728
 -1     12133    3    0    1
 -2      2530      1434      3053      3728
 -1     12134    3    0    1
 -2      1434      1590      3053      3728
 -1     12135    3    0    1
 -2      1434      2530      3058      3728
 -1     12136    3    0    1
 -2      2530      2677      3058      3728
 -1     12137    3    0    1
 -2      3058      2677      3190      3728
 -1     12138    3    0    1
 -2      3150      3591      3705      3482
 -1     12139    3    0    1
 -2      1477      3150      3705      3482
 -1     12140    3    0    1
 -2      3591      3150      3395      3482
 -1     12141    3    0    1
 -2      3150      1659      3395      3482
 -1     12142    3    0    1
 -2       704       193       318      1914
 -1     12143    3    0    1
 -2       193       704       696      1914
 -1     12144    3    0    1
 -2       209       318      3693      1915
 -1     12145    3    0    1
 -2      3693       318      1914      1915
 -1     12146    3    0    1
 -2       209       718       721      1915
 -1     12147    3    0    1
 -2       209       317       718      1915
 -1     12148    3    0    1
 -2      1509      3366      3475      3483
 -1     12149    3    0    1
 -2       944       336      2304      1916
 -1     12150    3    0    1
 -2      2304       336      3695      1916
 -1     12151    3    0    1
 -2       944      2304      3695      1916
 -1     12152    3    0    1
 -2       106       336       556      1916
 -1     12153    3    0    1
 -2       106       556       559      1916
 -1     12154    3    0    1
 -2       106      3695      1916      1917
 -1     12155    3    0    1
 -2       106       337      3695      1917
 -1     12156    3    0    1
 -2       828       282       337      1917
 -1     12157    3    0    1
 -2       282       828       821      1917
 -1     12158    3    0    1
 -2      3504      2545      3366      3483
 -1     12159    3    0    1
 -2      2546      3504      3366      3483
 -1     12160    3    0    1
 -2      3366      2545      3475      3483
 -1     12161    3    0    1
 -2      3504      2546      3416      3483
 -1     12162    3    0    1
 -2      1569       716      3412      3483
 -1     12163    3    0    1
 -2      2477      3504      3416      3483
 -1     12164    3    0    1
 -2      3504      2477      3412      3483
 -1     12165    3    0    1
 -2      1569      2477      3416      3483
 -1     12166    3    0    1
 -2      2477      1569      3412      3483
 -1     12167    3    0    1
 -2      2545      3412      3475      3483
 -1     12168    3    0    1
 -2       682       185      1001      1919
 -1     12169    3    0    1
 -2       685       682      1001      1919
 -1     12170    3    0    1
 -2       185       685       412      1919
 -1     12171    3    0    1
 -2       685       185       682      1919
 -1     12172    3    0    1
 -2        77       207      1511      3484
 -1     12173    3    0    1
 -2      1577      3467      1912      3484
 -1     12174    3    0    1
 -2      3467       207      1912      3484
 -1     12175    3    0    1
 -2       207        77      1912      3484
 -1     12176    3    0    1
 -2      2364      1064      3707      1920
 -1     12177    3    0    1
 -2       267      2364      3707      1920
 -1     12178    3    0    1
 -2       805       812      1064      1920
 -1     12179    3    0    1
 -2       267       805      1064      1920
 -1     12180    3    0    1
 -2       812       267       335      1920
 -1     12181    3    0    1
 -2       267       812       805      1920
 -1     12182    3    0    1
 -2       278       335      3707      1921
 -1     12183    3    0    1
 -2      3707       335      1920      1921
 -1     12184    3    0    1
 -2       278       279       824      1921
 -1     12185    3    0    1
 -2       278       824       827      1921
 -1     12186    3    0    1
 -2       199       186      3731      3732
 -1     12187    3    0    1
 -2      2610      2457      3708      3487
 -1     12188    3    0    1
 -2      2521       415      3731      3732
 -1     12189    3    0    1
 -2      2521      2131      3430      3732
 -1     12190    3    0    1
 -2       184      2131      3731      3732
 -1     12191    3    0    1
 -2       186       184      3732      1923
 -1     12192    3    0    1
 -2      2498      3530      3597      3741
 -1     12193    3    0    1
 -2      1311      3431      3485      3731
 -1     12194    3    0    1
 -2       415      1007      2292      3731
 -1     12195    3    0    1
 -2      1311      2333      3431      3731
 -1     12196    3    0    1
 -2      1311       184      2333      3731
 -1     12197    3    0    1
 -2      2131      2521      3431      3731
 -1     12198    3    0    1
 -2       199       186      3485      3731
 -1     12199    3    0    1
 -2      2521      2292      3431      3731
 -1     12200    3    0    1
 -2       415       199      3485      3731
 -1     12201    3    0    1
 -2      1426      1425      3417      3486
 -1     12202    3    0    1
 -2       186       184      3485      3731
 -1     12203    3    0    1
 -2      2333      2131      3431      3731
 -1     12204    3    0    1
 -2       184      1311      3485      3731
 -1     12205    3    0    1
 -2      1007       415      3485      3731
 -1     12206    3    0    1
 -2      1009      2353      3732      1922
 -1     12207    3    0    1
 -2       199       415       700      1922
 -1     12208    3    0    1
 -2       199       700       703      1922
 -1     12209    3    0    1
 -2       199      3732      1922      1923
 -1     12210    3    0    1
 -2       199       186      3732      1923
 -1     12211    3    0    1
 -2       686       184       186      1923
 -1     12212    3    0    1
 -2       184       686       678      1923
 -1     12213    3    0    1
 -2      1030      1035      3734      1926
 -1     12214    3    0    1
 -2      2148      1030      3734      1926
 -1     12215    3    0    1
 -2       220      1030      2148      1926
 -1     12216    3    0    1
 -2       220       740       733      1926
 -1     12217    3    0    1
 -2       322       323      3734      3745
 -1     12218    3    0    1
 -2       220      2148      3734      1926
 -1     12219    3    0    1
 -2       740       220       322      1926
 -1     12220    3    0    1
 -2       323       322      3734      1927
 -1     12221    3    0    1
 -2       228       757       323      1927
 -1     12222    3    0    1
 -2      3734       322      1926      1927
 -1     12223    3    0    1
 -2      1501      1427      2843      3488
 -1     12224    3    0    1
 -2      2604      3523      2843      3488
 -1     12225    3    0    1
 -2      1427      2604      2843      3488
 -1     12226    3    0    1
 -2      1509      2575      3435      3488
 -1     12227    3    0    1
 -2      2575      2876      3606      3488
 -1     12228    3    0    1
 -2      2604      2510      3523      3488
 -1     12229    3    0    1
 -2      2575      1509      2685      3488
 -1     12230    3    0    1
 -2      2685      1509      2876      3488
 -1     12231    3    0    1
 -2      2575      2685      2876      3488
 -1     12232    3    0    1
 -2      2510      2575      3606      3488
 -1     12233    3    0    1
 -2      3523      2510      3606      3488
 -1     12234    3    0    1
 -2      2575      2604      3435      3488
 -1     12235    3    0    1
 -2      2575      2510      2604      3488
 -1     12236    3    0    1
 -2      2565       999      3491      3737
 -1     12237    3    0    1
 -2       100      1284      3438      3733
 -1     12238    3    0    1
 -2       380       100      3438      3733
 -1     12239    3    0    1
 -2       754       228      1035      1927
 -1     12240    3    0    1
 -2      2553      2257      3439      3734
 -1     12241    3    0    1
 -2      2263      2257      2553      3734
 -1     12242    3    0    1
 -2      2148      2553      3439      3734
 -1     12243    3    0    1
 -2       100       947      2416      1928
 -1     12244    3    0    1
 -2       100       551       947      1928
 -1     12245    3    0    1
 -2       381       380      3735      1929
 -1     12246    3    0    1
 -2       119       577       381      1929
 -1     12247    3    0    1
 -2      2715      3226      3616      3738
 -1     12248    3    0    1
 -2      3170      3126      3616      3738
 -1     12249    3    0    1
 -2      3047      1778      3460      3738
 -1     12250    3    0    1
 -2      3671      2475      3683      3738
 -1     12251    3    0    1
 -2      1620      1778      3170      3738
 -1     12252    3    0    1
 -2      2395       119      3733      3735
 -1     12253    3    0    1
 -2      1291      3735      1928      1929
 -1     12254    3    0    1
 -2      2581      2416      3442      3735
 -1     12255    3    0    1
 -2      2395      2581      3442      3735
 -1     12256    3    0    1
 -2       121      3503      1910      3736
 -1     12257    3    0    1
 -2       388       121      1910      3736
 -1     12258    3    0    1
 -2       957      3443      3492      2453
 -1     12259    3    0    1
 -2      3443       957      3492      3736
 -1     12260    3    0    1
 -2      1288       388      2584      3736
 -1     12261    3    0    1
 -2       384       121      3492      3736
 -1     12262    3    0    1
 -2       132       384      3492      3736
 -1     12263    3    0    1
 -2      2584      2428      3443      3736
 -1     12264    3    0    1
 -2       957       132      3492      3736
 -1     12265    3    0    1
 -2       121       388      3492      3736
 -1     12266    3    0    1
 -2       388      1288      3492      3736
 -1     12267    3    0    1
 -2      2436      3711      3444      3737
 -1     12268    3    0    1
 -2       409      2436      3444      3737
 -1     12269    3    0    1
 -2      2436       409      3711      3737
 -1     12270    3    0    1
 -2      2315      3441      3444      3737
 -1     12271    3    0    1
 -2       412       411      3491      3737
 -1     12272    3    0    1
 -2       185       412      3491      3737
 -1     12273    3    0    1
 -2      2315      2565      3441      3737
 -1     12274    3    0    1
 -2       999       185      3491      3737
 -1     12275    3    0    1
 -2      2589      2315      3444      3737
 -1     12276    3    0    1
 -2       411       409      3491      3737
 -1     12277    3    0    1
 -2       409      1307      3491      3737
 -1     12278    3    0    1
 -2      1778      3047      3170      3738
 -1     12279    3    0    1
 -2      2616      3047      3460      3738
 -1     12280    3    0    1
 -2      3671      3616      2715      3580
 -1     12281    3    0    1
 -2      3616      3671      2715      3738
 -1     12282    3    0    1
 -2      1543      2687      3716      3738
 -1     12283    3    0    1
 -2      1543      2616      3460      3738
 -1     12284    3    0    1
 -2      1543      2511      2616      3738
 -1     12285    3    0    1
 -2      2511      2999      3716      3738
 -1     12286    3    0    1
 -2      2999      1543      3716      3738
 -1     12287    3    0    1
 -2      2511      1543      2999      3738
 -1     12288    3    0    1
 -2      1620      3226      3460      3738
 -1     12289    3    0    1
 -2      2715      2687      3226      3738
 -1     12290    3    0    1
 -2      3226      2687      3460      3738
 -1     12291    3    0    1
 -2      2511      2475      2884      3738
 -1     12292    3    0    1
 -2      2884      2475      3126      3738
 -1     12293    3    0    1
 -2      3047      2884      3170      3738
 -1     12294    3    0    1
 -2      2884      3126      3170      3738
 -1     12295    3    0    1
 -2      2616      2511      2884      3738
 -1     12296    3    0    1
 -2      1778      1620      3460      3738
 -1     12297    3    0    1
 -2      2616      2884      3047      3738
 -1     12298    3    0    1
 -2      2687      1543      3460      3738
 -1     12299    3    0    1
 -2       941      2623      1741      3740
 -1     12300    3    0    1
 -2      2618      3147      3238      3740
 -1     12301    3    0    1
 -2      2618      2606      3147      3740
 -1     12302    3    0    1
 -2      2606      1435      3147      3740
 -1     12303    3    0    1
 -2      1599      1821      3246      3740
 -1     12304    3    0    1
 -2      3367      1548      1913      3494
 -1     12305    3    0    1
 -2       229      1326      3594      3741
 -1     12306    3    0    1
 -2      3594      1326      3689      3741
 -1     12307    3    0    1
 -2      1516      2634      2675      3741
 -1     12308    3    0    1
 -2      2813      1565      3473      3741
 -1     12309    3    0    1
 -2      3315      2813      3473      3741
 -1     12310    3    0    1
 -2      2634      2734      3071      3741
 -1     12311    3    0    1
 -2      2634      2499      2734      3741
 -1     12312    3    0    1
 -2      2675      2634      2725      3741
 -1     12313    3    0    1
 -2      1326      1565      2813      3741
 -1     12314    3    0    1
 -2      3071      2734      3218      3741
 -1     12315    3    0    1
 -2      2725      2634      3071      3741
 -1     12316    3    0    1
 -2      2499      2498      2734      3741
 -1     12317    3    0    1
 -2      1565      1440      3473      3741
 -1     12318    3    0    1
 -2      1326       229      1565      3741
 -1     12319    3    0    1
 -2      2734      2498      3117      3741
 -1     12320    3    0    1
 -2      2734      3117      3218      3741
 -1     12321    3    0    1
 -2      2228      3176      3232      3742
 -1     12322    3    0    1
 -2      3339      3021      3456      3742
 -1     12323    3    0    1
 -2      3339      3456      3489      3742
 -1     12324    3    0    1
 -2      3476      3339      3489      3742
 -1     12325    3    0    1
 -2      3021      3176      3456      3742
 -1     12326    3    0    1
 -2      3604      1823      3729      3743
 -1     12327    3    0    1
 -2      1823      3604      3463      3743
 -1     12328    3    0    1
 -2       427      3429      3729      3743
 -1     12329    3    0    1
 -2      1823       427      3729      3743
 -1     12330    3    0    1
 -2      2774      3429      3463      3743
 -1     12331    3    0    1
 -2      2774      3414      3429      3743
 -1     12332    3    0    1
 -2      3429      1823      3463      3743
 -1     12333    3    0    1
 -2       427      1823      3429      3743
 -1     12334    3    0    1
 -2      2610      2515      3487      3744
 -1     12335    3    0    1
 -2      2515      2412      3487      3744
 -1     12336    3    0    1
 -2       757       228       754      1927
 -1     12337    3    0    1
 -2       228      1033      2257      3745
 -1     12338    3    0    1
 -2       228      2257      3734      3745
 -1     12339    3    0    1
 -2       323       228      3734      3745
 -1     12340    3    0    1
 -2      2257      3439      3734      3745
 -1     12341    3    0    1
 -2      1321      2264      2552      3745
 -1     12342    3    0    1
 -2       323       322      3440      3745
 -1     12343    3    0    1
 -2       322       220      3440      3745
 -1     12344    3    0    1
 -2       220      1321      3440      3745
 -1     12345    3    0    1
 -2       228       323      3440      3745
 -1     12346    3    0    1
 -2      2264      3439      3490      3745
 -1     12347    3    0    1
 -2      2257      2552      3490      3745
 -1     12348    3    0    1
 -2      1033       228      3440      3745
 -1     12349    3    0    1
 -2      3439      2257      3490      3745
 -1     12350    3    0    1
 -2      2552      2264      3490      3745
 -1     12351    3    0    1
 -2       577       119       574      1929
 -1     12352    3    0    1
 -2      3504      3416      3493      3746
 -1     12353    3    0    1
 -2      2458      2555      3504      3746
 -1     12354    3    0    1
 -2      2463      2496      3667      3746
 -1     12355    3    0    1
 -2      1511      3467      3493      3746
 -1     12356    3    0    1
 -2      1511      3419      3467      3746
 -1     12357    3    0    1
 -2      3504      2555      3417      3746
 -1     12358    3    0    1
 -2      3432      1425      3486      3746
 -1     12359    3    0    1
 -2      3416      3504      3417      3746
 -1     12360    3    0    1
 -2      1412      3667      3467      3746
 -1     12361    3    0    1
 -2      1412      2463      3667      3746
 -1     12362    3    0    1
 -2      3419      1412      3467      3746
 -1     12363    3    0    1
 -2      3419      1511      3432      3746
 -1     12364    3    0    1
 -2      1511      1425      3432      3746
 -1     12365    3    0    1
 -2      1425      3417      3746      1459
 -1     12366    3    0    1
 -2      1459      3416      3417      3746
 -1     12367    3    0    1
 -2      2555      2496      3486      3746
 -1     12368    3    0    1
 -2      2496      3432      3486      3746
 -1     12369    3    0    1
 -2      2458      2496      2555      3746
 -1     12370    3    0    1
 -2      2496      2463      3419      3746
 -1     12371    3    0    1
 -2      2496      3419      3432      3746
 -1     12372    3    0    1
 -2      3417      2555      3486      3746
 -1     12373    3    0    1
 -2      3416      1425      3493      3746
 -1     12374    3    0    1
 -2      2463      1412      3419      3746
 -1     12375    3    0    1
 -2      1425      1511      3493      3746
 -1     12376    3    0    1
 -2      1459      1425      3416      3746
 -3
    1PSTEP                         1           1           1          
  100CL  101 1.000000000        3746                     0    1           1
 -4  DISP        4    1
 -5  D1          1    2    1    0
 -5  D2          1    2    2    0
 -5  D3          1    2    3    0
 -5  ALL         1    2    0    0    1ALL
 -1         1 2.50631E-03 5.13663E-04-9.81280E-03
 -1         2 4.48599E-04 1.84008E-03 1.53827E-02
 -1         3 1.67696E-03 1.65378E-03 1.55278E-02
 -1         4 1.10287E-04 2.10245E-03 1.65261E-02
 -1         5 1.44829E-03 1.74156E-03 1.61697E-02
 -1         6 4.03233E-04 1.98390E-03 1.71299E-02
 -1         7 4.84960E-03-1.83695E-03 8.68263E-03
 -1         8 4.70673E-03 1.78163E-03 9.02275E-03
 -1         9 2.13849E-03 2.89925E-03 1.16684E-02
 -1        10 2.28880E-03 3.01172E-03 1.34080E-02
 -1        11 9.72387E-04-8.21430E-06 1.60861E-02
 -1        12 2.52890E-03-6.93115E-04 1.04013E-02
 -1        13 2.57309E-03 4.89673E-04 1.06066E-02
 -1        14 1.53759E-03 1.47333E-03 1.45856E-02
 -1        15 4.33130E-03 1.98571E-03 4.84486E-03
 -1        16 4.84465E-03-1.57312E-03-3.26009E-03
 -1        17 3.00439E-03-2.12504E-03-5.59039E-03
 -1        18 4.87552E-03-1.47880E-03-4.38320E-03
 -1        19 4.89196E-03-1.54652E-03-6.89050E-03
 -1        20 4.56733E-03-1.36565E-03-5.32129E-03
 -1        21 5.45383E-03-6.26434E-04-1.62944E-03
 -1        22 3.43739E-03-1.48446E-03-8.29374E-03
 -1        23 3.33390E-03-2.25112E-03-9.92152E-03
 -1        24 2.61148E-03-6.25956E-04-9.92619E-03
 -1        25 2.57244E-03-6.11278E-04-9.78300E-03
 -1        26 2.53813E-03 5.29632E-04-9.95308E-03
 -1        27 9.66741E-04-5.87180E-05-1.55809E-02
 -1        28 9.65218E-04-2.34175E-04-1.57139E-02
 -1        29-2.22907E-03-1.43038E-05-1.31732E-02
 -1        30-7.50453E-04-9.48132E-05-1.67282E-02
 -1        31 4.41345E-03 1.92174E-03-7.81961E-03
 -1        32 2.26368E-03-2.94418E-03-1.09446E-02
 -1        33 4.10190E-04-1.91638E-03-1.66287E-02
 -1        34 4.73139E-04-1.89136E-03-1.48124E-02
 -1        35 1.71261E-03-1.68553E-03-1.48471E-02
 -1        36 2.49575E-03-2.83984E-03-1.37431E-02
 -1        37 4.84204E-03 1.43499E-03-4.86427E-03
 -1        38 4.86477E-03 1.49121E-03-7.30963E-03
 -1        39 4.32666E-03 1.92617E-03-5.61674E-03
 -1        40 4.63811E-03 1.32254E-03-5.58332E-03
 -1        41 5.49482E-03 4.99348E-04-1.90547E-03
 -1        42 5.54677E-03-6.99086E-04 2.24318E-03
 -1        43 5.53192E-03-1.21786E-04 1.34329E-03
 -1        44 1.67076E-03 1.48802E-03-1.39043E-02
 -1        45 3.41551E-03 1.25066E-03-8.27538E-03
 -1        46 1.68418E-04 2.08959E-03-1.60193E-02
 -1        47 1.71156E-03 1.63984E-03-1.49384E-02
 -1        48 1.42960E-04 1.86742E-03-1.52206E-02
 -1        49 3.12054E-03 1.98854E-03-1.02206E-02
 -1        50 3.46526E-03 1.27289E-03-8.40377E-03
 -1        51 3.19890E-03 2.13301E-03-1.20027E-02
 -1        52 2.04288E-03 2.72255E-03-1.12773E-02
 -1        53 2.21052E-03 2.58820E-03-1.05869E-02
 -1        54 2.18238E-03 2.80425E-03-1.28942E-02
 -1        55 7.95799E-04 2.96755E-03-9.07965E-03
 -1        56 5.21296E-03-7.79440E-05 1.08209E-03
 -1        57 4.71327E-03-1.52227E-03 6.05966E-03
 -1        58 4.36634E-03-2.12718E-03 7.66092E-03
 -1        59 4.28469E-03-2.13825E-03 5.40939E-03
 -1        60 2.92136E-03-2.24825E-03 4.41989E-03
 -1        61 2.96314E-03-2.23047E-03 5.74857E-03
 -1        62 5.24985E-03 6.63332E-05 2.90783E-03
 -1        63 5.51912E-03 1.03608E-04 3.08824E-03
 -1        64 5.54028E-03 9.89360E-05 1.76241E-03
 -1        65 3.97694E-03 1.21147E-04-4.65430E-04
 -1        66 5.22618E-03 7.71305E-05 1.67873E-03
 -1        67 5.41232E-03-6.14108E-04-1.60385E-03
 -1        68 5.47074E-03 6.55864E-04 2.51750E-03
 -1        69 4.54885E-03 1.42116E-03 6.13153E-03
 -1        70 4.80017E-03 1.60499E-03 5.34346E-03
 -1        71 4.21594E-03 2.09899E-03 5.89117E-03
 -1        72 2.91646E-03 2.30344E-03 4.90360E-03
 -1        73 2.94570E-03 2.32437E-03 6.22366E-03
 -1        74 5.21631E-03 8.22720E-05-8.24091E-04
 -1        75 5.24853E-03-6.54848E-05-2.59000E-03
 -1        76 5.49338E-03-3.98940E-05-2.64380E-03
 -1        77 3.41015E-03-1.48130E-03 8.86513E-03
 -1        78 3.32503E-03-2.38343E-03 1.04386E-02
 -1        79 3.40687E-03-2.47437E-03 1.24127E-02
 -1        80 4.59467E-03 1.43620E-03 6.21127E-03
 -1        81 3.39384E-03 1.39089E-03 9.09567E-03
 -1        82 3.18143E-03 2.18852E-03 1.07715E-02
 -1        83 3.16399E-03-2.52763E-03 9.60508E-03
 -1        84 2.51728E-03-2.90123E-03 1.04827E-02
 -1        85 2.37728E-03-3.17904E-03 1.30562E-02
 -1        86 1.58420E-03-1.65890E-03 1.44032E-02
 -1        87 1.67130E-03-1.81457E-03 1.55064E-02
 -1        88 1.43531E-03-1.90083E-03 1.61668E-02
 -1        89 9.33700E-05-2.11367E-03 1.54228E-02
 -1        90 1.27882E-04-2.29220E-03 1.64381E-02
 -1        91-1.33980E-03 2.37963E-03 1.22110E-02
 -1        92-1.29553E-03 2.50228E-03 1.30301E-02
 -1        93 1.06694E-03 3.47305E-03 1.07352E-02
 -1        94-8.02339E-04-7.53597E-05 1.70623E-02
 -1        95-3.66545E-04 1.13643E-04 1.73728E-02
 -1        96 8.19367E-04-3.26718E-03 8.95046E-03
 -1        97-1.44524E-03-2.31379E-03 1.21281E-02
 -1        98-1.05422E-03-5.51930E-05-1.26709E-02
 -1        99-5.72280E-04-9.62509E-05-1.72764E-02
 -1       100-5.35760E-04-6.28139E-05-1.60051E-02
 -1       101-4.00686E-04 6.26059E-05-1.01026E-02
 -1       102-2.26699E-03-1.80758E-04-1.32396E-02
 -1       103 6.82121E-04-6.09488E-05-1.57150E-02
 -1       104-6.33551E-04 1.72904E-05-1.74251E-02
 -1       105-7.37276E-04-2.78019E-04-1.68611E-02
 -1       106-4.88389E-04 1.78425E-04-1.60213E-02
 -1       107 6.97167E-04-2.28303E-04-1.59047E-02
 -1       108-4.31628E-04-2.64644E-04-1.70542E-02
 -1       109-6.44204E-04-1.45669E-04-1.73567E-02
 -1       110-4.13981E-04-1.11959E-04-1.68665E-02
 -1       111 3.40303E-03-1.47179E-03-8.18809E-03
 -1       112-3.71962E-04-8.46162E-05-9.87666E-03
 -1       113-1.31321E-03-2.29337E-03-1.29243E-02
 -1       114 7.65631E-05-1.94127E-03-1.51091E-02
 -1       115-1.47496E-03-2.30447E-03-1.19688E-02
 -1       116-4.74911E-04-5.32932E-04-1.56890E-02
 -1       117 1.59176E-03-1.48349E-03-1.39156E-02
 -1       118 1.06831E-04-2.12844E-03-1.60356E-02
 -1       119-3.68550E-04-3.54648E-04-1.52560E-02
 -1       120 1.34295E-03-1.57920E-03-1.35672E-02
 -1       121-2.56696E-04-4.74562E-04-1.35255E-02
 -1       122-4.65360E-04-4.58256E-04-1.64967E-02
 -1       123 1.47226E-03-1.76829E-03-1.55122E-02
 -1       124-3.62210E-04-5.93893E-04-1.52132E-02
 -1       125-2.25756E-04-7.50067E-04-8.60300E-03
 -1       126 1.67087E-04-6.60510E-04-1.13164E-02
 -1       127 9.51178E-04-3.11946E-03-8.85258E-03
 -1       128-1.71023E-04-1.20074E-04-5.51222E-03
 -1       129 1.07828E-03-3.16112E-03-1.01662E-02
 -1       130 2.35587E-03-3.04780E-03-1.27378E-02
 -1       131 3.34447E-03-2.36266E-03-1.19061E-02
 -1       132-5.67973E-05-5.55975E-04-1.22093E-02
 -1       133 1.03868E-04-5.46309E-04-1.01976E-02
 -1       134 1.93612E-04-7.19092E-04-1.05132E-02
 -1       135 4.61934E-05-6.46541E-04-1.37525E-02
 -1       136 3.20233E-03-2.48520E-03-1.29607E-02
 -1       137 3.17082E-03-2.38682E-03-9.10632E-03
 -1       138 2.43759E-03-2.79060E-03-1.01792E-02
 -1       139 1.81114E-04-4.94070E-04-9.03864E-03
 -1       140-6.56181E-05-4.54017E-05-1.56638E-03
 -1       141 2.91552E-03-2.24165E-03-4.14166E-03
 -1       142 4.48727E-04-5.05847E-04-4.18432E-03
 -1       143 4.25652E-03-1.94117E-03-5.11735E-03
 -1       144 4.15080E-04-3.72206E-04-7.08029E-03
 -1       145 4.61827E-03-1.37512E-03-5.42315E-03
 -1       146 4.83900E-03-1.62866E-03-8.14638E-03
 -1       147 4.38195E-03-1.95584E-03-7.40496E-03
 -1       148 4.44461E-03-1.83858E-03-8.60999E-03
 -1       149 4.39133E-04-4.38120E-04-7.52377E-03
 -1       150 5.47821E-04-4.15220E-04-5.41748E-03
 -1       151 4.41182E-04-4.56608E-04-8.38897E-03
 -1       152 4.32015E-03-1.85324E-03-4.04170E-03
 -1       153-6.46543E-05 9.26526E-05 2.48956E-03
 -1       154 5.40642E-03 6.47815E-04 2.48375E-03
 -1       155 3.98729E-03 3.81328E-05 1.14802E-03
 -1       156 8.08852E-04 8.19832E-05 1.63857E-03
 -1       157 6.05471E-04 6.73881E-05 1.83634E-03
 -1       158 5.84855E-04-3.77424E-05-9.57928E-04
 -1       159 5.52148E-03 3.60763E-05-8.95825E-04
 -1       160 5.50721E-03 2.68729E-05-2.20897E-03
 -1       161 5.23297E-03 8.87939E-05-2.06496E-03
 -1       162 3.41765E-04 7.41008E-04 5.87405E-03
 -1       163 5.78111E-04 5.45907E-04 8.24541E-03
 -1       164 4.35347E-03 2.09913E-03 8.12752E-03
 -1       165 4.81985E-03 1.65668E-03 7.79110E-03
 -1       166 2.94925E-04 4.67351E-04 9.30001E-03
 -1       167 4.74230E-03 1.69712E-03 4.21224E-03
 -1       168 4.39823E-03 2.00592E-03 9.29739E-03
 -1       169 3.35897E-03 1.38005E-03 8.97243E-03
 -1       170 1.16010E-04 6.05979E-04 1.09589E-02
 -1       171-1.62386E-04 1.57655E-04 6.34331E-03
 -1       172 1.00187E-03 3.35937E-03 9.27338E-03
 -1       173 3.25818E-03 2.31675E-03 1.26581E-02
 -1       174 3.11997E-03 2.44935E-03 1.36816E-02
 -1       175 1.79192E-04 7.36587E-04 1.20986E-02
 -1       176 3.04599E-03 2.31420E-03 9.96939E-03
 -1       177 2.31236E-03 2.77024E-03 1.09672E-02
 -1       178 2.29480E-04 6.94440E-04 1.13939E-02
 -1       179 2.46982E-03 2.84077E-03 1.43885E-02
 -1       180-2.24458E-04 1.55143E-04 9.08882E-03
 -1       181 2.54337E-03 4.84392E-04 1.04727E-02
 -1       182-3.41173E-04 6.17847E-05 1.06195E-02
 -1       183-3.26271E-04 4.18914E-04 1.70153E-02
 -1       184-3.06953E-04 3.97948E-04 1.58808E-02
 -1       185-2.75911E-04 4.81610E-04 1.48767E-02
 -1       186-3.77344E-04 3.03462E-04 1.63701E-02
 -1       187-2.70923E-04 5.68938E-04 1.62262E-02
 -1       188 8.14222E-05 1.89967E-03 1.57043E-02
 -1       189 1.30907E-03 1.56632E-03 1.42395E-02
 -1       190-1.88914E-04 5.89205E-04 1.58774E-02
 -1       191-3.82353E-04 3.65576E-04 1.70789E-02
 -1       192-2.22328E-03 1.17431E-04 1.34560E-02
 -1       193-4.17267E-04-1.64188E-05 1.65498E-02
 -1       194 9.35562E-04 2.06015E-04 1.62197E-02
 -1       195 2.53528E-03-6.90206E-04 1.05230E-02
 -1       196-3.56820E-04 6.05910E-05 1.08366E-02
 -1       197-5.55094E-04 4.83958E-05 1.76370E-02
 -1       198-2.20128E-03-2.09203E-05 1.34361E-02
 -1       199-4.10972E-04 2.32525E-04 1.65054E-02
 -1       200 6.69467E-04 2.16806E-04 1.64133E-02
 -1       201-5.19563E-04-7.02838E-05 1.75957E-02
 -1       202-7.94568E-04 2.00584E-04 1.71718E-02
 -1       203 6.94811E-04 5.32556E-06 1.62567E-02
 -1       204-5.07958E-04-5.53931E-05 1.72530E-02
 -1       205-3.22317E-04-5.69369E-05 1.05993E-02
 -1       206-1.28677E-03-2.38532E-03 1.28968E-02
 -1       207 3.44959E-03-1.49919E-03 8.98757E-03
 -1       208-2.45417E-04-4.18641E-04 1.47701E-02
 -1       209-3.90357E-04-2.16977E-04 1.63911E-02
 -1       210-5.44393E-04-3.77437E-04 1.71641E-02
 -1       211-4.14011E-04-4.21646E-04 1.68564E-02
 -1       212 3.81369E-04-2.02114E-03 1.50865E-02
 -1       213 4.00838E-04-2.17956E-03 1.70714E-02
 -1       214 1.34435E-03-1.75436E-03 1.40227E-02
 -1       215 1.00309E-03-3.26962E-03 1.02331E-02
 -1       216 2.15691E-04-6.50111E-04 1.16786E-02
 -1       217-2.16197E-04-8.68687E-04 8.67011E-03
 -1       218-6.09439E-05-4.91248E-04 1.36896E-02
 -1       219 6.68159E-05-5.53022E-04 1.26839E-02
 -1       220 1.91027E-04-5.60051E-04 1.07247E-02
 -1       221 2.53854E-03-3.01797E-03 1.40879E-02
 -1       222 9.00057E-05-6.35813E-04 1.33532E-02
 -1       223 2.24979E-03-3.05594E-03 1.12738E-02
 -1       224 3.27761E-03-2.58461E-03 1.34738E-02
 -1       225 4.66033E-03-1.51677E-03 5.96912E-03
 -1       226 4.93674E-03-1.68913E-03 4.89623E-03
 -1       227 5.32485E-04-3.65622E-04 4.98379E-03
 -1       228 4.76967E-04-4.02960E-04 7.65053E-03
 -1       229-1.65563E-04-1.43425E-04 6.16114E-03
 -1       230 4.95554E-03-1.72108E-03 7.42051E-03
 -1       231 4.42731E-03-2.00137E-03 8.87772E-03
 -1       232 4.88369E-04-4.76382E-04 7.77943E-03
 -1       233 5.64879E-04-4.67443E-04 5.68047E-03
 -1       234 4.87728E-03-1.77590E-03 3.73840E-03
 -1       235 4.34763E-03-2.04719E-03 4.31431E-03
 -1       236 5.42910E-03 4.92453E-04-1.87402E-03
 -1       237 5.49783E-03-6.86703E-04 2.20452E-03
 -1       238 4.11938E-03-7.38974E-05-9.69262E-04
 -1       239 4.13156E-03 7.08547E-05 7.99129E-04
 -1       240 5.51132E-03-5.73245E-05-1.33484E-03
 -1       241-4.40875E-05 5.77285E-05-1.88379E-03
 -1       242 6.42857E-04-2.91608E-05 6.46056E-04
 -1       243 6.53633E-04-4.16635E-05 1.39576E-03
 -1       244 6.27771E-04 7.84151E-05-1.39369E-03
 -1       245 8.39257E-04-5.11234E-05 2.05126E-03
 -1       246 5.23240E-03-7.50795E-05 2.30022E-03
 -1       247 5.23339E-03-5.89323E-05-1.36218E-03
 -1       248 8.03071E-04 3.98669E-05-1.33226E-03
 -1       249 8.00145E-04 2.88202E-05-2.34174E-03
 -1       250 5.51577E-03-1.23030E-04 2.66028E-03
 -1       251 3.12969E-03 2.14369E-03-4.83570E-03
 -1       252 3.13665E-03 2.20311E-03-6.19428E-03
 -1       253-1.26924E-04 1.32032E-04-5.69420E-03
 -1       254 5.17252E-04 3.38803E-04-4.93781E-03
 -1       255 3.07031E-04 4.38489E-04-8.85080E-03
 -1       256 4.80111E-03 1.59022E-03-8.55759E-03
 -1       257 4.38177E-03 1.84038E-03-4.53614E-03
 -1       258 6.75558E-04 4.47937E-04-5.85809E-03
 -1       259 5.73404E-04 4.69463E-04-8.00074E-03
 -1       260 4.46545E-03 1.81634E-03-9.01579E-03
 -1       261 5.11366E-04 4.83660E-04-9.03591E-03
 -1       262 4.78926E-03 1.51129E-03-3.72803E-03
 -1       263 4.58316E-03 1.29934E-03-5.49349E-03
 -1       264 8.76073E-04 3.09167E-03-1.02164E-02
 -1       265 1.12939E-04 6.80017E-04-1.32079E-02
 -1       266 1.83039E-04 6.87192E-04-1.16308E-02
 -1       267 6.31893E-05 5.56035E-04-1.23405E-02
 -1       268 3.04800E-03 2.26959E-03-1.29768E-02
 -1       269 2.96938E-03 2.12757E-03-9.48641E-03
 -1       270 2.04575E-04 5.15537E-04-9.45378E-03
 -1       271 2.35080E-03 2.64025E-03-1.38284E-02
 -1       272 5.18269E-05 6.21636E-04-1.38903E-02
 -1       273-1.29411E-03 2.49885E-03-1.28233E-02
 -1       274-8.30067E-04 4.82450E-04-1.18557E-02
 -1       275-1.44703E-03 2.48060E-03-1.17802E-02
 -1       276-4.49352E-04 4.48418E-04-1.64703E-02
 -1       277-2.81699E-04 1.18306E-04-8.56853E-03
 -1       278-2.11791E-04 4.88528E-04-1.36700E-02
 -1       279-3.29604E-04 4.24677E-04-1.43068E-02
 -1       280 1.39254E-03 1.59494E-03-1.35914E-02
 -1       281 1.47546E-03 1.71944E-03-1.55590E-02
 -1       282-3.85423E-04 3.28041E-04-1.53713E-02
 -1       283 4.06929E-04 1.77189E-03-1.49137E-02
 -1       284-5.15734E-04 3.51543E-04-1.70800E-02
 -1       285 4.34131E-04 1.96196E-03-1.66446E-02
 -1       286 0.00000E+00 0.00000E+00 0.00000E+00
 -1       287 0.00000E+00 0.00000E+00 0.00000E+00
 -1       288 0.00000E+00 0.00000E+00 0.00000E+00
 -1       289 0.00000E+00 0.00000E+00 0.00000E+00
 -1       290 0.00000E+00 0.00000E+00 0.00000E+00
 -1       291 0.00000E+00 0.00000E+00 0.00000E+00
 -1       292 0.00000E+00 0.00000E+00 0.00000E+00
 -1       293 0.00000E+00 0.00000E+00 0.00000E+00
 -1       294 0.00000E+00 0.00000E+00 0.00000E+00
 -1       295 0.00000E+00 0.00000E+00 0.00000E+00
 -1       296 0.00000E+00 0.00000E+00 0.00000E+00
 -1       297 0.00000E+00 0.00000E+00 0.00000E+00
 -1       298 0.00000E+00 0.00000E+00 0.00000E+00
 -1       299 0.00000E+00 0.00000E+00 0.00000E+00
 -1       300 0.00000E+00 0.00000E+00 0.00000E+00
 -1       301 0.00000E+00 0.00000E+00 0.00000E+00
 -1       302 0.00000E+00 0.00000E+00 0.00000E+00
 -1       303 0.00000E+00 0.00000E+00 0.00000E+00
 -1       304 0.00000E+00 0.00000E+00 0.00000E+00
 -1       305 0.00000E+00 0.00000E+00 0.00000E+00
 -1       306 0.00000E+00 0.00000E+00 0.00000E+00
 -1       307 0.00000E+00 0.00000E+00 0.00000E+00
 -1       308 0.00000E+00 0.00000E+00 0.00000E+00
 -1       309 0.00000E+00 0.00000E+00 0.00000E+00
 -1       310 0.00000E+00 0.00000E+00 0.00000E+00
 -1       311 0.00000E+00 0.00000E+00 0.00000E+00
 -1       312 0.00000E+00 0.00000E+00 0.00000E+00
 -1       313 0.00000E+00 0.00000E+00 0.00000E+00
 -1       314 0.00000E+00 0.00000E+00 0.00000E+00
 -1       315 0.00000E+00 0.00000E+00 0.00000E+00
 -1       316-3.44802E-04-4.45838E-05 1.08267E-02
 -1       317-2.70734E-04-3.28729E-04 1.59420E-02
 -1       318-4.36674E-04-1.32787E-04 1.65238E-02
 -1       319-2.23786E-04-1.61830E-04 9.15414E-03
 -1       320-1.86185E-04-4.73299E-04 1.40942E-02
 -1       321 2.63277E-05-6.05239E-04 1.41338E-02
 -1       322 2.51229E-04-5.25255E-04 9.61073E-03
 -1       323 3.47016E-04-4.55969E-04 8.99933E-03
 -1       324 4.23289E-04-5.48715E-04 8.83729E-03
 -1       325 3.22363E-04-5.64073E-04 5.42822E-03
 -1       326 5.46872E-04 5.64531E-04 9.26368E-03
 -1       327 3.98499E-04 4.31814E-04 7.98255E-03
 -1       328 1.87663E-04 5.50709E-04 9.90105E-03
 -1       329-4.33361E-05-8.25686E-05 2.22035E-03
 -1       330 5.80900E-04-1.35933E-04 2.86346E-03
 -1       331 7.78264E-04-2.81907E-05 9.66556E-04
 -1       332 5.54501E-04 1.44685E-04-2.83921E-03
 -1       333 1.33590E-04 5.28171E-04-1.05100E-02
 -1       334 4.29341E-04 3.96001E-04-7.52175E-03
 -1       335-9.19198E-05 5.06140E-04-1.32814E-02
 -1       336-4.64773E-04 6.27643E-05-1.61572E-02
 -1       337-4.44927E-04 2.42203E-04-1.58615E-02
 -1       338-1.06210E-03-5.30172E-04-1.20658E-02
 -1       339 0.00000E+00 0.00000E+00 0.00000E+00
 -1       340 0.00000E+00 0.00000E+00 0.00000E+00
 -1       341 0.00000E+00 0.00000E+00 0.00000E+00
 -1       342 0.00000E+00 0.00000E+00 0.00000E+00
 -1       343 5.39878E-04-2.37283E-06-3.22974E-04
 -1       344 6.20633E-04-4.05891E-04-4.44614E-03
 -1       345 8.14051E-04 1.68090E-04 2.71482E-03
 -1       346 5.24038E-04 1.92912E-04 3.33718E-03
 -1       347 4.69609E-04 3.42152E-04 4.05835E-03
 -1       348 6.62812E-04 7.14323E-05 7.12066E-04
 -1       349 6.27993E-04 5.10609E-04 5.15397E-03
 -1       350 4.49246E-04 6.77557E-04 4.92249E-03
 -1       351 6.33923E-04 5.24173E-04 6.10595E-03
 -1       352 0.00000E+00 0.00000E+00 0.00000E+00
 -1       353-2.99195E-04-8.49589E-04-9.29566E-03
 -1       354 3.87189E-05-6.95067E-04-1.30919E-02
 -1       355 0.00000E+00 0.00000E+00 0.00000E+00
 -1       356-9.49980E-04-6.45037E-04-1.16611E-02
 -1       357 0.00000E+00 0.00000E+00 0.00000E+00
 -1       358 0.00000E+00 0.00000E+00 0.00000E+00
 -1       359-1.04948E-03-1.67817E-04-1.26799E-02
 -1       360-5.57223E-04 1.12846E-04-1.73552E-02
 -1       361 0.00000E+00 0.00000E+00 0.00000E+00
 -1       362 0.00000E+00 0.00000E+00 0.00000E+00
 -1       363-8.32838E-04 5.77813E-04-1.15203E-02
 -1       364-3.37475E-04 4.98597E-04-1.56362E-02
 -1       365-2.13790E-04 8.84340E-04-9.61132E-03
 -1       366-2.89025E-04 5.55485E-04-1.52146E-02
 -1       367 2.23709E-04 7.06038E-04-1.10219E-02
 -1       368-2.31848E-04 7.94358E-04-8.76296E-03
 -1       369 3.33231E-04 6.77151E-04-5.90826E-03
 -1       370 7.60641E-04 3.91955E-04-4.82857E-03
 -1       371 5.03386E-04 2.56260E-04-3.54715E-03
 -1       372 4.23412E-04 6.22872E-04-4.90681E-03
 -1       373 0.00000E+00 0.00000E+00 0.00000E+00
 -1       374 6.21215E-04 2.78452E-07-6.87118E-04
 -1       375 6.27227E-04-3.91956E-04 4.65949E-03
 -1       376 5.35793E-04-2.71117E-04 3.58101E-03
 -1       377 3.72100E-04-4.77182E-04 4.35582E-03
 -1       378 0.00000E+00 0.00000E+00 0.00000E+00
 -1       379 2.95401E-04-6.51535E-04 1.08544E-02
 -1       380-5.08491E-04-1.69590E-04-1.59048E-02
 -1       381-4.59910E-04-2.46819E-04-1.57565E-02
 -1       382-5.06995E-04-4.33654E-04-1.69509E-02
 -1       383-3.93074E-04-9.05334E-05-1.01049E-02
 -1       384-1.62895E-04-5.02852E-04-1.31523E-02
 -1       385 3.99787E-04-6.00123E-04-5.24229E-03
 -1       386 2.83769E-04-4.24058E-04-8.40891E-03
 -1       387-3.24444E-04-1.49763E-04-8.47681E-03
 -1       388-3.35381E-04-4.21081E-04-1.41868E-02
 -1       389 5.30402E-04-1.28467E-04-2.40209E-03
 -1       390 4.96456E-04-2.26963E-04-3.10226E-03
 -1       391-9.12254E-05-5.26457E-05-1.60601E-03
 -1       392 4.77189E-04-2.94447E-04-4.50189E-03
 -1       393 7.48028E-04-5.13914E-05-1.82537E-03
 -1       394 7.66267E-04 1.69940E-05-7.96533E-04
 -1       395-8.16287E-05 9.66749E-05 2.54218E-03
 -1       396 4.42080E-04 4.07114E-04 5.41157E-03
 -1       397-2.49252E-04-8.74910E-04 9.53398E-03
 -1       398-3.27257E-04-5.33842E-04 1.59499E-02
 -1       399-2.67456E-04-6.24348E-04 1.56116E-02
 -1       400-7.69823E-04-6.09650E-04 1.17337E-02
 -1       401-8.45357E-04-5.55338E-04 1.21783E-02
 -1       402 6.50999E-05 6.95932E-04 1.37709E-02
 -1       403-2.26411E-04 8.43574E-04 1.00142E-02
 -1       404 1.19109E-05 6.63572E-04 1.44041E-02
 -1       405-2.28080E-04 8.63203E-04 9.14015E-03
 -1       406 0.00000E+00 0.00000E+00 0.00000E+00
 -1       407 0.00000E+00 0.00000E+00 0.00000E+00
 -1       408-7.79663E-04 6.61264E-04 1.18430E-02
 -1       409 1.53289E-05 5.65501E-04 1.29556E-02
 -1       410-2.88918E-04 1.59177E-04 9.29457E-03
 -1       411-1.01040E-04 5.25971E-04 1.38816E-02
 -1       412-2.06836E-04 5.10678E-04 1.42509E-02
 -1       413-7.91264E-04 6.29924E-04 1.22068E-02
 -1       414-5.98096E-04 1.43440E-04 1.77023E-02
 -1       415-4.25678E-04 1.20168E-04 1.66057E-02
 -1       416-5.26071E-04-2.02200E-04 1.76864E-02
 -1       417-8.18538E-04 1.78830E-05 1.29777E-02
 -1       418 0.00000E+00 0.00000E+00 0.00000E+00
 -1       419-9.15468E-04 3.80774E-05 1.28163E-02
 -1       420 0.00000E+00 0.00000E+00 0.00000E+00
 -1       421-3.03058E-04-1.45433E-04-8.26668E-03
 -1       422-3.75291E-04 6.44607E-05-9.86254E-03
 -1       423-2.70654E-04 1.36597E-04-8.37283E-03
 -1       424-1.35660E-04-1.15662E-04-5.36364E-03
 -1       425-2.62255E-05 6.12284E-05-1.84100E-03
 -1       426-9.48615E-05 1.34145E-04-5.54774E-03
 -1       427-1.21013E-05-9.19038E-05 2.19528E-03
 -1       428-1.42209E-04-1.57589E-04 6.06571E-03
 -1       429-1.28604E-04 1.56254E-04 6.20977E-03
 -1       430-2.04987E-04-1.58608E-04 8.96598E-03
 -1       431 0.00000E+00 0.00000E+00 0.00000E+00
 -1       432 0.00000E+00 0.00000E+00 0.00000E+00
 -1       433 0.00000E+00 0.00000E+00 0.00000E+00
 -1       434 0.00000E+00 0.00000E+00 0.00000E+00
 -1       435 0.00000E+00 0.00000E+00 0.00000E+00
 -1       436 0.00000E+00 0.00000E+00 0.00000E+00
 -1       437 0.00000E+00 0.00000E+00 0.00000E+00
 -1       438 0.00000E+00 0.00000E+00 0.00000E+00
 -1       439 0.00000E+00 0.00000E+00 0.00000E+00
 -1       440 0.00000E+00 0.00000E+00 0.00000E+00
 -1       441 0.00000E+00 0.00000E+00 0.00000E+00
 -1       442 0.00000E+00 0.00000E+00 0.00000E+00
 -1       443 0.00000E+00 0.00000E+00 0.00000E+00
 -1       444 0.00000E+00 0.00000E+00 0.00000E+00
 -1       445 0.00000E+00 0.00000E+00 0.00000E+00
 -1       446 0.00000E+00 0.00000E+00 0.00000E+00
 -1       447 0.00000E+00 0.00000E+00 0.00000E+00
 -1       448 0.00000E+00 0.00000E+00 0.00000E+00
 -1       449 9.06190E-04-3.40186E-04-1.00654E-02
 -1       450 8.75558E-04 2.65280E-04-1.00798E-02
 -1       451 8.83658E-04 1.68074E-03 1.50586E-02
 -1       452 9.30077E-04 1.86649E-03 1.70876E-02
 -1       453 4.69571E-03-1.95953E-03 8.86443E-03
 -1       454 4.54114E-03 1.90719E-03 9.24858E-03
 -1       455 2.73844E-03 2.53739E-03 1.07413E-02
 -1       456 2.83281E-03 2.67853E-03 1.43974E-02
 -1       457 2.06577E-03-7.96843E-05 1.37040E-02
 -1       458 2.01191E-03 9.58402E-05 1.37854E-02
 -1       459 2.65820E-03-1.38800E-03 1.20546E-02
 -1       460 2.64333E-03-1.59643E-03 1.32741E-02
 -1       461 4.64119E-03-1.89574E-03 4.21538E-03
 -1       462 2.58956E-03 1.24414E-03 1.21815E-02
 -1       463 2.56841E-03 1.38401E-03 1.33584E-02
 -1       464 4.52492E-03 1.83320E-03 4.72951E-03
 -1       465 4.60746E-03-1.68236E-03-3.82413E-03
 -1       466 3.53558E-03-2.19190E-03-6.68333E-03
 -1       467 3.44025E-03-2.21995E-03-4.92751E-03
 -1       468 5.25245E-03-1.36878E-03-6.16174E-03
 -1       469 5.23768E-03-1.23977E-03-3.36628E-03
 -1       470 4.67571E-03-1.75595E-03-8.51821E-03
 -1       471 4.02437E-03-2.00501E-03-1.02618E-02
 -1       472 4.01818E-03-1.83054E-03-7.98074E-03
 -1       473 2.61942E-03-1.41783E-03-1.27281E-02
 -1       474 2.51360E-03-1.26688E-03-1.15523E-02
 -1       475 2.10345E-03-7.11873E-05-1.31201E-02
 -1       476 1.96011E-03-2.56519E-04-1.32401E-02
 -1       477 1.45992E-04-4.59277E-05-1.66954E-02
 -1       478 1.48864E-04-2.47371E-04-1.69477E-02
 -1       479-1.98415E-03-6.87129E-05-1.53611E-02
 -1       480-1.93556E-03-1.74766E-04-1.54626E-02
 -1       481 4.66655E-03 1.74775E-03-8.91954E-03
 -1       482 1.38891E-03-3.18446E-03-1.15947E-02
 -1       483 1.31679E-03-3.19026E-03-1.01904E-02
 -1       484-1.07024E-03-2.37782E-03-1.47682E-02
 -1       485-1.01822E-03-2.22249E-03-1.40192E-02
 -1       486 9.26667E-04-1.88198E-03-1.64040E-02
 -1       487 8.74742E-04-1.63239E-03-1.45866E-02
 -1       488 2.87062E-03-2.70547E-03-1.36173E-02
 -1       489 2.79066E-03-2.54041E-03-1.00179E-02
 -1       490 3.57225E-03 2.14362E-03-7.23630E-03
 -1       491 3.45368E-03 2.16217E-03-5.47011E-03
 -1       492 5.41175E-03 1.31188E-03-6.51988E-03
 -1       493 5.36153E-03 1.17358E-03-3.63937E-03
 -1       494 5.96585E-03 4.89201E-06-1.51827E-03
 -1       495 5.91571E-03-1.48380E-04 1.64556E-03
 -1       496 4.56932E-03-1.25154E-05-1.09717E-03
 -1       497 4.57529E-03 4.14661E-05 9.16620E-04
 -1       498 2.52134E-03 1.42322E-03-1.28974E-02
 -1       499 2.62239E-03 1.26038E-03-1.17615E-02
 -1       500 9.52213E-04 1.81823E-03-1.64624E-02
 -1       501 8.80650E-04 1.60563E-03-1.47014E-02
 -1       502-1.04561E-03 2.43761E-03-1.48234E-02
 -1       503-9.60770E-04 2.27537E-03-1.40502E-02
 -1       504 3.95807E-03 1.82012E-03-1.04260E-02
 -1       505 3.87646E-03 1.64277E-03-8.25846E-03
 -1       506 2.69192E-03 2.47949E-03-1.36959E-02
 -1       507 2.60424E-03 2.36035E-03-1.04014E-02
 -1       508 1.14579E-03 2.99599E-03-1.17961E-02
 -1       509 1.08848E-03 3.00265E-03-1.05412E-02
 -1       510 4.64151E-03 1.68568E-03-4.36041E-03
 -1       511 5.43199E-03-1.28200E-04 2.46791E-03
 -1       512 5.41087E-03-1.37695E-03 3.74674E-03
 -1       513 5.42068E-03-1.53951E-03 6.72999E-03
 -1       514 3.37563E-03-2.33452E-03 5.14911E-03
 -1       515 3.54901E-03-2.24124E-03 6.97929E-03
 -1       516 5.44264E-03 1.07035E-04 2.99012E-03
 -1       517 4.40141E-03 1.24323E-04-5.59662E-04
 -1       518 5.88397E-03-4.17091E-05-1.12009E-03
 -1       519 5.87081E-03 8.41064E-05 1.98512E-03
 -1       520 4.43228E-03 3.17061E-05 1.40983E-03
 -1       521 5.28486E-03 1.27552E-03 4.11460E-03
 -1       522 5.35120E-03 1.47137E-03 7.04295E-03
 -1       523 3.29259E-03 2.34669E-03 5.58223E-03
 -1       524 3.45652E-03 2.27184E-03 7.37280E-03
 -1       525 5.44719E-03 4.80115E-05-2.12082E-03
 -1       526 5.43777E-03-5.52459E-05-2.63133E-03
 -1       527 4.11037E-03-2.00168E-03 8.57335E-03
 -1       528 4.07690E-03-2.18708E-03 1.09382E-02
 -1       529 3.96351E-03 1.81082E-03 8.80810E-03
 -1       530 3.95426E-03 1.99128E-03 1.09933E-02
 -1       531 2.80430E-03-2.66626E-03 1.03469E-02
 -1       532 2.90809E-03-2.77284E-03 1.41348E-02
 -1       533 8.92363E-04-1.84633E-03 1.48774E-02
 -1       534 9.17371E-04-2.02792E-03 1.70469E-02
 -1       535-1.90449E-03-5.49407E-05 1.56630E-02
 -1       536-1.95249E-03 6.66307E-05 1.57268E-02
 -1       537-1.00673E-03 2.24200E-03 1.43632E-02
 -1       538-1.05855E-03 2.40387E-03 1.51467E-02
 -1       539 1.19672E-03 3.25243E-03 1.08839E-02
 -1       540 1.31380E-03 3.33135E-03 1.23795E-02
 -1       541 1.18215E-04 2.71081E-05 1.72280E-02
 -1       542 1.43000E-04 2.52051E-04 1.75179E-02
 -1       543 1.27861E-03-3.33362E-03 1.03943E-02
 -1       544 1.44873E-03-3.34627E-03 1.18891E-02
 -1       545-9.88596E-04-2.36795E-03 1.41306E-02
 -1       546-9.93772E-04-2.50591E-03 1.50036E-02
 -1       547-1.68307E-03-2.17411E-05-1.30060E-02
 -1       548-1.70780E-03-1.88894E-04-1.31077E-02
 -1       549-7.80545E-04-4.08513E-05-1.56708E-02
 -1       550-5.79507E-04-3.78163E-05-1.71752E-02
 -1       551 1.93399E-04-2.83412E-05-1.59684E-02
 -1       552-5.01788E-04-8.40088E-05-1.34902E-02
 -1       553 9.23636E-04-3.55312E-04-1.01835E-02
 -1       554 8.86701E-04 2.51016E-04-1.02013E-02
 -1       555-4.54921E-04 7.20734E-05-1.35066E-02
 -1       556 2.39545E-04-7.99321E-05-1.60621E-02
 -1       557-6.15594E-04-1.11658E-04-1.72713E-02
 -1       558-8.26661E-04-4.02531E-05-1.57426E-02
 -1       559 9.95349E-05-7.35728E-05-1.61285E-02
 -1       560 1.14759E-04-5.61123E-05-1.59604E-02
 -1       561-4.62423E-04-6.88083E-05-1.73009E-02
 -1       562-4.38835E-04-8.17432E-05-1.71711E-02
 -1       563-4.81251E-04 8.64931E-05-1.72058E-02
 -1       564-4.55140E-04-1.16746E-04-1.71504E-02
 -1       565 1.37522E-03-7.47163E-04-8.45670E-03
 -1       566-1.29226E-03-1.36011E-03-1.19195E-02
 -1       567-1.22612E-03-1.58983E-03-1.26225E-02
 -1       568-6.68585E-04-5.83596E-04-1.43574E-02
 -1       569-1.11664E-04-1.20511E-03-1.55186E-02
 -1       570 6.42667E-04-9.68132E-04-1.41981E-02
 -1       571-3.01976E-04-3.16494E-04-1.17602E-02
 -1       572 1.39873E-03-7.52099E-04-8.56720E-03
 -1       573-4.65207E-04-1.77902E-04-1.30888E-02
 -1       574 6.41988E-04-9.99787E-04-1.52561E-02
 -1       575-1.44609E-04-1.27803E-03-1.64167E-02
 -1       576-6.09879E-04-5.73539E-04-1.51081E-02
 -1       577 5.49155E-04-1.00834E-03-1.57642E-02
 -1       578 5.32868E-04-1.00483E-03-1.37393E-02
 -1       579-9.77070E-05-1.22307E-03-1.68911E-02
 -1       580 4.50248E-06-1.18384E-03-1.50597E-02
 -1       581-4.01470E-04-3.46600E-04-1.68213E-02
 -1       582-2.84437E-04-4.56888E-04-1.47719E-02
 -1       583 2.02642E-03-7.44308E-04-5.47419E-03
 -1       584 2.76889E-04-1.97210E-03-8.76375E-03
 -1       585 3.35716E-04-1.97051E-03-9.98542E-03
 -1       586 5.31363E-05-7.94890E-04-1.05096E-02
 -1       587 1.23064E-03-1.76931E-03-1.12753E-02
 -1       588 1.68520E-03-1.39506E-03-1.01922E-02
 -1       589-4.65814E-05-3.83133E-04-8.25827E-03
 -1       590 2.05268E-03-7.57808E-04-5.54418E-03
 -1       591 1.65095E-03-1.42910E-03-1.21695E-02
 -1       592-1.94712E-04-3.84444E-04-1.05185E-02
 -1       593 1.19994E-03-1.82918E-03-1.30045E-02
 -1       594 2.40493E-05-7.92770E-04-1.18826E-02
 -1       595 1.58391E-03-1.46400E-03-1.31309E-02
 -1       596 1.65927E-03-1.41947E-03-9.23645E-03
 -1       597 1.22369E-03-1.80607E-03-1.38938E-02
 -1       598 1.32592E-03-1.71395E-03-1.04018E-02
 -1       599 1.99010E-07-5.99029E-04-1.39554E-02
 -1       600 1.95775E-04-5.92291E-04-1.01759E-02
 -1       601 2.47364E-03-3.01710E-04-1.64204E-03
 -1       602 1.71519E-03-1.34120E-03-5.51492E-03
 -1       603 1.70961E-03-1.39936E-03-4.14512E-03
 -1       604 6.22417E-04-4.74070E-04-5.06936E-03
 -1       605 2.40203E-03-1.17052E-03-5.31396E-03
 -1       606 2.66496E-03-8.96356E-04-4.53430E-03
 -1       607 2.11096E-04-1.65478E-04-3.29365E-03
 -1       608 2.52072E-03-3.06048E-04-1.65765E-03
 -1       609 2.62791E-03-9.95434E-04-7.01406E-03
 -1       610 7.57829E-05-2.96562E-04-6.43448E-03
 -1       611 2.40319E-03-1.20302E-03-7.53046E-03
 -1       612 5.90410E-04-5.14013E-04-6.87034E-03
 -1       613 2.57834E-03-1.05231E-03-8.25879E-03
 -1       614 2.65376E-03-8.69554E-04-3.30520E-03
 -1       615 2.41375E-03-1.14262E-03-8.64106E-03
 -1       616 2.44665E-03-1.12012E-03-4.20040E-03
 -1       617 4.40772E-04-4.70545E-04-8.58239E-03
 -1       618 6.21069E-04-2.90396E-04-4.00686E-03
 -1       619 2.47259E-03 3.32786E-04 2.54064E-03
 -1       620 2.31573E-03 7.04761E-05-4.25160E-04
 -1       621 2.32166E-03 8.43203E-05 1.06532E-03
 -1       622 6.64271E-04 7.23352E-05 1.34235E-03
 -1       623 3.00620E-03 6.33544E-05 1.66557E-03
 -1       624 3.03322E-03 8.37959E-05 1.76367E-03
 -1       625 3.13309E-04 8.45296E-05 2.07670E-03
 -1       626 2.50301E-03 3.29862E-04 2.55816E-03
 -1       627 3.03508E-03-9.89348E-06-8.95688E-04
 -1       628 2.63526E-04-8.38013E-05-1.19292E-03
 -1       629 2.97691E-03 2.22870E-05-8.13807E-04
 -1       630 6.65899E-04-1.80619E-05-5.52778E-04
 -1       631 3.02424E-03-4.03067E-05-2.23631E-03
 -1       632 3.02409E-03 1.33185E-04 3.11180E-03
 -1       633 3.00521E-03 2.05218E-06-2.01610E-03
 -1       634 3.00221E-03 9.89600E-05 2.88168E-03
 -1       635 7.60745E-04-7.14638E-05-2.12642E-03
 -1       636 6.95407E-04 1.86472E-04 3.00916E-03
 -1       637 2.03197E-03 8.00507E-04 6.30085E-03
 -1       638 1.65220E-03 1.50139E-03 4.87450E-03
 -1       639 1.64138E-03 1.58918E-03 6.14001E-03
 -1       640 5.50786E-04 6.02755E-04 7.50607E-03
 -1       641 2.48562E-03 1.31507E-03 8.25407E-03
 -1       642 2.62722E-03 1.07001E-03 7.94355E-03
 -1       643 5.77583E-05 3.61794E-04 7.25063E-03
 -1       644 2.07136E-03 8.06594E-04 6.36369E-03
 -1       645 2.62119E-03 1.00563E-03 5.47497E-03
 -1       646 1.98438E-04 2.09224E-04 4.20495E-03
 -1       647 2.43656E-03 1.30282E-03 6.06514E-03
 -1       648 5.69404E-04 5.61217E-04 5.78594E-03
 -1       649 2.59107E-03 1.01085E-03 4.26369E-03
 -1       650 2.56658E-03 1.11594E-03 9.17267E-03
 -1       651 2.47758E-03 1.25162E-03 4.97621E-03
 -1       652 2.48447E-03 1.28501E-03 9.35832E-03
 -1       653 6.12938E-04 4.04871E-04 4.83313E-03
 -1       654 4.44915E-04 5.31296E-04 9.41257E-03
 -1       655 1.34065E-03 7.82964E-04 9.23460E-03
 -1       656 3.35532E-04 2.07648E-03 9.16464E-03
 -1       657 4.11777E-04 2.28009E-03 1.05361E-02
 -1       658-5.41725E-05 7.72799E-04 1.24863E-02
 -1       659 1.20467E-03 1.81271E-03 1.36751E-02
 -1       660 1.62009E-03 1.45324E-03 1.28964E-02
 -1       661-1.78493E-04 4.30125E-04 1.13160E-02
 -1       662 1.37573E-03 7.92785E-04 9.33268E-03
 -1       663 1.62955E-03 1.37118E-03 1.10283E-02
 -1       664-6.45490E-05 4.51085E-04 9.03730E-03
 -1       665 1.16987E-03 1.78289E-03 1.20547E-02
 -1       666 1.27731E-05 7.65784E-04 1.13083E-02
 -1       667 1.61122E-03 1.39965E-03 1.01087E-02
 -1       668 1.55041E-03 1.49967E-03 1.38420E-02
 -1       669 1.26918E-03 1.73521E-03 1.12438E-02
 -1       670 1.25248E-03 1.72106E-03 1.45200E-02
 -1       671 2.37753E-04 5.93874E-04 1.10531E-02
 -1       672 1.05519E-05 6.11578E-04 1.45361E-02
 -1       673 8.81988E-04 2.87368E-04 1.07652E-02
 -1       674-1.09071E-03 1.50301E-03 1.20879E-02
 -1       675-1.04991E-03 1.53175E-03 1.28818E-02
 -1       676-5.09559E-04 4.96767E-04 1.54470E-02
 -1       677-6.45509E-05 1.23841E-03 1.69742E-02
 -1       678 6.37620E-04 1.00568E-03 1.59016E-02
 -1       679-3.70870E-04 2.51088E-04 1.37710E-02
 -1       680 9.06781E-04 2.89076E-04 1.08840E-02
 -1       681-3.52505E-04 3.74086E-04 1.24939E-02
 -1       682 6.17098E-04 9.43062E-04 1.48834E-02
 -1       683-5.81206E-05 1.15726E-03 1.60650E-02
 -1       684-4.13397E-04 5.48950E-04 1.49358E-02
 -1       685 5.96904E-04 9.62423E-04 1.44273E-02
 -1       686 5.51611E-04 1.02541E-03 1.63937E-02
 -1       687 2.12443E-05 1.16878E-03 1.56831E-02
 -1       688 3.82600E-05 1.15084E-03 1.73382E-02
 -1       689-1.91651E-04 5.15290E-04 1.54946E-02
 -1       690-3.58330E-04 3.27503E-04 1.73167E-02
 -1       691 9.08686E-04-3.98646E-04 1.07111E-02
 -1       692-1.54398E-03 5.25894E-07 1.32853E-02
 -1       693-1.57277E-03 7.74878E-05 1.33369E-02
 -1       694-6.43680E-04-7.76144E-05 1.60561E-02
 -1       695-5.62870E-04 3.72392E-05 1.75338E-02
 -1       696 2.36137E-04 6.28589E-05 1.65252E-02
 -1       697-4.57160E-04-6.58277E-05 1.40237E-02
 -1       698 9.25291E-04-4.01914E-04 1.08335E-02
 -1       699-4.06142E-04 1.21824E-04 1.42522E-02
 -1       700 2.59353E-04 2.88524E-05 1.65071E-02
 -1       701-6.08542E-04-1.39044E-05 1.75609E-02
 -1       702-6.27353E-04 1.33732E-05 1.60349E-02
 -1       703 1.24304E-04 5.99494E-05 1.65343E-02
 -1       704 1.35771E-04 5.24804E-05 1.65935E-02
 -1       705-4.94538E-04 3.51679E-05 1.75655E-02
 -1       706-4.52424E-04 2.56583E-05 1.75760E-02
 -1       707-3.85763E-04 1.38962E-04 1.76994E-02
 -1       708-4.16389E-04-6.46977E-05 1.77580E-02
 -1       709 1.35299E-03-8.42427E-04 9.12823E-03
 -1       710-1.03622E-03-1.43305E-03 1.27404E-02
 -1       711-1.19995E-03-1.45401E-03 1.20149E-02
 -1       712-5.82067E-04-5.83764E-04 1.45088E-02
 -1       713-8.62455E-05-1.26338E-03 1.58313E-02
 -1       714 6.12928E-04-1.00842E-03 1.47364E-02
 -1       715-2.83419E-04-3.18831E-04 1.23593E-02
 -1       716 1.37213E-03-8.42568E-04 9.23517E-03
 -1       717-4.50547E-04-2.35085E-04 1.37541E-02
 -1       718 6.72489E-04-1.09472E-03 1.58222E-02
 -1       719-9.74908E-05-1.36880E-03 1.68227E-02
 -1       720-5.79643E-04-5.48295E-04 1.52702E-02
 -1       721 5.24791E-04-1.13758E-03 1.63923E-02
 -1       722 5.77073E-04-1.03843E-03 1.42290E-02
 -1       723 1.99098E-05-1.33645E-03 1.73029E-02
 -1       724 5.39677E-05-1.25527E-03 1.53815E-02
 -1       725-4.33716E-04-3.50545E-04 1.72718E-02
 -1       726-2.08499E-04-5.25360E-04 1.53564E-02
 -1       727 2.04917E-03-8.43405E-04 6.15585E-03
 -1       728 3.77295E-04-2.12159E-03 1.00781E-02
 -1       729 2.61441E-04-2.10782E-03 8.87293E-03
 -1       730 1.26489E-03-1.83674E-03 1.15617E-02
 -1       731 3.51826E-05-8.13507E-04 1.07866E-02
 -1       732 2.08785E-03-8.49118E-04 6.22666E-03
 -1       733 1.69050E-03-1.47877E-03 1.06884E-02
 -1       734 7.50568E-05-3.59489E-04 8.79568E-03
 -1       735-1.13631E-04-3.73387E-04 1.12687E-02
 -1       736 1.73847E-03-1.51951E-03 1.26406E-02
 -1       737 1.23618E-03-1.90426E-03 1.33724E-02
 -1       738-1.12422E-05-8.23091E-04 1.20896E-02
 -1       739 1.63828E-03-1.58215E-03 1.36480E-02
 -1       740 1.66925E-03-1.51479E-03 9.74905E-03
 -1       741 1.28662E-03-1.81455E-03 1.42513E-02
 -1       742 1.33311E-03-1.79538E-03 1.06863E-02
 -1       743 5.26975E-05-6.04984E-04 1.43213E-02
 -1       744 2.64020E-04-5.80663E-04 1.06905E-02
 -1       745 2.52706E-03-3.38691E-04 2.24760E-03
 -1       746 1.68640E-03-1.46159E-03 5.66896E-03
 -1       747 1.67310E-03-1.41515E-03 4.37791E-03
 -1       748 2.45427E-03-1.27454E-03 5.58250E-03
 -1       749 6.36655E-04-5.28084E-04 5.30081E-03
 -1       750 2.56538E-03-3.44459E-04 2.26965E-03
 -1       751 2.70110E-03-1.02899E-03 5.02650E-03
 -1       752 2.78526E-04-1.35184E-04 3.81878E-03
 -1       753 1.32683E-04-3.60561E-04 6.96729E-03
 -1       754 2.70422E-03-1.07967E-03 7.55855E-03
 -1       755 2.48272E-03-1.29676E-03 7.81847E-03
 -1       756 6.01960E-04-5.36451E-04 7.08159E-03
 -1       757 2.65834E-03-1.13651E-03 8.80355E-03
 -1       758 2.68839E-03-1.01613E-03 3.78075E-03
 -1       759 2.48254E-03-1.25494E-03 8.94725E-03
 -1       760 2.49191E-03-1.22524E-03 4.46563E-03
 -1       761 4.86474E-04-5.30479E-04 9.03092E-03
 -1       762 6.31367E-04-3.79097E-04 4.31127E-03
 -1       763 2.51321E-03 2.49008E-04-1.91275E-03
 -1       764 2.40492E-03-2.62023E-07 7.49996E-04
 -1       765 2.40812E-03-3.34847E-05-8.83981E-04
 -1       766 2.99931E-03 7.09147E-06-1.34808E-03
 -1       767 8.36669E-04-1.32635E-05-1.07380E-03
 -1       768 2.55695E-03 2.47830E-04-1.94701E-03
 -1       769 3.03892E-03 1.05276E-05-1.33819E-03
 -1       770 3.14009E-04 9.62634E-05-1.62915E-03
 -1       771 2.96754E-04-8.17345E-05 1.76003E-03
 -1       772 3.02491E-03-7.49497E-05 1.35759E-03
 -1       773 2.99565E-03-5.67523E-05 1.02969E-03
 -1       774 7.98370E-04-1.06571E-04 8.81803E-04
 -1       775 3.01573E-03-1.08949E-04 2.68637E-03
 -1       776 3.03107E-03 4.47118E-05-2.66558E-03
 -1       777 3.02507E-03-8.78503E-05 2.23765E-03
 -1       778 2.99522E-03 8.42176E-06-2.55050E-03
 -1       779 7.54622E-04-9.94671E-05 2.46912E-03
 -1       780 7.49602E-04 1.16217E-04-2.63737E-03
 -1       781 2.00570E-03 7.18291E-04-5.67544E-03
 -1       782 1.81870E-03 1.37672E-03-4.80883E-03
 -1       783 1.78346E-03 1.48651E-03-6.11342E-03
 -1       784 2.53092E-03 1.16697E-03-7.96446E-03
 -1       785 4.94076E-04 5.48847E-04-7.43599E-03
 -1       786 2.04100E-03 7.30809E-04-5.74052E-03
 -1       787 2.63544E-03 9.45625E-04-7.44710E-03
 -1       788 1.30861E-04 2.88740E-04-6.74891E-03
 -1       789 2.77816E-04 2.13364E-04-3.67800E-03
 -1       790 2.61486E-03 8.84308E-04-4.99678E-03
 -1       791 2.47932E-03 1.17102E-03-5.76650E-03
 -1       792 5.86049E-04 4.83368E-04-5.61759E-03
 -1       793 2.60610E-03 8.72946E-04-3.78197E-03
 -1       794 2.56633E-03 1.02163E-03-8.68431E-03
 -1       795 2.52217E-03 1.11112E-03-4.66277E-03
 -1       796 2.52562E-03 1.13118E-03-9.08331E-03
 -1       797 6.55497E-04 3.36912E-04-4.44243E-03
 -1       798 4.76985E-04 4.53692E-04-9.10749E-03
 -1       799 1.35125E-03 7.44078E-04-8.53042E-03
 -1       800 2.55958E-04 2.05924E-03-1.00277E-02
 -1       801 3.02852E-04 1.91197E-03-9.05231E-03
 -1       802 1.18417E-03 1.71525E-03-1.31867E-02
 -1       803-6.45788E-06 7.46192E-04-1.20549E-02
 -1       804 1.38129E-03 7.51911E-04-8.63388E-03
 -1       805 1.57316E-03 1.36384E-03-1.22546E-02
 -1       806-2.38804E-04 3.71648E-04-1.07072E-02
 -1       807-1.29149E-05 3.55883E-04-8.46016E-03
 -1       808 1.61596E-03 1.28616E-03-1.05214E-02
 -1       809 1.13680E-03 1.66047E-03-1.15834E-02
 -1       810-4.29891E-06 7.40803E-04-1.08621E-02
 -1       811 1.55269E-03 1.32473E-03-9.64458E-03
 -1       812 1.50101E-03 1.40788E-03-1.31597E-02
 -1       813 1.22780E-03 1.60372E-03-1.08166E-02
 -1       814 1.20776E-03 1.64637E-03-1.39921E-02
 -1       815 2.03400E-04 5.82147E-04-1.05800E-02
 -1       816-3.40356E-05 5.99735E-04-1.40141E-02
 -1       817-1.10419E-03 1.66459E-03-1.24751E-02
 -1       818-1.16844E-03 1.39194E-03-1.17087E-02
 -1       819-5.81968E-04 4.59113E-04-1.51744E-02
 -1       820-7.08312E-05 1.26821E-03-1.64710E-02
 -1       821 6.43519E-04 9.90302E-04-1.52780E-02
 -1       822-4.08830E-04 2.12014E-04-1.32148E-02
 -1       823-3.18108E-04 2.62392E-04-1.19338E-02
 -1       824 6.35470E-04 9.59284E-04-1.42740E-02
 -1       825-4.85436E-05 1.19079E-03-1.55551E-02
 -1       826-4.94361E-04 4.77412E-04-1.44127E-02
 -1       827 5.11490E-04 1.00784E-03-1.38108E-02
 -1       828 5.51671E-04 1.00131E-03-1.57892E-02
 -1       829 8.72566E-05 1.16738E-03-1.51320E-02
 -1       830 3.19357E-05 1.18548E-03-1.69291E-02
 -1       831-2.85535E-04 4.62262E-04-1.48873E-02
 -1       832-3.95424E-04 3.48762E-04-1.68418E-02
 -1       833 0.00000E+00 0.00000E+00 0.00000E+00
 -1       834 0.00000E+00 0.00000E+00 0.00000E+00
 -1       835 0.00000E+00 0.00000E+00 0.00000E+00
 -1       836 0.00000E+00 0.00000E+00 0.00000E+00
 -1       837 0.00000E+00 0.00000E+00 0.00000E+00
 -1       838 0.00000E+00 0.00000E+00 0.00000E+00
 -1       839 0.00000E+00 0.00000E+00 0.00000E+00
 -1       840 0.00000E+00 0.00000E+00 0.00000E+00
 -1       841 0.00000E+00 0.00000E+00 0.00000E+00
 -1       842 0.00000E+00 0.00000E+00 0.00000E+00
 -1       843 0.00000E+00 0.00000E+00 0.00000E+00
 -1       844 0.00000E+00 0.00000E+00 0.00000E+00
 -1       845 0.00000E+00 0.00000E+00 0.00000E+00
 -1       846 0.00000E+00 0.00000E+00 0.00000E+00
 -1       847 0.00000E+00 0.00000E+00 0.00000E+00
 -1       848 0.00000E+00 0.00000E+00 0.00000E+00
 -1       849 0.00000E+00 0.00000E+00 0.00000E+00
 -1       850 0.00000E+00 0.00000E+00 0.00000E+00
 -1       851 0.00000E+00 0.00000E+00 0.00000E+00
 -1       852 0.00000E+00 0.00000E+00 0.00000E+00
 -1       853 0.00000E+00 0.00000E+00 0.00000E+00
 -1       854 0.00000E+00 0.00000E+00 0.00000E+00
 -1       855 0.00000E+00 0.00000E+00 0.00000E+00
 -1       856 0.00000E+00 0.00000E+00 0.00000E+00
 -1       857 0.00000E+00 0.00000E+00 0.00000E+00
 -1       858 0.00000E+00 0.00000E+00 0.00000E+00
 -1       859 0.00000E+00 0.00000E+00 0.00000E+00
 -1       860 0.00000E+00 0.00000E+00 0.00000E+00
 -1       861 0.00000E+00 0.00000E+00 0.00000E+00
 -1       862 0.00000E+00 0.00000E+00 0.00000E+00
 -1       863 0.00000E+00 0.00000E+00 0.00000E+00
 -1       864 0.00000E+00 0.00000E+00 0.00000E+00
 -1       865 0.00000E+00 0.00000E+00 0.00000E+00
 -1       866 0.00000E+00 0.00000E+00 0.00000E+00
 -1       867 0.00000E+00 0.00000E+00 0.00000E+00
 -1       868 0.00000E+00 0.00000E+00 0.00000E+00
 -1       869 0.00000E+00 0.00000E+00 0.00000E+00
 -1       870 0.00000E+00 0.00000E+00 0.00000E+00
 -1       871 0.00000E+00 0.00000E+00 0.00000E+00
 -1       872 0.00000E+00 0.00000E+00 0.00000E+00
 -1       873 0.00000E+00 0.00000E+00 0.00000E+00
 -1       874 0.00000E+00 0.00000E+00 0.00000E+00
 -1       875 0.00000E+00 0.00000E+00 0.00000E+00
 -1       876 0.00000E+00 0.00000E+00 0.00000E+00
 -1       877 0.00000E+00 0.00000E+00 0.00000E+00
 -1       878 0.00000E+00 0.00000E+00 0.00000E+00
 -1       879 0.00000E+00 0.00000E+00 0.00000E+00
 -1       880 0.00000E+00 0.00000E+00 0.00000E+00
 -1       881 0.00000E+00 0.00000E+00 0.00000E+00
 -1       882 0.00000E+00 0.00000E+00 0.00000E+00
 -1       883 0.00000E+00 0.00000E+00 0.00000E+00
 -1       884 0.00000E+00 0.00000E+00 0.00000E+00
 -1       885 0.00000E+00 0.00000E+00 0.00000E+00
 -1       886 0.00000E+00 0.00000E+00 0.00000E+00
 -1       887 0.00000E+00 0.00000E+00 0.00000E+00
 -1       888 0.00000E+00 0.00000E+00 0.00000E+00
 -1       889 0.00000E+00 0.00000E+00 0.00000E+00
 -1       890 0.00000E+00 0.00000E+00 0.00000E+00
 -1       891 0.00000E+00 0.00000E+00 0.00000E+00
 -1       892 0.00000E+00 0.00000E+00 0.00000E+00
 -1       893 0.00000E+00 0.00000E+00 0.00000E+00
 -1       894 0.00000E+00 0.00000E+00 0.00000E+00
 -1       895 0.00000E+00 0.00000E+00 0.00000E+00
 -1       896 0.00000E+00 0.00000E+00 0.00000E+00
 -1       897 4.62799E-03-2.01917E-03 8.90747E-03
 -1       898 2.47007E-03 2.65525E-03 1.08621E-02
 -1       899 1.55980E-03-1.63035E-05 1.51583E-02
 -1       900 2.41146E-03-3.10796E-05 1.23543E-02
 -1       901 2.23091E-03-1.71995E-03 1.46066E-02
 -1       902 4.69966E-03-1.76883E-03 3.99462E-03
 -1       903 4.41830E-03 1.94081E-03 4.77242E-03
 -1       904 3.77963E-03-2.11230E-03-5.03093E-03
 -1       905 4.59966E-03-1.84326E-03-8.58688E-03
 -1       906 3.73785E-03-2.17797E-03-1.12197E-02
 -1       907 4.22917E-03-1.58359E-03-6.92999E-03
 -1       908 2.92574E-03-1.13486E-03-1.00904E-02
 -1       909 1.57177E-03-1.54994E-04-1.45426E-02
 -1       910 4.60475E-04 3.88391E-05-1.62409E-02
 -1       911-1.49112E-03-4.48712E-05-1.61059E-02
 -1       912-2.18769E-03-1.13174E-04-1.41543E-02
 -1       913 4.72597E-03 1.65711E-03-8.73948E-03
 -1       914-1.28309E-03-2.33161E-03-1.36796E-02
 -1       915 5.75356E-04-1.68724E-03-1.47654E-02
 -1       916 1.12283E-03-1.50379E-03-1.40912E-02
 -1       917 2.93310E-03-2.35045E-03-9.57798E-03
 -1       918 5.18723E-03 1.35480E-03-4.28914E-03
 -1       919 5.94766E-03 1.07188E-04-1.53153E-03
 -1       920 4.31618E-03 4.29579E-05 7.58946E-04
 -1       921 2.24362E-03 1.43146E-03-1.27824E-02
 -1       922-5.34977E-04 2.28489E-03-1.55347E-02
 -1       923-1.30871E-03 2.39107E-03-1.28830E-02
 -1       924 4.08429E-03 1.65995E-03-9.39961E-03
 -1       925 3.52846E-03 1.88794E-03-9.37926E-03
 -1       926 1.55699E-03 2.93671E-03-1.23771E-02
 -1       927 8.68836E-04 2.97147E-03-9.77600E-03
 -1       928 4.65909E-03 1.53714E-03-4.06350E-03
 -1       929 4.51188E-03 1.78259E-03-4.43357E-03
 -1       930 5.35594E-03-1.06211E-04 2.38731E-03
 -1       931 5.79577E-03 2.18862E-05-1.03867E-03
 -1       932 5.90952E-03 2.01432E-04 2.15835E-03
 -1       933 2.72518E-03-2.98707E-03 1.41112E-02
 -1       934-5.83888E-04 2.27488E-03 1.58928E-02
 -1       935 1.03787E-03 3.31682E-03 9.98500E-03
 -1       936-2.59872E-04-9.35394E-05 1.72442E-02
 -1       937 1.67700E-03-3.23870E-03 1.08421E-02
 -1       938 1.12140E-03-3.35066E-03 1.09051E-02
 -1       939-1.22253E-03-2.43508E-03 1.38254E-02
 -1       940-6.52928E-04-3.42639E-05-1.68376E-02
 -1       941-4.74455E-04-7.12694E-05-1.19029E-02
 -1       942-4.76548E-04-7.49379E-06-1.49340E-02
 -1       943-9.28406E-04-6.23176E-05-1.43050E-02
 -1       944-4.83367E-04 1.31077E-04-1.67044E-02
 -1       945-5.33759E-04 9.73994E-05-1.73210E-02
 -1       946-5.37004E-04-1.35030E-04-1.72338E-02
 -1       947-4.60872E-04-1.49563E-04-1.66110E-02
 -1       948-6.04591E-04-5.06553E-04-1.52630E-02
 -1       949-3.73435E-04-2.31805E-04-1.03077E-02
 -1       950-4.46254E-04-3.27392E-04-1.42763E-02
 -1       951-8.77374E-04-5.85080E-04-1.37401E-02
 -1       952-5.20396E-04-3.63499E-04-1.69786E-02
 -1       953-3.73791E-04-4.99502E-04-1.50176E-02
 -1       954-2.23464E-04-4.77756E-04-1.43370E-02
 -1       955 9.64526E-05-6.63732E-04-1.09409E-02
 -1       956-1.60503E-04-2.26110E-04-6.99169E-03
 -1       957-1.20951E-04-5.00610E-04-1.14355E-02
 -1       958-2.60062E-04-7.58764E-04-1.08923E-02
 -1       959-8.14643E-05-6.08183E-04-1.39917E-02
 -1       960 1.49239E-04-6.36513E-04-1.04015E-02
 -1       961 2.31694E-04-5.78629E-04-9.74383E-03
 -1       962 4.36177E-04-5.25100E-04-4.63577E-03
 -1       963 5.54128E-04-3.98473E-04-5.29667E-03
 -1       964 3.58744E-05-9.87450E-05-2.64519E-03
 -1       965 2.86997E-04-3.68623E-04-6.84393E-03
 -1       966 4.06185E-04-5.37605E-04-6.10562E-03
 -1       967 4.35053E-04-4.59808E-04-8.45446E-03
 -1       968 3.94010E-04-4.63218E-04-8.61672E-03
 -1       969 5.72463E-04-3.37320E-04-4.16445E-03
 -1       970 6.27296E-04-2.64971E-04-3.65493E-03
 -1       971 7.84900E-04 7.18217E-05 1.50076E-03
 -1       972 1.17597E-04 1.45476E-04 2.28920E-03
 -1       973 4.20574E-04-7.15250E-05-1.06188E-03
 -1       974 7.22324E-04 4.98725E-05-4.44673E-04
 -1       975 6.62906E-04-9.41083E-05-2.24115E-03
 -1       976 7.08838E-04-4.16455E-05-2.03791E-03
 -1       977 6.69994E-04 1.67603E-04 2.92767E-03
 -1       978 6.70016E-04 1.81078E-04 3.09630E-03
 -1       979 3.77745E-04 6.57954E-04 6.86099E-03
 -1       980 6.28153E-04 5.41056E-04 7.89022E-03
 -1       981-1.08601E-04 2.94860E-04 6.84829E-03
 -1       982 3.28686E-04 3.38584E-04 4.89940E-03
 -1       983 4.01743E-04 6.38592E-04 5.40814E-03
 -1       984 5.87032E-04 4.06070E-04 4.56303E-03
 -1       985 5.90685E-04 4.38999E-04 4.94702E-03
 -1       986 4.80605E-04 5.52265E-04 9.37920E-03
 -1       987 4.94145E-04 4.88025E-04 9.35097E-03
 -1       988-1.65427E-04 8.48290E-04 1.14754E-02
 -1       989 1.17956E-04 7.39190E-04 1.33721E-02
 -1       990-2.62933E-04 3.47671E-04 1.03046E-02
 -1       991 2.49321E-05 4.90156E-04 1.00957E-02
 -1       992-4.87610E-05 8.34409E-04 1.03098E-02
 -1       993 2.33223E-04 5.81354E-04 1.05796E-02
 -1       994 1.74871E-04 6.70645E-04 1.12407E-02
 -1       995-2.70679E-05 6.26686E-04 1.45563E-02
 -1       996 1.96599E-05 5.82949E-04 1.42743E-02
 -1       997-3.21783E-04 4.84745E-04 1.64541E-02
 -1       998-4.08302E-04 2.20014E-04 1.23181E-02
 -1       999-3.39653E-04 3.87518E-04 1.38228E-02
 -1      1000-6.52994E-04 5.33990E-04 1.34310E-02
 -1      1001-1.40699E-04 5.20174E-04 1.50775E-02
 -1      1002-2.32540E-04 5.49237E-04 1.57487E-02
 -1      1003-3.95256E-04 2.98504E-04 1.74059E-02
 -1      1004-3.51232E-04 2.96239E-04 1.68951E-02
 -1      1005-4.51985E-04-1.98163E-05 1.69717E-02
 -1      1006-4.75728E-04-4.67606E-05 1.25406E-02
 -1      1007-3.93919E-04 6.09788E-05 1.55350E-02
 -1      1008-7.21663E-04-2.73656E-05 1.45865E-02
 -1      1009-3.89999E-04 1.61937E-04 1.71336E-02
 -1      1010-5.25665E-04 1.29191E-04 1.77244E-02
 -1      1011-4.49929E-04-1.09204E-04 1.77197E-02
 -1      1012-3.94415E-04-9.22904E-05 1.71764E-02
 -1      1013-7.37927E-04-5.98076E-04 1.33556E-02
 -1      1014-4.23540E-04-5.22522E-04 1.53396E-02
 -1      1015-2.65642E-04-2.33016E-04 1.09249E-02
 -1      1016-3.68845E-04-3.04082E-04 1.50265E-02
 -1      1017-6.57002E-04-5.66455E-04 1.39463E-02
 -1      1018-3.45083E-04-3.36237E-04 1.68574E-02
 -1      1019-4.54905E-04-3.69209E-04 1.73545E-02
 -1      1020-2.52092E-04-5.48720E-04 1.55190E-02
 -1      1021-1.73283E-04-5.14213E-04 1.48659E-02
 -1      1022-1.66633E-04-8.67770E-04 9.73467E-03
 -1      1023 1.38709E-04-7.28571E-04 1.12869E-02
 -1      1024-4.60259E-05-2.78201E-04 7.55813E-03
 -1      1025 2.79715E-05-5.26627E-04 1.20302E-02
 -1      1026-2.00578E-04-9.02892E-04 1.10019E-02
 -1      1027 7.49598E-05-5.81148E-04 1.40310E-02
 -1      1028 2.78357E-05-6.21085E-04 1.43393E-02
 -1      1029 2.68974E-04-6.21348E-04 1.07496E-02
 -1      1030 2.99181E-04-5.99334E-04 1.02149E-02
 -1      1031 6.06651E-04-4.90508E-04 5.50627E-03
 -1      1032 6.83729E-05-1.03810E-04 3.18883E-03
 -1      1033 3.50275E-04-4.16494E-04 7.33000E-03
 -1      1034 5.21307E-04-5.62872E-04 6.24325E-03
 -1      1035 4.56529E-04-5.12398E-04 8.98976E-03
 -1      1036 4.41062E-04-5.30067E-04 9.00576E-03
 -1      1037 5.90432E-04-4.02290E-04 4.40984E-03
 -1      1038 6.40055E-04-3.55605E-04 4.04170E-03
 -1      1039 7.86169E-04 1.29346E-05-1.27984E-03
 -1      1040 1.25309E-04 5.97066E-05-1.72477E-03
 -1      1041 4.72613E-04-7.28687E-05 1.56069E-03
 -1      1042 7.37183E-04-3.45837E-05 6.86681E-04
 -1      1043 6.87712E-04-1.08685E-04 2.60047E-03
 -1      1044 7.13216E-04-7.47178E-05 2.32508E-03
 -1      1045 7.16261E-04 8.95426E-05-2.55284E-03
 -1      1046 6.67515E-04 1.40838E-04-2.67440E-03
 -1      1047 5.09039E-04 5.98369E-04-6.81139E-03
 -1      1048 5.68088E-04 4.92272E-04-7.79887E-03
 -1      1049-4.30460E-05 2.46324E-04-6.21404E-03
 -1      1050 3.35030E-04 2.85999E-04-4.32831E-03
 -1      1051 5.77206E-04 5.58122E-04-5.34327E-03
 -1      1052 5.81933E-04 3.06283E-04-4.10781E-03
 -1      1053 6.19945E-04 3.64538E-04-4.54610E-03
 -1      1054 4.69632E-04 4.50120E-04-9.09314E-03
 -1      1055 4.27968E-04 4.59708E-04-8.92769E-03
 -1      1056-2.02146E-04 8.14307E-04-1.10700E-02
 -1      1057 8.23640E-05 6.93412E-04-1.27793E-02
 -1      1058-3.26006E-04 2.68100E-04-9.73787E-03
 -1      1059 1.19132E-04 4.50236E-04-9.69657E-03
 -1      1060-1.97928E-04 7.54149E-04-9.92430E-03
 -1      1061 2.20476E-04 5.80831E-04-1.01030E-02
 -1      1062 1.74572E-04 6.22789E-04-1.07612E-02
 -1      1063-5.83343E-05 6.13982E-04-1.40581E-02
 -1      1064-1.68250E-05 5.61655E-04-1.36370E-02
 -1      1065-4.05171E-04 4.51661E-04-1.61950E-02
 -1      1066-4.49694E-04 1.21530E-04-1.16548E-02
 -1      1067-3.71356E-04 3.37063E-04-1.31593E-02
 -1      1068-6.40018E-04 5.94370E-04-1.31855E-02
 -1      1069-2.27204E-04 4.81731E-04-1.43827E-02
 -1      1070-3.03891E-04 5.01798E-04-1.51083E-02
 -1      1071-4.45113E-04 3.55995E-04-1.69667E-02
 -1      1072-4.14558E-04 3.12487E-04-1.63593E-02
 -1      1073 0.00000E+00 0.00000E+00 0.00000E+00
 -1      1074 0.00000E+00 0.00000E+00 0.00000E+00
 -1      1075 0.00000E+00 0.00000E+00 0.00000E+00
 -1      1076 0.00000E+00 0.00000E+00 0.00000E+00
 -1      1077 0.00000E+00 0.00000E+00 0.00000E+00
 -1      1078 0.00000E+00 0.00000E+00 0.00000E+00
 -1      1079 0.00000E+00 0.00000E+00 0.00000E+00
 -1      1080 0.00000E+00 0.00000E+00 0.00000E+00
 -1      1081 0.00000E+00 0.00000E+00 0.00000E+00
 -1      1082 0.00000E+00 0.00000E+00 0.00000E+00
 -1      1083 0.00000E+00 0.00000E+00 0.00000E+00
 -1      1084 0.00000E+00 0.00000E+00 0.00000E+00
 -1      1085 0.00000E+00 0.00000E+00 0.00000E+00
 -1      1086 0.00000E+00 0.00000E+00 0.00000E+00
 -1      1087 0.00000E+00 0.00000E+00 0.00000E+00
 -1      1088 0.00000E+00 0.00000E+00 0.00000E+00
 -1      1089 0.00000E+00 0.00000E+00 0.00000E+00
 -1      1090 0.00000E+00 0.00000E+00 0.00000E+00
 -1      1091 0.00000E+00 0.00000E+00 0.00000E+00
 -1      1092 0.00000E+00 0.00000E+00 0.00000E+00
 -1      1093 0.00000E+00 0.00000E+00 0.00000E+00
 -1      1094 0.00000E+00 0.00000E+00 0.00000E+00
 -1      1095 0.00000E+00 0.00000E+00 0.00000E+00
 -1      1096 0.00000E+00 0.00000E+00 0.00000E+00
 -1      1097 0.00000E+00 0.00000E+00 0.00000E+00
 -1      1098 0.00000E+00 0.00000E+00 0.00000E+00
 -1      1099 0.00000E+00 0.00000E+00 0.00000E+00
 -1      1100 0.00000E+00 0.00000E+00 0.00000E+00
 -1      1101 0.00000E+00 0.00000E+00 0.00000E+00
 -1      1102 0.00000E+00 0.00000E+00 0.00000E+00
 -1      1103 0.00000E+00 0.00000E+00 0.00000E+00
 -1      1104 0.00000E+00 0.00000E+00 0.00000E+00
 -1      1105 0.00000E+00 0.00000E+00 0.00000E+00
 -1      1106 0.00000E+00 0.00000E+00 0.00000E+00
 -1      1107 0.00000E+00 0.00000E+00 0.00000E+00
 -1      1108 0.00000E+00 0.00000E+00 0.00000E+00
 -1      1109 0.00000E+00 0.00000E+00 0.00000E+00
 -1      1110 0.00000E+00 0.00000E+00 0.00000E+00
 -1      1111 0.00000E+00 0.00000E+00 0.00000E+00
 -1      1112 0.00000E+00 0.00000E+00 0.00000E+00
 -1      1113 0.00000E+00 0.00000E+00 0.00000E+00
 -1      1114 0.00000E+00 0.00000E+00 0.00000E+00
 -1      1115 0.00000E+00 0.00000E+00 0.00000E+00
 -1      1116 0.00000E+00 0.00000E+00 0.00000E+00
 -1      1117 0.00000E+00 0.00000E+00 0.00000E+00
 -1      1118 0.00000E+00 0.00000E+00 0.00000E+00
 -1      1119 0.00000E+00 0.00000E+00 0.00000E+00
 -1      1120 0.00000E+00 0.00000E+00 0.00000E+00
 -1      1121 0.00000E+00 0.00000E+00 0.00000E+00
 -1      1122 0.00000E+00 0.00000E+00 0.00000E+00
 -1      1123 0.00000E+00 0.00000E+00 0.00000E+00
 -1      1124 0.00000E+00 0.00000E+00 0.00000E+00
 -1      1125 0.00000E+00 0.00000E+00 0.00000E+00
 -1      1126 0.00000E+00 0.00000E+00 0.00000E+00
 -1      1127 0.00000E+00 0.00000E+00 0.00000E+00
 -1      1128 0.00000E+00 0.00000E+00 0.00000E+00
 -1      1129 0.00000E+00 0.00000E+00 0.00000E+00
 -1      1130 0.00000E+00 0.00000E+00 0.00000E+00
 -1      1131 0.00000E+00 0.00000E+00 0.00000E+00
 -1      1132 0.00000E+00 0.00000E+00 0.00000E+00
 -1      1133 0.00000E+00 0.00000E+00 0.00000E+00
 -1      1134 5.79101E-04 1.70046E-03 1.52652E-02
 -1      1135 1.10411E-03 1.54185E-03 1.46543E-02
 -1      1136 1.26467E-03 1.83794E-03 1.66509E-02
 -1      1137 6.53033E-04 2.04782E-03 1.71932E-02
 -1      1138 4.77657E-03-1.87573E-03 8.78348E-03
 -1      1139 4.62580E-03 1.82256E-03 9.14582E-03
 -1      1140 4.51973E-03 1.99338E-03 9.29791E-03
 -1      1141 2.87600E-03 2.33908E-03 1.03542E-02
 -1      1142 3.00873E-03 2.56152E-03 1.40616E-02
 -1      1143 2.69303E-03 2.86746E-03 1.44145E-02
 -1      1144 2.47129E-03-1.57417E-04 1.24205E-02
 -1      1145 1.54724E-03 1.37363E-04 1.52350E-02
 -1      1146 3.04822E-03-1.25992E-03 1.07557E-02
 -1      1147 2.13005E-03-1.57101E-03 1.34556E-02
 -1      1148 2.95029E-03-1.42465E-03 1.20553E-02
 -1      1149 4.50231E-03-1.98523E-03 4.25950E-03
 -1      1150 2.85073E-03 1.26420E-03 1.21189E-02
 -1      1151 2.16344E-03 1.39491E-03 1.35714E-02
 -1      1152 2.93957E-03 1.08918E-03 1.08973E-02
 -1      1153 2.16002E-03 1.51278E-03 1.46016E-02
 -1      1154 4.58042E-03 1.70234E-03 4.49335E-03
 -1      1155 4.66475E-03-1.57094E-03-3.55097E-03
 -1      1156 4.46275E-03-1.78927E-03-3.90731E-03
 -1      1157 3.23011E-03-2.18102E-03-6.06701E-03
 -1      1158 3.95952E-03-2.08477E-03-7.10037E-03
 -1      1159 3.10181E-03-2.26864E-03-4.52019E-03
 -1      1160 5.39582E-03-1.06289E-03-2.65940E-03
 -1      1161 5.18071E-03-1.47234E-03-6.60768E-03
 -1      1162 5.38267E-03-1.34074E-03-5.73914E-03
 -1      1163 5.23720E-03-1.38585E-03-3.86516E-03
 -1      1164 4.74075E-03-1.68260E-03-8.34553E-03
 -1      1165 4.14857E-03-1.84627E-03-9.30890E-03
 -1      1166 3.73070E-03-2.03952E-03-9.04623E-03
 -1      1167 2.28217E-03-1.60142E-03-1.40474E-02
 -1      1168 2.92330E-03-1.31333E-03-1.13756E-02
 -1      1169 2.23898E-03-1.49142E-03-1.27936E-02
 -1      1170 2.46662E-03-1.16397E-05-1.16857E-02
 -1      1171 1.57635E-03 1.69896E-05-1.46015E-02
 -1      1172 2.37678E-03-1.14515E-04-1.17031E-02
 -1      1173-1.75501E-04 3.05770E-05-1.68424E-02
 -1      1174-2.11965E-04-3.24439E-04-1.70234E-02
 -1      1175 4.95731E-04-3.06485E-04-1.64256E-02
 -1      1176-2.21793E-03-2.40915E-05-1.41944E-02
 -1      1177-1.45197E-03-2.68471E-04-1.62442E-02
 -1      1178 4.62958E-03 1.81966E-03-8.99709E-03
 -1      1179 1.14359E-03-3.20963E-03-1.08328E-02
 -1      1180 1.80293E-03-3.15469E-03-1.21582E-02
 -1      1181 1.58873E-03-3.10590E-03-1.06342E-02
 -1      1182 1.06954E-03-3.15619E-03-9.47782E-03
 -1      1183-5.76728E-04-2.24455E-03-1.54319E-02
 -1      1184-5.55969E-04-2.02008E-03-1.46463E-02
 -1      1185-1.36169E-03-2.31955E-03-1.29246E-02
 -1      1186 6.40253E-04-2.03580E-03-1.65418E-02
 -1      1187 1.27004E-03-1.84488E-03-1.59544E-02
 -1      1188 2.58026E-03-2.66021E-03-1.01404E-02
 -1      1189 2.70396E-03-2.87879E-03-1.36922E-02
 -1      1190 3.08541E-03-2.57844E-03-1.32722E-02
 -1      1191 4.02602E-03 2.01684E-03-7.58943E-03
 -1      1192 3.28834E-03 2.20305E-03-6.72365E-03
 -1      1193 3.21044E-03 2.18234E-03-5.11139E-03
 -1      1194 3.83285E-03 2.05818E-03-5.54773E-03
 -1      1195 5.44731E-03 1.26586E-03-6.04207E-03
 -1      1196 5.18228E-03 1.38236E-03-7.00712E-03
 -1      1197 5.49810E-03 9.90366E-04-2.97318E-03
 -1      1198 5.83183E-03-2.21666E-05-1.39254E-03
 -1      1199 4.87810E-03-5.00705E-05-1.28838E-03
 -1      1200 5.78006E-03-8.66449E-05 1.47205E-03
 -1      1201 5.93183E-03-2.77901E-04 1.79043E-03
 -1      1202 4.28772E-03-5.45761E-05-9.98682E-04
 -1      1203 4.88422E-03-9.66960E-06 9.91835E-04
 -1      1204 2.84977E-03 1.28891E-03-1.14270E-02
 -1      1205 2.25889E-03 1.57228E-03-1.40094E-02
 -1      1206 2.98891E-03 1.05569E-03-1.01974E-02
 -1      1207 1.28841E-03 1.78862E-03-1.59991E-02
 -1      1208 6.82567E-04 1.99482E-03-1.65803E-02
 -1      1209 5.78672E-04 1.66235E-03-1.48493E-02
 -1      1210 1.12525E-03 1.47716E-03-1.41889E-02
 -1      1211-1.26173E-03 2.54769E-03-1.37405E-02
 -1      1212-4.92162E-04 2.04074E-03-1.47350E-02
 -1      1213 3.72734E-03 1.95772E-03-1.14280E-02
 -1      1214 4.24960E-03 1.45652E-03-7.16951E-03
 -1      1215 2.90589E-03 2.37047E-03-1.33641E-02
 -1      1216 2.57432E-03 2.65454E-03-1.38140E-02
 -1      1217 2.35782E-03 2.48211E-03-1.05181E-02
 -1      1218 2.77593E-03 2.15460E-03-9.94156E-03
 -1      1219 9.04957E-04 3.08650E-03-1.08938E-02
 -1      1220 1.47742E-03 2.90797E-03-1.09501E-02
 -1      1221 5.42989E-03-1.30716E-04 2.55845E-03
 -1      1222 5.34354E-03-1.66258E-03 7.20474E-03
 -1      1223 5.58828E-03-1.23234E-03 3.17532E-03
 -1      1224 5.28995E-03-1.57875E-03 4.36393E-03
 -1      1225 5.48933E-03-1.49440E-03 6.35437E-03
 -1      1226 3.20189E-03-2.24814E-03 6.29808E-03
 -1      1227 3.75105E-03-2.28805E-03 5.33502E-03
 -1      1228 3.04928E-03-2.30553E-03 4.76352E-03
 -1      1229 3.91909E-03-2.19900E-03 7.30537E-03
 -1      1230 5.43054E-03 1.01301E-04 3.02615E-03
 -1      1231 5.39328E-03 7.69347E-05 2.97170E-03
 -1      1232 4.17084E-03 1.39620E-04-5.48513E-04
 -1      1233 4.78040E-03 1.15259E-04-6.67187E-04
 -1      1234 5.91359E-03-1.44901E-04-1.13835E-03
 -1      1235 5.83629E-03 7.98352E-05 1.96308E-03
 -1      1236 4.76015E-03-3.75623E-06 1.51335E-03
 -1      1237 4.13196E-03 8.04297E-05 1.17535E-03
 -1      1238 5.36990E-03 5.88806E-05-2.08097E-03
 -1      1239 5.12087E-03 1.47252E-03 4.84131E-03
 -1      1240 5.47944E-03 1.13218E-03 3.49130E-03
 -1      1241 5.37314E-03 1.37854E-03 6.57553E-03
 -1      1242 5.19514E-03 1.56089E-03 7.53199E-03
 -1      1243 3.02321E-03 2.35059E-03 5.20461E-03
 -1      1244 3.70595E-03 2.25171E-03 5.77478E-03
 -1      1245 3.91429E-03 2.20103E-03 7.77074E-03
 -1      1246 3.12656E-03 2.33159E-03 6.79381E-03
 -1      1247 5.43314E-03 1.50095E-05-2.18497E-03
 -1      1248 3.14031E-03-2.66168E-03 1.38122E-02
 -1      1249 5.41809E-03-3.76851E-05-2.64792E-03
 -1      1250 5.39714E-03-4.41185E-05-2.60379E-03
 -1      1251 4.13396E-03 1.82673E-03 1.00835E-02
 -1      1252 3.84519E-03-2.32470E-03 1.18074E-02
 -1      1253 4.29403E-03-1.71875E-03 7.62441E-03
 -1      1254 3.75672E-03-2.22046E-03 9.61187E-03
 -1      1255 4.14386E-03-2.01202E-03 9.99970E-03
 -1      1256 3.55742E-03 2.04268E-03 9.96180E-03
 -1      1257 4.21315E-03 1.63762E-03 7.76182E-03
 -1      1258 3.70895E-03 2.15005E-03 1.19503E-02
 -1      1259 2.93355E-03-2.49659E-03 1.00012E-02
 -1      1260 2.59006E-03-2.78025E-03 1.04536E-02
 -1      1261 1.11549E-03-1.69570E-03 1.44645E-02
 -1      1262 5.68633E-04-1.88053E-03 1.50247E-02
 -1      1263-1.29460E-03 2.39224E-03 1.31917E-02
 -1      1264 6.48249E-04-2.21344E-03 1.71219E-02
 -1      1265 1.26084E-03-2.00237E-03 1.66194E-02
 -1      1266-2.15438E-03-2.65153E-05 1.44080E-02
 -1      1267-1.47307E-03-7.03380E-05 1.64332E-02
 -1      1268-1.54582E-03 1.49168E-04 1.65309E-02
 -1      1269-2.18737E-03 6.57838E-05 1.44494E-02
 -1      1270-5.62415E-04 2.04413E-03 1.50971E-02
 -1      1271-1.26489E-03 2.45229E-03 1.39585E-02
 -1      1272 1.58939E-03 3.13307E-03 1.13686E-02
 -1      1273 1.72250E-03 3.22386E-03 1.29980E-02
 -1      1274 1.08639E-03 3.42254E-03 1.14610E-02
 -1      1275 4.70802E-04-6.88938E-05 1.67298E-02
 -1      1276 4.69270E-04 3.13917E-04 1.69653E-02
 -1      1277-1.94951E-04 3.03828E-04 1.74620E-02
 -1      1278 9.57609E-04-3.33350E-03 9.64800E-03
 -1      1279 1.89930E-03-3.32239E-03 1.25127E-02
 -1      1280-5.51735E-04-2.20175E-03 1.48530E-02
 -1      1281-1.33936E-03-2.43948E-03 1.30671E-02
 -1      1282-5.57440E-04-2.42800E-03 1.57262E-02
 -1      1283-9.21766E-04-8.43565E-05-1.43799E-02
 -1      1284-4.99315E-04-5.91939E-05-1.48585E-02
 -1      1285-4.70396E-04 4.16557E-05-1.18841E-02
 -1      1286-6.43748E-04-3.29692E-05-1.68116E-02
 -1      1287-9.19286E-04-5.73901E-04-1.31841E-02
 -1      1288-3.40769E-04-3.57641E-04-1.31434E-02
 -1      1289-5.03240E-04-9.98993E-05-1.16796E-02
 -1      1290-5.92605E-04-4.85583E-04-1.60296E-02
 -1      1291-3.94651E-04-2.89027E-04-1.63606E-02
 -1      1292-2.45697E-04-7.42897E-04-9.72066E-03
 -1      1293-4.90054E-05-4.37158E-04-9.27163E-03
 -1      1294-2.87798E-04-2.75533E-04-9.50230E-03
 -1      1295-3.18846E-05-7.16088E-04-1.25540E-02
 -1      1296-5.12651E-05-5.36049E-04-1.36115E-02
 -1      1297 3.26094E-04-2.54416E-04-3.94929E-03
 -1      1298-9.32155E-05-2.21906E-04-5.89661E-03
 -1      1299 4.94832E-04-4.47912E-04-7.27913E-03
 -1      1300 7.35842E-04 5.83489E-05 1.13172E-03
 -1      1301 4.06234E-04 7.08600E-05 1.99046E-03
 -1      1302 8.63445E-05-5.91455E-05-1.26822E-03
 -1      1303 7.56717E-04 2.05902E-05-6.35954E-04
 -1      1304 2.87759E-04 4.35743E-04 7.70871E-03
 -1      1305 1.02665E-04 1.36685E-04 3.50892E-03
 -1      1306 6.16282E-04 5.62151E-04 6.03406E-03
 -1      1307-1.36420E-04 5.45494E-04 1.22503E-02
 -1      1308-1.54649E-04 3.07435E-04 7.86436E-03
 -1      1309 8.73998E-05 7.50081E-04 1.18876E-02
 -1      1310-7.60319E-04 6.14052E-04 1.40775E-02
 -1      1311-3.58164E-04 3.62869E-04 1.49094E-02
 -1      1312-3.71802E-04 3.09410E-04 1.10353E-02
 -1      1313-3.26707E-04 5.20465E-04 1.56087E-02
 -1      1314-8.50713E-04 1.35555E-06 1.45197E-02
 -1      1315-4.68376E-04 1.36219E-05 1.54945E-02
 -1      1316-4.49103E-04 1.02747E-04 1.26929E-02
 -1      1317-5.71161E-04 3.37882E-05 1.70082E-02
 -1      1318-2.48134E-04-3.69203E-04 1.37159E-02
 -1      1319-4.73710E-04-1.45852E-04 1.23182E-02
 -1      1320-3.91528E-04-5.31266E-04 1.61771E-02
 -1      1321 9.32720E-05-4.30526E-04 9.86439E-03
 -1      1322-2.52890E-04-2.67258E-04 1.02021E-02
 -1      1323 1.58809E-04-7.52953E-04 1.28235E-02
 -1      1324 4.62502E-04-5.48657E-04 4.88535E-03
 -1      1325 4.15526E-04-2.54378E-04 4.43320E-03
 -1      1326-1.28088E-05-2.83231E-04 6.54987E-03
 -1      1327 5.49991E-04-5.18335E-04 7.50595E-03
 -1      1328 7.20606E-04-3.98572E-05-9.21180E-04
 -1      1329 4.15464E-04 9.63555E-05-1.46801E-03
 -1      1330 1.26443E-04-6.60459E-05 1.86557E-03
 -1      1331 8.56700E-04-6.18278E-05 8.98442E-04
 -1      1332 3.50526E-04 3.45990E-04-7.16648E-03
 -1      1333 1.23266E-04 1.32822E-04-2.91329E-03
 -1      1334 6.32195E-04 4.25145E-04-5.81742E-03
 -1      1335-7.04109E-05 5.07880E-04-1.16745E-02
 -1      1336-8.97044E-05 2.55871E-04-7.24033E-03
 -1      1337 8.35582E-05 6.96833E-04-1.14471E-02
 -1      1338-6.07176E-04 5.61666E-04-1.37914E-02
 -1      1339-4.01300E-04 3.00825E-04-1.43507E-02
 -1      1340-3.66802E-04 2.31682E-04-1.03543E-02
 -1      1341-4.10260E-04 5.14742E-04-1.53085E-02
 -1      1342 0.00000E+00 0.00000E+00 0.00000E+00
 -1      1343 0.00000E+00 0.00000E+00 0.00000E+00
 -1      1344 0.00000E+00 0.00000E+00 0.00000E+00
 -1      1345 0.00000E+00 0.00000E+00 0.00000E+00
 -1      1346 0.00000E+00 0.00000E+00 0.00000E+00
 -1      1347 0.00000E+00 0.00000E+00 0.00000E+00
 -1      1348 0.00000E+00 0.00000E+00 0.00000E+00
 -1      1349 0.00000E+00 0.00000E+00 0.00000E+00
 -1      1350 0.00000E+00 0.00000E+00 0.00000E+00
 -1      1351 0.00000E+00 0.00000E+00 0.00000E+00
 -1      1352 0.00000E+00 0.00000E+00 0.00000E+00
 -1      1353 0.00000E+00 0.00000E+00 0.00000E+00
 -1      1354 0.00000E+00 0.00000E+00 0.00000E+00
 -1      1355 0.00000E+00 0.00000E+00 0.00000E+00
 -1      1356 0.00000E+00 0.00000E+00 0.00000E+00
 -1      1357 0.00000E+00 0.00000E+00 0.00000E+00
 -1      1358 0.00000E+00 0.00000E+00 0.00000E+00
 -1      1359 0.00000E+00 0.00000E+00 0.00000E+00
 -1      1360 0.00000E+00 0.00000E+00 0.00000E+00
 -1      1361 0.00000E+00 0.00000E+00 0.00000E+00
 -1      1362 0.00000E+00 0.00000E+00 0.00000E+00
 -1      1363 0.00000E+00 0.00000E+00 0.00000E+00
 -1      1364 0.00000E+00 0.00000E+00 0.00000E+00
 -1      1365 0.00000E+00 0.00000E+00 0.00000E+00
 -1      1366 0.00000E+00 0.00000E+00 0.00000E+00
 -1      1367 0.00000E+00 0.00000E+00 0.00000E+00
 -1      1368 0.00000E+00 0.00000E+00 0.00000E+00
 -1      1369 0.00000E+00 0.00000E+00 0.00000E+00
 -1      1370 0.00000E+00 0.00000E+00 0.00000E+00
 -1      1371 0.00000E+00 0.00000E+00 0.00000E+00
 -1      1372 0.00000E+00 0.00000E+00 0.00000E+00
 -1      1373 0.00000E+00 0.00000E+00 0.00000E+00
 -1      1374 0.00000E+00 0.00000E+00 0.00000E+00
 -1      1375 0.00000E+00 0.00000E+00 0.00000E+00
 -1      1376 0.00000E+00 0.00000E+00 0.00000E+00
 -1      1377 0.00000E+00 0.00000E+00 0.00000E+00
 -1      1378 0.00000E+00 0.00000E+00 0.00000E+00
 -1      1379 0.00000E+00 0.00000E+00 0.00000E+00
 -1      1380 0.00000E+00 0.00000E+00 0.00000E+00
 -1      1381 0.00000E+00 0.00000E+00 0.00000E+00
 -1      1382 0.00000E+00 0.00000E+00 0.00000E+00
 -1      1383 0.00000E+00 0.00000E+00 0.00000E+00
 -1      1384 0.00000E+00 0.00000E+00 0.00000E+00
 -1      1385 0.00000E+00 0.00000E+00 0.00000E+00
 -1      1386 0.00000E+00 0.00000E+00 0.00000E+00
 -1      1387 0.00000E+00 0.00000E+00 0.00000E+00
 -1      1388 0.00000E+00 0.00000E+00 0.00000E+00
 -1      1389 0.00000E+00 0.00000E+00 0.00000E+00
 -1      1390 0.00000E+00 0.00000E+00 0.00000E+00
 -1      1391 0.00000E+00 0.00000E+00 0.00000E+00
 -1      1392 0.00000E+00 0.00000E+00 0.00000E+00
 -1      1393 0.00000E+00 0.00000E+00 0.00000E+00
 -1      1394 0.00000E+00 0.00000E+00 0.00000E+00
 -1      1395 0.00000E+00 0.00000E+00 0.00000E+00
 -1      1396 0.00000E+00 0.00000E+00 0.00000E+00
 -1      1397 0.00000E+00 0.00000E+00 0.00000E+00
 -1      1398 0.00000E+00 0.00000E+00 0.00000E+00
 -1      1399 0.00000E+00 0.00000E+00 0.00000E+00
 -1      1400 0.00000E+00 0.00000E+00 0.00000E+00
 -1      1401 0.00000E+00 0.00000E+00 0.00000E+00
 -1      1402 0.00000E+00 0.00000E+00 0.00000E+00
 -1      1403 0.00000E+00 0.00000E+00 0.00000E+00
 -1      1404 0.00000E+00 0.00000E+00 0.00000E+00
 -1      1405 0.00000E+00 0.00000E+00 0.00000E+00
 -1      1406 0.00000E+00 0.00000E+00 0.00000E+00
 -1      1407 0.00000E+00 0.00000E+00 0.00000E+00
 -1      1408 0.00000E+00 0.00000E+00 0.00000E+00
 -1      1409-1.29510E-04 1.64675E-04-7.03778E-03
 -1      1410-1.61482E-04 1.45341E-04 7.73606E-03
 -1      1411-1.68518E-04-1.38987E-04 7.57050E-03
 -1      1412 4.09789E-03-1.51616E-03 7.53977E-03
 -1      1413 3.32832E-03-1.16929E-03 6.17973E-03
 -1      1414 3.26903E-03-1.15227E-03 6.10701E-03
 -1      1415 5.15589E-03 9.01858E-04-3.72643E-03
 -1      1416-9.22368E-05-8.94137E-05-3.52525E-03
 -1      1417-2.63032E-04 2.50648E-05 1.06471E-02
 -1      1418 2.97988E-03-1.10367E-03 9.74266E-03
 -1      1419 5.18043E-03-1.00034E-03-3.47402E-03
 -1      1420-6.03769E-05-1.27738E-04 4.16842E-03
 -1      1421-3.03611E-05 2.14870E-05 4.63163E-04
 -1      1422-2.98083E-04 7.92545E-05-9.18656E-03
 -1      1423 2.57406E-03-1.57555E-04 1.06019E-02
 -1      1424 2.99953E-03 1.02594E-03 9.85751E-03
 -1      1425 2.35503E-03-1.11274E-03 9.18867E-03
 -1      1426 2.33145E-03-1.11556E-03 9.07804E-03
 -1      1427 5.31339E-04-5.33111E-04 9.20101E-03
 -1      1428 5.04033E-04-5.30077E-04 9.10301E-03
 -1      1429-2.62362E-04 1.17740E-04 9.94100E-03
 -1      1430 5.53849E-03 2.71565E-05 4.68595E-04
 -1      1431-4.65476E-05 1.20751E-04-3.75215E-03
 -1      1432-2.74312E-04-9.86141E-05-9.18202E-03
 -1      1433 4.09937E-03-1.43717E-03-6.86330E-03
 -1      1434-1.96909E-04-1.03841E-04-6.88891E-03
 -1      1435-3.20066E-04 9.19712E-06-9.98156E-03
 -1      1436 2.53775E-03-5.26498E-05-9.94586E-03
 -1      1437 3.04136E-03-1.08619E-03-9.16744E-03
 -1      1438-4.27542E-05 1.14387E-04 4.39754E-03
 -1      1439 4.07858E-03 1.47474E-03 7.65776E-03
 -1      1440 9.65852E-04-5.07037E-04 6.15835E-03
 -1      1441 9.30317E-04-5.07729E-04 6.10610E-03
 -1      1442 4.35276E-05-2.71049E-06 1.88829E-04
 -1      1443 9.59316E-04 4.45914E-04-5.72402E-03
 -1      1444 9.34475E-04 4.47971E-04-5.66169E-03
 -1      1445 1.97950E-04 1.89425E-04 1.07716E-02
 -1      1446 2.20918E-04 1.99756E-04 1.08882E-02
 -1      1447 4.10641E-03 1.32155E-03-6.98834E-03
 -1      1448 5.61505E-03-8.44377E-05 1.66289E-04
 -1      1449 3.01133E-03 9.51713E-04-9.15244E-03
 -1      1450 3.29381E-03-1.04173E-03-5.47530E-03
 -1      1451 3.24170E-03-1.02745E-03-5.40866E-03
 -1      1452 5.13710E-03 1.06509E-03 4.34830E-03
 -1      1453 2.45022E-04-1.93591E-04 1.08493E-02
 -1      1454 2.17558E-04-2.09052E-04 1.07439E-02
 -1      1455 2.66551E-03-9.97012E-04 6.23174E-03
 -1      1456 2.62909E-03-9.89963E-04 6.15178E-03
 -1      1457 3.95374E-03-5.23832E-04 2.27214E-03
 -1      1458 3.89942E-03-5.15093E-04 2.24038E-03
 -1      1459 1.88654E-03-1.02009E-03 9.17911E-03
 -1      1460 1.86241E-03-1.00729E-03 9.07054E-03
 -1      1461 2.33524E-03-1.09473E-03-8.48113E-03
 -1      1462 2.29509E-03-1.07239E-03-8.38047E-03
 -1      1463 9.32569E-04-4.31685E-04-5.55324E-03
 -1      1464 9.04895E-04-4.35762E-04-5.49156E-03
 -1      1465 1.70275E-03-5.35359E-04 1.08166E-02
 -1      1466 1.68541E-03-5.19942E-04 1.06761E-02
 -1      1467 2.77003E-04-1.81016E-04-1.01397E-02
 -1      1468 2.49702E-04-1.81371E-04-1.00302E-02
 -1      1469 1.68541E-03-4.78548E-04-1.01049E-02
 -1      1470 1.65576E-03-4.66991E-04-9.97992E-03
 -1      1471 1.63851E-03 4.15634E-04 1.08313E-02
 -1      1472 1.61479E-03 4.01470E-04 1.06979E-02
 -1      1473 3.85798E-03 5.04353E-04 2.59429E-03
 -1      1474 3.81319E-03 4.95535E-04 2.55662E-03
 -1      1475 1.25163E-03-2.54209E-04 2.28751E-03
 -1      1476 1.22050E-03-2.51292E-04 2.26500E-03
 -1      1477 1.25511E-03 1.60059E-04-1.88613E-03
 -1      1478 1.22604E-03 1.59770E-04-1.86084E-03
 -1      1479 2.35766E-04 1.55254E-04-1.01858E-02
 -1      1480 2.11120E-04 1.70519E-04-1.00743E-02
 -1      1481 1.21316E-03 2.32587E-04 2.54795E-03
 -1      1482 1.18996E-03 2.31895E-04 2.52378E-03
 -1      1483 3.99040E-03-1.35666E-03 6.13613E-03
 -1      1484 3.92480E-03-1.34052E-03 6.05998E-03
 -1      1485 1.65872E-03 4.01983E-04-1.01283E-02
 -1      1486 1.63356E-03 3.90235E-04-1.00049E-02
 -1      1487 2.36190E-03 9.80377E-04-8.57386E-03
 -1      1488 2.32605E-03 9.64378E-04-8.46010E-03
 -1      1489 1.84408E-03-9.05394E-04-8.51193E-03
 -1      1490 1.82549E-03-8.90119E-04-8.41140E-03
 -1      1491 3.89957E-03 3.67117E-04-1.93000E-03
 -1      1492 3.84975E-03 3.64821E-04-1.91082E-03
 -1      1493 3.92766E-03-4.54634E-04-1.66371E-03
 -1      1494 3.86391E-03-4.46809E-04-1.63502E-03
 -1      1495 2.34888E-03 1.11661E-03 9.25539E-03
 -1      1496 2.30641E-03 1.08949E-03 9.15162E-03
 -1      1497-2.44627E-04-8.15913E-05 9.86435E-03
 -1      1498 2.84277E-03 1.13252E-03 1.14364E-02
 -1      1499 9.42281E-04 4.83634E-04 6.36614E-03
 -1      1500 9.07031E-04 4.76749E-04 6.31540E-03
 -1      1501 1.81236E-04-3.31991E-04 9.15076E-03
 -1      1502 1.50623E-04-3.38743E-04 9.05502E-03
 -1      1503 1.32169E-03-4.54102E-04 1.08169E-02
 -1      1504 1.30011E-03-4.37975E-04 1.06879E-02
 -1      1505 3.23968E-03 1.03897E-03-5.71908E-03
 -1      1506 3.20123E-03 1.01780E-03-5.63745E-03
 -1      1507 5.23804E-04 4.38828E-04-8.50197E-03
 -1      1508 5.50242E-04 4.45689E-04-8.59598E-03
 -1      1509 9.40239E-04-6.72218E-04 9.22732E-03
 -1      1510 9.20717E-04-6.71661E-04 9.12264E-03
 -1      1511 2.88051E-03-1.30348E-03 9.09836E-03
 -1      1512 2.84496E-03-1.29344E-03 8.97963E-03
 -1      1513 1.17060E-03-1.78099E-04-1.63481E-03
 -1      1514 1.19472E-03-1.75952E-04-1.66927E-03
 -1      1515 5.22933E-03-1.17038E-03 4.11747E-03
 -1      1516-8.71290E-05-1.52534E-04 5.12013E-03
 -1      1517 1.31472E-03-4.68049E-04-1.01542E-02
 -1      1518 1.28221E-03-4.46838E-04-1.00324E-02
 -1      1519 1.48221E-03 6.48774E-04 6.39218E-03
 -1      1520 1.45244E-03 6.45674E-04 6.32719E-03
 -1      1521 4.32895E-03-1.56859E-03 6.79825E-03
 -1      1522 1.79726E-03 9.11213E-04 9.33734E-03
 -1      1523 1.77586E-03 9.12158E-04 9.21252E-03
 -1      1524 1.27044E-03 3.61953E-04 1.08732E-02
 -1      1525 1.24357E-03 3.44440E-04 1.07514E-02
 -1      1526 4.42592E-03-1.55782E-03 6.91628E-03
 -1      1527 3.21025E-03 1.09902E-03 6.26658E-03
 -1      1528 3.25791E-03 1.11849E-03 6.33976E-03
 -1      1529-1.44174E-04 1.55625E-04 6.99188E-03
 -1      1530-3.39879E-04-1.06069E-04-9.54409E-03
 -1      1531 1.29713E-03 3.38521E-04-1.01822E-02
 -1      1532 1.27271E-03 3.43076E-04-1.00657E-02
 -1      1533 4.64212E-03-5.41042E-04-1.64864E-03
 -1      1534 4.58474E-03-5.27195E-04-1.62149E-03
 -1      1535 1.11993E-03-4.33786E-04 1.08276E-02
 -1      1536 1.09426E-03-4.26083E-04 1.07078E-02
 -1      1537 2.86169E-03 1.28121E-03 9.18346E-03
 -1      1538 2.81417E-03 1.25253E-03 9.06139E-03
 -1      1539 4.70209E-04-4.47921E-04-8.53551E-03
 -1      1540 4.50369E-04-4.56467E-04-8.43129E-03
 -1      1541-2.65173E-05 1.48804E-04 1.08480E-02
 -1      1542-4.98663E-05 1.49213E-04 1.07312E-02
 -1      1543 5.54871E-04 1.49708E-04 2.53959E-03
 -1      1544 5.41922E-04 1.51113E-04 2.51512E-03
 -1      1545-1.61021E-04-1.39396E-04 8.31029E-03
 -1      1546 2.87340E-03 1.10195E-03-8.51008E-03
 -1      1547 2.83118E-03 1.08370E-03-8.38800E-03
 -1      1548 5.03698E-03-1.32400E-03 5.02659E-03
 -1      1549 3.15336E-03 1.10572E-03-8.77658E-03
 -1      1550 1.11151E-03-3.97254E-04-1.01763E-02
 -1      1551 1.08181E-03-3.77344E-04-1.00641E-02
 -1      1552-2.92804E-04 2.69288E-05 1.06554E-02
 -1      1553 3.24016E-03-4.13870E-04 2.24565E-03
 -1      1554 3.18518E-03-4.12504E-04 2.23506E-03
 -1      1555 3.16860E-03 4.59466E-04 2.60176E-03
 -1      1556 3.12599E-03 4.55684E-04 2.56956E-03
 -1      1557 3.17898E-03-3.74114E-04-1.65843E-03
 -1      1558 3.13320E-03-3.65735E-04-1.63048E-03
 -1      1559 1.54002E-03-6.81829E-04 6.19653E-03
 -1      1560 1.49133E-03-6.73368E-04 6.13435E-03
 -1      1561-2.39949E-04-1.14573E-04 9.44334E-03
 -1      1562 5.80398E-04-1.71196E-04 2.27747E-03
 -1      1563 5.64886E-04-1.78102E-04 2.24981E-03
 -1      1564 3.15236E-03 1.02582E-03-9.40661E-03
 -1      1565 4.39756E-04-3.25070E-04 6.10524E-03
 -1      1566 4.21890E-04-3.28809E-04 6.05852E-03
 -1      1567 4.04083E-04-2.23700E-04-5.53664E-03
 -1      1568 3.86103E-04-2.35656E-04-5.46069E-03
 -1      1569 1.63012E-03-9.59418E-04 9.19506E-03
 -1      1570 1.59850E-03-9.44600E-04 9.09063E-03
 -1      1571 2.95330E-03-8.85334E-04 1.01274E-02
 -1      1572 2.15154E-03-6.03806E-04 1.06722E-02
 -1      1573 2.14069E-03-5.97419E-04 1.05367E-02
 -1      1574 2.59931E-03 8.78091E-04-5.75480E-03
 -1      1575 2.56649E-03 8.62065E-04-5.67644E-03
 -1      1576-1.73747E-04-1.47953E-04 6.83231E-03
 -1      1577 3.79913E-03-1.51565E-03 8.18172E-03
 -1      1578 3.14776E-03-1.29265E-03 9.35640E-03
 -1      1579 2.87568E-03-1.31181E-03-8.40853E-03
 -1      1580 2.82739E-03-1.27836E-03-8.29179E-03
 -1      1581 5.20977E-04 5.02233E-04 9.32189E-03
 -1      1582 4.89377E-04 4.97431E-04 9.23529E-03
 -1      1583 4.72536E-03-6.19016E-04 2.23545E-03
 -1      1584 4.66829E-03-6.10905E-04 2.21542E-03
 -1      1585 1.19696E-04 2.22801E-04-8.57438E-03
 -1      1586 1.05383E-04 2.39036E-04-8.46236E-03
 -1      1587 3.75475E-03 1.42410E-03 8.32682E-03
 -1      1588 6.38859E-04-2.56250E-04-1.01778E-02
 -1      1589 6.08928E-04-2.52338E-04-1.00623E-02
 -1      1590-1.55623E-04-1.13315E-04-6.14973E-03
 -1      1591 9.47300E-04 5.64098E-04-8.63205E-03
 -1      1592 9.25845E-04 5.65043E-04-8.53608E-03
 -1      1593 2.66407E-03 9.33800E-04 6.35384E-03
 -1      1594 2.61257E-03 9.23547E-04 6.28423E-03
 -1      1595 1.13443E-05-3.75102E-05 1.19602E-03
 -1      1596-5.84103E-05 1.35104E-04-4.69264E-03
 -1      1597 3.91012E-03 1.18985E-03-5.63743E-03
 -1      1598 3.87205E-03 1.16864E-03-5.56317E-03
 -1      1599-3.16443E-04-3.98776E-05-9.96724E-03
 -1      1600 1.83911E-03 8.92190E-04-8.60166E-03
 -1      1601 1.80610E-03 8.75612E-04-8.48921E-03
 -1      1602-1.07197E-04-1.51579E-04 5.59066E-03
 -1      1603 3.81223E-03-1.44000E-03-7.53663E-03
 -1      1604 1.41908E-04 3.31092E-04 9.30641E-03
 -1      1605 1.15496E-04 3.28661E-04 9.22072E-03
 -1      1606 9.51692E-04 6.54405E-04 9.32936E-03
 -1      1607 9.17433E-04 6.42872E-04 9.22969E-03
 -1      1608-2.49430E-05 9.10187E-05 3.43242E-03
 -1      1609-3.24418E-04 9.80670E-05 1.02856E-02
 -1      1610 1.59472E-03-8.32208E-04-8.53169E-03
 -1      1611 1.57177E-03-8.20243E-04-8.42994E-03
 -1      1612 2.64610E-03-9.12186E-04-5.51664E-03
 -1      1613 2.60926E-03-9.01901E-04-5.44674E-03
 -1      1614-4.25886E-05 1.14894E-04-1.01248E-02
 -1      1615-7.38698E-05 1.19193E-04-9.99491E-03
 -1      1616 3.92752E-03-1.22649E-03-5.47122E-03
 -1      1617 3.87732E-03-1.20837E-03-5.39495E-03
 -1      1618 5.57464E-03-3.30511E-04 1.15130E-03
 -1      1619 2.80410E-03-8.79390E-04-9.50073E-03
 -1      1620 1.86221E-03 2.78254E-04 2.56363E-03
 -1      1621 1.82317E-03 2.78903E-04 2.53989E-03
 -1      1622 5.53070E-03-2.17004E-04-5.13193E-04
 -1      1623 7.41244E-04 5.02797E-04-8.51698E-03
 -1      1624 7.73271E-04 5.10784E-04-8.60586E-03
 -1      1625 2.14048E-03-5.62208E-04-1.00394E-02
 -1      1626 2.10398E-03-5.45710E-04-9.90213E-03
 -1      1627 2.84093E-03 1.13013E-03-1.07688E-02
 -1      1628-3.01369E-04 9.59542E-05-8.81463E-03
 -1      1629 3.21849E-03 3.13836E-04-1.96252E-03
 -1      1630 3.17446E-03 3.10994E-04-1.92725E-03
 -1      1631 4.70820E-03 4.41401E-04-1.92692E-03
 -1      1632 4.64425E-03 4.35010E-04-1.90538E-03
 -1      1633 4.64609E-03 5.65326E-04 2.51514E-03
 -1      1634 4.59269E-03 5.53912E-04 2.49156E-03
 -1      1635-2.61977E-04-1.22638E-05 1.06778E-02
 -1      1636 5.63173E-04 2.20206E-04-1.02196E-02
 -1      1637 5.44626E-04 2.22603E-04-1.00976E-02
 -1      1638 5.45791E-04-1.10627E-04-1.63774E-03
 -1      1639 5.25735E-04-1.14399E-04-1.61114E-03
 -1      1640 1.46534E-03-6.04187E-04-5.55929E-03
 -1      1641 1.43602E-03-6.00001E-04-5.48580E-03
 -1      1642 5.53074E-03 2.30213E-04 1.45489E-03
 -1      1643 2.52656E-03-3.02592E-04-9.89070E-03
 -1      1644 7.51352E-04-2.95705E-04-1.01892E-02
 -1      1645 7.31277E-04-2.87307E-04-1.00777E-02
 -1      1646 2.11263E-03 4.56246E-04 1.06945E-02
 -1      1647 2.09126E-03 4.42795E-04 1.05670E-02
 -1      1648 1.22196E-03 5.71820E-04 6.37625E-03
 -1      1649 1.18731E-03 5.69111E-04 6.32404E-03
 -1      1650 3.61450E-03-4.82220E-04 2.26843E-03
 -1      1651 3.55559E-03-4.81682E-04 2.24193E-03
 -1      1652-3.49229E-04 8.69924E-05-9.51053E-03
 -1      1653-3.43768E-04 5.94437E-05-9.95257E-03
 -1      1654 3.90793E-04 1.73001E-04-1.02084E-02
 -1      1655 3.71788E-04 1.89566E-04-1.00876E-02
 -1      1656-5.57880E-05-1.13209E-05-5.45151E-04
 -1      1657 3.73714E-04 3.18379E-04 6.37346E-03
 -1      1658 3.51379E-04 3.22635E-04 6.30175E-03
 -1      1659 6.14909E-04 1.17739E-04-1.89042E-03
 -1      1660 6.02778E-04 1.20456E-04-1.86738E-03
 -1      1661 2.08147E-03 1.00496E-03 9.30354E-03
 -1      1662 2.06043E-03 9.91452E-04 9.19078E-03
 -1      1663 5.85891E-03 3.56244E-04 2.31823E-03
 -1      1664 2.86282E-05-1.29216E-04 1.08193E-02
 -1      1665-6.67590E-06-1.43065E-04 1.07116E-02
 -1      1666 5.27839E-03 9.09621E-04 3.44422E-03
 -1      1667 1.85099E-03-2.09052E-04-1.65454E-03
 -1      1668 1.81555E-03-2.13142E-04-1.63704E-03
 -1      1669 3.16923E-03 1.22222E-03 9.38252E-03
 -1      1670 3.24576E-03 1.19078E-03-8.53512E-03
 -1      1671 2.54731E-03 1.66572E-04 1.05505E-02
 -1      1672-2.55977E-04-6.06017E-05 1.02539E-02
 -1      1673-3.41938E-05 8.46786E-05-2.81227E-03
 -1      1674 4.47659E-03-1.56293E-03 6.39402E-03
 -1      1675 5.55449E-03 1.38377E-04-8.36214E-04
 -1      1676 1.53625E-03-1.80707E-04-1.66857E-03
 -1      1677 1.50111E-03-1.81991E-04-1.64172E-03
 -1      1678 2.99932E-03-9.75719E-04-5.47703E-03
 -1      1679 2.94157E-03-9.59870E-04-5.41521E-03
 -1      1680 2.52550E-03-1.74613E-04 1.15202E-02
 -1      1681 2.94283E-03-1.15010E-03 1.13360E-02
 -1      1682 2.62595E-03-4.84295E-04 1.05058E-02
 -1      1683 2.57229E-03-6.99347E-05 1.16008E-02
 -1      1684 4.00909E-03 1.57998E-03-8.91576E-03
 -1      1685-2.88747E-04-3.64500E-05 1.06263E-02
 -1      1686 3.12545E-03 1.06305E-03 1.00983E-02
 -1      1687 3.80973E-03 1.28582E-03-7.62329E-03
 -1      1688 1.89729E-03-3.07677E-04 2.29155E-03
 -1      1689 1.86627E-03-3.03378E-04 2.26151E-03
 -1      1690 3.17573E-03-1.20712E-03 9.94903E-03
 -1      1691 2.58437E-03-1.15507E-04-1.08500E-02
 -1      1692 1.89633E-03 2.21732E-04-1.92218E-03
 -1      1693 1.85903E-03 2.22420E-04-1.90152E-03
 -1      1694-2.07989E-04 1.43598E-04 8.43198E-03
 -1      1695 4.07386E-03-1.96033E-03 9.51865E-03
 -1      1696 3.50814E-03 4.80480E-04 2.61264E-03
 -1      1697 3.47227E-03 4.72456E-04 2.56798E-03
 -1      1698 5.48003E-03 8.13142E-04-2.53636E-03
 -1      1699 5.45422E-03 9.25663E-04 3.08290E-03
 -1      1700-1.23273E-04-1.10348E-04-4.46793E-03
 -1      1701 5.87485E-03 2.54276E-04-1.68220E-03
 -1      1702 3.14557E-03-1.16172E-03-9.28606E-03
 -1      1703 4.04621E-03-1.77317E-03-8.80298E-03
 -1      1704-6.41508E-05-6.77355E-05-2.54859E-03
 -1      1705 3.18908E-03-1.31808E-03-8.68082E-03
 -1      1706 2.92438E-03-3.84022E-04 2.23063E-03
 -1      1707 2.86854E-03-3.83789E-04 2.22932E-03
 -1      1708-3.70037E-04 6.46246E-05-9.91022E-03
 -1      1709 2.10949E-03-1.00814E-03-8.50267E-03
 -1      1710 2.07940E-03-9.82662E-04-8.39281E-03
 -1      1711 2.17165E-03-2.57437E-04-1.65510E-03
 -1      1712 2.13557E-03-2.57711E-04-1.64215E-03
 -1      1713 9.40882E-04-6.20693E-04-8.54254E-03
 -1      1714 9.16698E-04-6.17472E-04-8.44569E-03
 -1      1715-2.28837E-04-1.45859E-04 9.20242E-03
 -1      1716 3.53187E-03-3.93725E-04-1.65670E-03
 -1      1717 3.49605E-03-3.88167E-04-1.62816E-03
 -1      1718 5.23463E-03 1.24777E-03-5.75410E-03
 -1      1719 4.22449E-04 2.79314E-04-5.72368E-03
 -1      1720 3.97619E-04 2.88691E-04-5.65625E-03
 -1      1721-1.26724E-04 1.53648E-04-6.26723E-03
 -1      1722 1.56720E-03-2.77526E-04 2.29109E-03
 -1      1723 1.54109E-03-2.75454E-04 2.26372E-03
 -1      1724-2.03083E-04 1.57702E-04-7.72096E-03
 -1      1725-4.26625E-05-1.07476E-04 3.19497E-03
 -1      1726 4.02722E-03 1.78795E-03 9.63477E-03
 -1      1727 5.87718E-03-3.36326E-04-1.33469E-03
 -1      1728 5.83608E-03-4.30668E-04 1.95555E-03
 -1      1729 4.71887E-06 3.28352E-05-8.25845E-04
 -1      1730-7.29208E-05 1.24615E-04 5.33619E-03
 -1      1731 2.29413E-03 8.02912E-04-5.75768E-03
 -1      1732 2.25983E-03 7.94633E-04-5.68248E-03
 -1      1733 8.86630E-04-2.23746E-04 2.26820E-03
 -1      1734 8.99515E-04-2.24412E-04 2.29597E-03
 -1      1735 2.89995E-03-1.20944E-03-1.07326E-02
 -1      1736 7.18386E-04 2.55714E-04-1.02095E-02
 -1      1737 7.03452E-04 2.59289E-04-1.00915E-02
 -1      1738 4.33571E-03 1.32087E-03-6.48309E-03
 -1      1739 4.33942E-03 1.36381E-03-6.27078E-03
 -1      1740 4.92909E-03 1.02528E-03-4.59506E-03
 -1      1741-4.25453E-05-1.47531E-04-1.00973E-02
 -1      1742-7.59400E-05-1.42950E-04-9.98083E-03
 -1      1743 3.10844E-03 1.32133E-03 9.14589E-03
 -1      1744 3.07511E-03 1.30144E-03 9.01944E-03
 -1      1745 2.74208E-03 7.56689E-04-9.51315E-03
 -1      1746 1.01317E-04-2.66731E-04-8.48203E-03
 -1      1747 8.42857E-05-2.73220E-04-8.36257E-03
 -1      1748-2.54492E-04-1.17378E-04-8.71015E-03
 -1      1749-2.31854E-04-1.00302E-04-7.54650E-03
 -1      1750-3.25791E-05 2.20829E-04 9.28894E-03
 -1      1751-5.54004E-05 2.29507E-04 9.18300E-03
 -1      1752-2.36815E-04 1.56023E-04 8.75322E-03
 -1      1753-2.35222E-04 1.22214E-04 9.55603E-03
 -1      1754 5.33280E-03-8.40864E-04-2.56555E-03
 -1      1755 1.49051E-03 5.95210E-04-5.78802E-03
 -1      1756 1.46015E-03 5.90289E-04-5.70706E-03
 -1      1757 1.74502E-03-6.59974E-04-5.56648E-03
 -1      1758 1.71843E-03-6.57941E-04-5.48785E-03
 -1      1759 5.37048E-03-9.75952E-04 3.16084E-03
 -1      1760-3.38544E-04 8.09700E-05 1.04643E-02
 -1      1761 2.46654E-03-5.91730E-05-1.09339E-02
 -1      1762 4.97723E-03-1.16022E-03-4.39156E-03
 -1      1763 4.30421E-03-1.44895E-03-6.11573E-03
 -1      1764 3.91066E-03 1.26659E-03 6.27863E-03
 -1      1765 3.86296E-03 1.24935E-03 6.20611E-03
 -1      1766 5.58813E-03-1.01354E-03 2.75538E-03
 -1      1767 1.22801E-03 4.96237E-04-5.73775E-03
 -1      1768 1.20790E-03 5.04938E-04-5.66867E-03
 -1      1769 3.14715E-03-1.39579E-03-8.36765E-03
 -1      1770 3.11591E-03-1.36703E-03-8.23892E-03
 -1      1771 1.15236E-03 6.59117E-04-8.64596E-03
 -1      1772 1.12776E-03 6.58302E-04-8.54629E-03
 -1      1773 5.50441E-03 3.15298E-04-1.34191E-03
 -1      1774 2.36365E-03-9.23537E-04 6.22439E-03
 -1      1775 2.33143E-03-9.18557E-04 6.15298E-03
 -1      1776 1.20679E-03-5.24513E-04-5.55621E-03
 -1      1777 1.17655E-03-5.23852E-04-5.49335E-03
 -1      1778 1.55837E-03 2.54447E-04 2.55232E-03
 -1      1779 1.52121E-03 2.56418E-04 2.52994E-03
 -1      1780 7.25858E-04 5.69666E-04 9.32518E-03
 -1      1781 6.95111E-04 5.64664E-04 9.23214E-03
 -1      1782 1.08901E-03 3.15827E-04 1.08916E-02
 -1      1783 1.06057E-03 3.06445E-04 1.07687E-02
 -1      1784-2.69539E-04-1.23011E-04-7.91691E-03
 -1      1785 4.89917E-03 1.19593E-03 5.24537E-03
 -1      1786 1.81419E-03-7.65376E-04 6.20895E-03
 -1      1787 1.77396E-03-7.61420E-04 6.14772E-03
 -1      1788 5.48137E-03 4.27863E-04 1.93598E-03
 -1      1789 1.18670E-03 7.31841E-04 9.32245E-03
 -1      1790 1.15053E-03 7.11335E-04 9.23389E-03
 -1      1791 2.50894E-03-4.54012E-04-9.83420E-03
 -1      1792 2.70788E-03 7.78338E-04 1.01724E-02
 -1      1793-2.99608E-04-6.76493E-05 1.04095E-02
 -1      1794 9.41973E-05-1.82283E-04-5.51965E-03
 -1      1795 9.48724E-05-1.94412E-04-5.41976E-03
 -1      1796-5.07852E-05 5.45736E-05 1.48984E-03
 -1      1797-1.30105E-04-1.17645E-04-4.91171E-03
 -1      1798 1.93078E-04 5.94791E-04 1.02815E-02
 -1      1799 3.81360E-04 4.82765E-04 9.32186E-03
 -1      1800 4.43618E-03 1.36213E-03-5.91769E-03
 -1      1801-2.33563E-04 1.43991E-04 9.31743E-03
 -1      1802 1.72859E-04 1.82584E-04-5.68312E-03
 -1      1803 1.62890E-04 1.95907E-04-5.59830E-03
 -1      1804 1.95383E-04-5.47391E-04-9.42838E-03
 -1      1805 3.67792E-04-4.33205E-04-8.42728E-03
 -1      1806 5.29061E-03 7.86398E-04-2.87175E-03
 -1      1807 1.46565E-03 4.05989E-04 1.08671E-02
 -1      1808 1.43830E-03 3.85604E-04 1.07349E-02
 -1      1809 5.43557E-04 2.49390E-04 1.08949E-02
 -1      1810 5.15618E-04 2.32520E-04 1.07793E-02
 -1      1811 5.12641E-03-6.77920E-04 2.25587E-03
 -1      1812 5.07050E-03-6.68446E-04 2.21579E-03
 -1      1813 2.04895E-03 4.46218E-04-1.00560E-02
 -1      1814 2.02452E-03 4.33463E-04-9.93031E-03
 -1      1815 4.28897E-03 1.49766E-03 6.94828E-03
 -1      1816 5.45236E-03-8.43626E-04 2.69129E-03
 -1      1817 3.32504E-03-1.42315E-03-8.42602E-03
 -1      1818 6.94603E-04-5.40543E-04-8.54163E-03
 -1      1819 6.77936E-04-5.42460E-04-8.43794E-03
 -1      1820 5.35699E-03 7.80206E-04 2.98148E-03
 -1      1821-3.55216E-04-6.41097E-05-9.91950E-03
 -1      1822 3.61493E-03 1.27761E-03-7.93088E-03
 -1      1823-2.44982E-05-9.67137E-05 2.69354E-03
 -1      1824 1.47762E-03 3.73616E-04-1.01556E-02
 -1      1825 1.45165E-03 3.69795E-04-1.00364E-02
 -1      1826 2.61521E-03 6.37836E-04-9.65439E-03
 -1      1827-1.48325E-04-1.14233E-04-5.75636E-03
 -1      1828-3.49058E-04-1.00069E-04-9.66999E-03
 -1      1829 2.18383E-03 3.06583E-04 2.56749E-03
 -1      1830 2.14667E-03 3.05744E-04 2.54608E-03
 -1      1831 5.24361E-03 1.43045E-03 6.41182E-03
 -1      1832 5.64184E-04-2.98012E-04 1.08645E-02
 -1      1833 5.42337E-04-2.92238E-04 1.07428E-02
 -1      1834 2.25218E-04-5.56692E-05-1.59171E-03
 -1      1835 2.17958E-04-6.58791E-05-1.58265E-03
 -1      1836-5.10307E-05-2.69625E-05-1.05407E-03
 -1      1837-7.94012E-05 1.36529E-04-5.11549E-03
 -1      1838 2.34614E-03-8.48002E-04-5.52902E-03
 -1      1839 2.31135E-03-8.35504E-04-5.45841E-03
 -1      1840 7.50685E-05 1.79056E-04 1.08725E-02
 -1      1841 4.82757E-05 1.70768E-04 1.07571E-02
 -1      1842 3.82032E-03-1.63985E-03-8.54494E-03
 -1      1843 3.60868E-04-2.50971E-04 1.07473E-02
 -1      1844 3.87039E-04-2.46022E-04 1.08587E-02
 -1      1845 5.67397E-03-5.62429E-04 2.10127E-03
 -1      1846 7.17138E-04 2.60683E-04 1.08837E-02
 -1      1847 6.92323E-04 2.49349E-04 1.07701E-02
 -1      1848 3.27221E-03-1.30848E-03-8.79400E-03
 -1      1849 4.43565E-03-1.45982E-03-6.22101E-03
 -1      1850 5.35658E-03-1.53862E-03 6.20073E-03
 -1      1851 3.46500E-04 1.95025E-04 1.07785E-02
 -1      1852 3.67130E-04 1.94651E-04 1.08945E-02
 -1      1853 1.58952E-03 7.96436E-04-8.62555E-03
 -1      1854 1.56662E-03 7.89979E-04-8.51729E-03
 -1      1855 2.44223E-03 2.18490E-04-9.94416E-03
 -1      1856 3.26910E-03 1.31213E-03 9.17022E-03
 -1      1857 1.24012E-03-6.03936E-04 6.17890E-03
 -1      1858 1.19909E-03-5.96652E-04 6.11867E-03
 -1      1859 5.53810E-03-4.93653E-04 1.66910E-03
 -1      1860 5.58460E-03-8.63204E-04 2.46020E-03
 -1      1861 5.19546E-03-1.38356E-03-5.58314E-03
 -1      1862-4.46175E-06 4.42917E-05-1.33353E-03
 -1      1863 1.56835E-03 1.98268E-04-1.90975E-03
 -1      1864 1.54113E-03 1.97795E-04-1.88286E-03
 -1      1865 3.62025E-03-1.10828E-03-5.47217E-03
 -1      1866 3.56191E-03-1.09663E-03-5.40163E-03
 -1      1867 5.50947E-03-8.60696E-04-2.15904E-03
 -1      1868-1.09040E-04 1.39288E-04-5.90017E-03
 -1      1869 5.37402E-03 6.59649E-04-2.38799E-03
 -1      1870-2.20140E-04 1.48760E-04-8.03703E-03
 -1      1871 2.24499E-03 2.37108E-04-1.93383E-03
 -1      1872 2.19890E-03 2.36977E-04-1.90490E-03
 -1      1873 4.74914E-03 1.15576E-03-5.02236E-03
 -1      1874 3.23780E-04 4.15097E-04 9.31466E-03
 -1      1875 3.02125E-04 4.14168E-04 9.22396E-03
 -1      1876 4.44887E-03-1.41807E-03-5.73384E-03
 -1      1877-1.41795E-04 1.49435E-04 6.62379E-03
 -1      1878 4.72991E-03 1.30846E-03 5.66847E-03
 -1      1879 5.45961E-03-4.37139E-04-1.04683E-03
 -1      1880 4.35471E-03 1.51061E-03 7.06160E-03
 -1      1881 6.68881E-04-9.40361E-05 2.70642E-03
 -1      1882 5.83629E-04-3.21949E-04 3.79705E-03
 -1      1883 3.29258E-03 1.25746E-03 9.55020E-03
 -1      1884-6.88520E-05-5.15552E-05-2.05505E-03
 -1      1885-2.70329E-05 7.18946E-05-2.31670E-03
 -1      1886-6.30640E-05 7.47510E-05 1.99162E-03
 -1      1887 9.24772E-05 2.29504E-04 6.36057E-03
 -1      1888 8.80442E-05 2.46580E-04 6.27589E-03
 -1      1889 6.28568E-04 1.54271E-04 3.17170E-03
 -1      1890 5.13269E-04 3.75751E-04 4.28395E-03
 -1      1891 4.25790E-03 1.25791E-03-5.61836E-03
 -1      1892 4.20485E-03 1.23507E-03-5.53078E-03
 -1      1893-1.13792E-04 1.52150E-04 5.78203E-03
 -1      1894 4.43106E-03 1.45682E-03 6.53342E-03
 -1      1895-2.76109E-04 1.00661E-04-8.58095E-03
 -1      1896 7.15581E-04-3.19741E-04 1.08559E-02
 -1      1897 6.96623E-04-3.22262E-04 1.07317E-02
 -1      1898 5.06392E-03-1.40307E-03-5.49053E-03
 -1      1899 6.40661E-04 1.30756E-04-2.73366E-03
 -1      1900 5.68877E-04 3.01521E-04-3.81622E-03
 -1      1901 3.27892E-03-1.40015E-03 9.10941E-03
 -1      1902 4.85809E-05-5.55473E-04 1.38681E-02
 -1      1903-1.79482E-04-4.95998E-04 1.44593E-02
 -1      1904 6.24353E-04-9.01960E-05-2.28911E-03
 -1      1905 5.66474E-04-2.50561E-04-3.33253E-03
 -1      1906 2.02793E-04 5.38667E-04-9.80023E-03
 -1      1907 3.71304E-04 4.52883E-04-8.85990E-03
 -1      1908 1.93748E-05-5.73617E-05 1.67980E-03
 -1      1909-8.97328E-05-5.33911E-04-1.33727E-02
 -1      1910-2.31244E-04-4.78982E-04-1.38991E-02
 -1      1911 2.54094E-03 3.38444E-04 1.04971E-02
 -1      1912 3.59952E-03-1.51336E-03 8.49290E-03
 -1      1913 4.85075E-03-1.43418E-03 5.48300E-03
 -1      1914-4.21110E-04-9.43268E-05 1.68638E-02
 -1      1915-3.57987E-04-2.86180E-04 1.65964E-02
 -1      1916-4.86582E-04 1.25411E-04-1.63934E-02
 -1      1917-4.29830E-04 3.00658E-04-1.60714E-02
 -1      1918-9.65409E-06 5.76815E-04 1.40752E-02
 -1      1919-1.79139E-04 5.28409E-04 1.46239E-02
 -1      1920-1.06401E-05 5.49124E-04-1.34474E-02
 -1      1921-2.23505E-04 4.75105E-04-1.39783E-02
 -1      1922-4.08217E-04 1.72288E-04 1.68488E-02
 -1      1923-3.61219E-04 3.27275E-04 1.65754E-02
 -1      1924 4.31771E-03-1.43926E-03 6.10741E-03
 -1      1925 4.26366E-03-1.43074E-03 6.02126E-03
 -1      1926 2.63214E-04-5.81403E-04 9.96092E-03
 -1      1927 4.21946E-04-4.80951E-04 8.96761E-03
 -1      1928-5.04426E-04-1.37078E-04-1.62855E-02
 -1      1929-4.25280E-04-2.91386E-04-1.59917E-02
 -1      1930 5.08834E-03-1.57808E-03 6.13525E-03
 -1      1931-2.44866E-03 3.28481E-05-1.33344E-02
 -1      1932 4.40045E-04 8.97363E-04-8.73916E-03
 -1      1933 1.23298E-03 6.38296E-04 1.16150E-02
 -1      1934 6.89260E-04 7.15874E-04-6.99891E-03
 -1      1935-1.46052E-04-6.46420E-04-5.28423E-03
 -1      1936-1.65660E-03-4.17395E-06 2.30739E-04
 -1      1937 8.83276E-04-7.52655E-04 1.05043E-02
 -1      1938-7.14185E-04-9.71955E-04-4.03879E-03
 -1      1939-1.85170E-04-7.36007E-04-3.95550E-03
 -1      1940-2.31135E-05-3.86491E-04-2.08238E-03
 -1      1941-1.02626E-03-9.16374E-04-5.75931E-03
 -1      1942 2.80469E-04-2.94863E-04-1.31478E-03
 -1      1943 3.71859E-04 2.52077E-06 4.27054E-05
 -1      1944 2.56225E-04 4.34104E-04 1.60585E-03
 -1      1945-1.21115E-04-6.37434E-04 5.25515E-03
 -1      1946-9.12279E-05 7.33396E-04 2.37234E-03
 -1      1947-1.90149E-04 9.03414E-04 4.45572E-03
 -1      1948-1.42682E-03-6.36986E-04-5.28226E-03
 -1      1949-2.24381E-04 6.99957E-04-4.51373E-03
 -1      1950-9.50394E-04-7.41179E-05-5.38752E-03
 -1      1951-1.23079E-03 2.83640E-04-6.48284E-03
 -1      1952-1.37643E-03-4.27499E-04-6.79405E-03
 -1      1953-7.71591E-04 3.15480E-04-4.90586E-03
 -1      1954-8.38064E-04 8.72781E-04-5.99220E-03
 -1      1955-4.89638E-04 6.81613E-04-3.90876E-03
 -1      1956 5.31921E-04-8.46265E-04-8.68980E-03
 -1      1957-1.64450E-04 7.46086E-04-4.17781E-03
 -1      1958-5.43188E-05 7.86326E-04-2.41962E-03
 -1      1959-4.33992E-05-4.72142E-04-2.02891E-03
 -1      1960 1.41009E-04 4.30892E-04-1.40519E-03
 -1      1961 1.36229E-03-4.39248E-04 1.20208E-02
 -1      1962 2.74647E-04 1.37707E-05 8.21816E-05
 -1      1963 1.00653E-04-3.80735E-04 1.43764E-03
 -1      1964-5.08092E-04 9.75000E-06-5.92941E-05
 -1      1965 3.44108E-06-4.17561E-04 2.13322E-03
 -1      1966 1.73250E-03 1.83135E-04 1.02849E-02
 -1      1967-1.36789E-04-7.70802E-04 3.96539E-03
 -1      1968-4.86464E-04-8.78870E-04 3.91355E-03
 -1      1969-8.86371E-04-7.64765E-04 5.84323E-03
 -1      1970-1.18753E-03-6.74062E-04 5.11814E-03
 -1      1971-4.95511E-04 7.85920E-04 4.28473E-03
 -1      1972-1.13853E-03 8.63658E-04 6.02253E-03
 -1      1973-8.30827E-04 5.12189E-04 5.13264E-03
 -1      1974-5.98536E-04 9.52240E-04 1.31281E-02
 -1      1975-1.31765E-03-3.28628E-04 7.20212E-03
 -1      1976-1.24444E-03 3.01368E-04 7.27242E-03
 -1      1977-9.49571E-04-1.37717E-04 5.65938E-03
 -1      1978 3.80211E-04 1.82946E-05 2.86072E-04
 -1      1979-1.50945E-05-4.86338E-04 1.91541E-03
 -1      1980 1.09405E-04 7.67835E-04-4.36341E-03
 -1      1981 5.27156E-04-3.52730E-04-1.61323E-02
 -1      1982-7.01622E-04 5.51259E-04-3.38212E-03
 -1      1983 7.25331E-04-6.21950E-04-5.33809E-03
 -1      1984-6.24754E-04 5.22649E-04 3.22433E-03
 -1      1985-7.96272E-05-7.14227E-05-3.96263E-05
 -1      1986 2.75400E-04-7.23653E-04-4.48636E-03
 -1      1987 1.33164E-03 2.96818E-04 7.87708E-03
 -1      1988-1.00342E-03-6.54672E-04 7.26278E-03
 -1      1989-1.19546E-03-2.38307E-04-7.95329E-03
 -1      1990-8.75460E-04 3.82595E-05 3.81441E-03
 -1      1991-4.87484E-04 6.26086E-04 8.54262E-03
 -1      1992-2.29856E-03 1.32463E-04 1.41112E-02
 -1      1993 3.24166E-04-1.00041E-03 6.59179E-03
 -1      1994 3.44771E-04-1.13485E-05-7.39277E-04
 -1      1995-9.46543E-04 6.94407E-04 7.51746E-03
 -1      1996 3.31742E-04 9.27090E-04 5.88964E-03
 -1      1997 1.73298E-04-6.26072E-04 3.58390E-03
 -1      1998 1.70484E-03-2.64374E-04 5.68239E-03
 -1      1999-1.41987E-03-5.90187E-04-7.98893E-03
 -1      2000 1.10599E-03 1.82549E-04-1.18001E-02
 -1      2001-3.91246E-04-7.50808E-05 5.51301E-05
 -1      2002 5.98290E-04-6.82236E-04 4.78693E-03
 -1      2003 1.13337E-04-1.97693E-04-1.17250E-03
 -1      2004-1.22143E-04 2.95967E-04 1.55348E-03
 -1      2005-7.25431E-04-4.42305E-05-3.88041E-03
 -1      2006-7.35492E-05-8.66524E-04 7.28895E-03
 -1      2007 1.53147E-03 2.03101E-04 5.05286E-03
 -1      2008-4.05011E-04 8.42928E-04 5.64661E-03
 -1      2009 1.79799E-04 6.55999E-04-2.71761E-03
 -1      2010 6.80096E-04-5.12646E-04 4.30756E-03
 -1      2011 1.25192E-03-6.34834E-04 5.93114E-03
 -1      2012-3.16078E-04-3.27029E-04-1.68670E-03
 -1      2013 1.09715E-03-5.81521E-04 7.44378E-03
 -1      2014 1.67157E-04-5.89052E-04-3.24045E-03
 -1      2015-1.63814E-03-3.21257E-04-9.56043E-03
 -1      2016 1.28101E-03 5.06021E-04 5.27205E-03
 -1      2017-1.06585E-04 4.27591E-04-1.72245E-03
 -1      2018 4.91423E-04 7.89646E-04-3.79175E-03
 -1      2019-6.88153E-04 8.89374E-04-2.95727E-03
 -1      2020-4.78366E-04-5.49583E-04-9.74981E-03
 -1      2021-2.04996E-04-5.20164E-04 2.35790E-03
 -1      2022-7.12718E-04-9.22386E-04 1.10834E-02
 -1      2023-9.35476E-04 2.88516E-04-1.60814E-02
 -1      2024-1.12107E-03-4.94788E-04 8.08060E-03
 -1      2025-1.07234E-03 5.57023E-04 7.96163E-03
 -1      2026-1.14818E-03-4.39275E-04-1.46127E-02
 -1      2027 2.01949E-04-7.99728E-04 9.16380E-03
 -1      2028 1.57438E-03-3.33305E-04 1.11650E-02
 -1      2029 5.85525E-04-3.29832E-04 2.74634E-03
 -1      2030-8.29807E-06 9.86114E-04 7.81466E-03
 -1      2031-6.22665E-04 2.52558E-04 3.68763E-03
 -1      2032-2.11693E-05-6.57048E-04-3.65290E-03
 -1      2033 1.70088E-05-8.41406E-04-7.27954E-03
 -1      2034-1.08035E-03-3.66673E-04 1.31759E-02
 -1      2035-9.04222E-04 1.06808E-03 9.72189E-03
 -1      2036 1.73107E-04 7.48446E-04 1.28714E-02
 -1      2037-1.13559E-03 4.57419E-04-7.71520E-03
 -1      2038 1.14290E-04-4.57126E-04 1.46772E-03
 -1      2039-6.76739E-04 9.74416E-04-6.50453E-03
 -1      2040 3.29880E-05 7.21093E-04-4.26628E-03
 -1      2041-1.20160E-03-4.23692E-04 1.19742E-02
 -1      2042-1.84553E-04-5.65843E-05 1.78105E-02
 -1      2043 1.42341E-03-3.59436E-04-8.61951E-03
 -1      2044-8.49576E-04 1.88563E-04-3.19300E-03
 -1      2045-7.81028E-04-3.49937E-04 3.44352E-03
 -1      2046-9.91646E-04 2.51066E-04 3.22660E-03
 -1      2047-3.62000E-04-8.09544E-04 1.38156E-02
 -1      2048 8.47109E-04-1.21587E-04 3.22105E-03
 -1      2049 8.60640E-05 8.14683E-04-9.52744E-03
 -1      2050-1.00402E-03 1.48933E-05 9.59327E-03
 -1      2051 5.89605E-04 4.89574E-04 2.92169E-03
 -1      2052-4.80550E-04 4.49478E-04-2.29147E-03
 -1      2053 6.78930E-04-3.11607E-04-2.31157E-03
 -1      2054 6.63990E-04 6.33723E-04-5.39568E-03
 -1      2055-3.61498E-05-2.53474E-04 1.13278E-03
 -1      2056-2.73662E-04 6.37595E-04-8.41875E-03
 -1      2057 4.14086E-05 7.16768E-04-6.10942E-03
 -1      2058 1.54346E-04 1.20329E-04-4.02637E-04
 -1      2059 5.37180E-04 8.43708E-04-9.16186E-03
 -1      2060-4.60725E-05-1.66801E-04-4.96303E-04
 -1      2061-1.01738E-03 6.12259E-04-7.47575E-03
 -1      2062 1.06664E-04 7.00462E-04 2.75188E-03
 -1      2063-2.39776E-03 2.67714E-04 3.91970E-03
 -1      2064 1.40879E-03 5.57480E-04 9.55392E-03
 -1      2065 3.46878E-04-6.18318E-04-3.56452E-03
 -1      2066-3.67792E-03 2.30317E-05 1.28247E-03
 -1      2067 8.19033E-04-6.25887E-04-3.23322E-03
 -1      2068 1.84406E-04-6.94355E-04-8.11482E-03
 -1      2069 5.94762E-04 4.19818E-04-2.81561E-03
 -1      2070 2.20307E-04 7.52200E-04-7.29376E-03
 -1      2071-7.70876E-04-8.79967E-04-6.37695E-03
 -1      2072 3.29063E-04 5.21773E-04 2.69473E-03
 -1      2073-8.21307E-04-5.32055E-05 2.90665E-03
 -1      2074 5.28559E-04 2.89892E-04 7.63516E-04
 -1      2075 8.29895E-05 4.08470E-04 1.07833E-03
 -1      2076 1.41446E-03-6.26330E-04 1.11747E-02
 -1      2077-5.98682E-05-4.47411E-04 1.77638E-03
 -1      2078 4.88349E-04-6.96424E-04 2.87737E-03
 -1      2079 6.44309E-04-2.69467E-04-3.44999E-03
 -1      2080-1.22839E-03-4.11021E-04-3.82806E-03
 -1      2081 7.89151E-04-2.25124E-04 1.60865E-02
 -1      2082-1.04054E-03 3.14265E-04 1.32622E-02
 -1      2083 6.56509E-04-5.04949E-04 3.01627E-03
 -1      2084-1.04851E-03-2.77807E-04-3.52961E-03
 -1      2085-1.21657E-03-2.75244E-04-1.52496E-02
 -1      2086-1.79729E-03 3.75423E-04-9.97035E-03
 -1      2087-3.91759E-03 5.82730E-05-7.94342E-04
 -1      2088-2.53970E-04 4.99663E-04 2.30123E-03
 -1      2089 7.79972E-05 3.77738E-04-1.02725E-03
 -1      2090-2.47746E-03-1.70912E-04 1.15851E-02
 -1      2091-3.72030E-03-1.80929E-05 7.51926E-03
 -1      2092 4.13209E-04-3.82819E-04-2.13422E-03
 -1      2093-2.60723E-03-2.34625E-04-1.03224E-02
 -1      2094-2.94825E-04-3.35170E-04 1.23676E-03
 -1      2095 2.33243E-04-3.74870E-04 2.53699E-03
 -1      2096-1.08572E-04-5.74099E-06 2.04499E-05
 -1      2097-7.45678E-04 2.92010E-04-2.90993E-03
 -1      2098-7.20545E-04-2.84952E-04 3.79075E-03
 -1      2099 1.60406E-04 4.38874E-04-2.10720E-03
 -1      2100 3.23750E-04 1.63620E-05-1.90885E-03
 -1      2101 1.29470E-03-4.67432E-04-5.86128E-03
 -1      2102 2.86866E-04 3.42623E-05 5.62733E-03
 -1      2103 1.31986E-03-4.65370E-04-6.08002E-03
 -1      2104 1.25219E-03-4.70673E-04-1.24448E-02
 -1      2105 7.23063E-05 7.76823E-04 9.70315E-03
 -1      2106-6.39985E-04-8.68517E-04 6.42179E-03
 -1      2107 4.28561E-04-3.85359E-04 2.22565E-03
 -1      2108 3.94267E-04-8.37091E-04 4.30964E-03
 -1      2109 9.37843E-04 1.51270E-04 3.02359E-03
 -1      2110-8.06259E-04-2.88509E-04 3.29738E-03
 -1      2111-7.53111E-04-2.17491E-04-3.41339E-03
 -1      2112 1.06648E-03 2.13110E-04-4.90273E-03
 -1      2113 1.25208E-03-1.10340E-04 1.42559E-02
 -1      2114-5.26032E-04-5.75144E-04-2.69124E-03
 -1      2115-1.49047E-03-2.93584E-04 6.46914E-03
 -1      2116-3.02991E-03 3.78489E-04 8.62533E-03
 -1      2117-9.59826E-04 1.01309E-04 1.88077E-04
 -1      2118-3.00011E-05-5.39456E-04-1.42249E-02
 -1      2119-9.07171E-04-1.44870E-04 2.88851E-03
 -1      2120 1.05483E-03 5.73059E-05 4.52007E-03
 -1      2121-3.89583E-03 8.88578E-05-1.46533E-03
 -1      2122 1.35986E-04-1.43653E-04 4.23136E-04
 -1      2123-2.99791E-04-4.56976E-04-3.11578E-03
 -1      2124 1.08700E-03 2.19947E-04 1.39080E-02
 -1      2125-1.23224E-04-3.28183E-04 1.59288E-02
 -1      2126 1.07680E-03-9.55924E-05-5.14285E-03
 -1      2127-3.31870E-03 1.82075E-04 1.69702E-03
 -1      2128 8.74282E-04-8.95151E-04 7.34026E-03
 -1      2129-5.29123E-05-2.43061E-04-7.44719E-04
 -1      2130-6.77191E-05-7.32274E-04 1.18799E-02
 -1      2131-1.46335E-03-1.82268E-04 1.61673E-02
 -1      2132-3.56155E-04 6.86984E-04-2.75501E-03
 -1      2133-5.44921E-04-4.60911E-04 1.41585E-02
 -1      2134-1.04339E-03-2.43082E-04 1.53269E-02
 -1      2135-7.34347E-04-4.93114E-04 1.20349E-02
 -1      2136-3.25587E-03-2.54672E-04 7.65466E-03
 -1      2137-1.91182E-03-1.19202E-04-3.14934E-03
 -1      2138-4.31875E-04 3.95133E-04-2.80489E-03
 -1      2139-3.00463E-03 3.74145E-04-8.82424E-03
 -1      2140 1.42299E-04-5.73340E-04 1.40019E-02
 -1      2141-4.59968E-05-6.80308E-04-7.65927E-03
 -1      2142 5.85492E-04 9.66693E-04 8.07213E-03
 -1      2143 9.48567E-04-9.52861E-05-3.85669E-03
 -1      2144 8.81819E-05-2.45787E-04 1.70912E-02
 -1      2145-1.45332E-03 3.54749E-04 5.72807E-03
 -1      2146-5.38673E-04 6.56487E-05-1.73179E-02
 -1      2147-2.21668E-04-8.72080E-04 6.20012E-03
 -1      2148-1.46938E-03 4.25965E-04 1.15910E-02
 -1      2149 2.57229E-05-6.58752E-04 6.63075E-03
 -1      2150-7.97959E-04-2.98713E-04-3.55834E-03
 -1      2151 1.02713E-03-2.93880E-04 1.38354E-02
 -1      2152 8.76222E-04-4.10289E-04 1.53134E-02
 -1      2153-3.36246E-04 8.20816E-04 1.92750E-03
 -1      2154-6.25141E-05-4.30764E-04-1.62234E-03
 -1      2155 4.59502E-05 8.77983E-04 4.45594E-03
 -1      2156-2.62683E-04 7.89102E-04-6.69761E-03
 -1      2157 2.19930E-04 4.08316E-04-1.81877E-03
 -1      2158 1.56835E-04-9.96274E-05-4.74923E-04
 -1      2159-9.28843E-04 4.16608E-04 3.12845E-03
 -1      2160 3.40917E-04-4.08174E-04 1.59393E-02
 -1      2161-5.50988E-04 2.91355E-04-4.46884E-03
 -1      2162-3.44916E-05 6.62898E-04 4.28624E-03
 -1      2163-6.51973E-04 7.51810E-05 2.60189E-03
 -1      2164-2.21093E-04-3.52922E-04-1.72670E-03
 -1      2165 2.50738E-04-4.12746E-04-2.58336E-03
 -1      2166 1.50371E-03-3.75720E-04 7.18375E-03
 -1      2167 4.95853E-04 8.63030E-04 5.89826E-03
 -1      2168 5.09646E-04 6.92060E-05 1.69288E-02
 -1      2169 5.12550E-04 6.84963E-04 3.01170E-03
 -1      2170-7.99483E-04-8.92937E-04-1.08862E-02
 -1      2171-2.21576E-03-1.90239E-04 8.24799E-03
 -1      2172-1.25879E-04 8.77238E-04-6.87024E-03
 -1      2173 5.95956E-04 4.20096E-04-3.36832E-03
 -1      2174 2.88178E-04 4.28069E-04-2.24455E-03
 -1      2175 1.55921E-03-1.21500E-05-1.10122E-02
 -1      2176 1.76099E-04-3.48363E-04 1.23354E-03
 -1      2177 8.27407E-04 3.93188E-04 5.66260E-03
 -1      2178 7.59742E-04 2.44370E-04-3.13784E-03
 -1      2179-4.77138E-04 5.85910E-04 5.67862E-03
 -1      2180-4.31599E-05 2.11834E-04-6.60589E-04
 -1      2181 2.55922E-04 4.52800E-04-1.88235E-03
 -1      2182-2.60429E-04 4.53693E-04 3.50856E-03
 -1      2183 4.60527E-04 3.78088E-04-2.36984E-03
 -1      2184 1.27128E-03 1.68210E-04-7.90597E-03
 -1      2185-2.71686E-03-1.77353E-04 1.21717E-02
 -1      2186 5.93739E-04-3.21767E-05-1.61532E-02
 -1      2187-5.59662E-04 3.56514E-04 1.63588E-02
 -1      2188-1.19491E-03 4.36737E-05 1.71669E-02
 -1      2189-6.52971E-04-5.10596E-04 8.38009E-03
 -1      2190-2.84109E-03 7.54299E-05 1.13589E-02
 -1      2191-1.48632E-03 3.53596E-04-5.86394E-03
 -1      2192-2.52355E-03 1.09094E-05 1.23026E-03
 -1      2193 7.10317E-04-4.01904E-04 2.91014E-03
 -1      2194-2.36210E-04 2.02207E-04 1.75984E-02
 -1      2195-2.00263E-05 7.95864E-04 6.84307E-03
 -1      2196 3.17339E-04 9.81821E-04 8.55622E-03
 -1      2197 3.59589E-04 5.44398E-04-1.38698E-02
 -1      2198-5.14669E-04 1.02202E-04-2.87967E-03
 -1      2199 1.64679E-04-7.82694E-04-8.87970E-03
 -1      2200-5.03376E-04 2.27441E-04 2.00882E-03
 -1      2201-1.02924E-05 6.40509E-05 2.61627E-04
 -1      2202-1.66090E-03 2.67971E-04 1.46098E-02
 -1      2203-2.00177E-03 1.50400E-04-2.94681E-03
 -1      2204-3.33341E-04-4.55938E-04 2.11703E-03
 -1      2205-1.18846E-03-3.95664E-04 9.47539E-03
 -1      2206-1.28483E-03 4.03637E-05 9.00766E-03
 -1      2207-2.57635E-05 2.50485E-04 1.06971E-03
 -1      2208 1.55639E-03-6.83355E-05-6.81006E-03
 -1      2209-5.78171E-04 1.60364E-04 6.86763E-04
 -1      2210-4.01184E-04-7.45222E-04-5.26281E-03
 -1      2211-3.71919E-03 1.73787E-04 6.99507E-03
 -1      2212 1.44502E-03-2.73480E-04-1.02932E-02
 -1      2213-2.83539E-03-2.05726E-04 5.35932E-03
 -1      2214-6.49769E-04 8.04530E-04 6.84039E-03
 -1      2215-6.39420E-05 5.24756E-04 2.57564E-03
 -1      2216-1.40689E-03 1.76864E-04-8.16549E-03
 -1      2217 3.04335E-04 7.04818E-04-5.43031E-03
 -1      2218-3.77999E-04-3.61238E-04 3.24014E-03
 -1      2219-7.87234E-04 9.29197E-04-1.10620E-02
 -1      2220-1.08955E-03 4.15602E-04 1.46392E-02
 -1      2221-1.07533E-03-3.94506E-04 7.12192E-03
 -1      2222-1.05585E-03 2.24064E-04 1.67657E-02
 -1      2223 8.54376E-04-5.60191E-04 1.41913E-02
 -1      2224 1.57375E-03 1.88642E-04 6.29641E-03
 -1      2225 1.05624E-03-7.98165E-04-9.41376E-03
 -1      2226 5.70520E-04 3.93098E-04 1.58089E-02
 -1      2227 4.24287E-04-4.68816E-04 2.39235E-03
 -1      2228-3.56250E-03-2.02069E-05-8.41356E-03
 -1      2229-2.63046E-04 5.12343E-04 1.48499E-02
 -1      2230-8.49533E-05-2.26455E-04 7.91040E-04
 -1      2231-1.17957E-03-1.09257E-04 4.69771E-03
 -1      2232-3.97761E-04-1.26329E-04-7.59883E-04
 -1      2233-3.90027E-03 3.89430E-05 3.52107E-03
 -1      2234 3.41009E-04-7.34222E-04-5.86184E-03
 -1      2235 4.53479E-04-1.83159E-04 1.07643E-03
 -1      2236-2.82546E-03 2.47655E-04 5.91253E-03
 -1      2237-1.27351E-03 3.97798E-04-1.16672E-02
 -1      2238 3.13264E-04 8.34803E-04 2.61745E-03
 -1      2239-1.07184E-03-2.07562E-04 7.43120E-03
 -1      2240 8.83886E-04-6.97019E-04-1.00263E-02
 -1      2241 7.31597E-04 7.27082E-04 5.45278E-03
 -1      2242-2.95450E-03 2.24035E-04-3.94951E-03
 -1      2243-1.90988E-03-6.86922E-05 3.42613E-03
 -1      2244-1.01837E-03 4.59913E-04-1.00099E-02
 -1      2245-8.56188E-04 5.09466E-04-6.24594E-03
 -1      2246-1.33429E-03 2.38956E-04-2.86399E-03
 -1      2247-1.21368E-04-6.70458E-04 9.47613E-03
 -1      2248-5.27952E-04-3.40831E-04 5.65081E-03
 -1      2249 8.61142E-04 1.09352E-04-1.44198E-02
 -1      2250-3.11526E-03-2.60879E-05 1.07434E-03
 -1      2251-5.48623E-04-3.46665E-04-1.59003E-03
 -1      2252-2.74663E-04 2.31560E-04-1.04888E-03
 -1      2253-8.31669E-05 1.09904E-04-3.74670E-04
 -1      2254-8.53349E-04 3.97330E-04 5.74648E-03
 -1      2255 7.95605E-04 3.78047E-04-3.49189E-03
 -1      2256 1.03378E-03 2.40099E-04-8.09852E-03
 -1      2257-2.19268E-03 2.54012E-04 8.14779E-03
 -1      2258-8.53048E-04 6.07659E-04 1.25998E-02
 -1      2259-4.48015E-04-8.18561E-04-1.34563E-02
 -1      2260-3.46053E-04-1.09869E-04 5.45880E-04
 -1      2261 9.89285E-05 2.36071E-04-1.12630E-03
 -1      2262-3.45444E-04 1.27073E-04 8.24501E-04
 -1      2263-1.74914E-03 2.81330E-04 5.83331E-03
 -1      2264-2.23921E-03 3.29916E-04 1.10701E-02
 -1      2265 9.10675E-04-2.09002E-04-1.44705E-02
 -1      2266 2.10021E-04-5.73300E-04-1.98672E-03
 -1      2267-1.51626E-04-6.70600E-04-1.15848E-02
 -1      2268-2.01839E-05-9.13558E-06 1.78069E-02
 -1      2269-8.49224E-04 3.93467E-04-1.50071E-02
 -1      2270-1.31362E-03-2.79461E-04-7.55527E-03
 -1      2271-3.34439E-03-2.64686E-04-6.55602E-03
 -1      2272 4.87131E-04-6.39768E-04-1.45555E-02
 -1      2273 1.64608E-03 2.35326E-04 9.66106E-03
 -1      2274-2.49219E-03 3.11996E-04 1.26727E-02
 -1      2275-1.86163E-03 2.20369E-04 1.57239E-02
 -1      2276 1.13767E-03-1.39205E-04-1.34550E-02
 -1      2277-1.28463E-04 5.94265E-04-2.55944E-03
 -1      2278-6.72437E-04-3.31570E-04-5.78220E-03
 -1      2279-3.91166E-04-8.53067E-04 6.06745E-03
 -1      2280-9.35656E-04-3.64969E-05 3.93611E-04
 -1      2281-2.98861E-03 1.88316E-04-1.02663E-02
 -1      2282-2.37884E-03-1.99141E-04 5.00281E-03
 -1      2283-5.75764E-04-5.12624E-04 1.04586E-02
 -1      2284-2.62227E-03-4.00147E-06-9.64173E-04
 -1      2285 1.22708E-04-6.69998E-04-9.89349E-03
 -1      2286-1.38813E-04 6.75369E-04-9.66663E-03
 -1      2287 3.95259E-05-3.41185E-04-1.29490E-03
 -1      2288-2.19048E-04-4.06594E-04 1.53377E-03
 -1      2289 5.22626E-04-9.25090E-04 8.43026E-03
 -1      2290-3.56772E-03 2.89890E-04-4.18129E-03
 -1      2291-1.59326E-03-2.26793E-04 8.93172E-03
 -1      2292-1.79512E-03-2.10781E-06 1.60819E-02
 -1      2293-1.81619E-03 2.79589E-04-6.81273E-03
 -1      2294 5.53115E-04-7.83405E-05 1.69839E-02
 -1      2295-1.65033E-03-2.44018E-04 1.06984E-02
 -1      2296 3.49384E-04-7.69844E-04-1.09641E-02
 -1      2297-3.90337E-03 7.28936E-05 2.72817E-03
 -1      2298 6.72781E-04 7.54897E-04 1.07029E-02
 -1      2299 3.59520E-04 8.35257E-04 4.76418E-03
 -1      2300 2.15034E-04 8.40139E-04 1.08275E-02
 -1      2301-1.54253E-03-2.70824E-04-4.73205E-03
 -1      2302 5.61808E-05-2.37995E-04-5.23855E-04
 -1      2303 4.64750E-04 3.50322E-04 2.33058E-03
 -1      2304-1.24336E-03 4.20669E-05-1.65772E-02
 -1      2305 1.17473E-04 4.85225E-04 1.95951E-03
 -1      2306-1.59926E-03 5.40170E-05 9.67597E-04
 -1      2307-1.72875E-03 3.81988E-04 1.31507E-02
 -1      2308-7.40949E-04-2.13263E-04 1.70142E-02
 -1      2309 1.12526E-03 6.84417E-04-9.68164E-03
 -1      2310 1.02802E-03 6.46075E-05 1.51737E-02
 -1      2311 6.56996E-04 7.29899E-04-1.12703E-02
 -1      2312 1.02583E-04-7.89571E-04-5.61742E-03
 -1      2313-5.15987E-04-3.21891E-04-4.64556E-03
 -1      2314-5.73126E-04 3.11469E-04-1.35495E-03
 -1      2315-1.75999E-03-1.65670E-04 1.43594E-02
 -1      2316-6.71068E-04-3.43813E-04 1.53302E-02
 -1      2317-3.89327E-04 8.15039E-04-5.69511E-03
 -1      2318-5.66738E-04 6.35218E-04-1.01559E-02
 -1      2319-2.76522E-03-2.42927E-04 8.59314E-03
 -1      2320-1.07257E-03-3.49529E-04 1.38867E-02
 -1      2321-1.23707E-03 2.15870E-05-1.05134E-03
 -1      2322-4.78236E-04 5.64518E-04 1.07567E-02
 -1      2323 2.79443E-04-9.18382E-06-1.82384E-03
 -1      2324 1.08567E-03-7.39913E-04-6.55580E-03
 -1      2325-9.54636E-04-4.66236E-04-1.32806E-02
 -1      2326 1.00694E-03 5.06842E-04 1.36665E-02
 -1      2327-2.05613E-04 7.23494E-04-1.38605E-02
 -1      2328-1.37828E-03-5.70485E-04-1.15117E-02
 -1      2329-1.40493E-03 4.42787E-04 9.07680E-03
 -1      2330 3.89772E-04-5.14216E-04-2.05964E-03
 -1      2331-3.15656E-03-1.65047E-04-3.66142E-03
 -1      2332-2.82835E-03-1.99082E-04-1.03922E-02
 -1      2333-2.15841E-03-1.32452E-04 1.43983E-02
 -1      2334-1.10821E-03 4.23042E-04 8.07188E-03
 -1      2335 5.65391E-04 2.62330E-04-1.51497E-03
 -1      2336 6.53915E-04-8.80255E-04-6.37850E-03
 -1      2337-6.82073E-04 2.45250E-04 1.63427E-02
 -1      2338 3.03870E-05 6.93384E-04-4.02621E-03
 -1      2339 2.39359E-04 8.82135E-04 9.61915E-03
 -1      2340-1.24423E-04 5.69272E-04-1.86107E-03
 -1      2341-1.14305E-04-6.52816E-04 3.46432E-03
 -1      2342-6.27961E-04-3.37435E-04 1.61387E-02
 -1      2343 1.23247E-03 6.13728E-04 7.48602E-03
 -1      2344 9.18692E-04 2.44612E-04 3.17493E-03
 -1      2345 6.80807E-04-2.09607E-04-2.60680E-03
 -1      2346-9.78733E-04-3.36890E-04-5.54445E-03
 -1      2347-3.69125E-03 3.08031E-05-1.31791E-03
 -1      2348 4.97617E-04 4.56182E-04 3.72705E-03
 -1      2349 5.93343E-04-2.65592E-04-2.94027E-03
 -1      2350-1.28326E-04-8.06525E-05 2.45875E-04
 -1      2351-2.75976E-04-5.12120E-04 3.29364E-03
 -1      2352-1.54319E-04-3.30348E-04 1.89403E-03
 -1      2353-1.17312E-03-4.53996E-05 1.70866E-02
 -1      2354-2.85753E-04 6.80189E-04 1.22832E-02
 -1      2355-2.11804E-03-1.72468E-04-1.41392E-02
 -1      2356 2.52031E-05 2.40175E-04-5.44351E-04
 -1      2357-2.63697E-04 4.18579E-04 2.13184E-03
 -1      2358-5.32028E-04-3.26845E-04 2.01091E-03
 -1      2359 9.63286E-04-7.03439E-04-1.22763E-02
 -1      2360 2.64557E-04-2.68367E-05 4.79747E-03
 -1      2361-4.49337E-04-8.19188E-05-1.73455E-02
 -1      2362 6.44288E-05-5.97695E-04 4.15219E-03
 -1      2363 1.06001E-04 1.89444E-04 4.34028E-04
 -1      2364-1.65374E-03-2.13078E-04-1.23698E-02
 -1      2365 3.06734E-04 1.14676E-04-1.68522E-02
 -1      2366 7.78718E-04 3.56058E-04-3.47419E-03
 -1      2367 1.25678E-04 4.90795E-04 1.56139E-02
 -1      2368-6.32426E-04-3.35267E-04-1.65231E-02
 -1      2369 2.92246E-04-1.81454E-05 2.89173E-03
 -1      2370-2.18030E-04 3.59068E-04-1.62248E-02
 -1      2371 6.20394E-04 2.89061E-04-1.50038E-02
 -1      2372-3.20067E-05 1.84687E-04 5.39871E-04
 -1      2373-1.00463E-03-7.58321E-04-7.69723E-03
 -1      2374 2.03938E-04 6.67244E-04 1.41187E-02
 -1      2375 6.23284E-04 6.20792E-04 1.39585E-02
 -1      2376-2.42065E-04-4.34690E-04-1.53167E-02
 -1      2377-4.06149E-05-1.59561E-04 3.89364E-04
 -1      2378 2.83224E-04-1.12104E-04-1.68865E-02
 -1      2379-7.84541E-04 1.94542E-05-1.74018E-02
 -1      2380-1.99943E-04 5.08103E-04-1.50583E-02
 -1      2381-8.16828E-04-3.68445E-04-7.61245E-03
 -1      2382 6.49002E-04-2.99196E-04-3.29544E-03
 -1      2383 6.85604E-05 3.85443E-04 1.69234E-02
 -1      2384-2.01970E-03 8.54934E-05 5.50053E-04
 -1      2385-6.88904E-04 6.07008E-04-8.49106E-03
 -1      2386-3.69606E-05-1.42352E-04-4.65478E-04
 -1      2387-1.67871E-03-1.67881E-05-2.07523E-03
 -1      2388 5.21458E-04-7.77871E-04 1.16548E-02
 -1      2389-5.87303E-04-3.47650E-04-3.66361E-03
 -1      2390-9.50989E-04 2.71279E-04-1.38718E-03
 -1      2391-1.44995E-03-1.85797E-04-1.57868E-02
 -1      2392-2.56745E-03 2.87765E-04-8.35145E-03
 -1      2393-1.67016E-03 2.21274E-04-3.56925E-03
 -1      2394-2.58377E-03 1.43068E-04-2.36709E-03
 -1      2395-1.65305E-03 1.83699E-04-1.54213E-02
 -1      2396-1.83677E-04 8.09095E-04-8.29335E-03
 -1      2397-1.41307E-03 4.53289E-04-8.43733E-03
 -1      2398-1.79177E-04-6.84205E-04 7.27434E-03
 -1      2399 1.06276E-04 8.62812E-04 7.80664E-03
 -1      2400-3.22678E-04-5.42983E-04 2.54825E-03
 -1      2401-3.26086E-04-5.81829E-04-2.33619E-03
 -1      2402-3.54771E-03 3.22570E-04 4.75822E-03
 -1      2403 2.74000E-04 6.01228E-04-1.34875E-02
 -1      2404 7.97572E-04 4.35895E-04-1.26775E-02
 -1      2405-1.08586E-03 1.90211E-04 3.10711E-03
 -1      2406-1.64145E-03 2.05869E-04 3.52971E-03
 -1      2407 7.49844E-04-6.46639E-04 1.31750E-02
 -1      2408 7.03718E-04 2.23029E-04 1.61210E-02
 -1      2409-9.27592E-04 2.49508E-04-1.64313E-02
 -1      2410-2.47136E-04 4.36606E-04-2.87309E-03
 -1      2411-9.86372E-04-3.92666E-04-1.02570E-02
 -1      2412-2.46522E-03-1.42628E-04-7.59662E-03
 -1      2413-1.11539E-03 1.43733E-04-1.40233E-02
 -1      2414-4.48624E-05 8.07663E-06-1.70679E-02
 -1      2415 4.66861E-04 3.65841E-04 2.51880E-03
 -1      2416-1.28179E-03 8.48041E-05-1.64969E-02
 -1      2417-1.49405E-03-9.10907E-05 3.07041E-03
 -1      2418 1.13332E-03-3.28303E-04-1.26985E-02
 -1      2419-6.64182E-04-4.70755E-04-1.20099E-02
 -1      2420-2.28110E-03-2.14040E-04 1.03134E-02
 -1      2421-1.26175E-03 4.50633E-04-1.26743E-02
 -1      2422-1.26129E-03-4.46789E-05 1.15101E-03
 -1      2423 3.89762E-04-4.72271E-04-1.97345E-03
 -1      2424 1.48907E-04 7.89884E-04-1.18372E-02
 -1      2425-7.67821E-04 6.03623E-04-1.21090E-02
 -1      2426 1.50121E-04-7.84922E-04 9.87974E-03
 -1      2427-3.74317E-03 1.71096E-04-6.17281E-03
 -1      2428-1.77275E-03 2.87875E-04-1.34136E-02
 -1      2429-2.90208E-03-1.94074E-04-7.28411E-03
 -1      2430 7.75055E-04 1.88345E-04 2.74041E-03
 -1      2431-2.02113E-03 4.61565E-05-1.52712E-02
 -1      2432-6.25626E-04-2.62671E-04 2.41891E-03
 -1      2433 5.78941E-05 4.19856E-04 1.24863E-03
 -1      2434 1.17700E-03 5.57871E-04-5.73132E-03
 -1      2435-1.45412E-03 4.61033E-04-1.04425E-02
 -1      2436-1.58166E-03-2.92933E-04 1.35373E-02
 -1      2437-1.89602E-03-1.57186E-04-6.60951E-03
 -1      2438-2.30690E-04 2.51404E-04-1.57892E-03
 -1      2439-9.79637E-04 5.46165E-04 1.04805E-02
 -1      2440-2.37217E-03 2.04813E-04-1.31082E-02
 -1      2441-2.46014E-04 6.52617E-04-1.35036E-02
 -1      2442-1.74954E-03-1.59761E-04-1.36751E-02
 -1      2443 5.67008E-04-6.74020E-04-1.27227E-02
 -1      2444-1.17811E-03-3.56913E-04-1.41542E-02
 -1      2445-9.85867E-04-3.19707E-04-1.63679E-02
 -1      2446 3.88297E-05-2.28128E-04 5.79751E-04
 -1      2447-7.85714E-04-3.58881E-04-1.54200E-02
 -1      2448-4.47632E-04-3.76654E-04-2.63487E-03
 -1      2449-8.83392E-04-1.75385E-04-1.68408E-02
 -1      2450-2.37347E-03 2.37545E-04-5.77565E-03
 -1      2451-2.64061E-03-1.26513E-04-4.39061E-03
 -1      2452-2.48418E-04-6.34131E-04-1.33832E-02
 -1      2453-2.41682E-03 2.57566E-04-1.14261E-02
 -1      2454-2.08625E-03-4.30155E-05-1.49891E-02
 -1      2455-4.57955E-05-2.16129E-04 9.17278E-04
 -1      2456-3.43208E-03-1.96048E-04 4.83370E-03
 -1      2457-2.06240E-03-1.50858E-04-8.44755E-03
 -1      2458 2.33732E-03-1.00700E-03 7.63828E-03
 -1      2459-3.66639E-03 1.44477E-04 1.70540E-03
 -1      2460 2.99822E-03-7.62129E-04 4.22891E-03
 -1      2461-3.89019E-03 9.20308E-05-1.46890E-03
 -1      2462-2.95204E-03 3.08235E-04 1.05332E-02
 -1      2463 3.26412E-03-1.25485E-03 7.24236E-03
 -1      2464-3.35798E-03 1.40573E-04-1.57606E-03
 -1      2465-3.38211E-03-1.67102E-04-8.10741E-03
 -1      2466 2.08009E-04 4.07868E-05-5.21752E-03
 -1      2467-3.82745E-03 5.67260E-06-3.67349E-03
 -1      2468-3.66821E-03-1.45272E-04 4.88671E-03
 -1      2469-3.23160E-03-6.06831E-05 1.03575E-02
 -1      2470 7.80260E-04-5.73288E-04 7.68490E-03
 -1      2471 2.49396E-03 1.01026E-03 7.82953E-03
 -1      2472-1.35903E-03 3.20286E-04 1.47383E-02
 -1      2473-3.36106E-03 3.19095E-04 7.49504E-03
 -1      2474-3.36454E-03 3.79904E-04-6.77740E-03
 -1      2475 1.42056E-03 4.63628E-04 4.44543E-03
 -1      2476 1.81307E-03 6.68457E-04-9.31136E-03
 -1      2477 1.85163E-03-8.87157E-04 8.41093E-03
 -1      2478-3.51473E-03-1.51439E-04-4.32198E-03
 -1      2479 1.61272E-03-6.78668E-04-9.33713E-03
 -1      2480 2.12251E-03-1.11938E-03 8.26288E-03
 -1      2481 2.29567E-03-9.19741E-04-6.97487E-03
 -1      2482 2.56057E-04-4.02322E-04 8.29866E-03
 -1      2483-3.73471E-03 1.45624E-04-1.54762E-03
 -1      2484 1.02635E-03 5.79503E-04 7.86368E-03
 -1      2485-1.31817E-03 1.39925E-04 1.67668E-02
 -1      2486 7.39468E-04-5.14166E-04 8.36915E-03
 -1      2487 2.24635E-03-1.28055E-03 1.01516E-02
 -1      2488 2.85035E-03-7.26736E-04 3.41506E-03
 -1      2489 3.41709E-03-1.26719E-03 6.61710E-03
 -1      2490 1.36146E-03-6.82105E-05 1.08169E-02
 -1      2491 1.44780E-03-7.00131E-04 9.94609E-03
 -1      2492 2.22529E-03-9.19191E-04 9.76330E-03
 -1      2493-3.66283E-03 1.13803E-04-7.91630E-03
 -1      2494-3.23090E-03 3.04155E-04-8.67591E-03
 -1      2495-2.17248E-03 3.03115E-04 1.29424E-02
 -1      2496 2.83559E-03-1.19924E-03 8.07996E-03
 -1      2497 3.22600E-03 3.36923E-05 4.89020E-04
 -1      2498 1.72509E-03-4.88553E-04 4.55987E-03
 -1      2499 8.94214E-04-3.27124E-04 3.80405E-03
 -1      2500-3.13502E-03-1.69472E-04 9.94762E-03
 -1      2501 3.13487E-03 1.18074E-03 8.27239E-03
 -1      2502 2.28083E-03 8.68480E-04-7.12777E-03
 -1      2503-3.67717E-03-1.01464E-04 3.37589E-03
 -1      2504-1.67848E-03 3.25278E-04 1.39668E-02
 -1      2505 4.48369E-04 3.32526E-04-9.29230E-03
 -1      2506-1.72262E-03 3.79018E-04-8.85009E-03
 -1      2507 3.58776E-04-4.52236E-05 1.07606E-02
 -1      2508-2.41387E-03-3.95349E-05-2.97947E-03
 -1      2509-3.63248E-03 1.03411E-04 8.80433E-03
 -1      2510 6.55940E-04-4.54382E-04 9.90086E-03
 -1      2511 7.01680E-04 2.51326E-04 3.73653E-03
 -1      2512 5.25124E-04-1.85422E-04 3.09033E-03
 -1      2513-1.97277E-03 1.70561E-04 3.18071E-03
 -1      2514-3.76544E-03-9.67682E-05 7.30186E-03
 -1      2515-1.95037E-03-2.66422E-04-1.02503E-02
 -1      2516 1.36519E-03-3.35922E-05-1.01380E-02
 -1      2517 1.61982E-03 6.15334E-04 1.00930E-02
 -1      2518 2.43978E-05 8.55543E-06 1.07094E-02
 -1      2519 1.81667E-03-8.19546E-04-7.75025E-03
 -1      2520 2.75181E-04-5.29084E-05 3.62419E-03
 -1      2521-1.49791E-03-1.50669E-05 1.64443E-02
 -1      2522 1.01361E-03-7.84433E-04 9.81259E-03
 -1      2523 1.87140E-03-8.75391E-04 9.60378E-03
 -1      2524-3.79378E-04-1.50865E-04 1.57370E-02
 -1      2525-3.07095E-03 8.54620E-05-1.01835E-02
 -1      2526 8.22534E-04 5.76256E-04-1.13916E-02
 -1      2527 1.26466E-03-5.94306E-04-6.77536E-03
 -1      2528-2.28472E-03-1.19890E-05 3.02910E-03
 -1      2529 1.23094E-04 2.17508E-04-8.84697E-03
 -1      2530 4.75774E-04-3.80416E-04-6.51634E-03
 -1      2531 1.67526E-03 7.97480E-04 8.18617E-03
 -1      2532 9.08874E-04 4.68351E-04-1.01706E-02
 -1      2533 2.45660E-03-1.00575E-03-7.61586E-03
 -1      2534 2.42634E-03-7.99123E-04 1.01998E-02
 -1      2535 4.93156E-04 3.79250E-04-8.95621E-03
 -1      2536 1.02652E-03 4.47761E-04-9.52555E-03
 -1      2537-2.23861E-03 4.03639E-05-6.48817E-04
 -1      2538 1.23437E-03 4.36492E-04 1.04210E-02
 -1      2539-2.52848E-03-3.63272E-05 3.17158E-03
 -1      2540 2.66332E-03 8.85537E-04 6.81151E-03
 -1      2541 8.88004E-04-4.69998E-04 1.02978E-02
 -1      2542 2.95109E-03 5.65547E-04-3.83212E-03
 -1      2543 1.00522E-03-5.76771E-04 9.90950E-03
 -1      2544-1.91069E-03-2.05110E-04 5.31387E-03
 -1      2545 1.34722E-03-6.86594E-04 8.30145E-03
 -1      2546 1.80099E-03-1.07651E-03 9.60797E-03
 -1      2547 2.04415E-03-1.05806E-03-7.67944E-03
 -1      2548 4.56034E-04-4.26973E-04 8.65849E-03
 -1      2549-2.10883E-03 1.51497E-04-1.46377E-02
 -1      2550 2.31825E-03 8.08496E-04 9.77378E-03
 -1      2551 4.32772E-03-7.42391E-05-5.64058E-05
 -1      2552-2.50377E-03 2.66666E-04 8.57480E-03
 -1      2553-1.56332E-03 3.92316E-04 9.63645E-03
 -1      2554 1.12171E-03-2.39740E-04 1.08015E-02
 -1      2555 2.31751E-03-1.05780E-03 8.18110E-03
 -1      2556-2.26810E-03 2.03794E-04-4.08362E-03
 -1      2557 1.87387E-03 1.59903E-05 1.47345E-04
 -1      2558 4.30449E-03-1.78620E-03 8.50458E-03
 -1      2559 2.93679E-03 7.23399E-04 4.46926E-03
 -1      2560-1.81704E-03-1.66438E-04-1.52169E-02
 -1      2561 9.41988E-04-6.16953E-04 8.63567E-03
 -1      2562 2.00511E-03 1.05164E-03 8.47258E-03
 -1      2563 1.72563E-03 4.20123E-04-4.08711E-03
 -1      2564-1.83398E-03-1.94264E-04 9.20588E-03
 -1      2565-2.27197E-03-1.54104E-04 1.33313E-02
 -1      2566 8.13923E-04 1.87960E-05 1.08277E-02
 -1      2567 1.64409E-03-2.68492E-04 1.07564E-02
 -1      2568 9.12562E-04-2.79844E-05 1.29386E-02
 -1      2569 6.94430E-04-1.17287E-04 1.08114E-02
 -1      2570 4.70104E-04 4.23160E-04 7.28278E-03
 -1      2571 8.38201E-04 4.68074E-04-7.17354E-03
 -1      2572 1.12178E-03-1.86611E-04-1.01367E-02
 -1      2573 2.14399E-03 6.24554E-04 5.03474E-03
 -1      2574 1.17369E-03-7.72257E-04-1.18834E-02
 -1      2575 9.20116E-04-5.89201E-04 9.57691E-03
 -1      2576 6.21811E-04 4.40270E-05-1.01438E-02
 -1      2577-1.09945E-03 4.50753E-04-7.66482E-03
 -1      2578-1.52229E-03-1.44230E-05-1.60331E-02
 -1      2579-2.28588E-03 2.92455E-04-8.15910E-03
 -1      2580 4.81621E-04-1.75465E-04-2.59620E-03
 -1      2581-1.64877E-03 5.31100E-05-1.58112E-02
 -1      2582 3.17979E-04 4.23876E-04-8.71782E-03
 -1      2583 1.93349E-03 9.34519E-05-1.00955E-02
 -1      2584-2.02470E-03 1.96151E-04-1.35369E-02
 -1      2585-2.54940E-03-1.51742E-04 7.75219E-03
 -1      2586-2.32862E-03-1.75853E-04 8.98410E-03
 -1      2587 1.41238E-03-7.23532E-04 9.58210E-03
 -1      2588-3.19196E-05-4.97022E-05 1.06997E-02
 -1      2589-1.44635E-03-2.15901E-04 1.46828E-02
 -1      2590 1.94028E-03 7.98664E-04 9.65145E-03
 -1      2591 2.26939E-03 6.49580E-04 1.02895E-02
 -1      2592 1.93593E-03 6.43907E-04 1.01417E-02
 -1      2593 1.23377E-03 6.94762E-04 1.14094E-02
 -1      2594-1.49736E-03-2.77968E-04-1.36260E-02
 -1      2595-2.19417E-03-1.99546E-04-1.19476E-02
 -1      2596 1.65085E-03-9.05363E-04 9.41141E-03
 -1      2597 1.26460E-03-8.27992E-04 1.16485E-02
 -1      2598 1.35564E-03 6.14394E-06 1.71015E-04
 -1      2599 8.82307E-04-6.67661E-05-1.26439E-02
 -1      2600 1.07103E-03-1.35421E-04-1.19179E-02
 -1      2601 2.05871E-04 2.94121E-04-7.80918E-03
 -1      2602 3.07495E-03-1.27205E-03 1.08984E-02
 -1      2603 7.48112E-04-5.25347E-04 1.06009E-02
 -1      2604 4.40295E-04-4.61659E-04 9.54804E-03
 -1      2605 1.36977E-03 4.75582E-04-9.68396E-03
 -1      2606 7.76577E-05 6.44708E-05-1.01042E-02
 -1      2607 1.34950E-03-8.60945E-04-9.27579E-03
 -1      2608 1.61522E-03-7.57911E-04 7.31223E-03
 -1      2609 3.58972E-04-9.57334E-05 1.07539E-02
 -1      2610-1.75186E-03-2.71388E-04-1.01958E-02
 -1      2611 4.09698E-03 6.40879E-04-3.27066E-03
 -1      2612 2.50000E-03 8.74933E-04-8.96684E-03
 -1      2613 4.09339E-03 8.49439E-04-4.51289E-03
 -1      2614 3.32406E-03 1.09132E-03-6.69302E-03
 -1      2615 1.22118E-03-8.59657E-04 1.26204E-02
 -1      2616 8.49354E-04 2.46832E-04 3.06390E-03
 -1      2617 4.10381E-03-8.73444E-04 3.67710E-03
 -1      2618 2.45219E-04-4.20180E-05-1.01231E-02
 -1      2619 3.70827E-04-3.21264E-05-1.14157E-02
 -1      2620 2.46338E-03 9.53528E-04-8.67312E-03
 -1      2621 1.96931E-03-2.08978E-05 1.07127E-02
 -1      2622 3.04361E-03-9.67464E-04 6.44280E-03
 -1      2623 5.07390E-04-1.66331E-05-1.14986E-02
 -1      2624 4.02891E-03 8.44538E-04 3.91264E-03
 -1      2625 1.11304E-03 3.60978E-04-9.90409E-03
 -1      2626 1.27067E-04-2.99278E-04 1.01935E-02
 -1      2627 3.21694E-03-1.13497E-03-6.73512E-03
 -1      2628 2.34012E-03-8.93311E-04-9.05857E-03
 -1      2629 2.29203E-03-1.55752E-04 1.76677E-03
 -1      2630 8.89510E-04-1.16397E-05-1.15209E-04
 -1      2631 3.66745E-04-8.02333E-05 1.20451E-02
 -1      2632 3.55008E-03-7.54380E-04-3.58969E-03
 -1      2633 3.67896E-03-9.68235E-04 4.84544E-03
 -1      2634 7.15610E-04-3.14472E-04 4.91306E-03
 -1      2635 4.08170E-03-1.23283E-03 6.24330E-03
 -1      2636 3.01246E-03 1.14322E-03 1.11504E-02
 -1      2637 1.19064E-03 7.96137E-04 1.26334E-02
 -1      2638 1.70783E-03 7.49466E-04 7.37171E-03
 -1      2639 1.56061E-03-2.25372E-04-1.01051E-02
 -1      2640 3.11960E-03-5.64436E-05-1.12147E-03
 -1      2641 3.35883E-03 6.30508E-04 3.47352E-03
 -1      2642 2.69355E-03-5.27248E-04-3.05918E-03
 -1      2643 2.77162E-03 6.73693E-04 3.70694E-03
 -1      2644 4.15009E-04-4.24374E-04 7.04884E-03
 -1      2645 2.79708E-03 1.02418E-03-7.58546E-03
 -1      2646 2.34427E-03-6.88798E-04 5.00221E-03
 -1      2647 3.63295E-03-8.35373E-05 1.78044E-04
 -1      2648 2.08027E-03 9.31363E-04 8.44388E-03
 -1      2649 4.05519E-03 1.53253E-04 1.16979E-03
 -1      2650 1.14731E-03 6.11545E-04 7.14707E-03
 -1      2651 1.71813E-03-4.34345E-04 3.30975E-03
 -1      2652 6.66697E-04-1.49318E-04-1.01191E-02
 -1      2653 1.19637E-03-4.63235E-04-9.67151E-03
 -1      2654 1.17489E-05 1.62946E-04-9.57859E-03
 -1      2655 1.94379E-03-7.61356E-04-6.40088E-03
 -1      2656-3.96709E-04 1.25904E-04-1.51257E-02
 -1      2657 3.68645E-04 3.36662E-04-6.42654E-03
 -1      2658 1.23061E-03-6.15389E-04-6.76194E-03
 -1      2659 8.59926E-04 2.67886E-04-4.30099E-03
 -1      2660 8.18141E-04-4.97412E-04-9.14172E-03
 -1      2661 1.90617E-03-8.73122E-04 1.05322E-02
 -1      2662 9.83874E-04-5.20828E-04-6.21946E-03
 -1      2663 1.92317E-03 1.13727E-03 1.05039E-02
 -1      2664 3.91869E-04 3.93201E-04 8.19781E-03
 -1      2665 1.80203E-03 8.38470E-04 1.17769E-02
 -1      2666 5.36394E-04 3.12627E-04-9.75221E-03
 -1      2667 2.68257E-03-1.11802E-03 9.43814E-03
 -1      2668 1.05919E-03 1.21518E-04-1.01470E-02
 -1      2669 5.02788E-04-3.83722E-04 1.02858E-02
 -1      2670 6.75710E-04 4.83474E-05-7.80528E-04
 -1      2671 3.40775E-03-6.64597E-04 3.28056E-03
 -1      2672 1.91064E-03 7.37851E-04-9.96156E-03
 -1      2673-1.96222E-03-2.17236E-04 9.87000E-03
 -1      2674 3.73846E-04-1.31282E-04-1.00960E-02
 -1      2675 3.40336E-04-2.73347E-04 5.40422E-03
 -1      2676 2.58089E-03 1.06458E-03 8.53200E-03
 -1      2677 6.27994E-04-4.43499E-04-7.46933E-03
 -1      2678 2.80817E-03 7.91545E-04-6.32042E-03
 -1      2679-3.81382E-03-4.43649E-05-4.76293E-03
 -1      2680 2.34222E-03-7.62493E-04-9.55747E-03
 -1      2681 1.80466E-04 5.87185E-05 5.66866E-03
 -1      2682 1.36009E-03 1.46056E-04-1.01467E-02
 -1      2683 2.78986E-03-1.07733E-03-6.75259E-03
 -1      2684-3.38784E-03 2.26674E-04-8.79486E-03
 -1      2685 1.16996E-03-7.28709E-04 9.38552E-03
 -1      2686 3.30591E-04 1.22636E-05 1.07828E-02
 -1      2687 1.55899E-03 3.87780E-04 3.35588E-03
 -1      2688 1.66910E-03 8.96700E-04-9.63773E-03
 -1      2689 2.18555E-04 3.38476E-04 9.80857E-03
 -1      2690 1.31778E-03-2.85459E-04-1.00924E-02
 -1      2691 1.96781E-03-8.22075E-04-8.92322E-03
 -1      2692 4.20642E-03-9.39283E-04-4.22768E-03
 -1      2693 1.85255E-03-7.93536E-04-9.89514E-03
 -1      2694 1.81299E-03 9.21426E-04-1.11893E-02
 -1      2695 6.91226E-04-3.64249E-04-9.63955E-03
 -1      2696 1.39394E-03 5.97888E-04-9.53287E-03
 -1      2697 9.33647E-04 4.45499E-04 1.00208E-02
 -1      2698 1.55161E-03 6.85575E-04-6.78760E-03
 -1      2699 4.22560E-03-7.30480E-04 2.88471E-03
 -1      2700 1.07492E-03 6.45891E-04 8.52440E-03
 -1      2701 4.58888E-03-1.60309E-04 6.47743E-04
 -1      2702 4.63365E-03 1.05595E-04-7.45113E-04
 -1      2703 1.55063E-03 7.08359E-04 6.87809E-03
 -1      2704-3.64222E-03-1.18165E-04-4.16386E-03
 -1      2705-2.29234E-03 1.12343E-04 2.17666E-03
 -1      2706 1.53833E-03-3.83699E-04 3.04922E-03
 -1      2707 4.79896E-04-4.64729E-04-1.11814E-02
 -1      2708 6.11928E-04 3.19486E-04 4.99269E-03
 -1      2709 4.95412E-04-5.25870E-04 1.18262E-02
 -1      2710 8.86293E-04 4.63447E-04-9.16451E-03
 -1      2711 2.07528E-03 8.24014E-04 1.05714E-02
 -1      2712 2.01229E-03 9.29075E-04-7.60648E-03
 -1      2713 1.61701E-03 8.22129E-04 8.72636E-03
 -1      2714 1.58650E-03-7.89203E-04-8.09333E-03
 -1      2715 2.80654E-03 5.53427E-04 3.27770E-03
 -1      2716 2.28623E-03-1.00172E-03-8.75199E-03
 -1      2717 2.74471E-03-1.02668E-03-6.28399E-03
 -1      2718 1.76538E-03-6.66189E-04 1.02086E-02
 -1      2719 3.52575E-03-1.59712E-04-5.59489E-04
 -1      2720 3.29090E-03 1.92090E-04 1.46885E-03
 -1      2721 2.09800E-03-1.38469E-04-1.00011E-02
 -1      2722 7.84546E-04-2.75366E-04-4.06769E-03
 -1      2723 4.04330E-03 2.01774E-04 2.19625E-03
 -1      2724 5.37453E-05-3.10292E-04 9.49969E-03
 -1      2725 7.02340E-04-4.00171E-04 5.57352E-03
 -1      2726 8.50248E-04 3.32483E-04-9.84393E-03
 -1      2727 1.16783E-03 1.15066E-04 1.08236E-02
 -1      2728 1.54325E-03 8.21161E-04-8.99004E-03
 -1      2729 2.74517E-03-4.40145E-04-2.26815E-03
 -1      2730 2.44870E-03 1.07564E-04 1.09395E-03
 -1      2731 2.96081E-03 9.51565E-04-9.98007E-03
 -1      2732 1.84374E-03 5.70298E-04-9.66783E-03
 -1      2733 2.87912E-03-5.85911E-04 2.97426E-03
 -1      2734 1.21751E-03-4.58227E-04 5.09450E-03
 -1      2735 1.23613E-03 6.86028E-04 7.63120E-03
 -1      2736 2.66614E-03 7.88426E-04 5.34021E-03
 -1      2737 2.45916E-03-9.56365E-05 5.16122E-04
 -1      2738 1.43664E-03-5.33425E-05-5.94900E-04
 -1      2739 1.38776E-03 7.18734E-04 8.59129E-03
 -1      2740 2.25453E-03-9.26501E-04 6.96341E-03
 -1      2741 2.55350E-03 5.25758E-04 3.63012E-03
 -1      2742 1.21667E-03-3.24421E-04 3.08741E-03
 -1      2743 8.75230E-04-2.36930E-04-1.01172E-02
 -1      2744 1.75645E-03 5.79493E-04-5.95455E-03
 -1      2745-2.00179E-03 2.80907E-04-8.59729E-03
 -1      2746 9.15610E-04 4.73306E-05 1.21906E-03
 -1      2747 3.73914E-03 2.85096E-04 1.82779E-03
 -1      2748 7.89014E-04-4.22896E-05 1.02410E-03
 -1      2749 2.29359E-03 4.21075E-04-3.24195E-03
 -1      2750 4.29266E-03 2.42684E-04-1.36006E-03
 -1      2751 7.55395E-04 2.30516E-04-3.04457E-03
 -1      2752 6.39894E-04 4.75061E-04 9.69850E-03
 -1      2753 2.78468E-04 2.70936E-04-9.60616E-03
 -1      2754 2.05153E-03 4.01108E-05-6.86005E-04
 -1      2755 1.46033E-03 5.27625E-04 5.35735E-03
 -1      2756 1.95020E-03-5.08104E-04-4.07632E-03
 -1      2757 1.81442E-03 6.75478E-04 5.69928E-03
 -1      2758 4.05396E-03-2.67722E-04-8.57776E-04
 -1      2759 7.86026E-04 5.03704E-04 6.92871E-03
 -1      2760-2.73339E-03-8.87029E-05-1.17510E-02
 -1      2761 1.38041E-03 5.93463E-04 6.56081E-03
 -1      2762 4.07587E-03 7.16800E-05-1.50662E-03
 -1      2763 3.79962E-03-2.17620E-04 1.14410E-03
 -1      2764 1.66892E-03 7.82517E-05 1.20458E-03
 -1      2765 1.91934E-03-6.73013E-05-1.24240E-03
 -1      2766 4.37750E-03-3.59748E-04 1.45115E-03
 -1      2767-2.26824E-03-1.88838E-04-1.29686E-02
 -1      2768 6.84248E-04 3.57021E-04 5.74439E-03
 -1      2769-1.66982E-04 4.23282E-04-1.27939E-02
 -1      2770 1.48734E-03-6.49051E-04-6.20373E-03
 -1      2771 6.49431E-04 3.72805E-04-9.42673E-03
 -1      2772 4.26600E-03 8.30167E-04 3.28549E-03
 -1      2773 2.69997E-03-8.02079E-04-5.86986E-03
 -1      2774 1.58748E-04-7.41601E-05 2.61630E-03
 -1      2775 4.35185E-03 3.16521E-04 1.82603E-03
 -1      2776 5.98959E-05 2.66619E-04 1.03150E-02
 -1      2777 4.16391E-03 5.55713E-04-2.60880E-03
 -1      2778 1.75996E-04 2.64302E-05 7.80107E-03
 -1      2779 1.59455E-03 8.61370E-05 1.07828E-02
 -1      2780 1.34160E-03-3.35688E-04 1.07592E-02
 -1      2781 4.65379E-04 1.27551E-04-3.00674E-03
 -1      2782 1.35799E-03 2.21966E-04 1.07927E-02
 -1      2783 8.73177E-04 1.63752E-04 1.08099E-02
 -1      2784 3.98318E-04 8.83145E-05-1.01273E-02
 -1      2785 2.00058E-03-9.94124E-04 1.17815E-02
 -1      2786 4.45550E-03-1.10974E-03 4.61006E-03
 -1      2787 2.56565E-03 2.23816E-05 1.81961E-04
 -1      2788 3.13468E-04 3.10773E-04-8.73139E-03
 -1      2789 2.77805E-03 5.82394E-04-3.18720E-03
 -1      2790 9.68546E-04-8.88567E-05 1.29718E-02
 -1      2791 3.77390E-03 1.04576E-03 6.46637E-03
 -1      2792 3.43005E-03-5.78504E-04-2.62668E-03
 -1      2793 1.44539E-03-3.31923E-04-3.03263E-03
 -1      2794 3.25247E-03 1.10183E-03-9.19149E-03
 -1      2795 2.48925E-03 6.19704E-04-4.72324E-03
 -1      2796 1.95532E-03-6.33881E-04 1.03651E-02
 -1      2797 4.04836E-03-2.19408E-04 1.78784E-03
 -1      2798-3.03034E-03 3.62453E-04 9.46856E-03
 -1      2799 2.36291E-03-5.35609E-04 3.84320E-03
 -1      2800 1.83831E-03-3.21051E-04-1.00217E-02
 -1      2801 4.47718E-03-1.58307E-03 7.02895E-03
 -1      2802 8.50552E-05-1.16000E-04 1.07316E-02
 -1      2803 5.52389E-03-1.30374E-03 4.56631E-03
 -1      2804 7.10810E-04 4.43799E-04-7.86280E-03
 -1      2805 3.24872E-03 7.42598E-04-4.61819E-03
 -1      2806 3.01402E-03-1.22949E-03 7.34852E-03
 -1      2807 1.02949E-05 3.01984E-05 9.28951E-03
 -1      2808-3.37484E-03 2.29925E-04 9.24330E-03
 -1      2809 2.38875E-03-9.00716E-04-6.08114E-03
 -1      2810 2.06832E-03 1.91179E-04 1.76633E-03
 -1      2811 1.66953E-03-8.92529E-05 1.20818E-02
 -1      2812 1.30476E-03-2.71721E-04-2.38878E-03
 -1      2813 1.48724E-03-6.06997E-04 6.33766E-03
 -1      2814 5.95469E-03 1.28614E-05 4.74229E-04
 -1      2815 1.62125E-03-7.53753E-05 1.20387E-02
 -1      2816 1.19791E-04-9.97425E-05 5.28006E-03
 -1      2817 2.10026E-04 1.15041E-05 1.48030E-03
 -1      2818 2.31330E-03-9.63017E-04 1.12998E-02
 -1      2819 2.44771E-03-7.34591E-04 1.03191E-02
 -1      2820 2.12716E-03-2.60497E-04 1.07023E-02
 -1      2821 2.73050E-03 9.34143E-04-6.42029E-03
 -1      2822 1.57546E-03-5.02534E-04 1.04971E-02
 -1      2823 1.28147E-03-7.48846E-04 1.14583E-02
 -1      2824 3.54465E-03 9.39688E-04-5.91207E-03
 -1      2825 7.36221E-04 5.91819E-04-9.34113E-03
 -1      2826 2.02944E-03 8.12394E-04-8.96633E-03
 -1      2827 3.92059E-03 7.08353E-05-6.12139E-04
 -1      2828 1.29113E-03 6.20659E-04-7.50846E-03
 -1      2829 2.77790E-03 1.35511E-03 9.87651E-03
 -1      2830 1.53958E-03-2.05247E-05-1.14561E-02
 -1      2831 2.28856E-03-1.05627E-03 9.40659E-03
 -1      2832 2.03966E-03 1.02887E-04-1.54175E-03
 -1      2833 2.14120E-03-6.71457E-04 1.04089E-02
 -1      2834 1.73857E-03 7.43934E-04-7.32503E-03
 -1      2835 1.77869E-04-2.82625E-04 6.63975E-03
 -1      2836 3.01527E-03 1.06035E-03-6.89206E-03
 -1      2837 1.47587E-03 7.48274E-04 9.59441E-03
 -1      2838 1.99701E-03-6.07899E-04-9.77625E-03
 -1      2839-9.41564E-05 1.63792E-04 1.04519E-02
 -1      2840 2.98470E-03 4.82700E-04-2.91557E-03
 -1      2841 5.73998E-03 2.54977E-04 1.64701E-03
 -1      2842 1.63729E-04-5.14644E-05 8.27298E-03
 -1      2843 2.91386E-04-4.15574E-04 9.30639E-03
 -1      2844-1.28158E-04 5.66154E-05-1.00290E-02
 -1      2845 6.57943E-04-2.32173E-04 3.05741E-03
 -1      2846 1.28156E-03-7.08637E-04-1.09856E-02
 -1      2847 3.92049E-03 6.55191E-04 3.23273E-03
 -1      2848 6.17951E-04-4.58885E-04 6.52318E-03
 -1      2849 2.73770E-03 1.11095E-03 9.40431E-03
 -1      2850 2.75374E-03 2.14462E-04 1.79108E-03
 -1      2851 2.03194E-03-9.52094E-05-7.31241E-04
 -1      2852 4.67015E-04-8.47102E-06-7.15860E-04
 -1      2853 6.86023E-04-2.36480E-04-2.97232E-03
 -1      2854 3.07806E-03-1.19248E-03-1.02556E-02
 -1      2855 5.76209E-03 1.51182E-04-1.04640E-03
 -1      2856 1.24913E-03-6.59377E-04 7.38685E-03
 -1      2857 1.78109E-03 8.59933E-04 9.47358E-03
 -1      2858 3.16899E-03 1.12458E-03-7.75604E-03
 -1      2859 4.67913E-03 2.26585E-04-1.66896E-03
 -1      2860 2.19421E-03 8.25610E-04-7.83340E-03
 -1      2861 2.95489E-03-8.70669E-04 5.11047E-03
 -1      2862 3.18803E-03-1.21718E-03-7.46806E-03
 -1      2863 5.93247E-04 3.10880E-04 1.04210E-02
 -1      2864 2.73962E-03-1.11996E-03-7.87277E-03
 -1      2865 2.48823E-03-8.56048E-04 6.19647E-03
 -1      2866 1.95483E-04-4.36129E-06-1.28706E-03
 -1      2867 3.31269E-03-5.57074E-04 2.76555E-03
 -1      2868 3.10971E-03-1.54654E-04 8.32266E-04
 -1      2869 2.00926E-03-4.40577E-04-3.23910E-03
 -1      2870 2.60697E-03-2.18687E-04 1.36075E-03
 -1      2871 1.59980E-03-3.53313E-04-1.00405E-02
 -1      2872 3.77238E-03-1.01725E-03-5.62030E-03
 -1      2873 2.28374E-03 9.43024E-04 7.20696E-03
 -1      2874 2.72227E-03-1.15520E-03-8.72137E-03
 -1      2875 2.69364E-03 1.09279E-03 7.60057E-03
 -1      2876 1.34385E-03-7.07516E-04 1.00604E-02
 -1      2877 9.46500E-04 7.16115E-04 9.93240E-03
 -1      2878 6.65236E-04 5.04746E-04 8.58434E-03
 -1      2879 4.42010E-03-7.93899E-04-2.82881E-03
 -1      2880 4.36728E-03-8.57957E-04 2.94703E-03
 -1      2881-1.85128E-04 1.33001E-04-9.71008E-03
 -1      2882 1.77534E-03-1.05553E-04 1.06486E-03
 -1      2883 3.84011E-03-1.51678E-04-1.20560E-03
 -1      2884 1.27509E-03 3.64051E-04 3.66622E-03
 -1      2885 1.12391E-03-3.91474E-04-9.88071E-03
 -1      2886 1.85012E-03-6.55577E-04-9.58743E-03
 -1      2887 1.73369E-03-5.56212E-04-9.79045E-03
 -1      2888 3.00126E-03-6.40854E-04-2.76844E-03
 -1      2889 1.42702E-03 6.31172E-04-9.11297E-03
 -1      2890 1.29367E-03-8.19054E-05-1.08513E-02
 -1      2891 4.68753E-03 9.11155E-04 3.93887E-03
 -1      2892 2.26510E-03 9.65339E-04 9.48494E-03
 -1      2893 3.88786E-03 6.13929E-04-2.81587E-03
 -1      2894 1.33778E-04 1.91303E-04-9.83892E-03
 -1      2895 1.22766E-03 4.46519E-04-4.81310E-03
 -1      2896 9.12022E-04-1.30517E-04-1.06675E-02
 -1      2897 3.29986E-03-1.29799E-03-7.79496E-03
 -1      2898 2.16988E-03-9.92004E-04-1.09334E-02
 -1      2899 1.05764E-03 6.15174E-04 9.67687E-03
 -1      2900 6.91150E-04 4.76280E-04-1.07466E-02
 -1      2901 1.33523E-03-6.49504E-04-9.01458E-03
 -1      2902 1.25797E-03 6.91065E-04-1.09496E-02
 -1      2903 1.04030E-03 5.48941E-04-7.99997E-03
 -1      2904 3.48184E-03 5.42582E-04-3.26220E-03
 -1      2905 3.05806E-03 1.11400E-03-1.04086E-02
 -1      2906 4.13071E-03-7.49940E-04-2.43893E-03
 -1      2907 3.94351E-04 3.60022E-04-8.12943E-03
 -1      2908 1.84571E-03 1.05254E-03 9.87636E-03
 -1      2909 8.09536E-04-4.53342E-04-1.00696E-02
 -1      2910 6.49236E-04-3.80450E-04-5.96145E-03
 -1      2911 2.58525E-03 3.70433E-04-2.60412E-03
 -1      2912 4.43242E-04 3.84314E-04 6.79762E-03
 -1      2913 2.14445E-03 9.60013E-04 8.78156E-03
 -1      2914 1.93632E-03 8.17229E-04 7.22707E-03
 -1      2915 5.37256E-03 1.20166E-03 4.93242E-03
 -1      2916 2.24964E-03 7.49026E-04 5.56471E-03
 -1      2917 8.25484E-04 5.85585E-04 8.86270E-03
 -1      2918 3.58751E-03 8.94543E-04 5.08929E-03
 -1      2919 1.83280E-04-1.19552E-05-6.66448E-03
 -1      2920 1.32669E-03-5.38686E-04 1.03652E-02
 -1      2921 1.74352E-03 7.61364E-04-8.86658E-03
 -1      2922 2.12245E-03-2.01712E-04 1.57996E-03
 -1      2923 3.55699E-03-6.31919E-04 2.77442E-03
 -1      2924 1.24697E-03 2.97168E-04-3.61595E-03
 -1      2925 1.13728E-03 2.26519E-04-1.01187E-02
 -1      2926 4.26830E-03 1.65700E-03 8.51290E-03
 -1      2927 3.96515E-03 1.53255E-03 8.89033E-03
 -1      2928 3.19578E-03 1.27130E-03 8.60777E-03
 -1      2929 3.00720E-03-7.84468E-05-2.38522E-04
 -1      2930 8.38779E-04 5.14873E-04-8.87437E-03
 -1      2931 2.03610E-03 1.64509E-04 2.24451E-03
 -1      2932 2.94387E-03-5.13380E-04-2.33600E-03
 -1      2933 2.53060E-03-1.06583E-04-6.00567E-04
 -1      2934 5.76155E-03-3.48454E-04 1.35585E-03
 -1      2935 4.58147E-03-2.61054E-04-1.29108E-03
 -1      2936 1.26807E-03 1.36355E-04 1.73418E-03
 -1      2937 1.03405E-03-6.13730E-04-8.80242E-03
 -1      2938 3.14654E-04 2.54585E-04-9.83287E-03
 -1      2939 6.70117E-04 1.35318E-04-1.01445E-02
 -1      2940 9.70922E-04 6.36397E-04 1.16987E-02
 -1      2941 1.81921E-04-2.84990E-04-9.31878E-03
 -1      2942 1.33676E-03 4.06859E-05-8.52012E-04
 -1      2943 2.85347E-03 3.18598E-05-4.72388E-04
 -1      2944 1.87014E-03 5.63535E-04-4.90526E-03
 -1      2945 3.23110E-04-2.54534E-04-9.67478E-03
 -1      2946-5.41492E-06-6.23687E-05 9.12581E-03
 -1      2947 1.20855E-04 1.01497E-04-1.00754E-02
 -1      2948 4.64909E-03 3.19010E-04 2.31119E-03
 -1      2949 4.11838E-04-4.71204E-05 1.51953E-03
 -1      2950 1.48112E-03-3.23894E-04 2.71871E-03
 -1      2951 1.17945E-03 5.77357E-04 1.04494E-02
 -1      2952 3.04290E-03-1.05220E-03-6.23920E-03
 -1      2953 3.21889E-03 1.09781E-03-6.22672E-03
 -1      2954 3.62262E-03 8.61063E-04-4.94842E-03
 -1      2955 2.15709E-03 8.25110E-04-6.56874E-03
 -1      2956 1.33670E-03-5.01356E-04 1.05199E-02
 -1      2957-6.45425E-05-2.18158E-04-9.58211E-03
 -1      2958 1.86072E-04 2.51799E-04 8.61029E-03
 -1      2959 1.28344E-03-4.41159E-05 9.06353E-04
 -1      2960 2.79333E-03 1.17501E-03 8.70581E-03
 -1      2961 3.80516E-03 2.14435E-04-1.25906E-03
 -1      2962 2.48402E-03 8.40969E-04 5.84588E-03
 -1      2963 3.36662E-04 6.56682E-05-1.28945E-03
 -1      2964 2.83345E-03 1.27149E-03-9.28088E-03
 -1      2965 2.40364E-03 9.32741E-04-8.03800E-03
 -1      2966 3.24432E-03 1.47718E-04-1.05189E-03
 -1      2967 2.52598E-03 8.46663E-04 6.47065E-03
 -1      2968 1.16252E-03-6.43368E-04-7.64230E-03
 -1      2969 1.54450E-03-3.32142E-04-2.51840E-03
 -1      2970-1.92222E-04-1.72945E-04-9.74066E-03
 -1      2971-8.73774E-05 1.63495E-04-8.63232E-03
 -1      2972 2.93827E-03-9.87730E-04-1.01090E-02
 -1      2973 1.05353E-03-1.40232E-04 1.53223E-03
 -1      2974 1.07154E-04 9.48026E-05 5.23285E-03
 -1      2975 1.64876E-03 2.13469E-04-1.00932E-02
 -1      2976 2.52770E-03-4.67581E-05-1.11074E-02
 -1      2977 9.21095E-04-5.72065E-05-1.10766E-02
 -1      2978 1.96221E-03-3.34229E-04-2.26007E-03
 -1      2979 9.35074E-05-1.90158E-04-9.78213E-03
 -1      2980 1.06541E-04 9.55189E-05 1.07649E-02
 -1      2981 4.93115E-04 1.52014E-04-1.01189E-02
 -1      2982 4.11885E-04-1.54797E-05 1.21446E-02
 -1      2983 1.02386E-03-5.48007E-04-1.05769E-02
 -1      2984 6.91556E-04 8.64433E-05-1.32190E-03
 -1      2985 1.31699E-03-4.41004E-04-4.53533E-03
 -1      2986 2.98903E-03-7.64018E-04-4.44258E-03
 -1      2987 2.00336E-03 8.46581E-04 6.92035E-03
 -1      2988 3.03549E-03-3.02558E-04 1.57548E-03
 -1      2989 3.01527E-03-2.46795E-04 1.86669E-03
 -1      2990 1.41493E-03-5.04626E-04-5.70186E-03
 -1      2991 1.46318E-03-6.51246E-04-1.05867E-02
 -1      2992 3.89031E-04-1.99692E-04-4.61653E-03
 -1      2993 2.28050E-04-1.58520E-05-4.71012E-03
 -1      2994 1.70002E-03-1.26227E-04-1.05875E-03
 -1      2995 4.93757E-03-3.20135E-04 1.18070E-03
 -1      2996 1.49698E-03 4.67687E-04-9.84421E-03
 -1      2997 1.94687E-03-1.80454E-04 1.91240E-03
 -1      2998 3.17063E-03 1.43802E-03 9.55607E-03
 -1      2999 3.76467E-04 1.49067E-04 3.18625E-03
 -1      3000 2.76501E-03 1.04000E-03-7.93981E-03
 -1      3001 6.48186E-05 2.71879E-04 9.53014E-03
 -1      3002 3.33450E-04 3.40739E-04 1.04216E-02
 -1      3003-3.03655E-05-8.61751E-05 9.31957E-03
 -1      3004 1.59021E-03 6.99956E-04-7.88524E-03
 -1      3005 3.80193E-03 1.23020E-03-6.70397E-03
 -1      3006 2.29815E-03-4.34709E-04-2.68015E-03
 -1      3007 1.66031E-03-7.86529E-04-8.79098E-03
 -1      3008 4.21363E-03 1.45548E-03-7.80640E-03
 -1      3009 1.50997E-03 3.10578E-04-2.80896E-03
 -1      3010 2.34719E-03 9.20468E-04 6.73738E-03
 -1      3011 1.16087E-03 5.45735E-04-8.96325E-03
 -1      3012 3.76240E-03-6.26184E-04 2.84078E-03
 -1      3013 4.33314E-03 1.37671E-03-6.90840E-03
 -1      3014 4.44776E-03 1.37006E-03-6.28017E-03
 -1      3015 2.91878E-03 1.01706E-03-6.05208E-03
 -1      3016 3.55579E-03-8.54242E-04-4.29021E-03
 -1      3017 1.99494E-03 3.18909E-04-2.66257E-03
 -1      3018 3.72742E-03-1.26398E-03-6.10157E-03
 -1      3019 1.01699E-03 5.28280E-04 7.06845E-03
 -1      3020 1.52419E-03 3.22205E-04-2.77540E-03
 -1      3021 1.93973E-04 4.78334E-05-5.95126E-03
 -1      3022 1.80807E-03-3.60110E-04-2.66388E-03
 -1      3023 2.25467E-04 5.40729E-05-4.36338E-03
 -1      3024 3.37488E-03 1.22106E-03 7.33735E-03
 -1      3025 2.65608E-03 4.27001E-04-2.68800E-03
 -1      3026 1.16100E-03-5.08683E-04-6.16222E-03
 -1      3027 1.91782E-03-7.38670E-04-1.05403E-02
 -1      3028 2.34985E-03-1.01007E-03-8.01892E-03
 -1      3029 3.83362E-03-3.31283E-04 1.92207E-03
 -1      3030 7.88825E-04-2.21744E-04-2.28657E-03
 -1      3031 2.84830E-03 1.08541E-03 7.21010E-03
 -1      3032 2.88048E-03-8.60256E-04-4.93256E-03
 -1      3033 9.04011E-04-3.51749E-04-9.78898E-03
 -1      3034 5.41576E-03-1.14297E-03-3.97572E-03
 -1      3035 1.72141E-03-8.12874E-04 1.12469E-02
 -1      3036 4.27639E-03-1.66520E-03-7.84140E-03
 -1      3037 2.42837E-03-6.34005E-04-4.56517E-03
 -1      3038 1.10696E-03 5.34316E-04-6.44885E-03
 -1      3039 3.53902E-03 1.13125E-03-6.42056E-03
 -1      3040 4.43141E-04 3.83606E-04 8.56651E-03
 -1      3041 4.00794E-03-6.22368E-04-2.32395E-03
 -1      3042 2.05561E-04-6.50663E-05 6.70090E-03
 -1      3043 2.63321E-03-2.44562E-04-1.04393E-02
 -1      3044 1.05066E-04-3.25173E-04 9.27971E-03
 -1      3045 3.10634E-04 4.07941E-04 9.53787E-03
 -1      3046 1.62578E-03 7.40562E-04-1.06471E-02
 -1      3047 1.24005E-03 2.81002E-04 3.08049E-03
 -1      3048 1.97924E-03 8.63875E-05 1.14635E-02
 -1      3049 2.75209E-03-1.50683E-04-1.28510E-03
 -1      3050-1.36095E-04-6.05254E-05 9.85750E-03
 -1      3051 1.70978E-03 7.26719E-05-1.19034E-03
 -1      3052 4.20270E-04 2.00663E-04-4.88271E-03
 -1      3053 2.37483E-04-2.26666E-04-6.06368E-03
 -1      3054 1.48022E-04 2.97229E-04 7.07706E-03
 -1      3055 4.81790E-04-2.82219E-04-9.83181E-03
 -1      3056 7.32980E-05-7.15779E-05 8.12842E-03
 -1      3057 2.85202E-03-6.33700E-04 3.58599E-03
 -1      3058 1.57223E-04-3.05454E-04-7.69539E-03
 -1      3059 3.77808E-03-1.40288E-03 6.90141E-03
 -1      3060 5.76766E-03-2.59698E-04-7.34244E-04
 -1      3061 4.97771E-03-7.60874E-05-1.88816E-05
 -1      3062 4.83503E-03-2.96125E-04-8.19360E-04
 -1      3063 3.61045E-03 5.07068E-04-2.63062E-03
 -1      3064 2.80193E-03 7.27145E-04-5.02512E-03
 -1      3065 2.07669E-03-1.00879E-03 9.29247E-03
 -1      3066 5.59661E-04-3.73444E-04-1.06437E-02
 -1      3067-2.91506E-03-2.33908E-04-9.02136E-03
 -1      3068 1.49638E-04-3.87562E-05-3.46550E-03
 -1      3069 3.48992E-03-1.04505E-03-5.49903E-03
 -1      3070 2.23279E-04-4.04998E-04-8.30139E-03
 -1      3071 1.02129E-03-4.55954E-04 5.57914E-03
 -1      3072 2.39012E-03-7.29597E-04-9.68345E-03
 -1      3073 3.20771E-03-1.20043E-03-9.44661E-03
 -1      3074 4.15120E-03-1.61552E-03-7.82384E-03
 -1      3075 1.99858E-03-8.79566E-04-7.91358E-03
 -1      3076 1.84162E-03-7.57683E-04-5.98175E-03
 -1      3077 1.70520E-03-5.49243E-04-4.75302E-03
 -1      3078 2.84678E-03 2.16038E-04 2.24246E-03
 -1      3079 1.84744E-03 7.25104E-04-6.77482E-03
 -1      3080 2.55061E-03 8.87368E-04-6.43921E-03
 -1      3081 2.08017E-03 8.67208E-04-8.71057E-03
 -1      3082 4.02357E-03-1.14628E-03 5.30887E-03
 -1      3083 2.51105E-03 7.41381E-04-5.80030E-03
 -1      3084 4.83477E-03-7.21403E-04-2.23986E-03
 -1      3085 3.07075E-03-2.15113E-04-9.43619E-04
 -1      3086 1.25466E-03-1.09031E-04 1.15351E-02
 -1      3087 7.63888E-04-5.29485E-04-7.94828E-03
 -1      3088 1.27627E-03 8.17702E-04 9.58956E-03
 -1      3089 1.36161E-03-6.29359E-04-9.52423E-03
 -1      3090 2.64546E-03 8.83759E-05 1.11713E-02
 -1      3091 2.46371E-03-7.77614E-04-5.58338E-03
 -1      3092 2.49562E-03-8.46267E-04 5.49412E-03
 -1      3093 9.86956E-04-7.00030E-04-8.82003E-03
 -1      3094 1.01669E-03-6.30952E-04-8.04892E-03
 -1      3095 2.07358E-03-8.66786E-04 7.08781E-03
 -1      3096 3.03925E-04 2.36373E-04 1.05102E-02
 -1      3097 2.27099E-04-2.94759E-04 1.04804E-02
 -1      3098 8.58814E-04-3.45608E-04-4.76609E-03
 -1      3099 2.29739E-03-8.41739E-04-6.14987E-03
 -1      3100 2.89242E-03-3.15228E-04 2.07647E-03
 -1      3101 1.56426E-03-4.35052E-04 1.07143E-02
 -1      3102 2.53211E-03 1.13375E-03-8.86866E-03
 -1      3103 3.09266E-03 8.91428E-04 5.64795E-03
 -1      3104 5.19432E-03 1.10062E-03-5.02073E-03
 -1      3105 1.00386E-03-7.27951E-05 1.20547E-02
 -1      3106 1.73255E-03-2.66236E-04 1.13945E-02
 -1      3107 7.69196E-04 4.35664E-04 1.00660E-02
 -1      3108 7.17207E-04-9.92437E-05 1.14850E-02
 -1      3109 5.27723E-04 4.86305E-04 9.48057E-03
 -1      3110 3.69734E-03 1.19198E-03-6.26448E-03
 -1      3111 6.23034E-04 2.70423E-04-9.90375E-03
 -1      3112 1.00003E-03-1.87549E-04 1.12899E-02
 -1      3113 8.38750E-04 3.23831E-04 1.05221E-02
 -1      3114 1.69788E-03-8.10077E-05-1.11881E-02
 -1      3115 9.82204E-04 3.54914E-04 1.05871E-02
 -1      3116 5.79342E-03 2.45394E-05 4.78576E-04
 -1      3117 1.80517E-03-5.97007E-04 5.29021E-03
 -1      3118 1.55950E-03 1.83150E-04 2.33194E-03
 -1      3119 1.49475E-03 1.94914E-04 2.41396E-03
 -1      3120 4.09924E-03-1.48485E-03 6.63760E-03
 -1      3121 2.20141E-03 1.15039E-03 9.57435E-03
 -1      3122 1.49774E-03 6.63455E-04-6.23405E-03
 -1      3123-6.05136E-05-1.82607E-04 1.03577E-02
 -1      3124 3.69042E-03-5.10575E-04-2.10882E-03
 -1      3125 3.62135E-03-5.53700E-04-2.12321E-03
 -1      3126 1.91876E-03 4.48070E-04 3.50033E-03
 -1      3127 3.14675E-03-1.47921E-03-8.74664E-03
 -1      3128 1.11905E-03 6.65481E-04 8.87810E-03
 -1      3129 3.61177E-03-2.23821E-04-1.31864E-03
 -1      3130 1.85108E-03-8.61285E-04 6.74162E-03
 -1      3131 2.74679E-03-1.12492E-03 7.11508E-03
 -1      3132 2.39858E-03-1.21455E-03-8.73983E-03
 -1      3133 2.65467E-03 1.01384E-03 6.88886E-03
 -1      3134 2.78112E-03 4.82542E-04 3.02254E-03
 -1      3135 2.97119E-03 5.62385E-04 3.43883E-03
 -1      3136 1.89979E-03 1.67752E-04 1.07281E-02
 -1      3137 1.84406E-03 5.16593E-04 1.04099E-02
 -1      3138 2.48958E-03 1.35144E-04-1.07259E-03
 -1      3139 7.26063E-04 4.15367E-04-6.65598E-03
 -1      3140 9.94012E-05-4.26903E-05-6.66591E-03
 -1      3141 1.67382E-03-5.79369E-04-5.53789E-03
 -1      3142 1.63908E-04 4.21865E-05 7.31964E-03
 -1      3143 1.20241E-03-6.07869E-04 6.80288E-03
 -1      3144 3.22287E-03 5.35663E-04 3.04739E-03
 -1      3145 5.35410E-03-1.31377E-03 4.80562E-03
 -1      3146 2.56463E-03-1.14143E-03 9.26075E-03
 -1      3147-1.08955E-04-5.76816E-05-1.00643E-02
 -1      3148 3.24411E-03-1.07549E-03 6.13206E-03
 -1      3149 8.84433E-04 1.99349E-04-1.01266E-02
 -1      3150 1.04323E-03 2.40079E-04-2.59706E-03
 -1      3151 2.81706E-03 1.03905E-03-8.71797E-03
 -1      3152 1.54328E-04 2.28200E-04-6.01398E-03
 -1      3153 2.73773E-04 3.08666E-04 5.50733E-03
 -1      3154 4.80000E-04 2.44995E-04 3.55301E-03
 -1      3155 1.04803E-03 4.24096E-04 5.19709E-03
 -1      3156 1.13155E-03 4.71402E-04 5.75566E-03
 -1      3157 9.49021E-04-6.02928E-05-8.55070E-04
 -1      3158 4.40575E-03-3.52086E-04-1.11764E-03
 -1      3159 2.30016E-03-5.04508E-04 1.05531E-02
 -1      3160 1.54578E-03-9.39059E-05-1.34069E-03
 -1      3161 2.66304E-03-1.24886E-04 1.14605E-02
 -1      3162 4.35986E-04-3.80885E-04-8.88889E-03
 -1      3163 2.51468E-03-1.98944E-04-1.41818E-03
 -1      3164 6.68877E-04 4.11373E-04-6.17179E-03
 -1      3165-3.10855E-03-2.13876E-04-8.82368E-03
 -1      3166 2.50715E-04-3.29699E-04-8.62184E-03
 -1      3167 6.76804E-04-4.44742E-04 6.59564E-03
 -1      3168-2.68298E-03-2.11023E-04 1.16417E-02
 -1      3169-2.93047E-03-2.45056E-04 9.72559E-03
 -1      3170 1.57066E-03 3.64293E-04 3.29260E-03
 -1      3171 2.67489E-03 9.82280E-04 7.06381E-03
 -1      3172 7.27208E-04 4.01575E-04-6.76122E-03
 -1      3173 1.83097E-03 7.12422E-04 6.34540E-03
 -1      3174 2.91499E-03 4.88948E-04 2.94711E-03
 -1      3175 1.98008E-03 5.25621E-04 1.04780E-02
 -1      3176 7.53738E-05 6.34367E-05-7.59954E-03
 -1      3177 2.57120E-03 1.21230E-03 9.46190E-03
 -1      3178-3.85771E-03 1.45065E-04 2.52295E-03
 -1      3179 3.29108E-03 9.31472E-04-5.75709E-03
 -1      3180 1.61020E-03 2.43388E-04 1.07575E-02
 -1      3181 6.08074E-04 2.77956E-04 1.05872E-02
 -1      3182 5.15474E-04 3.20788E-06 1.14714E-02
 -1      3183 9.15131E-04 5.15100E-04 1.12254E-02
 -1      3184 3.74449E-04 2.08270E-05-1.07987E-02
 -1      3185 5.15979E-04-1.11602E-05 1.08131E-02
 -1      3186 1.48666E-03 4.40266E-04 1.04988E-02
 -1      3187 1.38761E-03-6.53249E-04 1.11277E-02
 -1      3188 1.65756E-03-9.52450E-04-8.81091E-03
 -1      3189-1.12270E-04 4.45204E-05-8.73702E-03
 -1      3190 4.51594E-04-3.90224E-04-7.91869E-03
 -1      3191 6.42043E-04 5.31941E-05 1.08098E-02
 -1      3192 2.72320E-04 1.99830E-05-1.35295E-03
 -1      3193 2.42481E-03 8.61860E-04-6.21078E-03
 -1      3194 2.59237E-03-8.77970E-04 6.13980E-03
 -1      3195 2.76803E-03-1.05675E-03 6.82864E-03
 -1      3196 4.71026E-03 7.66707E-04 3.22295E-03
 -1      3197 2.85559E-03 1.43808E-04-1.02870E-03
 -1      3198 1.36891E-03 6.96226E-04 1.14867E-02
 -1      3199 3.01766E-03-5.26305E-04-2.65995E-03
 -1      3200 2.47799E-03-4.71824E-04 3.05777E-03
 -1      3201-2.57641E-03 1.80281E-04 1.25888E-02
 -1      3202 2.13983E-03 6.24806E-04-5.12335E-03
 -1      3203-2.96334E-03 2.01630E-04 1.12425E-02
 -1      3204 2.24893E-03 5.58241E-05 1.06769E-02
 -1      3205 7.32419E-04-4.93194E-04-8.85411E-03
 -1      3206 3.79468E-04 3.49863E-04 9.88077E-03
 -1      3207 3.00944E-03-1.15340E-03 6.63256E-03
 -1      3208 2.26167E-03 6.05305E-04-9.63309E-03
 -1      3209 4.06634E-04 1.53369E-04-2.52295E-03
 -1      3210 2.69716E-03-2.25430E-04-1.13120E-03
 -1      3211 5.46715E-03 8.18690E-04-2.92353E-03
 -1      3212 1.43627E-03-1.47017E-04 1.42531E-03
 -1      3213 1.54044E-03-3.50180E-04 2.85753E-03
 -1      3214 2.09506E-03-3.38751E-04-2.24147E-03
 -1      3215 4.01535E-03 1.39685E-03-8.16231E-03
 -1      3216 4.31899E-03 6.70523E-04 2.99501E-03
 -1      3217 2.11152E-03 2.93582E-04 1.06294E-02
 -1      3218 1.39875E-03-5.29700E-04 5.55878E-03
 -1      3219 7.42842E-05 4.32988E-05 8.59725E-03
 -1      3220 1.34429E-03-4.95168E-06 1.15679E-02
 -1      3221 1.36232E-03 5.79726E-04 1.11545E-02
 -1      3222 1.85445E-03 7.34911E-04-6.36322E-03
 -1      3223 2.69409E-03-9.82437E-04-5.89387E-03
 -1      3224 2.41144E-04 4.79585E-04 9.18056E-03
 -1      3225-1.22164E-04 6.74582E-05 9.63676E-03
 -1      3226 1.78207E-03 3.46670E-04 3.04364E-03
 -1      3227 1.03610E-03 4.98554E-04 6.40471E-03
 -1      3228 2.79106E-03-9.43586E-04 5.62337E-03
 -1      3229 1.94033E-03-4.21192E-04 1.06412E-02
 -1      3230 9.96621E-04 7.93490E-05-1.00875E-03
 -1      3231 3.36573E-03 1.24153E-03 6.76725E-03
 -1      3232-3.71108E-03-4.89592E-05-6.59091E-03
 -1      3233 2.07981E-03-7.32222E-04 5.55998E-03
 -1      3234-1.47695E-04-4.59437E-05 1.06730E-02
 -1      3235 1.72388E-03-8.26551E-04 9.74706E-03
 -1      3236 2.20662E-03 8.40985E-04 1.13528E-02
 -1      3237 2.45469E-03 1.33147E-04-1.59188E-03
 -1      3238 7.83787E-05-1.20718E-04-1.00536E-02
 -1      3239 3.39767E-03-2.17975E-04 1.20533E-03
 -1      3240 1.05925E-03-4.59732E-04 1.04607E-02
 -1      3241 6.99177E-04 3.47411E-05-1.07203E-02
 -1      3242 3.24931E-03-1.12757E-03-5.98929E-03
 -1      3243 3.15412E-03 1.07850E-03 1.03022E-02
 -1      3244 8.16313E-04 1.09083E-04 1.90110E-03
 -1      3245 1.65784E-03 1.90571E-04 1.85184E-03
 -1      3246-2.30765E-04-4.87985E-05-9.98863E-03
 -1      3247 1.20405E-03-1.32617E-04 2.01195E-03
 -1      3248 2.30635E-03-9.14239E-04 6.65371E-03
 -1      3249 2.76183E-04-1.76455E-04 2.97737E-03
 -1      3250 3.65872E-03 2.72053E-04 2.27619E-03
 -1      3251 4.45528E-04 4.18143E-04 1.14016E-02
 -1      3252 5.54422E-03-1.11458E-03 3.62253E-03
 -1      3253-3.19441E-03 3.25080E-04-6.61633E-03
 -1      3254 3.42378E-03 1.20623E-03-7.82272E-03
 -1      3255 1.08490E-03-6.22378E-04 6.96392E-03
 -1      3256 5.63208E-04-4.75387E-04 1.12826E-02
 -1      3257-3.51662E-05-6.70401E-05-7.75775E-03
 -1      3258 3.39787E-03 1.59123E-04-1.60238E-03
 -1      3259 4.70021E-03-8.72787E-04 3.23798E-03
 -1      3260 1.08430E-03-1.73791E-04-2.16088E-03
 -1      3261 3.30110E-03-9.26120E-04-4.83584E-03
 -1      3262 2.86492E-03-5.22603E-04 2.88441E-03
 -1      3263 1.98710E-03 7.29483E-04-6.29500E-03
 -1      3264 1.74581E-03 7.33420E-04 1.00402E-02
 -1      3265 5.97352E-03-9.70662E-05 1.14975E-04
 -1      3266 1.20082E-04 4.03698E-06-9.97189E-05
 -1      3267-6.71407E-05-2.33678E-04-8.64638E-03
 -1      3268 2.56615E-03-1.15010E-03-8.56918E-03
 -1      3269 1.29367E-03-7.05947E-04-8.71754E-03
 -1      3270-4.36634E-05-2.85266E-05-8.21854E-03
 -1      3271 7.93427E-05-3.22773E-05-1.44596E-03
 -1      3272 1.28816E-03 7.01528E-04-8.80188E-03
 -1      3273 5.45178E-04-1.87152E-04 1.07831E-02
 -1      3274 4.04548E-03 3.97012E-04 2.40309E-03
 -1      3275 2.13070E-03-9.62647E-04-8.63278E-03
 -1      3276 2.42172E-03-9.54674E-04-9.28333E-03
 -1      3277 1.17795E-03 5.76784E-04 9.90406E-03
 -1      3278 3.03989E-03 1.00460E-03-6.26151E-03
 -1      3279 1.79813E-03 9.02608E-04 8.84117E-03
 -1      3280 3.52219E-03-1.04496E-03 5.45544E-03
 -1      3281 1.37289E-03 4.51776E-04-5.78574E-03
 -1      3282 2.17806E-03-3.41910E-04-9.94401E-03
 -1      3283 3.66315E-03-2.86152E-04-1.07959E-03
 -1      3284 6.63059E-05-6.75842E-05-4.93744E-03
 -1      3285 8.25712E-04 3.43477E-04-5.03244E-03
 -1      3286 5.33417E-04-4.57234E-04-8.66529E-03
 -1      3287 3.17184E-04-9.13935E-05 1.14252E-02
 -1      3288 1.50116E-03-5.64455E-04-9.74359E-03
 -1      3289 5.95504E-04-3.83252E-04-9.29032E-03
 -1      3290 2.29880E-03-1.99043E-04-1.10014E-03
 -1      3291-2.16749E-05 2.17590E-04-8.08110E-03
 -1      3292 6.08126E-04-3.53840E-04 1.04898E-02
 -1      3293 2.08998E-03 9.60310E-04 9.40944E-03
 -1      3294 2.56274E-03 1.12796E-03 9.28983E-03
 -1      3295 2.82139E-03-8.50438E-04-5.48832E-03
 -1      3296 1.26783E-03 5.66267E-04-9.11331E-03
 -1      3297 1.26684E-03 7.19731E-04 9.49578E-03
 -1      3298 8.53268E-04 5.82274E-04 9.53085E-03
 -1      3299 1.76444E-03 7.77981E-04-8.12356E-03
 -1      3300 4.18839E-03 1.04160E-03 5.36879E-03
 -1      3301 7.66616E-04 4.84207E-04-8.16018E-03
 -1      3302 1.30210E-03 5.59662E-04-6.05982E-03
 -1      3303 4.64371E-03 7.03345E-04-2.95625E-03
 -1      3304 1.64988E-03 1.59664E-04 1.12954E-02
 -1      3305 1.46203E-03-7.33186E-04 6.89397E-03
 -1      3306-4.96997E-05-8.82125E-05-5.46558E-03
 -1      3307 1.86876E-03-6.91775E-04-6.00072E-03
 -1      3308 2.14408E-03 8.73301E-04 9.80239E-03
 -1      3309 2.06009E-03-4.08675E-04 2.84328E-03
 -1      3310 1.34381E-03 7.47001E-06-1.07941E-02
 -1      3311 2.64542E-03 9.63256E-04 9.89760E-03
 -1      3312 2.30384E-03 4.27002E-04 3.17507E-03
 -1      3313 2.16592E-03 7.87151E-04-1.05659E-02
 -1      3314 1.57129E-04 6.30746E-05 3.28732E-03
 -1      3315 1.71054E-03-6.44079E-04 6.18703E-03
 -1      3316-3.29418E-03 2.52207E-05-9.45960E-04
 -1      3317 1.60055E-03 4.58397E-04-4.66728E-03
 -1      3318 3.23799E-03 4.41563E-04-2.45578E-03
 -1      3319 4.77929E-03-8.02566E-04 2.61523E-03
 -1      3320 5.12968E-03 1.26023E-03 5.64953E-03
 -1      3321 3.62625E-03 1.00329E-03 5.68188E-03
 -1      3322 6.89583E-04 5.77624E-04 9.56844E-03
 -1      3323 3.95720E-03 9.95860E-04-5.02254E-03
 -1      3324 1.90919E-03 6.38994E-04-5.75301E-03
 -1      3325 1.91692E-03 4.82787E-04-9.79985E-03
 -1      3326-5.62556E-05-2.25114E-04-7.79192E-03
 -1      3327 1.94323E-03 2.66162E-04-1.00286E-02
 -1      3328 1.28495E-03 6.23412E-04-8.12359E-03
 -1      3329 3.01780E-03 9.85880E-04 6.34697E-03
 -1      3330 2.33526E-03 5.71809E-04 1.03802E-02
 -1      3331 3.12562E-03 8.47020E-04-5.12936E-03
 -1      3332 8.40774E-05 2.12070E-04 1.04961E-02
 -1      3333 2.06888E-03-7.51789E-04 6.15464E-03
 -1      3334 2.18796E-03-7.15292E-04-5.49155E-03
 -1      3335 3.35165E-03-1.50593E-03-8.57121E-03
 -1      3336 2.62591E-03 8.16007E-04-5.76579E-03
 -1      3337 3.26744E-03-4.61766E-04-2.17630E-03
 -1      3338 1.66811E-03 9.57049E-04 9.52076E-03
 -1      3339 2.36855E-05 1.03956E-04-7.25015E-03
 -1      3340 1.46739E-03 6.83810E-04-8.82971E-03
 -1      3341 1.89822E-03-8.25602E-04-9.24265E-03
 -1      3342 1.08537E-04 7.47481E-05 7.24009E-03
 -1      3343 5.28366E-04-1.12912E-04 1.12237E-02
 -1      3344 4.02844E-03 1.09005E-03-5.73032E-03
 -1      3345 2.67049E-04 3.19200E-04 1.11359E-02
 -1      3346 4.08759E-03-1.25241E-03 6.14983E-03
 -1      3347 2.65780E-03-1.03666E-03 6.68760E-03
 -1      3348 3.58665E-03-1.30939E-03 6.91768E-03
 -1      3349 1.55211E-03-7.04360E-04-9.05221E-03
 -1      3350 2.30173E-03 5.67703E-04-9.73616E-03
 -1      3351 4.44199E-03-1.47075E-03-6.38139E-03
 -1      3352 3.93196E-03-3.19952E-04-1.48129E-03
 -1      3353 1.81415E-04 6.18923E-05-3.69204E-03
 -1      3354 2.10980E-03 1.60516E-04-1.28317E-03
 -1      3355 5.67989E-05 9.73202E-05-5.77141E-03
 -1      3356 1.64701E-04 2.80404E-04 6.67018E-03
 -1      3357 1.45986E-03 1.02803E-04-1.63870E-03
 -1      3358 7.64659E-04 5.47626E-04-8.91977E-03
 -1      3359 3.70518E-03 6.33880E-04 2.98389E-03
 -1      3360 4.64774E-03-7.58704E-04 2.76591E-03
 -1      3361 5.11736E-05 9.17890E-05 8.24931E-03
 -1      3362 1.27263E-04 9.08198E-05-4.78232E-03
 -1      3363 1.70035E-03-9.14331E-04-8.67646E-03
 -1      3364 3.77931E-03-9.53169E-04-4.68873E-03
 -1      3365 1.51322E-03-2.41351E-04-2.02530E-03
 -1      3366 1.13989E-03-7.63478E-04 9.48449E-03
 -1      3367 4.53019E-03-1.22007E-03 5.10453E-03
 -1      3368-1.45976E-04-4.41341E-05-8.72977E-03
 -1      3369 1.34605E-03-6.97594E-04-7.92091E-03
 -1      3370 1.42931E-03 4.71014E-04-5.17182E-03
 -1      3371 1.83597E-03-1.09267E-04-1.08685E-02
 -1      3372 2.53193E-03-1.06013E-03 9.89194E-03
 -1      3373 1.30310E-03-6.57761E-04 6.56591E-03
 -1      3374 4.05964E-03-1.36148E-03-5.96172E-03
 -1      3375 2.03717E-03-6.08251E-04-4.93362E-03
 -1      3376 2.13253E-05-8.54994E-05-6.11695E-03
 -1      3377 1.25860E-03-5.81530E-04-5.91456E-03
 -1      3378 4.92405E-05 1.00932E-04-4.64560E-03
 -1      3379 2.79474E-03-4.94983E-04 2.68292E-03
 -1      3380 7.77743E-04 4.00706E-04-1.05054E-02
 -1      3381 4.72839E-03 7.78421E-04 2.94909E-03
 -1      3382 2.20831E-03 3.32541E-04-9.94970E-03
 -1      3383 3.70851E-04-1.60058E-04-2.51316E-03
 -1      3384 1.44133E-03 2.49895E-04-1.00973E-02
 -1      3385 4.93611E-03 2.79149E-04 1.69283E-03
 -1      3386 2.65494E-03-1.25943E-03-8.64378E-03
 -1      3387 9.26615E-04 1.69044E-05 1.14749E-02
 -1      3388 2.98030E-03 1.02189E-03 1.07991E-02
 -1      3389 1.89124E-06 1.24491E-04 6.45676E-03
 -1      3390 1.92566E-03 9.30490E-04-8.82708E-03
 -1      3391 4.39402E-03 1.50422E-03 7.22096E-03
 -1      3392-1.94146E-03 4.31428E-05 8.89537E-04
 -1      3393 6.15057E-04 4.05995E-04 1.11559E-02
 -1      3394 3.82830E-03 1.32574E-03 6.84311E-03
 -1      3395 7.35403E-04 2.06664E-04-2.57530E-03
 -1      3396 2.12461E-03-3.97428E-04 2.67602E-03
 -1      3397 3.01219E-03 1.10274E-03 6.77235E-03
 -1      3398 1.06886E-03 4.85072E-04-6.28490E-03
 -1      3399 1.44954E-03 2.63150E-04-2.40669E-03
 -1      3400 9.05156E-04-5.59599E-04 6.60749E-03
 -1      3401 2.14285E-03 3.19156E-04-2.40791E-03
 -1      3402 5.19569E-05-1.27190E-05-6.52837E-04
 -1      3403 4.19600E-03 1.17127E-03 6.35687E-03
 -1      3404 6.78528E-05-7.69186E-05-4.27840E-03
 -1      3405 8.02290E-04-4.85397E-04-8.97569E-03
 -1      3406 2.19964E-05-3.08517E-04 8.62983E-03
 -1      3407-2.36407E-05 1.16799E-04 6.09362E-03
 -1      3408 5.03093E-03 2.16713E-04-1.10438E-03
 -1      3409 5.23610E-03-1.19682E-03-4.49534E-03
 -1      3410-1.64198E-03 5.10672E-06 1.62718E-02
 -1      3411 4.97976E-03 6.99616E-04-2.65111E-03
 -1      3412 1.51016E-03-7.99022E-04 8.60418E-03
 -1      3413 8.37600E-04-2.47361E-04 1.07887E-02
 -1      3414 1.32431E-04-1.39055E-05 7.72650E-04
 -1      3415 1.63495E-03-2.77324E-04-2.19732E-03
 -1      3416 2.09109E-03-1.16636E-03 9.38501E-03
 -1      3417 2.04631E-03-9.86563E-04 8.65389E-03
 -1      3418 5.06047E-03-1.23516E-03-4.82777E-03
 -1      3419 3.15870E-03-1.32395E-03 8.29655E-03
 -1      3420-2.23786E-03 1.21176E-04-2.44762E-03
 -1      3421-4.66009E-05-4.60474E-04 1.32692E-02
 -1      3422 3.25197E-03-1.28711E-03 9.80577E-03
 -1      3423 4.25664E-04 5.13513E-05 1.46776E-03
 -1      3424 4.30324E-03-1.12517E-03-4.79092E-03
 -1      3425 1.49481E-04 2.39285E-05 1.11679E-03
 -1      3426 3.76645E-04-3.07406E-04 1.05437E-02
 -1      3427-3.89269E-03 4.94326E-05 1.48730E-03
 -1      3428-1.32245E-04 7.48439E-05 1.06767E-02
 -1      3429 7.01259E-05-7.31456E-05 1.78108E-03
 -1      3430-1.21114E-03-1.23004E-04 1.68827E-02
 -1      3431-1.93684E-03-9.03000E-05 1.55769E-02
 -1      3432 2.69081E-03-1.23159E-03 8.57492E-03
 -1      3433 2.65691E-03-1.46588E-03-9.88554E-03
 -1      3434 1.24607E-04 6.73906E-05 2.37848E-03
 -1      3435 6.73038E-04-5.84710E-04 9.33779E-03
 -1      3436-3.84833E-03 9.44737E-05 2.67352E-04
 -1      3437 1.00995E-03-3.51516E-04 1.07539E-02
 -1      3438-4.28576E-04-2.04411E-04-1.50406E-02
 -1      3439-1.86968E-03 3.83384E-04 1.02024E-02
 -1      3440 3.18775E-04-4.41580E-04 8.85601E-03
 -1      3441-2.12864E-03-1.98843E-04 1.28135E-02
 -1      3442-1.29747E-03 1.75883E-04-1.63069E-02
 -1      3443-2.15999E-03 2.74932E-04-1.26423E-02
 -1      3444-1.80525E-03-2.42720E-04 1.37135E-02
 -1      3445 8.09176E-04-4.84599E-04 1.11285E-02
 -1      3446 4.47637E-03 1.17218E-03 5.49279E-03
 -1      3447 4.03925E-03 1.26678E-03-5.98914E-03
 -1      3448 2.76669E-04 1.27124E-06 1.12825E-02
 -1      3449-1.82257E-04-2.06624E-05-9.10160E-03
 -1      3450 1.82256E-04 7.30261E-05 1.73935E-03
 -1      3451 3.49052E-03 1.22173E-03 6.94931E-03
 -1      3452 1.08543E-04 6.43315E-05-2.45337E-03
 -1      3453 1.30736E-04 3.18234E-05-6.60387E-04
 -1      3454 1.90284E-03 1.39680E-04-1.73228E-03
 -1      3455 4.34291E-03-1.19451E-03-5.52743E-03
 -1      3456-5.92204E-05 6.28111E-05-8.15214E-03
 -1      3457 9.05664E-05 3.95765E-05-1.64862E-03
 -1      3458 1.34798E-04-1.22830E-04 4.21669E-03
 -1      3459 7.67216E-04-5.55385E-04-8.68206E-03
 -1      3460 1.41260E-03 3.00043E-04 2.81674E-03
 -1      3461 7.12750E-04 4.65449E-05 1.12821E-02
 -1      3462 1.78001E-03 7.27902E-04 1.13389E-02
 -1      3463 4.74003E-05-9.28236E-05 2.71861E-03
 -1      3464-3.43692E-05-7.90649E-05-7.11643E-03
 -1      3465 2.56487E-03 5.39780E-05-1.05953E-02
 -1      3466 1.69361E-03 7.26432E-04-9.11699E-03
 -1      3467 4.02808E-03-1.67342E-03 8.73955E-03
 -1      3468 3.81925E-03-1.25662E-03-6.08824E-03
 -1      3469 4.11555E-04 1.13918E-04 1.07914E-02
 -1      3470 3.01085E-03 2.68605E-04 2.33037E-03
 -1      3471 2.18703E-03 2.46553E-04 2.29318E-03
 -1      3472-2.17955E-05 1.41626E-04 8.07072E-03
 -1      3473 1.27226E-03-5.71041E-04 6.15638E-03
 -1      3474 2.94644E-03-1.25775E-03 9.30685E-03
 -1      3475 1.19746E-03-6.91800E-04 8.70385E-03
 -1      3476-6.50833E-05 1.30920E-04-7.41901E-03
 -1      3477 5.24876E-05-1.06704E-04 7.68640E-03
 -1      3478 3.67344E-03 4.73191E-04-2.41402E-03
 -1      3479 4.23470E-05 1.07927E-04-5.60200E-03
 -1      3480 2.15964E-05 1.04626E-04 5.30744E-03
 -1      3481 5.41359E-03 1.02317E-03 3.92411E-03
 -1      3482 9.58778E-04 2.04256E-04-2.20005E-03
 -1      3483 1.64088E-03-9.52856E-04 9.35748E-03
 -1      3484 3.40860E-03-1.43446E-03 8.38447E-03
 -1      3485-3.25031E-04 2.26179E-04 1.56840E-02
 -1      3486 2.42673E-03-1.13364E-03 8.48856E-03
 -1      3487-2.12953E-03-1.92365E-04-8.89719E-03
 -1      3488 7.80224E-04-5.08651E-04 9.89454E-03
 -1      3489-1.19803E-04 9.31613E-05-8.05192E-03
 -1      3490-2.20553E-03 3.21786E-04 9.06086E-03
 -1      3491-1.33971E-04 4.72678E-04 1.34559E-02
 -1      3492-1.57242E-04-4.68189E-04-1.26811E-02
 -1      3493 3.11455E-03-1.55070E-03 9.46379E-03
 -1      3494 5.17058E-03-1.37879E-03 5.40890E-03
 -1      3495-1.72714E-03 5.37146E-05 5.19246E-03
 -1      3496-1.71436E-03-2.77910E-05-9.11548E-03
 -1      3497-5.20803E-04 6.84573E-05-3.30498E-03
 -1      3498-1.83085E-03 6.88496E-05-5.62674E-04
 -1      3499-1.71904E-03 1.02582E-04-6.32043E-03
 -1      3500-1.98455E-03 2.10671E-05 2.37665E-03
 -1      3501-1.72206E-03-3.43692E-05 7.16779E-03
 -1      3502-5.55625E-04-5.78843E-05-2.80201E-03
 -1      3503-8.31999E-04-1.78624E-04-1.37318E-02
 -1      3504 2.37992E-03-1.10394E-03 8.53614E-03
 -1      3505-1.66213E-03 6.53620E-05 1.09701E-02
 -1      3506-1.73124E-03 2.20266E-05 1.08670E-02
 -1      3507-7.74066E-04-9.70786E-05 1.42939E-02
 -1      3508-1.46602E-03 2.18225E-05-1.05218E-02
 -1      3509-1.93158E-03 8.99794E-05 7.53819E-03
 -1      3510-1.72925E-03 1.32470E-05-8.30339E-04
 -1      3511-1.49283E-03 1.75060E-05-5.16780E-03
 -1      3512-1.49279E-03 3.66374E-05-7.84358E-03
 -1      3513-1.46220E-03 7.81856E-06 8.65865E-03
 -1      3514-1.45636E-03-4.79130E-06 9.79070E-03
 -1      3515-1.29196E-03 7.34915E-06 1.08752E-02
 -1      3516 7.97556E-04 4.79806E-04-1.03566E-02
 -1      3517 5.51431E-04-4.26696E-05-1.09184E-02
 -1      3518-6.65564E-04 2.31148E-04 9.89233E-03
 -1      3519-9.65422E-04 9.00833E-05 3.64141E-03
 -1      3520-1.55392E-03 4.78318E-05-4.55365E-03
 -1      3521 1.22968E-03 4.73554E-04 5.38524E-03
 -1      3522-8.41919E-04 8.16985E-05-1.01676E-02
 -1      3523 2.43954E-04-3.80762E-04 1.08790E-02
 -1      3524-9.62982E-04 1.45989E-05 1.08636E-02
 -1      3525-1.52706E-03 5.99375E-05 7.86009E-03
 -1      3526-1.91512E-03 3.22273E-05-9.24793E-03
 -1      3527 9.60703E-04 6.08406E-06 8.67143E-05
 -1      3528-1.61873E-03 3.73104E-05-9.89019E-03
 -1      3529-1.11684E-03 1.00393E-04-1.32089E-02
 -1      3530 1.50532E-03-4.39509E-04 4.05807E-03
 -1      3531-1.60672E-03-2.62568E-05-1.11141E-02
 -1      3532-6.12310E-04-1.97876E-05 1.08079E-02
 -1      3533 3.29849E-03-4.71116E-05-1.30037E-05
 -1      3534-1.22206E-03 3.72784E-05 1.13637E-02
 -1      3535 1.91593E-03-9.03596E-04-7.80746E-03
 -1      3536-6.52361E-04-9.82369E-05-8.99340E-03
 -1      3537-1.13161E-03 3.25989E-05-1.56296E-02
 -1      3538 9.21838E-04 5.84900E-04 8.04124E-03
 -1      3539-9.24601E-04 1.09099E-05-5.91367E-03
 -1      3540-1.03097E-03 1.97625E-05 9.26857E-03
 -1      3541-1.32964E-03 4.20429E-05-1.66576E-03
 -1      3542-9.98515E-04 1.61695E-04 9.41899E-03
 -1      3543-9.62052E-04 4.79115E-05 3.20282E-03
 -1      3544-1.74102E-03 3.05375E-05 1.39674E-03
 -1      3545-1.31031E-03 1.94408E-05-5.21141E-03
 -1      3546-1.02801E-03 6.40296E-05 3.04995E-03
 -1      3547-6.75480E-04-3.03911E-05 1.05977E-02
 -1      3548-9.12521E-04-3.21810E-05-9.91339E-03
 -1      3549 2.21456E-03 8.64481E-04 1.08096E-02
 -1      3550 3.64489E-03-8.60158E-04-4.53196E-03
 -1      3551-9.10121E-04 6.10154E-05-6.06563E-03
 -1      3552-9.25775E-04-3.02966E-05-8.64438E-03
 -1      3553 1.77806E-03 7.18186E-04-9.91631E-03
 -1      3554 1.02052E-03 5.48187E-04 7.22007E-03
 -1      3555 3.92368E-03 8.38222E-04 4.10832E-03
 -1      3556 1.18103E-03 6.22500E-04-8.09805E-03
 -1      3557-9.56599E-04 3.41159E-05-8.81335E-03
 -1      3558 3.04837E-03 1.23080E-03 8.28274E-03
 -1      3559 3.85539E-03 7.68532E-04-4.34276E-03
 -1      3560 2.01218E-03-3.75769E-04-2.62915E-03
 -1      3561 1.90563E-03-8.44585E-04-1.03084E-02
 -1      3562-1.19319E-03 1.11576E-05 1.05326E-02
 -1      3563-1.71375E-03 1.04579E-05 4.57127E-03
 -1      3564-9.55953E-04 3.22369E-05 1.69155E-03
 -1      3565-1.38519E-03 2.71207E-05 5.38496E-03
 -1      3566-8.25586E-04-1.40050E-05-5.02439E-03
 -1      3567-1.67946E-03 4.23397E-05 9.15178E-03
 -1      3568 1.30252E-03-1.44839E-04-1.05379E-02
 -1      3569-1.36607E-03 1.61229E-05 2.77104E-03
 -1      3570-6.83804E-04 6.95639E-05 2.37559E-03
 -1      3571 1.79749E-03-4.79283E-05 5.75066E-04
 -1      3572-1.35618E-03 2.19003E-05-8.75016E-03
 -1      3573 4.02585E-03-8.60159E-04 3.66998E-03
 -1      3574 3.07712E-03-6.25344E-04 3.26298E-03
 -1      3575-1.36042E-03-1.33473E-05-1.01563E-02
 -1      3576 2.98964E-03-1.07148E-03-6.41795E-03
 -1      3577 2.14570E-03-9.26186E-04 1.04752E-02
 -1      3578-4.61752E-04-1.55168E-04-7.43001E-03
 -1      3579 1.28304E-03-5.75902E-04-6.40520E-03
 -1      3580 2.99081E-03 6.81804E-04 4.24804E-03
 -1      3581 2.20089E-03 9.23042E-04-7.77491E-03
 -1      3582-5.03781E-04-1.79524E-05 3.28226E-03
 -1      3583-1.14995E-03 4.51518E-06-9.92724E-03
 -1      3584 5.80821E-04 3.78565E-04-1.01910E-02
 -1      3585-8.63281E-04 1.98603E-05-1.00832E-02
 -1      3586-1.59011E-03-6.95669E-06-3.42969E-03
 -1      3587-3.49642E-04-2.00097E-04 8.71749E-03
 -1      3588-8.19695E-04 6.53609E-05 3.76492E-03
 -1      3589-9.32116E-04 1.68797E-05-1.06694E-03
 -1      3590-5.60008E-04-8.78889E-05-4.33066E-03
 -1      3591 1.30615E-03 3.30217E-04-3.49527E-03
 -1      3592 4.78344E-03-1.40446E-04-4.49210E-04
 -1      3593 6.49701E-04 3.81757E-04-9.28762E-03
 -1      3594-6.09384E-04-5.92699E-05 4.16471E-03
 -1      3595 1.48990E-03-4.67364E-05-7.98556E-04
 -1      3596 4.66765E-04 3.44489E-04-7.60855E-03
 -1      3597 2.97757E-03-8.02731E-04 4.76962E-03
 -1      3598 7.32377E-04-7.52341E-05 1.18294E-02
 -1      3599-6.40206E-04 4.24441E-05 1.19232E-02
 -1      3600-7.02760E-04 2.43541E-05-9.94565E-03
 -1      3601-5.08476E-04-7.72681E-05 1.09914E-02
 -1      3602-1.23976E-03 4.30883E-05-8.63364E-03
 -1      3603 1.75167E-03-8.36768E-05 1.17362E-02
 -1      3604-6.26008E-04-3.87029E-05 2.76521E-03
 -1      3605-1.11982E-03-8.54697E-06 5.67339E-03
 -1      3606 1.04476E-03-6.16248E-04 1.09298E-02
 -1      3607 2.45897E-03-1.06247E-03-7.78007E-03
 -1      3608-6.29827E-04 7.88419E-05-5.21485E-03
 -1      3609-9.95173E-04 2.25829E-05 1.08094E-02
 -1      3610 1.42394E-03 6.53413E-04-7.17617E-03
 -1      3611-4.36064E-04 8.34412E-05 3.04425E-03
 -1      3612 3.04358E-03-5.65384E-04-2.77796E-03
 -1      3613-5.25307E-04 1.94722E-04 8.92622E-03
 -1      3614-7.00512E-04-6.43528E-05-1.12424E-02
 -1      3615-7.42801E-04-5.39182E-05-8.72599E-03
 -1      3616 2.38572E-03 5.18016E-04 3.59375E-03
 -1      3617-4.90896E-04-1.66767E-05-1.31599E-03
 -1      3618-1.76369E-03 5.48528E-06-6.45916E-03
 -1      3619-5.87211E-04-2.43535E-05-2.14918E-03
 -1      3620 2.40027E-03-5.93978E-04-3.79262E-03
 -1      3621 1.23821E-03-5.90023E-04-9.50472E-03
 -1      3622 8.02335E-04 4.73263E-04 9.98128E-03
 -1      3623 2.54194E-04 3.51470E-04 8.08786E-03
 -1      3624-8.47496E-04 1.64351E-05-1.34369E-03
 -1      3625 1.30957E-03-1.91116E-04 1.12360E-02
 -1      3626 2.88013E-03 5.27933E-05-6.78265E-04
 -1      3627-1.82416E-03 4.15526E-05-2.43258E-03
 -1      3628-5.66226E-04 4.87862E-05 1.08507E-02
 -1      3629-5.66424E-05 4.43929E-05 9.55863E-04
 -1      3630-6.90794E-04 8.50927E-05 4.33943E-03
 -1      3631-1.41642E-03 5.14993E-05-6.03139E-03
 -1      3632 3.40991E-03-1.93489E-04 1.03704E-03
 -1      3633 1.28527E-03 5.53647E-04-1.02475E-02
 -1      3634-8.45644E-04 7.67696E-05-8.19482E-03
 -1      3635-7.56429E-04 6.37377E-05-1.01561E-02
 -1      3636 4.00508E-03 5.53757E-05-7.83007E-04
 -1      3637 1.58434E-03-5.11868E-04-4.91055E-03
 -1      3638-1.24698E-03 3.70076E-05-5.61768E-03
 -1      3639 2.04491E-03 9.73406E-05 1.40367E-03
 -1      3640-1.62622E-03 1.59729E-05 1.03706E-02
 -1      3641 7.90301E-04-5.94608E-04 8.21619E-03
 -1      3642-8.22692E-04-3.48276E-05-1.00818E-02
 -1      3643-3.03020E-04 1.11367E-04-3.86003E-03
 -1      3644 2.54865E-03-1.00332E-03-9.32876E-03
 -1      3645 1.60122E-03 4.29265E-04-4.51180E-03
 -1      3646-4.85191E-05-2.28532E-04-1.04749E-02
 -1      3647-7.16884E-04 9.33990E-05 8.95977E-03
 -1      3648-7.79370E-04 2.49959E-05-2.40843E-03
 -1      3649 1.87951E-03 6.49149E-04-1.01594E-02
 -1      3650 3.35047E-03 1.21724E-03-8.06794E-03
 -1      3651-6.12955E-04 7.38577E-05 9.05363E-03
 -1      3652-4.41952E-04 2.17136E-04 1.08710E-02
 -1      3653-6.66719E-04 7.48858E-05-8.54354E-03
 -1      3654 1.65197E-03 8.35646E-04 8.66259E-03
 -1      3655 8.67672E-04 5.77447E-04 8.96958E-03
 -1      3656-5.02787E-04 8.90685E-05-5.86877E-03
 -1      3657-1.66588E-03 2.87904E-05-1.63657E-03
 -1      3658-1.39801E-03 4.77529E-05 9.46567E-03
 -1      3659 1.32567E-03 5.90103E-04 1.02279E-02
 -1      3660 5.16535E-04-3.81375E-04 1.08078E-02
 -1      3661 2.83418E-03 5.18444E-04-3.41378E-03
 -1      3662 3.23013E-03 1.08745E-05 3.72719E-04
 -1      3663-1.02708E-03 4.49388E-05 6.55796E-03
 -1      3664 1.18312E-03 6.88570E-06-3.20879E-04
 -1      3665 3.97148E-03-2.58893E-04 1.40074E-03
 -1      3666-1.21027E-03 5.12123E-06 9.72441E-03
 -1      3667 3.15050E-03-1.23407E-03 7.45080E-03
 -1      3668-8.34766E-04-6.30891E-06 8.75407E-03
 -1      3669 1.88130E-03-1.36601E-04 1.37810E-03
 -1      3670 1.78103E-03-8.32060E-04 7.48806E-03
 -1      3671 2.72499E-03 7.36581E-04 5.32235E-03
 -1      3672 2.09080E-03 9.87046E-04 8.86973E-03
 -1      3673 1.25614E-03 5.90600E-04 1.08753E-02
 -1      3674 2.54553E-03 9.38632E-04 1.00221E-02
 -1      3675 4.73380E-04-4.33619E-04-7.93140E-03
 -1      3676 4.11115E-03-8.10873E-04-3.32102E-03
 -1      3677 3.01497E-03-8.97528E-04 5.41116E-03
 -1      3678-6.70263E-04 7.16437E-05 5.86629E-03
 -1      3679 1.32560E-03 5.33529E-05 1.12502E-02
 -1      3680-1.69366E-03 6.42245E-05-7.98848E-03
 -1      3681-8.03893E-04-9.70216E-06 1.69288E-03
 -1      3682 2.27353E-03 9.28743E-04 7.44044E-03
 -1      3683 1.57234E-03 5.63962E-04 5.75261E-03
 -1      3684-5.50265E-04 1.03943E-04 6.53961E-03
 -1      3685 1.65471E-04 3.19626E-04 1.10128E-02
 -1      3686-1.19625E-03 6.13469E-05 1.13070E-02
 -1      3687 1.69145E-03-7.20094E-04 1.07592E-02
 -1      3688 1.04897E-03-5.90534E-04 7.03779E-03
 -1      3689 4.82285E-04-2.36321E-04 3.97693E-03
 -1      3690 1.55099E-03-7.82673E-04-8.00782E-03
 -1      3691-6.84884E-04 4.09742E-05 1.07394E-02
 -1      3692 1.13230E-03-5.43478E-04-1.00988E-02
 -1      3693-7.83557E-04-7.32960E-05 1.68906E-02
 -1      3694-9.60334E-04-5.28507E-05 5.85961E-03
 -1      3695-8.98222E-04 7.04429E-05-1.62975E-02
 -1      3696-8.89715E-04 2.68737E-05-3.16435E-03
 -1      3697 2.46157E-03 6.03137E-04-4.77990E-03
 -1      3698-1.39423E-03 2.39506E-05 5.90965E-03
 -1      3699-1.00907E-03-2.49451E-05 1.62266E-02
 -1      3700-1.47935E-03 1.09760E-07-2.21354E-03
 -1      3701-8.12103E-04 5.05876E-05 9.85103E-03
 -1      3702 3.21551E-04-1.62923E-04-3.50170E-03
 -1      3703-6.01122E-04-3.64609E-05-5.51253E-03
 -1      3704-1.52650E-03 6.31936E-05 1.19130E-02
 -1      3705 1.75398E-03 3.28928E-04-2.83999E-03
 -1      3706 3.55979E-03 2.23895E-04 1.72278E-03
 -1      3707-7.89590E-04 1.54443E-04-1.38085E-02
 -1      3708-7.43677E-04 1.21384E-04-9.41682E-03
 -1      3709-1.00778E-03-5.26526E-05 1.37850E-02
 -1      3710-8.91312E-04-3.53849E-05-2.72059E-03
 -1      3711-7.37321E-04 1.76045E-04 1.44375E-02
 -1      3712 1.62447E-03 1.24257E-05-1.06315E-02
 -1      3713-6.51873E-04-7.58355E-05 6.54963E-03
 -1      3714-5.89988E-04 4.01444E-05 1.74531E-03
 -1      3715-1.93520E-03 3.45758E-06 1.71056E-03
 -1      3716 2.46247E-04 2.41744E-04 5.13409E-03
 -1      3717-1.29121E-03 3.48461E-05-4.38145E-03
 -1      3718-7.97839E-04 1.25083E-04 7.77997E-03
 -1      3719-7.50258E-04 4.19973E-05 8.97791E-03
 -1      3720-5.23022E-04 2.67767E-05-1.84568E-03
 -1      3721 3.05413E-03-1.02734E-04-5.57720E-04
 -1      3722-1.39770E-04 5.78897E-06-1.08535E-02
 -1      3723-8.37354E-04-4.49465E-05-8.23272E-03
 -1      3724-1.11092E-03-9.36665E-06 8.76800E-03
 -1      3725-7.72151E-04-5.67399E-05 9.25253E-03
 -1      3726 1.81634E-03-1.50988E-04-1.05849E-02
 -1      3727 3.00414E-03 1.10874E-03 7.43885E-03
 -1      3728 5.74811E-05-2.19451E-04-7.77267E-03
 -1      3729-5.17733E-04-4.58282E-05 2.16170E-03
 -1      3730-5.89305E-04-8.50456E-05 8.84735E-03
 -1      3731-1.10382E-03 6.63013E-05 1.62204E-02
 -1      3732-8.18643E-04 9.41108E-05 1.68245E-02
 -1      3733-1.23117E-03-6.54590E-06-1.55291E-02
 -1      3734-6.62571E-04-8.08653E-05 9.53416E-03
 -1      3735-9.32961E-04-4.56745E-05-1.62658E-02
 -1      3736-1.11496E-03-1.14207E-04-1.31962E-02
 -1      3737-9.88235E-04 1.33458E-04 1.39186E-02
 -1      3738 1.62775E-03 4.31116E-04 3.84841E-03
 -1      3739-1.34686E-03 2.48679E-05 3.44281E-03
 -1      3740-1.78079E-04-4.22387E-05-1.05890E-02
 -1      3741 1.05865E-03-4.18986E-04 5.27940E-03
 -1      3742-1.03804E-03 5.44350E-05-7.73561E-03
 -1      3743-9.77354E-04-3.10456E-05 2.24140E-03
 -1      3744-8.97005E-04 1.62858E-04-8.99651E-03
 -1      3745-8.66461E-04-1.13684E-04 9.12660E-03
 -1      3746 2.89187E-03-1.28412E-03 8.68437E-03
 -3
    1PSTEP                         2           1           1          
  100CL  101 1.000000000        3746                     0    1           1
 -4  STRESS      6    1
 -5  SXX         1    4    1    1
 -5  SYY         1    4    2    2
 -5  SZZ         1    4    3    3
 -5  SXY         1    4    1    2
 -5  SYZ         1    4    2    3
 -5  SZX         1    4    3    1
 -1         1-2.14986E-01-1.32309E+00-2.67955E-02-2.78424E-01-7.77630E-02 4.20264E-02
 -1         2 2.73309E-01 2.12596E-02-2.97696E-01 6.43993E-02 7.33988E-02-4.39012E-02
 -1         3 6.92192E-01 2.06578E-01-5.62288E-02-1.58705E-01 4.33209E-02-1.00203E-01
 -1         4 7.82153E-01 2.66734E-01-6.92347E-02-1.99881E-01-4.39017E-02 1.30157E-01
 -1         5 4.05817E-01-1.93941E-02-1.27020E-01 5.91679E-02-6.74918E-02-4.55646E-02
 -1         6 1.41073E-01 2.26392E-01-1.14829E-01-2.06454E-01-1.00660E-01 5.00628E-03
 -1         7 1.77528E-01 1.55402E-02-8.55512E-02 8.73091E-02 4.41900E-02 1.81832E-02
 -1         8 2.04382E-01 2.50677E-02-9.82778E-02-8.76149E-02-4.56376E-02 6.55843E-03
 -1         9 4.86974E-01 2.87589E-01-9.52476E-02-2.59226E-01-2.02970E-02 3.45109E-02
 -1        10 3.53991E-01 3.09397E-01-2.78233E-02-2.17069E-01-6.18362E-02 5.05300E-02
 -1        11 7.84074E-01 1.80920E-01-5.95700E-02-2.95446E-02 1.28586E-02-9.54329E-02
 -1        12 2.57388E-01 8.93210E-01-2.27006E-01-2.76243E-01 8.54126E-03-1.56752E-02
 -1        13 2.34688E-01 1.37590E+00 1.02952E-01 2.03061E-01-5.88765E-02-8.18661E-02
 -1        14 6.01494E-01 2.11107E-01-2.15991E-02-1.97891E-01 3.50566E-02-6.90542E-02
 -1        15 1.81705E-01 1.91841E-02-1.11561E-01-9.18512E-02 4.25011E-02-1.54609E-02
 -1        16 6.74263E-03 3.13142E-02 1.38554E-01-7.19816E-02-6.45316E-02 2.80684E-02
 -1        17-7.25616E-02-3.22179E-02-1.03712E-01-5.10897E-02 5.82848E-02 8.86011E-02
 -1        18-2.50965E-01-2.13071E-01-7.19707E-03-1.67452E-01-4.54787E-02-2.81988E-02
 -1        19-1.80456E-01-1.47624E-01 2.13005E-02-1.37458E-01 4.11698E-03 1.01067E-02
 -1        20-8.73444E-01-9.58866E-02-2.68960E-02 2.96777E-01 9.60105E-02-2.27437E-01
 -1        21-3.29917E-01 2.77693E-02 4.38908E-03-2.35824E-01 3.24317E-02-2.99493E-01
 -1        22-7.38843E-01-6.53613E-01 2.39500E-02 6.57825E-01 1.24465E-01-1.52893E-01
 -1        23-4.18465E-01-2.84348E-01 3.47506E-02-2.07121E-01-5.87726E-02-5.40048E-02
 -1        24-2.54658E-01-1.51325E+00-1.13911E-01 3.40982E-01 1.76889E-02-5.18347E-02
 -1        25-1.80886E-01-1.47361E+00-5.01124E-02 3.88743E-01 3.13700E-02-9.54088E-03
 -1        26-2.43358E-01-1.39074E+00-8.00727E-02-3.06096E-01-3.52455E-02-2.25305E-02
 -1        27-8.14470E-01-2.00208E-01 4.66450E-02-4.47171E-02-1.39689E-02-1.16295E-01
 -1        28-6.15716E-01-1.08147E-01 1.09101E-01 5.44577E-02 1.13835E-02-9.70596E-02
 -1        29-2.12219E-01-4.03041E-02-2.96401E-01-1.78319E-02 2.10739E-02 2.50802E-01
 -1        30-8.96876E-01-2.09846E-01 8.52983E-02 2.90131E-02-1.47413E-02 9.49149E-02
 -1        31-1.42117E-01-1.92167E-01 3.62609E-02 1.39203E-01-4.61670E-02-2.74158E-03
 -1        32-5.28950E-01-2.84410E-01 5.33057E-02-2.45343E-01 5.28175E-02 6.58834E-02
 -1        33-9.95983E-02-1.29888E-01 3.12705E-01-7.92812E-02 4.29423E-02-4.27003E-02
 -1        34-2.72764E-01-3.81021E-02 2.88440E-01 5.91633E-02-4.53555E-02 3.92525E-03
 -1        35-7.39186E-01-2.11451E-01 6.02898E-02-1.41425E-01-3.18126E-02-8.91883E-02
 -1        36-3.44302E-02-7.26553E-02 2.19533E-01-4.62288E-02 2.85067E-02-2.88046E-02
 -1        37-1.96666E-01-2.17576E-01-1.14416E-02 1.50554E-01 6.40829E-02-2.52234E-02
 -1        38-1.90898E-01-1.71072E-01 2.53369E-02 1.36277E-01-1.08678E-03 1.21094E-02
 -1        39-1.78076E-01-1.78095E-01 3.99875E-02 1.82593E-01-8.09342E-03 5.07541E-03
 -1        40-9.08095E-01-4.62254E-02-2.36415E-02-2.27915E-01-1.56015E-01-1.74147E-01
 -1        41-4.02262E-01 6.18092E-02-4.71982E-03 1.97595E-01-6.16424E-02-3.12794E-01
 -1        42 2.75947E-01-1.24228E-01-6.28442E-02 3.17198E-01 8.45669E-02-2.30519E-01
 -1        43 2.38357E-03 7.87157E-04-2.49890E-02 1.12113E-01 1.67911E-02 1.05797E-02
 -1        44-6.29319E-01-2.10916E-01 9.08381E-02 1.77519E-01 6.34929E-02-8.31617E-02
 -1        45-7.07480E-01-7.97163E-01-2.20768E-02-6.63228E-01-1.52449E-01-1.04273E-01
 -1        46-7.74320E-01-2.73671E-01 7.64997E-02 2.08211E-01-4.97107E-02 8.29242E-02
 -1        47-6.74076E-01-1.56355E-01 6.72323E-02 1.05146E-01 2.29018E-02-7.12185E-02
 -1        48-6.96643E-01-1.72467E-01 4.36611E-02 1.39940E-01-3.10318E-02 4.23671E-02
 -1        49-4.11458E-01-2.82781E-01 1.65875E-02 2.28850E-01 5.67769E-02-4.76051E-02
 -1        50-7.21525E-01-7.75284E-01-3.26684E-02-6.55028E-01-7.20347E-02-1.07209E-01
 -1        51-4.72278E-01-2.21217E-01 1.76198E-02 2.06394E-01 3.58878E-03 2.62567E-03
 -1        52-4.93269E-01-2.72960E-01 8.27248E-02 2.47361E-01-4.11083E-02 3.49598E-02
 -1        53-3.71216E-01 1.41063E-02 1.45854E-01 7.92580E-02 6.50726E-02 1.06342E-02
 -1        54-3.66106E-01-2.86787E-01 6.61237E-02 2.11532E-01-8.15791E-02 4.28241E-02
 -1        55-1.69568E-01-6.33543E-02-2.54818E-01 6.59850E-02-1.08084E-01 1.96844E-01
 -1        56 3.70080E-03-1.63847E-02 3.83172E-02 1.25612E-01 1.00716E-02 1.04662E-03
 -1        57 1.02361E+00 1.72647E-01-1.27986E-02-3.61167E-01 1.01860E-01-1.27537E-01
 -1        58 1.51740E-01 1.72289E-01-5.82328E-02 1.54988E-01 5.12449E-02-4.46316E-03
 -1        59 2.23843E-01 2.12791E-01-3.74895E-02 1.96309E-01-8.37986E-03 4.15205E-03
 -1        60 8.05343E-02-1.10687E-02 1.04212E-01 6.09075E-02 1.61026E-02 1.36191E-01
 -1        61 9.38738E-02 6.88357E-02 1.65165E-01 8.32827E-02 1.00257E-01 1.16970E-01
 -1        62-3.68943E-02-3.23061E-02-2.97982E-03-8.92927E-02-3.94247E-02-8.24145E-03
 -1        63 4.77726E-02 2.01827E-02 1.15816E-02-7.11643E-02-3.74500E-02 1.71493E-02
 -1        64 6.88576E-03 2.02614E-02 9.67988E-03-1.19355E-01 1.57262E-02 6.77033E-03
 -1        65 1.55934E-02 7.16715E-03 1.00102E-02-6.85579E-02-8.47020E-03 8.10224E-02
 -1        66-2.77497E-02-1.28357E-02-8.11772E-03-1.47645E-01 1.78408E-02-1.27277E-02
 -1        67-1.42287E-01 4.53420E-02 7.24179E-02-2.37621E-01 6.39148E-02-2.97837E-01
 -1        68 4.81397E-01 8.95325E-02 1.24488E-01-2.42854E-01-3.24944E-03-2.77570E-01
 -1        69 8.86689E-01 6.85181E-02-6.70316E-02 2.33396E-01-1.40724E-01-2.33410E-01
 -1        70 1.95656E-01 2.10791E-01 4.10485E-03-1.68564E-01 6.04599E-02-3.40029E-02
 -1        71 1.81123E-01 2.02643E-01-4.53290E-02-2.02005E-01-4.13040E-02 1.12957E-02
 -1        72 8.33432E-02-1.64052E-02 9.76472E-02-6.49797E-02-7.04413E-03 1.43838E-01
 -1        73 1.19560E-01 8.48503E-02 1.86930E-01-7.58338E-02-1.13635E-01 1.18325E-01
 -1        74 5.77677E-02 6.82737E-02 2.53624E-02-1.17557E-01 6.12253E-02-1.85251E-02
 -1        75 2.63633E-02 4.07730E-02-6.84283E-03 7.97269E-02-3.90122E-02 2.39157E-03
 -1        76-4.63031E-02-2.74030E-02-1.36847E-02 6.28290E-02-3.19524E-02 1.75772E-02
 -1        77 5.74198E-01 7.79134E-01-1.01188E-01-5.90638E-01 1.48012E-01-1.47445E-01
 -1        78 4.07137E-01 2.78907E-01-1.61105E-02 2.17824E-01-5.86828E-02-4.40294E-02
 -1        79 3.90866E-01 1.63024E-01-4.81274E-02 1.66423E-01-1.24462E-02-1.46519E-02
 -1        80 9.08089E-01 1.84041E-01 5.10046E-02 2.58320E-01-9.15773E-02-2.52536E-01
 -1        81 7.30773E-01 8.23344E-01 9.13295E-02 6.09605E-01-5.77691E-02-9.00333E-02
 -1        82 3.67619E-01 2.61601E-01-3.02314E-02-2.15908E-01 6.71799E-02-5.49196E-02
 -1        83 4.03707E-03 1.57297E-01-1.16452E-01 8.75361E-02-1.21600E-01 2.92960E-02
 -1        84 2.76869E-01 3.43027E-03-1.96906E-01 3.46605E-02-4.59859E-02-1.17165E-02
 -1        85 4.31540E-01 3.21038E-01-4.44069E-02 2.45420E-01 6.95890E-02 4.98122E-02
 -1        86 6.26529E-01 2.17844E-01-5.21394E-02 1.90913E-01-4.98627E-02-7.34583E-02
 -1        87 6.39551E-01 1.40527E-01-6.22339E-02 1.23249E-01-2.49171E-02-8.74824E-02
 -1        88 3.98139E-01-1.78901E-02-1.31346E-01-6.45399E-02 6.65297E-02-3.06061E-02
 -1        89 7.72837E-01 2.05761E-01-9.31814E-02 1.45872E-01 2.46099E-02 6.25043E-02
 -1        90 6.68488E-01 2.14741E-01-9.16876E-02 2.16789E-01 5.48744E-02 1.22217E-01
 -1        91 1.98173E-01 1.19614E-01 2.92457E-01-3.21456E-02-8.91996E-02 2.30909E-01
 -1        92 1.67515E-01 7.80786E-02 2.84630E-01-6.70478E-02-6.57119E-02 2.15211E-01
 -1        93 9.30021E-02 6.47245E-02 2.31739E-01-8.70587E-02-1.26840E-01 1.50471E-01
 -1        94 8.96193E-01 1.91903E-01-7.83710E-02 3.79699E-02 1.47361E-02 9.31302E-02
 -1        95 2.22759E-01 1.15141E-01-2.20101E-01-1.17880E-01-4.41783E-02 1.64091E-02
 -1        96 1.21991E-01 5.36153E-02 2.21890E-01 7.10672E-02 1.04193E-01 1.61332E-01
 -1        97 2.05418E-01 1.22101E-01 2.91525E-01 2.19417E-02 7.91834E-02 2.34204E-01
 -1        98-3.64131E-01-3.49681E-01-4.12119E-01 3.01391E-02-5.46761E-02 3.30786E-01
 -1        99 4.04917E-02-3.20204E-02 5.23779E-02-2.43850E-03-1.13381E-02 3.55667E-02
 -1       100 1.32864E-01-7.05493E-02-3.72352E-02 4.38157E-04 1.53966E-03-4.54772E-02
 -1       101-7.89185E-01-7.54682E-01-7.32787E-01-8.79975E-03-5.20588E-02-4.32293E-01
 -1       102-2.13963E-01 7.85874E-03-2.48232E-01-2.01823E-02 3.10900E-02 2.34274E-01
 -1       103-2.99378E-01-5.88065E-02 1.65277E-01-1.80415E-01-1.13089E-01-3.50737E-02
 -1       104 1.97629E-01 1.18264E-02 8.13434E-02-4.49516E-02 1.79832E-02 4.81652E-03
 -1       105-7.18403E-01-1.70323E-01 1.08807E-01-8.20165E-02-4.45686E-03 7.15716E-02
 -1       106-2.82538E-01-5.27906E-01-2.67407E-01-3.13533E-02-6.86634E-02-7.93722E-02
 -1       107-2.83349E-01-7.10725E-02 1.39662E-01 1.78616E-01 8.82860E-02-1.87161E-02
 -1       108-3.27422E-01-1.07471E-01 1.36178E-01-2.19843E-01 7.18334E-02-3.13994E-03
 -1       109-7.98488E-02-2.23863E-01-1.09983E-01-9.68960E-03-4.83454E-02-7.14824E-02
 -1       110-2.98080E-01-6.36272E-02 2.38275E-01 1.99745E-01-1.27932E-01-2.12720E-03
 -1       111-5.78323E-01-3.55463E-01 6.60358E-02 5.50101E-01 1.22674E-01-5.06067E-02
 -1       112-1.21559E+00-1.17206E+00-1.05541E+00-4.42379E-02 3.37345E-02-5.31696E-01
 -1       113-9.76631E-02-5.13500E-03-2.61874E-01-4.82015E-02 1.00245E-01 1.78435E-01
 -1       114-8.12681E-01-2.18548E-01 9.03470E-02-1.37856E-01 1.67981E-02 4.96820E-02
 -1       115-1.62990E-01-1.19539E-01-1.75034E-01-4.74775E-02 7.64787E-02 2.02000E-01
 -1       116 8.41975E-02 4.10365E-02 1.16528E-01 2.90928E-02 1.82687E-02-2.72226E-02
 -1       117-5.67029E-01-1.52235E-01 3.97133E-02-1.86007E-01-4.93536E-02-8.70357E-02
 -1       118-6.88248E-01-2.19799E-01 1.15866E-01-2.07312E-01 3.53151E-02 8.66874E-02
 -1       119 7.48988E-02-8.84001E-02-3.32350E-02 5.55112E-02 1.71940E-02-5.04152E-02
 -1       120-1.19727E-01-1.67567E-01 1.01415E-01-1.67855E-01-1.02166E-01-1.33132E-02
 -1       121-4.10437E-01-4.12793E-01-3.37452E-01 1.36957E-01 3.60206E-02-1.09219E-01
 -1       122-5.33921E-02-1.62922E-01-1.12048E-01-6.56339E-03 2.92339E-02 8.06282E-03
 -1       123-4.33225E-01 1.89860E-02 1.51086E-01 7.58275E-02 7.37507E-02-2.11424E-02
 -1       124-1.37395E-01-1.79419E-01 1.77158E-02 1.03251E-01 1.07648E-02-8.05986E-02
 -1       125-1.05125E-01-1.28631E-01-1.62169E-01-9.46350E-03 2.10119E-01 1.23240E-01
 -1       126 8.78950E-03 7.46523E-03 7.37979E-02 4.48575E-02 6.85897E-02-1.90554E-02
 -1       127-1.75614E-01-8.44368E-02-2.54227E-01-5.19979E-02 1.14014E-01 1.90207E-01
 -1       128-5.17327E-01-4.40685E-01-4.18230E-01-6.56435E-02 2.10113E-02-4.49398E-01
 -1       129-1.27190E-01-9.17502E-02-3.14855E-01-5.56545E-02 9.96724E-02 1.99386E-01
 -1       130-2.91315E-01-2.25618E-01 1.28572E-01-1.97306E-01 7.17776E-02 4.68121E-02
 -1       131-3.87481E-01-1.83583E-01 7.33338E-02-1.63900E-01-1.61318E-02-5.05031E-03
 -1       132 3.33711E-02-3.53397E-02-4.15117E-02 7.28487E-02 9.37637E-03-5.61853E-02
 -1       133-1.84314E-02-4.74283E-02-1.01302E-01 5.31080E-02-7.90954E-03-1.19703E-01
 -1       134 7.55069E-02 3.78791E-02 6.11952E-02 5.57251E-02-8.09364E-03-3.67378E-02
 -1       135 1.66664E-02-5.67284E-02-6.44448E-02 5.39922E-02-1.57518E-03-9.10550E-03
 -1       136-3.25148E-01 2.88100E-03 8.50173E-02-7.04239E-02 3.68711E-02-1.14832E-02
 -1       137-1.05708E-02-1.46454E-01 1.00786E-01-9.44574E-02-1.41336E-01 1.81245E-02
 -1       138-3.88096E-01 4.52679E-03 1.26304E-01-9.45005E-02-5.09082E-02 3.63774E-02
 -1       139-4.46472E-01-2.30775E-01-2.89553E-01 1.39362E-02 4.27434E-02-2.48096E-01
 -1       140-2.56014E-01-1.60782E-01-9.82367E-02-1.54264E-01 7.16711E-02-4.84349E-01
 -1       141-3.79593E-02-4.06504E-02-2.70897E-02-5.53535E-02 3.66453E-02 6.48144E-02
 -1       142 2.48623E-02 2.35739E-02-4.11148E-02 6.89783E-03 8.96427E-02 5.54862E-02
 -1       143-1.85348E-01-1.99408E-01 6.09218E-02-1.89578E-01 2.28386E-02 1.23041E-02
 -1       144 2.72873E-02 3.92336E-02 6.05761E-02 7.74077E-02 4.00781E-02-6.68878E-02
 -1       145-8.30373E-01-1.40259E-01-8.31602E-02 2.81810E-01 6.99525E-02-2.52794E-01
 -1       146-1.71101E-01-5.16587E-02 5.22126E-02-1.07396E-01 3.73485E-02 1.33607E-02
 -1       147-1.22038E-01-1.99188E-01 5.54668E-03-1.34906E-01 6.18078E-02 2.29586E-02
 -1       148 7.98357E-03-9.18499E-02 5.50872E-03-8.18142E-03 5.71614E-02-1.38272E-02
 -1       149-2.36518E-03-1.25609E-02-8.28484E-02 4.72501E-02 2.46237E-02-3.79106E-02
 -1       150 2.68488E-02 6.33290E-02 8.95832E-02 6.29077E-02-1.70746E-02-8.96206E-02
 -1       151-7.21747E-02-3.25261E-02-1.58130E-01 2.42196E-02 7.58479E-03-3.40698E-03
 -1       152-2.06046E-01-5.81524E-02 9.38319E-02-1.33134E-01-5.71205E-02-9.08951E-03
 -1       153 1.69922E-01 1.88292E-01 1.92131E-01-1.60905E-01 1.93076E-02-4.61649E-01
 -1       154 4.72932E-01 1.50098E-03 8.78394E-02-2.29762E-01-1.72191E-02-3.26661E-01
 -1       155 3.30754E-02-3.25128E-03 1.15898E-01-4.24340E-02-3.52416E-02 8.06131E-02
 -1       156-8.29460E-03 5.82998E-03 5.40076E-02 3.16928E-03-6.99630E-03-6.14475E-02
 -1       157-2.09386E-02-3.25212E-02-8.71392E-02 4.72874E-02-2.72932E-02-8.83587E-02
 -1       158 2.88670E-02 6.78663E-02 8.68355E-02 3.94611E-02 4.36317E-02-6.47614E-02
 -1       159-3.03528E-02-6.18120E-03-6.14886E-03-9.01743E-02 5.83144E-02 1.76119E-02
 -1       160-4.78681E-02-3.73334E-02 2.93026E-04-4.84257E-02 4.33871E-02 2.87467E-02
 -1       161 6.08254E-02 6.62398E-02-1.06052E-02-7.00599E-02 4.77638E-02-2.60645E-02
 -1       162 2.48019E-01 1.90153E-01 1.61362E-01-4.41217E-02-1.27253E-01 7.45219E-02
 -1       163-3.35490E-02 6.78226E-03 4.84157E-02 4.29134E-02-5.42967E-02-5.01849E-02
 -1       164 1.07894E-01 1.84498E-01-2.56347E-02-1.30230E-01-5.64571E-02-5.26678E-04
 -1       165 2.29542E-01 1.74535E-01-3.00225E-02-1.63993E-01 3.42904E-04 9.66527E-03
 -1       166 2.05127E-01 1.53168E-02-2.59793E-03 6.75951E-02-1.23672E-01-1.34029E-01
 -1       167-2.56419E-02 5.81575E-02-5.16796E-02-3.14276E-02 9.31898E-02 4.22038E-02
 -1       168-1.73799E-02 7.15617E-02-5.49255E-02-7.44239E-03-4.68547E-02-3.45484E-02
 -1       169 6.06853E-01 5.82792E-01-4.97381E-02 5.81078E-01-6.16882E-02-4.97633E-02
 -1       170-3.44734E-02 4.10962E-02 1.03815E-01 6.89942E-02 3.16867E-03-7.53612E-02
 -1       171 5.44431E-01 4.67419E-01 4.32409E-01-5.52613E-02-7.29463E-02-4.20925E-01
 -1       172 9.30488E-02 6.95376E-02 2.01734E-01-8.17413E-02-1.18470E-01 1.38702E-01
 -1       173 3.95711E-01 1.95908E-01-3.83799E-02-1.89239E-01 2.80004E-02-3.03420E-02
 -1       174 3.21691E-01 5.65272E-03-7.06429E-02-8.37615E-02-2.41483E-02-4.19339E-02
 -1       175 5.74111E-02 3.56082E-02 4.96030E-03 2.90739E-02-1.75621E-02-2.57030E-03
 -1       176 4.76167E-03 1.97090E-01-9.43787E-02-8.16345E-02 9.14900E-02 2.51575E-02
 -1       177 3.59518E-01-2.80275E-02-2.15071E-01-8.00167E-02 9.56164E-02 1.73663E-02
 -1       178 5.87388E-02 2.12113E-02 2.51876E-02 3.74783E-02 4.54152E-02-1.48695E-02
 -1       179 8.80756E-03 2.25758E-01-7.14565E-02-8.24615E-02-8.08236E-02-1.67341E-02
 -1       180 1.36224E+00 9.80016E-01 9.79244E-01-1.07761E-01 1.83074E-02-5.16826E-01
 -1       181 1.64641E-01 1.30355E+00 1.19348E-02 2.79897E-01 9.46812E-03 1.45601E-02
 -1       182 1.40306E+00 1.08362E+00 1.03765E+00-8.75473E-02 3.72003E-02-5.13231E-01
 -1       183-1.82292E-01-8.11790E-03-4.71599E-02 1.96641E-02-1.47484E-02 4.05734E-02
 -1       184-1.17314E-01 4.59474E-02 2.41720E-02 5.14516E-02-2.15155E-02-4.79190E-02
 -1       185-8.48517E-02 8.37622E-02 1.20549E-01 6.04590E-02 6.71690E-03-7.39060E-02
 -1       186 2.41034E-01 4.79786E-01 1.97044E-01 7.51610E-02-3.63514E-02-2.88864E-02
 -1       187-4.92926E-02 6.61679E-02-3.10073E-02 4.92033E-02-4.00367E-02-1.36156E-02
 -1       188 7.23294E-01 1.40060E-01-1.08076E-01-1.30792E-01-1.75687E-02 3.15503E-02
 -1       189 1.18430E-01 1.86178E-01-1.14215E-01-1.75948E-01 9.41141E-02-9.55772E-04
 -1       190-4.61274E-02 1.74262E-02 5.42510E-02 4.20216E-02 4.85680E-03-2.17528E-02
 -1       191 3.46337E-01 4.06927E-01 2.36115E-01 4.90724E-02 9.14420E-02 7.22910E-02
 -1       192 1.95359E-01 6.85566E-02 2.72852E-01-7.71134E-03-9.11334E-03 2.30877E-01
 -1       193-1.16121E-01 8.45107E-02-2.24178E-02-3.86166E-03-5.53062E-03-5.62471E-02
 -1       194 6.66349E-01 1.32169E-01-2.52588E-02 4.42882E-02-1.51240E-02-1.01069E-01
 -1       195 5.45886E-01 1.48687E+00 8.66793E-02-3.99760E-01 1.84866E-03-1.03581E-01
 -1       196 4.96942E-01 5.97517E-01 4.80344E-01 1.58857E-02-2.76463E-02-3.00445E-01
 -1       197-1.80597E-02 7.54865E-02-2.57390E-02 1.37494E-02 2.99153E-02 2.02956E-02
 -1       198 1.91429E-01 2.72226E-02 2.77120E-01 6.12629E-03-1.78334E-02 2.20590E-01
 -1       199 2.33589E-01 4.77066E-01 1.88199E-01 6.02352E-02-2.38488E-02-4.16773E-02
 -1       200 3.02588E-01 6.41132E-02-7.98274E-02 1.66568E-01-8.63204E-02-6.45204E-02
 -1       201 4.27605E-03 1.51084E-01-2.12281E-02-8.52252E-02-1.14503E-02 7.02523E-02
 -1       202 7.84344E-01 1.32511E-01-8.83218E-02-8.24968E-02-1.22588E-02 6.89638E-02
 -1       203 2.86877E-01 6.24084E-02-2.09245E-01-1.88678E-01 1.16595E-01-4.51042E-03
 -1       204 3.25034E-01 8.46626E-02-2.28974E-01 2.22454E-01 1.17052E-01-1.08790E-02
 -1       205 1.07407E+00 9.67260E-01 8.79404E-01-4.23140E-02 2.59735E-02-5.22172E-01
 -1       206 1.69746E-01 8.20598E-02 2.97433E-01 6.05194E-02 5.46961E-02 2.21035E-01
 -1       207 7.04103E-01 9.17399E-01 1.42848E-02-6.18727E-01 7.51300E-02-1.75816E-01
 -1       208-7.23382E-02 5.91346E-02 7.56406E-03-2.24059E-02-3.74351E-03-9.66278E-02
 -1       209 2.05705E-01 4.62016E-01 1.08344E-01-8.12756E-02 1.78898E-02-4.52406E-02
 -1       210 2.14665E-01 2.42860E-01 2.83661E-01-5.75439E-04-3.36343E-02-1.65381E-02
 -1       211-1.79985E-02 6.03740E-02 3.04174E-02-1.01681E-02 2.74045E-02 1.82808E-02
 -1       212 4.24801E-01-3.02795E-02-2.13107E-01-7.97070E-02-9.99392E-02 9.11764E-03
 -1       213 1.37272E-01 2.16009E-01-1.49730E-01 2.07841E-01 1.16004E-01-3.69191E-03
 -1       214 1.15365E-01 1.55319E-01-1.51067E-01 1.71453E-01-1.23875E-01-8.58451E-04
 -1       215 9.78046E-02 5.42313E-02 2.55608E-01 6.84204E-02 1.11737E-01 1.58046E-01
 -1       216-7.41296E-02-2.46962E-02-1.06888E-01-2.99585E-02 4.34307E-02-1.96838E-02
 -1       217 1.14320E-01 1.14089E-01 2.17308E-01 2.44014E-03 1.36958E-01 1.06617E-01
 -1       218 3.28037E-01 3.29409E-01 1.37557E-01-1.77985E-01 7.36133E-02-7.52621E-02
 -1       219-8.25206E-03 6.38043E-02 4.85001E-03-6.52907E-02 2.46608E-02-5.26757E-02
 -1       220-8.23657E-02 1.46137E-02 6.09857E-02-7.39456E-02-1.97260E-02-8.76583E-02
 -1       221 2.14221E-03 2.57778E-01-1.01341E-01 8.48671E-02 7.21241E-02-3.22461E-02
 -1       222 8.04929E-02 1.43606E-01 1.33396E-01-7.97141E-02 5.74797E-02 3.22679E-02
 -1       223 4.96855E-01 1.99596E-01-8.34243E-02 2.26807E-01 1.37229E-02-5.95152E-05
 -1       224 3.23797E-01-3.27594E-03-9.08650E-02 7.24015E-02 3.85880E-02-1.63624E-02
 -1       225 1.08758E+00 1.48802E-01-2.98335E-02-4.09599E-01 1.38268E-01-1.77819E-01
 -1       226 2.10349E-01 1.88967E-01 8.95751E-03 1.71880E-01-6.48585E-02-3.53551E-02
 -1       227-5.02171E-02-1.22795E-03 4.23236E-02-4.73469E-02-4.87385E-02-1.07108E-01
 -1       228-2.44183E-02-4.42611E-02-7.41346E-02-6.52023E-02 3.19712E-02-6.94880E-02
 -1       229 4.60929E-01 2.66798E-01 3.00313E-01-1.08246E-02 1.42760E-01-3.77573E-01
 -1       230 2.16313E-01 1.51293E-01-2.64947E-02 1.56989E-01-5.16223E-04 1.45224E-02
 -1       231-2.74356E-02 4.26204E-02-8.13354E-02 2.15777E-02 6.51363E-02-5.03214E-02
 -1       232 8.01413E-02 5.97708E-02 7.30973E-02-2.37521E-02 3.63354E-02-4.71507E-02
 -1       233-9.90060E-02-1.16556E-01-1.77249E-01-4.60578E-02-2.62537E-02-8.00485E-02
 -1       234-2.84605E-02 3.52137E-02-5.05393E-02 4.14409E-02-1.05094E-01 4.40298E-02
 -1       235 2.23401E-01 6.74266E-02-7.39030E-02 1.41471E-01-5.03401E-02-1.51446E-02
 -1       236-3.58599E-01 7.86351E-02 4.48609E-02 1.56203E-01-7.01831E-02-3.29404E-01
 -1       237 1.89889E-01-9.04993E-02-7.36229E-02 3.05611E-01 6.33094E-02-2.48186E-01
 -1       238-2.20264E-02-7.90525E-03-1.10411E-02 5.42242E-02-9.34250E-03 6.40827E-02
 -1       239-1.18699E-03-2.07190E-02 5.30052E-02 3.81024E-02 1.06085E-02 4.39365E-02
 -1       240-2.46575E-02 1.31332E-02-3.98670E-04 1.09642E-01-4.49222E-02 1.08593E-02
 -1       241-2.06564E-01-1.14710E-01-1.42287E-01 6.09162E-02-5.91030E-03-4.55286E-01
 -1       242 5.47975E-02 5.09597E-02 6.05849E-02 3.59572E-02-3.17534E-02-1.94095E-02
 -1       243 2.01659E-02-3.92653E-03-7.09131E-03-4.45575E-02 3.03878E-02-8.93661E-02
 -1       244-6.99441E-03 1.17274E-02 1.01962E-01-7.25305E-02-3.29129E-02-8.60890E-02
 -1       245-3.73760E-02-3.89295E-02 8.56640E-02-2.51317E-02 5.45716E-02-3.24311E-02
 -1       246-5.26969E-02-5.48496E-02 3.56516E-02 6.57047E-02 5.37197E-02-1.64360E-02
 -1       247 4.68388E-02 3.38870E-02 1.45553E-02 1.21770E-01-4.88056E-02-9.29741E-03
 -1       248-2.61525E-04 2.23761E-02-4.73282E-02-2.23393E-02 1.68185E-04-3.32919E-02
 -1       249-4.45317E-02-2.13434E-02-1.47998E-01-1.05009E-02-1.31252E-02 2.92065E-03
 -1       250 5.02493E-02 3.20019E-02 1.09893E-04 4.83476E-02 4.97864E-02 3.32289E-02
 -1       251-9.81880E-02 1.00857E-02-1.02949E-01 6.18232E-02-1.28196E-02 1.45337E-01
 -1       252-1.26371E-01-7.99930E-02-1.84194E-01 7.50781E-02-1.10653E-01 1.21793E-01
 -1       253-4.81666E-01-3.12553E-01-2.78685E-01 6.37928E-02-1.36806E-03-3.52310E-01
 -1       254 3.26018E-02-2.27430E-02-6.98508E-02-4.33395E-02 3.31184E-02-1.12633E-01
 -1       255-2.53736E-01-1.82169E-02 6.49686E-03-4.53839E-02-1.35319E-01-1.23227E-01
 -1       256-1.70223E-01-4.66632E-02 7.25474E-02 1.07861E-01-4.71085E-02 1.14226E-02
 -1       257-1.98897E-01-6.43349E-02 5.39013E-02 1.26540E-01 3.76268E-02-1.24054E-02
 -1       258 3.80927E-02 4.36724E-02 8.07796E-02-3.47895E-02-1.27848E-02-7.14302E-02
 -1       259-1.77154E-02-4.01317E-03 1.05363E-02-7.50286E-02-6.39920E-02-5.22851E-02
 -1       260 2.53558E-02-4.82376E-02 7.57207E-02 1.87723E-02-6.14536E-02-4.70084E-02
 -1       261-3.30229E-02-4.11660E-02-9.64874E-02-4.42142E-02-2.54089E-02-4.16736E-02
 -1       262 2.49352E-02-7.54450E-02 4.76109E-02 3.01156E-02 9.77552E-02 4.12318E-02
 -1       263-7.70702E-01-4.02517E-02 5.06260E-02-1.91851E-01-2.04637E-01-2.18890E-01
 -1       264-1.25622E-01-8.21825E-02-3.20323E-01 7.25432E-02-1.23021E-01 2.00168E-01
 -1       265 5.21253E-02-4.47904E-02-1.87524E-02-3.33042E-02-3.24319E-02-2.03611E-02
 -1       266-3.33032E-02-2.55336E-02 6.38722E-02-2.41871E-02 2.42287E-02-6.68871E-02
 -1       267 3.46366E-02-2.63043E-02 5.12606E-02-7.75829E-02-1.03875E-02-4.70669E-02
 -1       268-3.70979E-01-2.60460E-03 8.04786E-02 8.63016E-02-3.18683E-02-2.60180E-02
 -1       269-5.10319E-03-2.14851E-01 1.10865E-01 9.30013E-02 1.08439E-01 2.93582E-02
 -1       270-3.95375E-01-2.03063E-01-2.36555E-01-1.42389E-02-5.38330E-02-1.65652E-01
 -1       271 1.00263E-03-2.02477E-01 1.25180E-01 8.41113E-02-9.45258E-02-3.87429E-02
 -1       272-1.72990E-01-1.75116E-01-1.89390E-01-5.38218E-02 1.17171E-02-3.77899E-02
 -1       273-1.07140E-01 2.12163E-02-2.98241E-01 4.71360E-02-1.00245E-01 2.01253E-01
 -1       274-4.73080E-01-3.15818E-01-3.36167E-01-5.81184E-02-1.74740E-01 4.21317E-01
 -1       275-1.67513E-01-5.69176E-02-1.79698E-01 7.93271E-02-7.93861E-02 2.19635E-01
 -1       276-1.09649E-01-1.51185E-01-7.08338E-02-3.18313E-02-5.42533E-02 3.28997E-02
 -1       277-6.99265E-01-5.87076E-01-5.07557E-01-7.58613E-02-6.34209E-02-4.08092E-01
 -1       278-3.31234E-01-3.41537E-01-2.25212E-01-1.39528E-01-5.33724E-02-1.23210E-01
 -1       279 1.44234E-01-1.53096E-02-1.08432E-03-7.64636E-02-1.17680E-02-7.16504E-02
 -1       280-1.21512E-01-1.39220E-01 1.71502E-01 1.75155E-01 1.50521E-01-7.60120E-03
 -1       281-4.21146E-01 1.12335E-02 1.25546E-01-8.05498E-02-5.89412E-02-5.70701E-03
 -1       282 2.06811E-01-1.09265E-02 4.66600E-02-5.13519E-02-4.08418E-02-4.07805E-02
 -1       283-4.34196E-01 7.55146E-03 1.03799E-01-7.94882E-02 5.04913E-02 1.36226E-02
 -1       284 4.44234E-02-8.74090E-02-1.12688E-01-4.00648E-02-3.04972E-02-6.32697E-02
 -1       285-1.05641E-01-2.02088E-01 2.34584E-01 1.98301E-01-1.15616E-01-5.00984E-02
 -1       286-3.29103E-01-1.61011E-01-5.38432E-02 1.01828E-01 2.14524E-02 7.55656E-01
 -1       287-1.33188E+00-9.04525E-01-8.94563E-01 6.84093E-02-1.72382E-01 8.72626E-01
 -1       288-2.21661E-02-6.57651E-03-4.08106E-02-3.71659E-03-1.88568E-02 4.58525E-02
 -1       289 6.65105E-02 7.67588E-02 5.73077E-02 3.62198E-02-3.00389E-02-2.29276E-02
 -1       290-7.43834E-02-8.74589E-02-4.47184E-02 4.70125E-02 1.50611E-01 3.14335E-02
 -1       291-4.85852E-02-3.09736E-02-3.56470E-02 3.41156E-03 2.95287E-02 1.67352E-02
 -1       292 1.05826E-01 1.18451E-01 1.42490E-02-5.38242E-02-3.89793E-01 2.32959E-01
 -1       293 1.05262E+00 1.05218E+00 8.41918E-01-2.04528E-01-5.51424E-01 5.68860E-01
 -1       294 2.84108E-01 3.39962E-01 3.29103E-01-2.83029E-02-2.69198E-01 1.41797E-01
 -1       295 5.45363E-01 7.56587E-01 5.20780E-01-7.86405E-02-3.78559E-01 1.57849E-01
 -1       296 2.82681E-01 2.67993E-01 3.54067E-01-1.21118E-02-3.18319E-01 4.89451E-01
 -1       297-1.05519E+00-9.26141E-01-7.92532E-01-1.90044E-01 4.90939E-01 7.08165E-01
 -1       298 5.65069E-02 9.15120E-03 5.06330E-02 5.87455E-03-3.78083E-01 2.40778E-01
 -1       299-2.03316E-01-1.47870E-02-1.09290E-01-7.23661E-02 4.23363E-01 2.87044E-01
 -1       300-4.30141E-01-6.21120E-01-4.20504E-01 5.32119E-02-3.80700E-01 1.57852E-01
 -1       301-3.42008E-02-2.32159E-02 2.00454E-02-4.06502E-02 2.90024E-01 1.21311E-01
 -1       302 1.36452E-01 2.06995E-01 1.46212E-01-1.77477E-03 1.24117E-01 4.75660E-02
 -1       303-3.76968E-02-3.14534E-02-2.76601E-02-2.41265E-02 2.55554E-02-3.12373E-02
 -1       304 2.50184E-01 3.87981E-01 2.55266E-01 1.11003E-02-2.03211E-01 2.44757E-02
 -1       305-3.18786E-01-3.33964E-01-3.68240E-01-3.44340E-02 3.19922E-01 2.43082E-01
 -1       306 2.27800E-01 2.73628E-01 2.34881E-01 1.98395E-01 1.74283E-01 8.08700E-01
 -1       307-5.24448E-01-4.55462E-01-5.46944E-01-4.14995E-02 2.59897E-01 6.55942E-01
 -1       308-1.33549E+00-1.01894E+00-9.41772E-01-1.74743E-01 3.56391E-01 8.64007E-01
 -1       309 7.81420E-02 6.58540E-02-3.30506E-02 6.34878E-02 1.29922E-01 7.46025E-01
 -1       310-9.09242E-01-4.88458E-01-5.43002E-01 6.89994E-02 1.46939E-01 8.87733E-01
 -1       311-7.62416E-01-8.23635E-01-6.34421E-01-1.58755E-01 4.96066E-01 4.98463E-01
 -1       312-2.40267E-01-1.70023E-01-3.56064E-01-4.02071E-02-2.76046E-01 7.22473E-01
 -1       313 1.11450E+00 9.97851E-01 8.44940E-01-2.02224E-01-4.98104E-01 7.65997E-01
 -1       314-6.70188E-01-3.33610E-01-3.52685E-01 1.89273E-02-3.03960E-01 8.25133E-01
 -1       315-1.98796E-01-3.07073E-01-5.87151E-01-2.44363E-02-1.50866E-01 6.67229E-01
 -1       316 7.73867E-01 6.65112E-01 5.03956E-01-2.61007E-02 3.89910E-02-4.02420E-01
 -1       317-1.50045E-01 5.98991E-02-5.22629E-02-5.68492E-02 4.11773E-02-5.99173E-02
 -1       318 2.57514E-01 5.76929E-01 1.99144E-01-5.68101E-02 1.77035E-02-6.01027E-02
 -1       319 6.30212E-01 5.87662E-01 4.94261E-01-2.75326E-02 5.52460E-02-3.99689E-01
 -1       320 6.08908E-01 5.39796E-01 4.01095E-01-9.91562E-02 5.60393E-02-1.44811E-01
 -1       321 4.99327E-02 8.95674E-02 1.33096E-01-5.37967E-02 2.93896E-02-2.79137E-02
 -1       322 3.77955E-01 1.97847E-01 2.44554E-01-1.69412E-02 4.43753E-02-2.05788E-01
 -1       323 2.79785E-01 5.20110E-02 2.89686E-02-6.08581E-02 1.11160E-01-1.60715E-01
 -1       324 2.95572E-02 5.72047E-02 1.35474E-01-1.92984E-02 1.30149E-02-3.38271E-02
 -1       325 1.59640E-01 7.54478E-02 1.60017E-01 5.32186E-02 1.16745E-01 7.24403E-02
 -1       326 5.57170E-02 4.19034E-02 9.25298E-02 5.11238E-02-3.53555E-02-2.91743E-02
 -1       327-7.40519E-02-6.37249E-02-4.24180E-02 8.93944E-02-4.85064E-02-7.17140E-02
 -1       328 4.09525E-01 1.76220E-01 2.49302E-01 1.19819E-02-7.21913E-02-2.00415E-01
 -1       329 2.64428E-01 9.17282E-02 1.92351E-01 1.06327E-01 6.54640E-02-4.73565E-01
 -1       330 1.13093E-01-9.15556E-02-8.96394E-02 8.10425E-02 5.27650E-02-2.24016E-01
 -1       331-6.37543E-02-1.68158E-02 3.18489E-02-7.10545E-02 3.18198E-02-7.61395E-02
 -1       332-2.41305E-01-8.89613E-02-4.27758E-02 3.37654E-02-4.21640E-02-2.18764E-01
 -1       333 6.46380E-03-5.36009E-02-5.96102E-02-2.63548E-02 3.30136E-03-8.53154E-02
 -1       334-4.24146E-03 2.69034E-02 6.23964E-02-6.17481E-02-6.32868E-02-6.89533E-02
 -1       335-3.31662E-01-3.36782E-01-1.29331E-01-2.02901E-01-8.80454E-02-8.21667E-02
 -1       336 1.45969E-01-8.29165E-02-6.24660E-02 7.42560E-03-1.10713E-02-4.55837E-02
 -1       337-2.22043E-01-4.69816E-01-1.82933E-01-4.27480E-02-5.59798E-02-5.01801E-02
 -1       338-4.14060E-01-2.65902E-01-3.96584E-01 4.55729E-02 8.40576E-02 3.31315E-01
 -1       339 1.45530E-01 1.85369E-01-6.78589E-02 1.05007E-01 2.81176E-01 3.28954E-01
 -1       340 4.82142E-02 4.08598E-01 1.82310E-01-5.03211E-02 4.10313E-01 2.47793E-01
 -1       341 1.00069E-01 2.28265E-01 1.03105E-01-2.88288E-02 3.39343E-01 1.16202E-01
 -1       342 2.96464E-01 4.63553E-01 3.04007E-01-2.85435E-03 1.75590E-01 3.51669E-02
 -1       343-6.92745E-02-5.49175E-02 4.09626E-02-5.20619E-02-7.37050E-03 1.81243E-02
 -1       344-6.07162E-03 2.09839E-02 4.84444E-02 4.78133E-02-3.39464E-02-7.96493E-02
 -1       345 5.35486E-02 4.28836E-02 1.25584E-01 1.04540E-02-1.64218E-02-4.55462E-02
 -1       346 1.33283E-01-1.20540E-01-1.06553E-01-8.75579E-02-8.04809E-02-2.46941E-01
 -1       347 1.94638E-01 1.27895E-01 1.75681E-01-6.54282E-02 3.72727E-02-2.02424E-01
 -1       348 1.04664E-01 1.15658E-01 1.15294E-01-5.78716E-02-7.20619E-02 1.00684E-02
 -1       349 2.83484E-02-1.91783E-02-8.60284E-02-2.71969E-02 4.06565E-02-3.57884E-02
 -1       350-4.87901E-02 6.24412E-03-7.64363E-03-3.83170E-03-9.77889E-02 2.00619E-02
 -1       351-3.16771E-02 2.50804E-02-5.91052E-02 4.14593E-02-1.13239E-02-1.82505E-02
 -1       352-2.65147E-01-4.17993E-01-1.60098E-01 7.67175E-02-3.44891E-01 2.08706E-01
 -1       353-3.67743E-01-2.89663E-01-2.92537E-01-4.59951E-02 1.63282E-01 2.67208E-01
 -1       354 1.99015E-01 2.29294E-02 5.46436E-02 5.35115E-02 5.47539E-02 1.05102E-02
 -1       355 3.92324E-01 2.29304E-01 2.02852E-01 1.86673E-01 7.26054E-02 8.94464E-01
 -1       356-1.87105E-01-2.02819E-01-2.56787E-01 6.83492E-03 1.37755E-01 2.11189E-01
 -1       357-9.67409E-02-1.59621E-01-3.18632E-01 5.21042E-02 3.39349E-01 4.90329E-01
 -1       358 9.79807E-01 6.74031E-01 6.61535E-01-6.30639E-02-1.76041E-01 8.90393E-01
 -1       359-5.27942E-02-1.23213E-01-1.32871E-01-3.57840E-02 3.53068E-02 3.22901E-01
 -1       360-1.13990E-01-3.14625E-01-1.09343E-01-4.04144E-02-1.92707E-02-3.78306E-02
 -1       361 1.16320E+00 1.05997E+00 8.89270E-01-2.19362E-01-4.35132E-01 6.53109E-01
 -1       362-2.87158E-01-1.56035E-01-2.62541E-01 4.50353E-02-4.40796E-01 4.21915E-01
 -1       363-1.20243E-01-1.30830E-01-1.31852E-01 3.02469E-02-1.86403E-01 2.99502E-01
 -1       364-1.38552E-02-7.50717E-02-2.86733E-02-4.80384E-02-2.61480E-02-7.86186E-03
 -1       365-2.43425E-01-1.40238E-01-2.99506E-01 3.42175E-02-2.07182E-01 1.51734E-01
 -1       366-7.24947E-02-1.45896E-01-1.21036E-01-8.19560E-02 1.79864E-02-4.42851E-02
 -1       367-7.53726E-02-5.08019E-02 6.68087E-03-1.08570E-02 8.51481E-02-5.03984E-02
 -1       368 5.04332E-02-6.78891E-03-4.60315E-02 8.68939E-03-2.13176E-01 1.17691E-01
 -1       369-3.53173E-01-2.57976E-01-2.14879E-01 7.61809E-02-1.27109E-01 9.81496E-02
 -1       370-8.30584E-02-1.25553E-02-2.44424E-02-3.57057E-02 6.13068E-02-3.82181E-02
 -1       371-3.18157E-01-2.52690E-01-2.67387E-01 7.37396E-02 2.38174E-02-2.54261E-01
 -1       372-5.46890E-02-5.55571E-02-5.28529E-03 4.61899E-02-8.62292E-02 1.34879E-02
 -1       373-2.17777E-02-3.33176E-03-2.37546E-02-3.35012E-02-1.28966E-01 4.54206E-02
 -1       374-1.14839E-01-1.46370E-01-1.14528E-01 4.61808E-02-4.96459E-02-6.39245E-03
 -1       375-6.43895E-02-1.32107E-01-1.38874E-01-4.01943E-02-2.31685E-02-7.48250E-02
 -1       376 1.60014E-01 1.14333E-01 1.54856E-01 9.37531E-02-3.73979E-02-2.31468E-01
 -1       377-3.02527E-02-1.23420E-01-7.03588E-02-5.36013E-03 1.05493E-01 1.26210E-02
 -1       378-2.35984E-01-3.11655E-01-1.99686E-01 7.36987E-02 1.43460E-01 2.26810E-02
 -1       379 8.54932E-02 6.01230E-02 3.08773E-03-3.38650E-02-2.33648E-02-4.52024E-02
 -1       380-3.01586E-01-5.90105E-01-3.00753E-01 8.61611E-02 2.43455E-02-5.90847E-02
 -1       381-2.59498E-01-5.50255E-01-2.57177E-01 9.87537E-02 3.30015E-02-4.43625E-02
 -1       382-1.35984E-01-1.98084E-01-2.06396E-01 6.18842E-03 3.01933E-02-7.26588E-02
 -1       383-7.72778E-01-7.45943E-01-6.55511E-01-1.93308E-02-8.06464E-03-3.91923E-01
 -1       384-3.38573E-01-3.72569E-01-2.19939E-01 1.60027E-01 5.89676E-02-6.61859E-02
 -1       385-8.56490E-02-6.23446E-02-6.25407E-02-3.20496E-02 1.29228E-01 4.80183E-02
 -1       386-3.43541E-01-1.10997E-01-9.28011E-02 6.69267E-02 1.02495E-01-2.01115E-01
 -1       387-6.86611E-01-5.75462E-01-5.78660E-01 1.02895E-02 4.23111E-02-4.52789E-01
 -1       388-5.38161E-02-1.78579E-01-1.49071E-01 5.67352E-02 2.16348E-02-6.09827E-02
 -1       389-8.07676E-02 8.12311E-02 3.24227E-02-3.69460E-02 8.15662E-02-1.81629E-01
 -1       390-1.70041E-01-1.06700E-01-1.77156E-01-2.96196E-02 1.11175E-03-1.93388E-01
 -1       391-1.47540E-01-1.50833E-01-2.87301E-02-7.94338E-02 3.90516E-02-4.41381E-01
 -1       392-1.76146E-02-5.45474E-02-1.43959E-01 6.46917E-02-2.00779E-02-1.08471E-01
 -1       393-1.09569E-01-1.24681E-01-1.34176E-01-2.65650E-02 1.80060E-02-4.50339E-02
 -1       394-1.51041E-02-8.54225E-03-6.74634E-02 5.09402E-02 2.40391E-02-9.35264E-02
 -1       395 1.78143E-01 1.88866E-01 1.65816E-01-5.13488E-02-7.75472E-03-4.41246E-01
 -1       396-5.23532E-03 4.79546E-02 9.23224E-02 7.05862E-02 5.18532E-02-1.10880E-01
 -1       397 1.36785E-01 6.71957E-02 1.99860E-01-1.34966E-02 1.38528E-01 1.83842E-01
 -1       398 5.39743E-02 1.43199E-01-1.31765E-02-7.27816E-02 1.96035E-02-1.05969E-02
 -1       399-5.52160E-02 4.54369E-02-2.85474E-02-4.63370E-02-1.76622E-02-3.69073E-02
 -1       400 2.86141E-01 2.74825E-01 2.75781E-01 3.44630E-02 1.71257E-01 2.77317E-01
 -1       401 3.35461E-01 2.39443E-01 1.86088E-01-2.34302E-02 9.41350E-02 3.16210E-01
 -1       402-1.26953E-01 1.48771E-02 2.60501E-02 5.07263E-02-4.19400E-02-2.26651E-02
 -1       403 2.65352E-01 1.56447E-01 2.91387E-01-2.23632E-02-1.80322E-01 1.90287E-01
 -1       404 2.16353E-01 2.32818E-01 2.39964E-01 6.07223E-02 3.70686E-03 7.34884E-03
 -1       405 1.11632E-01 4.08609E-02 3.93428E-02-1.27311E-04-1.80668E-01 1.57554E-01
 -1       406 1.07699E-01 2.31750E-01 8.72684E-02-2.85647E-02-4.13684E-01 4.11080E-01
 -1       407-3.06115E-02-2.62116E-02 1.06129E-01 4.85051E-02-2.91101E-01 4.41071E-01
 -1       408 6.21781E-02 1.11696E-01 1.26912E-01-2.47751E-02-1.41994E-01 2.67329E-01
 -1       409-1.24176E-01 1.16722E-02 4.72622E-02 1.04421E-01-5.08903E-02-5.79301E-02
 -1       410 8.56077E-01 6.57833E-01 4.90235E-01-1.22720E-01-4.37715E-02-3.12931E-01
 -1       411 3.23503E-01 3.55013E-01 2.26173E-01 1.65025E-01-5.37126E-02-9.66805E-02
 -1       412 4.26085E-01 3.56261E-01 3.39965E-01 1.55307E-01-5.06302E-02-1.32438E-01
 -1       413 1.14573E-02 6.71855E-02 1.54273E-01 1.92523E-03-7.99201E-02 3.02999E-01
 -1       414 6.21043E-02 1.33449E-01 1.46217E-01-2.18224E-03 4.88066E-02-7.37756E-02
 -1       415-2.52710E-01 3.14581E-03-4.89001E-02-1.67881E-03 1.52028E-02-2.45863E-03
 -1       416-9.74847E-02 7.32465E-02 6.66153E-02 4.50227E-03-2.75474E-02-3.21166E-02
 -1       417 1.65131E-01 1.35579E-01 2.68005E-01-3.27276E-02 3.45840E-03 2.94711E-01
 -1       418 2.74491E-01 2.59050E-01 2.61481E-01 3.64524E-03 3.57562E-01 5.46966E-01
 -1       419-1.98139E-02 4.12808E-02 1.14948E-01 1.83373E-02 2.70227E-02 2.79965E-01
 -1       420-4.46656E-01-2.51104E-01-2.51824E-01 1.20858E-01-1.63448E-02 9.66088E-01
 -1       421-1.29478E+00-9.83267E-01-9.97688E-01-1.24795E-01-9.76250E-02-6.29963E-01
 -1       422-1.37848E+00-1.00584E+00-1.00663E+00 1.65842E-02 1.72945E-02-6.62007E-01
 -1       423-1.19137E+00-9.14692E-01-8.50421E-01-9.51987E-02 2.54371E-02-5.97458E-01
 -1       424-1.08545E+00-8.41687E-01-7.67590E-01-1.83955E-01-1.25873E-01-5.76200E-01
 -1       425-3.31142E-01-1.74564E-01-2.33950E-01 1.77254E-01 2.75307E-02-5.16660E-01
 -1       426-9.83831E-01-7.04296E-01-6.53976E-01 1.72438E-01 9.83676E-02-4.04969E-01
 -1       427 5.17480E-01 1.92709E-01 3.30507E-01 2.08733E-01 5.62992E-02-4.92109E-01
 -1       428 6.61121E-01 3.51173E-01 4.09328E-01 4.20994E-02 1.14487E-01-3.81605E-01
 -1       429 1.21711E+00 9.54872E-01 9.47464E-01-1.76420E-01 7.06274E-02-5.25592E-01
 -1       430 1.07658E+00 8.64620E-01 8.07558E-01-3.07425E-02 2.61757E-03-5.12368E-01
 -1       431-6.60798E-03-6.92026E-02 1.80500E-02-1.95813E-03-1.15474E-01 2.85263E-02
 -1       432 5.92997E-01 6.52107E-01 4.98041E-01-1.22427E-01-4.83796E-01 3.24952E-01
 -1       433 8.53068E-01 9.58508E-01 7.35143E-01 3.79197E-01 3.09144E-01 6.86461E-01
 -1       434 5.72956E-01 9.32395E-01 5.87166E-01 5.10109E-01 2.51024E-01 6.22941E-01
 -1       435 1.04736E+00 9.24831E-01 7.88877E-01 1.88024E-01 4.68019E-01 6.97287E-01
 -1       436 5.83030E-01 3.96044E-01 3.64063E-01 1.43105E-01 4.39407E-01 4.89110E-01
 -1       437 2.59815E-01 2.85002E-02 2.12426E-01 3.23837E-02 3.05748E-01 3.95510E-01
 -1       438 1.31176E-01-4.74406E-03-1.20360E-01 9.86047E-02-1.92146E-02 7.58058E-01
 -1       439-8.17277E-02-3.72751E-02-1.64608E-01-8.20758E-03-2.48743E-01 1.56328E-01
 -1       440-1.89973E-01-2.98205E-01-1.95271E-01-3.15991E-03-1.68292E-01 3.33631E-02
 -1       441-8.54191E-01-8.86531E-01-6.96289E-01 1.57517E-01-5.56150E-01 4.89121E-01
 -1       442-3.28473E-01-4.61231E-01-3.15881E-01-4.51108E-02 3.08440E-01 1.26101E-01
 -1       443-6.90235E-01-8.33416E-01-6.09460E-01-1.35293E-01 4.22408E-01 2.82791E-01
 -1       444-3.17289E-03 4.07499E-02-4.97954E-02 9.48719E-03 2.17245E-01 1.15948E-01
 -1       445-6.08580E-01-2.64512E-01-3.70368E-01 2.62436E-01 1.22486E-01 7.45544E-01
 -1       446 2.08290E-02 2.51716E-02 7.06000E-02 2.15608E-02-1.14430E-01 6.94459E-01
 -1       447 1.43826E-01 1.95012E-01 9.31022E-02-8.65326E-02-3.71764E-01 7.82926E-01
 -1       448-2.28998E-01 1.22848E-02 6.07726E-02-1.22756E-02-3.22677E-01 5.84665E-01
 -1       449-1.39743E-01-6.60756E-01-2.54414E-01 1.52840E-01 6.87221E-02-7.10875E-02
 -1       450-1.08802E-01-6.30142E-01-1.97773E-01-1.23601E-01-1.35086E-01-7.91578E-02
 -1       451 3.11349E-01 1.25820E-01-6.28034E-02-6.37118E-02 6.99479E-03-4.63186E-02
 -1       452 3.63831E-01 1.37805E-01 2.43765E-02-1.00199E-01 4.32516E-02 2.87193E-03
 -1       453 1.18152E-01 1.09194E-01 1.57995E-02 5.84504E-02 1.68538E-02 1.72899E-02
 -1       454 5.37206E-02 9.55865E-02-1.94491E-02-5.09479E-02-1.27177E-02 1.69154E-02
 -1       455 1.92326E-01 1.56711E-01-3.19472E-02-1.19188E-01 9.89474E-03-3.86991E-02
 -1       456 1.37910E-01 1.11205E-01-9.84432E-03-1.11462E-01 5.41241E-03 3.72366E-02
 -1       457 7.35268E-01 1.45866E-01-7.41171E-03-1.47252E-02-1.30362E-03-1.08575E-01
 -1       458 6.49387E-01 3.49968E-02-5.37966E-02-2.34518E-02-7.13211E-03-1.39274E-01
 -1       459 6.63411E-01 1.59000E-01 1.84537E-02 1.80011E-01-1.05681E-02-1.35066E-01
 -1       460 6.53269E-01 2.01399E-01 4.15898E-03 1.65794E-01-4.16579E-02-1.23185E-01
 -1       461 9.38739E-02 1.37334E-01 1.77036E-02 7.23049E-02-2.45994E-02-3.35388E-02
 -1       462 6.00669E-01 1.65819E-01-3.66339E-02-1.59910E-01 2.69576E-02-1.13719E-01
 -1       463 5.63302E-01 1.23130E-01-6.28236E-02-1.44397E-01 3.70852E-02-8.92190E-02
 -1       464 6.16461E-02 1.26093E-01-6.96157E-03-6.58093E-02 2.06584E-02-2.85937E-02
 -1       465-1.05183E-01-1.21050E-01 1.00110E-02-7.44078E-02-2.12311E-02-2.93562E-02
 -1       466-7.06552E-02-9.46792E-02 4.51631E-02-1.03734E-01 1.20737E-01 5.75871E-02
 -1       467-1.19893E-01-1.28188E-01-1.98449E-02-1.21235E-01 7.46830E-02 9.52914E-02
 -1       468-6.69595E-02-6.14662E-02 1.42911E-03-1.15952E-01-7.17000E-03 2.26192E-02
 -1       469-1.07682E-01-1.51687E-01-6.10668E-02-1.12260E-01-5.01203E-02-7.07610E-02
 -1       470-6.68219E-02-1.13149E-01-3.33362E-02-5.98797E-02 2.06634E-02 2.28996E-02
 -1       471-3.22583E-01-1.53915E-01 4.27133E-02-2.01470E-01-1.23531E-02-5.92181E-02
 -1       472-3.53844E-01-2.01930E-01 3.33029E-02-2.26890E-01-3.94551E-02-1.00237E-01
 -1       473-4.21459E-01-1.05356E-01-4.21330E-03-1.94192E-01-5.19703E-02-1.07320E-01
 -1       474-4.01303E-01-8.77767E-02-3.39137E-03-1.47511E-01-4.36140E-02-1.71503E-01
 -1       475-6.76899E-01-8.32074E-02 1.72520E-03 3.77901E-02 1.91963E-02-1.37807E-01
 -1       476-4.63487E-01-4.05017E-02 2.68009E-02 1.39970E-02-3.39558E-03-1.99710E-01
 -1       477-3.97003E-01-1.00656E-01 2.90449E-02-4.72196E-03 2.94449E-03-2.46952E-02
 -1       478-4.14336E-01-1.11014E-01-1.19635E-02 1.07304E-03-6.16053E-02-2.30700E-02
 -1       479-3.87744E-01-7.57794E-02 3.20807E-02-7.10455E-03-1.52909E-03 3.41423E-01
 -1       480-3.49763E-01 8.66194E-03 6.44199E-02-3.38481E-03 1.08028E-02 3.69243E-01
 -1       481-9.32930E-02-9.46776E-02 4.42463E-03 4.44055E-02-6.44979E-03 2.27760E-02
 -1       482-2.65196E-01-1.08984E-01 2.75275E-02-1.09705E-01 1.22330E-01 1.59976E-01
 -1       483-1.46898E-01-5.51655E-02 1.05845E-01-1.12332E-01 9.22118E-02 1.11674E-01
 -1       484-3.51740E-01-8.44310E-02 2.62280E-02-8.90134E-02 9.31064E-02 3.21573E-01
 -1       485-4.51229E-01-9.12990E-02 6.01140E-02-1.19733E-01 9.00869E-02 2.57139E-01
 -1       486-3.75218E-01-1.33220E-01 2.84494E-02-8.78214E-02-2.93894E-02-1.00050E-02
 -1       487-3.14679E-01-5.90340E-02 4.14863E-03-1.06438E-01 2.43481E-04-4.66519E-02
 -1       488-2.38615E-01-1.75434E-01 1.50471E-02-1.05211E-01-1.65059E-02 7.13093E-03
 -1       489-1.81679E-01-1.39203E-01-3.23010E-03-1.15281E-01-2.07866E-02-5.55903E-02
 -1       490-9.58779E-02-1.18260E-01 3.52123E-02 1.18026E-01-1.05216E-01 5.15671E-02
 -1       491-9.32178E-02-1.22023E-01 1.44310E-02 1.22567E-01-5.85103E-02 7.57096E-02
 -1       492-8.28648E-02-8.18622E-02 2.51431E-02 1.60839E-01 1.81554E-02-3.84777E-02
 -1       493-1.38367E-01-2.25046E-01-1.25866E-03 1.73905E-01 4.91320E-02-2.31927E-02
 -1       494 3.38871E-02 4.12611E-02 2.63116E-02 5.47769E-02-2.54721E-03-4.95818E-02
 -1       495-1.44559E-03-9.37817E-02-7.29785E-02 6.88893E-02 2.92093E-02-3.89916E-02
 -1       496-1.96679E-02-1.08918E-02-6.25237E-04 8.64478E-02-5.57523E-03 3.60304E-02
 -1       497-4.37884E-03-2.06296E-02 2.69709E-02 6.88821E-02 8.28792E-02 1.80627E-02
 -1       498-3.44888E-01-9.08485E-02 2.79659E-02 7.93958E-02 6.06380E-02-1.57772E-01
 -1       499-4.17853E-01-9.37693E-02-2.13638E-02 1.19680E-01 6.94902E-02-1.77983E-01
 -1       500-3.39107E-01-1.25003E-01 3.25296E-02 8.73356E-02 3.54630E-02-8.20886E-04
 -1       501-3.00510E-01-6.43521E-02 1.88504E-03 1.00851E-01-6.58386E-03-4.93747E-02
 -1       502-3.33795E-01-8.25821E-02 4.95494E-02 8.50834E-02-9.04661E-02 3.25119E-01
 -1       503-4.46846E-01-8.54425E-02 8.19767E-02 1.08339E-01-9.46682E-02 2.35381E-01
 -1       504-2.42646E-01-1.52950E-01 2.89078E-02 1.68594E-01 5.06417E-02-9.76531E-02
 -1       505-4.56577E-01-2.89359E-01-5.01317E-02 2.96969E-01 3.63262E-02-9.65711E-02
 -1       506-1.83669E-01-1.42188E-01 2.89664E-02 1.06270E-01 7.19198E-03-9.81061E-03
 -1       507-2.00134E-01-1.71777E-01-7.23730E-03 1.17756E-01 6.71549E-03-7.65085E-02
 -1       508-2.56312E-01-1.19503E-01 3.53953E-02 1.18479E-01-1.37340E-01 1.81505E-01
 -1       509-1.64624E-01-5.77277E-02 1.13283E-01 1.09628E-01-1.17504E-01 1.46768E-01
 -1       510-5.59209E-02-1.30200E-01-3.88899E-03 6.31302E-02 1.89338E-02-3.38872E-02
 -1       511 1.43917E-02-2.03548E-03 7.54828E-03 3.47362E-02 1.97378E-02 3.42930E-04
 -1       512 1.57937E-01 2.38425E-01 3.96347E-02 1.51239E-01-5.14370E-02-4.40035E-02
 -1       513 8.41400E-02 6.48767E-02-5.91659E-02 8.60868E-02 6.42486E-03-7.37449E-02
 -1       514 2.03386E-02 5.26971E-02-2.96723E-02 1.06151E-01 1.01392E-01 8.08261E-02
 -1       515 7.03964E-02 1.18639E-01 4.21065E-03 1.20970E-01 1.25878E-01 4.19467E-02
 -1       516-4.72879E-03-1.23571E-02-9.07082E-03-3.42257E-02-9.16684E-03-3.12028E-03
 -1       517-1.73510E-02-1.41664E-03-7.10707E-03-8.12972E-02-1.37899E-02 4.43668E-02
 -1       518 3.37709E-02 9.65698E-02 4.69025E-02-9.90325E-02 3.13010E-03-3.35940E-02
 -1       519 5.26666E-03-1.00623E-01-8.25851E-02-7.50483E-02-4.93929E-02-6.00199E-02
 -1       520 3.84416E-03 4.81360E-02 5.08342E-02-5.15381E-02-1.01353E-01 2.21862E-02
 -1       521 1.27646E-01 2.02173E-01 5.19261E-02-1.87874E-01 7.73627E-02-2.82863E-02
 -1       522 1.54790E-01 1.21782E-01 3.87276E-03-1.52689E-01 1.32985E-03-4.88725E-02
 -1       523 7.68486E-02 9.81006E-02-3.30241E-02-1.26855E-01-8.51306E-02 7.22951E-02
 -1       524 8.08570E-02 1.52727E-01-5.79192E-03-1.49153E-01-1.09475E-01 4.93211E-02
 -1       525-2.99068E-02 1.53858E-02-6.98479E-03-2.26421E-02 5.43037E-02-9.33660E-03
 -1       526-2.94758E-02-4.90114E-03-1.45405E-02 2.13166E-02-4.81350E-02 8.26950E-03
 -1       527 3.73636E-01 2.46608E-01 3.22177E-02 2.26346E-01-4.70376E-02-9.47443E-02
 -1       528 1.97410E-01 9.61360E-02-7.42911E-02 1.22257E-01-2.93039E-02-1.13693E-01
 -1       529 3.75766E-01 2.19884E-01 2.09876E-02-2.25633E-01 5.57324E-02-8.49583E-02
 -1       530 3.64057E-01 1.91128E-01-3.86693E-03-1.67220E-01 2.12804E-02-5.53787E-02
 -1       531 2.02618E-01 1.50067E-01-2.43021E-02 1.04191E-01-1.47109E-02-2.61639E-02
 -1       532 1.87050E-01 1.62202E-01-5.86629E-03 1.19429E-01-1.13813E-02 3.59998E-02
 -1       533 3.07448E-01 1.12668E-01-7.99151E-02 6.90295E-02 6.10138E-03-4.50463E-02
 -1       534 3.57760E-01 1.11766E-01 1.66944E-02 1.15037E-01-3.48716E-02 6.03493E-03
 -1       535 3.75298E-01 8.36879E-02-2.94587E-02 9.89905E-03 2.09705E-03 3.11549E-01
 -1       536 3.64269E-01-1.22692E-02-4.30239E-02 2.81033E-02 2.93311E-03 3.18057E-01
 -1       537 3.88255E-01 6.85489E-02-1.10049E-01-8.69346E-02-8.41494E-02 2.53609E-01
 -1       538 4.41381E-01 1.16439E-01 3.81526E-02-1.00022E-01-9.36908E-02 3.17495E-01
 -1       539 2.22333E-01 1.14764E-01-3.47695E-02-1.24864E-01-1.48644E-01 1.90464E-01
 -1       540 2.00091E-01 1.07651E-01 2.84922E-02-1.72430E-01-1.88336E-01 1.98583E-01
 -1       541 4.26112E-01 9.32973E-02-5.06552E-02-8.84585E-03-3.95174E-02-2.27302E-02
 -1       542 3.29000E-01 2.75016E-03-4.01271E-02-5.35417E-03 6.06857E-02-1.40168E-02
 -1       543 2.36025E-01 1.17685E-01-3.22649E-02 1.45235E-01 1.41080E-01 1.82574E-01
 -1       544 2.12107E-01 1.24283E-01 7.48183E-03 1.76839E-01 1.93941E-01 2.20318E-01
 -1       545 3.99033E-01 9.44967E-02-3.61779E-02 1.01031E-01 9.03430E-02 2.30969E-01
 -1       546 3.39317E-01 7.71147E-02-8.38735E-03 8.97310E-02 8.43596E-02 2.94611E-01
 -1       547-4.80715E-01-3.13735E-01-4.92837E-01-5.54363E-03 6.88626E-03 4.24839E-01
 -1       548-3.55414E-01-1.05623E-01-3.92002E-01-1.89048E-02 2.22778E-02 3.35478E-01
 -1       549-2.26939E-01-1.85911E-01-1.01615E-01-2.15358E-02-8.21171E-03 1.76537E-01
 -1       550-4.13619E-01-9.46524E-02 9.45327E-02 1.88897E-02 1.60612E-02 6.67447E-02
 -1       551-2.87761E-01-8.58908E-02 6.75631E-02-2.43779E-02 1.94753E-02-9.48382E-02
 -1       552-2.77604E-02-1.42454E-01-8.80328E-02 4.12016E-02 7.23606E-03-9.68881E-02
 -1       553-3.57444E-01-1.13280E+00-5.26551E-01 2.19143E-01 3.66062E-02-1.14017E-01
 -1       554-2.37221E-01-9.43156E-01-3.73539E-01-1.58916E-01-1.29902E-01-1.62491E-01
 -1       555-6.62004E-02-1.95165E-01-7.18116E-02-2.60799E-02-3.78679E-02-1.41173E-01
 -1       556-3.38977E-01-1.14371E-01 1.69668E-02 2.49093E-02-3.61735E-02-1.03975E-01
 -1       557-4.14973E-01-8.85009E-02 8.30802E-02-3.74798E-02-2.48839E-02 6.64336E-02
 -1       558-1.26842E-01-8.31908E-02-6.61394E-02-3.23353E-02 1.99883E-02 1.58902E-01
 -1       559-2.26373E-01-1.01353E-01 9.24392E-03 1.07699E-01-1.18773E-02-5.86633E-02
 -1       560-1.29700E-01-1.07900E-01 7.23191E-02-6.29532E-02 2.03655E-02-4.95293E-02
 -1       561-2.23709E-01-1.58690E-01 1.01960E-01-1.20243E-01-4.42553E-02-5.04357E-03
 -1       562-1.88594E-01-8.73305E-02 1.99928E-01 7.42067E-02-2.35482E-02-1.15522E-03
 -1       563-9.53186E-02-8.85036E-02 9.35567E-03 4.75869E-03-1.38975E-02-2.83796E-02
 -1       564-4.23932E-02-1.45694E-01-3.69338E-02-2.48893E-03 1.65900E-02-2.11303E-02
 -1       565-2.55436E-01-3.37407E-01-1.38461E-01 2.79559E-01 2.38321E-01-2.79397E-01
 -1       566-4.25826E-01-2.70033E-01-4.57655E-01-4.55880E-02 1.17936E-01 3.84672E-01
 -1       567-4.46029E-01-1.78728E-01-5.96989E-01-9.23058E-02 1.12068E-01 3.95491E-01
 -1       568-9.38610E-02-7.62002E-02 3.38391E-02-5.44744E-02 5.46619E-02 1.10703E-01
 -1       569-3.52319E-01-7.93735E-02 1.03535E-01-6.18625E-02 1.22663E-02 1.17546E-02
 -1       570-2.92609E-01-1.32216E-01-8.60444E-03-7.07324E-02-2.03483E-02-9.56052E-02
 -1       571-6.64500E-02-1.66977E-01-5.14429E-02 2.88361E-02 4.12013E-02-1.13146E-01
 -1       572-3.76781E-01-5.44059E-01-2.78754E-01 3.46877E-01 2.08237E-01-3.05370E-01
 -1       573-7.95298E-02-2.23354E-01-9.18282E-02 1.33425E-02-3.88866E-03-9.87079E-02
 -1       574-3.13646E-01-1.04962E-01 5.03551E-02-3.16559E-02-5.56898E-02-7.02284E-02
 -1       575-4.00641E-01-1.41454E-01 9.70215E-02-1.08736E-01 1.99741E-02 9.59356E-02
 -1       576-2.66679E-01-1.64162E-01-1.45133E-01-5.33233E-02 5.35909E-02 1.15629E-01
 -1       577-2.22904E-01-8.71625E-02 4.98113E-02 5.53877E-02-3.01265E-02-2.46201E-03
 -1       578-1.49395E-01-1.82922E-01-7.71410E-02-1.04656E-01-4.36478E-02-1.14667E-01
 -1       579-2.99901E-02-5.02022E-02 1.62989E-01-2.00676E-02-3.30211E-03 3.22856E-02
 -1       580-1.19555E-01-4.40296E-02 1.53706E-01 2.77634E-02 3.32545E-02-3.81303E-02
 -1       581-1.37718E-01-1.31765E-01 1.80600E-02-2.02409E-03-8.36153E-03-3.49094E-02
 -1       582-2.69556E-01-1.59612E-01-1.11188E-02 5.23053E-03 2.77636E-03-7.60430E-02
 -1       583-4.83696E-01 1.46738E-02-1.94111E-02 8.87136E-02 2.15786E-01-4.87310E-01
 -1       584-1.19085E-01-7.34248E-02-1.34157E-01-3.88205E-02 1.48626E-01 2.41963E-01
 -1       585-3.69927E-01-3.32212E-01-5.55008E-01-3.47602E-02 1.74002E-01 3.33422E-01
 -1       586-1.56554E-01-8.67676E-02-2.28358E-02-2.74898E-02 1.12313E-01 5.73337E-02
 -1       587-2.60502E-01-1.37355E-01 4.53845E-02-1.11141E-01 3.53922E-02 4.05185E-02
 -1       588-1.59807E-01-1.32809E-01 1.42106E-02-6.99397E-02-3.85164E-02-7.96164E-02
 -1       589-9.75891E-03-1.12319E-01-8.05459E-02 3.90331E-02 7.69874E-03-1.05174E-01
 -1       590-9.14282E-01-2.79655E-01-3.10974E-01 2.36624E-01 2.59306E-01-5.53246E-01
 -1       591-1.90150E-01-9.48271E-02 7.97135E-02-6.71789E-02-3.22180E-02-2.46899E-03
 -1       592-4.29815E-02-1.46415E-01-1.68926E-02 5.14380E-02-1.41033E-02-6.08069E-02
 -1       593-1.91923E-01-1.41967E-01 5.91053E-02-9.19583E-02 5.64491E-02 9.21275E-02
 -1       594-3.37127E-02-2.21506E-02-3.77060E-02 1.67892E-02 6.79092E-02-2.66013E-02
 -1       595-1.36673E-01-2.58488E-02 7.48327E-02 3.72049E-03-1.27118E-02 2.97116E-02
 -1       596-1.00770E-01-1.53887E-01-6.67006E-02-3.71533E-02-5.17944E-02-1.00059E-01
 -1       597-3.86705E-02-6.59134E-02 2.48637E-02-3.02566E-02 3.96001E-02 7.26837E-02
 -1       598-1.81743E-01-4.28428E-02 1.20423E-01-2.98563E-02-1.16779E-02-1.08248E-02
 -1       599-1.53637E-01-1.44601E-01-6.80597E-02 1.58150E-02-3.04982E-04-2.69968E-02
 -1       600-8.96025E-02-5.74693E-02-3.87122E-03-1.90070E-02 4.37526E-04-4.25434E-02
 -1       601-2.13681E-01-1.98226E-02-7.03862E-02-1.92614E-02 1.26149E-01-6.33468E-01
 -1       602-1.63242E-01-1.42448E-01-2.04321E-01-2.97854E-02 1.10986E-01 1.62571E-01
 -1       603-1.33952E-02 9.19150E-03 6.17106E-03-1.10096E-02 3.06995E-02 1.19648E-01
 -1       604 1.91724E-02-1.57950E-02 3.78627E-02-6.64452E-03 9.00333E-02-5.48373E-02
 -1       605-1.12290E-01-1.02334E-01 6.43597E-02-9.25393E-02 6.75782E-03 1.10816E-02
 -1       606-8.57268E-02-8.48790E-02-2.38395E-02-4.80434E-02-6.99731E-02-8.36041E-02
 -1       607-1.94767E-02-6.14205E-02-6.78078E-03 3.27444E-02 1.22140E-02-1.53076E-01
 -1       608-2.45445E-01-4.74572E-02-1.16464E-01-2.25806E-02 7.71779E-02-5.90750E-01
 -1       609-9.70321E-02-7.41503E-02 3.15325E-02-6.45743E-02-1.94423E-03-7.89433E-03
 -1       610-7.06117E-03-6.36544E-02-2.62025E-03 6.94303E-02 6.03452E-02-1.29466E-01
 -1       611-8.45321E-02-1.03693E-01 2.64375E-02-7.79729E-02 2.36739E-02 2.64295E-02
 -1       612-6.82398E-02-4.33064E-02-5.60275E-02 1.04032E-02 3.84963E-02-7.19175E-02
 -1       613-6.89762E-02 1.81768E-02 1.17244E-01-2.24820E-02 5.18104E-02 1.12724E-02
 -1       614-8.76110E-02-1.29593E-01-1.81360E-01-1.97536E-02-1.22025E-01-7.50240E-02
 -1       615-7.80175E-02-1.02793E-01-9.42684E-02 4.15105E-03 4.19159E-02 8.60675E-02
 -1       616-9.30365E-02-1.79054E-02 1.65100E-01-6.55425E-02-7.42697E-02-1.78974E-02
 -1       617-9.54604E-02-2.12283E-02-9.17578E-03 2.60029E-03 6.87183E-03-2.13975E-02
 -1       618-7.16893E-02-2.42520E-02 3.58602E-02-3.58020E-02-2.09370E-02-3.35492E-02
 -1       619 2.15466E-01-5.54297E-02 1.06208E-01-9.25712E-02-7.77211E-02-5.99049E-01
 -1       620-8.25951E-02-9.60076E-02-1.24096E-01-7.70537E-02 2.55343E-02 1.15235E-01
 -1       621 3.54779E-02 5.90699E-02 1.17098E-01-7.36737E-02-5.98573E-02 1.70770E-01
 -1       622 1.15517E-02 2.85454E-02 5.68500E-02-1.78083E-02 6.76920E-03-7.00041E-02
 -1       623-1.76075E-02-1.48737E-02-8.76920E-03-6.87490E-02-1.75081E-02 4.28785E-03
 -1       624 5.25416E-03 9.30001E-03-1.79203E-02-4.10295E-02-1.89880E-02-2.02420E-02
 -1       625 4.59086E-03-3.36358E-02-7.12623E-03 3.83968E-02-2.25480E-02-1.09206E-01
 -1       626 2.03236E-01-6.19120E-02 7.30115E-02-6.16198E-02-1.21014E-01-5.54543E-01
 -1       627-1.94896E-03 1.88196E-02 3.14496E-02-2.79588E-02 5.52119E-02-1.50146E-02
 -1       628 3.71648E-02 5.67822E-02 1.13826E-01 1.07147E-01 1.58969E-02-1.30648E-01
 -1       629-1.98801E-02 5.45247E-03-2.84439E-02-6.38758E-02 5.74111E-02 4.63020E-03
 -1       630-1.10402E-02-8.70500E-03-8.26587E-02 1.60580E-02 8.90916E-03-8.69398E-02
 -1       631 3.06685E-02 6.57694E-02 1.19049E-01-8.69675E-03 6.50315E-02-1.64992E-02
 -1       632-3.45333E-02-6.09818E-02-1.61906E-01-2.10416E-02-7.79362E-02-4.11420E-02
 -1       633 1.33837E-02-2.39997E-02-8.95430E-02-4.66329E-02 7.30826E-02 1.40139E-02
 -1       634 7.10888E-02 4.53023E-02 1.22624E-01-2.52783E-02-7.61420E-02 3.27346E-02
 -1       635 2.81518E-02 3.27711E-02 7.03456E-03-1.07997E-02-1.04904E-03-3.79674E-02
 -1       636 3.11713E-02 1.91617E-03 3.08614E-02-1.44788E-02-1.05617E-02-5.85452E-02
 -1       637 4.68261E-01 1.77701E-01 1.61546E-01 2.49137E-01-3.34374E-01-4.99437E-01
 -1       638 1.51596E-01 8.51251E-02 1.40355E-01-4.70223E-02-6.13860E-02 2.18888E-01
 -1       639 1.91721E-01 1.81029E-01 2.26289E-01-6.38163E-02-1.43605E-01 1.71822E-01
 -1       640 7.80762E-02 7.86568E-02 1.35712E-02-3.79331E-02-8.16609E-02-5.04001E-02
 -1       641 3.81360E-02 8.68871E-02-4.76377E-02-6.81621E-02-3.03157E-02 1.96160E-02
 -1       642 6.57221E-02 5.73767E-02-6.43537E-02-4.91993E-02-9.09443E-03-4.63856E-03
 -1       643 4.38860E-02 7.89210E-02 3.21422E-02 3.70735E-02-3.91654E-02-1.59552E-01
 -1       644 4.78408E-01 1.84636E-01 1.94249E-01 2.28948E-01-2.55067E-01-4.42197E-01
 -1       645 7.35700E-02 1.31691E-01 6.35614E-02-4.59966E-02 7.12992E-02-7.78094E-02
 -1       646 4.21378E-02 8.14874E-02-6.49303E-03 5.68918E-02-1.00330E-02-1.60560E-01
 -1       647 7.83430E-02 9.94050E-02-4.40689E-02-8.63308E-02-3.91689E-03 1.43538E-02
 -1       648-4.04308E-02-6.91559E-02-9.35928E-02-6.05449E-02-6.91302E-02-4.85346E-02
 -1       649 6.62813E-02 1.80217E-01 1.38712E-01-1.85442E-02 1.10911E-01-4.49930E-02
 -1       650-4.36070E-02-9.98426E-02-2.17340E-01 1.74747E-02-5.67537E-02 2.59983E-02
 -1       651 3.92392E-02-6.14403E-03-1.52877E-01-5.16631E-02 5.56702E-02-1.92328E-02
 -1       652 5.46531E-02 8.21435E-02 2.33350E-02 6.86821E-03-3.41450E-02 3.36449E-02
 -1       653 4.12067E-02 3.64879E-02 2.41965E-03-1.98478E-02 7.65866E-03-3.51551E-02
 -1       654 5.25961E-02 2.29656E-02-4.32974E-02 9.43300E-04-3.41303E-02-1.01534E-02
 -1       655 3.46183E-01 5.50766E-01 3.30469E-01 3.35866E-01-2.83566E-01-2.98421E-01
 -1       656 2.87816E-01 2.11376E-01 3.51668E-01-7.81851E-02-1.83684E-01 2.65577E-01
 -1       657 2.47595E-01 1.88449E-01 4.73549E-01-1.21806E-01-2.04961E-01 2.76273E-01
 -1       658 1.48060E-01 8.53891E-02 4.38408E-02-4.89076E-02-9.47963E-02 6.36454E-02
 -1       659 2.16652E-01 1.74153E-01-4.94416E-02-1.26197E-01-1.90089E-02 4.19351E-02
 -1       660 1.63553E-01 9.04786E-02-3.79150E-02-8.32264E-02 3.89641E-02-5.80220E-02
 -1       661-3.32884E-02 7.58897E-02 5.33439E-03 4.81622E-02-1.85546E-02-9.23830E-02
 -1       662 3.85494E-01 6.63735E-01 4.16985E-01 4.15411E-01-2.55599E-01-3.13517E-01
 -1       663 9.44566E-02 9.91594E-02-1.56398E-02-6.45498E-02 3.52494E-02-1.14678E-01
 -1       664-2.22800E-02 9.32645E-02 7.46132E-02 5.45626E-02-2.02980E-02-1.31940E-01
 -1       665 2.22575E-01 1.20182E-01-1.22651E-01-1.16833E-01-8.35018E-05-1.41520E-02
 -1       666 2.47373E-02 4.89463E-02-4.74636E-03 2.00574E-02-6.73710E-02 3.90222E-02
 -1       667 9.93030E-02 1.56464E-01 7.99733E-02-2.27542E-02 3.59950E-02-8.90345E-02
 -1       668 1.21761E-01 1.93527E-02-7.72037E-02-2.67362E-03 8.98543E-03 6.56548E-03
 -1       669 1.09512E-01-6.42132E-02-2.44938E-01-3.10624E-02 5.91164E-02-2.13832E-02
 -1       670 1.01405E-01 2.03992E-01 9.14667E-03-1.44061E-02-2.93182E-04 7.64800E-02
 -1       671 6.31047E-02 4.87286E-02-4.27853E-02-1.18359E-03-8.78298E-03-4.47542E-02
 -1       672 1.03154E-01 9.41590E-02 6.96859E-02-7.15345E-03-1.45874E-02-3.03714E-02
 -1       673 1.42027E-01 8.81375E-01 4.25750E-01 8.21926E-02-8.77996E-02-6.47188E-02
 -1       674 2.99549E-01 1.98287E-01 2.88443E-01-3.81624E-02-1.36000E-01 3.60149E-01
 -1       675 4.04076E-01 3.72730E-01 5.95285E-01-3.14583E-02-1.24478E-01 3.89479E-01
 -1       676 2.22871E-01 8.84456E-02-1.98818E-02-4.08038E-02-5.72099E-02 1.38248E-01
 -1       677 3.74827E-01 1.69843E-01-3.26001E-02-1.21987E-01 2.81842E-03 1.14613E-01
 -1       678 3.12259E-01 8.91123E-02-4.24878E-03-3.63368E-02 5.80058E-02-7.44149E-02
 -1       679-1.12902E-01 1.30748E-01 2.36696E-02 1.32706E-02-2.45907E-04-5.08734E-02
 -1       680 6.90918E-02 1.06389E+00 4.67775E-01 1.17962E-01-8.26890E-02-1.20226E-01
 -1       681 2.57701E-03 1.11190E-01 8.52245E-02 2.80318E-02-3.10216E-02-9.28877E-02
 -1       682 2.50599E-01 9.65681E-02-4.61292E-02-6.45551E-02 9.82756E-03-7.96713E-02
 -1       683 3.21748E-01 9.29828E-02-1.13662E-01-6.01246E-02-6.31438E-03 1.88458E-02
 -1       684-5.02435E-02-6.12397E-03-6.89329E-02-3.47196E-03-4.78772E-02 7.92267E-02
 -1       685 9.29092E-02 1.29165E-01 5.39154E-03-4.72286E-02-7.60768E-03-9.35466E-02
 -1       686 2.27817E-01 6.78190E-02-1.52246E-02 5.41880E-02 2.17318E-02-6.37385E-03
 -1       687-4.28520E-03-5.75151E-02-3.06828E-01 2.26313E-02 1.28987E-02-4.31746E-02
 -1       688 2.23596E-01 3.02545E-01 7.35433E-02-7.89794E-02 7.74250E-02 1.14812E-01
 -1       689 3.03250E-01 2.55574E-01 1.38093E-01 6.02317E-02-2.35526E-02-7.05491E-02
 -1       690 1.31512E-01 1.50496E-01 3.12464E-02 5.14988E-03 8.80364E-03-3.84522E-02
 -1       691 2.36491E-01 8.05213E-01 2.89677E-01-2.25123E-01 4.69956E-02-5.17350E-02
 -1       692 2.74767E-01 1.41813E-01 3.00950E-01 1.48174E-03-2.30953E-03 3.35961E-01
 -1       693 4.25834E-01 3.33859E-01 5.90516E-01-1.10004E-02 1.12335E-02 4.04446E-01
 -1       694 3.58010E-02 1.69056E-02-7.31080E-02-1.22507E-02-1.64091E-02 1.83008E-01
 -1       695 4.19029E-01 9.81225E-02-6.26688E-02-1.94611E-02 9.87070E-03 1.04223E-01
 -1       696 3.55188E-01 9.17466E-02-2.69025E-02 1.83730E-02 8.07632E-03-1.08615E-01
 -1       697 6.56031E-02 2.31004E-01 8.30310E-02 2.17311E-02-1.89291E-03-1.03377E-01
 -1       698 4.38648E-01 1.37248E+00 5.69581E-01-3.16170E-01 3.97400E-02-1.10454E-01
 -1       699-1.64417E-01 4.38821E-02 4.53264E-02 2.26113E-02 2.61748E-03-5.81952E-02
 -1       700 2.40512E-01 1.06256E-01-7.83038E-02-3.00468E-02-4.72468E-02-9.70607E-02
 -1       701 3.72170E-01 7.45358E-02-1.55156E-01 2.90163E-02-3.67502E-02 8.39862E-02
 -1       702-4.61660E-02-1.62370E-02 4.88087E-02 1.64045E-02-2.70653E-03 9.26859E-02
 -1       703 1.85777E-01 9.19994E-02-1.15484E-01-9.99396E-02 1.12429E-03-5.09099E-02
 -1       704 1.43512E-01 1.13000E-01-2.94004E-03 7.45222E-02 8.40833E-03-6.17281E-02
 -1       705 2.26078E-01 1.43960E-01-1.69810E-01 8.65541E-02 5.67257E-03 1.89984E-02
 -1       706 1.89882E-01 1.65980E-01-1.61477E-02-2.20506E-02 2.57357E-02 5.75186E-02
 -1       707-3.27828E-02 7.28816E-02-1.88107E-02 3.55966E-03-4.57673E-03-2.61667E-02
 -1       708-8.38910E-02 3.13240E-02-2.56350E-02-7.68977E-03 7.22803E-03-2.20046E-02
 -1       709 4.26282E-01 4.88125E-01 2.29151E-01-3.29915E-01 2.21256E-01-2.71741E-01
 -1       710 4.52623E-01 4.05734E-01 6.07960E-01 3.25539E-02 1.13675E-01 3.84751E-01
 -1       711 2.36807E-01 1.84177E-01 2.62445E-01 3.10910E-02 1.19231E-01 3.52783E-01
 -1       712 1.73696E-01 1.12054E-01 4.32426E-02 3.05636E-02 3.61071E-02 1.02004E-01
 -1       713 2.96257E-01 7.71066E-02-1.09343E-01 5.29276E-02 1.64489E-02 2.96259E-02
 -1       714 2.62614E-01 1.01920E-01-4.94234E-02 7.47197E-02-6.47222E-03-8.46555E-02
 -1       715 2.59047E-01 2.80055E-01 1.79337E-01-7.29387E-02 2.63267E-02-1.29460E-01
 -1       716 6.69657E-01 8.85173E-01 5.16330E-01-4.45142E-01 2.32498E-01-2.97603E-01
 -1       717-2.12496E-02 8.68356E-02 4.66683E-02-1.62607E-02-1.40770E-02-1.10425E-01
 -1       718 3.53679E-01 1.20178E-01-9.68717E-03 5.98272E-02-5.02633E-02-8.45036E-02
 -1       719 4.38696E-01 1.65509E-01 5.24260E-03 1.36256E-01 1.09435E-02 1.37984E-01
 -1       720 1.07117E-01 1.23180E-01 1.06414E-01 7.29038E-02 6.10972E-02 1.30084E-01
 -1       721 2.47069E-01 2.64767E-02-6.23767E-02-3.88354E-02-1.71550E-02-1.30884E-02
 -1       722 1.39286E-01 1.74185E-01 1.92949E-03 6.27042E-02-4.75007E-03-1.04092E-01
 -1       723 2.34386E-01 2.12517E-01-7.79703E-03 1.54267E-01 6.76960E-03 7.75490E-02
 -1       724 2.38890E-01 5.47679E-02-2.09224E-01-4.47098E-02-2.59310E-02-1.49081E-02
 -1       725 1.49707E-01 1.58157E-01 3.86744E-03-2.26196E-03 1.88956E-03-2.30183E-02
 -1       726 1.30548E-01 1.25111E-01 4.09043E-02-4.97257E-02 7.05500E-03-4.25213E-02
 -1       727 5.11814E-01 1.12527E-01 2.88237E-01-1.78752E-01 2.51803E-01-5.15582E-01
 -1       728 2.51090E-01 1.92266E-01 3.33017E-01 5.91492E-02 1.52326E-01 2.56498E-01
 -1       729 1.34902E-01 9.95323E-02 1.93094E-01 7.08748E-02 1.31675E-01 2.09428E-01
 -1       730 2.37169E-01 1.16541E-01-8.05539E-02 1.18786E-01 3.45120E-02 2.83465E-02
 -1       731 8.13740E-02 6.71364E-02-3.28174E-03 2.59855E-02 1.05641E-01 1.26772E-02
 -1       732 7.36200E-01 2.89213E-01 5.78607E-01-3.04981E-01 2.87172E-01-5.51402E-01
 -1       733 1.36718E-01 1.08624E-01-3.65932E-02 7.46787E-02-4.80385E-02-8.11862E-02
 -1       734 2.33304E-04 1.13881E-01 6.92251E-02-6.64279E-02 1.82977E-02-1.22840E-01
 -1       735-1.30648E-01 9.74257E-03-4.86934E-02-4.82058E-02 7.58353E-04-9.94249E-02
 -1       736 1.80342E-01 1.02809E-01-4.21611E-02 8.59126E-02-2.92085E-02-6.12317E-03
 -1       737 1.43595E-01 1.51225E-01-4.52176E-02 8.19749E-02 3.42508E-02 8.49738E-02
 -1       738 1.36871E-01 9.13772E-02-4.80982E-03 6.53014E-02 1.08845E-01 3.81757E-02
 -1       739 1.44316E-01-8.23543E-03-9.90261E-02 1.78704E-02 2.34768E-03 5.48755E-03
 -1       740 7.93673E-02 1.42578E-01 1.40825E-02 3.03464E-02-5.52751E-02-8.00279E-02
 -1       741 1.09669E-01 2.11765E-01 1.36907E-02 1.54037E-02 6.97850E-03 6.95821E-02
 -1       742 5.74631E-02-4.10275E-02-1.93495E-01 1.15177E-02-2.89183E-02-3.35412E-02
 -1       743 1.12310E-01 7.11381E-02 1.27187E-02 3.10079E-03-2.30254E-03-4.37757E-02
 -1       744-1.48550E-02-5.27280E-03-3.24725E-02-3.14065E-02 2.25257E-02-6.64166E-02
 -1       745 1.40428E-01-8.20042E-02-1.09362E-01 5.15177E-02 1.31444E-01-6.25305E-01
 -1       746 1.48621E-01 1.20840E-01 2.00224E-01 8.47521E-02 1.04903E-01 1.72897E-01
 -1       747 1.33626E-01 2.56030E-02 1.40341E-01 6.82052E-02 5.09377E-02 2.17048E-01
 -1       748 1.20444E-01 1.23356E-01-2.57121E-02 1.00298E-01 3.77583E-03 1.74313E-02
 -1       749-9.19791E-04-2.45830E-02-8.07522E-02 1.50821E-02 8.93789E-02-2.62156E-04
 -1       750 1.37886E-01-7.31969E-02-1.93132E-01 7.86796E-02 9.88993E-02-6.59108E-01
 -1       751 9.68996E-02 1.22478E-01 5.75476E-02 6.54516E-02-6.35131E-02-8.46670E-02
 -1       752 2.50573E-02 3.65709E-02 4.56647E-02-6.08106E-02 5.81818E-03-1.56451E-01
 -1       753-1.00025E-02 3.12945E-02-4.82331E-03-5.02426E-02 4.91469E-02-1.24931E-01
 -1       754 9.21245E-02 6.59721E-02-4.14893E-02 6.02029E-02 2.63662E-04-1.11650E-02
 -1       755 7.74577E-02 7.41357E-02-2.56048E-02 6.97327E-02 2.39608E-02 2.57343E-02
 -1       756-5.30118E-02 3.05344E-03-1.57742E-03-1.35074E-02 9.45862E-02-4.38261E-02
 -1       757 5.95505E-02-9.44401E-03-1.46053E-01 2.33964E-02 6.12206E-02 2.05352E-02
 -1       758 5.66052E-02 1.14302E-01 1.09955E-01 2.58846E-02-8.36143E-02-6.16131E-02
 -1       759 1.07044E-01 7.75500E-02 4.18477E-02 1.97276E-02 5.58694E-02 4.84769E-02
 -1       760 5.90825E-02-4.09585E-02-1.66594E-01 7.61691E-02-8.70368E-02-1.79346E-02
 -1       761 1.91864E-01 9.10356E-02 8.48398E-02-1.03423E-03 2.19494E-02-4.02449E-02
 -1       762 4.78704E-02 1.84275E-02-2.68492E-02 3.37980E-02 3.01636E-04-2.56123E-02
 -1       763-2.10265E-01-5.33957E-04-1.70796E-01 4.04160E-03-9.72125E-02-6.84299E-01
 -1       764 2.74935E-02 4.62425E-02 5.60095E-02 4.54293E-02 4.53484E-03 9.64311E-02
 -1       765-1.11239E-01-1.11944E-01-1.57459E-01 5.08817E-02-4.20813E-02 1.46020E-01
 -1       766 8.15526E-03 3.94746E-03 1.05963E-02 6.55521E-02-6.83401E-03 1.51138E-02
 -1       767 5.05163E-02 4.40167E-02 2.14942E-02-1.42931E-03-1.77087E-02-9.18749E-02
 -1       768-1.83990E-01-1.08914E-02-1.37593E-01 9.31491E-03-7.31660E-02-5.54421E-01
 -1       769-1.53425E-02-5.05593E-03 2.87525E-03 4.09763E-02-7.38568E-03-2.07189E-02
 -1       770 5.76993E-02 3.86031E-02 6.58400E-02-6.78028E-02-3.05499E-03-1.37870E-01
 -1       771-6.63768E-02-6.47969E-02-8.47787E-02-8.91546E-02 3.64984E-03-1.33292E-01
 -1       772-9.24866E-03-2.02579E-02-5.30308E-02 3.30912E-02 6.09064E-02-2.87362E-02
 -1       773 2.80711E-02 2.34953E-02 7.83560E-02 3.99063E-02 6.43546E-02 2.75183E-02
 -1       774 9.63713E-03 9.37878E-03 9.14923E-02-8.28878E-03 1.03596E-02-6.35486E-02
 -1       775-2.55800E-02-6.46893E-02-1.20471E-01 2.02634E-02 7.31655E-02-2.77380E-02
 -1       776 2.01035E-02 4.64268E-02 1.25040E-01 1.11026E-02-7.10923E-02-2.70237E-02
 -1       777-1.43870E-02 1.51377E-02 1.04794E-01 3.53064E-02 7.26109E-02 1.38415E-03
 -1       778-6.91178E-02-2.29566E-02-1.27829E-01 4.53302E-03-5.90782E-02 5.39389E-02
 -1       779 2.00212E-02 3.77179E-03 1.66881E-02 2.79889E-02-7.24135E-04-3.82232E-02
 -1       780-9.32707E-02-2.75396E-02-8.14870E-02-4.71008E-03 7.63752E-03-6.02839E-02
 -1       781-4.24466E-01-1.20838E-01-1.72505E-01-1.40587E-01-2.63324E-01-4.95697E-01
 -1       782-2.38092E-01-1.27926E-01-1.52094E-01 9.45489E-02-7.09500E-02 2.39817E-01
 -1       783-2.40441E-01-1.87383E-01-2.21908E-01 8.43733E-02-1.43924E-01 1.79153E-01
 -1       784-7.11407E-02-9.81366E-02 2.80658E-02 5.00247E-02-2.39233E-02 2.02261E-02
 -1       785-4.93597E-02-6.15523E-02-3.46373E-02-6.62895E-03-8.01329E-02-7.61290E-02
 -1       786-5.94245E-01-2.52797E-01-2.88321E-01-2.31485E-01-2.69449E-01-4.99289E-01
 -1       787-7.29111E-02-6.47381E-02 4.31135E-02 4.20771E-02-3.39565E-03-9.67774E-03
 -1       788 3.40398E-02-2.26272E-02 2.11080E-02-9.25620E-02-4.46146E-02-1.03784E-01
 -1       789-5.01837E-02-8.38789E-02-5.98826E-02-3.37131E-02 1.91481E-02-1.17095E-01
 -1       790-5.93881E-02-1.06303E-01-4.11038E-02 5.19857E-02 5.99475E-02-8.35256E-02
 -1       791-1.04837E-01-1.23036E-01 3.70124E-02 1.15716E-01-1.11757E-02-3.50416E-03
 -1       792-1.33108E-01-1.25949E-01 3.93155E-02 3.56029E-02-7.71107E-02-2.52047E-02
 -1       793-6.08715E-02-1.25506E-01-1.27311E-01 1.70546E-02 8.18732E-02-7.61780E-02
 -1       794-4.27902E-02 5.32010E-02 1.68519E-01 3.80760E-02-6.73407E-02 2.24422E-02
 -1       795-6.62148E-02 1.63127E-02 1.28394E-01 4.96642E-02 6.93990E-02-3.64022E-02
 -1       796-8.37855E-02-9.38217E-02-8.36725E-03-1.34637E-03-4.54616E-02 3.40806E-02
 -1       797-1.39941E-02-1.37935E-02-1.16654E-02 8.02390E-03 7.11120E-03-3.27040E-02
 -1       798-5.69080E-02 3.22624E-03-3.11247E-02-3.48779E-02-1.92297E-02-2.68675E-02
 -1       799-5.06819E-01-5.83438E-01-3.33999E-01-3.76374E-01-2.78875E-01-2.76574E-01
 -1       800-2.51400E-01-1.83316E-01-3.28228E-01 6.66076E-02-1.72778E-01 2.77969E-01
 -1       801-2.80858E-01-1.77643E-01-3.90496E-01 4.65040E-02-1.45628E-01 3.21943E-01
 -1       802-2.10443E-01-1.46302E-01 7.87757E-02 1.25182E-01-3.72337E-02 4.92642E-02
 -1       803-8.06070E-02-7.48079E-02-9.26466E-02 5.31582E-03-9.56440E-02 9.21389E-04
 -1       804-7.17269E-01-8.76647E-01-5.65232E-01-5.18858E-01-2.84103E-01-3.22714E-01
 -1       805-2.21786E-01-1.14432E-01 3.79848E-02 9.16822E-02 3.33264E-02-4.21540E-02
 -1       806-4.52481E-02-2.35861E-01-4.16302E-02-6.69334E-02-4.59728E-02-6.62869E-02
 -1       807-8.29748E-02-1.35764E-01-8.57576E-02-5.46242E-02-1.28825E-02-8.73291E-02
 -1       808-1.68320E-01-1.70434E-01-3.78918E-02 7.85357E-02 4.53812E-02-1.18617E-01
 -1       809-2.19571E-01-1.16196E-01 3.86421E-02 1.05958E-01-1.76785E-02-1.58750E-02
 -1       810 8.12896E-03-3.13569E-02-9.09361E-04 1.01092E-03-9.09202E-02 2.32837E-02
 -1       811-1.15911E-01-2.52689E-01-9.66964E-02 7.73103E-02 6.94059E-02-8.78588E-02
 -1       812-1.82912E-01-2.73251E-02 9.96505E-02 8.85220E-03-7.34989E-03 2.76050E-03
 -1       813-1.33907E-01 1.88946E-02 1.82793E-01 3.11265E-02 6.10906E-02-2.44777E-02
 -1       814-8.06110E-02-1.83102E-01 1.96315E-02 3.42305E-03-2.80704E-02 5.88036E-02
 -1       815-6.22342E-02-2.58234E-02-1.30941E-02-1.28892E-02-1.39785E-03-3.75082E-02
 -1       816-1.06198E-01-9.39683E-02-2.04122E-02-3.48331E-02 3.94043E-03-3.33315E-02
 -1       817-4.98108E-01-1.68760E-01-6.61561E-01 9.34987E-02-1.22917E-01 4.37398E-01
 -1       818-4.73808E-01-2.47915E-01-4.68218E-01 6.05609E-02-1.23348E-01 4.19522E-01
 -1       819-3.22188E-01-2.19894E-01-2.61303E-01 1.74813E-02-5.65692E-02 1.11078E-01
 -1       820-3.58798E-01-1.44031E-01 8.48246E-02 1.17609E-01-4.38917E-03 8.60123E-02
 -1       821-3.04271E-01-8.68896E-02 8.08714E-02 4.78199E-02 4.77513E-02-7.56362E-02
 -1       822 7.00260E-02-7.80213E-02-2.55825E-02 2.76566E-03 4.38691E-03-1.02633E-01
 -1       823-1.87005E-02-9.95419E-02-2.46939E-02-4.56335E-03-5.64946E-03-1.37612E-01
 -1       824-2.80937E-01-1.39652E-01-3.44400E-03 6.57835E-02 1.07797E-02-8.86622E-02
 -1       825-3.51366E-01-9.71972E-02 5.59629E-02 7.35935E-02-1.55498E-02 2.74096E-02
 -1       826-1.85186E-01-1.38235E-01-4.10653E-02 5.34478E-03-5.06160E-02 1.42659E-01
 -1       827-1.76122E-01-1.86904E-01-3.60729E-02 1.09256E-01 4.62799E-02-1.05375E-01
 -1       828-1.68290E-01-3.45422E-02 1.28261E-01-3.88790E-02 1.49909E-02 3.08600E-02
 -1       829-2.18289E-01-4.55125E-02 1.07181E-01-4.49542E-02-5.14118E-03-1.95778E-02
 -1       830-1.46477E-01-2.08410E-01 1.29498E-01 7.74063E-02-2.51264E-02 6.62027E-03
 -1       831-1.54678E-01-1.30104E-01-3.00623E-02-2.05690E-02 6.39061E-03-3.09299E-02
 -1       832-2.44671E-02-6.24424E-02 5.63862E-03-4.70139E-03 7.54431E-03-2.48297E-02
 -1       833 2.09056E-01 1.16351E-01 1.36062E-01-9.91407E-02 9.33680E-02 9.01589E-01
 -1       834-3.72760E-01-2.94111E-01-2.58851E-01-1.92101E-01 9.16075E-02 8.63497E-01
 -1       835-5.51576E-01-4.08774E-01-4.62493E-01 1.85537E-02-1.04354E-01 8.04827E-01
 -1       836-1.41343E+00-9.45655E-01-9.43633E-01 3.33993E-02-1.00795E-01 1.02346E+00
 -1       837 1.96566E-01 1.33558E-01 1.21261E-01-4.69999E-02 1.20145E-01 1.87528E-02
 -1       838 2.47142E-01 1.18391E-01 1.28485E-01-4.86273E-02 1.07679E-01 2.32940E-02
 -1       839-3.58084E-02-2.86443E-02-3.68789E-02 1.71292E-02 9.62175E-02 4.10893E-03
 -1       840-4.44409E-03 2.05603E-02 6.41643E-03 7.53594E-03 9.91651E-02-2.67078E-02
 -1       841 4.02649E-01-1.59642E-01 8.52597E-02 1.84943E-02 4.45736E-01 5.76657E-01
 -1       842 5.37040E-03-8.25300E-01-3.47772E-01-9.12046E-02 3.98398E-01 5.37367E-01
 -1       843-7.73529E-01-9.06810E-01-6.72135E-01 1.64094E-01-5.77339E-01 4.47778E-01
 -1       844 1.26263E-01 1.07164E-01 5.09864E-02-4.52668E-02-3.74591E-01 2.91776E-01
 -1       845 7.89879E-02 1.14917E-01 1.08174E-01 7.72633E-03-2.15851E-01 1.07573E-01
 -1       846 2.65012E-01 4.42976E-01 2.83195E-01 5.73559E-03-2.79069E-01 8.46559E-02
 -1       847-4.45477E-01-4.46511E-01-3.98891E-01 7.85808E-02-4.23103E-01 3.67546E-01
 -1       848-1.04711E+00-1.13092E+00-8.71213E-01 2.13735E-01-5.42615E-01 4.45303E-01
 -1       849 4.11294E-01 3.00994E-01 3.51301E-01 9.37440E-03-1.00040E-01 8.51002E-01
 -1       850-1.51314E+00-1.08267E+00-1.03833E+00 1.45112E-01-2.75757E-01 9.09035E-01
 -1       851-1.48529E+00-1.06579E+00-1.02043E+00-1.45269E-01 2.91207E-01 9.59968E-01
 -1       852-8.27949E-02-3.28585E-01-1.45626E-01 1.24304E-01-3.07239E-01 6.40575E-01
 -1       853-1.73393E-01 2.28833E-01-6.43564E-03 1.60557E-01 4.36519E-01 7.53686E-01
 -1       854-1.09403E+00-1.03602E+00-8.52018E-01 2.11408E-01-5.12900E-01 6.24985E-01
 -1       855-8.53804E-02 1.73885E-01-6.00965E-03-5.43902E-02 4.63049E-01 3.65640E-01
 -1       856 1.35402E-01 6.81881E-02 1.24816E-01-7.64442E-02-3.70427E-01 2.20511E-01
 -1       857 1.53118E-01 1.98571E-01 1.91786E-01 4.73669E-03 3.07060E-01 1.83379E-01
 -1       858-3.09019E-01-4.91842E-01-3.20344E-01 7.34518E-03-2.62727E-01 7.96987E-02
 -1       859-1.18855E-01-1.68936E-01-7.14736E-02 2.02237E-02 3.10800E-01 7.38010E-02
 -1       860-6.33152E-02-4.11926E-02-8.16278E-03-3.83387E-03-8.73377E-02 2.81683E-02
 -1       861-1.36068E-01-8.67052E-02-7.81566E-02-1.16036E-02-6.69694E-02 4.86074E-03
 -1       862-8.93124E-02-1.05215E-01-1.07290E-01 5.98962E-02 2.45758E-01 5.89802E-02
 -1       863-1.30063E-01-1.25875E-01-1.96624E-01 8.36591E-04 2.81372E-01 1.75847E-01
 -1       864 6.66457E-01 8.39506E-01 6.02385E-01-1.23307E-01-4.19816E-01 2.24405E-01
 -1       865 7.25037E-02 3.69385E-01 1.48501E-01-5.11788E-02 4.57477E-01 3.65857E-01
 -1       866-1.60861E-01-2.10527E-01-2.09999E-01-5.39362E-03 3.53170E-01 4.50152E-01
 -1       867 1.84328E-01-1.61527E-01 2.74806E-02 7.11675E-03-4.77043E-01 5.76527E-01
 -1       868 3.69954E-01 1.94291E-01 2.43267E-01 3.85823E-02 3.64517E-01 6.32513E-01
 -1       869 1.78860E-01-2.08348E-01-2.94072E-04 1.14198E-01-3.88644E-01 7.17926E-01
 -1       870 2.41716E-01 3.88931E-01 2.53682E-01 1.92028E-01 2.61364E-01 8.81174E-01
 -1       871 2.09117E-01-3.25059E-02 7.94915E-02 1.00126E-01-2.37036E-01 7.97840E-01
 -1       872-3.56076E-01-3.19623E-01-4.49262E-01 1.72877E-02 1.01608E-01 7.13154E-01
 -1       873 2.97881E-01 8.08683E-01 4.00136E-01 3.32856E-01 4.31188E-01 7.12282E-01
 -1       874 3.56273E-02-7.04054E-02-2.57122E-01 3.94720E-02 1.88220E-01 6.52717E-01
 -1       875 5.07189E-01 7.16729E-01 4.89567E-01 7.71958E-02 4.27768E-01 2.28656E-01
 -1       876-1.54871E-02-2.40287E-02 3.64653E-02 5.78870E-02 2.94008E-01 5.57135E-02
 -1       877 2.84662E-01 7.37293E-01 3.53375E-01 7.82882E-04 4.59055E-01 3.52197E-01
 -1       878-4.13555E-01-8.89381E-01-5.04201E-01 2.87509E-01-3.65519E-01 6.69864E-01
 -1       879-2.88583E-01-7.96602E-01-4.12985E-01 1.21857E-01-4.74499E-01 5.66351E-01
 -1       880-4.29998E-01-6.08570E-01-4.03277E-01 2.46649E-01-2.23345E-01 7.56728E-01
 -1       881-2.55685E-01-2.42851E-01-1.49120E-01-4.62465E-02-8.40825E-02 5.44954E-03
 -1       882-3.66023E-02-1.19419E-01 8.19556E-02 4.07040E-02-2.70914E-01 1.62426E-01
 -1       883 1.16318E+00 7.71558E-01 7.73896E-01-7.30165E-03-1.02539E-01 1.04116E+00
 -1       884-4.79926E-03-1.62710E-02-1.55529E-02 8.71261E-03-2.04880E-01 6.40643E-01
 -1       885 7.48810E-01 8.34260E-02 3.34436E-01 6.49016E-02-3.49128E-01 6.73254E-01
 -1       886 1.08731E-01 1.47395E-01-9.70173E-03-6.26317E-02-3.24083E-01 4.66804E-01
 -1       887 7.05625E-01 9.70756E-01 6.70552E-01-1.13041E-01-4.90713E-01 2.62302E-01
 -1       888-2.81117E-02-4.67832E-03-6.17267E-02-1.56183E-03-1.70398E-01 1.07247E-01
 -1       889 1.04672E-01 1.77400E-01 1.12829E-01 3.82335E-02-1.08033E-01 1.06396E-02
 -1       890-3.49710E-01-5.35509E-01-3.45980E-01 1.09949E-01 2.66965E-01 7.06867E-02
 -1       891-4.71195E-01-6.68746E-01-4.55976E-01-7.11014E-02 4.22384E-01 2.25778E-01
 -1       892-2.55789E-01 1.40628E-01-9.15292E-02-1.50330E-01 4.17256E-01 3.30306E-01
 -1       893-9.55355E-01-1.00220E+00-7.83023E-01-1.89453E-01 5.13516E-01 5.68279E-01
 -1       894-3.31061E-01-3.30914E-01-1.40135E-01-1.09530E-01 3.23271E-01 6.47015E-01
 -1       895-5.48928E-01-6.31500E-02-2.42860E-01 2.05950E-01 2.45542E-01 8.36935E-01
 -1       896-1.66675E+00-1.11705E+00-1.11352E+00-4.51619E-02 9.64122E-02 9.78959E-01
 -1       897 7.23848E-02 9.91415E-02-3.88502E-02 6.99097E-02 3.19065E-02 1.04606E-02
 -1       898 3.10580E-01 1.60846E-01-1.17531E-01-1.71437E-01 2.60574E-02-3.13990E-02
 -1       899 6.60594E-01 1.95407E-01 3.33674E-02-4.09384E-03-6.81661E-03-2.05052E-01
 -1       900 5.27229E-01 1.44830E-01-2.92621E-02-1.72961E-02 4.57530E-03-1.71388E-01
 -1       901 5.31681E-01 1.93659E-01 1.22808E-02 1.20418E-01-6.82771E-02-1.96880E-01
 -1       902 1.29411E-01 1.73329E-01 8.54893E-03 1.07609E-01-4.81825E-02-2.81883E-02
 -1       903 1.02845E-01 1.38312E-01-4.81089E-02-1.02684E-01 1.59502E-02-1.64492E-02
 -1       904-1.85446E-01-2.17461E-01 1.00314E-03-1.98617E-01 4.67502E-02 4.38327E-02
 -1       905-7.92874E-02-1.43251E-01-1.42694E-02-6.49721E-02 3.29814E-02 3.53522E-02
 -1       906-3.98421E-01-2.60569E-01-9.01469E-02-1.64936E-01-9.37888E-02-1.25946E-01
 -1       907-4.20347E-01-2.45863E-01-5.99677E-02-2.33682E-01-7.35390E-02-1.57399E-01
 -1       908-5.85547E-01-1.12784E-01 2.20855E-02-1.29210E-01-3.40035E-02-1.19270E-01
 -1       909-7.34196E-01-1.95543E-01-7.44691E-02 4.76633E-03-3.27917E-03-2.26657E-01
 -1       910-4.89659E-01-9.48057E-02 8.60671E-02-4.04758E-02 1.01371E-02-2.94387E-02
 -1       911-8.87956E-01-1.98693E-01 4.36396E-03 5.68743E-04 2.79670E-03 2.18930E-01
 -1       912-2.79853E-01-5.80738E-02-1.32286E-01-5.72453E-03 3.71709E-03 3.24186E-01
 -1       913-1.08452E-01-1.11938E-01 5.38733E-02 8.16204E-02-1.89902E-02 1.55426E-02
 -1       914-2.10923E-01-4.45436E-02-1.10068E-01-5.25575E-02 8.91749E-02 2.98450E-01
 -1       915-3.91877E-01-7.01586E-02 1.18712E-01-6.76747E-02 7.90347E-03-1.41715E-02
 -1       916-3.56213E-01-1.00749E-01 3.65990E-02-1.41888E-01-6.40394E-03-4.89808E-02
 -1       917-2.54428E-01-1.94933E-01 4.76754E-03-1.58248E-01-4.00062E-02-5.44449E-02
 -1       918-1.30942E-01-1.65257E-01-1.06841E-02 1.16144E-01 8.42245E-02-9.49266E-02
 -1       919 4.75916E-02 4.06719E-01 5.52487E-02 1.16528E-01-6.14520E-02-4.66828E-02
 -1       920-6.91192E-03 1.48214E-02 2.44273E-02 7.74472E-02-5.44245E-03 7.07535E-02
 -1       921-6.90914E-01-2.72424E-01-8.58717E-02 1.32347E-01 5.75479E-02-1.79986E-01
 -1       922-7.84285E-01-2.56081E-01 6.16017E-03 1.76928E-01-5.98632E-02 1.71863E-01
 -1       923-3.68217E-01-9.65497E-02-9.51431E-02 7.77173E-02-1.02570E-01 3.24204E-01
 -1       924-1.75761E-01-5.38733E-02 1.29834E-01 6.28682E-02 4.83773E-03-7.90786E-02
 -1       925-3.66927E-01-2.60772E-01-8.09634E-02 1.85424E-01 9.17587E-02-1.26848E-01
 -1       926-5.34457E-01-2.99038E-01 1.73718E-02 2.35901E-01-1.23535E-01 1.40876E-01
 -1       927-1.92622E-01-7.56294E-02-6.39732E-02 9.89094E-02-1.42531E-01 2.30467E-01
 -1       928-1.02701E-01-1.84593E-01-8.29074E-04 9.33750E-02 4.92029E-02-2.24856E-02
 -1       929-1.12664E-01-1.47267E-01 2.90695E-02 1.07627E-01 1.50524E-02-1.83752E-02
 -1       930-2.90307E-03-1.40061E-02 1.89808E-02 7.03881E-02 4.07658E-02 8.41365E-03
 -1       931-1.40030E-02 1.65515E-02-3.80693E-03-1.05658E-01 9.19586E-03-1.13354E-02
 -1       932-4.21980E-02-4.23982E-01-1.33308E-01-1.32692E-01-9.94887E-02-8.83306E-02
 -1       933 2.70629E-01 2.67100E-01-2.24622E-02 1.54851E-01-2.89329E-03 3.60098E-02
 -1       934 7.75670E-01 2.66759E-01 3.95012E-02-1.78516E-01-7.96678E-02 1.99234E-01
 -1       935 1.72323E-01 8.29965E-02 7.36619E-02-7.61546E-02-1.45176E-01 1.90796E-01
 -1       936 5.85286E-01 1.21365E-01-1.22205E-01 5.17233E-02-2.08648E-02 9.47658E-03
 -1       937 5.02580E-01 3.07253E-01 6.83628E-02 2.76576E-01 9.87295E-02 8.81266E-02
 -1       938 1.76796E-01 7.42501E-02 1.09826E-01 9.87897E-02 1.37833E-01 1.99137E-01
 -1       939 2.16053E-01 8.82936E-02 1.08112E-01 3.42011E-02 8.42978E-02 3.05100E-01
 -1       940-1.92023E-01-1.44929E-01-7.82182E-02-1.59335E-02-4.21952E-02 8.50616E-02
 -1       941-2.88743E-01-2.86563E-01-2.10015E-01-2.78688E-02 3.70008E-02-1.28677E-01
 -1       942-1.35326E-01-1.80516E-01-6.23208E-02-3.21106E-02-1.03058E-02-1.40455E-01
 -1       943-3.14474E-01-2.06146E-01-2.17906E-01-2.20709E-02-3.92584E-03 2.41850E-01
 -1       944-5.07029E-02-1.35125E-01-4.93631E-02 1.98115E-02-2.61226E-02-1.60644E-02
 -1       945-1.42461E-01-1.70505E-01-2.06281E-02-3.66507E-02-1.72194E-02-1.59117E-02
 -1       946-1.61259E-01-1.62925E-01 4.91092E-02 2.56335E-02 4.30122E-03-6.76141E-03
 -1       947 5.10257E-02-7.70463E-02-1.78803E-02-2.31742E-02 3.47644E-03-2.14023E-02
 -1       948-2.90663E-01-1.70097E-01-4.58995E-02-5.65180E-02 5.12348E-02 1.04672E-01
 -1       949-1.83423E-01-2.85056E-01-1.94862E-01 2.59978E-02 1.24390E-01-1.38529E-01
 -1       950-2.76567E-02-1.52520E-01-2.16916E-02-8.39210E-03-2.87653E-02-8.40766E-02
 -1       951-4.05710E-01-2.54379E-01-3.15557E-01-1.80352E-02 7.49867E-02 2.71265E-01
 -1       952-5.75687E-02-9.64832E-02 2.81207E-02-2.99043E-02 1.15763E-02-4.11197E-02
 -1       953-1.56088E-01-7.47315E-02 9.06954E-02 2.59404E-02 1.56029E-02-5.33694E-02
 -1       954-6.82289E-02-1.34015E-01-7.61551E-02 4.89165E-02 1.64691E-02-6.82347E-02
 -1       955-2.89643E-01-1.79847E-01-2.72323E-02-7.21039E-02 8.34429E-02 5.41639E-02
 -1       956-2.34516E-01-2.85702E-01-2.41359E-01-1.89782E-02 2.83197E-02-2.52073E-01
 -1       957-9.68958E-02-1.61520E-01-7.46504E-02 1.32506E-02-3.58552E-02-8.54836E-02
 -1       958-2.46786E-01-1.58233E-01-1.87168E-01-2.60698E-02 1.45526E-01 1.65440E-01
 -1       959 2.03293E-02-5.76033E-02-3.06756E-02 2.74908E-02 3.83536E-03-2.93908E-03
 -1       960-3.16393E-02-1.32529E-02 9.49994E-03 2.91289E-02 1.71658E-02-3.84089E-02
 -1       961-7.61311E-02-7.77905E-02-7.53102E-02 1.49881E-02 7.22263E-03-8.15990E-02
 -1       962-6.82409E-02-7.42358E-02-4.07999E-02-2.76254E-02 7.85473E-02 3.33968E-02
 -1       963-9.77813E-02-1.14020E-01-2.74043E-02-8.95911E-03 4.34262E-02-5.52684E-02
 -1       964-2.94824E-02-6.53710E-02-3.92547E-02 3.85909E-02 1.45326E-02-2.73946E-01
 -1       965-3.70236E-02-5.68425E-02-5.91247E-02 5.06951E-02 9.14570E-03-8.70481E-02
 -1       966-2.21270E-01-1.48178E-01-9.65363E-02-7.26596E-02 1.03811E-01 1.88474E-02
 -1       967-1.27638E-01-3.64381E-02 2.53434E-02 1.16735E-02 4.36720E-02-6.05303E-02
 -1       968-1.40422E-02-1.45296E-02-8.77407E-02 2.91071E-02 1.19283E-03 2.07753E-03
 -1       969-6.69765E-02-3.16293E-02 7.15084E-02-2.53176E-02-3.01219E-02-1.79072E-02
 -1       970-9.93986E-02-8.17589E-02-1.35073E-01-2.88734E-03-4.63875E-02-1.07339E-01
 -1       971 1.89787E-03 1.95252E-02 5.72993E-02-6.28223E-02-1.33859E-02-5.19285E-02
 -1       972 5.11971E-02 6.66508E-02 4.96201E-02 5.70856E-02-5.51944E-02-2.37928E-01
 -1       973 1.00386E-02 2.18301E-02 2.47761E-02 3.77835E-02 1.13210E-02-8.24812E-02
 -1       974-5.08167E-03-3.15323E-03 5.58806E-03-1.72447E-02 1.27799E-02-1.96800E-03
 -1       975 7.76340E-02 1.01040E-01 6.56380E-02 1.78996E-02 1.70321E-02-6.55939E-02
 -1       976-8.03022E-02-4.87250E-02-1.05056E-01-1.38091E-02 1.97392E-02-1.26755E-02
 -1       977 1.30709E-02-6.46634E-03 6.29859E-02-1.93041E-03-1.14684E-02-3.46623E-02
 -1       978 7.89828E-03 9.30436E-03-8.12423E-02-2.12856E-02-2.09107E-02-7.96747E-02
 -1       979 1.06543E-01 1.03011E-01 4.86960E-02-5.33777E-02-1.14893E-01 1.74298E-02
 -1       980 6.72581E-02 9.31454E-02 1.84382E-02-4.34875E-02-6.79410E-02-3.18540E-02
 -1       981 8.47655E-02 9.35421E-02-7.16795E-02 1.98754E-02-6.75538E-02-2.06946E-01
 -1       982-1.75780E-02 3.72469E-02-1.64517E-02 2.73470E-02 4.99347E-02-1.24578E-01
 -1       983 9.76792E-02 1.17725E-01 7.44014E-02-2.52523E-02-6.90806E-02 3.98310E-02
 -1       984 1.19682E-02 5.32370E-02 6.72378E-02 9.13692E-03 2.54378E-02-9.62827E-02
 -1       985 1.05829E-02 1.01701E-02-7.40872E-02-7.22690E-03 1.82828E-02-1.61253E-02
 -1       986-6.53063E-02-1.23273E-02 1.37033E-02 4.05120E-02-1.42140E-02-4.13647E-03
 -1       987 8.21069E-02-1.45977E-02-5.02536E-02 3.10022E-02-7.20797E-02-9.22694E-02
 -1       988 1.58580E-01 1.14250E-01 1.41179E-01-5.54738E-02-1.45085E-01 1.30183E-01
 -1       989 1.09095E-01 8.91097E-02 5.20535E-02-5.21224E-02-8.12367E-02 4.74864E-02
 -1       990 1.22398E-01 1.94703E-01 4.35575E-02 3.61721E-03-6.99264E-02-1.27672E-01
 -1       991 7.32038E-02 9.63867E-02 5.18810E-02 1.96240E-02 1.66690E-02-1.26304E-01
 -1       992 2.97041E-01 2.31203E-01 1.57247E-01-1.56385E-02-1.29721E-01 1.33167E-01
 -1       993 1.12193E-01 8.48008E-02 1.37175E-01 4.47006E-02-1.75850E-02-7.97123E-02
 -1       994 5.77389E-02 1.30537E-02-6.95453E-02 3.74276E-03 1.22881E-02-2.75814E-02
 -1       995 6.68423E-02 1.30928E-01 9.28090E-02 1.00017E-02-4.64963E-03-9.33708E-03
 -1       996 2.35184E-02 4.50080E-02 5.94661E-02 4.27344E-02-2.33834E-02-5.92010E-02
 -1       997 2.14550E-01 1.31394E-01 3.72751E-02-2.10625E-02-2.96854E-02 8.35306E-02
 -1       998 2.01741E-01 3.01213E-01 7.72956E-02-6.77623E-03-7.57748E-03-1.34185E-01
 -1       999 3.31536E-02 1.08394E-01 7.31100E-02 1.57031E-02 9.21961E-03-1.27649E-01
 -1      1000 3.98853E-01 2.01821E-01 6.70645E-02-6.45896E-02-1.01676E-01 2.56652E-01
 -1      1001-6.39238E-03 9.41475E-02 4.82313E-02 7.09126E-02-2.01928E-02-7.50006E-02
 -1      1002 4.14067E-02 4.27610E-02-1.78707E-02 3.88839E-02 6.92372E-03-6.36641E-02
 -1      1003 2.00337E-02 1.26481E-01 9.49231E-03 5.19138E-03 2.27206E-02-2.63911E-02
 -1      1004 7.96999E-02 1.38210E-01 8.83116E-02 5.41697E-02-1.74689E-02-1.26550E-02
 -1      1005 2.62317E-01 1.28343E-01-1.28837E-02-6.08772E-02-6.83394E-03 1.36262E-01
 -1      1006 1.92759E-01 2.82352E-01 1.18500E-01 3.53873E-02 1.67196E-02-1.29694E-01
 -1      1007 8.49763E-02 1.45111E-01 4.26385E-02 2.14074E-02 6.87617E-03-1.34528E-01
 -1      1008 1.91318E-01 1.10275E-01 8.19534E-02-1.22504E-03 1.01958E-02 2.01291E-01
 -1      1009 2.04811E-02 8.58977E-02 1.99514E-03-1.22487E-02-1.33302E-02-9.19356E-03
 -1      1010 1.89039E-01 1.74429E-01 2.91924E-02 2.10521E-02-1.05001E-02-5.66116E-02
 -1      1011 1.54686E-01 1.74016E-01 1.12769E-02-1.03302E-02 2.44298E-02-4.87403E-02
 -1      1012 1.32296E-01 2.24012E-01 5.58279E-02 2.22578E-02 2.14299E-02-3.76886E-02
 -1      1013 1.34226E-01 1.26051E-01 1.07733E-01 3.49962E-02 6.91251E-02 1.75921E-01
 -1      1014 3.50130E-01 1.75607E-01 3.00690E-02 5.49579E-02 5.46870E-02 1.26005E-01
 -1      1015 1.97326E-01 2.55712E-01 1.93357E-01-1.12470E-02 1.09011E-01-1.61681E-01
 -1      1016-2.75307E-02 1.16787E-01 5.86275E-02-3.80565E-02-6.47462E-03-1.19541E-01
 -1      1017 2.33586E-01 2.41377E-01 2.89881E-01 3.88493E-02 6.62676E-02 2.04818E-01
 -1      1018 2.14714E-01 2.22890E-01-4.49290E-03-3.87407E-02 2.33160E-02-1.09784E-02
 -1      1019 7.51149E-02 1.09748E-01 6.18098E-02 5.95731E-03-1.31472E-02-4.20906E-02
 -1      1020 1.13271E-01 9.75360E-02 9.31622E-03-4.87847E-02-1.29555E-02-5.49401E-02
 -1      1021 1.42284E-01 1.50830E-01 2.40776E-02-4.69018E-02 2.56048E-02-6.96984E-02
 -1      1022 1.41578E-01 8.27553E-02 6.87601E-02 5.07632E-02 1.06700E-01 4.99901E-02
 -1      1023 2.12431E-01 1.86066E-01-5.07295E-03 8.87698E-02 6.00409E-02 2.96252E-03
 -1      1024 2.01650E-01 2.96298E-01 2.63933E-01-4.24361E-02 6.54443E-02-2.34251E-01
 -1      1025 7.40968E-02 1.05485E-01 3.39068E-03 1.72637E-02-3.11958E-02-9.60605E-02
 -1      1026 2.64468E-01 1.62449E-01 1.57409E-01 2.95602E-02 1.31409E-01 1.43917E-01
 -1      1027 4.18043E-02 4.83423E-02-2.02531E-02-4.78842E-02 3.21163E-02-3.30811E-02
 -1      1028 1.22799E-01 1.39528E-01 1.31895E-01-2.87924E-02-2.36794E-03-2.74364E-03
 -1      1029 7.26008E-02 3.03584E-02-3.01827E-02-8.26562E-03 3.36214E-03-4.98956E-02
 -1      1030 1.20185E-01 1.06004E-01 6.68719E-02-1.91518E-02 3.54341E-03-8.82092E-02
 -1      1031 7.90405E-02 6.54188E-02-4.83849E-02 5.02948E-02 4.87783E-02-2.18199E-02
 -1      1032 1.03297E-01 1.13645E-01 1.59021E-01-3.10475E-02 7.43374E-03-2.68335E-01
 -1      1033 1.32814E-02 5.49270E-02 3.20279E-02-3.13951E-02-6.52226E-03-8.83239E-02
 -1      1034 1.27346E-01 1.04313E-01 9.37771E-02 9.57031E-02 1.17084E-01 5.33948E-02
 -1      1035 1.25589E-01 5.08268E-02-1.96604E-03-5.87789E-03 5.27318E-02-7.59966E-02
 -1      1036 2.65826E-02 1.08945E-02 6.72693E-02-2.01384E-02 6.71623E-03-6.97162E-03
 -1      1037 5.28849E-02-5.57833E-03-5.19903E-02 2.02426E-02-2.65811E-02-2.33165E-02
 -1      1038 8.88050E-02 8.05287E-02 7.58119E-02 3.47747E-02-3.34073E-02-1.13090E-01
 -1      1039-2.79327E-02-1.91745E-02-7.14372E-02-8.89348E-03-1.98041E-02-5.63707E-02
 -1      1040 9.74641E-02 6.92177E-02 1.00661E-01-7.40062E-02-2.73346E-02-2.33482E-01
 -1      1041-2.03518E-02-5.07464E-03-4.58230E-03-1.28646E-02 4.77265E-03-9.51385E-02
 -1      1042 4.88725E-02 2.93144E-02 6.60352E-02 5.31823E-02-1.33167E-02-3.72389E-02
 -1      1043-4.26348E-02-4.20575E-02-4.56492E-02 7.99265E-03 3.91767E-02-9.71397E-02
 -1      1044 2.53341E-02 1.41040E-02 7.96114E-02 2.71895E-03 4.85155E-02-3.46850E-03
 -1      1045-8.29648E-03 3.44217E-03-7.13041E-02-2.65647E-02-1.50196E-02-1.55543E-02
 -1      1046-4.64638E-02 4.02640E-03 3.30686E-02-8.20331E-03-8.14427E-03-9.61666E-02
 -1      1047-1.47802E-01-1.20959E-01-4.03029E-02 5.25191E-02-1.16138E-01 2.32919E-02
 -1      1048-1.63118E-01-1.33251E-01-4.75739E-02 7.51627E-02-7.06609E-02-4.58692E-02
 -1      1049 5.29741E-02 5.23371E-05 1.58080E-01-5.72061E-02-6.42386E-02-1.67134E-01
 -1      1050 3.00189E-02 4.13778E-03-3.49706E-03 3.60629E-03 4.77035E-02-1.36166E-01
 -1      1051-1.27292E-01-8.39335E-02-2.79564E-02 3.27232E-02-6.68470E-02 5.16146E-02
 -1      1052-6.85809E-02-7.38742E-02-8.98404E-02 9.72540E-03 2.56804E-02-1.08467E-01
 -1      1053-3.97520E-02-2.70810E-02 4.16069E-02 1.15414E-02 2.23086E-02-3.58292E-02
 -1      1054-1.17380E-01-9.84419E-02-8.88444E-02-9.60575E-03-9.09069E-03-6.92569E-03
 -1      1055-1.12744E-01-7.65523E-03 1.46987E-02-2.07910E-02-5.20997E-02-4.58897E-02
 -1      1056-2.34573E-01-1.66680E-01-1.64817E-01 5.46436E-02-1.49828E-01 8.95361E-02
 -1      1057-1.80157E-01-1.62907E-01-1.30072E-01 2.03964E-02-9.24818E-02 4.62744E-02
 -1      1058-9.60975E-02-1.43308E-01 2.75496E-02-3.66990E-02-4.15390E-02-1.07614E-01
 -1      1059 1.43284E-02-4.37472E-02-4.68235E-02-5.34389E-02 3.02395E-02-9.76818E-02
 -1      1060-1.93431E-01-1.70419E-01-1.89191E-01 6.16183E-02-1.65553E-01 1.23011E-01
 -1      1061-1.63726E-01-1.22247E-01-1.20660E-01 3.23919E-03-1.86555E-02-6.09186E-02
 -1      1062-4.06029E-02-1.63403E-02 6.51582E-02-3.68852E-03 3.05611E-02-6.44162E-02
 -1      1063-1.91329E-02-9.20503E-02-7.33069E-02-6.27447E-02 8.78877E-03-1.59310E-02
 -1      1064-3.00080E-02-5.40781E-02 6.79395E-02-5.06196E-02-2.68224E-02-4.47148E-02
 -1      1065-1.18732E-01-9.54429E-02-7.71333E-02-7.22046E-03-6.35257E-02 5.00686E-02
 -1      1066-1.73444E-01-2.46464E-01-1.41427E-01-5.47964E-03-1.09502E-02-1.17754E-01
 -1      1067-2.11124E-01-1.98120E-01-6.06217E-02-6.00027E-03 3.79898E-03-1.29569E-01
 -1      1068-2.48260E-01-1.73707E-01-6.12595E-02 4.25227E-02-6.78558E-02 2.20571E-01
 -1      1069-1.25756E-01-1.39703E-01-2.00039E-02-4.99334E-02-1.93534E-02-6.20174E-02
 -1      1070-1.94132E-02-6.40691E-02 3.14283E-02-3.12543E-02-5.95414E-03-3.72261E-02
 -1      1071-4.66143E-02-1.10026E-01 8.37323E-03 5.56823E-03-3.79667E-04-3.50986E-02
 -1      1072-6.57957E-02-1.54960E-01-2.94639E-02-2.72793E-02-2.08210E-02-1.27202E-02
 -1      1073-2.15009E-01-1.76469E-01-1.94559E-01 2.33960E-02 9.95763E-02 6.95866E-01
 -1      1074-1.50141E+00-9.92635E-01-9.97619E-01 4.95793E-04 1.00864E-01 1.02416E+00
 -1      1075 2.51520E-01 2.24232E-01 2.14237E-01 2.74600E-02 5.66235E-02 7.60894E-01
 -1      1076 8.97787E-01 5.66499E-01 5.38703E-01-2.30345E-01-1.33175E-01 9.27617E-01
 -1      1077 1.51106E-02 6.60909E-02 5.05999E-02-5.61533E-02 1.42952E-01 1.11500E-02
 -1      1078-7.50952E-01-8.85574E-01-6.54610E-01 1.53469E-01-5.31859E-01 4.36475E-01
 -1      1079 3.41707E-02 2.65475E-02 8.12163E-02 9.46599E-03-1.15374E-01 7.24314E-01
 -1      1080-5.17611E-02-2.23088E-02 1.67453E-01 9.14896E-02-1.65141E-01 7.10289E-01
 -1      1081-1.48529E+00-1.06579E+00-1.02043E+00-1.45269E-01 2.91207E-01 9.59968E-01
 -1      1082 4.23963E-02 1.20763E-01 2.18141E-01 2.01114E-03-2.48948E-01 5.16442E-01
 -1      1083-1.11472E+00-9.29642E-01-8.17743E-01-1.84041E-01 4.48600E-01 8.39240E-01
 -1      1084-4.82722E-01-4.37898E-01-2.73022E-01-1.59581E-01 3.31131E-01 6.28866E-01
 -1      1085-3.78421E-01-1.49224E-01-1.86239E-01 5.17421E-02-4.14508E-01 5.29262E-01
 -1      1086-9.39131E-02 1.52546E-02-7.06293E-02 4.81090E-02-3.54383E-01 4.88205E-01
 -1      1087-2.71121E-01-4.05113E-01-2.30104E-01-5.90249E-02 3.38179E-01 3.24754E-01
 -1      1088-4.30372E-01-4.52225E-01-3.35287E-01 1.01800E-01-4.44336E-01 2.42450E-01
 -1      1089-8.33644E-02-1.26882E-01-3.71527E-02 6.45120E-02-2.86090E-01 1.43130E-01
 -1      1090-1.12937E-01-3.05159E-01-9.39273E-02 3.46213E-02 4.04005E-01 1.92874E-01
 -1      1091-2.50790E-01-3.92415E-01-2.57282E-01-4.99972E-03-2.12288E-01 3.74497E-02
 -1      1092 1.61166E-02-1.77498E-02 3.90540E-02-1.80866E-02 1.61229E-01 2.33817E-02
 -1      1093-3.63284E-01-4.96443E-01-3.43891E-01-5.51030E-02 3.63915E-01 1.10394E-01
 -1      1094-3.29636E-02-3.82582E-02-4.67672E-02-6.32887E-03-1.18998E-01 7.93041E-03
 -1      1095 7.26605E-02 2.32680E-02 6.16013E-02 3.48486E-03-2.27618E-02-1.28070E-02
 -1      1096 2.73921E-01 2.68155E-01 2.12929E-01 7.13224E-02-9.56345E-02 2.53065E-02
 -1      1097 7.43285E-02 1.30525E-01 8.19415E-02 3.62584E-02-7.40555E-02 7.29331E-03
 -1      1098 2.02054E-01 2.67642E-01 2.05872E-01-3.91715E-02 1.77123E-01 2.52924E-02
 -1      1099-6.02975E-02-5.26732E-02-9.14592E-02-2.24358E-03 2.62806E-01 9.17681E-02
 -1      1100-7.31254E-02-4.98351E-02-2.73254E-01 1.83942E-02 2.80616E-01 1.71859E-01
 -1      1101 6.66457E-01 8.39506E-01 6.02385E-01-1.23307E-01-4.19816E-01 2.24405E-01
 -1      1102 5.52733E-01 7.58292E-01 5.24410E-01-1.02954E-01-3.90824E-01 1.96861E-01
 -1      1103 7.20280E-01 8.18092E-01 6.15349E-01 1.47123E-01 5.23539E-01 4.29647E-01
 -1      1104 3.01737E-03 6.30060E-01 2.30124E-01 1.70419E-02 4.86417E-01 5.70490E-01
 -1      1105 3.05933E-01 5.07934E-01 3.42100E-01-1.15533E-01-4.12208E-01 4.83588E-01
 -1      1106 1.11172E+00 1.09019E+00 8.80764E-01-2.22365E-01-5.34349E-01 6.51122E-01
 -1      1107 5.13638E-02 2.04101E-02 6.02471E-02-1.25455E-02 3.28778E-01 5.17160E-01
 -1      1108 1.36289E+00 1.15292E+00 1.00633E+00-2.32424E-01-4.37839E-01 8.19109E-01
 -1      1109 9.08936E-01 4.91541E-01 6.06372E-01-1.30184E-01 1.89535E-01 6.81315E-01
 -1      1110 1.48415E+00 1.11642E+00 1.04023E+00-1.92919E-01-2.75856E-01 9.09360E-01
 -1      1111 7.81267E-01 4.99241E-01 5.41482E-01-7.64060E-02 8.23290E-02 7.87351E-01
 -1      1112-3.09856E-01-3.62393E-01-5.78561E-01-4.44241E-03 7.66276E-02 7.20087E-01
 -1      1113 6.07570E-01 3.35927E-01 1.87195E-01 6.75680E-02 3.53401E-01 6.25917E-01
 -1      1114 8.99760E-02 6.83680E-02 7.94777E-02 6.58898E-02 3.92193E-01 1.74238E-01
 -1      1115 2.56444E-01 2.12195E-01 1.76516E-01 7.00095E-02 4.74161E-01 4.06409E-01
 -1      1116 1.53504E-01 1.24371E-01 1.24229E-01-6.94043E-03-3.77368E-01 4.75445E-01
 -1      1117 3.89776E-01 3.34353E-01 3.49559E-01-2.84864E-02-1.61860E-01 6.90367E-01
 -1      1118 1.14158E-01 7.06654E-02 7.16700E-02 3.88855E-02-1.10011E-01 1.97972E-02
 -1      1119 1.97751E-01 2.00223E-01 2.55432E-01-1.39663E-02-3.20548E-01 1.83086E-01
 -1      1120 3.80403E-01 2.52668E-01 2.81696E-01 9.03748E-02-1.24267E-01 9.56103E-01
 -1      1121 1.87952E-01 3.08112E-01 2.13612E-01-1.90591E-01-2.13427E-01 7.82769E-01
 -1      1122-1.30871E-01-1.49817E-01-1.68175E-01-7.22338E-03-3.13758E-01 5.64720E-01
 -1      1123 2.47984E-01 3.38336E-01 1.66962E-01-9.92570E-02-3.78542E-01 5.35613E-01
 -1      1124 1.12682E-01 1.14887E-01 1.27498E-01-7.82374E-02-3.92028E-01 2.28929E-01
 -1      1125-1.22424E-01-1.20845E-01-1.82224E-01 3.53856E-03-2.43884E-01 7.48738E-02
 -1      1126 2.30919E-02 9.85902E-02 7.34329E-02 2.67707E-02-1.12630E-01 1.18618E-03
 -1      1127 3.10019E-03-3.26334E-02-1.34389E-02-3.75349E-02 2.00080E-01 3.73032E-02
 -1      1128-1.94079E-01-3.12528E-01-2.25451E-01 3.46539E-02 3.42165E-01 1.52939E-01
 -1      1129-6.94820E-01-8.21660E-01-6.06592E-01-1.34363E-01 4.62223E-01 3.43922E-01
 -1      1130-9.14799E-01-9.36162E-01-7.40385E-01-1.90848E-01 4.54521E-01 5.53848E-01
 -1      1131 2.75427E-01 3.18392E-01 4.01536E-01 2.90004E-02 3.45232E-01 6.06312E-01
 -1      1132-4.53677E-01-4.10373E-01-3.38752E-01-1.15191E-01 2.60308E-01 6.95067E-01
 -1      1133-3.23729E-01-2.40249E-01-2.41160E-01-6.87718E-02 7.07934E-02 7.41973E-01
 -1      1134 3.84071E-01 5.57729E-02-1.62762E-01-5.31721E-02 1.78221E-02-5.30742E-02
 -1      1135 3.86279E-01 1.42364E-01-5.77968E-02-1.31971E-01-5.52594E-03-3.11358E-02
 -1      1136 4.84910E-01 1.08886E-01-6.62323E-02-1.21788E-01 2.33350E-02-1.08342E-02
 -1      1137 5.19763E-01 1.92287E-01-3.79486E-02-1.58232E-01 1.92505E-02 1.72481E-02
 -1      1138 1.02995E-01 8.44899E-02-7.13039E-02 8.99636E-02 2.57492E-02 2.00477E-02
 -1      1139 1.13695E-01 9.03560E-02-7.77199E-02-8.40400E-02-2.48380E-02 7.89528E-03
 -1      1140 5.77327E-02 1.20627E-01-1.94942E-02-4.91698E-02-2.09473E-02 1.04685E-02
 -1      1141 2.46717E-01 2.23450E-01-3.59010E-02-1.52868E-01 1.53702E-02-4.61104E-02
 -1      1142 2.39223E-01 1.46602E-01-5.84323E-02-1.51833E-01 1.30652E-02-6.91996E-03
 -1      1143 2.61736E-01 2.35066E-01 6.44206E-03-1.69248E-01-5.71914E-03 3.56533E-02
 -1      1144 4.12498E-01 1.02579E-01-6.47821E-02 1.04125E-02-4.19643E-03-1.78507E-01
 -1      1145 7.39976E-01 1.15775E-01 3.40512E-02-1.08738E-02 1.05835E-03-1.84181E-01
 -1      1146 4.16286E-01 1.34536E-01 8.56701E-03 7.20229E-02-2.39516E-02-2.08494E-01
 -1      1147 6.89583E-01 2.01030E-01 6.69064E-02 1.84831E-01-7.67775E-02-2.04659E-01
 -1      1148 3.29106E-01 1.61055E-01-9.27777E-02 1.29839E-01-2.64053E-02-1.37964E-01
 -1      1149 1.13681E-01 1.34949E-01-4.91309E-02 1.16941E-01-2.75399E-02-2.06789E-02
 -1      1150 1.62238E-01 7.73569E-02-1.06823E-01-4.38664E-02 5.77174E-02-1.32981E-01
 -1      1151 6.21075E-01 2.04585E-01 2.61091E-02-1.55078E-01 6.92488E-02-1.71041E-01
 -1      1152 4.70077E-01 6.79826E-02-2.34469E-02-1.39305E-01 2.53260E-02-1.85415E-01
 -1      1153 5.03450E-01 1.91615E-01 3.41520E-02-1.13173E-01 8.37512E-02-1.60523E-01
 -1      1154 1.08831E-01 1.73278E-01-8.61813E-03-1.02982E-01 4.34190E-02-2.79636E-02
 -1      1155-1.14682E-01-1.33867E-01 2.00534E-02-1.03277E-01-4.48327E-02-2.58928E-02
 -1      1156-1.19447E-01-1.46411E-01 6.20534E-02-1.22258E-01-1.82343E-02-1.62493E-02
 -1      1157-9.10079E-02-5.90815E-02-3.94968E-02-1.01324E-01 1.18727E-01 1.20379E-01
 -1      1158-1.77198E-01-2.31863E-01 1.24509E-03-2.17115E-01 1.14362E-01 4.45768E-02
 -1      1159-5.37859E-02-5.36416E-02-3.75454E-02-6.77924E-02 6.96337E-02 1.08373E-01
 -1      1160-1.93273E-01-2.88963E-01-1.95282E-02-2.25697E-01-9.48636E-02-1.12164E-01
 -1      1161-1.80607E-01-1.50396E-01 2.09274E-02-1.29007E-01-2.80929E-02-2.75452E-02
 -1      1162-3.70776E-02-1.23974E-02 2.52886E-02-9.40229E-02-3.11616E-02-5.67369E-02
 -1      1163-1.74823E-01-1.57809E-01-1.48534E-02-9.57112E-02-6.56938E-02-9.26265E-02
 -1      1164-8.77204E-02-8.97365E-02 4.09951E-02-8.19563E-02 2.25680E-02 1.41639E-02
 -1      1165-8.13306E-02 6.52311E-02 1.03581E-01-2.14620E-02 4.14922E-03-6.59540E-02
 -1      1166-3.76511E-01-2.35922E-01-6.21260E-02-1.97093E-01-6.76738E-02-1.27916E-01
 -1      1167-5.12641E-01-1.52120E-01-1.21488E-02-1.54487E-01-3.13910E-02-1.45107E-01
 -1      1168-3.17301E-01-7.90362E-02 6.93636E-02-9.51880E-02-4.10647E-02-9.20237E-02
 -1      1169-6.02594E-01-2.33288E-01-7.05680E-02-1.39367E-01-6.39494E-02-1.77125E-01
 -1      1170-3.16819E-01-4.25666E-02 6.95107E-02 3.54793E-02 1.47687E-02-1.89931E-01
 -1      1171-7.00850E-01-9.41180E-02-3.22931E-02 6.73334E-03-2.46525E-02-2.04434E-01
 -1      1172-4.49420E-01-5.07757E-02 2.08526E-02 3.16362E-03 2.43871E-02-1.82663E-01
 -1      1173-4.90042E-01-9.21706E-02 1.29735E-01 5.34711E-02-1.01392E-03-7.09223E-03
 -1      1174-5.93789E-01-1.25689E-01 6.35202E-02-3.57277E-02-2.46889E-02-2.16267E-03
 -1      1175-5.43019E-01-1.00806E-01 5.32660E-02 2.38444E-02-1.55890E-02-2.83743E-02
 -1      1176-2.21743E-01-2.13735E-02-8.95614E-02 2.86506E-03-6.45690E-03 3.37864E-01
 -1      1177-9.48588E-01-2.05661E-01-2.36553E-02 1.34538E-03 1.50901E-03 2.36080E-01
 -1      1178-6.55740E-02-1.05209E-01 3.30944E-02 5.71303E-02-3.24529E-02 1.07641E-02
 -1      1179-1.59183E-01-7.48014E-02-1.49996E-01-7.21686E-02 1.22530E-01 2.10053E-01
 -1      1180-5.39728E-01-2.92473E-01-4.55381E-02-2.30463E-01 1.31406E-01 1.39073E-01
 -1      1181-4.21548E-01-2.50805E-01-2.04412E-02-2.63284E-01 6.31996E-02 9.96716E-02
 -1      1182-2.26437E-01-8.85033E-02-5.57984E-02-9.55799E-02 1.29787E-01 2.11531E-01
 -1      1183-7.96008E-01-2.54254E-01-2.31898E-02-1.73002E-01 5.31600E-02 2.20759E-01
 -1      1184-8.67626E-01-2.39548E-01-3.56744E-03-1.94005E-01 8.61653E-02 2.00731E-01
 -1      1185-3.24185E-01-9.56630E-02-6.10766E-02-6.05973E-02 1.04937E-01 3.09540E-01
 -1      1186-4.86228E-01-1.63710E-01 9.18857E-02-1.37385E-01-4.68977E-03-8.83299E-03
 -1      1187-5.12193E-01-1.13465E-01 8.66949E-02-1.14004E-01-2.32621E-02-2.06566E-03
 -1      1188-2.81875E-01-1.47724E-01 8.49363E-02-1.51361E-01-3.84055E-04-1.39053E-02
 -1      1189-2.69283E-01-2.00242E-01 8.03014E-02-1.57822E-01 3.61960E-03 1.90701E-02
 -1      1190-2.97818E-01-1.83367E-01 6.51106E-02-1.54090E-01-6.22136E-03 1.47147E-02
 -1      1191-1.83013E-01-2.38471E-01-9.66351E-03 2.24494E-01-9.84857E-02 3.81443E-02
 -1      1192-9.14348E-02-1.15209E-01-6.67051E-02 1.23816E-01-1.62449E-01 9.34845E-02
 -1      1193-9.09201E-02-4.11735E-02-1.40234E-02 8.73932E-02-9.35524E-02 1.30073E-01
 -1      1194-1.78658E-01-2.00669E-01 8.28882E-03 2.09303E-01-3.97009E-02 3.49509E-02
 -1      1195-4.79577E-02 9.51110E-02 9.73371E-02-1.19955E-02-1.20337E-02-6.14561E-02
 -1      1196-1.69369E-01-1.64914E-01 1.92895E-02 1.47977E-01 4.70467E-02-2.45082E-02
 -1      1197-9.86868E-02-2.49919E-01-3.15429E-02 1.33936E-01 8.66101E-02-6.89895E-02
 -1      1198-3.99980E-03 1.58422E-02-3.56857E-02 1.37075E-01-4.56173E-02-1.64805E-02
 -1      1199 1.12080E-02-1.28441E-02 3.93537E-02 1.43310E-01-6.02293E-02-2.06139E-03
 -1      1200-1.38051E-02-4.50819E-02-1.02062E-01 1.26762E-01 3.04439E-02-9.62583E-03
 -1      1201-1.54738E-02-3.49314E-01-3.10791E-02 1.37505E-01 5.03451E-02-6.03649E-02
 -1      1202-4.78968E-02-9.88427E-03-6.41366E-02 5.96612E-02-2.31596E-02 8.42531E-02
 -1      1203-9.98395E-03-1.68440E-02 4.90758E-02 1.38676E-01-1.38106E-02 1.32764E-03
 -1      1204-3.44539E-01-5.24530E-03 4.37141E-02 5.99090E-02 1.91012E-02-1.19875E-01
 -1      1205-5.36227E-01-1.04707E-01 2.89234E-02 1.49165E-01 3.60734E-02-1.61064E-01
 -1      1206-4.82338E-01-3.86274E-02 6.55121E-02 1.63400E-01 7.16216E-02-1.31878E-01
 -1      1207-5.17246E-01-1.34529E-01 6.74067E-02 1.10313E-01 1.88649E-02 1.19721E-02
 -1      1208-4.64349E-01-1.65649E-01 9.70824E-02 1.64129E-01 2.06560E-03 3.70934E-03
 -1      1209-4.46256E-01-8.92701E-02 5.21687E-02 7.99144E-02-1.84547E-02-1.81232E-02
 -1      1210-3.62024E-01-9.48182E-02 6.97168E-02 1.40522E-01 1.91235E-02-5.38057E-02
 -1      1211-2.02374E-01 1.98179E-02-1.59962E-01 9.72192E-02-9.99108E-02 2.66769E-01
 -1      1212-8.69926E-01-2.44843E-01-6.32732E-03 2.11538E-01-8.39308E-02 1.70234E-01
 -1      1213-3.29145E-01-2.53994E-01-1.06162E-01 2.48837E-01 6.61114E-02-1.01937E-01
 -1      1214-3.49252E-01-2.21200E-01-1.05027E-02 1.56242E-01 4.03117E-02-1.22781E-01
 -1      1215-2.81925E-01-1.38101E-01 7.62921E-02 1.60655E-01 5.79633E-03 8.23600E-03
 -1      1216-2.15293E-01-2.03516E-01 7.18363E-02 1.55253E-01-1.62546E-02 1.91892E-02
 -1      1217-2.93108E-01-1.74023E-01 6.24279E-02 1.63398E-01 1.14170E-02-2.79614E-02
 -1      1218-2.41636E-01-2.21385E-01 2.97705E-02 1.58579E-01 1.62741E-02-5.18048E-02
 -1      1219-1.83756E-01-9.81618E-02-1.70041E-01 1.08009E-01-1.45449E-01 2.33265E-01
 -1      1220-4.90972E-01-2.81898E-01 6.42932E-02 2.40503E-01-1.00118E-01 8.25292E-02
 -1      1221-8.76387E-03-1.95875E-02-1.01601E-02 4.83763E-02 3.88836E-02 1.84522E-03
 -1      1222 1.29486E-01 1.62926E-01 1.69398E-03 1.53221E-01-5.89446E-02-5.47770E-02
 -1      1223 2.12910E-01 2.43910E-01 3.53193E-02 1.34144E-01-3.24737E-02-8.22210E-02
 -1      1224 1.59690E-01 2.06544E-01 4.85127E-02 1.32259E-01-1.19319E-01-1.09607E-01
 -1      1225-7.82053E-03-1.77205E-01-1.43770E-01 2.63757E-02 2.88823E-02-5.88359E-02
 -1      1226 9.21905E-02 1.27359E-01 1.38688E-01 1.33713E-01 1.56321E-01 9.27168E-02
 -1      1227 1.22385E-01 2.09073E-01-2.55713E-03 2.00827E-01-1.63234E-03 3.34582E-02
 -1      1228 4.01473E-02 1.10818E-02 3.20056E-02 1.00236E-01 6.53375E-02 1.35864E-01
 -1      1229 2.27854E-01 2.15393E-01 2.39430E-02 1.92415E-01 7.72498E-02 3.24363E-02
 -1      1230-2.10531E-03-1.27607E-02-2.70002E-02-4.89892E-02-3.29021E-02-7.38260E-04
 -1      1231-3.36593E-03-2.07832E-02 1.56948E-02-6.64653E-02-3.28347E-02 9.68545E-04
 -1      1232-9.20822E-03-5.10766E-02-8.45031E-02-7.37441E-02 5.03162E-02 5.18416E-02
 -1      1233 8.28211E-03 3.10277E-02 1.28572E-02-1.71751E-01 1.94736E-02-8.05988E-03
 -1      1234 3.41250E-02 4.07594E-01 1.50201E-01-8.78989E-02 7.18621E-02-4.19409E-02
 -1      1235-5.67053E-02-4.95100E-03-3.91775E-02-8.54987E-02-2.61144E-02-4.19808E-02
 -1      1236-1.92556E-03-2.55331E-02-9.16757E-04-1.40096E-01-5.36132E-02 3.85756E-02
 -1      1237 8.53226E-03 5.84380E-03 3.73836E-03-8.30579E-02-1.08314E-03 7.56216E-02
 -1      1238-1.16472E-02-9.55913E-03-2.74645E-02-6.44994E-02 2.53342E-02 1.39500E-03
 -1      1239 9.36731E-02 1.99198E-01 1.00862E-02-1.51732E-01 1.31708E-01-7.86599E-02
 -1      1240 1.31957E-01 1.77718E-01-1.19284E-02-8.66847E-02 2.56786E-02-7.23407E-02
 -1      1241 1.25078E-02-7.98965E-02-8.07955E-02 2.51575E-03-3.71603E-03-5.73801E-02
 -1      1242 1.65688E-01 1.79663E-01 2.38539E-02-1.47014E-01 6.96622E-02-5.88678E-02
 -1      1243 6.47208E-02 3.51132E-02 1.22667E-02-8.64899E-02-8.70109E-02 1.35005E-01
 -1      1244 1.69420E-01 2.27227E-01 1.56888E-02-2.11245E-01-4.04515E-02 4.00715E-02
 -1      1245 1.58117E-01 2.12096E-01 1.11176E-02-2.26212E-01-1.18134E-01 3.45653E-02
 -1      1246 8.68899E-02 1.34369E-01 8.31256E-02-1.23008E-01-1.66501E-01 9.52320E-02
 -1      1247 1.72056E-02 2.66476E-02 4.07784E-02-4.66266E-02 2.57204E-02-4.87066E-04
 -1      1248 2.63358E-01 1.47439E-01-5.82704E-02 1.52825E-01-1.06323E-02-6.37961E-03
 -1      1249 2.42613E-03 1.83986E-02 3.41267E-02 4.46060E-02-2.57170E-02 1.83441E-04
 -1      1250-1.45251E-02-2.53641E-02-5.14612E-02 6.51154E-02-2.73173E-02 1.12201E-02
 -1      1251 1.94867E-01 1.18088E-01-5.69609E-02-7.25615E-02 4.78236E-02-7.15407E-02
 -1      1252 3.68138E-01 2.34234E-01 3.05691E-02 2.20058E-01-8.47765E-02-1.07402E-01
 -1      1253 2.94156E-01 2.15698E-01 4.08971E-02 2.32001E-01-9.48410E-02-1.65200E-01
 -1      1254 3.56084E-01 2.50954E-01 4.71318E-02 1.97757E-01-1.22059E-01-1.62173E-01
 -1      1255 4.19186E-02-1.53006E-01-1.55433E-01 2.25371E-03-5.65587E-02-7.53035E-02
 -1      1256 3.65578E-01 2.45431E-01 6.93579E-02-2.26206E-01 1.40928E-01-1.31201E-01
 -1      1257 3.61128E-01 2.73963E-01 3.83591E-02-1.77028E-01 9.15482E-02-1.47377E-01
 -1      1258 3.63692E-01 2.28672E-01 3.71309E-02-1.86215E-01 8.80919E-02-1.05436E-01
 -1      1259 2.21694E-01 1.89091E-01-3.21128E-02 1.39806E-01-3.93348E-02-4.02013E-02
 -1      1260 2.77231E-01 1.28297E-01-1.06664E-01 1.51016E-01-1.35408E-02-2.73695E-02
 -1      1261 3.91947E-01 1.36647E-01-7.18620E-02 1.31176E-01-7.26678E-03-3.82264E-02
 -1      1262 4.61817E-01 8.42706E-02-1.46462E-01 7.32256E-02-5.89463E-03-2.76166E-02
 -1      1263 2.83070E-01 8.27532E-02 7.22013E-02-7.81057E-02-1.14973E-01 3.01339E-01
 -1      1264 4.77144E-01 1.50468E-01-7.18464E-02 1.72179E-01 6.94931E-04 1.35788E-02
 -1      1265 4.82751E-01 9.19310E-02-6.28345E-02 1.10892E-01-1.42064E-02-1.22248E-02
 -1      1266 2.23096E-01 2.08578E-02 1.29558E-01-2.50044E-03-1.44390E-02 2.80828E-01
 -1      1267 8.30979E-01 2.39220E-01 3.73553E-02-3.15553E-03-6.06630E-03 2.10150E-01
 -1      1268 8.65557E-01 1.18642E-01 4.24390E-02 3.05163E-02 8.46433E-03 1.88708E-01
 -1      1269 2.65569E-01 6.66761E-02 1.21786E-01 4.68531E-03 2.74462E-03 3.13074E-01
 -1      1270 8.52268E-01 2.47535E-01 1.58127E-02-2.11352E-01-1.00688E-01 2.06960E-01
 -1      1271 2.30475E-01 8.41778E-02 1.22199E-01-4.31487E-02-1.00113E-01 3.05357E-01
 -1      1272 4.82382E-01 3.20295E-01-2.30932E-02-2.48801E-01-9.12300E-02 7.77595E-02
 -1      1273 4.68211E-01 2.87904E-01-6.79413E-04-2.94445E-01-9.98439E-02 1.07002E-01
 -1      1274 1.19841E-01 6.92178E-02 1.31125E-01-1.21812E-01-1.65694E-01 1.79549E-01
 -1      1275 5.40837E-01 1.15230E-01-8.77534E-02-4.72085E-02-1.84151E-02-3.31842E-02
 -1      1276 5.29539E-01 7.47016E-02-1.37900E-02 1.70070E-02 1.26014E-02-6.09747E-02
 -1      1277 5.28018E-01 7.70197E-02-4.98752E-02-2.58937E-02 1.45632E-02 3.37399E-02
 -1      1278 1.30162E-01 5.01207E-02 9.14552E-02 1.06319E-01 1.08286E-01 1.81827E-01
 -1      1279 4.51804E-01 2.62054E-01 5.21462E-02 2.52928E-01 1.33767E-01 1.33188E-01
 -1      1280 8.39015E-01 2.32161E-01 2.87835E-02 2.01548E-01 1.08268E-01 2.24652E-01
 -1      1281 3.11030E-01 8.77176E-02 5.91153E-02 5.76467E-02 1.16343E-01 2.83117E-01
 -1      1282 7.45471E-01 2.39870E-01 6.99008E-02 1.70914E-01 7.84178E-02 2.31353E-01
 -1      1283-3.35440E-01-2.50126E-01-2.49958E-01-2.29909E-02-1.01783E-02 2.27586E-01
 -1      1284-3.74836E-02-8.41837E-02-2.39611E-02 3.58518E-02 9.45458E-03-1.15416E-01
 -1      1285-2.29147E-01-3.32729E-01-1.84306E-01 1.21609E-02-4.37514E-02-1.19287E-01
 -1      1286-2.95633E-01-1.25957E-01-3.36997E-02 8.14915E-03 1.48994E-02 1.55618E-01
 -1      1287-2.19095E-01-1.16054E-01-7.27439E-02-3.58644E-02 9.25949E-02 2.02322E-01
 -1      1288-5.77247E-02-1.21504E-01-4.71794E-02 1.88461E-02-3.04947E-03-1.20215E-01
 -1      1289-1.33615E-01-2.32103E-01-1.57796E-01-1.99109E-03 1.03160E-02-6.72801E-02
 -1      1290-2.08265E-01-1.35631E-01-1.08265E-01-4.78177E-02 5.90674E-02 8.81195E-02
 -1      1291-5.03817E-02-1.42805E-01-5.30213E-02 5.05747E-02 9.60749E-03-1.58074E-02
 -1      1292-1.37525E-01-7.74368E-02-7.65509E-02-2.30783E-02 1.20676E-01 5.47622E-02
 -1      1293-1.87061E-01-1.39776E-01-1.02740E-01 7.11469E-03-2.72751E-02-1.17859E-01
 -1      1294-2.78440E-01-3.07712E-01-1.77776E-01 3.66267E-02 9.06348E-02-1.25478E-01
 -1      1295-1.92979E-01-1.35090E-01-8.66157E-02-4.18111E-02 1.19112E-01 3.71601E-02
 -1      1296-9.05224E-02-6.20397E-02-4.16877E-02 5.47666E-02 2.15365E-02-1.54073E-02
 -1      1297-2.85369E-02-6.67648E-02-7.03339E-02 4.51238E-02-2.33702E-02-1.16646E-01
 -1      1298-3.69348E-02-6.53793E-02 7.02568E-02 4.13553E-02 6.98503E-02-1.78399E-01
 -1      1299-6.10760E-02-8.66084E-02-7.30326E-02-1.35799E-02 4.83034E-02-4.34206E-02
 -1      1300 2.66611E-02 3.04569E-02 8.88885E-02-2.48311E-02-3.51505E-02 1.04836E-02
 -1      1301-3.14977E-02-2.65134E-02-6.56064E-02-5.36189E-03-2.84608E-02-1.07118E-01
 -1      1302-4.50011E-02-1.53627E-02 6.44842E-02 5.00751E-02 6.13508E-02-2.57856E-01
 -1      1303-3.53432E-02-3.20313E-02-1.90032E-02-4.17893E-02 1.39319E-02-8.37088E-02
 -1      1304 2.31985E-02 4.43411E-02 4.00905E-02 4.55371E-02 2.61596E-03-7.67943E-02
 -1      1305 1.05686E-01 1.25292E-01 1.08763E-01 7.18513E-02-2.45907E-02-2.48945E-01
 -1      1306-1.96866E-02 2.61783E-02-2.26934E-02-5.35360E-03-1.75850E-02-3.61106E-02
 -1      1307-4.88731E-02 8.56464E-02 3.87793E-02 6.23254E-02 2.27160E-03-8.53840E-02
 -1      1308 1.47419E-01 2.28700E-01 1.66245E-01-9.37525E-03-5.56503E-02-2.17515E-01
 -1      1309 1.58945E-01 1.22631E-01 5.41101E-02-3.83998E-02-5.36063E-02 3.55548E-02
 -1      1310 3.60710E-01 2.86592E-01 2.64361E-01-4.29195E-02-8.00219E-02 2.69491E-01
 -1      1311 5.26095E-02 1.90164E-01 5.25457E-02-2.57159E-02 8.17420E-03-8.20486E-02
 -1      1312 2.46053E-01 2.94566E-01 1.63845E-01-1.96135E-02-8.97700E-02-1.35217E-01
 -1      1313 2.90659E-01 1.82371E-01 5.92793E-02-6.24436E-02-7.39966E-02 1.02163E-01
 -1      1314 3.42735E-01 1.98158E-01 2.22919E-01 1.22613E-02 1.96259E-02 2.59993E-01
 -1      1315 1.34082E-02 1.15803E-01 3.84313E-02-8.68117E-03-1.19098E-03-1.37195E-01
 -1      1316 2.00457E-01 2.38843E-01 1.65963E-01 6.14363E-03-4.74857E-02-7.37008E-02
 -1      1317 7.86255E-02 9.28618E-02 4.60095E-03 9.85965E-03 8.19625E-03 1.03879E-01
 -1      1318 8.16138E-02 1.33200E-01 5.82689E-02-3.29311E-02-2.10251E-02-1.31359E-01
 -1      1319 2.66172E-01 3.15752E-01 8.70295E-02-4.00354E-03 4.82235E-03-1.01696E-01
 -1      1320 2.05759E-01 1.45245E-01 6.57268E-02 5.62536E-02 4.52884E-02 1.03768E-01
 -1      1321 1.42176E-01 1.67977E-01 1.30175E-01-1.92230E-02-2.51858E-02-1.17451E-01
 -1      1322 1.39650E-01 2.14313E-01 1.46188E-01-5.07930E-03 1.03683E-01-1.12473E-01
 -1      1323 2.09949E-01 1.81359E-01 1.81962E-02 9.94814E-02 8.60573E-02 4.86314E-02
 -1      1324 9.69517E-02 2.00733E-02 4.24914E-02 6.06098E-02 5.82667E-02 8.62834E-02
 -1      1325 1.59165E-01 1.82061E-01 1.03071E-01 1.31324E-02-6.39585E-02-1.36978E-01
 -1      1326 3.22149E-02 1.14230E-01 7.66677E-02-3.92878E-02 8.40878E-02-1.85051E-01
 -1      1327-9.10326E-03 2.61593E-02 1.16143E-02-1.74377E-02 7.06124E-02-5.30666E-02
 -1      1328-5.63850E-02-2.84443E-02-3.09691E-02 4.57111E-02-4.13413E-02 6.89064E-03
 -1      1329 5.00171E-02 9.04120E-02 1.10431E-01-4.11896E-02-1.86351E-02-9.47591E-02
 -1      1330 5.08848E-02 4.49895E-03-4.60893E-02-5.42393E-02 8.14044E-02-2.08624E-01
 -1      1331-2.64567E-02 2.73036E-02 8.79023E-03 2.36249E-02-1.47282E-02-4.69939E-02
 -1      1332 6.01382E-03-1.64337E-02 5.00936E-03-3.11334E-02-6.86510E-04-7.75555E-02
 -1      1333-1.44632E-01-1.60505E-01-1.59686E-01-3.91629E-02 1.56101E-02-2.14593E-01
 -1      1334-6.09374E-02-2.56282E-02 3.66270E-02 3.04652E-02-1.89753E-02-5.32563E-02
 -1      1335-6.31353E-03-7.12526E-02 2.77597E-02-3.36206E-02 2.54910E-02-7.78708E-02
 -1      1336-1.16689E-01-1.70891E-01-1.22466E-01-2.30382E-02-5.59568E-02-2.03388E-01
 -1      1337-1.86166E-01-1.29222E-01-3.65296E-02 5.86878E-02-6.38924E-02 6.10947E-02
 -1      1338-2.46352E-01-1.29882E-01-1.98251E-01 1.57961E-02-6.32283E-02 2.19075E-01
 -1      1339-1.67485E-01-2.03966E-01-5.99743E-02 7.12217E-03-1.05487E-02-1.01526E-01
 -1      1340-2.23085E-01-2.75214E-01-1.93510E-01-3.42942E-02-5.01322E-02-1.79669E-01
 -1      1341-2.33389E-01-1.55152E-01-8.82163E-02 1.57589E-02-3.74251E-02 7.24578E-02
 -1      1342 1.36997E+00 9.34558E-01 9.21812E-01 8.67804E-02 1.00023E-01 1.01562E+00
 -1      1343-1.27616E-01-2.24209E-01-3.90023E-01 2.34398E-02-9.75775E-02 6.83702E-01
 -1      1344-1.37525E+00-9.06822E-01-9.12830E-01 4.21346E-02-1.31861E-01 9.73657E-01
 -1      1345-2.60424E-01-1.40775E-01-1.33621E-01-1.91805E-01-1.64832E-01 8.21535E-01
 -1      1346-5.46161E-03-1.95428E-02-1.29869E-02-1.92102E-02 3.75983E-02 1.49914E-02
 -1      1347-5.84172E-02-9.42452E-02-6.10650E-02 3.34746E-02 5.64601E-02-2.90894E-02
 -1      1348-9.51919E-02-1.33166E-01-9.02060E-02-2.74124E-02 1.21202E-01 2.83228E-02
 -1      1349-1.02970E-02-1.85853E-02-3.86944E-02 1.31081E-02 8.80510E-02 2.51016E-02
 -1      1350-3.93082E-03-2.19760E-02-3.61235E-02 3.58827E-02 4.09224E-02 1.89642E-02
 -1      1351 7.95737E-02 1.20973E-01 8.02187E-02-1.26759E-03 8.32339E-02 8.19724E-03
 -1      1352 2.24568E-01 3.41769E-01 2.26535E-01-4.31078E-03 1.68424E-01 1.65871E-02
 -1      1353-1.37532E-01-1.26736E-01-2.41944E-01 2.21187E-02 3.91434E-01 4.58041E-01
 -1      1354 5.62507E-02 2.63751E-01 6.07048E-02 2.41505E-02 4.34680E-01 5.15526E-01
 -1      1355-7.11363E-02 1.08783E-01-2.56863E-02-2.33212E-02 3.91829E-01 4.47213E-01
 -1      1356-1.04569E+00-9.67215E-01-8.05160E-01-1.97429E-01 5.07877E-01 6.18864E-01
 -1      1357-8.40739E-01-9.55094E-01-7.18333E-01 1.71728E-01-6.02917E-01 4.94789E-01
 -1      1358 8.67611E-04 1.21865E-01 7.03516E-02 2.43276E-03-4.92317E-01 4.07362E-01
 -1      1359-1.56586E-01-1.89947E-01-2.24143E-01 7.09811E-03-3.76392E-01 3.44754E-01
 -1      1360 4.17830E-02 4.93047E-02 7.31694E-02 8.12448E-03-2.03208E-01 1.12156E-01
 -1      1361 5.16233E-02 4.64870E-02 1.31859E-01 1.27972E-02-2.05579E-01 7.18170E-02
 -1      1362 3.40289E-01 5.67696E-01 3.63194E-01-2.72628E-02-3.56719E-01 8.53507E-02
 -1      1363 2.65012E-01 4.42976E-01 2.83195E-01 5.73559E-03-2.79069E-01 8.46559E-02
 -1      1364 1.18100E-01-1.75784E-01-8.36018E-02-2.09442E-02-3.90189E-01 2.71252E-01
 -1      1365-3.13661E-02-7.28091E-02-1.64989E-01-6.55297E-02-3.30031E-01 2.75277E-01
 -1      1366-1.04711E+00-1.13092E+00-8.71213E-01 2.13735E-01-5.42615E-01 4.45303E-01
 -1      1367-5.85865E-01-1.10168E+00-6.64279E-01 1.26174E-01-4.75955E-01 3.53740E-01
 -1      1368-5.56448E-01-3.60803E-01-3.13966E-01 1.21203E-01-1.21721E-01 8.40250E-01
 -1      1369-1.69030E-01 6.78798E-02-1.73655E-02-1.77828E-01-2.20420E-01 7.79509E-01
 -1      1370-1.37257E+00-9.90150E-01-9.45088E-01-1.63673E-01 2.91501E-01 9.23688E-01
 -1      1371-1.10827E+00-8.69160E-01-7.90970E-01 1.57941E-01-4.30601E-01 8.05567E-01
 -1      1372-3.60307E-01-6.15489E-01-4.24307E-01-3.26288E-02 3.71352E-01 2.84663E-01
 -1      1373-1.04814E-01-1.39966E-01-5.15289E-02-3.25482E-02 3.09679E-01 1.71350E-01
 -1      1374-3.45985E-01-5.54147E-01-3.60053E-01 2.55014E-02-3.44342E-01 7.38001E-02
 -1      1375 1.02888E-01 1.19231E-01 7.18476E-02 6.37599E-02 2.80844E-01 1.47088E-01
 -1      1376-2.25501E-02-1.11322E-02-1.21522E-01 5.58129E-02 2.69077E-01 2.37704E-01
 -1      1377-6.51505E-02-6.59605E-02-1.48927E-01 1.46581E-02 2.81379E-01 4.34682E-01
 -1      1378 1.09254E+00 9.33892E-01 8.10572E-01 1.90485E-01 4.12169E-01 7.43228E-01
 -1      1379 2.00661E-02-1.07614E-01-2.63352E-01-5.76869E-02-2.70053E-01 4.25671E-01
 -1      1380 5.80144E-01 3.00739E-01 2.14834E-01 2.60446E-02 2.34160E-01 5.97387E-01
 -1      1381-2.31859E-01-2.23616E-01-3.94812E-01-5.41915E-02-2.01630E-01 6.01920E-01
 -1      1382-3.77896E-01-3.59478E-01-3.51602E-01-6.30614E-02 3.61720E-01 6.70578E-01
 -1      1383-2.68557E-01-2.69483E-01-4.09785E-01 2.52392E-03 2.08818E-01 7.14167E-01
 -1      1384-4.50749E-02-9.82189E-02-2.81344E-01 3.54447E-02 1.78262E-01 6.16099E-01
 -1      1385 1.74130E-01 2.63707E-01 1.94514E-01 1.32944E-02 3.60901E-01 1.74922E-01
 -1      1386-9.35180E-02-9.85442E-02-4.69187E-02-2.98192E-02 2.93642E-01 8.41943E-02
 -1      1387 2.24091E-01 3.60164E-01 2.33702E-01 1.70032E-03 2.47135E-01 4.23396E-02
 -1      1388 1.31871E-01 3.90406E-02 2.58715E-02 5.55451E-02 3.98171E-01 3.16505E-01
 -1      1389 3.01056E-01 2.88996E-01 3.04157E-01-2.11078E-02-2.82036E-01 6.01507E-01
 -1      1390-1.72702E+00-1.34968E+00-1.23068E+00 2.43966E-01-4.46799E-01 8.35870E-01
 -1      1391-3.69576E-01-1.59191E-01-2.51477E-01 1.84801E-02-4.96997E-01 5.84002E-01
 -1      1392-1.61498E+00-1.09228E+00-1.08291E+00 1.20244E-01-2.51469E-01 9.03767E-01
 -1      1393 3.40208E-02 1.85351E-02 1.61157E-02-1.65649E-02-3.29693E-02 4.73702E-02
 -1      1394 7.30714E-02 8.27217E-04 1.59832E-01 2.45415E-03-2.43729E-01 1.44366E-01
 -1      1395 1.03992E+00 6.49933E-01 6.75941E-01-3.38570E-02-1.35256E-01 9.90219E-01
 -1      1396 1.30094E-01 1.75033E-02 5.34278E-02 2.60212E-02-2.23988E-01 7.44141E-01
 -1      1397 1.21062E+00 1.04148E+00 9.00837E-01-2.24103E-01-4.26360E-01 7.41807E-01
 -1      1398 1.64826E-01 1.55770E-01 4.31455E-02-6.10046E-02-3.83578E-01 4.86086E-01
 -1      1399 1.79369E-01 3.22526E-01 1.41843E-01-1.48061E-02-3.46540E-01 1.98985E-01
 -1      1400-3.18591E-02-2.57501E-02-6.07528E-02-8.20619E-03-1.58577E-01 4.90564E-02
 -1      1401 1.38809E-01 1.47934E-01 1.47799E-01 4.43185E-02-3.71516E-02 1.80847E-03
 -1      1402-3.46599E-01-4.94500E-01-3.36440E-01-4.07196E-02 3.35414E-01 1.01748E-01
 -1      1403-5.19651E-01-7.24368E-01-4.97608E-01-1.00913E-01 4.36435E-01 2.27432E-01
 -1      1404 1.57785E-01 1.32085E-01 1.63633E-01 1.47290E-02 3.59288E-01 3.15883E-01
 -1      1405-7.92074E-01-1.54467E-01-4.00552E-01-1.43306E-01 4.81459E-01 5.63186E-01
 -1      1406-1.39242E+00-1.07930E+00-9.88689E-01-1.92660E-01 4.17201E-01 7.80498E-01
 -1      1407-2.96607E-01-2.92202E-01-2.47018E-01-1.84599E-01 2.06275E-01 7.85004E-01
 -1      1408-1.66675E+00-1.11705E+00-1.11352E+00-4.51619E-02 9.64122E-02 9.78959E-01
 -1      1409-6.77291E-01-5.65526E-01-5.28540E-01 4.43147E-02-1.03665E-01-3.05763E-01
 -1      1410 6.12447E-01 6.04979E-01 5.20815E-01-8.12129E-02-5.82675E-02-3.33180E-01
 -1      1411 4.09346E-01 3.83997E-01 3.24948E-01 5.46388E-02 8.47280E-02-3.00789E-01
 -1      1412 3.11573E-01 4.13155E-01-7.20186E-03-3.72973E-01 4.74072E-02-1.13419E-01
 -1      1413 6.08640E-01 1.71235E-01 9.03243E-02-3.09323E-01 2.09693E-01-3.43061E-01
 -1      1414 6.13024E-01 2.28166E-01 1.13171E-01-3.13455E-01 2.45006E-01-4.00639E-01
 -1      1415-3.57339E-01-1.95696E-01-6.58516E-02-1.94450E-01 4.08485E-03-1.26622E-01
 -1      1416-3.36450E-01-2.95680E-01-2.90789E-01-7.05199E-02 3.51265E-02-3.89731E-01
 -1      1417 1.19049E+00 8.51543E-01 7.73241E-01-7.16204E-03-3.63488E-02-2.80953E-01
 -1      1418 5.42898E-01 1.06916E+00 2.07688E-01-2.79374E-01 3.87285E-02-2.10072E-01
 -1      1419-4.42273E-01-1.59968E-01 5.21237E-02 7.12892E-02 2.62085E-02-1.46018E-01
 -1      1420 2.68644E-01 2.13363E-01 2.50443E-01 4.57187E-02 3.67225E-02-3.66165E-01
 -1      1421 2.02500E-02 4.72436E-02 5.30849E-02-1.07965E-01-9.97465E-03-4.01701E-01
 -1      1422-1.06502E+00-7.94743E-01-6.70084E-01 4.89249E-02-3.12178E-02-3.06425E-01
 -1      1423 3.28232E-01 1.36913E+00 1.63397E-01-6.06520E-02-7.46121E-02-1.81482E-01
 -1      1424 5.03794E-01 1.04265E+00 1.33781E-01 3.99906E-01 5.23189E-03-1.90706E-01
 -1      1425 5.42026E-01 7.42884E-01 3.06257E-01-4.20342E-01 1.94973E-01-2.44597E-01
 -1      1426 4.43442E-01 5.33811E-01 1.43215E-01-4.26152E-01 2.19008E-01-2.21726E-01
 -1      1427 4.79270E-01 5.51145E-01 5.93648E-01-3.47705E-01 2.43618E-01-4.14072E-01
 -1      1428 3.60817E-01 3.66386E-01 4.74087E-01-2.81479E-01 2.71358E-01-3.64012E-01
 -1      1429 8.00701E-01 6.59473E-01 5.32114E-01-3.00158E-02-7.82775E-03-2.92114E-01
 -1      1430 4.29195E-02 2.16320E-02 3.43941E-02-4.56141E-02-1.28965E-03-1.27454E-01
 -1      1431-3.80156E-01-3.03163E-01-2.78990E-01 8.52859E-02-2.00007E-02-3.45920E-01
 -1      1432-7.42779E-01-5.45230E-01-4.91165E-01-2.13277E-02 4.96733E-02-3.00073E-01
 -1      1433-6.14333E-01-5.18684E-01-1.25858E-01 3.14004E-01 4.32490E-02-2.06157E-01
 -1      1434-5.19085E-01-4.14674E-01-3.48857E-01-2.31547E-02 5.34900E-02-3.48976E-01
 -1      1435-7.24841E-01-7.51256E-01-6.48958E-01-1.78962E-02-2.79822E-03-2.79517E-01
 -1      1436-1.81470E-01-1.13442E+00-1.17709E-01 1.78138E-02 2.56641E-02-1.45618E-01
 -1      1437-2.99489E-01-9.22532E-01-3.00764E-02 3.64525E-01-5.40826E-03-1.18381E-01
 -1      1438 3.84215E-01 3.20146E-01 2.55467E-01-5.76281E-02-6.30646E-02-3.86391E-01
 -1      1439 5.34999E-01 5.09723E-01 1.53734E-02 3.24315E-01 6.46518E-03-1.50249E-01
 -1      1440 4.75554E-01 2.19314E-01 4.23543E-01-1.67125E-01 2.50001E-01-5.25074E-01
 -1      1441 3.69747E-01 9.39204E-02 3.62918E-01-1.90120E-01 3.37342E-01-5.41731E-01
 -1      1442 1.40603E-02-1.21893E-02-1.21326E-02 2.63415E-02 4.65371E-02-3.67071E-01
 -1      1443-5.24145E-01-1.62206E-01-3.34614E-01-2.08831E-01-2.46702E-01-5.28450E-01
 -1      1444-3.67716E-01-8.05480E-02-2.09839E-01-1.71940E-01-2.87297E-01-4.81862E-01
 -1      1445 1.79684E-01 7.96713E-01 5.02559E-01 6.68492E-02-1.25578E-01-1.77939E-01
 -1      1446 2.04071E-01 1.24605E+00 6.94083E-01 1.28336E-01-1.15684E-01-2.42676E-01
 -1      1447-4.64258E-01-5.17788E-01-5.78946E-02-3.63490E-01-2.13789E-02-1.59617E-01
 -1      1448 6.09163E-02 1.65982E-02 7.72372E-02 5.75083E-02-2.90742E-02-2.01532E-01
 -1      1449-2.71329E-01-9.30550E-01-5.48439E-02-3.32770E-01-3.28184E-02-1.03995E-01
 -1      1450-6.77785E-01-2.66079E-01-3.11514E-01 2.46513E-01 2.43097E-01-4.03742E-01
 -1      1451-5.78945E-01-1.97653E-01-1.96458E-01 2.52252E-01 3.03676E-01-3.92617E-01
 -1      1452 4.33717E-01 1.24178E-01-3.42441E-02 1.51196E-01-2.40591E-02-1.34506E-01
 -1      1453 1.72797E-01 9.54151E-01 5.54450E-01-2.09822E-01 7.37944E-02-2.57751E-01
 -1      1454 1.27579E-01 8.31963E-01 4.78514E-01-2.26256E-01 8.07604E-02-1.64326E-01
 -1      1455 5.11179E-01 1.60900E-01 1.39537E-01-2.58995E-01 1.93235E-01-3.98138E-01
 -1      1456 4.71484E-01 1.79739E-01 1.30976E-01-2.44014E-01 2.05103E-01-4.36545E-01
 -1      1457 2.28657E-01-2.50283E-02-2.97936E-03 1.18501E-01 3.92283E-02-4.79765E-01
 -1      1458 1.94047E-01-4.84522E-02-4.93622E-02 1.13713E-01 1.96912E-02-5.23516E-01
 -1      1459 6.93607E-01 9.38782E-01 5.67808E-01-4.04941E-01 3.08929E-01-2.21004E-01
 -1      1460 3.17423E-01 4.52355E-01 2.31659E-01-2.68693E-01 2.71508E-01-1.75918E-01
 -1      1461-6.15678E-01-9.00095E-01-3.42497E-01 4.61942E-01 1.73029E-01-2.55794E-01
 -1      1462-4.57895E-01-7.19600E-01-2.17501E-01 4.11661E-01 2.21547E-01-2.14948E-01
 -1      1463-4.39636E-01-1.15105E-01-2.93546E-01 2.05879E-01 1.62089E-01-5.21164E-01
 -1      1464-4.10401E-01-1.10803E-01-3.34073E-01 1.88195E-01 2.32817E-01-5.20475E-01
 -1      1465 2.95407E-01 1.17463E+00 2.84285E-01-2.36202E-01 8.07218E-02-1.06445E-01
 -1      1466 1.82864E-01 8.14464E-01 1.64630E-02-2.02599E-01 6.63131E-02-9.24249E-02
 -1      1467-1.56052E-01-7.10084E-01-5.35297E-01 1.10631E-01 1.31509E-01-1.71361E-01
 -1      1468-7.75937E-02-6.40918E-01-4.93493E-01 1.57398E-01 1.72590E-01-9.66595E-02
 -1      1469-2.09926E-01-1.29204E+00-3.23841E-01 2.73979E-01 9.61320E-02-9.45010E-02
 -1      1470-1.88008E-01-1.13209E+00-2.07071E-01 2.47937E-01 1.30349E-01-2.71178E-02
 -1      1471 3.78592E-01 1.64249E+00 3.71711E-01 2.14490E-01-1.29934E-01-1.16035E-01
 -1      1472 2.09884E-01 1.17723E+00 1.01172E-01 1.47156E-01-1.41093E-01-7.54479E-02
 -1      1473 2.16310E-01-9.93102E-02-1.61097E-01-1.35256E-01-6.43334E-02-4.18512E-01
 -1      1474 2.60054E-01-4.26688E-02-8.77017E-02-1.75549E-01-2.25998E-02-4.37720E-01
 -1      1475 2.07654E-01-1.08644E-02 1.46100E-01 5.32372E-02 1.37857E-01-7.00073E-01
 -1      1476 9.93926E-02 6.09454E-04 8.91101E-02 3.36628E-02 1.36272E-01-6.96908E-01
 -1      1477-1.91521E-01-2.28669E-02-9.62302E-02 5.62690E-02-1.04521E-01-6.47309E-01
 -1      1478-1.75631E-01 2.17688E-04-1.10289E-01 3.52023E-02-1.50421E-01-6.76267E-01
 -1      1479-1.36532E-01-7.69318E-01-6.21122E-01-1.19546E-01-1.22054E-01-2.32195E-01
 -1      1480-7.95990E-02-6.45220E-01-5.47443E-01-1.27015E-01-1.10136E-01-1.34500E-01
 -1      1481 2.09648E-01 2.45140E-02 1.39020E-01-3.76774E-02-9.18802E-02-6.19205E-01
 -1      1482 1.42052E-01 8.25083E-03 1.06971E-01-4.20718E-02-9.37232E-02-5.93651E-01
 -1      1483 8.12986E-01 2.42167E-01 1.88748E-01-3.76937E-01 1.31942E-01-3.15304E-01
 -1      1484 7.92662E-01 2.89185E-01 1.72106E-01-3.68455E-01 1.72049E-01-3.34887E-01
 -1      1485-1.71330E-01-1.20059E+00-2.51126E-01-2.06197E-01-9.60582E-02-1.11714E-01
 -1      1486-1.54603E-01-1.05105E+00-1.46272E-01-1.53874E-01-1.51546E-01-7.79435E-02
 -1      1487-5.38721E-01-7.43206E-01-2.46447E-01-4.19924E-01-1.76106E-01-1.81872E-01
 -1      1488-3.87458E-01-5.95184E-01-1.07070E-01-4.11082E-01-2.21794E-01-1.62547E-01
 -1      1489-3.15060E-01-6.55227E-01-1.88314E-01 3.33625E-01 2.04964E-01-2.19549E-01
 -1      1490-1.97433E-01-3.92813E-01-1.99804E-02 1.76688E-01 2.39027E-01-1.44014E-01
 -1      1491-3.49101E-01 4.44787E-02-8.12257E-02 9.78999E-02-1.23422E-01-5.02612E-01
 -1      1492-3.00791E-01 3.45578E-02-1.06322E-01 1.11644E-01-1.53241E-01-5.19205E-01
 -1      1493-3.16859E-01-2.02101E-02-1.56800E-01-7.49506E-02 1.94433E-02-4.38185E-01
 -1      1494-2.17080E-01-4.39184E-02-1.38465E-01-2.37894E-02 1.29045E-02-4.67507E-01
 -1      1495 6.83120E-01 9.82254E-01 2.64009E-01 5.78303E-01-1.35857E-01-2.16075E-01
 -1      1496 4.63850E-01 7.38382E-01 6.34369E-02 4.72744E-01-1.80102E-01-1.66652E-01
 -1      1497 8.12611E-01 6.36464E-01 5.19027E-01 1.72122E-02 3.78212E-02-2.98777E-01
 -1      1498-1.11433E-02 4.22890E-01-5.83139E-02-1.20934E-01 7.77539E-02-1.57349E-01
 -1      1499 3.98154E-01 1.93528E-01 2.55266E-01 1.55276E-01-2.27268E-01-4.43293E-01
 -1      1500 3.05474E-01 1.37535E-01 2.18796E-01 1.72167E-01-3.19059E-01-4.35523E-01
 -1      1501 4.11708E-01 5.12125E-01 4.84552E-01-1.92082E-01 1.33500E-01-3.98518E-01
 -1      1502 3.35353E-01 4.43114E-01 5.89981E-01-3.12506E-01 2.49004E-01-3.89282E-01
 -1      1503 1.15220E-01 9.70705E-01 3.19132E-01-1.67675E-01 1.24123E-01-1.22361E-01
 -1      1504 1.48643E-01 7.41940E-01 2.33956E-01-1.17062E-01 9.84363E-02-1.06069E-01
 -1      1505-8.72879E-01-1.27784E-01-8.84957E-02-1.89749E-01-2.33763E-01-4.20076E-01
 -1      1506-5.82757E-01-2.21800E-02 7.22033E-02-9.32369E-02-2.41505E-01-3.58384E-01
 -1      1507-2.62201E-01-4.44754E-01-4.25242E-01-2.36730E-01-1.87079E-01-2.23159E-01
 -1      1508-3.50081E-01-5.88745E-01-4.86882E-01-2.55601E-01-1.22843E-01-2.65486E-01
 -1      1509 4.81922E-01 6.02124E-01 4.72346E-01-3.31041E-01 2.51467E-01-3.16234E-01
 -1      1510 3.04606E-01 3.39747E-01 3.30961E-01-2.51270E-01 2.66637E-01-2.79612E-01
 -1      1511 5.42731E-01 8.23168E-01 1.03768E-01-5.41418E-01 1.19040E-01-1.76768E-01
 -1      1512 5.65384E-01 7.37193E-01 3.89308E-02-5.44014E-01 2.06772E-01-1.95656E-01
 -1      1513-1.53137E-01 3.98626E-02-1.49644E-01-6.48136E-02 1.22637E-01-7.07772E-01
 -1      1514-2.57689E-01-9.68326E-03-2.29117E-01-6.24209E-02 1.14744E-01-7.24035E-01
 -1      1515 4.69439E-01 2.01382E-01 7.17385E-02-4.44036E-02-2.38177E-02-1.42045E-01
 -1      1516 3.98251E-01 2.57873E-01 2.26652E-01 5.90396E-02 8.44417E-02-3.40542E-01
 -1      1517-3.06061E-01-1.41623E+00-4.55803E-01 2.68992E-01 7.75466E-02-1.01186E-01
 -1      1518-1.82556E-01-1.13336E+00-2.65549E-01 2.14659E-01 1.40186E-01-8.68531E-02
 -1      1519 4.57736E-01 2.14524E-01 2.53208E-01 1.70942E-01-2.25491E-01-5.10525E-01
 -1      1520 4.07466E-01 1.25147E-01 1.70056E-01 1.85564E-01-2.89020E-01-5.32967E-01
 -1      1521 7.27388E-01 3.80528E-01 2.75327E-03-3.96315E-01 8.15026E-02-2.00420E-01
 -1      1522 4.48290E-01 7.08825E-01 3.25580E-01 4.16020E-01-2.26816E-01-2.16059E-01
 -1      1523 3.82432E-01 4.54847E-01 1.49283E-01 3.60142E-01-2.03537E-01-2.25922E-01
 -1      1524 2.01830E-01 1.20193E+00 4.20491E-01 1.78602E-01-4.51787E-02-1.24499E-01
 -1      1525 2.27640E-01 1.06560E+00 3.47226E-01 1.39994E-01-8.27359E-02-7.74830E-02
 -1      1526 7.43810E-01 2.71802E-01 7.36521E-02 2.17436E-01-1.33250E-01-1.84884E-01
 -1      1527 5.22178E-01 7.52997E-02 2.20807E-02 1.93136E-01-1.89731E-01-3.48332E-01
 -1      1528 7.52676E-01 2.22052E-01 2.19109E-01 2.31995E-01-1.43103E-01-3.65633E-01
 -1      1529 5.58689E-01 4.86919E-01 4.69880E-01-7.39374E-02-9.77059E-02-3.55289E-01
 -1      1530-1.18608E+00-8.95375E-01-9.45307E-01-1.33364E-02-8.47257E-02-4.83395E-01
 -1      1531-1.99472E-01-1.11833E+00-3.53307E-01-1.98696E-01-7.88099E-02-1.00754E-01
 -1      1532-1.41895E-01-9.34932E-01-2.80897E-01-1.79502E-01-1.23465E-01-4.80750E-02
 -1      1533-2.69656E-01 9.80186E-02 3.13807E-03-1.18623E-01 4.20285E-02-3.26296E-01
 -1      1534-1.71682E-01 1.34541E-02 3.66446E-02-1.79258E-01 3.35828E-02-3.71039E-01
 -1      1535 2.63944E-01 1.13024E+00 5.11742E-01-2.54747E-01 1.43409E-01-1.41204E-01
 -1      1536 1.60932E-01 8.28544E-01 3.12622E-01-1.80994E-01 1.68008E-01-7.32504E-02
 -1      1537 6.56592E-01 9.57449E-01 2.89475E-01 5.88638E-01-1.33791E-01-1.96629E-01
 -1      1538 5.03070E-01 8.33712E-01 1.41139E-01 4.79839E-01-1.51306E-01-1.42175E-01
 -1      1539-3.97529E-01-5.32365E-01-5.75533E-01 2.87513E-01 1.49784E-01-3.68006E-01
 -1      1540-2.81547E-01-3.17393E-01-4.57257E-01 2.53480E-01 1.69100E-01-3.10118E-01
 -1      1541 1.59843E-01 8.99593E-01 6.33752E-01 8.04658E-02-1.64411E-02-3.13660E-01
 -1      1542 5.17809E-01 9.09319E-01 8.98861E-01 1.91546E-02 5.81885E-03-3.90942E-01
 -1      1543 1.15975E-01 6.87955E-02 1.12554E-01-2.96378E-02-1.77655E-02-5.24102E-01
 -1      1544 1.17031E-01 9.12925E-05 1.14687E-01-4.47758E-02-6.92085E-02-6.02753E-01
 -1      1545 7.34211E-01 6.00666E-01 5.66679E-01 1.37691E-01-3.68114E-02-3.71832E-01
 -1      1546-5.50320E-01-7.24970E-01-8.90632E-02-5.42052E-01-1.22484E-01-1.37079E-01
 -1      1547-5.44058E-01-7.29787E-01-8.06440E-02-5.31533E-01-1.84717E-01-1.51029E-01
 -1      1548 7.37987E-01 1.99613E-01 7.84350E-02-2.32867E-01-2.51261E-02-1.27333E-01
 -1      1549-3.48413E-01-8.03564E-01-7.96762E-02-4.27913E-01-8.07018E-02-1.52771E-01
 -1      1550-2.77387E-01-1.19226E+00-4.71191E-01 2.09997E-01 2.73286E-02-9.68745E-02
 -1      1551-1.69465E-01-1.05029E+00-3.20661E-01 1.52749E-01 3.94100E-02-3.34400E-02
 -1      1552 1.27082E+00 1.04302E+00 9.14394E-01-3.77275E-02-1.35440E-03-3.43633E-01
 -1      1553 3.05097E-01 2.95860E-02 1.60490E-01 4.36217E-02 1.17199E-01-5.34241E-01
 -1      1554 2.27941E-01-7.13355E-02 3.94364E-02 2.21253E-02 1.72505E-01-5.85771E-01
 -1      1555 4.29207E-01 8.69709E-02 3.17424E-01-7.88574E-02-5.58794E-02-5.82798E-01
 -1      1556 1.99030E-01-1.93172E-02 8.76836E-02-9.06200E-02-2.85520E-02-5.74568E-01
 -1      1557-1.36206E-01 5.21630E-02-2.03328E-02-2.41961E-02 1.20496E-01-5.29652E-01
 -1      1558-1.86202E-01-1.79201E-02-3.23507E-02-7.71187E-02 1.04952E-01-5.59022E-01
 -1      1559 4.90405E-01 1.72732E-01 3.57277E-01-2.12438E-01 2.79594E-01-4.81407E-01
 -1      1560 4.56425E-01 1.54286E-01 3.60375E-01-2.15786E-01 3.05420E-01-5.04485E-01
 -1      1561 6.99802E-01 6.85711E-01 4.99437E-01-1.59077E-02 4.05886E-02-3.39465E-01
 -1      1562 3.29178E-01 8.39726E-02 3.67978E-01 4.12784E-02 6.40279E-02-6.60288E-01
 -1      1563 3.77458E-01 9.65557E-02 4.03326E-01 1.31904E-01 4.50341E-02-7.09304E-01
 -1      1564-6.95323E-01-1.30987E-01-4.38108E-02-3.58454E-02 9.73974E-02-2.05700E-01
 -1      1565 4.61284E-01 2.02353E-01 2.77877E-01-1.37407E-01 1.86225E-01-4.88442E-01
 -1      1566 4.67994E-01 1.60967E-01 3.13430E-01-1.29760E-01 2.61522E-01-4.96712E-01
 -1      1567-3.89738E-01-2.12481E-01-3.50342E-01 9.87134E-02 1.14752E-01-4.32207E-01
 -1      1568-3.67049E-01-8.85647E-02-4.10998E-01 1.64413E-01 1.78056E-01-4.96445E-01
 -1      1569 6.10953E-01 7.58305E-01 3.76494E-01-4.94339E-01 2.70634E-01-2.44546E-01
 -1      1570 3.88605E-01 4.19746E-01 1.69052E-01-3.36838E-01 2.77022E-01-2.01331E-01
 -1      1571 5.80617E-01 1.43688E+00 2.31612E-01-4.10531E-01 1.78503E-02-5.11322E-03
 -1      1572 3.25233E-01 1.33212E+00 5.63432E-02-2.68777E-01 1.92772E-02-1.22690E-01
 -1      1573 2.09712E-01 9.70020E-01-2.05783E-01-2.12080E-01 1.25078E-02-4.36032E-02
 -1      1574-7.99961E-01-2.48087E-01-3.32933E-01-2.00842E-01-2.29075E-01-5.05637E-01
 -1      1575-5.09438E-01-6.84362E-02-8.48660E-02-7.38248E-02-2.12437E-01-4.39064E-01
 -1      1576 4.99938E-01 4.39370E-01 5.35241E-01 2.65519E-02 8.40415E-02-3.40922E-01
 -1      1577 5.05520E-01 6.69531E-01 9.32742E-02-6.16875E-01 2.05945E-02-7.74421E-02
 -1      1578 6.18796E-01 1.11326E+00 1.52998E-01-5.46143E-01 4.78641E-03-2.38685E-01
 -1      1579-7.33157E-01-9.30744E-01-2.39012E-01 5.89719E-01 1.57062E-01-1.67693E-01
 -1      1580-5.68345E-01-7.61934E-01-7.48013E-02 5.10812E-01 1.86027E-01-1.36453E-01
 -1      1581 3.73387E-01 5.14026E-01 4.33192E-01 3.37474E-01-2.70808E-01-3.51766E-01
 -1      1582 2.94341E-01 4.32435E-01 3.90916E-01 3.11752E-01-3.18683E-01-2.96382E-01
 -1      1583 4.48472E-01-4.07148E-02 2.08875E-01 1.66558E-01 6.71219E-02-3.90474E-01
 -1      1584 2.21740E-01-4.95670E-02 8.48725E-03 1.50948E-01 5.23723E-02-4.28928E-01
 -1      1585-3.71180E-01-4.69164E-01-4.99293E-01-1.91275E-01-6.67478E-02-3.11663E-01
 -1      1586-5.83864E-01-5.65802E-01-7.21998E-01-2.44687E-01-7.83492E-02-4.13895E-01
 -1      1587 8.32407E-01 8.66065E-01 1.20611E-01 7.56215E-01-4.45337E-02-1.62822E-01
 -1      1588-1.63160E-01-8.02377E-01-4.96446E-01 1.33044E-01 8.31021E-02-1.83708E-01
 -1      1589-5.59374E-02-7.07007E-01-4.60380E-01 1.40308E-01 1.08988E-01-9.92286E-02
 -1      1590-6.77086E-01-5.53171E-01-4.56289E-01-6.73093E-02 3.13375E-02-4.74076E-01
 -1      1591-6.53717E-01-7.01333E-01-6.98534E-01-3.66492E-01-2.37594E-01-3.61840E-01
 -1      1592-3.43763E-01-3.61665E-01-4.10098E-01-3.22682E-01-3.13748E-01-2.89187E-01
 -1      1593 5.57853E-01 2.04082E-01 2.19663E-01 2.34762E-01-2.34400E-01-4.23293E-01
 -1      1594 5.17833E-01 1.71298E-01 1.96741E-01 2.76315E-01-2.97101E-01-4.61608E-01
 -1      1595 1.44296E-01 4.08061E-02 2.15174E-02 1.47707E-01-7.21332E-04-3.96148E-01
 -1      1596-4.48753E-01-3.35278E-01-2.84436E-01 8.20095E-02 1.99861E-02-3.43746E-01
 -1      1597-8.84619E-01-1.85740E-01-1.61669E-01-2.28827E-01-1.64315E-01-3.43026E-01
 -1      1598-6.65152E-01-1.28693E-01-2.16150E-04-1.17312E-01-2.22525E-01-3.48949E-01
 -1      1599-1.01598E+00-9.00088E-01-8.29964E-01-9.13260E-02 5.62922E-02-3.51227E-01
 -1      1600-6.61050E-01-8.23803E-01-4.45473E-01-5.03130E-01-2.34255E-01-2.07202E-01
 -1      1601-4.26808E-01-5.58397E-01-2.35404E-01-3.61919E-01-2.39316E-01-1.72585E-01
 -1      1602 6.77315E-01 3.59420E-01 2.77841E-01 1.15996E-01 1.03039E-01-3.36705E-01
 -1      1603-6.36297E-01-7.04069E-01-1.69593E-01 5.42833E-01 1.23812E-02-9.70445E-02
 -1      1604 3.70859E-01 4.20817E-01 5.20547E-01 2.93575E-01-2.01541E-01-4.26358E-01
 -1      1605 2.74507E-01 3.41337E-01 4.96859E-01 2.30872E-01-2.24439E-01-3.28777E-01
 -1      1606 3.54873E-01 5.58185E-01 3.76526E-01 3.28374E-01-2.32810E-01-2.60200E-01
 -1      1607 3.03663E-01 5.22720E-01 3.64539E-01 3.07296E-01-3.01108E-01-2.41880E-01
 -1      1608 2.73640E-01 2.79561E-01 2.28822E-01-1.66149E-01-3.81940E-02-4.08489E-01
 -1      1609 7.93024E-01 7.25799E-01 6.04416E-01 1.77757E-02-5.69797E-02-3.13663E-01
 -1      1610-4.73202E-01-6.84013E-01-2.76637E-01 3.93528E-01 2.86006E-01-3.42500E-01
 -1      1611-2.78451E-01-4.13315E-01-1.16029E-01 2.33869E-01 2.90401E-01-2.29197E-01
 -1      1612-6.72031E-01-1.43921E-01-1.25862E-01 2.31967E-01 2.84229E-01-4.68319E-01
 -1      1613-5.28128E-01-1.44892E-01-1.08259E-01 1.91015E-01 3.08879E-01-4.54868E-01
 -1      1614-2.39238E-01-5.99439E-01-5.83913E-01-8.27260E-02-1.09154E-01-3.08018E-01
 -1      1615-5.98673E-01-9.43791E-01-1.03441E+00-1.30623E-01-1.34198E-01-4.01086E-01
 -1      1616-7.54063E-01-1.60479E-01-1.92165E-01 2.88734E-01 9.70234E-02-3.25731E-01
 -1      1617-6.40648E-01-1.75889E-01-1.28049E-01 2.12516E-01 1.26560E-01-2.96628E-01
 -1      1618 2.09006E-01-1.74614E-01 2.10184E-02 1.66713E-01 6.71023E-02-1.97774E-01
 -1      1619-2.81097E-01-1.47505E+00-1.27968E-01 4.63933E-01-1.51756E-02-1.11919E-01
 -1      1620 1.65643E-01 8.85116E-03 1.47658E-01-1.66775E-02-9.37788E-02-5.70577E-01
 -1      1621 1.90783E-01-5.83316E-03 1.48243E-01 2.56813E-03-1.19960E-01-6.31710E-01
 -1      1622-2.16379E-01 4.67814E-02-2.25608E-02-1.25399E-01 1.70475E-02-1.83017E-01
 -1      1623-1.53048E-01-4.22336E-01-3.98953E-01-2.29452E-01-2.73351E-01-2.24824E-01
 -1      1624-3.27245E-01-5.47032E-01-4.83867E-01-2.75690E-01-2.36981E-01-2.82932E-01
 -1      1625-2.03750E-01-1.40983E+00-2.17840E-01 2.83242E-01 2.99232E-02-8.83594E-02
 -1      1626-1.99488E-01-1.41647E+00-1.73091E-01 2.65993E-01 5.33755E-02-1.75886E-02
 -1      1627 1.71310E-02-4.15445E-01 4.88680E-02 5.98998E-02 4.74663E-04-1.87538E-01
 -1      1628-1.38381E+00-1.04571E+00-9.33575E-01 8.86193E-02-4.72415E-02-4.74932E-01
 -1      1629-2.47832E-01 6.40160E-02-9.39159E-02 2.76930E-02-7.94086E-02-5.57244E-01
 -1      1630-2.27318E-01 5.02208E-02-3.61769E-02 7.81775E-02-8.24161E-02-6.09434E-01
 -1      1631-4.38280E-01-4.98847E-02-1.11716E-01 1.36758E-01-5.04514E-02-3.73921E-01
 -1      1632-3.64592E-01 2.21504E-02-3.25840E-02 1.07630E-01-9.38896E-02-3.93963E-01
 -1      1633 4.63990E-01-8.04309E-02-6.56309E-03-2.24343E-01-8.18777E-02-3.52883E-01
 -1      1634 2.40738E-01-1.00698E-01-1.34332E-01-1.98988E-01-6.26000E-02-3.38924E-01
 -1      1635 1.12079E+00 9.30122E-01 6.94366E-01-1.56627E-02-1.99613E-02-3.43775E-01
 -1      1636-1.98645E-01-8.67261E-01-4.43150E-01-1.33386E-01-5.28007E-02-1.95235E-01
 -1      1637-8.52783E-02-6.21174E-01-3.16411E-01-7.09353E-02-7.15958E-02-1.55808E-01
 -1      1638-2.87707E-01-2.56984E-02-4.12480E-01-4.10318E-02 8.49674E-02-6.73145E-01
 -1      1639-1.79852E-01-1.48379E-02-2.62739E-01-5.85147E-02 6.09808E-02-6.99561E-01
 -1      1640-4.27982E-01-1.71020E-01-2.56263E-01 1.97298E-01 2.50719E-01-5.11324E-01
 -1      1641-4.59357E-01-1.27716E-01-1.85887E-01 1.68843E-01 3.03761E-01-5.77174E-01
 -1      1642 1.37352E-01-9.93636E-02 1.53799E-02-9.66503E-02-2.09210E-02-7.37195E-02
 -1      1643-8.87142E-02-1.42187E+00-1.43732E-01 1.21126E-01 2.99376E-02-1.30652E-01
 -1      1644-3.15087E-01-1.03972E+00-5.61375E-01 1.65321E-01 2.99830E-02-2.06240E-01
 -1      1645-1.53118E-01-7.18110E-01-4.03784E-01 1.34816E-01 5.14233E-02-1.92023E-01
 -1      1646 3.90951E-01 1.58421E+00 2.63062E-01 1.97699E-01-8.30585E-02-1.14284E-01
 -1      1647 1.26476E-01 1.19040E+00-4.33025E-02 1.19398E-01-7.54499E-02 3.27662E-03
 -1      1648 5.06997E-01 2.80775E-01 4.02146E-01 1.67706E-01-2.37436E-01-4.87062E-01
 -1      1649 4.10438E-01 1.78792E-01 3.20393E-01 1.83352E-01-3.14530E-01-4.99566E-01
 -1      1650 2.84677E-01 9.31920E-03 1.51829E-01 9.33875E-02 4.96769E-02-5.17183E-01
 -1      1651 3.56984E-01 3.99827E-02 2.06857E-01 4.95941E-02 5.52820E-02-5.73815E-01
 -1      1652-1.26361E+00-9.25383E-01-8.20039E-01 4.44618E-02 3.74954E-02-4.84652E-01
 -1      1653-9.66414E-01-7.59642E-01-7.43110E-01-1.18153E-02-4.66873E-02-3.51450E-01
 -1      1654-1.90837E-01-8.51079E-01-5.69548E-01-1.47780E-01-1.24502E-01-2.23092E-01
 -1      1655-1.21480E-01-6.27165E-01-4.35912E-01-1.51703E-01-1.22684E-01-1.40729E-01
 -1      1656-5.39285E-02-4.01223E-02 7.98429E-02-1.61015E-01-9.91664E-03-4.56147E-01
 -1      1657 2.45280E-01 1.40657E-01 2.61697E-01 1.32986E-01-1.51405E-01-4.25945E-01
 -1      1658 3.17852E-01 1.76846E-01 3.39212E-01 1.71899E-01-2.50004E-01-4.73121E-01
 -1      1659-1.94246E-01-4.97311E-02-1.64990E-01 5.14566E-02-3.97693E-02-6.28438E-01
 -1      1660-1.40062E-01 9.48071E-03-1.26812E-01 7.72284E-02-9.94841E-02-6.51403E-01
 -1      1661 6.32954E-01 8.43711E-01 1.99162E-01 5.34478E-01-1.71803E-01-1.52558E-01
 -1      1662 3.39948E-01 4.47925E-01 1.84610E-03 3.13166E-01-1.56584E-01-1.58702E-01
 -1      1663-7.31720E-02-6.98664E-01-2.39126E-01-8.13754E-02-7.76370E-02-1.52778E-01
 -1      1664 3.60611E-01 7.68227E-01 5.77688E-01-1.28109E-01 2.73837E-02-3.32996E-01
 -1      1665 1.17493E-01 8.06453E-01 6.92156E-01-2.30999E-01 9.89920E-02-2.17029E-01
 -1      1666 4.63513E-01 9.72025E-02 6.76911E-03-6.16833E-02-1.70421E-02-1.85220E-01
 -1      1667-2.28502E-01 6.71036E-02-2.33561E-02-3.78789E-02 1.31555E-01-7.07543E-01
 -1      1668-3.00774E-01 3.27886E-02-1.40297E-01-3.03495E-02 1.38330E-01-7.31800E-01
 -1      1669 7.06633E-01 1.06408E+00 1.70931E-01 5.30446E-01-5.18177E-02-2.34540E-01
 -1      1670-5.32137E-01-8.59838E-01-6.16966E-02-5.80894E-01-1.45389E-01-1.37126E-01
 -1      1671 4.03924E-01 1.98984E+00 2.94003E-01 1.73874E-01-8.90961E-02-2.92815E-01
 -1      1672 1.28221E+00 9.25567E-01 8.86005E-01 4.33212E-02-5.55044E-02-3.57862E-01
 -1      1673-3.96856E-01-3.31254E-01-3.80282E-01 1.26845E-01 2.78001E-02-4.65273E-01
 -1      1674 8.99711E-01 2.29855E-01-2.76914E-02-4.12288E-01 1.27459E-01-1.75901E-01
 -1      1675-3.20193E-01 2.00852E-01 7.35304E-02 1.33748E-01-9.12884E-02-2.34844E-01
 -1      1676-1.28266E-01 9.95222E-02 3.48940E-02-5.15735E-02 1.48543E-01-7.25851E-01
 -1      1677-1.92393E-01 6.60954E-02-5.50617E-02-1.85380E-02 1.53270E-01-7.60480E-01
 -1      1678-6.27189E-01-1.91135E-01-2.17294E-01 2.65885E-01 2.61030E-01-3.91915E-01
 -1      1679-5.58183E-01-1.48498E-01-1.06687E-01 2.56231E-01 3.54562E-01-3.93714E-01
 -1      1680 4.32127E-01 7.82223E-01 1.33678E-01-2.34351E-01 1.23237E-01-2.72589E-01
 -1      1681 3.98253E-01 1.42582E+00 2.32610E-01-2.65669E-01-7.48326E-03-1.21365E-01
 -1      1682 5.67791E-01 1.42124E+00 1.55916E-01-1.62497E-01 2.44881E-02-1.27765E-01
 -1      1683 3.27565E-01 4.53696E-01 2.58338E-02 2.61756E-01-6.43827E-02-2.27279E-01
 -1      1684 2.83569E-02-1.64327E-01 1.99650E-01-2.28124E-01-5.01905E-02-9.63919E-02
 -1      1685 1.28929E+00 1.06483E+00 8.40535E-01 2.40141E-02 6.74301E-02-6.78599E-01
 -1      1686 5.77557E-01 1.83276E-01 2.78292E-02 1.70464E-02 5.59085E-02-2.48843E-01
 -1      1687-5.16444E-01-6.53562E-01-2.53164E-02-6.58504E-01-5.47500E-02-3.63699E-02
 -1      1688 1.10585E-01-8.77126E-02-5.41177E-02 6.38332E-02 1.30558E-01-6.60749E-01
 -1      1689 1.16985E-01-4.20997E-02-1.41823E-02 8.46191E-02 1.10414E-01-6.87702E-01
 -1      1690 6.82170E-01 1.98818E-01 7.26494E-02-1.17295E-01-2.01085E-03-2.65557E-01
 -1      1691-4.80369E-01-5.81769E-01-3.24815E-02 3.34157E-01-2.27400E-04-1.69982E-01
 -1      1692-2.45767E-01-6.32351E-02-2.43035E-01 4.04247E-02-1.26096E-01-6.76537E-01
 -1      1693-2.29463E-01-2.64515E-02-2.18550E-01 2.69862E-02-1.56860E-01-7.04593E-01
 -1      1694 9.80111E-01 8.16869E-01 7.44651E-01-6.83704E-02 2.16441E-02-4.10804E-01
 -1      1695-1.88309E-02 2.80683E-01-6.22388E-02-1.67060E-01-2.01488E-02-9.02441E-02
 -1      1696 3.00510E-01-1.46094E-03-7.22079E-03-1.00792E-01-1.15356E-01-4.63049E-01
 -1      1697 2.66527E-01 1.18339E-02 6.27680E-02-1.39203E-01-4.09474E-02-5.16717E-01
 -1      1698-3.40543E-01-5.61333E-01-2.49805E-01 2.71768E-01 1.86380E-01-1.97031E-01
 -1      1699 4.02513E-01 5.26810E-01 1.00698E-01-2.51720E-01 9.06019E-02-1.85423E-01
 -1      1700-6.51796E-01-5.19486E-01-4.88449E-01-1.22533E-01-1.65948E-02-4.63518E-01
 -1      1701 4.97072E-02 6.00863E-01 1.96978E-01 7.25611E-02-1.27831E-01-1.39244E-01
 -1      1702-6.86421E-01-1.27619E-01 6.22377E-02 4.79941E-02-4.85516E-02-2.00765E-01
 -1      1703 1.41407E-01-5.74244E-02 9.39357E-02 1.40977E-01 1.42181E-02-9.49559E-02
 -1      1704-3.59775E-01-2.44999E-01-2.11632E-01-1.07962E-01 4.09818E-02-3.88473E-01
 -1      1705-6.81222E-01-1.15425E+00-4.50404E-02 5.95070E-01 4.42247E-02-1.06538E-01
 -1      1706 3.14044E-01 5.22542E-02 1.47312E-01 2.36616E-02 1.21739E-01-6.09884E-01
 -1      1707 2.61014E-01-8.36472E-03 1.20624E-01-3.45183E-02 2.10031E-01-6.44625E-01
 -1      1708-1.37855E+00-1.09547E+00-1.18237E+00-1.48180E-03-7.81911E-02-7.02540E-01
 -1      1709-5.68666E-01-9.32809E-01-3.80980E-01 4.00673E-01 1.60880E-01-2.23989E-01
 -1      1710-3.29365E-01-5.21208E-01-1.63270E-01 2.58848E-01 1.78357E-01-1.79263E-01
 -1      1711-2.63155E-01 2.94381E-02-9.64407E-02-2.08370E-02 1.14238E-01-6.64396E-01
 -1      1712-2.79048E-01 1.99481E-03-1.29487E-01-2.59899E-02 1.19503E-01-6.78123E-01
 -1      1713-2.73646E-01-4.99318E-01-3.44139E-01 2.77340E-01 2.02545E-01-2.34078E-01
 -1      1714-1.76087E-01-4.22278E-01-3.19610E-01 2.16085E-01 2.44642E-01-1.79812E-01
 -1      1715 1.31381E+00 1.05828E+00 8.86038E-01-1.33005E-02 2.99235E-03-5.58315E-01
 -1      1716-2.11565E-01 6.35816E-02 2.26633E-02-8.74272E-02 9.00447E-02-4.82465E-01
 -1      1717-1.31091E-01 2.49607E-02-3.37804E-02-8.06072E-02 1.29696E-02-4.15260E-01
 -1      1718-2.47472E-01 3.48996E-01 2.09091E-01-2.40777E-01-1.17089E-01-5.69077E-02
 -1      1719-4.94862E-01-2.20441E-01-6.18158E-01-1.58940E-01-1.25640E-01-5.32141E-01
 -1      1720-5.14627E-01-1.75412E-01-5.13055E-01-1.80014E-01-2.04306E-01-5.22125E-01
 -1      1721-8.09617E-01-5.49864E-01-6.57766E-01 1.14624E-01-3.30968E-02-4.20193E-01
 -1      1722 2.20218E-01-4.93103E-02 1.00953E-01 5.35436E-02 1.45181E-01-6.89589E-01
 -1      1723 9.27188E-02-4.65713E-02 1.98443E-02 7.35267E-02 1.24318E-01-7.29281E-01
 -1      1724-1.06891E+00-8.73951E-01-9.30693E-01-4.99365E-02-6.20875E-02-4.34002E-01
 -1      1725 4.14606E-01 2.90491E-01 2.92568E-01 6.26230E-02 4.91670E-02-3.98903E-01
 -1      1726-1.51900E-01 1.96624E-01-1.43689E-01 2.44675E-01 5.01903E-03-8.01892E-02
 -1      1727 1.17695E-02 5.62405E-01 8.37867E-02-5.16339E-02 1.20785E-01-7.37290E-02
 -1      1728 9.14166E-02-5.17989E-01-3.66249E-02 6.95001E-02 1.35560E-01-1.32148E-01
 -1      1729-2.67470E-01-1.16250E-01-1.26998E-01 6.41548E-02 2.86018E-02-4.64235E-01
 -1      1730 5.97916E-01 5.00323E-01 4.17601E-01-9.36334E-02 2.93774E-03-3.82173E-01
 -1      1731-7.55677E-01-3.26840E-01-4.71296E-01-2.18555E-01-2.47995E-01-5.46017E-01
 -1      1732-5.61081E-01-1.40126E-01-2.73135E-01-1.21949E-01-2.47701E-01-4.75672E-01
 -1      1733 1.48985E-01 2.98475E-03 1.28105E-01 6.93280E-02 6.49174E-02-6.51532E-01
 -1      1734 1.58786E-01-7.18409E-03 1.67413E-01 4.93977E-02 6.86483E-02-6.25627E-01
 -1      1735 1.03366E-01-3.04813E-01 1.34473E-01-5.92868E-02-3.15426E-02-1.26947E-01
 -1      1736-2.59552E-01-9.98122E-01-4.49721E-01-1.63767E-01-1.61131E-01-1.84465E-01
 -1      1737-1.02094E-01-5.98339E-01-2.27230E-01-1.07594E-01-1.08966E-01-1.26397E-01
 -1      1738-9.16380E-01-2.92118E-01-1.71633E-01 1.28225E-01 3.52816E-02-2.68520E-01
 -1      1739-8.63329E-01-4.50863E-01-7.38196E-02-3.08913E-01 1.05089E-02-2.78662E-01
 -1      1740-7.62248E-01-6.07286E-03 8.62862E-03-3.76803E-01-6.79188E-02-1.47081E-01
 -1      1741-3.36170E-01-6.85496E-01-5.94265E-01 4.10215E-02 8.62501E-02-2.94667E-01
 -1      1742-5.60497E-02-6.67272E-01-6.39713E-01 1.09823E-01 1.75777E-01-1.54440E-01
 -1      1743 7.99767E-01 9.84683E-01 2.84045E-01 5.76397E-01-8.92139E-02-1.95307E-01
 -1      1744 4.61263E-01 7.00586E-01 9.33179E-03 4.60029E-01-1.13836E-01-1.16602E-01
 -1      1745-2.87895E-01-1.36001E+00-6.22666E-02-4.29749E-01 4.25249E-02-9.75814E-02
 -1      1746-3.78839E-01-4.54300E-01-4.98686E-01 1.66526E-01 1.34308E-01-3.94092E-01
 -1      1747-6.34144E-01-6.07324E-01-7.96280E-01 1.89795E-01 1.42462E-01-4.81660E-01
 -1      1748-1.09574E+00-8.03138E-01-6.73050E-01-1.03927E-01-1.29539E-02-4.70515E-01
 -1      1749-1.04358E+00-7.78289E-01-7.67850E-01-1.04893E-01-2.58352E-02-4.61753E-01
 -1      1750 6.49898E-01 5.72206E-01 6.18098E-01 2.41982E-03-5.27804E-02-4.17870E-01
 -1      1751 3.01451E-01 3.72157E-01 7.65660E-01 1.89969E-01-1.81735E-01-3.81796E-01
 -1      1752 1.13645E+00 8.40587E-01 8.71127E-01-1.15613E-01 1.35611E-02-4.93966E-01
 -1      1753 1.00584E+00 7.63946E-01 6.32159E-01-7.12860E-02-1.46489E-02-3.82798E-01
 -1      1754-3.03484E-01-1.39130E-01 6.84946E-03-8.68234E-02 1.97276E-02-1.92888E-01
 -1      1755-6.19148E-01-2.84327E-01-4.94557E-01-1.59408E-01-1.59158E-01-5.46930E-01
 -1      1756-4.68218E-01-1.66464E-01-3.76749E-01-1.26597E-01-1.46939E-01-5.70699E-01
 -1      1757-5.31876E-01-1.56854E-01-2.41051E-01 1.83238E-01 2.48831E-01-4.87991E-01
 -1      1758-4.74745E-01-9.83152E-02-2.21614E-01 1.47915E-01 2.70729E-01-5.13360E-01
 -1      1759 4.74597E-01 1.39858E-01 4.96761E-02 7.83196E-02-1.81954E-02-1.76784E-01
 -1      1760 9.77307E-01 8.83989E-01 7.98305E-01 9.86852E-03 1.66460E-02-4.24890E-01
 -1      1761-2.55548E-01-2.17724E-01 4.58387E-02-2.46546E-01 8.19756E-03-2.27231E-01
 -1      1762-8.63350E-01-1.55950E-01-4.74166E-02 2.84464E-01 4.64781E-02-1.35794E-01
 -1      1763-6.59013E-01-3.39608E-01-1.11406E-01 3.01190E-01 4.07788E-02-2.66541E-01
 -1      1764 9.45201E-01 1.83055E-01 1.57362E-01 2.45587E-01-1.36089E-01-3.10054E-01
 -1      1765 7.30315E-01 9.46756E-02 1.87583E-03 2.28027E-01-1.78531E-01-2.62892E-01
 -1      1766 4.14770E-01 5.90064E-01 1.44322E-01 2.73029E-01-1.39825E-01-2.05302E-01
 -1      1767-6.59253E-01-3.15335E-01-5.87611E-01-1.89913E-01-2.40686E-01-5.09424E-01
 -1      1768-4.27947E-01-1.06323E-01-4.58750E-01-1.20191E-01-2.66525E-01-5.17066E-01
 -1      1769-8.02519E-01-8.41075E-01-1.38286E-01 5.76171E-01 1.34167E-01-2.07693E-01
 -1      1770-4.83377E-01-5.55078E-01 1.50070E-01 4.60015E-01 1.46473E-01-1.29893E-01
 -1      1771-6.50613E-01-7.77993E-01-5.61080E-01-4.38238E-01-2.20429E-01-3.27446E-01
 -1      1772-4.78783E-01-4.89581E-01-4.23127E-01-3.33725E-01-2.32423E-01-2.80922E-01
 -1      1773-5.74220E-01 8.21667E-02-1.24208E-02 2.21585E-01-9.86191E-02-2.56013E-01
 -1      1774 5.75886E-01 2.43632E-01 3.03642E-01-2.68115E-01 2.53021E-01-4.63416E-01
 -1      1775 4.73326E-01 1.61325E-01 2.07487E-01-1.86974E-01 2.29880E-01-4.49138E-01
 -1      1776-4.32104E-01-1.60792E-01-2.74672E-01 2.09712E-01 1.86397E-01-5.17714E-01
 -1      1777-3.81770E-01-9.51993E-02-1.98077E-01 1.88985E-01 2.46870E-01-5.36034E-01
 -1      1778 2.11663E-01 4.73221E-02 2.23681E-01 3.06043E-03-1.03888E-01-5.85949E-01
 -1      1779 1.70281E-01 1.30459E-02 1.79822E-01 1.59432E-02-1.15326E-01-6.06776E-01
 -1      1780 3.30083E-01 5.61781E-01 4.00082E-01 3.35070E-01-2.31366E-01-3.17879E-01
 -1      1781 2.78719E-01 5.28958E-01 3.34685E-01 3.14825E-01-3.02856E-01-2.48868E-01
 -1      1782 1.58479E-01 1.17265E+00 4.57861E-01 1.39976E-01-7.24429E-02-1.09924E-01
 -1      1783 1.41333E-01 9.77753E-01 3.35594E-01 1.27735E-01-1.01174E-01-7.85277E-02
 -1      1784-1.22369E+00-8.37712E-01-9.70192E-01-8.24878E-02-6.58061E-02-5.46918E-01
 -1      1785 9.11273E-01 7.32540E-02 6.30307E-02 3.53494E-01-1.79104E-02-1.97155E-01
 -1      1786 5.08930E-01 1.78510E-01 3.87296E-01-2.15390E-01 2.37082E-01-4.97126E-01
 -1      1787 5.07929E-01 1.80615E-01 3.71459E-01-2.16044E-01 2.76354E-01-5.18430E-01
 -1      1788 6.46068E-01-1.57434E-02 1.25796E-01-3.38017E-01-8.69667E-03-2.48603E-01
 -1      1789 2.32004E-01 5.49410E-01 2.83647E-01 3.26506E-01-2.24482E-01-2.68189E-01
 -1      1790 1.71418E-01 5.53372E-01 2.60385E-01 2.50622E-01-2.81391E-01-2.10161E-01
 -1      1791-1.76418E-01-1.65926E+00-1.62940E-01 2.33034E-01 7.82885E-02-6.44757E-02
 -1      1792 5.46166E-01 1.72639E+00 1.38531E-01 4.71513E-01 1.07440E-01-1.59455E-01
 -1      1793 1.50400E+00 1.08144E+00 1.05852E+00-3.57094E-02-9.59432E-03-5.05526E-01
 -1      1794-4.65401E-01-3.52817E-01-4.25318E-01-2.23567E-02 6.61455E-02-5.03748E-01
 -1      1795-6.68837E-01-4.13602E-01-7.19112E-01 3.96573E-02 1.09315E-01-5.80487E-01
 -1      1796 2.24858E-01 1.69924E-01 1.04588E-01-1.44734E-01 2.58542E-02-4.24268E-01
 -1      1797-7.55600E-01-5.29760E-01-5.28612E-01-1.87100E-01-7.59027E-02-5.36969E-01
 -1      1798 1.89753E-01 9.74145E-02 1.78998E-01 5.93422E-02-3.90490E-02-1.20891E-01
 -1      1799 1.37050E-01-3.38674E-02-9.94509E-02 7.54889E-02-1.29841E-01-1.01792E-01
 -1      1800-6.02907E-01-1.53655E-01 4.22816E-02-2.76628E-01-1.66058E-01-2.35765E-01
 -1      1801 1.30110E+00 9.42298E-01 7.97791E-01-4.19481E-02-6.36900E-03-4.99550E-01
 -1      1802-3.91870E-01-2.05469E-01-3.92616E-01-3.83728E-02-5.43915E-02-4.52421E-01
 -1      1803-6.61909E-01-3.55860E-01-7.84092E-01-6.75430E-02-7.80613E-02-5.36641E-01
 -1      1804-2.07612E-01-1.44832E-01-1.88408E-01 1.44908E-02 1.88895E-02-1.54225E-01
 -1      1805-2.16674E-01-4.68372E-02 1.97489E-02 5.55521E-02 8.42258E-02-1.25644E-01
 -1      1806-3.98735E-01-1.54994E-01 3.18608E-02 3.28295E-02 7.42847E-03-1.95678E-01
 -1      1807 2.98239E-01 1.46855E+00 5.21490E-01 2.14251E-01-1.20771E-01-1.47472E-01
 -1      1808 2.21850E-01 1.08928E+00 2.83161E-01 1.46046E-01-1.09094E-01-1.23585E-01
 -1      1809 1.68943E-01 1.21152E+00 5.17963E-01 1.08522E-01-7.48163E-02-1.37870E-01
 -1      1810 9.44762E-02 9.39555E-01 3.97213E-01-1.60082E-02-7.71559E-02-7.66150E-02
 -1      1811 3.19243E-01-1.21279E-02 3.26709E-02 2.25848E-01 3.74009E-02-2.53781E-01
 -1      1812 2.56023E-01-2.66939E-02 5.20896E-02 2.19315E-01 1.97395E-02-3.17203E-01
 -1      1813-2.14339E-01-1.28211E+00-1.91645E-01-2.76734E-01-6.87582E-02-1.10307E-01
 -1      1814-1.98828E-01-1.09441E+00-8.20939E-02-2.31146E-01-1.21396E-01-2.89703E-02
 -1      1815 8.67136E-01 3.62240E-01 1.31608E-01 2.87841E-01-1.38447E-02-2.99908E-01
 -1      1816 1.89857E-01-3.66418E-02-8.92394E-02 2.10842E-01 1.12938E-02-1.81397E-01
 -1      1817-6.39675E-01-7.85328E-01 3.26736E-02 4.66564E-01 1.01052E-01-1.74808E-01
 -1      1818-3.80814E-01-5.54165E-01-4.55985E-01 3.23340E-01 1.85582E-01-2.74225E-01
 -1      1819-2.03268E-01-3.13059E-01-2.94468E-01 2.15067E-01 1.99040E-01-2.03024E-01
 -1      1820 1.73401E-01-1.51822E-01-7.54105E-02-1.17106E-01-2.52067E-02-2.48848E-01
 -1      1821-1.42527E+00-1.25463E+00-1.18012E+00-1.17126E-01 6.11048E-02-4.97774E-01
 -1      1822-7.29540E-01-7.63315E-01 8.63974E-03-7.49093E-01-6.67432E-02-5.87895E-02
 -1      1823 2.69052E-01 1.65365E-01 2.26124E-01 9.35770E-02 3.96697E-02-4.00976E-01
 -1      1824-1.98089E-01-1.20198E+00-2.88719E-01-2.43879E-01-8.60636E-02-1.50619E-01
 -1      1825-2.50604E-01-1.15094E+00-2.71900E-01-2.18344E-01-1.38376E-01-9.68841E-02
 -1      1826-2.66963E-01-1.47100E+00-2.95292E-02-4.36004E-01 2.89571E-02-1.93752E-02
 -1      1827-9.20182E-01-6.94595E-01-6.97964E-01-1.01969E-01-6.71340E-02-5.89015E-01
 -1      1828-1.67899E+00-1.33701E+00-1.29268E+00-6.21187E-02-1.67858E-01-6.79607E-01
 -1      1829 1.29721E-01-1.64634E-02 2.89774E-02-4.92443E-02-1.04572E-01-5.72537E-01
 -1      1830 1.90971E-01-2.92731E-02 8.85441E-02-3.34453E-02-1.26512E-01-6.26893E-01
 -1      1831-5.85445E-02-4.03519E-01-2.08126E-01 2.46825E-01-3.24623E-02-1.09591E-01
 -1      1832 1.70775E-01 9.84757E-01 4.27280E-01-1.88241E-01 8.88650E-02-1.68188E-01
 -1      1833 1.09097E-01 7.39785E-01 2.61096E-01-1.26713E-01 9.65395E-02-1.52148E-01
 -1      1834-1.17038E-01-1.06576E-02-1.14783E-01-6.13016E-02 1.13329E-01-5.85780E-01
 -1      1835-2.06776E-01-1.60141E-02-3.41934E-01-4.72789E-02 1.37621E-01-6.84886E-01
 -1      1836-7.38302E-02-4.07666E-02 5.00889E-02-2.12335E-01 8.64192E-02-5.20413E-01
 -1      1837-7.38354E-01-4.69460E-01-5.16563E-01 7.68219E-02 3.06440E-02-4.22575E-01
 -1      1838-8.71046E-01-2.85567E-01-3.16088E-01 2.25329E-01 2.59485E-01-5.56577E-01
 -1      1839-6.09847E-01-1.20644E-01-1.64584E-01 1.64677E-01 2.83852E-01-4.94176E-01
 -1      1840 3.03221E-01 1.15839E+00 7.86425E-01 1.33136E-01-1.31423E-01-2.71891E-01
 -1      1841 2.39065E-01 8.58860E-01 6.62551E-01 9.57106E-02-1.23952E-01-2.64804E-01
 -1      1842-2.08705E-01-6.02494E-01-1.91043E-02 6.25457E-01 7.57228E-02-1.26806E-01
 -1      1843 1.42507E-01 8.26402E-01 4.44579E-01-1.64207E-01 5.96524E-02-1.16068E-01
 -1      1844 1.75931E-01 1.00432E+00 5.53684E-01-1.95075E-01 6.06910E-02-1.82901E-01
 -1      1845 1.29239E-01-8.76322E-01-2.15217E-01 1.14662E-01 2.06176E-01-2.04034E-01
 -1      1846 1.79208E-01 1.19025E+00 4.97793E-01 1.35522E-01-1.05599E-01-1.61107E-01
 -1      1847 1.08719E-01 8.50201E-01 3.23549E-01 7.58107E-02-8.74921E-02-7.68347E-02
 -1      1848-1.08145E+00-5.41355E-01-1.78180E-01 3.59605E-01 1.81711E-02-3.26858E-01
 -1      1849-6.69763E-01-2.54230E-01-1.75494E-02-2.12586E-01-6.05090E-02-2.36111E-01
 -1      1850-7.61025E-02-3.03759E-01-1.44912E-01-1.53037E-01 6.15768E-02-7.79954E-02
 -1      1851 1.34854E-01 7.11942E-01 3.77087E-01 1.36341E-01-7.99106E-02-1.27186E-01
 -1      1852 2.28652E-01 1.15791E+00 6.20501E-01 1.77553E-01-1.28213E-01-2.08158E-01
 -1      1853-6.65573E-01-8.75038E-01-4.56759E-01-4.47710E-01-2.46782E-01-3.23353E-01
 -1      1854-3.91417E-01-5.63957E-01-1.73045E-01-3.33786E-01-2.13345E-01-2.47478E-01
 -1      1855-1.58019E-01-1.42862E+00-1.02992E-01-1.12056E-01-8.35685E-02-1.02696E-01
 -1      1856 8.62397E-01 1.06470E+00 2.62091E-01 5.02440E-01-1.95845E-02-1.39638E-01
 -1      1857 5.34934E-01 2.57775E-01 4.63973E-01-1.92280E-01 2.76802E-01-5.01437E-01
 -1      1858 4.23621E-01 1.51449E-01 3.70240E-01-1.87086E-01 3.15611E-01-4.96958E-01
 -1      1859 3.70614E-01-7.51031E-02 2.58947E-02 2.96068E-01 7.60022E-02-2.87936E-01
 -1      1860 6.76363E-01 7.81700E-01 4.05499E-01 3.24556E-01-8.02273E-02-2.26099E-01
 -1      1861 9.59407E-02 3.31528E-01 1.72779E-01 7.34201E-02 5.15909E-02-1.13872E-01
 -1      1862-2.07552E-01-1.43542E-01-8.41877E-02 1.93211E-01-2.95810E-03-4.44087E-01
 -1      1863-2.98771E-01-1.60505E-01-3.74267E-01 1.18411E-01-4.26448E-02-6.90661E-01
 -1      1864-2.43945E-01-6.00541E-02-3.14504E-01 1.14251E-01-1.15574E-01-7.30050E-01
 -1      1865-6.95614E-01-1.87032E-01-2.83351E-01 2.37984E-01 1.48259E-01-3.19987E-01
 -1      1866-6.75786E-01-1.84099E-01-2.92333E-01 2.46179E-01 2.04777E-01-3.48833E-01
 -1      1867-4.59442E-01-4.77190E-01-1.91982E-01-2.38842E-01-9.62418E-02-2.16669E-01
 -1      1868-8.33040E-01-5.25350E-01-6.59171E-01 8.76012E-02 4.60746E-02-4.69873E-01
 -1      1869-3.22074E-01 5.89582E-02 4.23756E-02 2.10718E-01-3.19837E-02-2.47396E-01
 -1      1870-1.32545E+00-9.00252E-01-9.02359E-01 7.64315E-03-1.86062E-03-5.06575E-01
 -1      1871-2.04019E-01-2.10788E-02-1.65730E-01-1.85931E-03-1.17414E-01-6.06277E-01
 -1      1872-2.23047E-01-2.12318E-02-1.54359E-01-3.63497E-02-1.59762E-01-6.63112E-01
 -1      1873-1.05781E+00 1.22030E-04-6.59148E-02-2.38185E-01-1.34506E-01-1.93568E-01
 -1      1874 5.07832E-01 5.47463E-01 4.99927E-01 3.28810E-01-2.34782E-01-4.22251E-01
 -1      1875 2.85363E-01 3.24107E-01 3.19337E-01 2.80042E-01-2.66616E-01-3.15121E-01
 -1      1876-6.77179E-01-1.08684E-01 1.18298E-02 2.64488E-01 9.13983E-02-2.61451E-01
 -1      1877 7.25110E-01 6.44535E-01 7.61552E-01-6.48247E-02-9.06602E-02-4.99729E-01
 -1      1878 1.11358E+00 4.10921E-02-2.69949E-02 3.08450E-01-5.20754E-02-1.67013E-01
 -1      1879-6.18022E-01-7.74900E-02-1.24754E-01-3.10158E-01 1.27353E-02-3.21836E-01
 -1      1880 6.70321E-01 3.70741E-01 1.08828E-01-1.94079E-01 9.12732E-02-2.50335E-01
 -1      1881 3.31472E-02-4.21844E-02-1.03179E-01 4.30009E-02 6.73425E-02-1.35626E-01
 -1      1882 1.23228E-01 8.57125E-02 1.62838E-01 5.69214E-02-3.31167E-02-1.79048E-01
 -1      1883 1.16879E+00 9.21304E-01 3.41485E-01 5.12449E-01 3.42534E-02-2.93606E-01
 -1      1884-1.01901E-01-6.76165E-02-7.62558E-02-1.22159E-01 8.23794E-02-5.13878E-01
 -1      1885-5.01572E-01-3.43106E-01-3.83119E-01 1.78418E-01 6.50338E-02-4.71994E-01
 -1      1886 1.78268E-01 1.43256E-01 9.00296E-02-1.79393E-01 3.40173E-02-3.79756E-01
 -1      1887 3.26918E-01 2.81515E-01 5.00650E-01 7.67800E-02-9.65096E-02-5.15063E-01
 -1      1888 7.17856E-01 4.90640E-01 8.10044E-01 9.67939E-02-8.33003E-02-6.33984E-01
 -1      1889 5.67752E-02-2.28672E-02-1.47932E-01-3.14404E-02-6.13154E-02-1.45914E-01
 -1      1890 1.26947E-01 1.08675E-01 1.80925E-01-1.90324E-02 5.03929E-02-1.94487E-01
 -1      1891-8.69738E-01-6.70303E-02-9.11551E-02-2.46963E-01-1.28578E-01-2.31801E-01
 -1      1892-7.25709E-01-8.82564E-02-8.36525E-03-1.68788E-01-2.07216E-01-2.64793E-01
 -1      1893 9.84765E-01 7.14014E-01 8.00746E-01-5.90730E-02 3.03055E-02-5.24330E-01
 -1      1894 7.05496E-01 1.78571E-01-1.98876E-02 2.77404E-01-1.00695E-01-3.12868E-01
 -1      1895-1.34718E+00-1.02386E+00-8.34661E-01-5.39262E-03-2.12305E-02-5.67185E-01
 -1      1896 3.24788E-01 1.14712E+00 4.67168E-01-2.63329E-01 5.53044E-02-1.28229E-01
 -1      1897 1.71789E-01 7.61759E-01 2.51853E-01-2.02892E-01 7.87048E-02-1.20364E-01
 -1      1898 1.10731E-01 4.31288E-01 2.88853E-01 3.31620E-01 7.96632E-02-1.62474E-01
 -1      1899-6.45594E-02 2.56854E-02 8.57916E-02 3.45065E-02-4.89390E-02-1.29996E-01
 -1      1900-1.79430E-01-1.22946E-01-2.20851E-01 2.95897E-02 2.99747E-02-1.94785E-01
 -1      1901 6.97759E-01 1.07658E+00-1.96136E-02-6.33370E-01 9.97469E-02-2.27127E-01
 -1      1902 2.29998E-01 2.71821E-01 1.13117E-01-9.89437E-02 8.03003E-02-2.71650E-02
 -1      1903 2.21732E-01 3.03958E-01 1.79156E-01-1.13207E-01 5.16706E-02-1.11591E-01
 -1      1904 1.22767E-02 5.35064E-02 5.85103E-02-1.68965E-02 4.77777E-02-8.06121E-02
 -1      1905-1.60351E-01-1.20512E-01-2.39015E-01-1.28062E-03-2.05912E-02-1.65258E-01
 -1      1906-2.79343E-01-2.12308E-01-2.17254E-01-3.47074E-03-2.42352E-02-1.31669E-01
 -1      1907-2.22192E-01-2.03224E-02 4.25361E-02-4.09189E-02-1.13753E-01-1.01998E-01
 -1      1908 1.99822E-01 1.72190E-02-1.17774E-02 2.48794E-01 4.01089E-02-3.42250E-01
 -1      1909-1.59354E-01-1.57299E-01-6.36955E-02 1.19876E-01 1.86191E-02-1.27328E-02
 -1      1910-2.63334E-01-3.34156E-01-2.77275E-01 1.11941E-01 3.43499E-02-9.58466E-02
 -1      1911 2.29056E-01 1.62476E+00 1.45785E-01 1.33774E-01-1.28815E-01-1.55097E-01
 -1      1912 7.45881E-01 8.56722E-01-4.44126E-02-7.42403E-01 6.21338E-02-9.73155E-02
 -1      1913 1.34108E+00 2.23382E-01 1.63237E-01-3.92994E-01 6.56160E-02-1.66142E-01
 -1      1914 9.01964E-02 3.46896E-01 8.01590E-02 1.42835E-04 2.12326E-02-2.77396E-02
 -1      1915 2.41525E-01 4.52655E-01 9.80357E-02-7.11102E-02 5.14064E-03-1.19674E-03
 -1      1916-2.43977E-01-4.07590E-01-2.38877E-01 1.74055E-03-7.37036E-02-4.06364E-02
 -1      1917-1.64779E-01-2.97105E-01-8.41876E-02-5.95073E-02-6.87209E-02 1.18695E-02
 -1      1918 1.49176E-01 1.55892E-01 8.75710E-02 9.54325E-02-4.70083E-02-4.79116E-02
 -1      1919 1.32168E-01 2.01888E-01 1.87384E-01 1.23618E-01-3.90440E-02-1.17403E-01
 -1      1920-2.67773E-01-2.25026E-01-3.49914E-02-1.01795E-01-6.50052E-02-2.19590E-02
 -1      1921-3.73438E-01-3.71780E-01-2.28087E-01-1.13795E-01-6.68616E-02-1.01300E-01
 -1      1922 1.35472E-01 3.17639E-01 1.28667E-01 2.32878E-02-1.99323E-02-1.72117E-02
 -1      1923 2.08578E-01 3.32764E-01 1.52770E-01 1.06558E-01-2.14699E-02-1.16549E-02
 -1      1924 9.54125E-01 2.05066E-01 6.38205E-02-3.35804E-01 7.15882E-02-2.26569E-01
 -1      1925 1.00291E+00 2.05779E-01 5.06888E-02-3.89019E-01 1.45795E-01-2.54033E-01
 -1      1926 1.25801E-01 1.15866E-01 1.20219E-01-2.28653E-02 1.12748E-02-1.37835E-01
 -1      1927 2.41618E-01 8.34763E-02-2.61012E-02-1.48879E-02 9.12663E-02-1.10918E-01
 -1      1928-5.30312E-02-2.89809E-01-1.25483E-01 9.31167E-03 6.45609E-03-3.02059E-02
 -1      1929-2.09821E-01-3.89861E-01-1.72412E-01 1.09311E-01 9.10329E-03-2.99143E-02
 -1      1930-1.29427E-01-5.79618E-01-4.84962E-01-5.03228E-01 1.35190E-01-1.44621E-01
 -1      1931 3.09920E-01 1.31324E-01 4.40775E-02 1.60195E-02 7.86825E-03-4.82540E-02
 -1      1932 1.28138E-01 8.19264E-02 1.10243E-01-6.15985E-03 1.88789E-01 1.07991E-01
 -1      1933-1.26831E-01-9.88784E-02-2.97939E-02 1.14193E-02 1.21006E-01 1.65317E-01
 -1      1934-5.47241E-02-8.13514E-02 3.22761E-02-7.52231E-02 1.69816E-01 2.71707E-01
 -1      1935 1.14152E-01 2.31070E-02 6.28389E-02-2.95865E-03-1.11733E-01-7.18254E-04
 -1      1936-4.49408E-02-4.02888E-02-4.94454E-02 8.36767E-02 1.15913E-02-1.22849E-01
 -1      1937-1.57483E-01-1.05110E-01-9.53994E-02-2.60025E-02-1.62435E-01 1.76677E-01
 -1      1938 6.89025E-03 9.43443E-02 6.09414E-02 1.27477E-02 2.02898E-01 1.97519E-01
 -1      1939 5.42120E-02 1.38212E-01 9.68583E-02-7.50905E-03 2.38299E-01 1.28242E-01
 -1      1940 6.16261E-02 9.29353E-02 1.11217E-01-2.40000E-02 2.19261E-01 8.39666E-02
 -1      1941 3.62150E-02 1.39622E-02 2.18076E-03 6.58704E-02 2.38839E-01 3.23688E-01
 -1      1942 1.50861E-02 6.01109E-02 5.47091E-02-2.14175E-02 7.08923E-02 1.85066E-02
 -1      1943-9.43554E-02-7.77132E-02-7.76185E-02-4.89286E-02 1.75288E-02 4.67126E-02
 -1      1944-5.73927E-04-7.94195E-02-9.78472E-02-4.98525E-02-8.21243E-02 2.63550E-02
 -1      1945-1.13241E-01-6.30033E-02-8.04370E-02 3.63711E-02-1.02351E-01 1.97083E-03
 -1      1946 1.09259E-02-1.05871E-01 2.55715E-02-1.57598E-02-1.41793E-01 4.71455E-02
 -1      1947-2.90364E-02-3.31536E-02-5.94910E-02 3.74143E-02-1.61908E-01 1.54106E-01
 -1      1948 1.54981E-01 1.27568E-01 3.77054E-02 1.26926E-01 1.29657E-01 2.95259E-01
 -1      1949 1.45957E-01 7.80044E-03 3.47519E-02 4.74251E-02 9.81539E-02-7.97535E-05
 -1      1950 2.55786E-01 1.33003E-01 2.72433E-01 1.61495E-03 2.24901E-03 5.85312E-01
 -1      1951 1.90041E-01 1.46428E-01 1.97405E-01-6.08244E-02-8.16916E-02 4.97166E-01
 -1      1952 6.58373E-02-6.04592E-02-6.79416E-02-1.72606E-02-2.37424E-02 4.35379E-01
 -1      1953 1.46225E-01 1.14888E-01 2.29409E-01-1.83282E-02-2.52784E-01 5.08465E-01
 -1      1954 1.15159E-01 3.04967E-02 2.07614E-01-4.19875E-02-1.19139E-01 2.62792E-01
 -1      1955 1.60827E-03 5.15300E-02 5.58639E-03-8.60220E-03-2.61920E-01 2.74924E-01
 -1      1956 2.25663E-01 1.24343E-01 3.58629E-02 5.48482E-03-2.06760E-01 1.05095E-01
 -1      1957 3.68777E-03 1.17814E-01 7.87695E-02-2.80155E-03-2.25124E-01 1.36247E-01
 -1      1958 6.99155E-03 9.04445E-02 1.50820E-02 8.65912E-03-1.53569E-01 8.29931E-02
 -1      1959 8.76246E-03-5.22415E-02-4.45359E-02-6.89349E-03-1.52429E-01-6.46024E-03
 -1      1960-1.18445E-02 1.36347E-02 1.83766E-02 3.68133E-02-9.31737E-02 8.83757E-03
 -1      1961-2.27386E-01-1.16310E-01-1.17780E-01 4.33640E-03-9.57749E-02 2.71992E-01
 -1      1962-6.52741E-03-1.12295E-03-3.32312E-03 2.28217E-02 5.31770E-03-8.92316E-03
 -1      1963-4.76658E-03-7.91777E-02-9.66315E-02 3.54634E-02 9.71086E-02-2.38860E-02
 -1      1964 5.64292E-02 5.32780E-02 8.13805E-02-4.45153E-02-3.61469E-02-8.93937E-02
 -1      1965-7.97198E-02-1.50240E-01-1.23994E-01 3.35781E-02 2.01232E-01 6.22303E-02
 -1      1966-3.70612E-02-1.23015E-01-2.00011E-02-2.13428E-02-2.06363E-02 3.66809E-01
 -1      1967-4.48092E-02-2.08343E-01-1.37461E-01-3.13187E-02 1.44677E-01 1.01379E-01
 -1      1968-1.45434E-01-1.71813E-01-1.32931E-01-6.14401E-02 2.15293E-01 2.58369E-01
 -1      1969-3.11286E-02-1.01737E-01-1.06831E-01-7.74726E-02 2.43741E-01 3.28678E-01
 -1      1970-8.71408E-02-2.04832E-02-1.82364E-01 7.49707E-03 2.12402E-01 3.86101E-01
 -1      1971-4.81662E-02-5.55475E-02-1.43739E-01 5.95100E-02-2.92393E-01 2.81690E-01
 -1      1972-1.20093E-01-1.69347E-01-7.98710E-02 6.35209E-02-1.97585E-01 2.66963E-01
 -1      1973-2.00623E-01-2.11559E-01-3.57557E-01 1.21890E-02-1.53172E-01 4.84399E-01
 -1      1974 1.48330E-01 1.45884E-01-1.60459E-02-2.28702E-03-1.68640E-02 1.57659E-02
 -1      1975-7.30316E-02-4.89411E-02-1.89553E-01 1.59838E-03 6.30493E-02 4.62563E-01
 -1      1976-2.30108E-01-4.39862E-02-1.30848E-01 2.61910E-02-9.10479E-02 3.57708E-01
 -1      1977-4.14921E-01-2.91572E-01-3.84302E-01 3.54778E-02-1.10070E-01 5.60849E-01
 -1      1978-1.68201E-02-4.51169E-03-1.09550E-02-6.51520E-03-1.86732E-02-2.23759E-01
 -1      1979 6.58946E-02 1.08708E-01 1.52134E-01 4.02114E-02-1.58843E-01 3.97879E-02
 -1      1980 3.90361E-02-1.38542E-02 8.40025E-03-2.49701E-02 2.21319E-01 1.06887E-01
 -1      1981 3.24720E-01 2.18153E-01-2.54979E-02-5.98826E-02-1.87840E-02 9.69567E-03
 -1      1982 3.67217E-01 1.84479E-01 3.02644E-01-2.20813E-02-2.06384E-01 4.74613E-01
 -1      1983-8.88304E-02-9.57969E-02-3.99541E-02 8.07977E-02-2.35668E-01 2.75189E-01
 -1      1984-2.03392E-01-2.55923E-01-2.23035E-01 5.97948E-02-3.06209E-01 3.70350E-01
 -1      1985 1.41382E-03 3.02914E-03 3.18565E-02-3.87452E-02 3.22177E-03-4.20500E-02
 -1      1986-4.86379E-02-6.23424E-02-3.15186E-02 2.51390E-02-1.97255E-01 1.41661E-01
 -1      1987-1.99533E-02-6.41785E-02-5.64757E-02 4.99965E-02 4.79213E-02 4.15635E-01
 -1      1988-6.57411E-02-7.82277E-02-1.07291E-01-5.37270E-03 2.53830E-01 3.55587E-01
 -1      1989 6.73839E-02 2.23913E-02 5.52369E-02-6.89172E-02 4.49128E-02 4.73435E-01
 -1      1990-3.09168E-01-2.39002E-01-3.21489E-01-4.30586E-02-1.11949E-01 6.83069E-01
 -1      1991-2.51368E-01-1.63940E-01-8.62317E-03-8.51883E-02 4.09906E-02-3.57828E-03
 -1      1992-3.58915E-01-1.59775E-01-4.37550E-02 1.52230E-02-7.45084E-03-6.08841E-02
 -1      1993-6.70825E-02 1.76463E-03 1.01417E-02 1.90872E-02-1.42553E-01 1.15188E-01
 -1      1994-5.41822E-02-4.32912E-02-4.45766E-02-6.46545E-03 4.65819E-02-1.49379E-02
 -1      1995-1.09212E-01 8.61697E-03-1.69884E-01-4.83661E-02-2.00200E-01 3.41828E-01
 -1      1996-2.21590E-02-5.21353E-02-5.93497E-02-3.02216E-02 1.95359E-01 1.20261E-01
 -1      1997-4.43628E-02 4.09517E-02 5.94599E-03-9.24791E-03-2.26334E-01 9.55277E-02
 -1      1998 1.78078E-01 3.13756E-02-9.69703E-02-3.21866E-02-1.09025E-01 4.20803E-01
 -1      1999-2.33044E-01-1.70890E-01-2.02437E-01-3.81960E-02 1.55777E-01 3.57384E-01
 -1      2000 1.36764E-01 5.71626E-02 3.53382E-02-5.13257E-02 3.71203E-02 3.03543E-01
 -1      2001-3.98764E-02-3.99813E-02 1.83496E-02 5.20463E-02-1.33328E-02-4.54434E-02
 -1      2002 9.81187E-02 2.34696E-01-3.25441E-02-5.86770E-02-2.48853E-01 2.34073E-01
 -1      2003 2.15065E-02-6.52486E-03 6.78821E-02 9.55938E-03 1.92269E-01 1.98724E-02
 -1      2004-3.42650E-02-3.13472E-02-3.56909E-02-7.70602E-03 8.96324E-02 6.02010E-03
 -1      2005 2.65367E-01 1.42597E-01 1.84934E-01 7.78838E-02-1.34271E-01 7.26417E-01
 -1      2006 1.26628E-01-1.31549E-04-2.34494E-03-7.11955E-03 8.79061E-02-1.26676E-02
 -1      2007 2.38793E-01 4.30329E-02-1.84107E-01 6.80341E-02 2.61501E-02 4.28075E-01
 -1      2008 8.28332E-03-4.17561E-03-7.88610E-02-2.21704E-03-2.40423E-01 1.80154E-01
 -1      2009-5.19486E-03 5.75230E-02 5.96620E-02 5.57254E-02-1.13294E-01-2.40478E-02
 -1      2010 1.38305E-01 1.73112E-01 1.75493E-01-5.72199E-02-3.29429E-01 3.84204E-01
 -1      2011 3.30994E-01 8.38349E-02-4.48007E-02-8.73820E-02-1.28996E-01 3.50122E-01
 -1      2012 3.43922E-04-6.44864E-02 7.36794E-04-3.53919E-04-7.38676E-02 4.23164E-02
 -1      2013-9.15379E-02 1.16055E-02-5.22785E-02-7.99641E-02-2.16255E-01 3.11192E-01
 -1      2014 1.17548E-01-2.47548E-02 6.97105E-02 9.08240E-03-2.04081E-01 7.03228E-02
 -1      2015 1.52034E-01 1.19832E-01-4.76312E-02-1.08430E-01-3.65658E-02-3.80781E-02
 -1      2016 2.16943E-01 1.50372E-01-2.60413E-03 8.39374E-02 1.89616E-01 3.63547E-01
 -1      2017-4.39020E-02-1.16315E-01-7.65545E-02 4.46459E-02 1.25109E-01 5.28696E-03
 -1      2018-4.11977E-02-4.67926E-02 3.55604E-02-6.49092E-02 2.02256E-01 1.72585E-01
 -1      2019 3.51845E-01 3.53146E-01 2.20021E-01-1.18245E-01-1.98339E-01 3.22815E-01
 -1      2020 1.62935E-01 1.09231E-01 6.96674E-02-5.65315E-02-1.58133E-02-7.81831E-03
 -1      2021-1.94544E-01-1.93536E-01-1.84032E-01-4.91616E-02 2.86847E-01 2.52661E-01
 -1      2022 1.39080E-01 1.07600E-01 5.25406E-05-6.22963E-02 7.79451E-02 1.52266E-01
 -1      2023-2.05862E-01-2.42052E-01-1.10595E-01-4.86553E-02-2.21640E-02 2.33522E-02
 -1      2024 6.31288E-02-6.42975E-03-7.89628E-02 2.95135E-03 1.45827E-01 3.76455E-01
 -1      2025 1.17115E-01 2.69697E-02-8.46314E-02 1.11497E-02-1.50294E-01 4.12416E-01
 -1      2026-1.56175E-01-1.83105E-01-6.27068E-02-4.69383E-02 2.27350E-03 1.04760E-01
 -1      2027 1.64171E-01 7.77886E-02 8.22778E-02 4.23561E-03 2.13762E-02-4.93987E-02
 -1      2028-1.59040E-01-1.44284E-01-6.64193E-02-2.50408E-02-3.67816E-02 3.33186E-01
 -1      2029 9.82939E-02 4.74387E-02 2.79314E-02 4.94168E-02 4.74885E-02-6.28170E-03
 -1      2030 6.64616E-02 8.31067E-03-9.75607E-03 1.94428E-02-8.42105E-02 4.13580E-02
 -1      2031-3.69282E-02-3.31209E-02-3.07367E-02-4.46973E-02 1.94711E-02-2.71679E-02
 -1      2032-4.92184E-02 6.60645E-02 7.54938E-02-1.48835E-02 2.10064E-01 8.59551E-02
 -1      2033-3.85695E-02 1.58900E-02 1.12548E-02 1.98303E-02 1.30191E-01 1.31519E-02
 -1      2034 1.76442E-02 2.91119E-02-4.31139E-02 3.66194E-02 2.19297E-02 2.58295E-01
 -1      2035 1.97670E-01 2.45229E-02-1.49970E-02 3.07833E-02-9.38586E-02 1.75733E-01
 -1      2036-1.71089E-01-1.57583E-01-1.92942E-01-2.64591E-02 4.29171E-02-1.74343E-04
 -1      2037 1.41090E-01 1.25877E-01 1.26159E-01-7.34505E-02-1.12446E-01 3.92991E-01
 -1      2038 1.34810E-01 1.76246E-01 2.13015E-01-1.22958E-02-2.49512E-01 9.83741E-02
 -1      2039-1.10353E-01 6.39010E-02 5.81489E-02 2.67257E-03-2.06460E-01 2.17313E-01
 -1      2040-1.03288E-02-1.68407E-02-6.61129E-03 1.12868E-02-2.03079E-01 1.01650E-01
 -1      2041-2.19828E-01-1.29021E-01-7.81953E-02 5.71629E-02-2.83480E-02-7.33115E-02
 -1      2042-4.56045E-01-2.06311E-01-1.52395E-01-6.71631E-03 8.85617E-03-5.89719E-02
 -1      2043-3.36162E-02 5.29675E-02 8.61533E-02-1.29434E-02-6.56657E-02 3.94575E-01
 -1      2044 4.07039E-01 3.21066E-01 3.52711E-01-9.71417E-02-1.54476E-01 5.17622E-01
 -1      2045-5.20057E-01-3.06894E-01-3.89442E-01-2.77169E-02 2.17145E-01 5.52707E-01
 -1      2046-3.62801E-01-3.34155E-01-3.55810E-01 5.27900E-02-1.76303E-01 5.48273E-01
 -1      2047 2.70771E-01 1.96752E-01-2.10311E-03-8.82779E-03-5.58203E-03 3.66108E-02
 -1      2048 3.77658E-02 5.54110E-03 8.05770E-03 1.69971E-02 4.94325E-02-2.83053E-02
 -1      2049-1.81893E-01-9.91670E-02-5.55496E-02 3.84838E-03-1.20549E-02-5.16706E-02
 -1      2050 4.98722E-02-2.23842E-02-1.61938E-01-3.73772E-03-7.58148E-02 4.65206E-01
 -1      2051-1.17171E-02-2.88170E-02-8.57069E-02-4.74340E-02-2.57741E-02-7.75843E-03
 -1      2052 3.12823E-01 3.54808E-01 3.87695E-01-6.91613E-02-2.96365E-01 4.95625E-01
 -1      2053-1.40476E-03 2.67375E-02 5.43130E-02-3.98442E-02 1.88866E-02 6.86387E-03
 -1      2054-7.48857E-02-5.68194E-02 2.88080E-02-5.73437E-02 2.41105E-01 2.28585E-01
 -1      2055-6.15557E-02-1.66076E-01-1.44473E-01 3.47861E-02 1.82951E-01 1.09193E-02
 -1      2056 6.29332E-02 8.04489E-02 6.57002E-02 7.32948E-03 2.39991E-02-2.93207E-02
 -1      2057 1.37040E-01 1.40485E-01 1.31937E-01 6.86918E-03 1.46571E-01 4.02262E-02
 -1      2058 8.38265E-03 3.34973E-02 4.73809E-02 2.09852E-02-7.42124E-02-3.26592E-03
 -1      2059 1.22950E-01 6.20251E-02 8.60070E-02-1.20281E-02 1.56861E-01 1.79835E-01
 -1      2060-2.11417E-02-4.39826E-02-2.75107E-03-3.60815E-03-8.03397E-02-1.75029E-02
 -1      2061-2.26446E-02-4.28583E-02 9.75270E-02-7.83081E-03-1.94000E-01 3.66799E-01
 -1      2062 2.28858E-02-3.72488E-03 2.22000E-02-1.30944E-02-9.67817E-02 1.63906E-02
 -1      2063-5.58207E-02 2.09892E-02 1.54991E-02-1.15334E-01-1.28810E-02-1.10699E-01
 -1      2064-6.14205E-02-1.33133E-01-8.50099E-02 2.70231E-02 9.81606E-02 3.42958E-01
 -1      2065-2.35444E-01-2.37169E-01-2.15256E-01 3.28877E-02-2.65860E-01 3.08842E-01
 -1      2066-8.37125E-02-7.16621E-02-1.98899E-02 2.30408E-01-9.24403E-03-2.43141E-01
 -1      2067-3.41308E-01-2.63400E-01-6.33063E-02 9.41353E-02-1.39675E-01 3.45401E-01
 -1      2068 2.41131E-01 1.67612E-01 1.44137E-01-1.21090E-02-1.42496E-01 3.68465E-02
 -1      2069-3.10055E-02-2.13460E-03 8.96736E-03 6.06569E-02-4.83649E-02-1.16197E-02
 -1      2070 1.15172E-01 8.19414E-02 5.56672E-02 4.47816E-02 1.87657E-01 3.64781E-02
 -1      2071-1.05378E-01 4.99667E-03 4.05005E-02-6.81769E-03 2.19717E-01 2.58498E-01
 -1      2072 1.80346E-01 2.94118E-01 1.93692E-01 3.89379E-02 3.15830E-01 2.67720E-01
 -1      2073-4.12739E-01-3.61067E-01-4.77517E-01-2.57631E-02 8.57231E-02 6.60567E-01
 -1      2074-2.90743E-02-4.74186E-02-1.11168E-01-4.55394E-02-1.67397E-02 2.16260E-02
 -1      2075-5.88277E-02-2.03184E-01-3.63708E-02 8.60647E-03-1.07666E-01 4.90046E-02
 -1      2076-2.41715E-01-1.84793E-01-1.33827E-01-3.21230E-03-1.28717E-01 2.90565E-01
 -1      2077-1.51903E-01-2.31181E-01-2.41678E-01 3.36742E-02 2.51532E-01 1.39311E-01
 -1      2078 1.52347E-01 2.18258E-01 4.19040E-02-8.26242E-02-2.18564E-01 1.76680E-01
 -1      2079-4.04762E-01-2.22628E-01-1.73598E-01 1.88191E-02-1.10190E-01 5.69270E-01
 -1      2080 7.25302E-01 3.29509E-01 9.80448E-02 6.02206E-02 7.85787E-02 3.54929E-01
 -1      2081-1.90277E-01-1.75539E-01-8.39958E-02 4.35159E-02 3.97011E-02-5.16354E-03
 -1      2082 4.91811E-02 1.00288E-01-2.06483E-02 5.46806E-02-1.66556E-02 1.67864E-01
 -1      2083 3.89974E-01 2.69637E-01 2.95297E-01-1.33506E-02-2.78301E-01 4.77136E-01
 -1      2084 6.65698E-02 6.79229E-02-1.24251E-02-8.45068E-02 2.55989E-02-1.96951E-02
 -1      2085 4.05371E-01 2.58353E-01 1.51822E-01-7.32237E-02-6.83286E-03-4.43380E-02
 -1      2086 3.49658E-01 1.89344E-01 5.62275E-02 8.17726E-02 1.86906E-02-5.56472E-02
 -1      2087 4.29391E-02 1.96398E-02-2.51480E-02-2.73772E-02-1.93257E-02-2.21070E-01
 -1      2088-1.05173E-01-1.82161E-01-1.63789E-01 8.85343E-03-3.69032E-01 2.41950E-01
 -1      2089 5.59601E-02 1.92674E-01-7.71736E-03 1.32962E-02-1.17540E-01 2.74131E-02
 -1      2090-3.06521E-01-8.61587E-02-8.11610E-02 7.75816E-02-3.49262E-02-8.68024E-02
 -1      2091-2.61140E-02-2.71631E-02 1.11363E-01-1.19818E-03-3.28972E-02-1.72278E-01
 -1      2092-2.69077E-01-2.28884E-01-2.25238E-01 4.36773E-02-3.06162E-01 4.23749E-01
 -1      2093 3.38748E-01 1.07061E-01 1.12279E-01-7.79723E-02-4.35693E-02-7.64356E-02
 -1      2094-2.62953E-03 3.30443E-02-4.91272E-02 4.00429E-03-4.80611E-02 2.27161E-02
 -1      2095-7.00669E-03-9.63589E-02-1.42567E-01 4.81058E-03 1.48679E-01-2.87826E-03
 -1      2096 5.85958E-02 4.23294E-02 1.80040E-02 4.27493E-02 1.06291E-02-6.31959E-03
 -1      2097 1.38832E-01 8.10624E-02 5.27123E-02 4.16975E-02 1.47350E-02-6.02780E-02
 -1      2098-1.24005E-01-1.26290E-01-4.46098E-02 2.33366E-02 9.19435E-03-6.47455E-02
 -1      2099-9.92816E-02-2.29032E-01-9.35326E-02-3.07982E-02 2.32770E-01 1.03049E-01
 -1      2100-6.47507E-02-5.33649E-02-4.32618E-02 2.59130E-02-2.28823E-03-2.04918E-01
 -1      2101-2.41892E-01-1.56869E-01-5.65297E-02 6.30107E-02-2.06959E-01 3.88420E-01
 -1      2102 1.61280E-01 8.82493E-02 7.93614E-02-4.51009E-03-2.24458E-02-1.84588E-01
 -1      2103-3.32512E-01-1.43828E-01-1.15140E-01-2.78812E-02-9.50003E-02 4.47889E-01
 -1      2104 1.86928E-02 8.14484E-02-4.36979E-02-8.57861E-03-8.08435E-02 2.04342E-01
 -1      2105-2.01088E-01-1.46567E-01-9.13476E-02-3.48156E-02 5.47315E-02-5.31784E-02
 -1      2106-6.65294E-02-1.21278E-01-1.27168E-01-4.48551E-02 2.06873E-01 3.05551E-01
 -1      2107 2.42073E-01 2.96887E-01 1.86043E-01-6.08589E-02-3.37086E-01 2.69915E-01
 -1      2108-2.25784E-02 1.61859E-01 7.87440E-02 9.63090E-03-1.80109E-01 1.48535E-01
 -1      2109 4.84045E-01 3.07237E-01 2.54664E-01 7.52361E-02 7.91198E-02 5.50317E-01
 -1      2110-2.10073E-01-1.31930E-01 1.88648E-02-9.08507E-02 2.77605E-01 4.30237E-01
 -1      2111 3.90220E-01 2.84618E-01 2.43581E-01 2.17446E-04 4.88313E-02 6.29474E-01
 -1      2112-3.99238E-02-3.49316E-02-1.38401E-01-2.21224E-02 3.13084E-02 4.94051E-01
 -1      2113-2.78951E-01-2.57877E-01-3.89755E-03-1.16252E-03 1.90258E-02 1.05466E-01
 -1      2114 3.53564E-01 2.35070E-01 1.75380E-01 6.50213E-02 3.18386E-01 3.78843E-01
 -1      2115-1.68277E-01-9.40684E-02-1.02188E-01 8.03563E-02-1.15758E-02-7.63277E-02
 -1      2116-2.35387E-01-2.89639E-02 2.82589E-02-7.82458E-02 8.60538E-02-1.15108E-01
 -1      2117-4.51506E-02-2.46405E-02-2.77920E-02-1.03968E-01-3.13564E-02-9.69907E-02
 -1      2118 3.24061E-01 1.93177E-01 1.23838E-01-6.98573E-02-2.57308E-03-4.10179E-03
 -1      2119-5.60185E-01-3.79140E-01-3.87513E-01-2.20569E-02 1.10510E-01 5.63875E-01
 -1      2120 3.30569E-01 1.36184E-01 1.09533E-01-3.66332E-02-1.55316E-01 6.10084E-01
 -1      2121 2.15332E-02 3.92146E-02 1.73667E-03 1.32402E-02 3.30850E-03-2.10193E-01
 -1      2122-3.78489E-02-7.49411E-02-6.03782E-02 3.26956E-02 7.25090E-02-2.70932E-03
 -1      2123 9.44037E-02 8.58680E-02 5.37493E-02-1.64248E-02-1.21688E-01-2.88942E-02
 -1      2124-1.96661E-01-9.47966E-02-7.20692E-02 5.38412E-02 8.79541E-03 1.96988E-01
 -1      2125-4.68706E-01-2.74162E-01-1.22113E-01 2.29563E-02-3.43004E-02-5.06517E-03
 -1      2126-3.83704E-01-2.03765E-01-1.41223E-01 7.65641E-02-1.17336E-01 5.22260E-01
 -1      2127-1.31072E-01-7.16593E-02-3.48620E-02-1.79818E-01 4.42795E-02-2.20591E-01
 -1      2128 5.14993E-02-6.03036E-02-7.59867E-04-5.84612E-03-1.92800E-01 2.46330E-01
 -1      2129-7.14064E-02-1.10745E-01-1.05378E-01-1.03830E-02-1.75069E-01 4.86165E-02
 -1      2130-2.30213E-01-1.23885E-01-8.39338E-03 2.56717E-02-6.26633E-02-1.70101E-02
 -1      2131-6.80204E-01-3.83750E-01-1.79547E-01 4.64426E-02-3.85550E-02-2.69691E-02
 -1      2132 1.83566E-01 3.11738E-01 1.27230E-01-6.76809E-02-2.21185E-01 1.91557E-01
 -1      2133-3.80694E-01-1.86802E-01 1.69684E-02 7.23213E-02-3.21495E-02-2.12116E-02
 -1      2134-3.05253E-01-1.73446E-01-2.72258E-02 9.47772E-02-3.74582E-02-3.34005E-02
 -1      2135-2.91112E-01-1.89414E-01-7.23491E-02 7.02101E-02-1.47974E-02-5.61881E-02
 -1      2136-4.70907E-01-1.89264E-01 1.15871E-03 9.80431E-02-1.26075E-01-1.46233E-01
 -1      2137 4.83777E-02 3.10421E-02-2.21725E-02-1.18894E-01 1.30028E-02-1.17722E-01
 -1      2138 4.04426E-02 4.83676E-02 7.86798E-03 1.64004E-02 4.67932E-02 9.22497E-03
 -1      2139 3.61650E-01 1.31197E-01 8.50479E-02 4.38394E-02 7.15363E-02-8.71226E-02
 -1      2140-1.83855E-01-1.06548E-01-4.55432E-02 3.70399E-02-1.79079E-02 2.61245E-02
 -1      2141 8.59707E-02 7.93533E-02 5.54703E-02-3.07445E-02-5.48890E-02-3.36638E-02
 -1      2142-7.05678E-02-5.04020E-02-3.69817E-02 2.87206E-02 1.87650E-01 2.28781E-01
 -1      2143-3.66226E-01-2.20593E-01-2.23569E-01-1.49905E-02 9.31874E-02 6.63746E-01
 -1      2144-3.66736E-01-1.82562E-01-1.22690E-01 4.87713E-02 3.88280E-03-2.85498E-02
 -1      2145-1.70967E-01-1.37950E-01-1.37016E-01-8.09608E-02-3.83130E-03-1.05605E-01
 -1      2146 3.60425E-01 1.47592E-01 9.06100E-02 2.50738E-03-2.38163E-02-6.71889E-02
 -1      2147 1.07836E-01 1.36252E-02 6.27115E-02-5.83497E-02 1.67456E-01 8.92309E-02
 -1      2148-2.76329E-01-1.47053E-01-6.16184E-02-6.97313E-02 3.89484E-03-6.13000E-02
 -1      2149-1.14648E-01-5.90006E-02-8.94902E-02 1.92034E-02-1.02052E-01 6.69075E-02
 -1      2150 3.70581E-01 4.13603E-01 2.83042E-01 1.42941E-01 2.89663E-01 4.69766E-01
 -1      2151-3.60890E-01-2.89000E-01-1.86588E-01 4.55044E-02-3.29568E-03 9.51086E-02
 -1      2152-3.39522E-01-2.27746E-01-1.94708E-01-1.37868E-02-1.81182E-02 7.74489E-02
 -1      2153-1.42595E-01-2.38633E-01-7.23956E-02 3.24245E-02-2.20802E-01 1.22166E-01
 -1      2154 1.12534E-01 1.68906E-01 1.62625E-01 5.08667E-04 2.98538E-01 1.29937E-01
 -1      2155 1.49841E-01 3.81219E-02 5.20200E-02-4.08564E-02-1.80033E-01 1.01368E-01
 -1      2156 1.43781E-01 6.94066E-02 7.75961E-02 2.87136E-02 5.86438E-02-6.43236E-02
 -1      2157-1.85286E-01-1.74941E-01-1.22867E-01-4.28934E-02 3.02796E-01 1.56551E-01
 -1      2158-1.87172E-03 1.67584E-02 3.29740E-02-3.57479E-02 7.51776E-02 1.90032E-02
 -1      2159-5.00123E-01-5.08525E-01-4.97327E-01 9.02818E-02-2.84013E-01 5.04131E-01
 -1      2160-4.02727E-01-2.35149E-01-1.53880E-01-1.61102E-02-6.67278E-02 1.60058E-02
 -1      2161 9.05986E-02 2.00964E-02 1.54190E-02 5.40567E-02 6.84615E-02-4.97612E-02
 -1      2162 1.50115E-02 4.98358E-02 8.25894E-02-1.65046E-02 1.87946E-01 1.68964E-02
 -1      2163-5.45756E-01-4.23690E-01-6.18536E-01 1.40574E-02-1.53304E-01 6.62002E-01
 -1      2164 1.47166E-01 2.94110E-01 1.63390E-01 3.19349E-02 3.26560E-01 1.96719E-01
 -1      2165 4.71570E-02 1.25153E-01 3.54910E-02-1.82203E-02 9.06461E-02 4.83312E-02
 -1      2166 6.27936E-02 1.13538E-02 1.02387E-02-6.93993E-02-1.53595E-01 3.65858E-01
 -1      2167 2.35842E-02 2.04849E-01 8.84298E-03 5.89204E-02 2.47604E-01 1.95879E-01
 -1      2168-3.46307E-01-1.78234E-01-1.35842E-01-6.01368E-02-3.17923E-02 2.49906E-02
 -1      2169 3.18330E-01 2.52757E-01 2.06938E-01 9.55576E-02 2.44033E-01 3.57224E-01
 -1      2170-9.57787E-02-6.86882E-02-2.00885E-02 2.60938E-02 1.09696E-01 1.48614E-01
 -1      2171-3.71578E-01-2.19228E-01-9.07204E-02 1.40167E-01-3.12471E-02-9.36552E-02
 -1      2172-1.17008E-01-1.69645E-03 1.87691E-02-1.46414E-02-1.13590E-01 6.01831E-02
 -1      2173-2.65897E-01-1.59863E-01-2.42753E-01 1.95294E-02 3.26008E-01 4.98116E-01
 -1      2174-1.56868E-01-1.09486E-01-1.60020E-01-2.57206E-02 3.18659E-01 3.43148E-01
 -1      2175 2.33817E-01 1.75880E-01 1.12566E-01-2.11002E-03 2.84666E-02 3.98562E-01
 -1      2176 1.56715E-01 1.88158E-01 2.02340E-01-2.55849E-02-3.11771E-01 1.50125E-01
 -1      2177 1.25752E-01 9.20912E-02 1.41600E-01 6.25539E-02 2.81836E-01 3.62333E-01
 -1      2178-3.36093E-01-3.33831E-01-4.96505E-01-4.48736E-02 1.90452E-01 6.29470E-01
 -1      2179-1.50366E-01-4.81998E-02 1.09494E-02-4.41591E-02 6.12187E-02-4.29956E-02
 -1      2180-5.54158E-02-1.61656E-01-5.65594E-02-8.35305E-03 1.02725E-01 1.33605E-02
 -1      2181-1.78402E-01-2.19638E-01-1.92588E-01-1.21256E-02 2.96894E-01 2.21711E-01
 -1      2182-8.71963E-02-8.57797E-02-4.99255E-02-6.19635E-02 7.17070E-02-1.13096E-02
 -1      2183-2.38445E-01-3.71269E-01-3.15230E-01-5.21297E-02 3.23977E-01 4.10832E-01
 -1      2184-1.12805E-02 7.04911E-02-5.32410E-02-7.52560E-02 6.90813E-02 4.65999E-01
 -1      2185-3.37144E-01-1.13537E-01 1.51720E-02 1.35487E-02-3.41370E-02-1.02051E-02
 -1      2186 2.96956E-01 2.43090E-01 1.12250E-01-4.59110E-02-8.28162E-04 5.96600E-02
 -1      2187-4.27654E-01-2.40264E-01-1.49296E-01-5.50354E-02 9.98148E-03-6.52908E-02
 -1      2188-4.69422E-01-2.34766E-01-1.37157E-01 1.95076E-03-1.16803E-02-1.33078E-02
 -1      2189-2.02607E-01-1.30477E-01-6.94375E-02 7.82326E-02-4.59139E-02-6.39379E-02
 -1      2190-6.96771E-01-4.17604E-01-1.47945E-02-3.41358E-03-3.56699E-03 5.10877E-03
 -1      2191 2.24710E-01 1.70874E-01 1.66415E-01 8.88705E-02-6.83366E-03-9.36110E-02
 -1      2192 3.59169E-02 6.29211E-02 4.81004E-02 1.23051E-01-2.12613E-02-9.93652E-02
 -1      2193 4.17754E-01 2.31144E-01 1.89027E-01-3.66879E-02-1.43798E-01 6.00399E-01
 -1      2194-3.68322E-01-1.68892E-01-2.84978E-02 9.03144E-03 1.83262E-03-6.84651E-02
 -1      2195-4.95940E-02-3.52405E-02 2.71802E-02-8.50113E-03 9.40985E-02 1.28104E-04
 -1      2196-2.21338E-01-1.20451E-01-5.95426E-02-1.77698E-02 1.39543E-01 6.24896E-02
 -1      2197 2.36166E-01 1.86887E-01 4.25507E-02-3.29047E-02 6.98570E-02 5.18458E-02
 -1      2198 2.57216E-01 2.05291E-01 2.13899E-01-7.09223E-02-1.28696E-01 7.43719E-01
 -1      2199-1.79256E-01-9.46944E-02-6.44746E-02-1.28480E-02 2.18851E-03-3.31294E-02
 -1      2200-1.69792E-02 4.03150E-03 2.08335E-02-4.15747E-03 2.46428E-02-3.09522E-02
 -1      2201-2.37944E-02-6.81431E-03-2.74179E-02-3.62812E-03 6.34404E-02-7.31907E-03
 -1      2202-6.19283E-01-2.99540E-01-1.12794E-01-4.27484E-02 3.70060E-03-4.81213E-02
 -1      2203 2.19874E-01 1.33997E-01 3.08985E-02 1.48342E-01-5.40504E-03-8.94835E-02
 -1      2204-3.25045E-02-1.46258E-01-1.13601E-01 2.28113E-02 3.10302E-01 4.33181E-01
 -1      2205-2.08050E-01-1.23582E-01-4.89247E-02 8.20277E-02-5.48104E-03-3.95342E-02
 -1      2206 4.96100E-02-4.74451E-03-8.69273E-02-1.04286E-02-7.78826E-02 4.87374E-01
 -1      2207 5.15078E-02 7.53104E-02 1.01549E-02 9.14167E-03 1.74921E-01 3.77125E-03
 -1      2208-2.92932E-01-1.11211E-01 1.60711E-02-1.08255E-02 2.90447E-02 4.21849E-01
 -1      2209 6.05505E-02 7.67944E-02 9.47516E-02-6.38838E-02-1.48092E-02-9.25491E-02
 -1      2210-5.97190E-03-7.47064E-03 1.04423E-01 2.97926E-02 2.37838E-01 1.28302E-01
 -1      2211-2.82497E-01-1.84216E-01-2.98404E-02-3.73112E-02 1.49246E-02-1.95471E-01
 -1      2212 1.37782E-01 1.40991E-01 1.31408E-01 4.02614E-02-5.97220E-02 3.26457E-01
 -1      2213-2.36875E-01-6.49432E-02-8.29673E-02 1.20459E-01-1.98720E-02-1.46797E-01
 -1      2214 4.50775E-02-8.35199E-02-1.16255E-01 1.07676E-02-2.21094E-01 2.34157E-01
 -1      2215 6.16168E-03 2.67322E-02 1.77269E-03-3.24340E-02 1.61603E-01 8.14900E-03
 -1      2216 2.85698E-02 4.23600E-03 1.27519E-01 4.46704E-02-6.80570E-02 4.24948E-01
 -1      2217 7.32091E-02-1.20544E-01-1.24499E-02 1.15157E-02 2.45935E-01 1.22001E-01
 -1      2218-9.27807E-02-4.82628E-02-4.68064E-02 5.88024E-03-3.78385E-02-2.49291E-02
 -1      2219-1.26877E-01-1.09221E-01 7.38068E-02-3.30208E-02-1.02490E-01 1.21544E-01
 -1      2220-2.06486E-01-1.10642E-01 1.83116E-03-8.65156E-02 2.34485E-02-4.59375E-02
 -1      2221-2.13796E-01-1.00714E-01-2.45088E-02 1.12967E-01-3.60235E-02-9.00729E-02
 -1      2222-3.36965E-01-1.59908E-01-1.21451E-01-4.92702E-02 3.39858E-02-3.61415E-02
 -1      2223-2.76429E-01-2.52817E-01-2.11149E-01-4.94766E-03-7.06176E-02 7.66657E-02
 -1      2224 2.09545E-01 1.32065E-03-1.67260E-01-4.16081E-02-7.18983E-02 4.33254E-01
 -1      2225 6.09607E-02-5.50738E-03 6.33880E-02-1.30058E-02-1.33101E-01 2.60396E-01
 -1      2226-3.90202E-01-1.79056E-01-1.14134E-01 2.88390E-02 3.20580E-02 3.88033E-02
 -1      2227 2.58838E-01 1.35250E-01 1.20418E-01-3.12612E-02-3.51393E-01 4.15957E-01
 -1      2228 3.21525E-01 1.96296E-01-8.43506E-02-7.32254E-03-3.27734E-02-7.58354E-02
 -1      2229-3.86778E-01-2.55133E-01-1.19985E-01-5.32692E-02 2.78961E-03-5.93068E-02
 -1      2230 1.10698E-01 1.65348E-01 1.46984E-01 1.88508E-02-2.05829E-01 6.99513E-02
 -1      2231-8.68266E-02-7.01066E-02-6.14380E-02 8.45939E-02 9.68718E-04-1.31678E-02
 -1      2232 5.81617E-03-3.24527E-02-1.65355E-02-4.75466E-02-5.90624E-02-3.88075E-02
 -1      2233-1.04904E-01-1.10831E-01-4.25512E-02 2.97533E-02-3.77090E-03-2.07964E-01
 -1      2234-1.35084E-02-1.21342E-01-3.70037E-02 2.75805E-02-2.51392E-01 1.73017E-01
 -1      2235 4.25841E-02 2.04721E-02 2.09370E-02 7.56337E-02 4.56921E-02 2.14209E-02
 -1      2236-1.86333E-01-6.15792E-02-3.36585E-02-1.06696E-01 4.63915E-02-1.34405E-01
 -1      2237-9.27182E-02-5.77076E-02 1.11823E-01-3.05246E-02-4.23186E-02 2.50059E-01
 -1      2238 5.16981E-02 8.79203E-02-1.05663E-01 7.06035E-02 1.60108E-01 1.41321E-01
 -1      2239 3.85896E-02 3.14885E-02-1.42737E-01 5.60684E-02-4.24177E-03 4.39288E-01
 -1      2240 1.26231E-01 1.03724E-01 1.07293E-01 1.54906E-02-1.41748E-01 1.48556E-01
 -1      2241-2.98792E-02-9.50109E-02-1.26190E-02 1.00554E-02 2.49596E-01 3.48306E-01
 -1      2242 1.30791E-01-6.01952E-03 9.22077E-03 1.30611E-01 4.34305E-02-1.47926E-01
 -1      2243-1.16568E-01-4.29472E-02-2.05620E-02 8.06249E-02 7.26541E-03-8.51335E-02
 -1      2244 2.69382E-01 1.53607E-01 7.50899E-02 9.54141E-02-1.77252E-02-4.24214E-02
 -1      2245 8.15940E-02 1.01805E-02-4.10947E-02 1.12488E-01 2.57304E-02-1.23141E-01
 -1      2246 6.01482E-02 5.68932E-02 1.02940E-02 1.01749E-01-8.71601E-03-5.56306E-02
 -1      2247-3.01980E-01-1.75768E-01-1.51316E-01 7.00542E-02-5.79795E-02-3.54227E-03
 -1      2248-1.05943E-01-3.37478E-02-1.10091E-02 4.62566E-02-4.00407E-02-9.74596E-02
 -1      2249 2.95700E-01 1.43372E-01 1.09727E-01-4.80410E-02-8.21966E-03 1.09977E-01
 -1      2250-6.77113E-02-3.13158E-02-2.45624E-03 1.58752E-01-2.03945E-02-1.73523E-01
 -1      2251-2.83641E-02-4.84761E-02-6.92711E-02-4.10261E-02 1.70658E-03-5.98946E-02
 -1      2252-2.31274E-02-4.26989E-02-3.96771E-03 2.03507E-02 3.11730E-02 1.91288E-03
 -1      2253-1.53830E-02-5.41685E-02-9.77729E-03-1.22991E-03 7.33629E-02 3.92935E-03
 -1      2254-1.26923E-01-5.42751E-02-5.96023E-02-9.76233E-02 2.57103E-02-1.08353E-01
 -1      2255-1.16563E-01-1.01552E-01-2.04714E-01 2.18990E-04 2.05264E-01 4.94747E-01
 -1      2256-1.91600E-01-1.36708E-01-2.26300E-01-2.59422E-02 7.57697E-02 3.76902E-01
 -1      2257-4.24444E-01-2.10246E-01-6.91036E-02-1.63371E-01 1.52888E-02-5.94089E-02
 -1      2258-2.52942E-01-1.40293E-01-5.45551E-02-6.19136E-02 4.70621E-02-6.29157E-02
 -1      2259-2.36122E-01-1.45214E-01-3.45079E-02 3.00156E-02 2.39093E-02 2.32399E-02
 -1      2260-4.55027E-02-1.32638E-02-6.08539E-02 1.92903E-02-1.27831E-02 1.84229E-02
 -1      2261-9.59751E-02-1.93028E-01-7.42683E-02-7.46563E-03 2.27122E-01 3.92748E-02
 -1      2262 1.28016E-02 5.34627E-02 5.21072E-02-4.16437E-02 6.61285E-02-2.14178E-02
 -1      2263-2.28495E-01-1.23290E-01-9.72292E-02-1.03630E-01 9.62503E-03-8.86773E-02
 -1      2264-3.99864E-01-1.73230E-01-9.07232E-02-8.11038E-02 2.77062E-02-5.41072E-02
 -1      2265 3.39345E-01 1.85964E-01 1.12694E-01 3.82900E-03-3.03569E-02 1.04075E-01
 -1      2266-1.72825E-01-2.47487E-01-1.13028E-01 5.00550E-02-2.47933E-01 1.44254E-01
 -1      2267 3.61879E-01 1.99728E-01 9.75793E-02-5.98450E-02-7.06913E-02-1.92998E-02
 -1      2268-4.38246E-01-2.82658E-01-2.59964E-01-3.94590E-02-8.95299E-03-4.13377E-02
 -1      2269 2.22938E-01 1.11709E-01 3.17866E-02 7.02232E-02-2.39256E-02-6.29444E-02
 -1      2270 1.93217E-01 9.73250E-02 6.07368E-02-7.21988E-02-4.21140E-02-7.37914E-02
 -1      2271 3.99804E-01 1.73033E-01-1.83048E-02-9.18131E-02-7.08074E-02-1.68867E-01
 -1      2272 3.24398E-01 1.86639E-01 4.59959E-02 1.42768E-02-3.97598E-02 1.93175E-02
 -1      2273-1.02516E-01-6.91399E-02-1.62404E-01 5.80284E-02 9.29100E-03 3.89662E-01
 -1      2274-3.70308E-01-1.45842E-01-4.73606E-02-3.56510E-02 5.75033E-02-6.84644E-02
 -1      2275-5.94539E-01-3.65839E-01-6.07661E-02-6.14336E-03 6.59055E-03-7.80529E-02
 -1      2276 2.20483E-01 1.20320E-01 8.64197E-06-4.33765E-02-3.86855E-02 1.12134E-01
 -1      2277-1.85581E-02-8.20014E-02-6.00411E-02 2.05641E-03 1.56935E-01 7.16680E-02
 -1      2278 8.20571E-02 4.08236E-02 7.88061E-02-4.63460E-02-5.96271E-02-6.71208E-02
 -1      2279 5.97542E-02 2.41299E-02-1.78394E-02 3.10132E-02 2.38289E-01 1.93536E-01
 -1      2280-4.26372E-02-3.44446E-02 3.56381E-03 9.87912E-02-7.00316E-03-1.12689E-01
 -1      2281 5.32341E-01 2.77385E-01-2.98784E-02-2.58355E-02 4.12541E-02-1.06655E-02
 -1      2282-2.62708E-01-1.36548E-01-7.53362E-02 1.55299E-01 7.87421E-03-8.47114E-02
 -1      2283-2.05744E-01-1.23159E-01-1.03649E-01 7.36817E-02-8.01929E-03-1.39204E-02
 -1      2284 2.03098E-02 1.52827E-02 3.07975E-02-1.51948E-01-6.36959E-03-1.09695E-01
 -1      2285 2.67062E-01 1.29907E-01 1.31634E-01-4.06560E-02-1.14643E-01 2.45582E-03
 -1      2286 2.34189E-01 1.54644E-01 1.12198E-01 3.93755E-02 1.01810E-01-4.21322E-02
 -1      2287-8.14860E-02-1.02396E-01-1.14305E-01 1.81556E-02-2.38248E-01 9.84136E-02
 -1      2288-1.52052E-01-1.95123E-01-2.53042E-01 9.46828E-03 2.77908E-01 2.04591E-01
 -1      2289-1.24597E-01-5.96109E-02-2.95209E-02-3.90162E-02-2.17448E-01 1.39142E-01
 -1      2290 3.24658E-01 1.22867E-01-3.57399E-02 1.52047E-01 6.07303E-02-1.84035E-01
 -1      2291-1.38745E-01-1.02552E-01-4.09209E-02 6.45387E-02-3.37682E-02-8.34187E-02
 -1      2292-5.12277E-01-2.70182E-01-1.32683E-01 9.02642E-03 2.93316E-02-2.36406E-02
 -1      2293 2.00479E-01 1.22275E-01 9.56568E-02 1.13989E-01 1.06843E-02-7.25481E-02
 -1      2294-4.29241E-01-2.68035E-01-8.41229E-02 4.51946E-02 3.34114E-02-2.92150E-02
 -1      2295-3.66725E-01-1.75827E-01 2.51777E-02 1.35451E-01 3.35876E-03-1.99395E-02
 -1      2296 2.94206E-01 1.87296E-01 8.15566E-02-1.71008E-02-1.17340E-01 3.97621E-03
 -1      2297-4.79412E-02-3.99542E-02-1.68585E-02-8.29489E-03-9.80271E-03-2.11535E-01
 -1      2298-1.14767E-01-6.16056E-02-2.99052E-02-3.80925E-03 1.45540E-01 1.78714E-01
 -1      2299-1.22540E-01-9.22380E-02-5.43354E-02-1.90443E-02 1.61066E-01 5.10570E-02
 -1      2300-1.10642E-01-1.13394E-01-4.20458E-03-1.95689E-03 1.00696E-01-7.77704E-03
 -1      2301 8.89139E-02 5.95303E-02 4.23211E-03-7.42061E-02 4.52755E-03-4.15743E-02
 -1      2302 5.44186E-02 3.19298E-02 7.42999E-02-3.67546E-02 1.30061E-01 1.49508E-02
 -1      2303 3.12834E-01 1.89634E-01 3.32574E-01 3.41122E-02 3.17455E-01 5.61664E-01
 -1      2304 4.73587E-01 2.37953E-01 7.96170E-02 1.10414E-02-4.17613E-03 5.76685E-05
 -1      2305 3.90372E-02 1.05694E-01 5.84562E-02 3.52360E-02 2.28832E-01 8.89547E-02
 -1      2306-4.66359E-02-1.66331E-02 1.75666E-02-8.11906E-02 2.66656E-02-9.92551E-02
 -1      2307-4.86339E-01-2.57023E-01-1.01423E-01-8.35294E-02 8.03043E-02-5.35934E-02
 -1      2308-4.24445E-01-1.95495E-01-1.57034E-01 2.78175E-02-7.83087E-03-4.97279E-02
 -1      2309 1.10854E-02 4.29410E-02-1.87894E-02 5.96005E-03 1.45684E-01 2.68586E-01
 -1      2310-2.89283E-01-2.49748E-01-6.24300E-02 2.50444E-02-2.89653E-03 1.00042E-01
 -1      2311 2.65927E-01 1.57902E-01 1.06433E-01 1.85573E-02 1.16363E-01 1.11225E-01
 -1      2312 9.47001E-02 5.09300E-02 3.16419E-02-4.40541E-03-1.50029E-01 6.56678E-02
 -1      2313 1.42921E-01 1.38567E-01 1.46443E-01-3.10951E-02-6.50445E-02-2.33367E-02
 -1      2314-3.50929E-02-6.29415E-02-7.76967E-02 5.03640E-02-4.90565E-03-3.06862E-02
 -1      2315-6.87011E-01-3.55220E-01-1.15090E-01 7.36206E-02 1.22864E-02-5.82736E-02
 -1      2316-1.36932E-01-6.81211E-02 8.03892E-02 6.15959E-02 1.37736E-03-4.63735E-02
 -1      2317 9.96134E-03-4.28681E-02 3.20282E-02 2.07240E-02-2.19219E-01 1.89730E-01
 -1      2318 2.41004E-01 1.54168E-01 1.45078E-01 7.65635E-02 2.62906E-02-1.73044E-02
 -1      2319-3.17023E-01-9.27114E-02-5.69792E-02 9.58698E-02-6.52131E-02-1.56012E-01
 -1      2320-5.21842E-01-3.07880E-01-1.40939E-01 1.10746E-02-2.16420E-02-7.97504E-02
 -1      2321-4.93520E-02-2.80884E-02-1.45268E-01-1.20568E-01-2.06305E-02-1.02042E-01
 -1      2322-2.43396E-01-1.36850E-01-1.63258E-01-5.11785E-02 3.45675E-02-3.46076E-02
 -1      2323-9.43407E-02-5.33082E-02-4.39435E-02-1.00204E-02 1.56319E-02-1.95088E-01
 -1      2324-1.24942E-02-2.55115E-02 8.20139E-02 8.68538E-03-1.16333E-01 2.80257E-01
 -1      2325 3.51912E-01 2.12457E-01 1.19683E-01-8.14116E-02-9.22384E-03-8.67256E-02
 -1      2326-2.22112E-01-1.48536E-01-7.07152E-02-5.05615E-03 3.66719E-02 1.63593E-01
 -1      2327-1.87698E-01-1.95239E-01-9.68504E-02-2.08327E-02-1.91165E-02 2.28986E-02
 -1      2328-1.04585E-01-9.66283E-02-6.14631E-02-2.03654E-03 1.01413E-02 2.72052E-01
 -1      2329-1.78539E-01-1.10709E-01-5.52111E-02-6.20865E-02 7.12978E-03-8.20450E-02
 -1      2330-4.11034E-02-2.44018E-01-1.39207E-01 3.35485E-02-3.14446E-01 1.87683E-01
 -1      2331 1.04141E-01 3.24443E-02 6.26587E-03-1.37522E-01-2.99305E-02-1.71603E-01
 -1      2332 3.93110E-01 1.86297E-01 5.71724E-02-2.38510E-02-6.58044E-02-6.64495E-02
 -1      2333-4.97502E-01-2.24897E-01-1.24501E-01 3.77016E-03-2.48535E-02-4.19562E-02
 -1      2334-1.70751E-01-5.87710E-02 6.77192E-02-1.01867E-01 3.18642E-02-9.67338E-02
 -1      2335-3.26736E-02-1.96986E-02-2.07242E-02 6.78770E-02-2.28880E-02 3.95088E-02
 -1      2336 2.05544E-02 6.78030E-02 5.61774E-02 7.17254E-02-2.87161E-01 2.50749E-01
 -1      2337 1.79341E-01 1.50815E-01 8.79350E-02 6.82819E-02 3.57742E-02-7.35633E-03
 -1      2338 1.22564E-02-4.90750E-02-8.42981E-03-2.93910E-02 2.03143E-01 1.05464E-01
 -1      2339 1.58272E-01 9.04915E-02 2.51734E-02-2.17614E-03-4.27994E-02 3.52467E-03
 -1      2340 1.07858E-01 1.57759E-01 1.71915E-01-1.58023E-02-2.62110E-01 1.40638E-01
 -1      2341 3.98928E-02 5.97576E-02 4.50039E-02-1.16459E-02-1.80833E-01 5.77555E-02
 -1      2342 1.63452E-01 1.43958E-01 1.07009E-01 3.21797E-02-1.10494E-02 3.62107E-02
 -1      2343 1.21820E-01 1.31159E-01-4.98236E-02 8.80319E-02 2.14432E-01 3.34269E-01
 -1      2344 2.26127E-01 1.87636E-01 1.28590E-01 3.42495E-02 1.49068E-01 5.63601E-01
 -1      2345-3.56070E-01-1.86935E-01-1.25737E-01-3.32411E-02-1.87642E-01 6.33088E-01
 -1      2346 1.61167E-01 1.46117E-01 9.13266E-02-1.04174E-01 4.32452E-03-8.38217E-02
 -1      2347 1.12456E-01 9.07182E-02-1.73759E-02-1.76047E-01-5.79783E-02-2.16384E-01
 -1      2348-1.08570E-02-2.35584E-02-2.06617E-02-4.69030E-02 2.45718E-02-1.09823E-01
 -1      2349 3.79461E-02 2.87646E-02-5.29812E-03-3.19509E-02 1.61051E-02-7.57297E-02
 -1      2350-1.84363E-02-4.07098E-03-2.93679E-02-3.30709E-05-4.65462E-02 2.92234E-02
 -1      2351-1.25329E-01 8.62198E-03 1.43944E-02 4.88002E-02-1.12614E-01 4.60583E-03
 -1      2352-1.51812E-02 3.30820E-02 2.73555E-02 4.46598E-02-9.16719E-02 2.25530E-02
 -1      2353-5.27253E-01-3.14958E-01-1.30651E-01 6.21870E-03 4.77393E-02 1.83696E-02
 -1      2354-3.55370E-01-1.66518E-01-1.57602E-01-3.51807E-02 7.94477E-02-4.13715E-02
 -1      2355 4.62194E-01 2.28082E-01 1.23336E-01-1.72468E-02-2.51444E-02-5.65808E-02
 -1      2356 1.17250E-01 2.34939E-01 1.04626E-01 1.70628E-02-9.64943E-02 7.40035E-05
 -1      2357-3.37959E-01-3.40806E-01-2.29469E-01 9.46937E-02-4.07472E-01 3.15966E-01
 -1      2358 5.93044E-02 5.33904E-02 4.83007E-02 2.33074E-02-2.03983E-02-6.32998E-02
 -1      2359 3.87363E-01 2.78452E-01 1.28483E-01 5.21540E-02-9.22425E-02 1.30710E-01
 -1      2360 1.08258E-01 1.02949E-01 9.55397E-02-5.46805E-03 9.19527E-03-2.00235E-01
 -1      2361 4.64624E-01 2.21183E-01 1.07572E-01-1.42215E-02 6.36604E-03-5.04854E-02
 -1      2362-4.44968E-02-1.02362E-01-1.81525E-02 2.58814E-02 1.93960E-01 7.51286E-02
 -1      2363-2.73921E-02-7.79523E-02-3.91738E-02-2.79783E-02-7.38162E-02 6.70957E-03
 -1      2364 3.70939E-01 1.83435E-01 1.56911E-01-7.38024E-02-3.26355E-02-5.86813E-02
 -1      2365 2.86554E-01 1.47770E-01 1.47969E-01-1.51439E-02-1.75052E-02 1.01701E-02
 -1      2366-6.99885E-02-3.68447E-02 1.44845E-03 2.77289E-02 2.21668E-02-4.58828E-02
 -1      2367-3.31435E-01-2.31069E-01-1.61605E-01-1.94150E-02 3.33139E-02-2.01820E-03
 -1      2368 3.37174E-01 1.90509E-01 8.16946E-02-3.20769E-02-4.73481E-02-3.80698E-02
 -1      2369 1.18041E-01 8.57145E-02 4.14513E-02-4.75391E-02-4.36774E-04-2.11262E-01
 -1      2370 3.31587E-01 1.92081E-01-7.07040E-04-1.11150E-02 2.98600E-02-1.91116E-02
 -1      2371 1.73717E-01 1.55293E-01 1.15828E-01-1.81248E-02 3.17959E-02 7.11448E-02
 -1      2372 7.10138E-02 7.56745E-02 5.57443E-02-7.50686E-03 1.00993E-01 1.95228E-03
 -1      2373 3.47077E-02-4.34579E-02 5.29513E-02 4.11140E-03 1.99719E-01 2.96513E-01
 -1      2374-2.13131E-01-1.35677E-01-1.87987E-01-1.04305E-02 1.21152E-03 2.68774E-02
 -1      2375-3.94234E-01-2.52968E-01-5.00176E-02 3.00033E-03 5.09201E-02 1.49380E-02
 -1      2376 4.50147E-01 2.50506E-01 9.03995E-02-9.61998E-02-2.33347E-02-2.44507E-02
 -1      2377 7.89482E-02 1.11103E-01 1.01503E-01 2.50875E-02-1.01213E-01 1.56628E-02
 -1      2378 3.41895E-01 1.50395E-01 1.21317E-01-2.76430E-02 2.42313E-02 1.93649E-02
 -1      2379 3.64131E-01 2.21529E-01 1.97735E-01-4.18696E-03 9.99532E-05-1.96071E-02
 -1      2380 2.63164E-01 1.51672E-01 1.81466E-01 4.39218E-02-4.25867E-03-2.85368E-02
 -1      2381 1.79809E-01 1.08514E-01 6.29376E-02-7.40378E-02-8.08154E-02-9.20450E-02
 -1      2382-1.09661E-01-1.45790E-01-7.55854E-02 4.99982E-02-2.87774E-01 5.21821E-01
 -1      2383-3.86878E-01-2.41485E-01-8.06379E-02 6.41790E-03-9.71500E-04-5.66350E-02
 -1      2384 3.44837E-02 2.60639E-02 5.21066E-02-1.19853E-01 1.30106E-02-9.56228E-02
 -1      2385 1.61498E-01 1.44757E-01 2.48409E-02 6.56169E-02-1.44492E-02-3.96488E-02
 -1      2386-8.27722E-02-9.61760E-02-8.92497E-02-3.43719E-02-1.06416E-01 3.28833E-02
 -1      2387 5.36475E-02 3.45319E-02-1.89088E-02-1.51404E-01 8.01318E-03-6.53446E-02
 -1      2388-1.63216E-01-1.63998E-01-5.61742E-02 1.67145E-02-8.21577E-02 6.17488E-02
 -1      2389 5.33060E-02 5.62446E-02 1.05581E-01-3.50779E-02-3.20747E-04-4.82097E-02
 -1      2390 7.64096E-02 1.25846E-02-1.12543E-02 6.68077E-02-6.36703E-03-1.08517E-01
 -1      2391 5.25884E-01 2.80772E-01 1.09316E-01-3.94986E-02-7.19968E-02-2.80493E-02
 -1      2392 1.86071E-01 8.08526E-02 1.20091E-03 1.16870E-01 4.87963E-02-1.05327E-01
 -1      2393 9.61621E-02 1.03432E-01 3.33817E-02 3.42223E-02-1.77046E-02-6.87225E-02
 -1      2394 2.04204E-02-2.77090E-02-6.65695E-03 1.43380E-01 4.02627E-03-1.15028E-01
 -1      2395 6.25265E-01 3.21264E-01 1.57639E-01 4.76874E-02 4.63180E-02-2.42577E-02
 -1      2396-2.69954E-02-4.59913E-02 1.31058E-02 4.49604E-02-1.49026E-01-3.13788E-02
 -1      2397 1.73718E-01 1.44984E-01 5.28422E-02 1.03123E-01-1.04268E-02-4.30441E-02
 -1      2398-1.33157E-01-1.03247E-01-8.09716E-02 3.42436E-02-5.74500E-02-2.07761E-02
 -1      2399-1.03166E-01-1.04465E-01-5.16483E-02-5.56851E-02 7.61537E-02 6.14842E-03
 -1      2400-4.33547E-01-2.44344E-01-3.14129E-01-1.26713E-01 3.44709E-01 4.26662E-01
 -1      2401 1.91076E-01 2.75867E-01 1.52692E-01 5.84354E-02 2.74371E-01 2.35821E-01
 -1      2402-2.77486E-01-1.33877E-01 2.94814E-02-1.11285E-01 8.28693E-02-2.17253E-01
 -1      2403 3.40830E-01 2.60703E-01 2.63432E-01 4.51529E-02 4.16394E-02 5.92182E-04
 -1      2404 2.21987E-01 1.78667E-01 2.18331E-02 2.05132E-02 6.62362E-02 1.57207E-01
 -1      2405-8.43184E-02-6.20625E-02-1.50041E-02-8.38143E-02 1.40879E-02-6.35800E-02
 -1      2406-5.40076E-02-2.83127E-02 1.65755E-03-3.82072E-02-1.18459E-03-9.03406E-02
 -1      2407-3.41691E-01-1.69573E-01-1.14809E-01-3.70299E-03-9.22005E-02 8.20195E-02
 -1      2408-4.24177E-01-3.80274E-01-2.21511E-01 7.54936E-02 2.02853E-03 4.18426E-02
 -1      2409 3.74317E-01 2.38901E-01 1.66326E-01 2.46300E-02 2.01577E-02-5.99111E-02
 -1      2410 1.25236E-01 4.82073E-02-8.31851E-02 6.28851E-02 8.64502E-02 2.38955E-02
 -1      2411 1.98687E-01 1.15321E-01 3.56004E-02-6.51739E-02 2.20847E-02-3.18217E-02
 -1      2412 2.26702E-01 9.99516E-02 3.05275E-02-1.18880E-01-4.10106E-02-8.81611E-02
 -1      2413-1.05615E-01-2.00411E-01-5.07308E-02 3.17961E-02-7.82874E-02 1.29242E-01
 -1      2414 5.69358E-01 2.89594E-01 1.36205E-01-1.58290E-03-1.79693E-02-3.85324E-02
 -1      2415 2.24808E-01 3.35422E-01 2.28862E-01 2.79258E-02 3.38421E-01 4.55783E-01
 -1      2416 5.31922E-01 2.94728E-01 9.88017E-02-2.71094E-02-4.39884E-02 7.15845E-03
 -1      2417-6.52964E-02-3.94183E-02 2.79397E-02 8.17068E-02 1.38472E-02-6.06104E-02
 -1      2418 1.98109E-01 1.38184E-01 1.45861E-01-2.97689E-02-3.82344E-02 1.84447E-01
 -1      2419 3.24004E-01 1.93494E-01 1.83054E-01-5.39120E-02-1.71574E-03-5.27036E-02
 -1      2420-3.97719E-01-1.72130E-01-7.89393E-02 9.78693E-02-2.32778E-02-8.48855E-02
 -1      2421 2.57524E-01 1.58540E-01 6.20769E-02 5.76858E-02 3.17089E-02-7.42623E-02
 -1      2422 7.08757E-03 1.56665E-02 8.70467E-02 1.01065E-01-9.56282E-03-1.13067E-01
 -1      2423-2.64299E-01-2.70436E-01-2.90846E-01 2.39841E-02-3.74721E-01 2.88472E-01
 -1      2424 2.21953E-01 1.66808E-01 8.10050E-02 2.15883E-02 7.04831E-02 4.40655E-03
 -1      2425 3.26267E-01 1.27603E-01 7.78443E-02 6.36115E-02 5.40532E-02-4.43669E-02
 -1      2426-1.53076E-01-6.63898E-02 2.87470E-02 2.97150E-02-1.09640E-01 8.86029E-03
 -1      2427 2.63218E-01 2.09800E-01 7.57702E-02 5.27206E-02 4.03581E-02-1.93050E-01
 -1      2428 4.00956E-01 2.02168E-01-4.24076E-02 6.43225E-02 3.54835E-02-2.11879E-02
 -1      2429 2.87760E-01 6.28801E-02 7.05526E-03-9.62746E-02-7.24175E-02-1.20102E-01
 -1      2430 4.36019E-01 3.86963E-01 3.18737E-01 1.51600E-01 2.64917E-01 4.68921E-01
 -1      2431 5.17911E-01 2.79466E-01 1.32147E-01 4.21179E-02 2.03253E-02-2.40893E-02
 -1      2432-1.89510E-01-1.17114E-01-2.34819E-02 4.48495E-02 2.93231E-01 5.25505E-01
 -1      2433 6.07700E-02 1.94695E-01 3.02067E-02 1.82190E-02 1.67977E-01 4.61867E-02
 -1      2434-1.51558E-01-8.94529E-02-2.75758E-02-3.19298E-02 1.90877E-01 3.23889E-01
 -1      2435 3.95093E-01 2.10681E-01 1.33445E-01 4.31713E-02 2.18610E-02-3.82125E-02
 -1      2436-4.16511E-01-2.25770E-01-5.00070E-02 9.77826E-02-5.97729E-02-5.20819E-02
 -1      2437 1.37613E-01 7.13872E-02 5.45117E-03-1.05967E-01-2.32614E-02-8.10297E-02
 -1      2438 1.87170E-01 1.34933E-01 1.06298E-01-2.55431E-02-3.39988E-01 1.99508E-01
 -1      2439-3.04791E-01-1.49193E-01-7.57720E-02-7.28140E-02-2.10184E-03-3.19010E-02
 -1      2440 3.22606E-01 1.10715E-01 3.67699E-02 1.62333E-02 2.97684E-02-8.61549E-02
 -1      2441 2.57726E-01 1.96276E-01 3.74217E-02 3.73609E-02 8.48232E-03-5.45455E-02
 -1      2442 7.76600E-01 3.93954E-01 1.19958E-01-1.05445E-01-1.66004E-02-5.24640E-02
 -1      2443 2.14225E-01 1.03058E-01 1.75683E-01-2.64729E-02-5.78038E-02 8.59271E-02
 -1      2444 2.44213E-01 9.79368E-02 1.04078E-01-8.35114E-02-2.85044E-03-7.51479E-02
 -1      2445-2.91404E-01-3.10396E-01-6.87350E-02-2.04548E-02 6.00729E-04-3.41838E-03
 -1      2446-5.33834E-02-1.31293E-01-8.37458E-02-4.14094E-03 1.12264E-01 5.17242E-03
 -1      2447 3.66693E-01 1.97469E-01 1.39678E-01-6.04283E-02 4.23031E-03-5.11472E-02
 -1      2448 1.05266E-01 5.29497E-02 6.62545E-03-4.00207E-02-2.61876E-02-2.90760E-03
 -1      2449 3.31335E-01 1.16208E-01 1.70283E-02-1.64614E-03-3.00859E-02-3.11382E-02
 -1      2450 2.13668E-01 9.08370E-02 5.60238E-03 1.36015E-01 3.32590E-02-7.09239E-02
 -1      2451 1.41011E-01 6.01264E-02 5.57199E-02-1.09300E-01-1.89631E-02-1.14522E-01
 -1      2452 2.95606E-01 1.44265E-01 7.29265E-02-3.87449E-02-2.46902E-02-5.47796E-02
 -1      2453 3.09001E-01 1.02157E-01 1.05837E-01 6.61354E-02 2.72510E-02-6.98015E-02
 -1      2454 4.09602E-01 1.53136E-01 7.60134E-02-4.37070E-02-1.83586E-02-5.70266E-02
 -1      2455-7.40486E-02-5.97021E-02-1.04037E-01-8.78788E-03 2.28233E-01 7.65941E-02
 -1      2456-3.69025E-01-1.77337E-01 1.24325E-02 2.12085E-01-6.34541E-02-2.17012E-01
 -1      2457 4.79835E-01 2.52256E-01 1.09767E-01-1.56687E-01-6.69583E-02-7.15854E-02
 -1      2458 2.88758E-01 3.79942E-01 1.01108E-01-2.90210E-01 1.17209E-01-2.33713E-01
 -1      2459-1.03318E-01-9.00773E-03 5.27277E-02-1.58887E-01 1.71312E-02-2.31701E-01
 -1      2460 2.31734E-01 1.65054E-01 9.47610E-02-1.52326E-01 8.96029E-02-3.18951E-01
 -1      2461 5.68295E-02 4.34385E-02-7.55815E-03 2.57348E-03 2.18901E-02-2.09239E-01
 -1      2462-7.21601E-01-4.43289E-01-8.46490E-02-3.39049E-02 1.14814E-01-3.92168E-02
 -1      2463 3.58671E-01 4.08383E-01 6.18433E-02-3.36081E-01 9.23642E-02-1.94438E-01
 -1      2464 7.09344E-02 1.17918E-02 6.67424E-02 1.77662E-01 4.01876E-02-2.60835E-01
 -1      2465 4.86080E-01 2.60475E-01-9.43625E-02-9.51596E-02-1.09262E-01-1.51943E-01
 -1      2466-8.40310E-02-5.80781E-02-5.67384E-02-8.05180E-03-4.68433E-03-2.04840E-01
 -1      2467 2.37591E-01 1.80830E-01 1.18059E-01-2.06753E-02 1.34063E-03-2.04755E-01
 -1      2468-4.27759E-01-2.77992E-01-3.37644E-02 1.39004E-01-3.95095E-02-2.25182E-01
 -1      2469-6.51925E-01-3.18817E-01 1.18970E-01 2.54546E-02-8.63490E-02-7.27975E-02
 -1      2470 2.71483E-01 4.03619E-01 3.78386E-01-1.64615E-01 1.68750E-01-3.48309E-01
 -1      2471 2.79621E-01 3.90590E-01 1.35970E-01 2.67908E-01-1.19114E-01-1.93285E-01
 -1      2472-5.90355E-01-3.88997E-01-1.71424E-01-3.46982E-02 3.67382E-03-4.15402E-02
 -1      2473-5.24563E-01-2.56183E-01 1.84543E-02-4.75316E-02 1.25682E-01-1.22218E-01
 -1      2474 5.53166E-01 2.95728E-01 5.79515E-02 1.03080E-01 1.14621E-01-1.53697E-01
 -1      2475 1.46729E-01 1.44512E-01 1.57336E-01 1.51291E-01-1.17242E-01-3.87364E-01
 -1      2476-1.83319E-01-7.56219E-01-1.71277E-01-2.02477E-01-1.13886E-01-1.51555E-01
 -1      2477 4.03992E-01 5.94013E-01 4.20152E-01-3.61033E-01 2.06059E-01-2.79297E-01
 -1      2478 2.95644E-01 1.25660E-01 3.34763E-03-1.66353E-01-7.28498E-02-1.78315E-01
 -1      2479-2.76258E-01-6.77765E-01-2.77130E-01 2.10617E-01 8.55007E-02-1.86238E-01
 -1      2480 1.56134E-01 1.54416E-01 3.29130E-02 9.17619E-02-6.81067E-02-1.54424E-01
 -1      2481-3.44083E-01-5.54969E-01-2.56031E-01 3.55027E-01 1.83370E-01-2.63490E-01
 -1      2482 6.94566E-01 7.34206E-01 7.23819E-01-7.84384E-02 9.65934E-02-4.49840E-01
 -1      2483 7.52262E-02 2.64699E-02-5.40564E-02 1.63955E-01 2.26085E-02-2.37110E-01
 -1      2484 1.78452E-01 3.08921E-01 2.51518E-01 1.69767E-01-1.54875E-01-2.72370E-01
 -1      2485-7.01763E-01-4.65448E-01-2.34517E-01-6.83042E-02 1.53997E-02-1.93884E-02
 -1      2486 3.62852E-01 5.05563E-01 4.73798E-01-2.85058E-01 2.56673E-01-3.74190E-01
 -1      2487 9.17821E-02 8.54724E-02-2.72705E-02-2.94072E-04-4.80885E-02-1.63864E-01
 -1      2488 8.04094E-02 1.49559E-01 2.65598E-02 3.96382E-02-5.35459E-02-1.06563E-01
 -1      2489 5.79615E-01 4.01510E-01 1.49156E-01-3.79710E-01 1.62678E-01-3.07116E-01
 -1      2490 1.67771E-01 8.84223E-01 2.82537E-01 1.26284E-02-6.96646E-03-1.18176E-01
 -1      2491 2.92525E-01 7.97681E-01 3.17368E-01-2.06112E-01 1.04200E-01-1.60743E-01
 -1      2492 4.67329E-01 1.00707E+00 3.03740E-01-2.81631E-01 7.85811E-02-1.95867E-01
 -1      2493 5.99987E-01 3.94351E-01 1.25217E-01 1.88486E-02-2.46727E-04-1.21587E-01
 -1      2494 5.71609E-01 3.43446E-01 1.36934E-01 8.96293E-02 1.02209E-01-1.55365E-01
 -1      2495-3.29317E-01-1.01157E-01-3.15142E-02-9.18267E-02 2.62958E-02-6.40002E-02
 -1      2496 5.21436E-01 5.17556E-01 1.35497E-01-3.98192E-01 1.34361E-01-2.33423E-01
 -1      2497 1.06778E-02 2.60126E-02 1.42581E-02 9.40889E-02 9.67937E-03-3.78753E-01
 -1      2498 1.69349E-01 1.65173E-01 1.33267E-01-1.71525E-01 1.46031E-01-3.52529E-01
 -1      2499 1.55156E-01 1.32874E-01 2.24995E-01-8.64833E-02 1.22072E-01-4.89736E-01
 -1      2500-6.66856E-01-3.38400E-01 2.30899E-02 7.56497E-02-9.57369E-02-3.52171E-02
 -1      2501 4.28877E-01 5.93485E-01 1.71206E-01 4.04244E-01-7.21717E-02-1.42653E-01
 -1      2502-4.49690E-01-5.88420E-01-1.72761E-01-3.31145E-01-1.56942E-01-2.12541E-01
 -1      2503-1.64110E-01-9.15384E-02 7.78056E-02 1.52078E-01-6.99458E-02-2.28603E-01
 -1      2504-7.42190E-01-4.20780E-01-5.06178E-02-1.57061E-02 2.37657E-02-6.42978E-02
 -1      2505-2.19813E-01-5.87849E-01-7.50127E-01-1.56075E-01-7.75127E-02-3.12893E-01
 -1      2506 2.14120E-01 1.73686E-01 1.29187E-01 8.25910E-02 2.45400E-02-5.99439E-02
 -1      2507 4.23077E-01 6.30655E-01 6.42362E-01 2.14115E-02-3.43592E-03-3.02117E-01
 -1      2508 1.70929E-01 1.43874E-01 1.31673E-01-1.94489E-01-2.30559E-02-1.02286E-01
 -1      2509-6.62214E-01-4.16073E-01-6.81008E-02-4.25486E-02 2.59035E-02-1.37896E-01
 -1      2510 2.81638E-01 5.50396E-01 4.12473E-01-1.24378E-01 9.48382E-02-2.61802E-01
 -1      2511 1.58939E-01 1.57400E-01 2.71281E-01 5.26924E-02-5.29788E-02-5.11974E-01
 -1      2512 1.24353E-01 8.27678E-02 4.63056E-02 4.47449E-02-4.91442E-02-1.70917E-01
 -1      2513-2.83954E-01-1.32316E-01-7.16322E-02-1.90117E-01 6.27459E-02-1.20784E-01
 -1      2514-2.35269E-01-1.48028E-01 8.27266E-03 4.67886E-02-2.47790E-02-1.51897E-01
 -1      2515 4.39109E-01 1.87427E-01 6.94370E-02-9.85995E-02 9.70855E-03-8.03336E-02
 -1      2516 8.90596E-03-7.95150E-01-2.21559E-01-7.90649E-03-9.59142E-03-1.07229E-01
 -1      2517 2.88476E-01 8.58479E-01 3.56156E-01 1.97433E-01-1.15201E-01-1.62474E-01
 -1      2518 5.52368E-01 9.23175E-01 8.45929E-01 9.05823E-02-2.51973E-02-3.79797E-01
 -1      2519-4.16233E-01-7.16862E-01-3.24177E-01 4.18718E-01 3.16194E-01-2.69935E-01
 -1      2520 1.15085E-01 1.06645E-01 4.60387E-02 6.41576E-02-1.45569E-02-2.00272E-01
 -1      2521-8.22047E-01-4.94293E-01-1.59558E-01 2.08291E-02 1.70016E-02 2.02823E-02
 -1      2522-1.22571E-02 7.93537E-02-6.19808E-02-3.47122E-02-3.80558E-02-1.74857E-01
 -1      2523 3.25981E-01 7.26181E-01 1.72632E-01-2.90507E-01 6.93484E-02-1.92992E-01
 -1      2524 2.06346E-01 4.55214E-01 3.05099E-02-6.42504E-02-5.45945E-03-1.01248E-01
 -1      2525 6.85605E-01 4.25703E-01-1.01263E-03 1.05667E-02-3.22535E-02-1.20880E-02
 -1      2526-1.28432E-01-4.78995E-02 2.60466E-02 3.36989E-02 1.00247E-01-2.56456E-01
 -1      2527-2.24764E-01-2.90777E-01-2.38210E-01 1.69645E-01 1.61890E-01-2.88661E-01
 -1      2528-2.15669E-01-1.00805E-01-5.73635E-02 2.01664E-01-3.30840E-02-1.04368E-01
 -1      2529-5.84146E-01-6.40670E-01-7.40218E-01-2.19648E-02-2.72238E-02-3.23240E-01
 -1      2530-3.68671E-01-3.34802E-01-5.41502E-01 1.79312E-01 1.61031E-01-4.68299E-01
 -1      2531 3.17542E-01 4.97409E-01 2.27140E-01 3.20223E-01-1.99493E-01-2.83999E-01
 -1      2532-2.72159E-01-8.02584E-02-1.06460E-01 4.28996E-02 4.77565E-02-3.02001E-01
 -1      2533-2.54492E-01-6.58092E-01-8.68263E-02 4.41360E-01 2.00345E-01-7.03029E-02
 -1      2534 2.30770E-01 1.08025E+00 2.00816E-01-2.30432E-01 5.43230E-02-1.13835E-01
 -1      2535-2.13119E-01-5.88129E-01-5.49416E-01-2.46177E-01-1.12638E-01-2.31805E-01
 -1      2536-4.96346E-02-8.13899E-01-3.12816E-01-2.26037E-01-1.75514E-01-1.52033E-01
 -1      2537 6.81033E-02 3.11396E-02 4.66314E-02 1.31403E-01 1.21966E-02-7.23824E-02
 -1      2538 1.17896E-01 1.04810E+00 2.98405E-01 2.15000E-01-1.27637E-01-4.37591E-02
 -1      2539-8.31081E-02-2.15120E-02-3.63331E-02 1.35282E-01-1.07024E-02-1.71103E-01
 -1      2540 7.59379E-02 6.58823E-02-2.76046E-02-7.53719E-03 1.91513E-02-1.00114E-01
 -1      2541 2.38752E-01 8.65388E-01 4.12485E-01-1.49497E-01 1.25431E-01-1.70025E-01
 -1      2542-1.96853E-01-1.19653E-01-7.12584E-03-2.12953E-01-1.23125E-01-3.07563E-01
 -1      2543 3.15486E-01 7.64893E-01 3.88614E-01-2.00151E-01 9.20339E-02-2.22416E-01
 -1      2544-2.76084E-01-1.19860E-01-6.88478E-02 1.37745E-01 1.37055E-02-9.85983E-02
 -1      2545 2.06682E-01 4.39488E-01 2.34408E-01-2.73050E-01 1.85244E-01-2.43971E-01
 -1      2546 9.06585E-02 1.44452E-01 4.49433E-02-1.00924E-01 1.31480E-02-2.39085E-01
 -1      2547-1.59658E-01-1.59377E-01-1.67392E-02-7.68473E-02-8.96495E-02-1.42365E-01
 -1      2548 4.97635E-01 5.71097E-01 6.09292E-01-2.85688E-01 2.67616E-01-4.33099E-01
 -1      2549 4.18935E-01 1.25990E-01 1.03340E-01 4.77858E-03 7.99144E-03-4.70460E-02
 -1      2550 4.40149E-01 1.08358E+00 1.76568E-01 3.62650E-01-6.39097E-02-1.60093E-01
 -1      2551-1.59857E-01 1.10752E-01-1.51797E-02 4.27670E-02 7.64452E-02-3.98801E-01
 -1      2552-2.73916E-01-7.35484E-02-2.91910E-02-1.27951E-01 6.13062E-02-1.01368E-01
 -1      2553-1.06273E-01-6.22395E-02 3.43530E-02-9.34058E-02 2.04581E-02-1.08795E-01
 -1      2554 1.04491E-01 1.23156E+00 4.43670E-01-1.36165E-01 2.20521E-02-1.40447E-01
 -1      2555 6.37955E-01 7.17356E-01 2.50711E-01-4.70242E-01 1.99883E-01-2.90410E-01
 -1      2556 1.40478E-01 1.71166E-02-7.26250E-02 1.77198E-01 1.95769E-02-8.72861E-02
 -1      2557-6.72330E-02-2.10695E-02-2.40401E-02 1.11301E-01 3.88137E-02-4.56546E-01
 -1      2558 2.05315E-01 1.61512E-01-1.92299E-02 8.47863E-02-5.70675E-02-1.34003E-01
 -1      2559 3.26325E-01 1.94114E-01 2.08657E-01 1.76027E-01-6.95507E-02-3.91662E-01
 -1      2560 8.49613E-01 5.43380E-01 1.60462E-01-3.51261E-02-7.00034E-02-3.91324E-02
 -1      2561 5.70272E-01 5.51595E-01 5.06119E-01-4.34730E-01 3.88660E-01-3.33239E-01
 -1      2562 1.95505E-01 1.77571E-01 2.27193E-02-9.53075E-02 5.97306E-02-1.24595E-01
 -1      2563-2.54803E-01-1.54194E-01-2.29852E-01-1.78935E-01-1.52443E-01-4.48047E-01
 -1      2564-4.15414E-01-2.97865E-01-1.71091E-01 1.35571E-01-6.20054E-02-1.31987E-01
 -1      2565-5.54586E-01-2.11935E-01-9.32542E-02 7.48441E-02-3.77965E-02-8.23464E-02
 -1      2566 1.89307E-01 7.78477E-01 3.94178E-01 9.14726E-02 2.44940E-02-1.74072E-01
 -1      2567 2.30045E-01 1.17062E+00 2.90532E-01-6.09027E-02 1.97719E-02-1.15376E-01
 -1      2568 3.56955E-01 1.06064E-01 3.39026E-02-5.72700E-03 2.33724E-02-2.18075E-01
 -1      2569 2.13372E-01 7.89386E-01 5.02221E-01-5.28670E-02-2.27684E-02-2.09122E-01
 -1      2570 2.54177E-01 3.01926E-01 4.83178E-01 1.12502E-01-1.35332E-01-4.22282E-01
 -1      2571-2.81283E-01-3.89366E-01-3.51767E-01-1.70244E-01-1.25050E-01-3.68176E-01
 -1      2572-6.02567E-02-1.11027E+00-4.09912E-01 7.14728E-02 2.17605E-02-1.02246E-01
 -1      2573 2.33658E-01 1.19841E-01 1.60501E-01 1.79240E-01-1.40520E-01-3.69331E-01
 -1      2574-2.42161E-01-9.74435E-02 2.65125E-02-6.27140E-02-5.88659E-02-1.78906E-01
 -1      2575 2.72350E-01 5.42700E-01 3.57369E-01-1.81519E-01 9.67566E-02-2.52675E-01
 -1      2576-1.57525E-01-6.38881E-01-3.63150E-01-2.49564E-02 7.75662E-03-1.53159E-01
 -1      2577 2.87353E-01 1.78415E-01 8.82554E-04 1.18497E-01 1.98745E-02-8.27698E-02
 -1      2578 8.36601E-01 5.36411E-01 1.08063E-01 3.32158E-02-3.72913E-02-1.09517E-02
 -1      2579 3.89590E-01 1.75784E-01 1.06232E-01 1.47442E-01 6.73849E-02-5.21128E-02
 -1      2580-7.31907E-02 5.05245E-03-2.88223E-03-8.08094E-03 2.04836E-02-1.41226E-01
 -1      2581 8.16515E-01 4.51373E-01 1.10159E-01 3.09325E-02-6.97655E-03-3.56173E-03
 -1      2582-2.83316E-01-1.09463E-01-8.56274E-02-3.60095E-02-8.96802E-02-8.27922E-02
 -1      2583-8.24381E-02-9.95017E-01-1.06063E-01-2.69258E-02 1.30446E-02-1.14763E-01
 -1      2584 5.93913E-01 3.29050E-01 1.85677E-01 2.89671E-02 1.98286E-02-4.56004E-02
 -1      2585-2.13104E-01-7.42002E-02-4.62923E-02 1.02638E-01-3.14948E-02-1.22411E-01
 -1      2586-5.59979E-01-2.69362E-01-1.67035E-01 1.33380E-01-3.21886E-02-1.49477E-01
 -1      2587 2.78248E-01 6.08011E-01 3.13367E-01-2.12577E-01 8.65062E-02-2.24951E-01
 -1      2588 7.16105E-01 8.42420E-01 7.65759E-01-5.70552E-02-2.29144E-02-3.86828E-01
 -1      2589-6.40807E-01-3.76254E-01-9.89324E-02 7.67167E-02 1.28061E-03-2.93063E-02
 -1      2590 4.28507E-01 9.56427E-01 2.89428E-01 3.58216E-01-1.35803E-01-2.25844E-01
 -1      2591 2.76531E-01 1.06133E+00 1.39413E-01 2.67748E-01 2.38099E-03-1.30176E-01
 -1      2592 3.10614E-01 1.04024E+00 3.14833E-01 2.08339E-01-1.38267E-01-1.40413E-01
 -1      2593 2.67658E-01 1.13190E-01 4.80296E-02-9.21309E-02 2.99555E-02-2.00911E-01
 -1      2594 7.36539E-01 3.98851E-01 1.80815E-01-1.14638E-01-1.58020E-02-9.63588E-02
 -1      2595 5.15497E-01 2.71421E-01 1.22167E-01-1.17447E-01-1.92710E-02-4.44234E-02
 -1      2596 5.35942E-01 9.36885E-01 3.81662E-01-3.96643E-01 1.90865E-01-2.48587E-01
 -1      2597 3.14473E-01 1.27073E-01-6.24446E-03 8.65314E-02-3.87887E-02-1.90419E-01
 -1      2598-5.03623E-02 1.41554E-02-1.00463E-01-9.87023E-02-3.37747E-03-5.31506E-01
 -1      2599-3.24979E-01-8.08975E-02 6.44601E-03 3.68203E-03-7.63662E-03-2.18584E-01
 -1      2600-3.00159E-01-4.56491E-02-2.19463E-02-3.41069E-03-1.40091E-02-2.24244E-01
 -1      2601-3.76906E-01-4.98805E-01-6.14401E-01-2.35862E-01-1.27142E-01-3.80174E-01
 -1      2602 2.66682E-01 3.36701E-01-3.06195E-02 1.97935E-02-1.05334E-02-1.79990E-01
 -1      2603 2.70894E-01 1.69349E-01 1.08171E-01 3.95613E-02-1.20700E-02-2.88330E-01
 -1      2604 4.34750E-01 6.16996E-01 5.67632E-01-1.87604E-01 1.19209E-01-3.38301E-01
 -1      2605-5.49834E-02-9.53371E-01-2.35347E-01-2.88927E-01-1.38037E-01-1.02735E-01
 -1      2606-3.38553E-01-6.45308E-01-6.34026E-01-3.79479E-02-2.07668E-02-2.99439E-01
 -1      2607-2.34438E-02-7.76813E-02 2.33878E-02-7.47206E-03-5.73617E-02-1.79497E-01
 -1      2608 2.67231E-01 4.74958E-01 2.26720E-01-2.23616E-01 1.65647E-01-3.08861E-01
 -1      2609 2.10326E-01 8.06422E-01 5.82683E-01-4.19790E-02-5.90980E-02-2.13652E-01
 -1      2610 3.68005E-01 1.86128E-01 5.60998E-02-5.13232E-02-3.54717E-02-6.29505E-02
 -1      2611-2.20907E-01-1.46069E-01-7.05721E-02-1.40873E-01 1.62394E-02-1.56190E-01
 -1      2612-2.03532E-01-7.80993E-01-1.01248E-01-2.63846E-01-1.15344E-01-1.17693E-01
 -1      2613-5.09012E-01-1.31414E-01-7.62963E-02-2.84501E-01-7.79990E-02-1.57257E-01
 -1      2614-3.89638E-01-3.25224E-01-1.18161E-01-2.08757E-01-1.42266E-02-1.98510E-01
 -1      2615 2.08579E-01 9.85570E-02-4.21762E-02 5.74643E-02-5.40398E-02-1.95079E-01
 -1      2616 1.04249E-01 1.17714E-01 1.98261E-01-2.50567E-02-1.54554E-02-5.75261E-01
 -1      2617 3.07028E-01 1.84027E-01-3.54195E-02-6.69637E-02 3.59399E-02-2.92035E-01
 -1      2618-1.78638E-01-6.89715E-01-4.58882E-01-3.02530E-02 1.90356E-02-2.27391E-01
 -1      2619-2.97666E-01-2.39183E-01-1.53049E-01-1.36958E-02-4.47289E-02-2.68895E-01
 -1      2620-4.75377E-01-8.84521E-01-2.57340E-01-3.91915E-01-1.73356E-01-1.77559E-01
 -1      2621 3.06767E-01 1.10132E+00 2.25983E-01 1.01082E-02-4.22442E-02-9.97250E-02
 -1      2622 1.36867E-02-4.96998E-02-1.14378E-01-1.37503E-02-1.03876E-02-1.08560E-01
 -1      2623-2.79325E-01-2.23011E-01-1.50442E-01 2.35286E-02 2.67908E-02-2.71635E-01
 -1      2624 4.08326E-01 1.99292E-01 1.56582E-01 8.52101E-02 1.67892E-03-3.30029E-01
 -1      2625-2.32802E-01-1.06512E+00-3.90028E-01-3.27242E-01-1.14203E-01-8.00385E-02
 -1      2626 5.41373E-01 7.42458E-01 6.51413E-01-8.85361E-02 4.72459E-02-3.62834E-01
 -1      2627-3.95708E-01-4.65511E-01-1.22415E-01 2.73556E-01 9.62286E-02-1.97498E-01
 -1      2628-3.18986E-01-8.69461E-01-1.68252E-01 2.88310E-01 8.62076E-02-1.76562E-01
 -1      2629-3.89234E-02-1.03152E-01-1.18098E-01-2.68912E-02 3.53707E-02-1.23732E-01
 -1      2630-1.13143E-01 5.32667E-03-3.51245E-02 8.74755E-02 2.65263E-02-4.99333E-01
 -1      2631 2.87841E-01 2.82777E-01 1.82340E-01-7.96869E-03 5.89262E-02-2.87111E-01
 -1      2632-2.48223E-01-1.31949E-01-6.51881E-03 1.28436E-01 7.47872E-02-3.29689E-01
 -1      2633 3.67456E-01 2.11413E-01 1.18429E-01-2.78014E-01 1.07111E-01-2.31210E-01
 -1      2634 2.66332E-01 2.15079E-01 2.33751E-01-8.73846E-02 1.37479E-01-5.10822E-01
 -1      2635-1.17406E-02-9.98406E-02-3.42820E-02-1.09396E-01 6.96992E-02-8.70228E-02
 -1      2636 3.90752E-01 2.06865E-01 1.23299E-02-7.28083E-02 4.05696E-02-1.56059E-01
 -1      2637 2.10236E-01 8.41547E-02-4.15791E-02-6.83678E-02 4.28542E-02-1.77215E-01
 -1      2638 1.89300E-01 2.58715E-01 1.42841E-01 1.71914E-01-1.54822E-01-3.21110E-01
 -1      2639 7.09426E-03-1.08906E+00-1.86587E-01 7.44869E-02 4.04418E-02-1.16500E-01
 -1      2640 1.71746E-02 3.80560E-02 2.06024E-02-1.61386E-02 7.90679E-03-6.74100E-02
 -1      2641 1.66527E-01 9.89498E-02-3.37155E-03-4.12388E-02-1.92244E-03-3.94978E-01
 -1      2642-1.30636E-01-1.61327E-01-9.65923E-02 1.28165E-01 8.76677E-02-3.82937E-01
 -1      2643 1.37123E-01 2.04631E-01 9.36601E-02-4.42064E-02 5.54129E-02-9.35264E-02
 -1      2644 3.01445E-01 2.99379E-01 4.59653E-01-1.12077E-01 1.17549E-01-4.62188E-01
 -1      2645-4.80324E-01-7.06356E-01-1.83221E-01-5.70542E-01-1.67312E-01-2.32759E-01
 -1      2646 3.71089E-01 1.61784E-01 1.91166E-01-2.56808E-01 1.99638E-01-4.18232E-01
 -1      2647-3.80610E-02 2.90394E-02-2.76422E-02-8.36745E-02-1.74882E-02-3.11905E-01
 -1      2648 4.81034E-01 7.14701E-01 2.42915E-01 5.22063E-01-2.66655E-01-2.24133E-01
 -1      2649 1.06416E-01-1.76722E-01-7.03617E-02 6.25277E-02-9.81053E-02-3.06756E-01
 -1      2650 3.28311E-01 2.30079E-01 2.98996E-01 2.00904E-01-2.51508E-01-4.55244E-01
 -1      2651 1.19000E-01 5.83028E-02 8.50860E-02-1.25889E-02 5.78933E-02-5.70302E-01
 -1      2652-1.72702E-01-8.95415E-01-4.91668E-01 7.29565E-02 1.81519E-03-1.71207E-01
 -1      2653-1.93116E-01-8.75447E-01-3.11449E-01 1.62189E-01 4.41274E-02-1.51756E-01
 -1      2654-6.53382E-01-8.14104E-01-9.41593E-01-1.26542E-01-1.07226E-01-4.06028E-01
 -1      2655-2.54366E-01-2.75424E-01-1.88191E-01 1.78010E-01 9.78131E-02-2.76289E-01
 -1      2656-3.04782E-01-5.54492E-01-2.25008E-01-5.41051E-02-7.29605E-02-1.01819E-01
 -1      2657-3.04190E-01-3.55899E-01-7.32636E-01-1.40492E-01-1.37656E-01-4.80225E-01
 -1      2658-2.73901E-01-2.77249E-01-2.60017E-01-9.01261E-02-6.78370E-02-2.60676E-01
 -1      2659-4.53312E-01-3.24840E-01-3.30294E-01-8.12884E-02-4.73372E-02-4.92758E-01
 -1      2660-2.64848E-01-6.49087E-01-5.34898E-01 2.15478E-01 1.44164E-01-2.44795E-01
 -1      2661 2.62788E-01 1.27991E-01 1.04152E-02 4.11337E-02-1.91645E-02-2.15814E-01
 -1      2662-3.30081E-01-2.05871E-01-3.57264E-01 2.05455E-01 1.68546E-01-4.33499E-01
 -1      2663 9.13986E-02 9.08067E-02-4.84381E-02-6.58587E-02 7.13577E-02-1.40795E-01
 -1      2664 2.07980E-01 4.43810E-01 4.17196E-01 1.38904E-01-9.32124E-02-3.67643E-01
 -1      2665 3.16892E-02 1.94914E-01-5.18576E-02-7.48682E-03 2.02260E-02-1.84408E-01
 -1      2666-1.67060E-01-8.93137E-01-6.02404E-01-2.57776E-01-2.09252E-01-2.20879E-01
 -1      2667 4.63880E-01 8.68387E-01 1.84426E-01-4.14807E-01 6.06414E-02-1.83345E-01
 -1      2668-1.08002E-01-7.11995E-01-2.84937E-01-6.07868E-02-1.17210E-02-1.37506E-01
 -1      2669 2.63204E-01 8.65472E-01 6.06510E-01-2.52312E-01 2.28010E-01-2.75886E-01
 -1      2670-1.68498E-01 5.74370E-04-1.14562E-01-8.65352E-02 1.94400E-02-5.98282E-01
 -1      2671 8.23343E-02 3.37204E-02-1.29319E-01-3.78071E-03 6.90838E-02-4.46458E-01
 -1      2672-5.07890E-01-1.45391E-01-6.04519E-02 2.30725E-02 5.47702E-02-2.25651E-01
 -1      2673-5.46150E-01-2.16945E-01-2.76207E-02 1.28737E-01-1.52278E-02-8.39372E-02
 -1      2674-1.15239E-01-7.50394E-01-4.64413E-01 5.64939E-02 2.70467E-02-1.11925E-01
 -1      2675 4.83675E-01 1.67828E-01 2.76294E-01-9.64468E-02 1.58503E-01-4.83326E-01
 -1      2676 5.07025E-01 7.02506E-01 2.48719E-01 5.33062E-01-1.94615E-01-1.36162E-01
 -1      2677-2.08792E-01-3.77995E-01-3.13012E-01 2.17189E-01 1.75072E-01-3.54743E-01
 -1      2678-2.01977E-02-5.37867E-02 3.73363E-02 4.52760E-02 4.07037E-02-7.19215E-02
 -1      2679 2.02828E-01 1.40912E-01 1.42512E-02-5.70310E-02-1.92517E-02-2.02568E-01
 -1      2680-2.14810E-01-8.64616E-01-1.02544E-01 2.63657E-01 2.39573E-02-9.54100E-02
 -1      2681 3.92305E-01 3.02288E-01 2.02040E-01-8.16964E-02 4.03027E-03-1.97689E-01
 -1      2682-3.56676E-02-1.11334E+00-3.42030E-01-1.10570E-01-6.43138E-02-1.61728E-01
 -1      2683-2.95317E-01-2.15789E-01-1.02956E-01-1.02081E-01-7.06337E-02-1.59648E-01
 -1      2684 8.53947E-01 5.82976E-01 2.55262E-01 3.21136E-02 3.21297E-02-1.13159E-01
 -1      2685 3.17720E-01 6.66149E-01 3.81232E-01-2.07646E-01 1.31656E-01-3.05999E-01
 -1      2686 1.18900E-01 9.35181E-01 6.46060E-01 1.00242E-01 4.50634E-02-3.13158E-01
 -1      2687 1.85641E-01 2.30715E-01 2.11411E-01 6.01652E-04 7.05603E-02-2.61717E-01
 -1      2688-3.79631E-02-6.53207E-02 5.50421E-02-1.11366E-02 7.69500E-02-1.40461E-01
 -1      2689 2.93558E-01 5.40597E-01 5.89009E-01 1.54163E-01-9.82984E-02-3.03244E-01
 -1      2690-1.58479E-01-1.40075E+00-4.10376E-01 7.69233E-02 3.03805E-02-9.57775E-02
 -1      2691-6.02167E-01-9.13198E-01-4.03283E-01 3.42569E-01 1.39888E-01-3.21055E-01
 -1      2692-4.40448E-01-1.45500E-01-5.73982E-02 2.55670E-01 8.68351E-02-1.51964E-01
 -1      2693-4.74870E-01-7.78247E-02-5.95531E-03-9.02322E-02-3.07375E-02-2.26580E-01
 -1      2694-1.66640E-01-6.43292E-02 4.59833E-02 9.24261E-02 3.07126E-02-1.75701E-01
 -1      2695-1.56804E-01-8.59047E-01-5.28665E-01 1.51617E-01 1.56986E-01-1.95474E-01
 -1      2696-3.83056E-01-1.81592E-01-2.27809E-01-3.84614E-02 4.78914E-02-3.72120E-01
 -1      2697 1.79552E-01 6.82712E-01 3.65471E-01 1.46406E-01-1.06140E-01-1.92650E-01
 -1      2698-4.54875E-01-4.62357E-01-2.74947E-01-2.28051E-01-1.63792E-01-3.78881E-01
 -1      2699 2.33747E-01 1.22475E-01 2.53563E-02 1.04730E-01-1.18387E-02-3.90503E-01
 -1      2700 3.46207E-01 5.82581E-01 4.51618E-01 3.49532E-01-2.84508E-01-2.86948E-01
 -1      2701 5.41350E-02-1.05875E-02 5.27513E-03 4.17391E-03-7.35811E-03-2.45820E-01
 -1      2702-3.82845E-01 2.07991E-02-1.59377E-01 1.81156E-02-1.14008E-01-2.77228E-01
 -1      2703 3.19999E-01 2.17400E-01 1.65050E-01 2.07196E-01-2.69077E-01-4.82648E-01
 -1      2704 3.21845E-01 1.75796E-01-4.18600E-02-1.18447E-01-4.52685E-02-2.18351E-01
 -1      2705-5.31548E-02 3.86655E-02 4.41512E-03-1.90552E-01 4.31773E-02-1.15839E-01
 -1      2706 1.54480E-01 2.65461E-01 2.48379E-01 4.36507E-02-7.79259E-02-2.44943E-01
 -1      2707-1.95105E-01-1.82783E-01-6.52775E-02-3.21275E-02-6.66564E-02-1.94832E-01
 -1      2708 3.42401E-01 2.37517E-01 2.04863E-01 1.09619E-01-1.44934E-01-5.21324E-01
 -1      2709 1.90216E-01 2.33624E-01 4.65665E-02 2.80466E-02-8.94785E-02-2.20285E-01
 -1      2710-1.58196E-01-4.85365E-01-3.70614E-01-1.68047E-01-8.77139E-02-2.18296E-01
 -1      2711 3.30786E-01 9.98776E-02-2.25187E-02-2.27592E-02 2.22370E-02-2.39618E-01
 -1      2712-1.98516E-01-1.94421E-01-7.75969E-02 1.01037E-01 8.09565E-02-1.57926E-01
 -1      2713 4.19501E-01 5.47850E-01 1.92081E-01 4.95725E-01-2.75909E-01-3.24840E-01
 -1      2714-4.76647E-01-6.36979E-01-2.61901E-01 4.04005E-01 3.10233E-01-2.89909E-01
 -1      2715 1.85385E-01 3.05374E-01 2.05510E-01-8.91401E-02 1.20130E-01-2.60877E-01
 -1      2716-3.56089E-01-1.06227E+00-3.11222E-01 4.11664E-01 1.77810E-01-3.14875E-01
 -1      2717-4.47166E-01-3.28777E-01-1.79761E-01 2.91212E-01 1.00605E-01-4.21588E-01
 -1      2718 2.32797E-01 1.26082E+00 3.44068E-01-3.22205E-01 1.73195E-01-1.29200E-01
 -1      2719-2.54385E-01 2.10285E-01-1.59589E-02 5.54986E-02 1.68689E-01-4.78521E-01
 -1      2720 4.59306E-01 5.08581E-02 2.14079E-01-5.74751E-02-1.33437E-01-5.93387E-01
 -1      2721-2.19169E-01-1.12656E+00-1.23389E-01 3.44688E-02 1.13878E-02-1.08286E-01
 -1      2722-1.60407E-01-1.28438E-01-1.77783E-01 1.14780E-01 9.60445E-02-5.08611E-01
 -1      2723-9.89706E-03-1.82565E-01-6.77405E-02 1.44711E-02-4.50792E-02-8.39454E-02
 -1      2724 5.21010E-01 6.36569E-01 7.01643E-01-1.31894E-01 4.44957E-02-4.76298E-01
 -1      2725 5.63851E-01 3.04262E-01 4.94095E-01-1.89102E-01 2.71448E-01-5.20348E-01
 -1      2726-2.34745E-01-9.52344E-01-4.43473E-01-2.62409E-01-1.72305E-01-1.67580E-01
 -1      2727 2.38936E-02 1.18875E+00 4.10082E-01 6.74861E-02-2.44826E-02-1.21023E-01
 -1      2728 1.12410E-01-7.24414E-02 6.82557E-02-1.18077E-01-3.31007E-03-1.70406E-01
 -1      2729-9.83784E-02-3.94141E-03 5.75194E-02-4.85585E-03 1.07892E-01-6.00940E-01
 -1      2730 1.00974E-01-4.39867E-02 5.87556E-02 9.59032E-02-6.33990E-02-4.94838E-01
 -1      2731-2.01794E-01-9.73341E-01-8.25069E-02-2.24367E-01-1.98574E-02-1.21490E-01
 -1      2732-1.03170E-01-1.20306E+00-3.07965E-01-3.19836E-01-2.08337E-01-9.64044E-02
 -1      2733 1.10557E-01 2.74114E-01 1.39855E-01 8.09089E-02-8.34760E-02-2.24467E-01
 -1      2734 4.11261E-01 2.82283E-01 3.14875E-01-2.07128E-01 2.05344E-01-4.78308E-01
 -1      2735 1.93003E-01 2.28660E-01 1.44949E-01-7.47487E-02 7.18868E-02-2.27330E-01
 -1      2736 6.10090E-01 2.30410E-01 3.70163E-01 2.77962E-01-2.47379E-01-4.19324E-01
 -1      2737 2.19043E-03-2.38427E-02 1.52667E-02-8.18260E-02 6.22104E-03-4.48590E-01
 -1      2738-2.74626E-01 8.10059E-03-1.88000E-01 9.07903E-04 1.59560E-01-6.94187E-01
 -1      2739 3.09921E-01 6.04973E-01 3.15372E-01 4.07492E-01-2.85487E-01-2.49707E-01
 -1      2740 3.92608E-01 3.38939E-01 1.77489E-01-2.19299E-01 1.46649E-01-3.34126E-01
 -1      2741 1.08222E-01 9.67435E-02-7.10141E-02 8.17562E-02-6.26070E-02-4.40692E-01
 -1      2742 7.24832E-02 4.18103E-02 1.56435E-01 1.76446E-03 4.26400E-02-5.55285E-01
 -1      2743-2.21174E-01-1.13011E+00-5.15312E-01 6.71086E-02-1.41414E-02-1.06837E-01
 -1      2744-7.88340E-03-2.52482E-02 1.59136E-04-5.72891E-02 5.19931E-03-1.59462E-01
 -1      2745 4.63676E-01 2.43817E-01 2.04026E-01 1.45825E-01 5.15230E-02-4.78368E-02
 -1      2746 1.19975E-01 1.57244E-02 1.46351E-02 3.85153E-02-8.39891E-02-4.87525E-01
 -1      2747 4.82533E-01-1.24492E-01-4.29147E-02-1.11418E-01-2.17643E-01-5.41580E-01
 -1      2748 2.31138E-01 7.24767E-02 7.87050E-02-4.94094E-02 3.53837E-02-5.36464E-01
 -1      2749-1.63897E-01-1.41534E-01-1.49499E-01-1.24724E-01-1.20612E-01-4.30643E-01
 -1      2750-5.43200E-01-3.76835E-02-1.95638E-01 6.35360E-02-1.55521E-01-3.59474E-01
 -1      2751-1.00831E-01-2.07353E-01-2.91854E-01 1.26235E-02-1.79121E-02-5.14673E-01
 -1      2752 1.33129E-01 5.72444E-01 4.40346E-01 2.62710E-01-1.26791E-01-2.51986E-01
 -1      2753-1.65003E-01-7.88123E-01-7.89782E-01-2.17263E-01-2.20229E-01-3.50837E-01
 -1      2754-1.57752E-01-1.30262E-02-4.25640E-02-7.07826E-02-5.96371E-02-4.91508E-01
 -1      2755 4.05104E-01 1.47420E-01 1.44682E-01 2.21696E-01-2.37912E-01-5.01410E-01
 -1      2756-1.91888E-01-1.59739E-01-1.01247E-01 1.68254E-01 1.29958E-01-3.62701E-01
 -1      2757 6.18890E-01 1.81524E-01 2.44713E-01 2.48960E-01-2.50632E-01-4.83084E-01
 -1      2758-3.77998E-01 1.37969E-01-2.22599E-01-1.31700E-02 1.10445E-01-5.18290E-01
 -1      2759 3.06912E-01 1.60781E-01 2.99301E-01 1.80880E-01-2.65716E-01-4.66571E-01
 -1      2760 3.79773E-01 1.79647E-01 1.94236E-02 1.02265E-03-5.46045E-02-3.51045E-02
 -1      2761-6.06129E-02-1.60487E-01-3.39877E-01 4.07583E-02 4.92140E-02-1.69118E-01
 -1      2762 9.38111E-02 2.14766E-01 6.70015E-02-6.89644E-03-4.70870E-02-6.34901E-02
 -1      2763 2.28714E-01-8.36569E-02-4.24667E-03 3.73885E-02 1.09691E-01-4.86966E-01
 -1      2764 1.09240E-01-5.07602E-02 1.41565E-02 6.25128E-02-8.17677E-02-6.05532E-01
 -1      2765 6.15192E-02 1.61533E-01 1.17180E-01 3.81928E-02 6.30665E-02-1.81287E-01
 -1      2766 4.16294E-01-6.59700E-02 1.12677E-01 1.18488E-01 7.38127E-02-4.51682E-01
 -1      2767 2.92568E-01 5.01310E-02 6.83147E-02-7.93866E-02-4.97501E-02-6.58279E-02
 -1      2768 2.53173E-01 1.49540E-01 9.77593E-02 1.75865E-01-2.08726E-01-4.11645E-01
 -1      2769-3.48722E-01-3.92364E-01-1.80956E-01-1.64682E-01-3.89073E-02-9.25218E-02
 -1      2770-2.23847E-01-1.66302E-01-1.79418E-01 1.73565E-01 1.91403E-01-3.99248E-01
 -1      2771-4.63624E-01-3.93146E-01-4.28683E-01-6.56182E-02 2.03216E-03-3.58694E-01
 -1      2772 2.49821E-01 3.89780E-01 1.11011E-01-1.28538E-01 1.03047E-01-1.43548E-01
 -1      2773 1.32282E-02-1.67940E-02 5.94251E-02-2.44692E-02-3.33001E-02-7.24983E-02
 -1      2774 1.17143E-01 1.21862E-01 1.56156E-02 1.68509E-01 6.05728E-02-2.06331E-01
 -1      2775 4.47924E-01-2.23113E-01-6.95868E-02-1.20683E-01-1.75995E-01-3.95143E-01
 -1      2776 2.61230E-01 7.41587E-01 6.94921E-01 7.36069E-02-1.23400E-01-3.21203E-01
 -1      2777-2.17714E-01-8.67607E-02-1.38020E-02 4.09704E-02-1.34213E-02-3.47304E-01
 -1      2778 4.01087E-01 2.60050E-01 1.94216E-01-9.81403E-03 5.50880E-03-2.21217E-01
 -1      2779 4.74816E-02 1.09615E+00 2.04937E-01 8.39850E-02-5.05608E-03-1.16117E-01
 -1      2780 8.94519E-02 1.15093E+00 3.40704E-01-6.39443E-02 7.81405E-02-1.01426E-01
 -1      2781-5.49155E-02-1.25288E-02 3.33193E-03-4.45930E-02-1.76924E-02-1.72350E-01
 -1      2782 1.01151E-01 1.37659E+00 4.21236E-01-1.73676E-02 1.06593E-03-1.02406E-01
 -1      2783 1.62415E-01 1.22075E+00 5.42769E-01 9.18328E-02 8.71281E-03-1.79504E-01
 -1      2784-1.95032E-01-6.41497E-01-4.93473E-01-7.37018E-02-3.66107E-02-2.28733E-01
 -1      2785 3.79423E-03 1.17028E-01-1.04481E-01 2.16909E-02-2.59816E-02-1.66975E-01
 -1      2786 4.93503E-01 2.62859E-01 5.84735E-02-1.34806E-01-7.08067E-03-1.88120E-01
 -1      2787-4.02363E-02 1.77021E-03 6.94394E-02 1.01165E-01 4.62698E-02-4.71569E-01
 -1      2788-1.35720E-01-4.50195E-01-5.63332E-01-2.14222E-01-3.48111E-02-2.37455E-01
 -1      2789-5.34521E-02-2.05965E-01-1.30164E-01 5.44720E-02 5.08872E-02-1.19297E-01
 -1      2790 2.40116E-01 8.53837E-02-3.52975E-02 4.99043E-03-4.57728E-03-2.02841E-01
 -1      2791 5.83686E-03-4.34947E-02-6.84545E-02 4.34320E-02-4.60034E-04-7.87430E-02
 -1      2792-2.94335E-01-8.05255E-02 1.29024E-01-5.00017E-03 7.56409E-02-5.03357E-01
 -1      2793-8.77802E-02-4.42827E-02-1.67493E-01 7.05689E-02 2.82425E-02-4.65056E-01
 -1      2794-5.51865E-01-6.46048E-01-1.45518E-01-3.15301E-01-5.48568E-02-1.64466E-01
 -1      2795-5.49051E-01-1.87731E-01-2.16245E-01-3.09004E-01-2.79003E-01-4.13650E-01
 -1      2796 2.99770E-01 1.32343E+00 3.29404E-01-3.89493E-01 8.73848E-02-4.77092E-02
 -1      2797-3.86193E-02-3.06535E-01-7.86083E-02 1.51295E-02 8.59401E-02-8.03102E-02
 -1      2798-3.36094E-01-1.19677E-01 3.62736E-02 8.61883E-03 1.22434E-01-8.13359E-02
 -1      2799 1.63876E-01 1.64317E-01 1.06493E-01-7.72562E-02 4.20941E-02-4.44608E-01
 -1      2800-7.21868E-02-1.35701E+00-1.77122E-01 7.62035E-02 8.14590E-02-4.50022E-02
 -1      2801 7.40532E-01 3.58751E-01 8.46498E-02-1.97061E-01 2.89575E-02-2.06435E-01
 -1      2802 1.07882E-01 7.91964E-01 5.60326E-01-1.36027E-01-7.64585E-02-2.45837E-01
 -1      2803 1.30616E-01 1.19046E-01-7.66216E-03 3.91389E-02-2.76649E-02-9.36834E-02
 -1      2804-3.68702E-01-5.26143E-01-3.84611E-01-2.46918E-01-1.61475E-01-2.64445E-01
 -1      2805-4.09386E-01-1.89222E-01-1.30858E-01-2.64101E-01-1.43818E-01-2.41469E-01
 -1      2806 1.50145E-01 1.72985E-01 8.26561E-03 1.09873E-01-8.31461E-02-1.77631E-01
 -1      2807 9.09296E-01 5.86675E-01 4.84733E-01-3.10428E-02-1.81724E-02-2.50016E-01
 -1      2808-7.67515E-01-4.43509E-01-2.81242E-02-1.05231E-01 7.73332E-02-3.25805E-02
 -1      2809-5.23262E-01-2.80804E-01-2.14059E-01 2.07787E-01 1.11798E-01-5.15196E-01
 -1      2810 2.76595E-01-2.35874E-02 8.98569E-02-1.04479E-02-1.34734E-01-6.30382E-01
 -1      2811 1.38201E-01 1.78599E-01-4.47784E-02 1.17644E-01 8.61102E-03-2.11388E-01
 -1      2812-1.05494E-01-1.28612E-03-1.52208E-01-4.31433E-03 3.09984E-02-6.39962E-01
 -1      2813 3.99639E-02 3.87835E-02-5.74045E-02-3.31145E-02 4.54243E-03-1.86319E-01
 -1      2814 8.08216E-03 2.97603E-02-7.13332E-03-6.20258E-02 6.23065E-04-7.65370E-02
 -1      2815 3.08461E-01 2.43251E-01 1.26512E-02-6.11039E-02 9.22763E-03-2.23511E-01
 -1      2816 6.58804E-01 4.18188E-01 8.08650E-02 1.92086E-01-5.26148E-02-2.76266E-01
 -1      2817 9.59124E-03 6.45159E-02 5.15542E-03-9.59736E-02 1.30935E-02-2.10220E-01
 -1      2818 1.39619E-01 1.03622E+00 1.65093E-01-1.72278E-01 2.72388E-02-1.08040E-01
 -1      2819 5.58563E-01 1.69569E+00 3.05770E-01-5.06887E-01 6.36205E-03-8.14725E-02
 -1      2820 3.33144E-01 1.32059E+00 1.46129E-01-1.24704E-01-1.10636E-02-1.11422E-01
 -1      2821-4.08872E-01-3.37717E-01-1.98975E-01-1.84211E-01-4.82753E-03-2.41924E-01
 -1      2822 1.92328E-01 9.63249E-01 3.09393E-01-2.53941E-01 1.79061E-01-1.19510E-01
 -1      2823-3.29155E-02 1.93773E-01-9.28618E-03 3.58113E-02-3.63479E-02-1.62815E-01
 -1      2824-1.25055E-02 2.14520E-01 9.15450E-02-9.64256E-02-2.48263E-02-1.02154E-01
 -1      2825-1.62280E-01-1.95103E-01-4.55515E-02 1.01071E-02 4.83464E-02-2.16057E-01
 -1      2826-6.30978E-01-9.53253E-01-3.62912E-01-3.23154E-01-1.60906E-01-2.03188E-01
 -1      2827-3.75694E-01 2.87706E-02-2.29821E-01-2.15530E-02-1.25888E-01-4.01243E-01
 -1      2828-3.20631E-01-4.96340E-01-3.47557E-01-2.18268E-01-1.50832E-01-3.01039E-01
 -1      2829-4.82141E-02 3.92793E-02-1.10314E-01 1.11381E-01-1.24546E-02-9.68800E-02
 -1      2830-1.45024E-01-2.24059E-02 5.77484E-02 3.65832E-02 1.10734E-02-1.91619E-01
 -1      2831 5.35198E-01 7.83614E-01 3.70590E-01-3.07288E-01 1.21778E-01-2.45402E-01
 -1      2832-7.71083E-04 9.64918E-02 1.71796E-01-4.22973E-02-3.08543E-02-1.45082E-01
 -1      2833 3.28233E-01 1.43337E+00 1.63926E-01-4.09672E-01 7.40606E-02-8.14492E-02
 -1      2834-3.10515E-01-4.86646E-01-2.62222E-01-2.15343E-01-1.42080E-01-2.88980E-01
 -1      2835 5.83085E-01 3.48702E-01 5.41958E-01-6.57504E-02 1.13894E-01-5.52066E-01
 -1      2836-2.66281E-01-2.07035E-01-6.06746E-02 8.73902E-02 6.29222E-02-1.78775E-01
 -1      2837 1.88358E-01 7.22729E-01 2.50964E-01 3.23009E-01-1.81774E-01-2.07204E-01
 -1      2838-3.26232E-01-1.56962E+00-4.47541E-01 4.27564E-01 3.83376E-02-7.03626E-02
 -1      2839 3.79300E-01 7.53895E-01 7.09015E-01 5.40724E-02-6.61667E-02-3.59329E-01
 -1      2840-1.17385E-01 8.61284E-02 6.74356E-02-7.72460E-02-6.93593E-02-4.53652E-01
 -1      2841 2.51765E-01-2.43754E-01 1.15887E-02-9.56767E-02-4.68766E-02-2.20519E-01
 -1      2842 5.78513E-01 3.49036E-01 1.06033E-01 4.91798E-02 1.61119E-02-2.14249E-01
 -1      2843 2.84820E-01 4.65075E-01 5.09732E-01-2.42851E-01 1.22845E-01-3.69846E-01
 -1      2844-6.37088E-01-8.68921E-01-9.93667E-01-2.61765E-02-4.34228E-02-4.42142E-01
 -1      2845 2.86045E-02-3.23742E-02 1.64519E-01-5.63372E-03 8.04447E-02-5.77539E-01
 -1      2846-7.43480E-02-2.01796E-01-2.33851E-02-2.61024E-03-4.19243E-02-1.74413E-01
 -1      2847 1.15044E-01 7.54230E-03 1.93081E-02-7.62602E-02 5.76021E-02-3.35819E-01
 -1      2848 5.82668E-01 2.81581E-01 4.91730E-01-1.20765E-01 2.18169E-01-6.17169E-01
 -1      2849 6.10797E-01 1.12494E+00 1.87860E-01 5.11911E-01-6.92802E-02-2.08189E-01
 -1      2850 3.74998E-01-8.27425E-02 1.45081E-01-9.06355E-03-1.56340E-01-6.00794E-01
 -1      2851-2.68632E-01 9.70555E-02-1.28533E-01 2.27041E-02 1.93762E-01-6.45410E-01
 -1      2852-2.39888E-01-2.94470E-03-1.17256E-01-3.32009E-02 9.77162E-02-6.36328E-01
 -1      2853-1.55912E-01-7.25649E-02-3.12761E-01 6.02825E-02 1.75298E-03-5.18233E-01
 -1      2854-3.44672E-01-2.27832E-01 7.06466E-02-3.32350E-02-1.74909E-02-1.09807E-01
 -1      2855-1.64325E-01 2.38787E-01 2.46449E-02 7.92049E-02-7.94789E-02-2.16618E-01
 -1      2856 1.74484E-01 1.89434E-01 2.86381E-01 6.89010E-02-4.15623E-02-3.02726E-01
 -1      2857 5.51168E-01 9.06921E-01 4.17248E-01 3.70811E-01-1.40497E-01-2.14505E-01
 -1      2858-5.48171E-01-7.05237E-01-4.55047E-02-6.36035E-01-1.28094E-01-9.79190E-02
 -1      2859-6.73991E-02 4.30590E-01 3.50896E-02 1.33970E-02-1.47654E-01-1.96231E-01
 -1      2860-3.74273E-01-5.39219E-01-2.70256E-01-4.24206E-01-1.86439E-01-1.90200E-01
 -1      2861 5.31962E-01 1.48630E-01 1.32206E-01-3.20968E-01 2.63279E-01-3.78646E-01
 -1      2862-2.51197E-01-6.19858E-01-9.36893E-02 3.72365E-01 1.05743E-01-8.27661E-02
 -1      2863 1.45244E-01 7.56775E-01 4.16407E-01 9.42366E-02-1.09372E-01-1.77961E-01
 -1      2864-5.01132E-01-8.05135E-01-1.98860E-01 5.92273E-01 1.98367E-01-9.28963E-02
 -1      2865-8.68767E-02-1.03778E-01-2.26964E-01-1.17941E-01 7.53524E-02-1.69464E-01
 -1      2866-1.34036E-01-7.08435E-02-2.27444E-02-1.20028E-01 1.61309E-02-2.13408E-01
 -1      2867 1.92753E-01-3.76279E-04 9.88865E-02 3.81368E-02 6.61525E-02-5.55525E-01
 -1      2868 8.67301E-02 4.31231E-02 2.07631E-02-5.83622E-02 1.89192E-02-4.49630E-01
 -1      2869-2.29973E-01-2.51171E-01-2.85922E-01 8.86237E-02 3.41194E-02-3.99407E-01
 -1      2870 1.61565E-01-1.03148E-01-2.25153E-02-4.85991E-02 1.47640E-01-5.65109E-01
 -1      2871-6.43245E-02-1.26799E+00-2.72405E-01 1.17442E-01 1.30825E-01-9.77963E-02
 -1      2872 5.18466E-02 7.05682E-02 5.69769E-02 6.14244E-02 2.01255E-02-8.58890E-02
 -1      2873 4.17106E-01 3.17766E-01 1.31449E-01 2.91803E-01-1.94373E-01-3.73952E-01
 -1      2874-4.63852E-01-1.06042E+00-6.53580E-02 4.88585E-01 1.01031E-01-1.46836E-01
 -1      2875 1.76418E-01 1.53868E-01 8.00788E-05-1.12784E-01 7.92633E-02-1.71947E-01
 -1      2876 3.28284E-01 4.26728E-01 2.52169E-01-1.29853E-01 6.07461E-02-2.75295E-01
 -1      2877 2.39670E-02 7.07155E-02-7.00844E-02-9.12257E-03 3.36154E-02-2.00197E-01
 -1      2878 3.27451E-01 4.89181E-01 4.85243E-01 3.33359E-01-2.80745E-01-3.59244E-01
 -1      2879-4.02143E-01-1.41346E-01-5.72083E-02 7.23590E-02 1.70201E-02-2.30373E-01
 -1      2880 2.18360E-01 3.76640E-01 6.51442E-02 1.50604E-01-1.07269E-01-1.46484E-01
 -1      2881-1.13741E+00-1.10417E+00-1.29860E+00-9.47280E-02-1.18487E-01-5.65508E-01
 -1      2882 1.70721E-01 1.62137E-02 6.08839E-02-4.85638E-02 5.11080E-02-5.40116E-01
 -1      2883 5.83193E-02 2.95885E-01 1.39206E-01 1.12169E-02 6.45274E-02-8.78991E-02
 -1      2884 1.29764E-01 1.22641E-01 2.09069E-01 6.54433E-02-9.74601E-02-5.73333E-01
 -1      2885-2.40613E-01-8.92382E-01-3.46893E-01 2.51936E-01 6.72559E-02-1.03989E-01
 -1      2886-9.88637E-02-8.10247E-01-1.61119E-01 1.82196E-01 7.70402E-02-1.08206E-01
 -1      2887-2.81388E-01-1.40706E+00-4.38268E-01 3.90182E-01 1.65871E-01-1.30993E-01
 -1      2888-4.48221E-02-1.70825E-01-8.92147E-02-1.08832E-01-8.53148E-02-1.13034E-01
 -1      2889-3.16266E-01-5.61644E-01-2.34306E-01-2.00968E-01-6.00647E-02-2.14831E-01
 -1      2890-3.53726E-02-3.73619E-01-9.77717E-02 1.74486E-01 2.03095E-02-2.00024E-01
 -1      2891 3.65867E-01 1.36307E-01-3.86768E-02 8.56219E-02-3.57261E-02-1.65984E-01
 -1      2892 4.12289E-01 1.30706E+00 1.96139E-01 5.05517E-01-1.46258E-01-2.51793E-01
 -1      2893-1.80745E-01-3.58725E-01-1.23173E-01 1.61224E-01 1.33882E-01-1.51449E-01
 -1      2894-1.23905E-01-7.34538E-01-7.98457E-01-2.49156E-01-2.16917E-01-3.08291E-01
 -1      2895-6.14085E-01-2.68062E-01-4.40266E-01-2.17185E-01-2.90747E-01-5.57245E-01
 -1      2896-2.24529E-01-8.15449E-01-4.43303E-01 1.90469E-01 3.04290E-02-2.10920E-01
 -1      2897-6.28843E-01-6.94940E-01-1.24304E-01 6.49437E-01 1.40532E-01-1.22960E-01
 -1      2898 3.05761E-02-1.21644E-01 1.38163E-01-8.27302E-02-3.58126E-02-9.69778E-02
 -1      2899 1.86348E-01 6.81828E-01 2.57423E-01 3.15885E-01-1.74920E-01-2.48954E-01
 -1      2900 8.68906E-02-2.56076E-01-1.12942E-01 3.00104E-02-2.39789E-02-2.36418E-01
 -1      2901-3.70333E-01-7.72535E-01-5.08425E-01 2.32656E-01 1.56996E-01-2.53813E-01
 -1      2902 4.27231E-02-2.75830E-01-3.36393E-02 3.64855E-02 1.68333E-04-2.05556E-01
 -1      2903-4.08275E-01-5.67704E-01-3.72377E-01-3.55521E-01-2.75797E-01-2.50866E-01
 -1      2904-2.04090E-01-1.09809E-01 1.55563E-02-1.38866E-01-5.21476E-02-2.86270E-01
 -1      2905-3.48583E-01-1.30574E-01 5.37617E-02 8.34654E-02 3.79257E-02-1.29057E-01
 -1      2906-1.60007E-01-3.50495E-01-6.53836E-02-1.41190E-01-1.39881E-01-1.83402E-01
 -1      2907-3.27621E-01-4.36120E-01-4.32894E-01-2.34615E-01-1.38448E-01-2.57778E-01
 -1      2908 6.61598E-03 5.05820E-02-1.32959E-02 1.07774E-01-2.21698E-02-1.79813E-01
 -1      2909-2.20378E-01-1.32604E-01-9.98951E-02-3.56039E-02-2.17538E-02-2.65043E-01
 -1      2910-3.85571E-01-1.60994E-01-4.50464E-01 1.43138E-01 5.10564E-02-4.52404E-01
 -1      2911-1.27151E-01 9.01319E-02-2.63944E-02 1.13515E-03-1.02230E-01-5.98496E-01
 -1      2912 2.50966E-01 1.71431E-01 3.94931E-01 1.49799E-01-2.19392E-01-4.63096E-01
 -1      2913 6.43830E-01 7.05557E-01 1.91839E-01 6.01142E-01-2.84788E-01-1.19855E-01
 -1      2914 3.16666E-01 1.91030E-01 1.81008E-01-8.47329E-02 7.21468E-02-3.17212E-01
 -1      2915 1.21309E-01 1.16328E-01-1.17542E-02-1.91488E-02 9.94238E-03-8.17657E-02
 -1      2916 6.30675E-01 1.93704E-01 2.81039E-01 2.58078E-01-2.58258E-01-4.90319E-01
 -1      2917 3.83689E-01 4.58697E-01 3.96226E-01 3.78677E-01-3.39497E-01-3.00865E-01
 -1      2918 2.45339E-01 1.72967E-01 1.31715E-01 2.96974E-01-1.28409E-01-2.02217E-01
 -1      2919-3.99536E-01-2.65419E-01-1.63828E-01-2.42852E-02 1.34868E-02-1.74996E-01
 -1      2920 1.69035E-01 1.10203E+00 4.84016E-01-2.37588E-01 1.80278E-01-2.07648E-01
 -1      2921-4.96856E-01-8.30301E-01-3.06517E-01-3.05816E-01-1.29410E-01-2.55149E-01
 -1      2922 3.10000E-01 1.95570E-02 8.02574E-02 1.64916E-02 1.71721E-01-6.48134E-01
 -1      2923 2.62807E-01 4.65014E-01 1.89162E-01 1.99213E-01-1.84619E-01-3.20970E-01
 -1      2924-4.58906E-02-9.99687E-02-1.22718E-01-9.07502E-02-8.65472E-02-4.60344E-01
 -1      2925-2.80119E-01-1.08807E+00-4.44116E-01-1.17099E-01-5.76873E-02-1.36133E-01
 -1      2926 2.53809E-01 2.68369E-01-2.49815E-02 5.87357E-02 1.82729E-02-8.81201E-02
 -1      2927 3.80239E-01 6.81296E-01 1.31585E-01 5.20752E-01-8.03777E-02-1.51373E-01
 -1      2928 7.77987E-01 8.29039E-01 2.76636E-01 6.84695E-01-1.32108E-01-1.69173E-01
 -1      2929-2.99067E-01-3.08333E-04-1.75245E-01 4.60610E-02 1.11828E-01-5.77550E-01
 -1      2930-3.01481E-01-6.08040E-01-5.35237E-01-2.82003E-01-1.83121E-01-3.05404E-01
 -1      2931-5.10253E-02-1.24122E-01-1.48054E-01 2.86530E-02-1.51844E-02-1.59387E-01
 -1      2932-2.17966E-02-2.14672E-01-6.66491E-02-1.03112E-01-1.74806E-01-2.83380E-01
 -1      2933-2.66950E-01 3.80523E-02-8.86090E-02 1.50378E-02 1.18324E-01-6.71610E-01
 -1      2934 1.86286E-01-3.23420E-01-7.97228E-04 1.39560E-01 7.27478E-02-2.43665E-01
 -1      2935 5.69120E-03 5.71382E-01 1.43330E-01-2.47882E-02 1.74713E-01-1.33236E-01
 -1      2936 2.40903E-01-5.01677E-02 1.85141E-01 1.72269E-02-1.39897E-01-6.18415E-01
 -1      2937-4.29588E-01-6.88067E-01-4.71064E-01 2.78831E-01 1.60950E-01-3.04910E-01
 -1      2938-2.14964E-01-8.75112E-01-6.45314E-01-2.63027E-01-2.20180E-01-2.37309E-01
 -1      2939-2.01008E-01-9.05543E-01-4.44618E-01-1.16422E-01 2.68777E-03-1.77744E-01
 -1      2940 1.43310E-01 2.28167E-01 1.29486E-01-3.74548E-02 3.40475E-02-2.39940E-01
 -1      2941-3.26622E-01-6.35240E-01-5.68663E-01 1.17484E-01 1.36440E-01-3.20596E-01
 -1      2942-7.08313E-02 6.45567E-02 1.19980E-01-5.42064E-02-1.55537E-01-5.44320E-01
 -1      2943-1.77445E-01 3.88783E-02-5.59615E-02-4.40464E-02-1.17963E-01-4.85156E-01
 -1      2944-6.05630E-01-2.19779E-01-3.17942E-01-2.84351E-01-3.06486E-01-5.34639E-01
 -1      2945-2.30754E-01-7.10770E-01-5.47802E-01 1.12634E-01 1.05454E-01-2.46900E-01
 -1      2946 1.08967E+00 6.94829E-01 2.18700E-01-2.67542E-03-3.32249E-02-2.34031E-01
 -1      2947-2.54424E-01-6.98114E-01-6.75157E-01-6.68474E-02-6.81865E-02-2.55605E-01
 -1      2948 7.88965E-02-3.64411E-01-5.21989E-02-4.65062E-03-1.04319E-01-1.92651E-01
 -1      2949 4.31403E-01 1.21191E-01 2.70519E-01 1.21749E-01 7.27702E-02-6.43269E-01
 -1      2950 1.74602E-01 2.02837E-01 2.91167E-01 3.16094E-02-6.64277E-02-5.04276E-01
 -1      2951 2.30596E-01 1.05583E-01 7.70395E-02-3.56677E-02 2.45265E-02-2.72509E-01
 -1      2952-8.19238E-01-4.00129E-01-3.02336E-01-4.82831E-02-5.07126E-02-3.31938E-01
 -1      2953-6.87064E-01-3.04445E-01-5.28520E-02-1.91064E-01-8.02605E-02-3.92473E-01
 -1      2954-8.38689E-01-7.15469E-02-1.18983E-01-2.42170E-01-2.13764E-01-2.74105E-01
 -1      2955-3.77244E-01-2.95907E-01-1.48393E-01-1.44919E-01-7.63926E-02-2.41094E-01
 -1      2956 2.57554E-01 1.14829E+00 4.58851E-01-3.08693E-01 2.43784E-01-1.65201E-01
 -1      2957-6.60335E-01-7.89875E-01-8.90949E-01 6.29637E-02 9.28855E-02-3.99894E-01
 -1      2958 5.63162E-01 5.47624E-01 5.67905E-01 1.37080E-01-1.56913E-01-3.89008E-01
 -1      2959 6.28400E-02-7.89441E-03-1.26102E-01-4.42415E-02 5.03371E-02-5.22003E-01
 -1      2960 7.30079E-01 8.72238E-01 4.56496E-01 6.82229E-01-1.95356E-01-2.16119E-01
 -1      2961-5.42945E-01-7.18186E-02-2.28309E-01 5.56622E-02-1.24218E-01-5.35378E-01
 -1      2962 6.21816E-01 2.13036E-01 3.12562E-01 2.57294E-01-3.02358E-01-4.80012E-01
 -1      2963-3.30552E-01-9.83272E-02-2.24387E-01 3.74658E-02-1.49396E-02-5.94045E-01
 -1      2964-5.11555E-02-6.86236E-02 1.04223E-01 2.12367E-02 3.39184E-02-1.02132E-01
 -1      2965-6.05225E-01-7.13282E-01-3.55543E-01-5.71258E-01-2.23013E-01-2.03514E-01
 -1      2966-3.31689E-01 1.90606E-02-1.50680E-01 1.25625E-02-1.29300E-01-5.51643E-01
 -1      2967-9.05913E-03-2.21873E-01-1.87316E-01 5.02285E-02-6.22657E-03-1.39965E-01
 -1      2968-3.36661E-01-5.48306E-01-4.33663E-01 3.46960E-01 3.07407E-01-3.11289E-01
 -1      2969-6.11440E-02-2.50728E-01-2.42539E-01-5.79943E-02-1.02627E-01-2.04545E-01
 -1      2970-9.45048E-01-1.09760E+00-1.17914E+00 3.92711E-02 1.94525E-02-5.34067E-01
 -1      2971-7.89666E-01-7.19743E-01-8.04064E-01-5.49419E-02-2.22567E-02-4.56855E-01
 -1      2972-1.51352E-01-9.52912E-01-9.57504E-02 1.88775E-01-1.71898E-02-1.10135E-01
 -1      2973 3.41601E-01 1.42789E-02 1.75082E-01 6.40740E-02 1.13137E-01-6.61811E-01
 -1      2974 6.37300E-01 4.15940E-01 1.77721E-01-1.70493E-01 2.87469E-02-2.71830E-01
 -1      2975-5.00177E-02-1.17614E+00-1.71100E-01-5.22615E-02-7.38951E-02-9.10554E-02
 -1      2976-3.19845E-01-2.48183E-01 1.20134E-02 3.81064E-02 1.41000E-03-1.68010E-01
 -1      2977-2.89003E-01-5.73442E-01-2.80595E-01-8.26589E-02-6.08671E-02-2.09362E-01
 -1      2978-1.87925E-01-3.37578E-01-2.88426E-01-9.32229E-02-1.81399E-01-3.52935E-01
 -1      2979-3.68235E-01-7.90723E-01-6.90586E-01 8.97981E-02 1.65258E-01-2.25746E-01
 -1      2980 1.59773E-01 1.24467E+00 8.09059E-01 2.77821E-02 3.84366E-02-2.74494E-01
 -1      2981-2.53411E-01-9.24977E-01-6.01660E-01-8.38947E-02-1.77745E-02-2.10440E-01
 -1      2982 2.37255E-01 1.97831E-01 5.30981E-02 2.27541E-02-6.68329E-02-3.29342E-01
 -1      2983-1.57614E-01-7.49620E-01-3.31315E-01 1.05932E-01 2.29274E-02-1.79636E-01
 -1      2984-2.67202E-01-4.74931E-02-1.42700E-01-1.64456E-02-4.60371E-02-5.98063E-01
 -1      2985-4.93349E-01-1.61182E-01-2.49561E-01 2.23424E-01 2.66510E-01-5.91298E-01
 -1      2986-4.84942E-01-1.52546E-01-3.13299E-01 2.73109E-01 1.53009E-01-3.72434E-01
 -1      2987 3.93216E-01 2.75556E-01 1.73039E-01 2.50813E-01-2.86953E-01-5.25882E-01
 -1      2988 2.85346E-01 2.12964E-02 1.15994E-01-2.98669E-02 1.70116E-01-5.41590E-01
 -1      2989-4.24201E-02-3.37927E-01-1.44349E-01-6.10548E-02 1.97803E-01-2.20441E-01
 -1      2990 7.90111E-02 4.24062E-02 1.71609E-01 5.65659E-02 4.84210E-02-1.65462E-01
 -1      2991-8.78836E-02-6.79582E-01-1.62513E-01 1.07119E-01 6.91402E-03-1.16636E-01
 -1      2992-5.92233E-01-3.77322E-01-4.88335E-01 5.92927E-02 1.13704E-01-5.32888E-01
 -1      2993-3.84335E-01-2.59441E-01-1.64889E-01-6.89428E-02 8.30044E-03-1.96184E-01
 -1      2994-3.38844E-01-1.91332E-02-2.06709E-01-1.77345E-02 1.60749E-01-7.40141E-01
 -1      2995 3.96282E-01-8.05406E-02 1.81272E-01 1.54217E-01 5.17365E-02-3.27580E-01
 -1      2996-1.93143E-01-1.18582E+00-3.26651E-01-3.78966E-01-1.64831E-01-9.22991E-02
 -1      2997-1.24766E-02-3.59646E-01-2.34660E-01-6.12492E-02 2.49136E-01-3.21316E-01
 -1      2998 2.69592E-01 5.39680E-01 1.85652E-01 4.16932E-01-8.72779E-02-1.13163E-01
 -1      2999 1.55794E-01 1.79914E-01 2.83508E-01-9.59166E-02-1.80762E-02-5.56495E-01
 -1      3000-6.31110E-01-6.93741E-01-9.71620E-02-6.03029E-01-1.86164E-01-1.97014E-01
 -1      3001 4.10349E-01 5.21047E-01 6.33968E-01 1.03778E-01-1.24378E-02-4.47437E-01
 -1      3002 3.34539E-01 1.93712E-01 2.88423E-01-5.98693E-02-3.21718E-02-3.14557E-01
 -1      3003 1.42741E+00 8.50883E-01 6.34871E-01 5.10550E-02-2.76405E-02-3.42707E-01
 -1      3004-3.77202E-01-5.31664E-01-3.48004E-01-3.64754E-01-2.18925E-01-2.29658E-01
 -1      3005-6.33599E-01-5.20488E-01-1.35176E-01-3.53094E-01-4.64604E-02-2.46772E-01
 -1      3006-1.69109E-01-7.60123E-02-2.63633E-02 3.32544E-02 5.98912E-02-5.48455E-01
 -1      3007-4.95902E-01-7.59686E-01-4.18701E-01 3.00171E-01 2.21190E-01-3.05513E-01
 -1      3008-2.96863E-01-2.31494E-01-1.27698E-02 5.63892E-02 2.22744E-02-1.37088E-01
 -1      3009-1.35448E-01-8.88755E-02-2.46670E-01 1.02658E-02-1.05035E-01-6.34507E-01
 -1      3010 5.09653E-01 2.32705E-01 1.58024E-01 2.91952E-01-3.20430E-01-4.76676E-01
 -1      3011-3.78962E-01-6.79036E-01-4.35760E-01-2.66221E-01-1.19626E-01-2.75795E-01
 -1      3012 7.38486E-02-7.04135E-02-1.41748E-01 1.80414E-02 6.50846E-02-4.76370E-01
 -1      3013-7.22680E-01-3.93619E-01-1.36817E-01-1.22055E-01 2.69327E-02-2.36991E-01
 -1      3014-9.67390E-01-3.96477E-01-1.72894E-01-1.86696E-01-4.40201E-02-2.96619E-01
 -1      3015-5.71481E-01-2.41229E-01-1.08308E-01-1.69440E-01-8.99389E-02-4.74780E-01
 -1      3016-5.75748E-01-1.60101E-01-1.25893E-01 3.02967E-01 2.12699E-01-2.40856E-01
 -1      3017-2.27018E-01-8.10156E-02-1.08020E-01-2.61201E-02-1.60644E-01-6.46022E-01
 -1      3018-5.43177E-01-2.93342E-01-3.07589E-02 2.47908E-01 3.34021E-02-3.11263E-01
 -1      3019 3.22892E-01 2.12679E-01 2.97722E-01-8.54054E-02 6.67809E-02-4.34462E-01
 -1      3020-1.40689E-01-2.89747E-01-3.48714E-01 4.60353E-02 8.63077E-02-2.55394E-01
 -1      3021-3.45110E-01-2.22726E-01-1.07712E-01 5.03480E-02 7.09348E-03-2.04102E-01
 -1      3022-1.38396E-01-9.55416E-02-1.60842E-01 2.72696E-02 5.86488E-02-5.87409E-01
 -1      3023-3.95732E-01-2.65462E-01-7.67912E-02 9.51416E-02 6.66098E-03-2.03731E-01
 -1      3024 6.06611E-01 4.76533E-01 1.31798E-01 2.97456E-01-7.58047E-02-2.15443E-01
 -1      3025-7.58561E-02-2.47894E-01-1.16100E-01 1.29177E-01 1.30426E-01-2.56879E-01
 -1      3026-5.07251E-01-3.34119E-01-4.87023E-01-2.60213E-02-4.44366E-02-4.39661E-01
 -1      3027-1.28054E-01-1.09151E+00-2.80146E-01 2.02149E-01 5.49448E-02-1.11124E-01
 -1      3028-5.00802E-01-7.81560E-01-1.83654E-01 5.33356E-01 2.33241E-01-9.75163E-02
 -1      3029-1.86701E-02-6.04778E-01-2.52007E-01 1.59967E-02 2.76826E-01-2.38093E-01
 -1      3030-2.01692E-01-1.02115E-01-4.40539E-01-1.38765E-02-1.30957E-02-6.52031E-01
 -1      3031 4.69364E-01 3.15376E-01 1.11653E-02 3.48002E-01-1.64533E-01-3.00877E-01
 -1      3032-6.67565E-01-1.03154E-01-2.69078E-01 3.04310E-01 2.87615E-01-4.14342E-01
 -1      3033-2.18612E-01-8.36327E-01-4.46564E-01 2.25411E-01 1.22869E-01-1.69405E-01
 -1      3034-1.17921E-01-9.74605E-02 2.78921E-02-3.95854E-02-1.61487E-02-1.05486E-01
 -1      3035-1.83480E-01 5.09977E-01 1.21790E-01-3.85519E-02 6.73582E-02-1.38675E-01
 -1      3036-2.65849E-01-1.03080E-01 3.59431E-02-8.46462E-02-3.87818E-02-1.09763E-01
 -1      3037-6.09132E-01-1.74439E-01-2.27528E-01 2.91383E-01 2.60115E-01-4.07158E-01
 -1      3038-6.26000E-01-3.90997E-01-4.41839E-01-1.40834E-01-1.36564E-01-4.95030E-01
 -1      3039-7.40131E-01-3.29365E-01-1.49324E-01-2.23516E-02 3.05956E-02-2.92679E-01
 -1      3040 4.15484E-01 4.46403E-01 4.82401E-01 3.04854E-01-2.45622E-01-4.00239E-01
 -1      3041-2.71523E-01-6.48011E-02-8.32086E-02-1.68273E-02 5.39791E-04-3.94416E-01
 -1      3042 4.17858E-01 2.39785E-01 7.42759E-02 7.79680E-02-3.11420E-02-2.55497E-01
 -1      3043-2.88113E-01-1.16684E+00-1.47222E-01 2.44444E-01 3.39321E-02-1.27560E-01
 -1      3044 8.23660E-01 7.80979E-01 8.86629E-01-2.02705E-01 1.05143E-01-5.45952E-01
 -1      3045 3.25445E-01 5.63117E-01 5.37382E-01 2.60642E-01-1.24338E-01-3.53928E-01
 -1      3046 9.97088E-02-5.29639E-01-2.51716E-02-1.22881E-02-3.49131E-02-1.16263E-01
 -1      3047 1.03400E-01 8.70133E-02 7.14467E-02-1.45597E-02-5.95183E-02-5.63832E-01
 -1      3048 3.78525E-01 1.26756E+00 2.96787E-01 2.49564E-01-1.09189E-01-1.93511E-01
 -1      3049 8.67934E-02 3.44470E-01 2.02571E-01 3.68982E-02 1.11409E-01-2.20089E-01
 -1      3050 1.41757E+00 1.03249E+00 7.76119E-01-5.61095E-04 2.03147E-02-4.02774E-01
 -1      3051-2.75210E-01 8.23264E-03-1.56030E-01 5.40083E-02-1.49427E-01-6.59728E-01
 -1      3052-5.79144E-01-3.05424E-01-4.81613E-01-1.12546E-01-1.29452E-01-4.94460E-01
 -1      3053-3.49758E-01-2.60262E-01-4.37522E-01 5.94003E-02 7.59034E-02-4.66319E-01
 -1      3054 3.21580E-01 4.08809E-01 7.37897E-01 6.32561E-02-1.35144E-01-5.11133E-01
 -1      3055-2.30542E-01-9.34118E-01-6.48462E-01 1.47639E-01 1.54723E-01-1.61789E-01
 -1      3056 1.12144E+00 6.38729E-01 2.47751E-01 1.21573E-01-3.28905E-02-3.47990E-01
 -1      3057 2.32800E-01 2.06722E-01 2.35713E-01-6.33063E-02 4.19751E-02-4.97832E-01
 -1      3058-4.32400E-01-4.62451E-01-7.32379E-01 1.96960E-01 1.02942E-01-5.20303E-01
 -1      3059 5.92873E-01 4.24153E-01 1.01348E-01-4.04566E-01 1.08453E-01-2.64418E-01
 -1      3060-2.05626E-01 2.95903E-01 1.10375E-02-7.07274E-02 7.49752E-02-2.07978E-01
 -1      3061-5.62470E-02 6.38850E-02-3.42668E-02 3.49804E-05 2.88788E-02-2.26332E-01
 -1      3062-4.61576E-01 3.81525E-02-4.14364E-02-1.52141E-01 5.79677E-02-3.46661E-01
 -1      3063-2.95266E-01-1.98803E-01-2.85786E-01 1.89350E-02-1.83709E-02-4.84617E-01
 -1      3064-7.61471E-01-1.63028E-01-2.57179E-01-3.08972E-01-2.97537E-01-3.95047E-01
 -1      3065 4.36488E-01 6.91275E-01 2.14280E-01-3.28943E-01 1.60555E-01-2.24935E-01
 -1      3066-2.83518E-01-7.57948E-01-5.08225E-01 2.83540E-02 4.22085E-02-2.29511E-01
 -1      3067 4.61388E-01 1.96361E-01 1.16991E-01-7.40237E-02-8.14351E-02-1.29380E-01
 -1      3068-2.40598E-01-2.05074E-01-1.07536E-01-1.28332E-01 2.05255E-02-2.16033E-01
 -1      3069 2.24617E-01 4.05445E-01 2.10441E-01 3.06042E-01 1.75521E-01-1.17690E-01
 -1      3070-3.32004E-01-1.53142E-01-1.45312E-01 8.49525E-02 3.69763E-02-1.55286E-01
 -1      3071 4.51431E-01 1.53724E-01 2.42035E-01-1.96951E-01 3.14859E-01-4.90499E-01
 -1      3072-3.03903E-01-1.52413E+00-2.24318E-01 4.56810E-01-8.76256E-03-7.13596E-02
 -1      3073-5.37570E-01-5.78790E-01 4.03403E-02 3.07222E-01 1.18433E-02-1.59853E-01
 -1      3074-1.87533E-01-3.54544E-01-2.63411E-02 2.02721E-01 4.15629E-02-1.10924E-01
 -1      3075-2.73812E-01-5.73100E-01-1.18934E-01 4.04080E-01 2.40002E-01-1.42002E-01
 -1      3076-5.06119E-01-2.16419E-01-2.50041E-01 1.64972E-01 1.16161E-01-5.09024E-01
 -1      3077-7.15024E-01-2.24281E-01-3.67054E-01 2.35882E-01 3.33183E-01-5.55680E-01
 -1      3078-8.62756E-02-3.32160E-01-1.96626E-01 5.70329E-02-8.59152E-02-1.84772E-01
 -1      3079-3.45113E-01-2.01635E-01-2.04689E-01 9.33200E-02 1.14445E-01-2.97966E-01
 -1      3080-4.14992E-01-2.55567E-01-2.29347E-01-4.66008E-02 9.79266E-03-3.27335E-01
 -1      3081-4.65132E-01-8.02518E-01-2.41843E-01-3.45343E-01-1.78171E-01-1.86871E-01
 -1      3082 7.61668E-01 2.32483E-01 2.61846E-01-3.75870E-01 1.24917E-01-2.32340E-01
 -1      3083 2.51242E-02 2.72397E-01 1.15674E-01-1.71793E-01-9.95621E-02-1.99140E-01
 -1      3084-1.90778E-01-8.48318E-02-5.47419E-02-1.63261E-01-8.14688E-03-2.61035E-01
 -1      3085-3.20371E-01 1.01173E-01 1.26235E-02-4.03934E-02 1.71914E-01-5.75666E-01
 -1      3086 3.02332E-01 4.20108E-01 1.89975E-01-1.38730E-01 1.01966E-02-2.07500E-01
 -1      3087-3.70734E-01-5.13469E-01-5.22914E-01 3.78029E-01 2.66606E-01-3.28044E-01
 -1      3088 7.84101E-03 2.72430E-01 1.32516E-01 2.14257E-01-1.56040E-01-2.28422E-01
 -1      3089-2.38434E-01-1.09367E-01-9.80972E-02 2.32752E-02-4.49379E-02-3.60608E-01
 -1      3090 2.99327E-01 1.28553E+00 1.88914E-01 1.92455E-01-6.23548E-02-1.96978E-01
 -1      3091 9.06465E-02 1.06997E-01 1.69612E-01 1.19048E-01 5.53100E-02-1.22718E-01
 -1      3092 7.52041E-01 1.97140E-01 3.01923E-01-2.85240E-01 2.79496E-01-5.38148E-01
 -1      3093 1.56309E-02-1.80661E-01-4.89036E-02 6.97419E-02 7.25913E-02-1.54191E-01
 -1      3094-3.51112E-01-5.01159E-01-4.46541E-01 3.53156E-01 2.95977E-01-2.70309E-01
 -1      3095 2.92119E-01 1.77699E-01 1.73479E-01 7.21093E-02-8.48076E-02-3.04825E-01
 -1      3096 2.92367E-01 9.26754E-01 6.21364E-01 1.91044E-01-2.02521E-01-1.92580E-01
 -1      3097 1.48667E-01 9.48655E-01 6.76922E-01-3.04940E-01 2.62293E-01-2.74791E-01
 -1      3098-4.53285E-01-1.49262E-01-3.41292E-01 2.58155E-01 2.36427E-01-5.98442E-01
 -1      3099-5.74955E-01-3.45745E-01-3.02897E-01 2.80082E-02-1.97379E-02-3.69019E-01
 -1      3100 1.16795E-01-2.75142E-01-4.32935E-02-5.93819E-02 2.57803E-01-4.73171E-01
 -1      3101 3.46277E-01 1.40550E+00 4.69190E-01-1.22604E-01 3.28448E-02-1.38079E-01
 -1      3102-5.82718E-02-4.13611E-01-9.88784E-02-3.85200E-01-1.45938E-01-1.02179E-01
 -1      3103 5.92761E-01 1.06270E-01 2.00049E-01 3.08495E-01-2.90707E-01-3.02522E-01
 -1      3104-5.31295E-01 1.35040E-01 3.63049E-02-3.17322E-01-9.81425E-02-1.34833E-01
 -1      3105 1.05607E-01 1.14267E-01 3.18364E-02 5.88034E-02-2.64725E-02-2.48882E-01
 -1      3106 3.86600E-01 1.09573E+00 2.24918E-01-2.06852E-01 1.20186E-02-1.49718E-01
 -1      3107 3.60176E-01 2.05945E-01 2.79084E-01 1.20257E-01-7.77285E-03-4.16634E-01
 -1      3108 2.11200E-01 5.77501E-01 3.58252E-01-9.79999E-02 9.73896E-03-2.33253E-01
 -1      3109 1.94635E-01 6.01580E-01 4.38705E-01 3.01970E-01-2.43469E-01-2.80684E-01
 -1      3110-8.03071E-01-4.45040E-01-1.16982E-01-2.20916E-01-6.30808E-02-3.20072E-01
 -1      3111-2.10333E-01-8.81332E-01-4.99524E-01-2.28296E-01-1.50504E-01-1.74060E-01
 -1      3112 3.43317E-01 1.15618E+00 4.75569E-01-2.83454E-01 4.26505E-03-1.95326E-01
 -1      3113 1.16076E-01 1.02775E+00 4.01047E-01 1.76874E-01-1.82987E-01-1.72888E-01
 -1      3114-2.37100E-01-2.60097E-01-2.35029E-02-1.20753E-01 9.70629E-04-2.10572E-01
 -1      3115 1.83650E-01 9.68248E-01 4.04478E-01 2.56373E-01-1.50419E-01-8.86910E-02
 -1      3116-3.96518E-03-6.29913E-02-4.16281E-02 1.88066E-02-2.57033E-02-1.65787E-01
 -1      3117 4.48561E-01 1.44232E-01 2.86435E-01-2.69585E-01 2.91402E-01-4.56135E-01
 -1      3118-3.32361E-02-1.51317E-01-2.68260E-01 3.71841E-03-1.00491E-01-3.85133E-01
 -1      3119 2.12609E-01-1.08457E-01 1.25169E-01 3.31017E-02-1.76897E-01-5.38212E-01
 -1      3120 6.88713E-01 2.82772E-01 1.71502E-02-3.97212E-01 1.13355E-01-2.82666E-01
 -1      3121-2.07497E-01 1.04443E-01-1.51755E-01 2.61345E-01-1.56635E-01-1.09272E-01
 -1      3122-4.97749E-01-3.14375E-01-3.29985E-01-1.79016E-01-1.39819E-01-5.00886E-01
 -1      3123 7.82556E-01 9.83779E-01 9.35655E-01-9.44502E-02 5.06929E-02-4.50840E-01
 -1      3124-2.38154E-01-1.40973E-01-3.45562E-02-8.01562E-02-4.99056E-02-4.22994E-01
 -1      3125-4.09113E-01-5.80976E-01-2.82768E-01-2.01014E-01-1.87337E-01-3.83378E-01
 -1      3126 1.10774E-01 5.16597E-02 1.37442E-01 3.97661E-03-8.88600E-02-5.52779E-01
 -1      3127 1.12665E-03-2.25540E-01 7.20548E-02 2.01673E-01 5.77783E-02-6.71837E-02
 -1      3128 2.33169E-01 4.50227E-01 3.36140E-01 3.46149E-01-3.06948E-01-2.57619E-01
 -1      3129 5.29276E-02 4.73372E-01 1.76277E-01 5.80896E-02 2.24930E-01-2.09387E-01
 -1      3130 5.72484E-01 4.12709E-01 4.86110E-01-2.22764E-01 2.06541E-01-4.70352E-01
 -1      3131 5.61719E-01 4.13529E-01 2.96852E-01-3.06096E-01 1.28574E-01-3.55910E-01
 -1      3132 1.97215E-01-2.01861E-01 1.41504E-01 2.04596E-01 1.02712E-01-8.39697E-02
 -1      3133 4.85881E-01 2.39739E-01 8.62201E-02 3.08475E-01-2.40637E-01-4.09969E-01
 -1      3134 1.10085E-01 5.33978E-02 7.29396E-02-5.06170E-02 1.86282E-02-4.93410E-01
 -1      3135 1.33067E-01 5.89868E-02-5.70376E-02 2.41299E-02-1.70257E-02-4.48302E-01
 -1      3136 3.71525E-01 1.63788E+00 3.66926E-01 1.08187E-01-1.11291E-01-1.28977E-01
 -1      3137 2.00228E-01 1.06021E+00 2.95591E-01 2.62261E-01-1.11930E-01-1.25258E-01
 -1      3138-2.57780E-01-2.29441E-02-1.72205E-01-2.51318E-02-1.08568E-01-6.86495E-01
 -1      3139-2.23606E-01-3.29713E-01-4.50997E-01-1.32617E-01-1.10877E-01-4.07960E-01
 -1      3140-8.19676E-01-5.34309E-01-3.52479E-01-1.04468E-01 3.53800E-03-2.36885E-01
 -1      3141-6.16393E-02 9.84414E-02 1.25038E-01 2.32043E-01 1.41443E-01-2.64197E-01
 -1      3142 4.36968E-01 2.52374E-01 1.03872E-01-5.75736E-02 2.25200E-02-1.83522E-01
 -1      3143 3.90994E-01 2.36595E-01 4.19612E-01 5.33049E-02-4.67937E-02-4.39870E-01
 -1      3144 1.45939E-01 1.03523E-01 7.13139E-02-4.87495E-02 3.92099E-02-4.27116E-01
 -1      3145 2.74497E-01 1.12528E-01 2.34868E-03-1.71487E-01 3.24188E-02-1.22920E-01
 -1      3146 4.06212E-01 7.24317E-01 1.44599E-01-3.92500E-01 1.14642E-01-1.73957E-01
 -1      3147-2.63284E-01-7.74749E-01-8.31099E-01-2.09993E-02 6.03826E-02-3.45377E-01
 -1      3148-7.79072E-02-1.20611E-01-7.95237E-02-2.35160E-01 1.69704E-01-1.34511E-01
 -1      3149-2.60353E-01-9.62769E-01-4.33407E-01-6.01652E-02-7.67125E-02-1.82108E-01
 -1      3150-1.13737E-01-1.29361E-01-2.22401E-01 6.04798E-02-6.16644E-02-6.58474E-01
 -1      3151-3.42724E-01-7.74080E-01-8.66911E-02-4.55883E-01-1.21519E-01-1.73957E-01
 -1      3152-3.17235E-01-1.96464E-01-7.52685E-01-1.31012E-01-9.32418E-02-4.88253E-01
 -1      3153 5.82340E-01 3.73483E-01 5.98116E-01 1.23897E-01-9.60333E-02-5.90665E-01
 -1      3154 1.44528E-01 5.68679E-02 7.06769E-03-7.15893E-02-6.23403E-03-1.32651E-01
 -1      3155 1.71064E-01 1.49032E-01-2.11906E-02 1.93944E-01-1.92546E-01-4.80429E-01
 -1      3156 4.17082E-01 1.75985E-01 1.79068E-01 2.02865E-01-2.52283E-01-5.00162E-01
 -1      3157-3.59216E-01-6.87504E-03-2.05984E-01-4.27860E-03 1.25078E-01-7.23913E-01
 -1      3158-2.81872E-01 1.10296E-01 7.28737E-02-8.64678E-02 8.63121E-02-4.86208E-01
 -1      3159 3.02666E-01 1.17856E+00-1.79642E-02-1.39000E-01 2.45562E-02-1.41393E-01
 -1      3160-2.18520E-02 2.62801E-01 1.35433E-01 2.49633E-02 2.54471E-01-4.23741E-01
 -1      3161 3.73936E-01 7.88030E-01 1.00039E-01-7.09930E-02 1.46745E-02-1.64678E-01
 -1      3162-2.91473E-01-4.56670E-01-5.26435E-01 1.47625E-01 8.45875E-02-3.30671E-01
 -1      3163-1.27847E-01 3.77262E-01 3.90793E-02 5.99342E-02 2.88111E-01-4.99167E-01
 -1      3164-4.06408E-01-2.82964E-01-4.63640E-01-1.40349E-01-1.69406E-01-4.88679E-01
 -1      3165 9.55945E-01 4.77480E-01 1.02106E-01-7.54294E-02-1.00610E-01-1.17837E-01
 -1      3166-3.82985E-01-5.16535E-01-6.54546E-01 1.48683E-01 7.12026E-02-3.74777E-01
 -1      3167 4.90842E-01 3.49961E-01 5.10901E-01-1.14979E-02 5.56917E-02-4.92884E-01
 -1      3168-4.11300E-01-1.72627E-01-1.34424E-01 5.28523E-02-8.64648E-02-5.64536E-02
 -1      3169-3.80158E-01-1.60916E-01-1.10618E-01 2.96083E-02-1.08791E-01-7.92327E-02
 -1      3170 2.15970E-01 9.85076E-02 2.99244E-01 1.00038E-02-9.39160E-02-6.12741E-01
 -1      3171 4.29075E-01 1.99205E-01 1.19394E-01-1.14080E-01 1.06767E-01-3.14088E-01
 -1      3172-3.62004E-01-3.09648E-01-3.37148E-01 9.11422E-02 9.91806E-02-3.63832E-01
 -1      3173-3.31551E-04-6.18814E-02-1.33920E-01 1.65609E-01-1.84223E-01-2.10621E-01
 -1      3174 3.01124E-01 3.62188E-01 2.98102E-01-1.10578E-01 1.35306E-01-4.68612E-01
 -1      3175 2.81735E-01 1.43119E+00 2.09788E-01 3.20728E-01-4.31219E-02-7.17211E-02
 -1      3176-6.48730E-01-3.92113E-01-2.80071E-01 2.35696E-02 4.69847E-03-2.56365E-01
 -1      3177 2.74795E-01 6.00520E-01 1.41907E-01 4.78628E-01-1.65139E-01-8.90270E-02
 -1      3178-1.54451E-01-1.18092E-01 1.71884E-02-7.67229E-02-6.36656E-03-2.09849E-01
 -1      3179-3.60003E-01 6.06411E-02-3.73985E-02-3.39704E-01-2.06593E-01-2.62073E-01
 -1      3180 1.36842E-01 1.61092E+00 4.13660E-01 8.53683E-02-1.23397E-01-1.19577E-01
 -1      3181 1.82472E-01 1.00753E+00 4.94591E-01 2.26998E-01-1.65038E-01-1.52499E-01
 -1      3182 1.16343E-01 6.42447E-01 3.72255E-01 1.16822E-01-1.35549E-02-2.82339E-01
 -1      3183-2.79836E-02 9.17932E-01 3.11792E-01 6.97698E-02-1.27762E-01-1.82769E-01
 -1      3184-3.10849E-01-6.08772E-01-5.03086E-01-7.42147E-02-8.77680E-02-2.77823E-01
 -1      3185 2.80677E-01 7.20288E-01 5.53378E-01 7.81951E-02 3.65901E-02-2.52362E-01
 -1      3186 2.06803E-01 1.12229E+00 3.85099E-01 2.53681E-01-1.61176E-01-7.83940E-02
 -1      3187 5.07969E-02 9.04754E-01 3.41565E-01-1.45875E-01 1.25611E-01-1.59798E-01
 -1      3188 1.68466E-02-1.75443E-01 3.63987E-02 1.14096E-01 7.66091E-02-1.31439E-01
 -1      3189-1.13818E+00-7.22756E-01-5.11985E-01 1.99623E-02-1.25541E-03-4.02106E-01
 -1      3190-3.82621E-01-4.69255E-01-4.94465E-01 2.79743E-01 1.83415E-01-3.88276E-01
 -1      3191 1.95741E-01 1.12945E+00 5.57605E-01 6.56096E-02-6.21986E-03-1.86135E-01
 -1      3192-1.14683E-01-1.15219E-01-6.98768E-02 1.41710E-01-6.18304E-03-2.20858E-01
 -1      3193-4.13309E-01-2.86285E-01-2.45990E-01-1.30388E-01-7.39245E-02-4.14170E-01
 -1      3194 1.08980E-01-7.01325E-02 4.19790E-02-3.75636E-01 3.13921E-01-3.01435E-01
 -1      3195 4.69264E-01 1.79714E-01 8.61541E-02 2.85017E-02-7.70037E-02-3.67538E-01
 -1      3196 3.10077E-01 1.43173E-01 9.64728E-03-1.19314E-01-1.45561E-02-2.53957E-01
 -1      3197-2.58734E-01-1.15664E-02-1.47712E-01 7.16768E-03-8.57562E-02-6.51172E-01
 -1      3198-4.17330E-02 2.74797E-01 1.97542E-02 1.35049E-02-6.66953E-03-2.10391E-01
 -1      3199-1.31690E-01-6.28605E-02 1.32464E-01-1.89380E-02 7.45656E-02-5.55139E-01
 -1      3200 1.30347E-01 1.40757E-01 3.55669E-02 8.05372E-02-3.84459E-02-6.47822E-01
 -1      3201-4.77295E-01-2.22798E-01-1.56963E-01 3.33696E-02 3.72177E-02-2.44115E-02
 -1      3202-6.70362E-01-1.82437E-01-2.53951E-01-2.56626E-01-3.18864E-01-4.85661E-01
 -1      3203-8.48354E-01-4.91524E-01-1.41633E-01 1.16965E-02 9.75697E-02-3.34107E-02
 -1      3204 2.88263E-01 1.46002E+00 2.20358E-01 4.13661E-02-4.76996E-02-2.05910E-01
 -1      3205-3.77220E-01-5.75515E-01-5.25119E-01 2.19641E-01 1.05353E-01-3.11575E-01
 -1      3206 4.81159E-01 4.14464E-01 4.93475E-01 1.33608E-01-3.68150E-02-4.28843E-01
 -1      3207 4.82198E-01 3.01691E-01 1.71167E-01-2.85960E-01 1.72997E-01-3.80778E-01
 -1      3208-9.99835E-02-1.24841E+00-1.73976E-01-3.33869E-01-7.40207E-02-1.20861E-01
 -1      3209-2.02990E-01-1.99378E-01-3.50818E-01 9.50940E-02 4.57146E-02-5.76100E-01
 -1      3210-2.62308E-01 2.14748E-03-9.30475E-02-3.49010E-02 1.33874E-01-6.50836E-01
 -1      3211-3.26631E-01-2.59939E-01-9.82476E-02 8.66812E-02 6.59618E-02-2.07510E-01
 -1      3212 2.92210E-01 2.44813E-02 1.49047E-01 4.82228E-02 1.30493E-01-7.04030E-01
 -1      3213 5.99616E-02 8.88519E-03 6.54985E-02 5.22771E-02 3.96362E-02-6.53776E-01
 -1      3214-1.82076E-01 2.47828E-02-2.46079E-02-1.82761E-02 1.08230E-01-6.67843E-01
 -1      3215-4.70314E-01-6.53738E-01-1.12284E-02-5.54664E-01-5.50997E-02-8.61063E-02
 -1      3216 1.97563E-01 1.22605E-01-6.72388E-02-1.51327E-01 2.80689E-02-3.30140E-01
 -1      3217 4.75087E-01 1.93337E+00 3.77205E-01 1.81728E-01-1.12986E-01-2.14609E-01
 -1      3218 3.67789E-01 1.47929E-02 1.60015E-01-2.36506E-01 3.42672E-01-4.53669E-01
 -1      3219 9.07471E-01 5.00226E-01 2.03306E-01-5.03445E-02-4.03364E-02-3.01040E-01
 -1      3220 3.77292E-02 3.79529E-01 3.27752E-02 1.63813E-01 4.83913E-02-2.17583E-01
 -1      3221 4.81094E-02 1.10092E+00 3.69535E-01 9.00819E-02-1.02482E-01-9.04817E-02
 -1      3222-4.77636E-01-3.48456E-01-3.58932E-01-1.54639E-01-1.37986E-01-4.25002E-01
 -1      3223-5.59356E-01-2.11304E-01-1.40729E-01 2.67233E-01 2.79878E-01-4.76557E-01
 -1      3224 1.82763E-01 1.12266E-01 1.39509E-01 8.24212E-02-4.68181E-02-1.02517E-01
 -1      3225 1.36094E+00 9.36339E-01 6.55955E-01-9.06317E-02 8.44020E-04-3.77972E-01
 -1      3226 1.33089E-01 2.62057E-01 2.82587E-01-1.25347E-01 1.54460E-01-4.03156E-01
 -1      3227 1.36802E-03 5.90334E-02-9.84744E-02 1.39158E-01-1.50682E-01-2.63863E-01
 -1      3228 7.65490E-01 1.88642E-01 1.92307E-01-2.86665E-01 2.91125E-01-4.74518E-01
 -1      3229 1.96766E-01 1.36496E+00 6.45395E-02-1.62017E-01 2.48523E-02-7.24105E-02
 -1      3230-2.80109E-01-7.21091E-02-1.77906E-01-3.30329E-02-5.31489E-02-5.81982E-01
 -1      3231 7.01200E-01 3.38880E-01 1.72587E-01 2.50943E-01-1.23589E-01-3.65295E-01
 -1      3232 2.71856E-01 2.04932E-01 4.93642E-02-2.86019E-02 6.98293E-03-1.75853E-01
 -1      3233 6.93581E-01 1.71758E-01 5.24419E-01-3.51944E-01 3.67771E-01-5.58059E-01
 -1      3234 8.68369E-01 1.02344E+00 8.85549E-01-8.78562E-02-2.05380E-02-5.02032E-01
 -1      3235 5.19786E-01 6.33683E-01 3.05225E-01-2.97712E-01 9.01457E-02-2.54010E-01
 -1      3236 2.08937E-01 9.97167E-01 2.01288E-01 1.07063E-01 1.62422E-03-1.33985E-01
 -1      3237-8.38521E-03 2.43632E-01 1.27417E-01-8.27293E-02-2.08629E-01-2.63687E-01
 -1      3238 4.12386E-03-6.15617E-01-4.49921E-01 2.30691E-02 1.07730E-01-1.73074E-01
 -1      3239 1.92299E-01-9.61977E-02-6.49402E-02 1.34467E-02 1.41492E-01-4.76639E-01
 -1      3240 3.08504E-01 1.05147E+00 4.72307E-01-3.18662E-01 1.33694E-01-9.42708E-02
 -1      3241-3.05747E-01-8.41964E-01-4.74431E-01-1.45556E-01-2.92917E-02-2.43794E-01
 -1      3242-5.27929E-01-2.07878E-01-1.02116E-01 2.64862E-01 1.55294E-01-3.70739E-01
 -1      3243 5.60324E-01 4.94939E-01 5.26690E-02 2.65887E-01 2.18506E-02-2.39404E-01
 -1      3244 1.53120E-01-1.11791E-01-8.92259E-03-2.42084E-02-1.24048E-01-5.93244E-01
 -1      3245 2.86633E-01 2.77394E-02 3.06405E-01 2.69595E-02-1.27606E-01-6.39837E-01
 -1      3246-7.58431E-01-1.04031E+00-1.12554E+00-4.33234E-02 9.27767E-02-5.10772E-01
 -1      3247 1.62046E-01-2.24834E-01-5.49049E-02-1.92769E-02 2.03531E-01-4.70552E-01
 -1      3248 6.40734E-01 3.81083E-01 4.62888E-01-7.71152E-02 4.40963E-02-4.63501E-01
 -1      3249 2.88500E-01 2.10941E-01 4.79676E-01 1.11354E-02 6.54551E-02-6.50748E-01
 -1      3250-4.23345E-03-5.34382E-01-8.32620E-02 8.73922E-02-1.93061E-01-2.66170E-01
 -1      3251 4.89293E-02 2.84733E-01 1.08141E-01-2.11001E-02 2.47938E-02-1.82602E-01
 -1      3252 3.17409E-01 2.69652E-01-2.47607E-02 1.01739E-01-2.38064E-02-1.85178E-01
 -1      3253 2.31090E-01 1.73790E-02 4.99069E-02 1.03496E-01 6.02762E-02-1.76456E-01
 -1      3254-7.27120E-01-7.66321E-01-6.43193E-02-7.15602E-01-9.72499E-02-7.94350E-02
 -1      3255 2.85234E-01 3.09296E-01 3.02972E-01-1.94023E-01 2.09587E-01-4.17174E-01
 -1      3256-1.94531E-02 3.83598E-01 9.92270E-02-1.69148E-03 3.19423E-02-2.55048E-01
 -1      3257-1.20165E+00-7.31892E-01-5.09891E-01-7.67560E-02-5.74000E-03-3.17754E-01
 -1      3258 8.82047E-02 5.20180E-01 1.90164E-01-1.07845E-01-2.46091E-01-2.13756E-01
 -1      3259 2.84236E-01 1.00466E-01-1.01080E-01 5.23729E-02 1.85213E-02-2.13527E-01
 -1      3260-2.07631E-01-2.16661E-01-3.97303E-01 1.14622E-02-8.85789E-02-4.58263E-01
 -1      3261-6.80349E-01-1.99993E-01-2.87541E-01 2.48612E-01 2.51575E-01-3.42799E-01
 -1      3262 2.22995E-01 2.92306E-02 8.71098E-02 5.38875E-02 1.15296E-01-6.71448E-01
 -1      3263-5.67667E-01-3.35924E-01-4.15501E-01-6.53756E-02-7.16067E-03-4.36627E-01
 -1      3264 4.22526E-01 4.06588E-01 2.30641E-01 1.95789E-01-3.06945E-02-2.90033E-01
 -1      3265 2.25422E-02 2.48236E-02-1.56621E-02 4.63310E-02 2.86220E-03-7.46600E-02
 -1      3266-1.19171E-01-2.92304E-02 3.42335E-02-1.41391E-01 1.64365E-02-2.34223E-01
 -1      3267-6.46974E-01-6.61534E-01-8.51705E-01 6.66892E-02 8.14490E-02-5.22920E-01
 -1      3268-3.24314E-01-9.64290E-01-8.11661E-02 4.63693E-01 1.57287E-01-1.67089E-01
 -1      3269-4.69122E-01-7.28792E-01-4.81071E-01 3.03371E-01 2.12813E-01-3.73441E-01
 -1      3270-9.05337E-01-5.41762E-01-2.34939E-01-4.04660E-02-3.25981E-02-2.70062E-01
 -1      3271-2.64152E-01-1.58310E-01-3.85979E-02-1.92745E-01 1.13418E-02-2.94654E-01
 -1      3272-3.11771E-01-5.88559E-01-3.09441E-01-3.95260E-01-2.25469E-01-2.16178E-01
 -1      3273 2.49664E-01 1.10901E+00 6.03937E-01-1.03835E-01-4.96659E-02-2.08566E-01
 -1      3274 5.28245E-02-7.84830E-01-4.80716E-01-9.07703E-03-3.15030E-01-4.24310E-01
 -1      3275-4.74615E-01-9.51432E-01-3.27280E-01 3.50027E-01 1.71660E-01-3.21054E-01
 -1      3276-5.96494E-01-1.49656E-01 4.29737E-02 7.59224E-02-2.77524E-02-2.39911E-01
 -1      3277 3.76325E-01 1.79747E-01 1.29986E-01 1.82860E-01 8.96826E-03-4.05432E-01
 -1      3278-6.25498E-01-3.66280E-01-2.82502E-01-1.25999E-01 6.72212E-03-3.75077E-01
 -1      3279 6.65667E-01 7.06338E-01 3.67743E-01 5.39386E-01-3.33222E-01-2.98874E-01
 -1      3280 7.19771E-01 1.07529E-01 1.38718E-01-3.90045E-01 2.93961E-01-3.47549E-01
 -1      3281-1.73294E-01-4.65718E-02-9.42513E-02-2.23680E-01-1.52227E-01-3.66687E-01
 -1      3282-1.26293E-01-1.56094E+00-1.92475E-01 1.17322E-01 6.29412E-02-8.80295E-02
 -1      3283-2.98281E-01 1.87626E-01-9.65610E-02-4.57401E-02 1.22064E-01-4.85743E-01
 -1      3284-7.05271E-01-4.40698E-01-1.25909E-01-1.75873E-01-1.70949E-02-2.28772E-01
 -1      3285-6.08489E-01-1.89468E-01-4.45838E-01-2.57746E-01-1.99485E-01-5.72254E-01
 -1      3286-2.90060E-01-5.35450E-01-5.13253E-01 2.00549E-01 8.43875E-02-3.19348E-01
 -1      3287 4.19477E-01 6.11654E-01 4.74347E-01-8.22923E-02 1.90087E-02-2.97504E-01
 -1      3288-2.08095E-01-9.56067E-01-2.95929E-01 2.60488E-01 6.26504E-02-1.15669E-01
 -1      3289-3.68782E-01-4.34336E-01-5.51438E-01 1.13788E-01 7.20888E-02-3.97767E-01
 -1      3290-3.50856E-01 5.29894E-02-2.03147E-01-4.34629E-03 1.79255E-01-6.59482E-01
 -1      3291-8.69449E-01-7.34919E-01-1.01639E+00-2.37388E-01-9.25103E-02-5.56550E-01
 -1      3292 2.33057E-01 1.02720E+00 4.54659E-01-3.11659E-01 1.96110E-01-1.35362E-01
 -1      3293 6.87078E-01 1.15265E+00 3.19290E-01 4.96504E-01-8.86776E-02-2.57264E-01
 -1      3294 3.57648E-01 1.11418E+00 6.04295E-02 5.18390E-01-8.48872E-02-1.34895E-01
 -1      3295-4.20094E-01 3.49244E-02-1.78216E-01 3.15304E-01 2.21625E-01-3.39140E-01
 -1      3296-5.18105E-01-6.07511E-01-4.53618E-01-2.66145E-01-6.98023E-02-3.64092E-01
 -1      3297 2.55011E-01 7.68541E-01 3.70463E-01 3.25592E-01-2.46195E-01-2.75759E-01
 -1      3298 2.15426E-01 6.77650E-01 3.50773E-01 3.16100E-01-2.24873E-01-2.22577E-01
 -1      3299-7.21697E-01-6.05789E-01-4.18109E-01-5.84774E-01-3.42223E-01-2.67676E-01
 -1      3300 7.02930E-01 1.74321E-01 1.43312E-01 3.07087E-01-1.02200E-01-1.91728E-01
 -1      3301-3.24375E-01-4.62651E-01-4.00654E-01-2.87655E-01-2.64478E-01-2.66566E-01
 -1      3302-4.97747E-01-2.52055E-01-4.01285E-01-1.31951E-01-1.38447E-01-4.90691E-01
 -1      3303-2.26513E-01-1.39921E-02 8.29881E-02-1.48817E-02 2.86244E-02-2.71560E-01
 -1      3304 1.38239E-01 1.13075E+00 2.94035E-01 2.25737E-01-3.93116E-02-1.75430E-01
 -1      3305 3.07865E-01 2.41763E-01 1.90706E-01-2.47536E-01 2.26017E-01-4.22063E-01
 -1      3306-9.21307E-01-5.83820E-01-3.82067E-01-1.40113E-01-3.92588E-02-3.52675E-01
 -1      3307-6.64616E-01-3.72501E-01-4.59628E-01 8.10804E-02 3.65673E-03-4.76814E-01
 -1      3308 6.79287E-01 7.22095E-01 2.89074E-01 3.58460E-01-3.65757E-02-2.56223E-01
 -1      3309 4.77585E-02-4.31287E-02-9.21372E-02 8.26481E-02 5.68173E-02-6.59002E-01
 -1      3310-3.42079E-01-9.01283E-01-3.18689E-01-2.23760E-01-8.94581E-03-1.85474E-01
 -1      3311 6.11492E-01 1.89556E-01-3.11560E-02 2.25471E-01 5.80571E-02-2.96139E-01
 -1      3312 5.05659E-02-7.55336E-02-5.39621E-02-5.74483E-02-1.00978E-01-5.74909E-01
 -1      3313 3.62186E-02-8.37663E-01-1.06994E-01-8.82614E-02-3.92354E-02-1.40461E-01
 -1      3314 3.84751E-01 3.05380E-01 1.11409E-01-1.62369E-01 3.02351E-02-2.60078E-01
 -1      3315 1.33707E-01 1.36853E-02-2.55545E-02-1.68584E-01 1.85704E-01-2.86103E-01
 -1      3316 7.99024E-02 4.64237E-02 1.55792E-02-1.97694E-01-2.70694E-02-1.89078E-01
 -1      3317-4.37504E-01-2.21762E-01-2.42413E-01-2.79326E-01-2.54739E-01-4.38295E-01
 -1      3318-2.28051E-01-2.55278E-02-1.67093E-01 8.96271E-02-1.54328E-04-5.70021E-01
 -1      3319 4.92176E-01 5.68639E-01 2.34092E-01 2.01239E-01-9.98719E-02-2.97391E-01
 -1      3320 5.03633E-01 6.35019E-02 3.24849E-02 2.64444E-01-4.68335E-02-1.51248E-01
 -1      3321 7.86809E-01-2.25561E-02 7.27786E-02 3.30870E-01-2.57872E-01-2.54895E-01
 -1      3322 1.34319E-01 3.11401E-01 1.32779E-01 8.66120E-02-1.33600E-01-2.75562E-01
 -1      3323-1.02092E+00-6.71158E-02-2.60930E-01-3.05878E-01-1.35373E-01-2.81515E-01
 -1      3324-2.84628E-01-9.14912E-02-1.64475E-01-2.98511E-01-2.41679E-01-3.74644E-01
 -1      3325-2.08864E-01-1.32244E+00-2.97784E-01-3.79362E-01-1.08190E-01-9.94342E-02
 -1      3326-8.89996E-01-7.57500E-01-1.09201E+00 1.14856E-01 4.33054E-02-6.71134E-01
 -1      3327-7.98479E-02-1.23947E+00-1.66221E-01-6.49606E-02-1.07451E-01-1.09097E-01
 -1      3328-6.86747E-01-6.12188E-01-4.73930E-01-4.60536E-01-2.80127E-01-2.76132E-01
 -1      3329 1.10817E-01-2.17901E-01-1.07093E-01 2.66030E-01-2.49877E-01-1.86686E-01
 -1      3330 3.53952E-01 1.55569E+00 1.80020E-01 3.15698E-01-2.18835E-02-8.26913E-02
 -1      3331-8.23263E-01-3.28561E-02-1.23447E-01-3.05904E-01-3.04384E-01-3.35099E-01
 -1      3332 2.61978E-01 8.31040E-01 7.04903E-01 8.54515E-02-1.77371E-01-2.63705E-01
 -1      3333 3.33775E-01 5.54762E-02 1.82325E-01-3.04124E-01 2.92714E-01-4.07483E-01
 -1      3334-2.93070E-01-5.46730E-03 3.69184E-02 2.75185E-01 2.75043E-01-2.80352E-01
 -1      3335-2.08665E-01-6.67286E-01-1.05474E-01 5.53981E-01 1.52167E-01-1.05205E-01
 -1      3336-4.19403E-01-1.62367E-02-8.47154E-02-3.88823E-01-3.05756E-01-3.61290E-01
 -1      3337 4.89987E-02 1.18666E-01 2.41409E-01-5.68775E-02 8.77276E-02-5.01745E-01
 -1      3338 3.72045E-02 4.24216E-01 1.76922E-01 2.89815E-01-2.10166E-01-1.85249E-01
 -1      3339-8.26803E-01-5.85058E-01-2.21857E-01 1.41126E-01 1.62801E-02-2.50020E-01
 -1      3340-4.65851E-01-7.76811E-01-3.53104E-01-3.09394E-01-1.33092E-01-3.26304E-01
 -1      3341-7.19508E-01-6.46892E-01-3.10902E-01 2.04719E-01 5.55036E-02-3.58796E-01
 -1      3342 6.37519E-01 5.03850E-01 2.76031E-01-1.47965E-01 4.81860E-02-2.38448E-01
 -1      3343 2.42264E-01 8.90120E-01 5.73238E-01-1.41977E-01-1.06937E-02-2.79015E-01
 -1      3344-4.80873E-01 1.06073E-01-2.44836E-02-3.32577E-01-1.65481E-01-1.80786E-01
 -1      3345 2.00866E-01 6.59050E-01 4.26923E-01 2.15656E-02-4.95253E-02-2.31330E-01
 -1      3346 2.06883E-01-9.59965E-02-1.00795E-02-3.63654E-01 1.84574E-01-1.66307E-01
 -1      3347 4.09354E-01 2.08573E-01 9.94340E-02-1.72205E-01 8.97225E-02-4.04162E-01
 -1      3348 5.58215E-01 2.34742E-01 9.11084E-02 1.61043E-01-1.25416E-01-2.48157E-01
 -1      3349-6.13222E-01-6.33055E-01-5.08957E-01 2.82159E-01 1.39452E-01-4.56885E-01
 -1      3350-2.94756E-01-1.33115E+00-1.06669E-01-4.53070E-01 1.02719E-02-3.12934E-02
 -1      3351-6.13693E-01-2.63728E-01-2.46124E-02 1.45872E-01 2.20360E-02-2.30693E-01
 -1      3352-1.53687E-01 5.40973E-01 1.52805E-01 2.57685E-02 2.68164E-01-4.24737E-01
 -1      3353-4.39818E-01-3.58484E-01-1.55660E-01 2.31392E-01 1.71804E-02-1.99781E-01
 -1      3354-3.22928E-01-8.46938E-03-2.94365E-01-9.21665E-03-1.38582E-01-6.65588E-01
 -1      3355-6.65882E-01-4.04031E-01-1.33514E-01 1.13088E-01-4.92802E-02-1.93490E-01
 -1      3356 3.56131E-01 2.79737E-01 5.69437E-01 1.19401E-01-1.61135E-01-4.97673E-01
 -1      3357 4.89208E-03 2.18561E-01 3.12744E-01-6.06587E-02-1.56055E-01-2.75892E-01
 -1      3358-1.63705E-01-4.35120E-01-2.71294E-01-1.94760E-01-1.13013E-01-2.45927E-01
 -1      3359 1.85540E-01 3.74539E-01 9.95061E-02-1.12209E-01 1.11420E-01-3.37549E-01
 -1      3360 3.70621E-01 2.30660E-01 1.02888E-01 1.43810E-01 8.32231E-03-3.13405E-01
 -1      3361 1.14568E+00 7.29754E-01 2.32348E-01-1.58557E-01 6.82382E-02-3.54959E-01
 -1      3362-5.79691E-01-3.36026E-01-5.08040E-02 1.58654E-01-1.69553E-02-1.22680E-01
 -1      3363-9.23351E-02-5.96723E-01-8.02594E-02 3.90394E-01 2.59061E-01-1.71546E-01
 -1      3364-7.75256E-01-1.40644E-01-2.31956E-01 3.48084E-01 2.02976E-01-2.31910E-01
 -1      3365-1.63687E-01-8.99498E-02-1.28269E-01-6.13067E-02-9.22093E-02-6.45902E-01
 -1      3366 1.82470E-01 4.07957E-01 2.07280E-01-2.72951E-01 1.86878E-01-2.54484E-01
 -1      3367 1.01811E+00 2.29805E-01 1.69909E-01-3.31228E-01 5.08457E-02-2.15015E-01
 -1      3368-1.23745E+00-8.72450E-01-6.00823E-01-8.26522E-02-6.86096E-02-3.47410E-01
 -1      3369-3.61550E-01-5.62178E-01-2.05495E-01 3.73128E-01 2.63043E-01-2.06645E-01
 -1      3370-6.45101E-01-2.71730E-01-4.88746E-01-2.31972E-01-3.04406E-01-5.03938E-01
 -1      3371-1.83842E-01-4.45520E-01-3.21222E-02 2.56136E-01-4.12727E-03-1.87906E-01
 -1      3372 6.38161E-01 5.05091E-01 2.16341E-01-2.03090E-01 3.91573E-02-2.38867E-01
 -1      3373 3.48619E-01 2.46671E-01 2.99183E-01-2.48377E-01 2.78440E-01-4.45432E-01
 -1      3374-5.42456E-01-1.49627E-01-2.66240E-02 2.63827E-01 9.17029E-02-2.87670E-01
 -1      3375-7.32331E-01-1.26593E-01-1.57777E-01 2.83263E-01 3.49719E-01-4.65972E-01
 -1      3376-7.56928E-01-4.99246E-01-2.30476E-01-1.56270E-01-4.14250E-02-2.63715E-01
 -1      3377-2.70670E-01-1.71182E-01-2.14882E-01 1.85218E-01 2.32326E-01-4.68560E-01
 -1      3378-5.69811E-01-4.32783E-01-1.96373E-01 2.01896E-01 2.81743E-02-1.87279E-01
 -1      3379 2.66652E-01 3.72386E-01 9.47203E-02 2.17140E-01-1.53960E-01-5.42272E-01
 -1      3380 2.92937E-02-8.43006E-01-3.43670E-01-7.85193E-02-1.19027E-01-1.99468E-01
 -1      3381 4.78602E-01 5.82865E-01 2.43497E-01-2.04897E-01 1.16177E-01-2.75969E-01
 -1      3382-1.74692E-01-1.43969E+00-1.26322E-01-1.62779E-01-1.21317E-01-2.47406E-02
 -1      3383-6.33644E-02-9.52622E-05-2.92855E-01-2.13299E-02 3.90009E-02-6.13622E-01
 -1      3384-1.17676E-01-1.23831E+00-3.01644E-01-8.94955E-02-9.35321E-02-1.11915E-01
 -1      3385 4.10172E-01 1.64000E-02 9.12598E-02-1.59709E-01-3.68616E-02-2.46124E-01
 -1      3386-1.91225E-01-7.35324E-01-5.23120E-02 5.30107E-01 1.86348E-01-3.05174E-02
 -1      3387 1.60986E-01 7.52343E-01 3.46189E-01 1.74627E-01 1.33379E-03-2.47541E-01
 -1      3388 3.17230E-01 9.86072E-01 9.22719E-02 1.86397E-01 2.48902E-02-1.50198E-01
 -1      3389 8.16154E-01 6.35774E-01 4.23402E-01-2.22049E-01 2.52594E-02-2.73256E-01
 -1      3390-2.11041E-01-4.68192E-01-2.35040E-01-3.93236E-01-1.86891E-01-1.75570E-01
 -1      3391 7.10129E-01 3.62970E-01 1.02074E-01 1.10593E-01-5.61449E-03-2.54760E-01
 -1      3392-1.68444E-02 4.88481E-03-4.14679E-02 1.02355E-01-1.66356E-03-8.05453E-02
 -1      3393 1.51758E-01 1.01160E+00 4.91373E-01 1.15309E-01-9.29730E-02-1.86371E-01
 -1      3394 8.11598E-01 3.87150E-01 1.55099E-01 2.64553E-01-1.13011E-01-3.23426E-01
 -1      3395-4.84857E-02-1.50862E-01-3.63060E-01 6.35038E-02-5.13323E-03-6.38316E-01
 -1      3396 1.63561E-01 1.97987E-01 1.35892E-01 7.46189E-02-5.02004E-02-5.49328E-01
 -1      3397 3.49368E-01 1.37007E-01-1.37884E-01 2.96452E-01-1.16993E-01-3.27039E-01
 -1      3398-5.10590E-01-3.39955E-01-4.81150E-01-4.70503E-02-1.95400E-02-4.94115E-01
 -1      3399-2.51174E-01-4.00099E-01-5.02805E-01 1.00338E-01 1.47379E-01-4.61060E-01
 -1      3400 3.56578E-01 2.22213E-01 4.08399E-01-2.11394E-01 2.89690E-01-5.38950E-01
 -1      3401-9.39954E-02-2.82657E-01-2.12887E-01 1.56021E-01 2.02752E-01-4.21876E-01
 -1      3402-1.72732E-01-8.02319E-02 1.47743E-02-1.94899E-01-2.36639E-03-3.27298E-01
 -1      3403 2.87924E-01-8.04164E-02 4.45116E-02 3.03436E-01-1.59171E-01-1.59847E-01
 -1      3404-6.95983E-01-5.54460E-01-4.01732E-01-1.98007E-01-2.90221E-02-3.34543E-01
 -1      3405-4.45648E-01-4.94536E-01-4.47433E-01 2.36455E-01 6.71750E-02-3.79749E-01
 -1      3406 8.88224E-01 8.68743E-01 8.31088E-01-6.41676E-02 4.86757E-02-5.33353E-01
 -1      3407 1.01535E+00 6.80019E-01 5.47806E-01-1.52336E-01 1.50098E-02-3.55048E-01
 -1      3408-5.70756E-01-7.48637E-02-1.27192E-01 1.61137E-01-7.68699E-02-3.07030E-01
 -1      3409-1.53424E-01-2.20443E-02 5.44010E-02 7.99579E-02 1.34011E-03-1.31509E-01
 -1      3410-7.64908E-01-4.36718E-01-2.32033E-01-1.61816E-02-3.07835E-02-1.94401E-02
 -1      3411-3.42388E-01 9.86814E-03-6.86057E-04 1.31805E-01-2.43454E-02-3.26147E-01
 -1      3412 6.75233E-01 7.15701E-01 5.19317E-01-5.00792E-01 2.92085E-01-2.99519E-01
 -1      3413 2.10880E-01 1.06806E+00 4.53894E-01-1.34673E-01-2.59560E-02-1.42688E-01
 -1      3414 1.06437E-01 5.22191E-02 6.19351E-03 1.48787E-01 3.35063E-02-2.52192E-01
 -1      3415-1.51665E-01 4.95302E-02-3.09060E-02-4.19522E-02 1.28017E-01-7.56999E-01
 -1      3416 1.25410E-01 4.92842E-01 2.37667E-01-3.05919E-01 1.78459E-01-1.82443E-01
 -1      3417 5.56052E-01 6.64329E-01 3.97798E-01-4.35821E-01 2.59583E-01-2.29458E-01
 -1      3418-6.97568E-01-4.59400E-02-8.86150E-02 4.10293E-01 1.01917E-01-1.68241E-01
 -1      3419 6.19103E-01 7.36351E-01 2.27641E-01-5.87340E-01 1.30239E-01-1.73496E-01
 -1      3420 2.35296E-01 6.00497E-02 1.48732E-02 2.25028E-01 3.27652E-02-8.58011E-02
 -1      3421 3.46931E-01 3.46530E-01 1.35517E-01-1.43885E-01 3.44041E-02-9.63455E-02
 -1      3422 6.68022E-01 7.95192E-01 1.76878E-01-3.76372E-01 2.64764E-02-2.17440E-01
 -1      3423 1.18219E-01 1.98556E-02-6.92353E-02-3.88941E-02-5.57598E-02-5.35654E-01
 -1      3424-1.15960E+00-2.25226E-01-3.27038E-01 4.29999E-01 1.47943E-01-2.17053E-01
 -1      3425 8.41532E-02 1.36311E-01 7.48578E-02-2.53844E-01 3.45243E-02-2.35818E-01
 -1      3426 2.36026E-01 9.91644E-01 5.40468E-01-3.61877E-01 2.38081E-01-2.12642E-01
 -1      3427-7.91391E-02-4.88217E-02 7.04552E-03 6.47694E-02 6.12908E-03-2.32081E-01
 -1      3428 9.01407E-01 1.25602E+00 1.06943E+00 4.34427E-02 7.71793E-02-4.25578E-01
 -1      3429 2.82735E-01 1.24659E-01 5.85243E-02 1.77170E-01 3.80031E-02-2.63737E-01
 -1      3430-4.43031E-01-2.34396E-01-6.71290E-02 5.52947E-02 9.92785E-04-1.57241E-02
 -1      3431-4.32356E-01-1.43573E-01-7.21651E-02-1.39733E-02-1.94098E-02-4.23998E-02
 -1      3432 8.24762E-01 7.84771E-01 1.80442E-01-6.20688E-01 2.59530E-01-2.78359E-01
 -1      3433-1.99506E-01-1.06272E-01 4.61285E-02-1.01509E-01-4.56251E-02-9.75638E-02
 -1      3434 2.18313E-01 2.17087E-01 8.94439E-02-2.15853E-01 1.60788E-02-2.77031E-01
 -1      3435 3.26001E-01 5.80353E-01 4.91556E-01-2.40256E-01 1.70379E-01-3.05564E-01
 -1      3436 6.46398E-02 3.26689E-02 4.36817E-02-1.11446E-01-8.92920E-03-2.32089E-01
 -1      3437 2.91541E-01 1.29729E+00 5.20277E-01-1.66643E-01 4.25363E-02-1.43886E-01
 -1      3438-2.22964E-01-4.93111E-01-1.72078E-01 5.89711E-02-2.06096E-02-6.60660E-02
 -1      3439-6.04081E-01-2.78190E-01-4.12254E-02-1.54833E-01 3.00026E-03-4.32728E-02
 -1      3440 3.06061E-01 1.81157E-01 1.36407E-01-6.89927E-02 4.95913E-02-1.23777E-01
 -1      3441-5.65136E-01-2.76026E-01-7.61709E-02 1.05218E-01-3.16883E-02-7.92171E-02
 -1      3442 4.59397E-01 2.04975E-01 7.12346E-02 4.55136E-02-1.13553E-02-1.82179E-02
 -1      3443 5.38002E-01 2.14488E-01 1.34480E-01 8.37923E-02 3.68890E-02-6.81735E-02
 -1      3444-7.17917E-01-4.07633E-01-9.22977E-02 7.60430E-02-5.93338E-02-5.38397E-02
 -1      3445 6.87369E-02 7.99985E-01 2.57972E-01-1.19981E-01 7.96770E-02-1.13860E-01
 -1      3446 1.17363E+00 1.32760E-01 1.34124E-01 2.95454E-01-7.29573E-02-2.11438E-01
 -1      3447-5.08177E-01-2.53381E-01-2.41739E-02-2.61875E-01-1.42787E-01-2.96004E-01
 -1      3448 3.32852E-01 9.27302E-01 6.13082E-01 1.18850E-01-1.14977E-02-3.48869E-01
 -1      3449-1.27754E+00-9.00335E-01-6.84371E-01-7.52604E-02 1.34203E-02-3.74833E-01
 -1      3450 1.71768E-01 8.59456E-02 8.65563E-02-9.36718E-02-1.45231E-02-5.91042E-01
 -1      3451 6.96465E-01 3.57491E-01 1.72625E-01-1.05667E-02 4.52920E-02-3.07519E-01
 -1      3452-3.71285E-01-2.78102E-01-2.65926E-01 1.82585E-01-2.63481E-05-3.02804E-01
 -1      3453-1.31383E-01-8.16897E-02-7.32848E-02 1.35826E-01 1.86451E-02-3.01370E-01
 -1      3454-1.65636E-01 1.36576E-01-2.72490E-02-3.10482E-02-2.17082E-01-5.29278E-01
 -1      3455-2.56774E-01 1.02396E-01-1.88344E-02 2.98079E-01 1.13991E-01-1.32313E-01
 -1      3456-1.09242E+00-7.48949E-01-6.05925E-01 5.64583E-02 9.44194E-03-2.95747E-01
 -1      3457-3.09115E-01-2.11297E-01-1.75029E-01 1.71267E-01 1.06823E-02-3.33661E-01
 -1      3458 3.94816E-01 2.62483E-01 1.34821E-02 2.16018E-01-1.08812E-02-2.23154E-01
 -1      3459-1.86246E-01-5.27841E-01-3.88531E-01 3.06904E-01 2.05993E-01-2.67267E-01
 -1      3460 1.73055E-01 3.00905E-01 2.83003E-01-8.56978E-02 6.46033E-02-4.92325E-01
 -1      3461 1.48825E-01 1.02031E+00 4.89693E-01 1.81689E-01-8.43437E-03-2.69752E-01
 -1      3462 1.34951E-01 8.88772E-01 2.98821E-01 1.19060E-01-1.02787E-01-1.47936E-01
 -1      3463 3.88986E-01 2.13173E-01 1.11570E-01 1.76651E-01 3.52738E-02-2.62471E-01
 -1      3464-1.24691E+00-8.55560E-01-6.30619E-01-1.82304E-01-3.88351E-02-3.85432E-01
 -1      3465-2.75604E-01-9.89155E-01-1.49381E-01-1.41966E-01-3.43159E-02-1.46851E-01
 -1      3466-6.36919E-01-6.77712E-01-3.17971E-01-3.08538E-01-5.87357E-02-3.05874E-01
 -1      3467 3.80983E-01 6.48558E-01 8.89605E-02-4.10718E-01 2.25425E-02-1.11225E-01
 -1      3468-7.11242E-01-2.65728E-01-7.66357E-02-6.52651E-02-6.11188E-02-2.68396E-01
 -1      3469 1.32483E-01 1.22103E+00 6.33421E-01 5.53834E-02-1.60951E-02-2.16061E-01
 -1      3470 1.36620E-01-3.27187E-01-3.95975E-03 6.65268E-02-2.16925E-01-3.56615E-01
 -1      3471-3.72930E-02-3.62739E-01-2.92804E-01 3.04778E-02-2.37256E-01-2.90960E-01
 -1      3472 1.33330E+00 8.90266E-01 6.49669E-01-1.81049E-01 7.24829E-02-4.49732E-01
 -1      3473 2.23584E-01 1.22315E-02 7.91732E-02-2.33737E-01 2.82913E-01-3.64795E-01
 -1      3474 3.83675E-01 9.19008E-01-2.47363E-02-5.53116E-01 9.39678E-02-1.77596E-01
 -1      3475 6.47383E-01 6.52399E-01 4.52389E-01-5.35471E-01 3.65970E-01-2.77796E-01
 -1      3476-1.02011E+00-7.45156E-01-4.82533E-01 9.73113E-02-2.30710E-02-2.78287E-01
 -1      3477 9.81859E-01 6.75072E-01 4.20832E-01 1.67803E-01-5.03464E-02-3.35417E-01
 -1      3478-3.19609E-01-3.40248E-01-2.38144E-01 8.64626E-02 9.44398E-02-3.58846E-01
 -1      3479-7.07166E-01-4.52783E-01-2.78114E-01 1.67913E-01-8.29801E-03-2.46781E-01
 -1      3480 6.59545E-01 4.70010E-01 2.96532E-01-1.77954E-01 4.55277E-02-2.83189E-01
 -1      3481 3.78640E-01 2.60996E-01 1.05499E-02-1.06855E-01 2.22764E-02-1.75828E-01
 -1      3482-2.49060E-01-3.10916E-01-3.99898E-01 7.18008E-02 7.05912E-02-5.65018E-01
 -1      3483 3.02289E-01 5.89623E-01 2.94967E-01-4.38688E-01 2.19607E-01-2.46913E-01
 -1      3484 7.28533E-01 8.07037E-01 8.91982E-02-6.99874E-01 9.41695E-02-1.40657E-01
 -1      3485 2.12753E-01 4.86257E-01 1.31007E-01 3.40669E-02-1.89752E-02-7.80069E-02
 -1      3486 7.75466E-01 7.95882E-01 2.28520E-01-6.06098E-01 2.23109E-01-3.06582E-01
 -1      3487 7.40846E-01 2.65912E-01 9.46955E-02-1.11740E-01-3.86912E-02-1.10393E-01
 -1      3488 4.02694E-01 4.79695E-01 4.34096E-01-1.83031E-01 8.87931E-02-3.57289E-01
 -1      3489-1.32129E+00-9.54330E-01-6.58827E-01 7.48100E-02-2.01282E-02-3.46215E-01
 -1      3490-7.51262E-01-3.06639E-01-3.37943E-02-1.76607E-01 3.38571E-02-2.08495E-02
 -1      3491 1.94014E-01 3.01222E-01 2.64168E-01 1.41943E-01-2.41012E-02-1.14842E-01
 -1      3492-2.49359E-01-3.68108E-01-2.26462E-01 1.39728E-01 3.84637E-02-7.91106E-02
 -1      3493-1.38842E-01 1.81581E-01-9.68026E-02-1.35768E-01 3.66066E-02-9.09133E-02
 -1      3494 5.18917E-01-6.60933E-02-4.67294E-02-4.15476E-01 6.92422E-02-1.63342E-01
 -1      3495 3.66017E-02 1.28798E-01 2.05772E-01 7.06258E-03 1.17036E-01-2.24685E-01
 -1      3496 1.97953E-01 8.07721E-02-3.72798E-02-4.00987E-02-9.23028E-02-1.11149E-01
 -1      3497-1.28136E-01-6.10666E-02-5.80294E-02-7.60718E-03 8.84325E-03-1.86783E-01
 -1      3498 2.97851E-03 1.55028E-02 4.03381E-02 3.50013E-02 2.69892E-02-2.85009E-01
 -1      3499-2.12117E-02-6.65632E-02-2.03394E-01 4.22783E-02 1.24340E-01-1.90925E-01
 -1      3500 1.65689E-02 3.38361E-02 1.05090E-01 8.45549E-02-3.94817E-02-2.31807E-01
 -1      3501-1.10773E-01 8.11822E-03 1.05976E-01 4.92693E-02-9.57504E-02-2.14934E-01
 -1      3502 3.15277E-02 3.30921E-02-6.98096E-02 6.81457E-02 2.70353E-02-1.26503E-01
 -1      3503 4.92983E-02-8.06978E-02-1.46000E-01 1.02031E-01 4.28569E-02-2.98649E-02
 -1      3504 1.28775E-01 2.69710E-01 1.00056E-01-1.19645E-01 5.13255E-02-2.03071E-01
 -1      3505-7.74384E-02 2.43084E-02 1.73968E-01-5.88319E-03 2.38845E-02-8.09333E-02
 -1      3506-4.73107E-02-1.11502E-03 2.55556E-01-1.01918E-02-5.93690E-02-9.47020E-02
 -1      3507-1.97059E-01-3.33626E-02-1.42147E-02-9.96710E-02 6.94579E-02-6.90539E-02
 -1      3508-8.94325E-02-1.55280E-01-1.98110E-01-1.02492E-02 6.23854E-02-3.78403E-02
 -1      3509-2.50334E-02 1.53272E-02 1.06499E-01 1.88904E-02 5.07091E-02-1.97939E-01
 -1      3510 1.71371E-02 2.03313E-03-2.32680E-02-5.95986E-02-1.43893E-02-2.53705E-01
 -1      3511 2.24456E-02-8.37552E-02-8.75091E-02-5.68355E-02-9.03384E-02-1.80888E-01
 -1      3512-1.90592E-01-1.51647E-01-9.85865E-02-1.83548E-02 7.50780E-02-1.98478E-01
 -1      3513 8.00169E-02 1.56680E-01 1.49802E-01-2.88896E-02-9.25414E-02-1.75746E-01
 -1      3514 1.55197E-02 1.14923E-01 2.72227E-01-1.53239E-02-5.90608E-02-8.40736E-02
 -1      3515-1.05890E-01 1.80882E-02 5.63612E-02-1.35249E-02 1.04157E-01-5.50628E-02
 -1      3516-1.70410E-01-1.68242E-01-1.56587E-01-1.24674E-04 3.19676E-02-2.68316E-01
 -1      3517-1.61723E-01-3.63583E-01-2.12484E-01 1.41062E-02 3.10906E-02-2.09193E-01
 -1      3518-7.55911E-02-7.06298E-02 2.16382E-02 8.83655E-02-7.24372E-02-1.21262E-01
 -1      3519-6.49016E-02-4.99250E-02-2.70942E-02 7.56773E-02-2.43888E-02-1.52718E-01
 -1      3520-1.15585E-01-1.71541E-01-2.04677E-01-4.14424E-03 6.31303E-02-2.49538E-01
 -1      3521 1.15466E-01 9.69388E-02-3.10253E-02 1.01028E-01-6.70050E-02-2.74106E-01
 -1      3522-3.87459E-01-3.44003E-01-2.49031E-01 1.15002E-02-5.86905E-02-1.85068E-01
 -1      3523 3.45008E-01 3.76972E-01 3.04934E-01-3.97052E-02 1.24110E-02-3.06485E-01
 -1      3524 4.33920E-01 4.27337E-01 2.84546E-01-1.96196E-02 2.06563E-03-1.17618E-01
 -1      3525-7.19352E-02 5.55833E-02 1.14404E-01-3.36536E-02 1.42676E-01-1.66880E-01
 -1      3526-2.33302E-01-1.57149E-01-1.81170E-01-2.08485E-02-1.35750E-02-1.55585E-01
 -1      3527-3.25336E-03-2.11617E-02-9.81891E-03-2.49856E-02 2.23431E-02-2.65269E-01
 -1      3528 8.25181E-02 1.00932E-02-2.23884E-01-2.39648E-02 2.10451E-02-4.71833E-02
 -1      3529 1.40684E-01-3.16817E-02-5.15311E-02-1.47637E-01-3.15931E-02-7.57360E-02
 -1      3530 6.88054E-02 1.25929E-01 9.28142E-02-1.58222E-02 6.45351E-03-2.97072E-01
 -1      3531 1.64566E-01 3.89021E-03-1.53630E-01 9.16443E-03-4.96146E-02 9.10396E-03
 -1      3532 7.49815E-01 5.83760E-01 3.78576E-01 2.22724E-02 3.93053E-02-2.78020E-01
 -1      3533-8.33054E-03 1.12045E-02 1.09417E-02-7.62039E-02-4.63189E-03-1.56769E-01
 -1      3534 8.60040E-02 2.06979E-01 1.60370E-01 2.26288E-03-8.36590E-02-6.39367E-02
 -1      3535-1.96727E-01-1.93388E-01-1.01306E-01-1.98833E-02-2.61254E-02-1.86974E-01
 -1      3536-3.88652E-02 1.24802E-02 4.66670E-03 6.50862E-02 5.96710E-02-1.39198E-01
 -1      3537 2.23055E-01-5.26495E-02-5.95476E-02-4.52997E-02-5.09209E-02-5.83262E-02
 -1      3538 1.62116E-01 1.91329E-01 1.30543E-01-1.82155E-02 1.24682E-04-2.58573E-01
 -1      3539-4.15179E-01-3.39632E-01-3.05175E-01-2.06755E-02 7.54930E-02-2.69944E-01
 -1      3540 6.57690E-01 4.81299E-01 3.27582E-01-6.57671E-02-8.84733E-02-2.44587E-01
 -1      3541-1.32869E-01-8.99547E-02-4.87379E-02-7.38471E-02 2.40807E-02-2.49789E-01
 -1      3542-7.49004E-02-2.60475E-02 5.63802E-02 8.52159E-02-5.24536E-02-1.20672E-01
 -1      3543-2.90186E-02 1.43394E-02 9.24447E-04-5.28899E-02 4.39463E-03-1.41904E-01
 -1      3544 6.46193E-02 4.62444E-02 3.21684E-02-9.21368E-02 5.01556E-02-2.61263E-01
 -1      3545 3.15774E-02-4.53315E-02-1.24846E-01 9.00114E-03-5.53191E-02-2.33524E-01
 -1      3546 1.15903E-01 1.44631E-01 8.49229E-02-4.74906E-02-5.86392E-02-2.56264E-01
 -1      3547 5.69552E-01 4.51258E-01 3.98412E-01-6.09172E-03 8.36194E-02-2.20154E-01
 -1      3548-8.79256E-01-6.47008E-01-5.11102E-01-4.55456E-02-1.96476E-02-2.87696E-01
 -1      3549 2.44592E-01 3.79623E-01 5.89441E-02 5.81389E-02-2.38138E-02-1.73178E-01
 -1      3550-2.06705E-01-3.83411E-02-5.76717E-02 2.08608E-01 1.25109E-01-2.00986E-01
 -1      3551-3.81797E-01-2.93581E-01-2.75831E-01 5.86149E-02-6.64891E-02-2.30723E-01
 -1      3552-6.72313E-03 1.46193E-03-4.61283E-02 9.68385E-02 5.61558E-02-1.20609E-01
 -1      3553-3.33313E-01-4.10139E-01-1.19112E-01-1.26422E-01-3.44474E-02-2.11298E-01
 -1      3554 3.44479E-01 2.12207E-01 3.22781E-01 9.07475E-02-1.15891E-01-4.45347E-01
 -1      3555 1.58185E-01 2.01545E-01 5.76801E-02 2.27677E-02 3.62442E-02-2.16737E-01
 -1      3556-1.29966E-01-3.00554E-01-1.53810E-01-1.36714E-01-7.58189E-02-2.22649E-01
 -1      3557-6.91697E-01-5.28224E-01-3.49833E-01 2.27437E-02-9.68204E-02-2.26589E-01
 -1      3558 1.78687E-01 2.15086E-01 5.34910E-03 2.93592E-02 1.17672E-02-1.39474E-01
 -1      3559-9.76789E-02-6.12786E-02 2.61874E-02-6.82821E-02-5.06496E-04-1.26912E-01
 -1      3560-1.38297E-01-1.38789E-01-1.24883E-01-2.66145E-02-3.81164E-02-4.88867E-01
 -1      3561-2.29197E-01-2.68346E-01-1.26977E-02-1.28390E-03-5.02142E-03-1.57785E-01
 -1      3562 3.47630E-01 3.45633E-01 4.85618E-01 2.42570E-02-1.21271E-01-1.32781E-01
 -1      3563 1.17093E-01 1.15580E-01 9.66426E-02-4.19286E-02-2.65029E-02-2.42587E-01
 -1      3564 1.02987E-01 9.41942E-02 8.26019E-02-7.20961E-02 3.52763E-03-2.79102E-01
 -1      3565-1.23421E-01-1.77145E-02 9.65385E-03 6.96099E-02-8.09769E-02-2.08668E-01
 -1      3566-3.95396E-01-3.65606E-01-3.14303E-01-6.64703E-02 4.76358E-02-3.02516E-01
 -1      3567 1.54990E-01 1.37131E-01 1.82418E-01 1.87012E-02 4.62166E-02-1.54563E-01
 -1      3568-1.12567E-01-9.13215E-01-3.20384E-01 1.49802E-01 1.12445E-02-1.44098E-01
 -1      3569 3.17227E-02 3.47252E-02 5.59183E-02-4.99759E-02 5.90153E-02-3.06417E-01
 -1      3570 1.33647E-01 1.80960E-01 1.61370E-01-6.35934E-02-2.32229E-02-2.97724E-01
 -1      3571-5.70146E-03-5.56548E-02-7.18668E-02-7.75257E-02 3.49326E-02-3.16937E-01
 -1      3572-4.54642E-01-3.44026E-01-3.07225E-01-3.69326E-02 7.46049E-02-1.98244E-01
 -1      3573 1.78274E-01 1.75712E-01 1.16612E-02-1.16310E-02-9.40309E-03-2.42606E-01
 -1      3574 1.54839E-01 1.75020E-01 6.37390E-02 6.09544E-02-1.97664E-02-4.61951E-01
 -1      3575-2.83829E-01-2.94518E-01-3.25569E-01-1.36683E-02 2.64973E-03-4.26868E-02
 -1      3576-5.83534E-01-3.27819E-01-2.20128E-01 1.13485E-01 3.80182E-02-3.38950E-01
 -1      3577 2.93100E-01 4.11433E-01 1.01174E-01-1.25999E-01 3.34615E-02-2.05034E-01
 -1      3578-1.91167E-01-2.34657E-01-1.69237E-01-1.00633E-02 9.74691E-02-2.46116E-01
 -1      3579-3.54301E-01-2.38471E-01-3.62155E-01 1.01107E-01 7.37855E-02-3.96753E-01
 -1      3580 1.24178E-01 1.60803E-01 9.59622E-02 4.43555E-02 2.79567E-02-3.17890E-01
 -1      3581-1.66313E-01-2.19803E-01-6.25165E-02-7.22411E-02-1.45701E-02-1.92745E-01
 -1      3582-1.79152E-02-6.50692E-03 2.18571E-02-2.68685E-02 2.31042E-02-1.65943E-01
 -1      3583-3.43615E-01-2.56069E-01-2.42139E-01 9.96790E-03-3.52915E-02-1.32255E-01
 -1      3584-1.73370E-01-6.35020E-01-4.72581E-01-9.51769E-02-8.67031E-02-2.58029E-01
 -1      3585-4.65842E-01-3.42892E-01-2.00948E-01 1.37630E-02-1.77785E-02-1.89833E-01
 -1      3586-9.43032E-02-1.03777E-01-1.73954E-01-2.48444E-02-6.12162E-02-2.59916E-01
 -1      3587 3.89609E-01 3.91113E-01 3.21902E-01 1.23717E-02 8.29039E-02-2.47431E-01
 -1      3588-2.70549E-02-3.71686E-02-3.01876E-02 3.93241E-02-1.04839E-02-1.73759E-01
 -1      3589-1.78418E-01-1.13872E-01-6.65113E-02-4.97367E-02 1.75389E-02-3.21509E-01
 -1      3590-1.43499E-01-1.95216E-01-1.55876E-01 3.96609E-02 7.36865E-02-2.54199E-01
 -1      3591-8.88277E-02-1.85686E-01-2.06711E-01-6.41671E-03 1.97574E-02-3.43007E-01
 -1      3592-1.33660E-01 1.82232E-01-2.01086E-02 1.79022E-02 8.82997E-02-2.83621E-01
 -1      3593-3.82486E-01-4.99104E-01-5.65429E-01-1.48474E-01-4.74841E-02-3.23796E-01
 -1      3594 9.82760E-02 1.05450E-01 1.12037E-01-3.97378E-02 8.71328E-02-2.64023E-01
 -1      3595-1.35450E-01 1.38775E-01-1.30312E-02 3.76010E-02 1.69443E-01-5.03505E-01
 -1      3596-3.22740E-01-3.49096E-01-3.81767E-01-6.69930E-02-7.19184E-02-3.46626E-01
 -1      3597 8.46515E-02 1.13668E-01 2.70750E-02-9.20849E-02 4.92065E-02-2.16633E-01
 -1      3598 2.08969E-01 3.12442E-01 2.22289E-01 2.66798E-02 6.60746E-03-2.42199E-01
 -1      3599 4.22100E-01 3.85864E-01 2.59630E-01-2.17768E-02-2.00102E-02-1.92820E-01
 -1      3600-6.20903E-01-3.99677E-01-2.15446E-01 5.66048E-02-1.25815E-02-3.40403E-01
 -1      3601 5.39169E-01 5.08427E-01 3.05772E-01-1.05734E-02 2.82708E-02-2.47622E-01
 -1      3602-6.19594E-02-1.52104E-01-1.37572E-01-2.45632E-02-1.09923E-01-1.62387E-01
 -1      3603 1.97267E-01 3.97245E-01 1.59532E-02 3.55306E-02-1.03020E-02-1.64590E-01
 -1      3604 1.69555E-01 8.33499E-02 7.10389E-02 3.48095E-02 8.24100E-02-3.27089E-01
 -1      3605 2.28252E-01 1.95616E-01 1.30547E-01 6.09112E-02 6.92371E-02-2.50692E-01
 -1      3606 1.62274E-01 3.34927E-01 1.42992E-01-3.93108E-02 1.77073E-02-2.02781E-01
 -1      3607-1.01439E-01-3.82866E-01-3.20871E-02 2.40431E-01 1.16380E-01-1.08388E-01
 -1      3608-3.42125E-01-2.53045E-01-2.03648E-01 6.63350E-02-1.89174E-02-2.51399E-01
 -1      3609 7.56083E-01 5.16394E-01 4.55938E-01-2.86358E-02-4.30790E-02-1.76731E-01
 -1      3610-2.73698E-01-2.35392E-01-2.28404E-01-7.39408E-02-2.81834E-02-3.69512E-01
 -1      3611 7.54251E-02 1.36315E-01 8.10678E-02-1.03130E-01-1.93492E-02-3.21979E-01
 -1      3612-1.53989E-01-1.98993E-01-5.70376E-02-2.32891E-02-1.78408E-02-4.15559E-01
 -1      3613 9.17247E-02 2.17042E-01 3.96951E-02-3.34630E-02-1.01639E-01-1.56371E-01
 -1      3614-2.31674E-01-2.57230E-01-2.24317E-01-1.21031E-02 1.87563E-02-7.30199E-02
 -1      3615-8.41239E-01-5.87546E-01-3.82022E-01-1.11379E-01 2.66349E-02-2.68997E-01
 -1      3616 1.37163E-01 1.59884E-01 1.37042E-01-1.54318E-02 2.79638E-03-4.36282E-01
 -1      3617-1.38285E-01-8.82750E-02 7.30071E-03-1.09618E-01 1.78187E-02-3.37823E-01
 -1      3618-7.96682E-02-4.96652E-02-5.78126E-02 7.72470E-03-4.60581E-02-1.86230E-01
 -1      3619-1.74677E-01-1.45997E-01-6.31898E-02-6.41564E-02 3.29719E-02-3.30778E-01
 -1      3620-2.16570E-02-1.02929E-01-2.42394E-02 2.42268E-02-2.34115E-02-1.78653E-01
 -1      3621-2.57235E-01-3.75071E-01-3.02379E-01 1.73440E-01 6.90569E-02-3.06980E-01
 -1      3622 2.84457E-01 4.41063E-01 3.43307E-01 2.18429E-01-9.31288E-02-3.19226E-01
 -1      3623 3.69631E-01 4.33707E-01 4.27012E-01 2.86009E-03-6.95881E-02-3.72451E-01
 -1      3624-1.01307E-01-6.64734E-02-5.83139E-02 4.79417E-02-1.43031E-02-3.09817E-01
 -1      3625 2.31580E-01 9.86850E-01 3.73390E-01-1.61575E-01 2.07342E-02-1.57217E-01
 -1      3626-1.53580E-01 6.40026E-02-6.06909E-02-6.55144E-02-1.33138E-01-4.28147E-01
 -1      3627 7.55676E-02-1.90095E-03-1.79238E-03 1.13298E-01 4.44973E-02-2.86378E-01
 -1      3628 9.12170E-01 7.21166E-01 5.93873E-01-4.79181E-02-2.66516E-02-2.77285E-01
 -1      3629 2.64945E-02 4.11830E-02 3.54740E-02 2.64369E-02-4.58019E-04-3.46240E-01
 -1      3630 1.11906E-01 1.44034E-01 6.86914E-02-3.25387E-02-4.34163E-02-3.39584E-01
 -1      3631 8.54613E-02-7.16896E-02-6.16374E-02 5.82839E-02 1.01569E-01-1.84948E-01
 -1      3632 6.92071E-02-1.24298E-01-1.13698E-02-6.17809E-02 1.19824E-01-3.40045E-01
 -1      3633-5.57366E-02-6.57097E-01-2.09399E-01-1.07886E-01-8.54383E-02-1.68307E-01
 -1      3634-5.75777E-01-4.80862E-01-4.64249E-01-1.99175E-03-1.24227E-01-2.50872E-01
 -1      3635-4.68213E-01-4.21944E-01-3.44456E-01 3.22982E-02-5.96834E-02-1.96588E-01
 -1      3636-1.31695E-01 1.75802E-01-1.09860E-02-4.35942E-02-1.20828E-01-2.88811E-01
 -1      3637-2.25305E-01-9.02353E-02-9.35485E-02 2.20572E-01 1.71107E-01-4.05256E-01
 -1      3638-3.75261E-01-2.35338E-01-1.58719E-01-6.00515E-02 2.34058E-02-2.36017E-01
 -1      3639 1.02858E-01-9.17777E-02 5.91583E-03 5.78247E-02-9.79428E-02-4.17304E-01
 -1      3640-1.40157E-01 3.89810E-02 2.79761E-02-7.18319E-04-1.38428E-01-5.33851E-02
 -1      3641 1.82000E-01 2.70882E-01 2.64149E-01-4.34209E-02 2.77010E-02-2.90786E-01
 -1      3642-5.06769E-01-4.21458E-01-3.96708E-01-5.75048E-02 1.05805E-02-1.46262E-01
 -1      3643-2.15031E-01-1.98923E-01-1.66759E-01-1.47301E-02-2.21041E-02-3.29780E-01
 -1      3644-5.02883E-01-7.30748E-01-1.30253E-01 3.22357E-01 7.01216E-02-2.26685E-01
 -1      3645-1.84971E-01-1.04079E-01-1.18797E-01-1.45246E-01-1.15764E-01-3.45892E-01
 -1      3646-3.76712E-01-4.04439E-01-3.52945E-01 2.69073E-02 3.99579E-02-2.82379E-01
 -1      3647 4.64035E-01 5.00969E-01 2.68762E-01-3.52312E-02-1.24755E-01-2.27355E-01
 -1      3648-1.78806E-01-1.22839E-01-1.33628E-01 4.83473E-02-2.80903E-02-3.19502E-01
 -1      3649-5.51809E-02-8.64269E-01-1.71767E-01-1.80651E-01-8.97393E-02-1.06027E-01
 -1      3650-2.72189E-01-4.09796E-01-4.49049E-02-2.86529E-01-7.15280E-02-1.47617E-01
 -1      3651 1.15975E+00 8.00509E-01 5.84352E-01-1.30995E-01 2.30843E-02-4.34806E-01
 -1      3652 3.82086E-01 3.22937E-01 2.16705E-01-7.35292E-02-4.32727E-02-2.08496E-01
 -1      3653-7.85329E-01-5.85664E-01-3.42186E-01-9.28872E-03-8.99186E-02-2.93258E-01
 -1      3654 1.52564E-01 2.86991E-01 1.50307E-01 1.17722E-01-8.04587E-02-1.99176E-01
 -1      3655 1.97975E-01 4.02123E-01 3.18269E-01 2.45973E-01-1.93999E-01-3.07459E-01
 -1      3656-6.15739E-01-4.12759E-01-3.25130E-01 1.33665E-01-9.36629E-03-2.66796E-01
 -1      3657-4.36555E-02-3.51079E-02-6.55158E-02 4.77710E-02-1.34298E-02-2.44434E-01
 -1      3658 3.79527E-01 2.79554E-01 1.68402E-01-1.43715E-03 7.27058E-03-1.90686E-01
 -1      3659 2.88351E-01 4.70102E-01 2.38685E-01 1.74405E-01-7.61571E-02-2.43752E-01
 -1      3660 1.53453E-01 7.32710E-01 4.01842E-01-1.48504E-01 9.73124E-02-2.51436E-01
 -1      3661-1.42262E-01-1.80433E-01-1.32825E-01-4.76944E-03 9.13789E-03-3.45510E-01
 -1      3662 6.51421E-03-9.83171E-03 1.67771E-02 7.45108E-02 4.52359E-03-1.97994E-01
 -1      3663 2.81591E-01 2.17455E-01 1.11332E-01-5.39514E-02-7.85564E-02-2.43491E-01
 -1      3664-1.28824E-01 1.43696E-02-6.63647E-03-7.36172E-02-6.02603E-02-4.52003E-01
 -1      3665 1.43280E-01-2.61385E-01-5.70285E-02 2.27514E-02 1.32068E-01-2.99202E-01
 -1      3666 1.03919E-01 1.74793E-01 2.28224E-01-1.71905E-02 1.28213E-01-1.10689E-01
 -1      3667 4.07313E-01 2.86220E-01 9.55676E-02-1.40340E-01 2.96919E-02-2.58413E-01
 -1      3668 8.75310E-01 5.82652E-01 3.53611E-01 7.31620E-02 2.44068E-02-3.19750E-01
 -1      3669 1.58709E-01-1.43745E-01-1.72857E-02-3.27054E-02 1.87893E-01-5.05695E-01
 -1      3670 2.85540E-01 2.45964E-01 2.24854E-01-1.04290E-01 7.89790E-02-3.46121E-01
 -1      3671 1.76410E-01 4.92587E-02 7.65496E-02 1.73357E-01-1.17416E-01-2.50510E-01
 -1      3672 2.23383E-01 5.12332E-01 1.66741E-01 3.77452E-01-2.02225E-01-1.88427E-01
 -1      3673-7.10473E-03 6.33538E-01 1.87037E-01 7.30877E-02-8.58611E-02-1.48958E-01
 -1      3674 4.72662E-01 7.47834E-01 7.67639E-02 3.94678E-01-2.98334E-02-2.33803E-01
 -1      3675-2.14494E-01-2.90495E-01-2.08864E-01 2.89695E-02 5.18780E-02-2.83864E-01
 -1      3676-2.17781E-01-1.72997E-01-1.74136E-02-1.36033E-02-2.96085E-02-2.39283E-01
 -1      3677 3.01207E-01 6.15538E-02 9.66984E-02-3.22284E-01 2.46987E-01-3.07712E-01
 -1      3678 4.62435E-01 3.73384E-01 2.36016E-01-9.10865E-02-3.29685E-02-2.81715E-01
 -1      3679 6.33643E-02 9.40397E-01 2.96797E-01 1.49936E-01-3.04241E-03-1.60043E-01
 -1      3680-2.90069E-01-1.77410E-01-1.16908E-01-2.93221E-02 4.14641E-03-2.08381E-01
 -1      3681 1.18895E-01 2.00846E-02 9.52932E-03 7.52210E-02 5.86581E-02-2.61989E-01
 -1      3682 3.45292E-01 2.42783E-01 1.60269E-01 1.18088E-01-1.12727E-01-3.52989E-01
 -1      3683 2.61194E-01 1.31232E-01 6.85135E-02 2.17406E-01-2.13377E-01-3.71251E-01
 -1      3684 6.28783E-01 5.11359E-01 3.57483E-01-1.09181E-01-6.50617E-02-3.17218E-01
 -1      3685 2.33705E-01 3.76326E-01 2.90276E-01-4.96097E-03-2.61283E-02-2.55408E-01
 -1      3686 4.22991E-01 2.79852E-01 3.04864E-01-3.94087E-02-1.62136E-02-2.35996E-02
 -1      3687 3.94959E-02 7.13940E-01 1.70786E-01-1.49855E-01 9.81164E-02-1.29812E-01
 -1      3688 3.40214E-01 2.17528E-01 3.26373E-01-1.22583E-01 1.62124E-01-4.59501E-01
 -1      3689 1.51383E-01 1.50374E-01 2.36146E-01-5.45540E-03 3.11813E-02-4.17805E-01
 -1      3690-1.36029E-01-3.60718E-01-1.57417E-01 2.36658E-01 1.83115E-01-2.11815E-01
 -1      3691 6.26895E-01 5.15814E-01 4.47333E-01 5.06140E-03-4.42997E-02-2.52763E-01
 -1      3692-1.04356E-01-4.41889E-01-2.07938E-01 7.97331E-02 3.15781E-02-1.95248E-01
 -1      3693 1.66948E-02 2.40261E-01 4.28130E-02-7.00151E-02 1.28286E-02-6.91192E-03
 -1      3694 2.37248E-01 2.52430E-01 2.59890E-01 2.40292E-02 1.78861E-01-2.31613E-01
 -1      3695 2.04988E-01-4.61076E-02-6.87271E-02-2.52822E-02-7.13861E-02-1.29863E-02
 -1      3696 1.46989E-02-7.33299E-03-3.53832E-03-8.47157E-02 1.11907E-03-1.34840E-01
 -1      3697-2.06822E-01-4.43985E-02-8.51449E-02-2.46546E-01-1.73235E-01-3.14945E-01
 -1      3698 3.05164E-01 1.92990E-01 1.39352E-01-6.24695E-02-4.78244E-03-2.29610E-01
 -1      3699-2.04472E-01 8.99257E-02 1.61760E-02-4.17329E-02-1.09922E-02-6.01493E-02
 -1      3700 6.80404E-02 1.67321E-02-1.03632E-02-1.40033E-01-5.36547E-02-2.69709E-01
 -1      3701 6.44208E-01 4.54718E-01 3.84157E-01-3.15639E-02-3.68741E-02-2.52603E-01
 -1      3702-2.37906E-01-2.17482E-01-2.68272E-01 4.50545E-03 1.03336E-02-4.16811E-01
 -1      3703-5.59222E-01-4.36660E-01-2.84581E-01-9.98214E-02 5.70946E-03-3.34902E-01
 -1      3704-1.28054E-01 1.70081E-02 2.07167E-02 3.11273E-03 5.57812E-02-2.35415E-02
 -1      3705-1.23587E-01-1.84986E-01-2.03932E-01 3.51845E-02 1.75047E-02-4.75692E-01
 -1      3706 1.37516E-01-2.81873E-01-5.81199E-02 5.73322E-02-1.64072E-01-3.68624E-01
 -1      3707 1.13821E-01-1.82221E-02 1.90662E-02-1.40966E-01-5.00363E-02-7.07035E-02
 -1      3708 7.42674E-02 8.89583E-02 2.53800E-02-8.30107E-02-8.47657E-02-1.05075E-01
 -1      3709-1.12783E-01 1.80149E-02 2.60693E-02-9.29059E-02 4.08765E-02-7.48870E-02
 -1      3710-1.39537E-02-2.14859E-02-5.42489E-02 8.18734E-02 3.03731E-02-1.19142E-01
 -1      3711-1.10262E-01 9.18561E-03 1.01092E-01 1.31676E-01-5.33215E-02-6.60805E-02
 -1      3712-1.57787E-01-7.51352E-01-1.80064E-01-1.10839E-01-1.89069E-02-1.55663E-01
 -1      3713 1.50924E-01 2.08889E-01 1.94758E-01-4.29127E-03 1.73693E-01-2.49304E-01
 -1      3714 1.05558E-01 1.28341E-01 7.24918E-02-1.65935E-01 2.31036E-02-2.64883E-01
 -1      3715-1.40375E-02-1.03399E-02 2.16065E-02 2.06462E-03 2.84983E-02-2.30555E-01
 -1      3716 2.56952E-01 2.32017E-01 1.73809E-01 1.27948E-02-4.43453E-02-3.90289E-01
 -1      3717-1.59076E-01-1.09188E-01-6.38385E-02 7.02109E-02-2.25218E-02-2.05650E-01
 -1      3718 2.28978E-01 3.10460E-01 1.63686E-01-6.41161E-02-1.47057E-01-1.83961E-01
 -1      3719 8.35148E-01 5.28254E-01 3.37375E-01-6.98701E-02 5.65314E-03-3.15310E-01
 -1      3720-1.75286E-01-1.09336E-01-5.54664E-02 1.02049E-01-7.29236E-03-3.43649E-01
 -1      3721-1.71204E-01 1.61377E-01-1.40021E-02 5.31602E-02 1.66279E-01-4.58247E-01
 -1      3722-4.18046E-01-5.26743E-01-4.32032E-01-1.73359E-02-3.06375E-02-2.40219E-01
 -1      3723-7.58700E-01-5.70287E-01-4.08883E-01-9.43284E-02 8.45503E-02-2.46005E-01
 -1      3724 1.37875E-01 1.91779E-01 1.99136E-01 6.19259E-02 1.18604E-01-1.44710E-01
 -1      3725 5.31394E-01 4.79223E-01 3.70493E-01 2.41586E-02 1.15120E-01-2.38690E-01
 -1      3726-1.08447E-01-8.10045E-01-1.05009E-01 1.24108E-01 2.60878E-02-1.33681E-01
 -1      3727 4.32124E-01 2.55383E-01 6.79395E-02 1.80058E-01-5.65228E-02-2.91114E-01
 -1      3728-4.99911E-01-4.94309E-01-4.83132E-01 6.32640E-02 8.94060E-02-4.23886E-01
 -1      3729 1.89732E-01 5.34570E-02 1.54825E-02 5.31396E-02 6.94900E-02-3.03580E-01
 -1      3730 7.63807E-01 5.81146E-01 4.97794E-01 8.62918E-02 6.85390E-02-2.44802E-01
 -1      3731-2.89214E-01-1.55944E-02-2.96062E-02 2.42343E-02-2.60643E-02-2.74617E-02
 -1      3732-1.74463E-01 6.47704E-02 3.49629E-02 5.10283E-02-2.03576E-02 1.16558E-02
 -1      3733 2.10852E-01-9.45184E-02-4.72436E-02 5.16545E-02 1.27356E-02-3.69204E-02
 -1      3734-1.23267E-01-7.73556E-02-1.28700E-02-9.16058E-02 4.85110E-02-1.13713E-01
 -1      3735 1.95411E-01-1.02554E-01-5.93421E-02 5.36305E-02 1.23202E-02-1.36770E-02
 -1      3736-6.18369E-02-1.82525E-01-1.82423E-01 1.04164E-01 3.79916E-02-7.80350E-02
 -1      3737-1.53674E-01 8.11817E-03 1.18256E-01 1.13911E-01-2.88581E-02-8.48955E-02
 -1      3738 8.06326E-02 1.31953E-01 1.94130E-01 2.88095E-02-8.92586E-03-4.18813E-01
 -1      3739 1.72114E-01 1.31965E-01 1.30681E-01 6.08753E-02 2.59890E-02-2.71658E-01
 -1      3740-4.64579E-01-6.48734E-01-5.67633E-01-4.11613E-02 7.21726E-02-3.26865E-01
 -1      3741 1.94297E-01 1.18042E-01 7.46817E-02-1.34650E-01 1.52361E-01-3.48648E-01
 -1      3742-3.28652E-01-2.64861E-01-1.85972E-01 2.09575E-02-4.21999E-02-1.89263E-01
 -1      3743 1.87855E-01 4.28189E-02 1.46651E-02 8.53837E-02 5.80703E-02-2.71395E-01
 -1      3744 1.62229E-01 8.27428E-02 5.91208E-03-7.70967E-02-6.65006E-02-1.08267E-01
 -1      3745-1.14460E-01-3.97986E-02 6.20163E-02-1.06186E-01 4.53142E-02-1.00289E-01
 -1      3746 3.49252E-01 6.02901E-01 1.68045E-01-3.84973E-01 1.43203E-01-1.86472E-01
 -3
 9999
