    1C
    1U meshsolid_t.inp                                                  
    1UUSER                                                              
    1UDATE              02.july.2016                                    
    1UTIME              20:00:44                                        
    1UHOST                                                              
    1UPGM               CalculiX                                        
    1UVERSION           Version 2.10                             
    1UCOMPILETIME       Sa 5. MÃ¤r 12:23:33 CET 2016                    
    1UDIR                                                               
    1UDBN                                                               
    1UMAT    1PDMS                                                      
    2C                          2775                                     1
 -1         1 3.35263E+00 5.00000E-01 1.70000E+00
 -1         2 6.54013E+00-5.00000E-01 1.70000E+00
 -1         3 6.54013E+00 5.00000E-01 1.70000E+00
 -1         4 8.66513E+00-5.00000E-01 1.70000E+00
 -1         5 1.18526E+01 5.00000E-01 1.70000E+00
 -1         6 1.18526E+01 5.00000E-01 3.49999E-01
 -1         7 3.35263E+00-5.00000E-01 1.70000E+00
 -1         8 1.18526E+01-5.00000E-01 1.70000E+00
 -1         9 8.66513E+00-5.00000E-01 3.49999E-01
 -1        10 6.54013E+00 5.00000E-01 3.49999E-01
 -1        11 6.54013E+00-1.00000E+00 1.70000E+00
 -1        12 6.54013E+00 1.00000E+00 3.49999E-01
 -1        13 8.66513E+00-1.00000E+00 3.49999E-01
 -1        14 8.66513E+00 1.00000E+00 1.70000E+00
 -1        15 8.66513E+00 5.00000E-01 1.70000E+00
 -1        16 8.66513E+00 5.00000E-01 3.49999E-01
 -1        17 8.66513E+00-1.00000E+00 1.70000E+00
 -1        18 8.66513E+00 1.00000E+00 3.49999E-01
 -1        19 6.54013E+00 1.00000E+00 1.70000E+00
 -1        20 2.94561E+00 1.67735E+00 1.70000E+00
 -1        21 8.26062E+00 2.66397E+00 1.70000E+00
 -1        22 8.44124E+00 2.19773E+00 1.70000E+00
 -1        23 6.45973E+00 1.43010E+00 1.70000E+00
 -1        24 5.91787E+00 2.82880E+00 1.70000E+00
 -1        25 3.30686E+00 7.44874E-01 1.70000E+00
 -1        26 1.12329E+01 3.81543E+00 1.70000E+00
 -1        27 6.27911E+00 1.89633E+00 1.70000E+00
 -1        28 8.26062E+00 2.66397E+00 3.49999E-01
 -1        29 7.89937E+00 3.59644E+00 1.70000E+00
 -1        30 1.08716E+01 4.74790E+00 1.70000E+00
 -1        31 7.89937E+00 3.59644E+00 3.49999E-01
 -1        32 5.91787E+00 2.82880E+00 3.49999E-01
 -1        33 5.73725E+00 3.29504E+00 1.70000E+00
 -1        34 7.71875E+00 4.06268E+00 1.70000E+00
 -1        35 6.45973E+00 1.43010E+00 3.49999E-01
 -1        36 2.81447E+00 1.88915E+00 3.49999E-01
 -1        37 2.14078E+00 2.62816E+00 1.70000E+00
 -1        38 8.42235E+00 8.35457E+00 1.70000E+00
 -1        39 9.09605E+00 7.61556E+00 1.70000E+00
 -1        40 6.06676E+00 6.20717E+00 1.70000E+00
 -1        41 4.49637E+00 4.77556E+00 1.70000E+00
 -1        42 6.74046E+00 5.46816E+00 1.70000E+00
 -1        43 7.07730E+00 5.09865E+00 1.70000E+00
 -1        44 5.50691E+00 3.66705E+00 1.70000E+00
 -1        45 5.17006E+00 4.03655E+00 1.70000E+00
 -1        46 4.15952E+00 5.14507E+00 1.70000E+00
 -1        47 2.81447E+00 1.88915E+00 1.70000E+00
 -1        48 6.06676E+00 6.20717E+00 3.49999E-01
 -1        49 2.14078E+00 2.62816E+00 3.49999E-01
 -1        50 6.74046E+00 5.46816E+00 3.49999E-01
 -1        51 5.72991E+00 6.57667E+00 1.70000E+00
 -1        52 1.04681E+00 3.22402E+00 1.70000E+00
 -1        53 1.04681E+00 3.22402E+00 3.49999E-01
 -1        54 2.02002E+00 6.30022E+00 1.70000E+00
 -1        55 3.41480E+00 7.97958E+00 1.70000E+00
 -1        56 2.46761E+00 6.07735E+00 1.70000E+00
 -1        57 1.94198E+00 2.77828E+00 1.70000E+00
 -1        58 3.36277E+00 5.63162E+00 1.70000E+00
 -1        59 3.81035E+00 5.40875E+00 1.70000E+00
 -1        60 4.83559E+00 1.08329E+01 1.70000E+00
 -1        61 4.30996E+00 7.53384E+00 1.70000E+00
 -1        62 5.73075E+00 1.03872E+01 1.70000E+00
 -1        63 2.46761E+00 6.07735E+00 3.49999E-01
 -1        64 3.36277E+00 5.63162E+00 3.49999E-01
 -1        65 2.96722E+00 8.20245E+00 1.70000E+00
 -1        66 3.41480E+00 7.97958E+00 3.49999E-01
 -1        67 4.75754E+00 7.31097E+00 1.70000E+00
 -1        68 4.75754E+00 7.31097E+00 3.49999E-01
 -1        69 3.81035E+00 5.40875E+00 3.49999E-01
 -1        70 2.02002E+00 6.30022E+00 3.49999E-01
 -1        71-1.88525E-01 3.38446E+00 3.49999E-01
 -1        72-1.88525E-01 3.38446E+00 1.70000E+00
 -1        73 1.05580E-01 6.55837E+00 1.70000E+00
 -1        74 5.95756E-01 1.18482E+01 1.70000E+00
 -1        75 3.01650E-01 8.67430E+00 1.70000E+00
 -1        76 8.07209E-01 3.29220E+00 1.70000E+00
 -1        77 1.10131E+00 6.46610E+00 1.70000E+00
 -1        78 1.59149E+00 1.17559E+01 1.70000E+00
 -1        79 1.29738E+00 8.58203E+00 1.70000E+00
 -1        80 3.01650E-01 8.67430E+00 3.49999E-01
 -1        81 1.10131E+00 6.46610E+00 3.49999E-01
 -1        82-3.92287E-01 6.60450E+00 1.70000E+00
 -1        83 1.05580E-01 6.55837E+00 3.49999E-01
 -1        84 1.79525E+00 8.53590E+00 1.70000E+00
 -1        85-1.96217E-01 8.72044E+00 1.70000E+00
 -1        86 1.59918E+00 6.41996E+00 1.70000E+00
 -1        87-2.76271E+00 1.15370E+01 1.70000E+00
 -1        88-8.27966E-01 6.56413E+00 1.70000E+00
 -1        89-1.89041E+00 8.47118E+00 1.70000E+00
 -1        90-2.27070E+00 6.15363E+00 1.70000E+00
 -1        91-1.39840E+00 3.08782E+00 1.70000E+00
 -1        92-1.30888E+00 6.42730E+00 3.49999E-01
 -1        93-4.36578E-01 3.36148E+00 1.70000E+00
 -1        94-1.89041E+00 8.47118E+00 3.49999E-01
 -1        95-3.72454E+00 1.12633E+01 1.70000E+00
 -1        96-2.85224E+00 8.19751E+00 1.70000E+00
 -1        97-1.30888E+00 6.42730E+00 1.70000E+00
 -1        98-8.27966E-01 6.56413E+00 3.49999E-01
 -1        99-2.75162E+00 6.01680E+00 1.70000E+00
 -1       100-1.40950E+00 8.60801E+00 1.70000E+00
 -1       101-1.40950E+00 8.60801E+00 3.49999E-01
 -1       102-3.33315E+00 8.06068E+00 1.70000E+00
 -1       103-3.33315E+00 8.06068E+00 3.49999E-01
 -1       104-6.74380E+00 9.75992E+00 1.70000E+00
 -1       105-4.42389E+00 7.51756E+00 1.70000E+00
 -1       106-4.82290E+00 7.21624E+00 1.70000E+00
 -1       107-4.34032E+00 4.91782E+00 1.70000E+00
 -1       108-4.73933E+00 4.61650E+00 1.70000E+00
 -1       109-6.01993E+00 6.31229E+00 1.70000E+00
 -1       110-2.41942E+00 2.37414E+00 1.70000E+00
 -1       111-3.54230E+00 5.52045E+00 1.70000E+00
 -1       112-7.54181E+00 9.15729E+00 1.70000E+00
 -1       113-1.62140E+00 2.97677E+00 1.70000E+00
 -1       114-4.82290E+00 7.21624E+00 3.49999E-01
 -1       115-3.14329E+00 5.82177E+00 1.70000E+00
 -1       116-3.54230E+00 5.52045E+00 3.49999E-01
 -1       117-3.14329E+00 5.82177E+00 3.49999E-01
 -1       118-4.73933E+00 4.61650E+00 3.49999E-01
 -1       119-4.34032E+00 4.91782E+00 3.49999E-01
 -1       120-5.62092E+00 6.61361E+00 1.70000E+00
 -1       121-3.11368E+00 1.33982E+00 1.70000E+00
 -1       122-3.11368E+00 1.33982E+00 3.49999E-01
 -1       123-9.81409E+00 6.66471E+00 1.70000E+00
 -1       124-5.29732E+00 3.86804E+00 1.70000E+00
 -1       125-7.63046E+00 4.13650E+00 1.70000E+00
 -1       126-7.89368E+00 3.71139E+00 1.70000E+00
 -1       127-5.82375E+00 3.01783E+00 1.70000E+00
 -1       128-2.58725E+00 2.19004E+00 1.70000E+00
 -1       129-5.29732E+00 3.86804E+00 3.49999E-01
 -1       130-1.03405E+01 5.81450E+00 1.70000E+00
 -1       131-5.82375E+00 3.01783E+00 3.49999E-01
 -1       132-6.08696E+00 2.59272E+00 1.70000E+00
 -1       133-6.84081E+00 5.41182E+00 1.70000E+00
 -1       134-7.10403E+00 4.98671E+00 3.49999E-01
 -1       135-7.10403E+00 4.98671E+00 1.70000E+00
 -1       136-7.89368E+00 3.71139E+00 3.49999E-01
 -1       137-7.63046E+00 4.13650E+00 3.49999E-01
 -1       138-5.03410E+00 4.29315E+00 1.70000E+00
 -1       139-5.03410E+00 4.29315E+00 3.49999E-01
 -1       140-6.08696E+00 2.59272E+00 3.49999E-01
 -1       141-3.38742E+00 1.24558E-01 1.70000E+00
 -1       142-8.60947E+00 1.10073E+00 1.70000E+00
 -1       143-8.42572E+00 2.08370E+00 1.70000E+00
 -1       144-6.24502E+00 2.18472E+00 1.70000E+00
 -1       145-6.52065E+00 7.10259E-01 1.70000E+00
 -1       146-1.15589E+01 2.66940E+00 1.70000E+00
 -1       147-1.17427E+01 1.68643E+00 1.70000E+00
 -1       148-3.20367E+00 1.10753E+00 1.70000E+00
 -1       149-6.33690E+00 1.69323E+00 3.49999E-01
 -1       150-8.42572E+00 2.08370E+00 3.49999E-01
 -1       151-8.60947E+00 1.10073E+00 3.49999E-01
 -1       152-6.33690E+00 1.69323E+00 1.70000E+00
 -1       153-6.61252E+00 2.18773E-01 1.70000E+00
 -1       154-6.52065E+00 7.10259E-01 3.49999E-01
 -1       155-8.33384E+00 2.57519E+00 1.70000E+00
 -1       156-8.70134E+00 6.09241E-01 1.70000E+00
 -1       157-3.38742E+00-1.24558E-01 3.49999E-01
 -1       158-6.33690E+00-1.69323E+00 1.70000E+00
 -1       159-3.38742E+00-1.24558E-01 1.70000E+00
 -1       160-8.33384E+00-2.57519E+00 1.70000E+00
 -1       161-6.61252E+00-2.18773E-01 1.70000E+00
 -1       162-1.15589E+01-2.66940E+00 1.70000E+00
 -1       163-8.42572E+00-2.08370E+00 1.70000E+00
 -1       164-1.17427E+01-1.68643E+00 1.70000E+00
 -1       165-6.52065E+00-7.10259E-01 1.70000E+00
 -1       166-8.60947E+00-1.10073E+00 3.49999E-01
 -1       167-1.17427E+01-1.68643E+00 3.49999E-01
 -1       168-8.42572E+00-2.08370E+00 3.49999E-01
 -1       169-3.20367E+00-1.10753E+00 1.70000E+00
 -1       170-6.24502E+00-2.18472E+00 1.70000E+00
 -1       171-8.60947E+00-1.10073E+00 1.70000E+00
 -1       172-8.70134E+00-6.09241E-01 1.70000E+00
 -1       173-6.61252E+00-2.18773E-01 3.49999E-01
 -1       174-8.33384E+00-2.57519E+00 3.49999E-01
 -1       175-2.58725E+00-2.19004E+00 1.70000E+00
 -1       176-3.11368E+00-1.33982E+00 1.70000E+00
 -1       177-7.89368E+00-3.71139E+00 1.70000E+00
 -1       178-1.03405E+01-5.81450E+00 1.70000E+00
 -1       179-7.63046E+00-4.13650E+00 3.49999E-01
 -1       180-7.63046E+00-4.13650E+00 1.70000E+00
 -1       181-7.10403E+00-4.98671E+00 1.70000E+00
 -1       182-9.81409E+00-6.66471E+00 1.70000E+00
 -1       183-7.10403E+00-4.98671E+00 3.49999E-01
 -1       184-5.29732E+00-3.86804E+00 1.70000E+00
 -1       185-5.29732E+00-3.86804E+00 3.49999E-01
 -1       186-2.58725E+00-2.19004E+00 3.49999E-01
 -1       187-5.82375E+00-3.01783E+00 1.70000E+00
 -1       188-5.03410E+00-4.29315E+00 1.70000E+00
 -1       189-7.89368E+00-3.71139E+00 3.49999E-01
 -1       190-6.84081E+00-5.41182E+00 1.70000E+00
 -1       191-6.08696E+00-2.59272E+00 1.70000E+00
 -1       192-5.03410E+00-4.29315E+00 3.49999E-01
 -1       193-1.62140E+00-2.97677E+00 3.49999E-01
 -1       194-2.41942E+00-2.37414E+00 3.49999E-01
 -1       195-3.54230E+00-5.52045E+00 1.70000E+00
 -1       196-1.62140E+00-2.97677E+00 1.70000E+00
 -1       197-2.41942E+00-2.37414E+00 1.70000E+00
 -1       198-4.82290E+00-7.21624E+00 1.70000E+00
 -1       199-3.14329E+00-5.82177E+00 1.70000E+00
 -1       200-4.34032E+00-4.91782E+00 1.70000E+00
 -1       201-4.73933E+00-4.61650E+00 1.70000E+00
 -1       202-4.42389E+00-7.51756E+00 1.70000E+00
 -1       203-5.62092E+00-6.61361E+00 1.70000E+00
 -1       204-6.74380E+00-9.75992E+00 1.70000E+00
 -1       205-7.54181E+00-9.15729E+00 3.49999E-01
 -1       206-6.74380E+00-9.75992E+00 3.49999E-01
 -1       207-4.34032E+00-4.91782E+00 3.49999E-01
 -1       208-7.54181E+00-9.15729E+00 1.70000E+00
 -1       209-3.54230E+00-5.52045E+00 3.49999E-01
 -1       210-6.01993E+00-6.31229E+00 1.70000E+00
 -1       211-4.42389E+00-7.51756E+00 3.49999E-01
 -1       212-1.39840E+00-3.08782E+00 1.70000E+00
 -1       213-4.36578E-01-3.36148E+00 1.70000E+00
 -1       214-1.39840E+00-3.08782E+00 3.49999E-01
 -1       215-1.89041E+00-8.47118E+00 1.70000E+00
 -1       216-2.85224E+00-8.19751E+00 1.70000E+00
 -1       217-3.72454E+00-1.12633E+01 1.70000E+00
 -1       218-2.27070E+00-6.15363E+00 1.70000E+00
 -1       219-3.72454E+00-1.12633E+01 3.49999E-01
 -1       220-1.89041E+00-8.47118E+00 3.49999E-01
 -1       221-2.76271E+00-1.15370E+01 1.70000E+00
 -1       222-1.30888E+00-6.42730E+00 3.49999E-01
 -1       223-2.75162E+00-6.01680E+00 1.70000E+00
 -1       224-1.30888E+00-6.42730E+00 1.70000E+00
 -1       225-8.27966E-01-6.56413E+00 1.70000E+00
 -1       226-8.27966E-01-6.56413E+00 3.49999E-01
 -1       227-3.33315E+00-8.06068E+00 1.70000E+00
 -1       228-2.85224E+00-8.19751E+00 3.49999E-01
 -1       229-1.40950E+00-8.60801E+00 1.70000E+00
 -1       230-3.33315E+00-8.06068E+00 3.49999E-01
 -1       231-1.40950E+00-8.60801E+00 3.49999E-01
 -1       232 8.07209E-01-3.29220E+00 1.70000E+00
 -1       233 1.59149E+00-1.17559E+01 1.70000E+00
 -1       234 1.05580E-01-6.55837E+00 1.70000E+00
 -1       235-1.88525E-01-3.38446E+00 1.70000E+00
 -1       236 3.01650E-01-8.67430E+00 1.70000E+00
 -1       237 5.95756E-01-1.18482E+01 3.49999E-01
 -1       238 5.95756E-01-1.18482E+01 1.70000E+00
 -1       239 1.29738E+00-8.58203E+00 3.49999E-01
 -1       240 1.10131E+00-6.46610E+00 1.70000E+00
 -1       241 8.07209E-01-3.29220E+00 3.49999E-01
 -1       242 1.59918E+00-6.41996E+00 1.70000E+00
 -1       243 1.10131E+00-6.46610E+00 3.49999E-01
 -1       244 3.01650E-01-8.67430E+00 3.49999E-01
 -1       245 1.29738E+00-8.58203E+00 1.70000E+00
 -1       246 1.79525E+00-8.53590E+00 1.70000E+00
 -1       247-3.92287E-01-6.60450E+00 1.70000E+00
 -1       248-1.96217E-01-8.72044E+00 1.70000E+00
 -1       249 1.94198E+00-2.77828E+00 3.49999E-01
 -1       250 1.04681E+00-3.22402E+00 1.70000E+00
 -1       251 3.41480E+00-7.97958E+00 1.70000E+00
 -1       252 4.83559E+00-1.08329E+01 1.70000E+00
 -1       253 4.30996E+00-7.53384E+00 1.70000E+00
 -1       254 2.46761E+00-6.07735E+00 1.70000E+00
 -1       255 3.36277E+00-5.63162E+00 1.70000E+00
 -1       256 1.04681E+00-3.22402E+00 3.49999E-01
 -1       257 5.73075E+00-1.03872E+01 1.70000E+00
 -1       258 1.94198E+00-2.77828E+00 1.70000E+00
 -1       259 3.36277E+00-5.63162E+00 3.49999E-01
 -1       260 2.02002E+00-6.30022E+00 1.70000E+00
 -1       261 2.46761E+00-6.07735E+00 3.49999E-01
 -1       262 4.30996E+00-7.53384E+00 3.49999E-01
 -1       263 2.96722E+00-8.20245E+00 1.70000E+00
 -1       264 3.81035E+00-5.40875E+00 3.49999E-01
 -1       265 3.81035E+00-5.40875E+00 1.70000E+00
 -1       266 4.75754E+00-7.31097E+00 1.70000E+00
 -1       267 2.81447E+00-1.88915E+00 1.70000E+00
 -1       268 5.17006E+00-4.03655E+00 1.70000E+00
 -1       269 4.49637E+00-4.77556E+00 1.70000E+00
 -1       270 6.74046E+00-5.46816E+00 1.70000E+00
 -1       271 6.06676E+00-6.20717E+00 1.70000E+00
 -1       272 9.09605E+00-7.61556E+00 1.70000E+00
 -1       273 2.14078E+00-2.62816E+00 3.49999E-01
 -1       274 2.14078E+00-2.62816E+00 1.70000E+00
 -1       275 8.42235E+00-8.35457E+00 1.70000E+00
 -1       276 6.74046E+00-5.46816E+00 3.49999E-01
 -1       277 5.17006E+00-4.03655E+00 3.49999E-01
 -1       278 5.72991E+00-6.57667E+00 1.70000E+00
 -1       279 6.06676E+00-6.20717E+00 3.49999E-01
 -1       280 4.15952E+00-5.14507E+00 1.70000E+00
 -1       281 5.50691E+00-3.66705E+00 1.70000E+00
 -1       282 7.07730E+00-5.09865E+00 1.70000E+00
 -1       283 5.50691E+00-3.66705E+00 3.49999E-01
 -1       284 2.94561E+00-1.67735E+00 1.70000E+00
 -1       285 6.27911E+00-1.89633E+00 1.70000E+00
 -1       286 5.91787E+00-2.82880E+00 1.70000E+00
 -1       287 1.08716E+01-4.74790E+00 1.70000E+00
 -1       288 1.12329E+01-3.81543E+00 1.70000E+00
 -1       289 8.26062E+00-2.66397E+00 1.70000E+00
 -1       290 7.89937E+00-3.59644E+00 1.70000E+00
 -1       291 1.12329E+01-3.81543E+00 3.49999E-01
 -1       292 8.26062E+00-2.66397E+00 3.49999E-01
 -1       293 6.27911E+00-1.89633E+00 3.49999E-01
 -1       294 3.30686E+00-7.44874E-01 1.70000E+00
 -1       295 5.91787E+00-2.82880E+00 3.49999E-01
 -1       296 6.45973E+00-1.43010E+00 1.70000E+00
 -1       297 8.44124E+00-2.19773E+00 1.70000E+00
 -1       298 5.73725E+00-3.29504E+00 1.70000E+00
 -1       299 7.71875E+00-4.06268E+00 1.70000E+00
 -1       300 8.44124E+00-2.19773E+00 3.49999E-01
 -1       301 1.70000E+01 0.00000E+00 3.49999E-01
 -1       302-1.70000E+01 0.00000E+00-3.49999E-01
 -1       303-1.66733E+01 3.31653E+00 3.49999E-01
 -1       304 3.31653E+00 1.66733E+01-3.49999E-01
 -1       305 0.00000E+00 1.70000E+01-3.49999E-01
 -1       306-1.41350E+01-9.44469E+00 3.49999E-01
 -1       307 1.20208E+01 1.20208E+01-3.49999E-01
 -1       308 1.66733E+01 3.31653E+00 3.49999E-01
 -1       309 1.57060E+01 6.50562E+00-3.49999E-01
 -1       310-3.31653E+00 1.66733E+01-3.49999E-01
 -1       311 1.20208E+01-1.20208E+01-3.49999E-01
 -1       312 1.66733E+01 3.31653E+00-3.49999E-01
 -1       313 1.57060E+01-6.50562E+00-3.49999E-01
 -1       314 1.41350E+01 9.44469E+00-3.49999E-01
 -1       315 9.44469E+00-1.41350E+01-3.49999E-01
 -1       316 6.50562E+00-1.57060E+01-3.49999E-01
 -1       317-6.50562E+00-1.57060E+01-3.49999E-01
 -1       318-6.50562E+00 1.57060E+01-3.49999E-01
 -1       319-9.44469E+00 1.41350E+01-3.49999E-01
 -1       320-1.41350E+01-9.44469E+00-3.49999E-01
 -1       321-1.41350E+01 9.44469E+00-3.49999E-01
 -1       322-1.57060E+01 6.50562E+00-3.49999E-01
 -1       323-1.66733E+01 3.31653E+00-3.49999E-01
 -1       324 1.57060E+01 6.50562E+00 3.49999E-01
 -1       325 9.44469E+00 1.41350E+01-3.49999E-01
 -1       326 6.50562E+00 1.57060E+01-3.49999E-01
 -1       327 3.31653E+00 1.66733E+01 3.49999E-01
 -1       328 9.44469E+00 1.41350E+01 3.49999E-01
 -1       329-1.20208E+01 1.20208E+01-3.49999E-01
 -1       330-8.70134E+00-6.09241E-01 3.49999E-01
 -1       331-8.33384E+00 2.57519E+00 3.49999E-01
 -1       332-1.03405E+01-5.81450E+00 3.49999E-01
 -1       333-1.15589E+01-2.66940E+00 3.49999E-01
 -1       334-5.62092E+00 6.61361E+00 3.49999E-01
 -1       335-7.54181E+00 9.15729E+00 3.49999E-01
 -1       336-6.84081E+00 5.41182E+00 3.49999E-01
 -1       337-1.20208E+01 1.20208E+01 3.49999E-01
 -1       338-9.81409E+00 6.66471E+00 3.49999E-01
 -1       339-1.41350E+01 9.44469E+00 3.49999E-01
 -1       340-1.57060E+01 6.50562E+00 3.49999E-01
 -1       341-1.03405E+01 5.81450E+00 3.49999E-01
 -1       342-6.01993E+00 6.31229E+00 3.49999E-01
 -1       343-6.01993E+00-6.31229E+00 3.49999E-01
 -1       344-6.84081E+00-5.41182E+00 3.49999E-01
 -1       345-5.62092E+00-6.61361E+00 3.49999E-01
 -1       346-9.81409E+00-6.66471E+00 3.49999E-01
 -1       347-9.44469E+00-1.41350E+01 3.49999E-01
 -1       348-1.15589E+01 2.66940E+00 3.49999E-01
 -1       349-1.17427E+01 1.68643E+00 3.49999E-01
 -1       350-1.70000E+01 0.00000E+00 3.49999E-01
 -1       351-6.24502E+00-2.18472E+00 3.49999E-01
 -1       352-2.85224E+00 8.19751E+00 3.49999E-01
 -1       353-3.38742E+00 1.24558E-01 3.49999E-01
 -1       354-6.61252E+00 2.18773E-01 3.49999E-01
 -1       355-6.52065E+00-7.10259E-01 3.49999E-01
 -1       356-8.70134E+00 6.09241E-01 3.49999E-01
 -1       357-4.42389E+00 7.51756E+00 3.49999E-01
 -1       358-6.24502E+00 2.18472E+00 3.49999E-01
 -1       359-2.41942E+00 2.37414E+00 3.49999E-01
 -1       360-2.58725E+00 2.19004E+00 3.49999E-01
 -1       361-1.39840E+00 3.08782E+00 3.49999E-01
 -1       362-2.27070E+00 6.15363E+00 3.49999E-01
 -1       363-2.75162E+00 6.01680E+00 3.49999E-01
 -1       364-3.92287E-01 6.60450E+00 3.49999E-01
 -1       365-1.88525E-01-3.38446E+00 3.49999E-01
 -1       366 1.05580E-01-6.55837E+00 3.49999E-01
 -1       367-1.62140E+00 2.97677E+00 3.49999E-01
 -1       368-2.27070E+00-6.15363E+00 3.49999E-01
 -1       369-2.75162E+00-6.01680E+00 3.49999E-01
 -1       370-4.73933E+00-4.61650E+00 3.49999E-01
 -1       371-3.14329E+00-5.82177E+00 3.49999E-01
 -1       372-3.11368E+00-1.33982E+00 3.49999E-01
 -1       373-3.20367E+00 1.10753E+00 3.49999E-01
 -1       374-3.20367E+00-1.10753E+00 3.49999E-01
 -1       375-6.08696E+00-2.59272E+00 3.49999E-01
 -1       376-5.82375E+00-3.01783E+00 3.49999E-01
 -1       377-6.33690E+00-1.69323E+00 3.49999E-01
 -1       378 1.59918E+00 6.41996E+00 3.49999E-01
 -1       379 8.07209E-01 3.29220E+00 3.49999E-01
 -1       380 2.02002E+00-6.30022E+00 3.49999E-01
 -1       381 1.59918E+00-6.41996E+00 3.49999E-01
 -1       382 1.29738E+00 8.58203E+00 3.49999E-01
 -1       383 4.15952E+00-5.14507E+00 3.49999E-01
 -1       384 8.42235E+00-8.35457E+00 3.49999E-01
 -1       385 5.72991E+00-6.57667E+00 3.49999E-01
 -1       386 5.73075E+00-1.03872E+01 3.49999E-01
 -1       387 4.75754E+00-7.31097E+00 3.49999E-01
 -1       388 5.73725E+00-3.29504E+00 3.49999E-01
 -1       389 2.81447E+00-1.88915E+00 3.49999E-01
 -1       390 4.30996E+00 7.53384E+00 3.49999E-01
 -1       391 4.15952E+00 5.14507E+00 3.49999E-01
 -1       392 1.94198E+00 2.77828E+00 3.49999E-01
 -1       393 4.49637E+00 4.77556E+00 3.49999E-01
 -1       394 6.54013E+00-5.00000E-01 3.49999E-01
 -1       395 3.35263E+00-5.00000E-01 3.49999E-01
 -1       396 3.30686E+00-7.44874E-01 3.49999E-01
 -1       397 6.45973E+00-1.43010E+00 3.49999E-01
 -1       398 6.54013E+00-1.00000E+00 3.49999E-01
 -1       399 1.12329E+01 3.81543E+00 3.49999E-01
 -1       400 5.72991E+00 6.57667E+00 3.49999E-01
 -1       401 5.73075E+00 1.03872E+01 3.49999E-01
 -1       402 4.83559E+00 1.08329E+01 3.49999E-01
 -1       403 6.50562E+00 1.57060E+01 3.49999E-01
 -1       404 1.59149E+00 1.17559E+01 3.49999E-01
 -1       405 2.96722E+00 8.20245E+00 3.49999E-01
 -1       406 1.79525E+00 8.53590E+00 3.49999E-01
 -1       407-2.76271E+00 1.15370E+01 3.49999E-01
 -1       408 5.95756E-01 1.18482E+01 3.49999E-01
 -1       409-4.36578E-01-3.36148E+00 3.49999E-01
 -1       410-4.36578E-01 3.36148E+00 3.49999E-01
 -1       411-1.96217E-01 8.72044E+00 3.49999E-01
 -1       412-3.31653E+00 1.66733E+01 3.49999E-01
 -1       413-6.74380E+00 9.75992E+00 3.49999E-01
 -1       414-3.72454E+00 1.12633E+01 3.49999E-01
 -1       415-9.44469E+00 1.41350E+01 3.49999E-01
 -1       416 1.18526E+01-5.00000E-01 3.49999E-01
 -1       417 1.41350E+01 9.44469E+00 3.49999E-01
 -1       418 1.20208E+01 1.20208E+01 3.49999E-01
 -1       419 1.66733E+01-3.31653E+00 3.49999E-01
 -1       420 8.42235E+00 8.35457E+00 3.49999E-01
 -1       421 1.08716E+01 4.74790E+00 3.49999E-01
 -1       422 7.71875E+00 4.06268E+00 3.49999E-01
 -1       423 9.09605E+00 7.61556E+00 3.49999E-01
 -1       424 1.41350E+01-9.44469E+00 3.49999E-01
 -1       425 1.08716E+01-4.74790E+00 3.49999E-01
 -1       426 1.20208E+01-1.20208E+01 3.49999E-01
 -1       427 7.71875E+00-4.06268E+00 3.49999E-01
 -1       428 7.89937E+00-3.59644E+00 3.49999E-01
 -1       429 7.07730E+00-5.09865E+00 3.49999E-01
 -1       430 9.09605E+00-7.61556E+00 3.49999E-01
 -1       431 9.44469E+00-1.41350E+01 3.49999E-01
 -1       432 6.50562E+00-1.57060E+01 3.49999E-01
 -1       433 2.96722E+00-8.20245E+00 3.49999E-01
 -1       434 4.83559E+00-1.08329E+01 3.49999E-01
 -1       435 3.41480E+00-7.97958E+00 3.49999E-01
 -1       436 1.79525E+00-8.53590E+00 3.49999E-01
 -1       437 1.59149E+00-1.17559E+01 3.49999E-01
 -1       438 0.00000E+00-1.70000E+01 3.49999E-01
 -1       439 3.31653E+00-1.66733E+01 3.49999E-01
 -1       440-1.96217E-01-8.72044E+00 3.49999E-01
 -1       441-3.92287E-01-6.60450E+00 3.49999E-01
 -1       442-2.76271E+00-1.15370E+01 3.49999E-01
 -1       443-4.82290E+00-7.21624E+00 3.49999E-01
 -1       444-6.50562E+00-1.57060E+01 3.49999E-01
 -1       445-3.31653E+00-1.66733E+01 3.49999E-01
 -1       446 8.44124E+00 2.19773E+00 3.49999E-01
 -1       447 3.30686E+00 7.44874E-01 3.49999E-01
 -1       448 6.27911E+00 1.89633E+00 3.49999E-01
 -1       449 3.35263E+00 5.00000E-01 3.49999E-01
 -1       450 7.07730E+00 5.09865E+00 3.49999E-01
 -1       451 5.73725E+00 3.29504E+00 3.49999E-01
 -1       452 5.17006E+00 4.03655E+00 3.49999E-01
 -1       453 2.94561E+00 1.67735E+00 3.49999E-01
 -1       454 2.94561E+00-1.67735E+00 3.49999E-01
 -1       455 5.50691E+00 3.66705E+00 3.49999E-01
 -1       456 4.49637E+00-4.77556E+00 3.49999E-01
 -1       457-6.50562E+00 1.57060E+01 3.49999E-01
 -1       458 0.00000E+00 1.70000E+01 3.49999E-01
 -1       459 1.70000E+01 0.00000E+00-3.49999E-01
 -1       460-1.20208E+01-1.20208E+01-3.49999E-01
 -1       461-1.20208E+01-1.20208E+01 3.49999E-01
 -1       462-9.44469E+00-1.41350E+01-3.49999E-01
 -1       463-1.66733E+01-3.31653E+00-3.49999E-01
 -1       464-1.66733E+01-3.31653E+00 3.49999E-01
 -1       465 0.00000E+00-1.70000E+01-3.49999E-01
 -1       466 1.57060E+01-6.50562E+00 3.49999E-01
 -1       467 1.66733E+01-3.31653E+00-3.49999E-01
 -1       468 1.41350E+01-9.44469E+00-3.49999E-01
 -1       469-3.31653E+00-1.66733E+01-3.49999E-01
 -1       470-1.57060E+01-6.50562E+00-3.49999E-01
 -1       471-1.57060E+01-6.50562E+00 3.49999E-01
 -1       472 3.31653E+00-1.66733E+01-3.49999E-01
 -1       473 3.35263E+00 5.00000E-01 1.02500E+00
 -1       474 3.35263E+00-5.00000E-01 1.02500E+00
 -1       475 4.94638E+00 5.00000E-01 1.70000E+00
 -1       476 4.94638E+00-5.00000E-01 1.70000E+00
 -1       477 7.60263E+00 1.00000E+00 1.70000E+00
 -1       478 7.60263E+00-1.00000E+00 1.70000E+00
 -1       479 1.02589E+01 5.00000E-01 1.70000E+00
 -1       480 1.02589E+01-5.00000E-01 1.70000E+00
 -1       481 1.18526E+01 5.00000E-01 1.02500E+00
 -1       482 1.18526E+01-5.00000E-01 1.02500E+00
 -1       483 4.94638E+00-5.00000E-01 3.49999E-01
 -1       484 6.54013E+00-5.00000E-01 1.02500E+00
 -1       485 8.66513E+00-5.00000E-01 1.02500E+00
 -1       486 1.02589E+01-5.00000E-01 3.49999E-01
 -1       487 1.02589E+01 5.00000E-01 3.49999E-01
 -1       488 8.66513E+00 5.00000E-01 1.02500E+00
 -1       489 6.54013E+00 5.00000E-01 1.02500E+00
 -1       490 4.94638E+00 5.00000E-01 3.49999E-01
 -1       491 6.54013E+00-1.00000E+00 1.02500E+00
 -1       492 6.54013E+00 1.00000E+00 1.02500E+00
 -1       493 8.66513E+00-1.00000E+00 1.02500E+00
 -1       494 8.66513E+00 1.00000E+00 1.02500E+00
 -1       495 7.60263E+00-1.00000E+00 3.49999E-01
 -1       496 7.60263E+00 1.00000E+00 3.49999E-01
 -1       497 2.94561E+00 1.67735E+00 1.02500E+00
 -1       498 3.30686E+00 7.44874E-01 1.02500E+00
 -1       499 9.74676E+00 3.23970E+00 1.70000E+00
 -1       500 9.38548E+00 4.17217E+00 1.70000E+00
 -1       501 7.45049E+00 1.81392E+00 1.70000E+00
 -1       502 6.72800E+00 3.67886E+00 1.70000E+00
 -1       503 4.79298E+00 1.32060E+00 1.70000E+00
 -1       504 4.43174E+00 2.25307E+00 1.70000E+00
 -1       505 1.08716E+01 4.74790E+00 1.02500E+00
 -1       506 1.12329E+01 3.81543E+00 1.02500E+00
 -1       507 4.79298E+00 1.32060E+00 3.49999E-01
 -1       508 6.27911E+00 1.89633E+00 1.02500E+00
 -1       509 8.26062E+00 2.66397E+00 1.02500E+00
 -1       510 9.74676E+00 3.23970E+00 3.49999E-01
 -1       511 9.38548E+00 4.17217E+00 3.49999E-01
 -1       512 7.89937E+00 3.59644E+00 1.02500E+00
 -1       513 5.91787E+00 2.82880E+00 1.02500E+00
 -1       514 4.43174E+00 2.25307E+00 3.49999E-01
 -1       515 6.45973E+00 1.43010E+00 1.02500E+00
 -1       516 5.73725E+00 3.29504E+00 1.02500E+00
 -1       517 8.44124E+00 2.19773E+00 1.02500E+00
 -1       518 7.71875E+00 4.06268E+00 1.02500E+00
 -1       519 7.45049E+00 1.81392E+00 3.49999E-01
 -1       520 6.72800E+00 3.67886E+00 3.49999E-01
 -1       521 2.14078E+00 2.62816E+00 1.02500E+00
 -1       522 2.81447E+00 1.88915E+00 1.02500E+00
 -1       523 7.91825E+00 6.54186E+00 1.70000E+00
 -1       524 7.24455E+00 7.28087E+00 1.70000E+00
 -1       525 6.29211E+00 4.38285E+00 1.70000E+00
 -1       526 4.94472E+00 5.86087E+00 1.70000E+00
 -1       527 3.99226E+00 2.96285E+00 1.70000E+00
 -1       528 3.31857E+00 3.70186E+00 1.70000E+00
 -1       529 8.42235E+00 8.35457E+00 1.02500E+00
 -1       530 9.09605E+00 7.61556E+00 1.02500E+00
 -1       531 3.99226E+00 2.96285E+00 3.49999E-01
 -1       532 5.17006E+00 4.03655E+00 1.02500E+00
 -1       533 6.74046E+00 5.46816E+00 1.02500E+00
 -1       534 7.91825E+00 6.54186E+00 3.49999E-01
 -1       535 7.24455E+00 7.28087E+00 3.49999E-01
 -1       536 6.06676E+00 6.20717E+00 1.02500E+00
 -1       537 4.49637E+00 4.77556E+00 1.02500E+00
 -1       538 3.31857E+00 3.70186E+00 3.49999E-01
 -1       539 5.50691E+00 3.66705E+00 1.02500E+00
 -1       540 4.15952E+00 5.14507E+00 1.02500E+00
 -1       541 7.07730E+00 5.09865E+00 1.02500E+00
 -1       542 5.72991E+00 6.57667E+00 1.02500E+00
 -1       543 6.29211E+00 4.38285E+00 3.49999E-01
 -1       544 4.94472E+00 5.86087E+00 3.49999E-01
 -1       545 1.04681E+00 3.22402E+00 1.02500E+00
 -1       546 1.94198E+00 2.77828E+00 1.02500E+00
 -1       547 2.49362E+00 7.25134E+00 1.70000E+00
 -1       548 5.02036E+00 8.96052E+00 1.70000E+00
 -1       549 4.12520E+00 9.40624E+00 1.70000E+00
 -1       550 2.65237E+00 4.20495E+00 1.70000E+00
 -1       551 1.75721E+00 4.65068E+00 1.70000E+00
 -1       552 4.28395E+00 6.35986E+00 1.70000E+00
 -1       553 5.73075E+00 1.03872E+01 1.02500E+00
 -1       554 4.83559E+00 1.08329E+01 1.02500E+00
 -1       555 3.36277E+00 5.63162E+00 1.02500E+00
 -1       556 2.65237E+00 4.20495E+00 3.49999E-01
 -1       557 4.30996E+00 7.53384E+00 1.02500E+00
 -1       558 5.02036E+00 8.96052E+00 3.49999E-01
 -1       559 4.12520E+00 9.40624E+00 3.49999E-01
 -1       560 3.41480E+00 7.97958E+00 1.02500E+00
 -1       561 2.46761E+00 6.07735E+00 1.02500E+00
 -1       562 1.75721E+00 4.65068E+00 3.49999E-01
 -1       563 3.81035E+00 5.40875E+00 1.02500E+00
 -1       564 2.02002E+00 6.30022E+00 1.02500E+00
 -1       565 4.75754E+00 7.31097E+00 1.02500E+00
 -1       566 2.96722E+00 8.20245E+00 1.02500E+00
 -1       567 4.28395E+00 6.35986E+00 3.49999E-01
 -1       568 2.49362E+00 7.25134E+00 3.49999E-01
 -1       569-1.88525E-01 3.38446E+00 1.02500E+00
 -1       570 8.07209E-01 3.29220E+00 1.02500E+00
 -1       571-2.94252E-01 7.66247E+00 1.70000E+00
 -1       572 1.44444E+00 1.01690E+01 1.70000E+00
 -1       573 4.48703E-01 1.02612E+01 1.70000E+00
 -1       574 9.54260E-01 4.87915E+00 1.70000E+00
 -1       575-4.14725E-02 4.97142E+00 1.70000E+00
 -1       576 1.69721E+00 7.47793E+00 1.70000E+00
 -1       577 1.59149E+00 1.17559E+01 1.02500E+00
 -1       578 5.95756E-01 1.18482E+01 1.02500E+00
 -1       579 1.10131E+00 6.46610E+00 1.02500E+00
 -1       580 9.54260E-01 4.87915E+00 3.49999E-01
 -1       581 1.29738E+00 8.58203E+00 1.02500E+00
 -1       582 1.44444E+00 1.01690E+01 3.49999E-01
 -1       583 4.48703E-01 1.02612E+01 3.49999E-01
 -1       584 3.01650E-01 8.67430E+00 1.02500E+00
 -1       585 1.05580E-01 6.55837E+00 1.02500E+00
 -1       586-4.14725E-02 4.97142E+00 3.49999E-01
 -1       587 1.59918E+00 6.41996E+00 1.02500E+00
 -1       588-3.92287E-01 6.60450E+00 1.02500E+00
 -1       589 1.79525E+00 8.53590E+00 1.02500E+00
 -1       590-1.96217E-01 8.72044E+00 1.02500E+00
 -1       591 1.69721E+00 7.47793E+00 3.49999E-01
 -1       592-2.94252E-01 7.66247E+00 3.49999E-01
 -1       593-1.39840E+00 3.08782E+00 1.02500E+00
 -1       594-4.36578E-01 3.36148E+00 1.02500E+00
 -1       595-3.28839E+00 9.73040E+00 1.70000E+00
 -1       596-1.11873E+00 7.58607E+00 1.70000E+00
 -1       597-1.83455E+00 4.62073E+00 1.70000E+00
 -1       598-2.32656E+00 1.00041E+01 1.70000E+00
 -1       599-3.04239E+00 7.03874E+00 1.70000E+00
 -1       600-8.72729E-01 4.89439E+00 1.70000E+00
 -1       601-2.76271E+00 1.15370E+01 1.02500E+00
 -1       602-3.72454E+00 1.12633E+01 1.02500E+00
 -1       603-1.30888E+00 6.42730E+00 1.02500E+00
 -1       604-8.72729E-01 4.89439E+00 3.49999E-01
 -1       605-1.89041E+00 8.47118E+00 1.02500E+00
 -1       606-2.32656E+00 1.00041E+01 3.49999E-01
 -1       607-3.28839E+00 9.73040E+00 3.49999E-01
 -1       608-2.85224E+00 8.19751E+00 1.02500E+00
 -1       609-2.27070E+00 6.15363E+00 1.02500E+00
 -1       610-1.83455E+00 4.62073E+00 3.49999E-01
 -1       611-8.27966E-01 6.56413E+00 1.02500E+00
 -1       612-2.75162E+00 6.01680E+00 1.02500E+00
 -1       613-1.40950E+00 8.60801E+00 1.02500E+00
 -1       614-3.33315E+00 8.06068E+00 1.02500E+00
 -1       615-1.11873E+00 7.58607E+00 3.49999E-01
 -1       616-3.04239E+00 7.03874E+00 3.49999E-01
 -1       617-2.41942E+00 2.37414E+00 1.02500E+00
 -1       618-1.62140E+00 2.97677E+00 1.02500E+00
 -1       619-5.78335E+00 8.48808E+00 1.70000E+00
 -1       620-6.58137E+00 7.88545E+00 1.70000E+00
 -1       621-3.78359E+00 6.66966E+00 1.70000E+00
 -1       622-5.37963E+00 5.46440E+00 1.70000E+00
 -1       623-2.58185E+00 4.24861E+00 1.70000E+00
 -1       624-3.37987E+00 3.64598E+00 1.70000E+00
 -1       625-6.74380E+00 9.75992E+00 1.02500E+00
 -1       626-7.54181E+00 9.15729E+00 1.02500E+00
 -1       627-3.54230E+00 5.52045E+00 1.02500E+00
 -1       628-2.58185E+00 4.24861E+00 3.49999E-01
 -1       629-4.82290E+00 7.21624E+00 1.02500E+00
 -1       630-5.78335E+00 8.48808E+00 3.49999E-01
 -1       631-6.58137E+00 7.88545E+00 3.49999E-01
 -1       632-5.62092E+00 6.61361E+00 1.02500E+00
 -1       633-4.34032E+00 4.91782E+00 1.02500E+00
 -1       634-3.37987E+00 3.64598E+00 3.49999E-01
 -1       635-3.14329E+00 5.82177E+00 1.02500E+00
 -1       636-4.73933E+00 4.61650E+00 1.02500E+00
 -1       637-4.42389E+00 7.51756E+00 1.02500E+00
 -1       638-6.01993E+00 6.31229E+00 1.02500E+00
 -1       639-3.78359E+00 6.66966E+00 3.49999E-01
 -1       640-5.37963E+00 5.46440E+00 3.49999E-01
 -1       641-2.58725E+00 2.19004E+00 1.02500E+00
 -1       642-3.11368E+00 1.33982E+00 1.02500E+00
 -1       643-8.45906E+00 5.82571E+00 1.70000E+00
 -1       644-8.98548E+00 4.97550E+00 1.70000E+00
 -1       645-5.93746E+00 4.85249E+00 1.70000E+00
 -1       646-6.99032E+00 3.15206E+00 1.70000E+00
 -1       647-3.94229E+00 3.02904E+00 1.70000E+00
 -1       648-4.46872E+00 2.17882E+00 1.70000E+00
 -1       649-9.81409E+00 6.66471E+00 1.02500E+00
 -1       650-1.03405E+01 5.81450E+00 1.02500E+00
 -1       651-3.94229E+00 3.02904E+00 3.49999E-01
 -1       652-5.29732E+00 3.86804E+00 1.02500E+00
 -1       653-7.10403E+00 4.98671E+00 1.02500E+00
 -1       654-8.45906E+00 5.82571E+00 3.49999E-01
 -1       655-8.98548E+00 4.97550E+00 3.49999E-01
 -1       656-7.63046E+00 4.13650E+00 1.02500E+00
 -1       657-5.82375E+00 3.01783E+00 1.02500E+00
 -1       658-4.46872E+00 2.17882E+00 3.49999E-01
 -1       659-5.03410E+00 4.29315E+00 1.02500E+00
 -1       660-6.08696E+00 2.59272E+00 1.02500E+00
 -1       661-6.84081E+00 5.41182E+00 1.02500E+00
 -1       662-7.89368E+00 3.71139E+00 1.02500E+00
 -1       663-5.93746E+00 4.85249E+00 3.49999E-01
 -1       664-6.99032E+00 3.15206E+00 3.49999E-01
 -1       665-3.20367E+00 1.10753E+00 1.02500E+00
 -1       666-3.38742E+00 1.24558E-01 1.02500E+00
 -1       667-9.99231E+00 2.37655E+00 1.70000E+00
 -1       668-1.01761E+01 1.39358E+00 1.70000E+00
 -1       669-7.28943E+00 2.37996E+00 1.70000E+00
 -1       670-7.65693E+00 4.14007E-01 1.70000E+00
 -1       671-4.77029E+00 1.40038E+00 1.70000E+00
 -1       672-4.95403E+00 4.17408E-01 1.70000E+00
 -1       673-1.15589E+01 2.66940E+00 1.02500E+00
 -1       674-1.17427E+01 1.68643E+00 1.02500E+00
 -1       675-4.77029E+00 1.40038E+00 3.49999E-01
 -1       676-6.33690E+00 1.69323E+00 1.02500E+00
 -1       677-8.42572E+00 2.08370E+00 1.02500E+00
 -1       678-9.99231E+00 2.37655E+00 3.49999E-01
 -1       679-1.01761E+01 1.39358E+00 3.49999E-01
 -1       680-8.60947E+00 1.10073E+00 1.02500E+00
 -1       681-6.52065E+00 7.10259E-01 1.02500E+00
 -1       682-4.95403E+00 4.17408E-01 3.49999E-01
 -1       683-6.24502E+00 2.18472E+00 1.02500E+00
 -1       684-6.61252E+00 2.18773E-01 1.02500E+00
 -1       685-8.33384E+00 2.57519E+00 1.02500E+00
 -1       686-8.70134E+00 6.09241E-01 1.02500E+00
 -1       687-7.28943E+00 2.37996E+00 3.49999E-01
 -1       688-7.65693E+00 4.14007E-01 3.49999E-01
 -1       689-3.38742E+00-1.24558E-01 1.02500E+00
 -1       690-3.20367E+00-1.10753E+00 1.02500E+00
 -1       691-4.77029E+00-1.40038E+00 1.70000E+00
 -1       692-4.95403E+00-4.17408E-01 1.70000E+00
 -1       693-7.28943E+00-2.37996E+00 1.70000E+00
 -1       694-7.65693E+00-4.14007E-01 1.70000E+00
 -1       695-9.99231E+00-2.37655E+00 1.70000E+00
 -1       696-1.01761E+01-1.39358E+00 1.70000E+00
 -1       697-1.17427E+01-1.68643E+00 1.02500E+00
 -1       698-1.15589E+01-2.66940E+00 1.02500E+00
 -1       699-4.95403E+00-4.17408E-01 3.49999E-01
 -1       700-6.52065E+00-7.10259E-01 1.02500E+00
 -1       701-8.60947E+00-1.10073E+00 1.02500E+00
 -1       702-1.01761E+01-1.39358E+00 3.49999E-01
 -1       703-9.99231E+00-2.37655E+00 3.49999E-01
 -1       704-8.42572E+00-2.08370E+00 1.02500E+00
 -1       705-6.33690E+00-1.69323E+00 1.02500E+00
 -1       706-4.77029E+00-1.40038E+00 3.49999E-01
 -1       707-6.61252E+00-2.18773E-01 1.02500E+00
 -1       708-6.24502E+00-2.18472E+00 1.02500E+00
 -1       709-8.70134E+00-6.09241E-01 1.02500E+00
 -1       710-8.33384E+00-2.57519E+00 1.02500E+00
 -1       711-7.65693E+00-4.14007E-01 3.49999E-01
 -1       712-7.28943E+00-2.37996E+00 3.49999E-01
 -1       713-3.11368E+00-1.33982E+00 1.02500E+00
 -1       714-2.58725E+00-2.19004E+00 1.02500E+00
 -1       715-3.94229E+00-3.02904E+00 1.70000E+00
 -1       716-4.46872E+00-2.17882E+00 1.70000E+00
 -1       717-5.93746E+00-4.85249E+00 1.70000E+00
 -1       718-6.99032E+00-3.15206E+00 1.70000E+00
 -1       719-8.45906E+00-5.82571E+00 1.70000E+00
 -1       720-8.98548E+00-4.97550E+00 1.70000E+00
 -1       721-1.03405E+01-5.81450E+00 1.02500E+00
 -1       722-9.81409E+00-6.66471E+00 1.02500E+00
 -1       723-4.46872E+00-2.17882E+00 3.49999E-01
 -1       724-5.82375E+00-3.01783E+00 1.02500E+00
 -1       725-7.63046E+00-4.13650E+00 1.02500E+00
 -1       726-8.98548E+00-4.97550E+00 3.49999E-01
 -1       727-8.45906E+00-5.82571E+00 3.49999E-01
 -1       728-7.10403E+00-4.98671E+00 1.02500E+00
 -1       729-5.29732E+00-3.86804E+00 1.02500E+00
 -1       730-3.94229E+00-3.02904E+00 3.49999E-01
 -1       731-6.08696E+00-2.59272E+00 1.02500E+00
 -1       732-5.03410E+00-4.29315E+00 1.02500E+00
 -1       733-7.89368E+00-3.71139E+00 1.02500E+00
 -1       734-6.84081E+00-5.41182E+00 1.02500E+00
 -1       735-6.99032E+00-3.15206E+00 3.49999E-01
 -1       736-5.93746E+00-4.85249E+00 3.49999E-01
 -1       737-1.62140E+00-2.97677E+00 1.02500E+00
 -1       738-2.41942E+00-2.37414E+00 1.02500E+00
 -1       739-2.58185E+00-4.24861E+00 1.70000E+00
 -1       740-3.37987E+00-3.64598E+00 1.70000E+00
 -1       741-3.78359E+00-6.66966E+00 1.70000E+00
 -1       742-5.37963E+00-5.46440E+00 1.70000E+00
 -1       743-5.78335E+00-8.48808E+00 1.70000E+00
 -1       744-6.58137E+00-7.88545E+00 1.70000E+00
 -1       745-7.54181E+00-9.15729E+00 1.02500E+00
 -1       746-6.74380E+00-9.75992E+00 1.02500E+00
 -1       747-3.37987E+00-3.64598E+00 3.49999E-01
 -1       748-4.34032E+00-4.91782E+00 1.02500E+00
 -1       749-5.62092E+00-6.61361E+00 1.02500E+00
 -1       750-6.58137E+00-7.88545E+00 3.49999E-01
 -1       751-4.82290E+00-7.21624E+00 1.02500E+00
 -1       752-5.78335E+00-8.48808E+00 3.49999E-01
 -1       753-3.54230E+00-5.52045E+00 1.02500E+00
 -1       754-2.58185E+00-4.24861E+00 3.49999E-01
 -1       755-4.73933E+00-4.61650E+00 1.02500E+00
 -1       756-3.14329E+00-5.82177E+00 1.02500E+00
 -1       757-6.01993E+00-6.31229E+00 1.02500E+00
 -1       758-4.42389E+00-7.51756E+00 1.02500E+00
 -1       759-5.37963E+00-5.46440E+00 3.49999E-01
 -1       760-3.78359E+00-6.66966E+00 3.49999E-01
 -1       761-4.36578E-01-3.36148E+00 1.02500E+00
 -1       762-1.39840E+00-3.08782E+00 1.02500E+00
 -1       763-8.72729E-01-4.89439E+00 1.70000E+00
 -1       764-1.11873E+00-7.58607E+00 1.70000E+00
 -1       765-1.83455E+00-4.62073E+00 1.70000E+00
 -1       766-2.32656E+00-1.00041E+01 1.70000E+00
 -1       767-3.04239E+00-7.03874E+00 1.70000E+00
 -1       768-3.28839E+00-9.73040E+00 1.70000E+00
 -1       769-3.72454E+00-1.12633E+01 1.02500E+00
 -1       770-2.76271E+00-1.15370E+01 1.02500E+00
 -1       771-1.83455E+00-4.62073E+00 3.49999E-01
 -1       772-2.27070E+00-6.15363E+00 1.02500E+00
 -1       773-2.85224E+00-8.19751E+00 1.02500E+00
 -1       774-3.28839E+00-9.73040E+00 3.49999E-01
 -1       775-1.89041E+00-8.47118E+00 1.02500E+00
 -1       776-2.32656E+00-1.00041E+01 3.49999E-01
 -1       777-1.30888E+00-6.42730E+00 1.02500E+00
 -1       778-8.72729E-01-4.89439E+00 3.49999E-01
 -1       779-2.75162E+00-6.01680E+00 1.02500E+00
 -1       780-8.27966E-01-6.56413E+00 1.02500E+00
 -1       781-3.33315E+00-8.06068E+00 1.02500E+00
 -1       782-1.40950E+00-8.60801E+00 1.02500E+00
 -1       783-3.04239E+00-7.03874E+00 3.49999E-01
 -1       784-1.11873E+00-7.58607E+00 3.49999E-01
 -1       785 8.07209E-01-3.29220E+00 1.02500E+00
 -1       786-1.88525E-01-3.38446E+00 1.02500E+00
 -1       787 1.69721E+00-7.47793E+00 1.70000E+00
 -1       788 9.54260E-01-4.87915E+00 1.70000E+00
 -1       789 1.44444E+00-1.01690E+01 1.70000E+00
 -1       790 4.48703E-01-1.02612E+01 1.70000E+00
 -1       791-4.14725E-02-4.97142E+00 1.70000E+00
 -1       792-2.94252E-01-7.66247E+00 1.70000E+00
 -1       793 5.95756E-01-1.18482E+01 1.02500E+00
 -1       794 1.59149E+00-1.17559E+01 1.02500E+00
 -1       795-4.14725E-02-4.97142E+00 3.49999E-01
 -1       796 1.05580E-01-6.55837E+00 1.02500E+00
 -1       797 3.01650E-01-8.67430E+00 1.02500E+00
 -1       798 4.48703E-01-1.02612E+01 3.49999E-01
 -1       799 1.29738E+00-8.58203E+00 1.02500E+00
 -1       800 1.44444E+00-1.01690E+01 3.49999E-01
 -1       801 1.10131E+00-6.46610E+00 1.02500E+00
 -1       802 9.54260E-01-4.87915E+00 3.49999E-01
 -1       803-3.92287E-01-6.60450E+00 1.02500E+00
 -1       804 1.59918E+00-6.41996E+00 1.02500E+00
 -1       805-1.96217E-01-8.72044E+00 1.02500E+00
 -1       806 1.79525E+00-8.53590E+00 1.02500E+00
 -1       807-2.94252E-01-7.66247E+00 3.49999E-01
 -1       808 1.69721E+00-7.47793E+00 3.49999E-01
 -1       809 1.94198E+00-2.77828E+00 1.02500E+00
 -1       810 1.04681E+00-3.22402E+00 1.02500E+00
 -1       811 4.28395E+00-6.35986E+00 1.70000E+00
 -1       812 5.02036E+00-8.96052E+00 1.70000E+00
 -1       813 4.12520E+00-9.40624E+00 1.70000E+00
 -1       814 2.65237E+00-4.20495E+00 1.70000E+00
 -1       815 1.75721E+00-4.65068E+00 1.70000E+00
 -1       816 2.49362E+00-7.25134E+00 1.70000E+00
 -1       817 4.83559E+00-1.08329E+01 1.02500E+00
 -1       818 5.73075E+00-1.03872E+01 1.02500E+00
 -1       819 1.75721E+00-4.65068E+00 3.49999E-01
 -1       820 2.46761E+00-6.07735E+00 1.02500E+00
 -1       821 3.41480E+00-7.97958E+00 1.02500E+00
 -1       822 4.12520E+00-9.40624E+00 3.49999E-01
 -1       823 4.30996E+00-7.53384E+00 1.02500E+00
 -1       824 5.02036E+00-8.96052E+00 3.49999E-01
 -1       825 3.36277E+00-5.63162E+00 1.02500E+00
 -1       826 2.65237E+00-4.20495E+00 3.49999E-01
 -1       827 2.02002E+00-6.30022E+00 1.02500E+00
 -1       828 3.81035E+00-5.40875E+00 1.02500E+00
 -1       829 2.96722E+00-8.20245E+00 1.02500E+00
 -1       830 4.75754E+00-7.31097E+00 1.02500E+00
 -1       831 2.49362E+00-7.25134E+00 3.49999E-01
 -1       832 4.28395E+00-6.35986E+00 3.49999E-01
 -1       833 2.81447E+00-1.88915E+00 1.02500E+00
 -1       834 2.14078E+00-2.62816E+00 1.02500E+00
 -1       835 3.99226E+00-2.96285E+00 1.70000E+00
 -1       836 3.31857E+00-3.70186E+00 1.70000E+00
 -1       837 6.29211E+00-4.38285E+00 1.70000E+00
 -1       838 4.94472E+00-5.86087E+00 1.70000E+00
 -1       839 7.91825E+00-6.54186E+00 1.70000E+00
 -1       840 7.24455E+00-7.28087E+00 1.70000E+00
 -1       841 9.09605E+00-7.61556E+00 1.02500E+00
 -1       842 8.42235E+00-8.35457E+00 1.02500E+00
 -1       843 3.31857E+00-3.70186E+00 3.49999E-01
 -1       844 4.49637E+00-4.77556E+00 1.02500E+00
 -1       845 6.06676E+00-6.20717E+00 1.02500E+00
 -1       846 7.24455E+00-7.28087E+00 3.49999E-01
 -1       847 7.91825E+00-6.54186E+00 3.49999E-01
 -1       848 6.74046E+00-5.46816E+00 1.02500E+00
 -1       849 5.17006E+00-4.03655E+00 1.02500E+00
 -1       850 3.99226E+00-2.96285E+00 3.49999E-01
 -1       851 4.15952E+00-5.14507E+00 1.02500E+00
 -1       852 5.50691E+00-3.66705E+00 1.02500E+00
 -1       853 5.72991E+00-6.57667E+00 1.02500E+00
 -1       854 7.07730E+00-5.09865E+00 1.02500E+00
 -1       855 4.94472E+00-5.86087E+00 3.49999E-01
 -1       856 6.29211E+00-4.38285E+00 3.49999E-01
 -1       857 3.30686E+00-7.44874E-01 1.02500E+00
 -1       858 2.94561E+00-1.67735E+00 1.02500E+00
 -1       859 4.79298E+00-1.32060E+00 1.70000E+00
 -1       860 4.43174E+00-2.25307E+00 1.70000E+00
 -1       861 7.45049E+00-1.81392E+00 1.70000E+00
 -1       862 6.72800E+00-3.67886E+00 1.70000E+00
 -1       863 9.74676E+00-3.23970E+00 1.70000E+00
 -1       864 9.38548E+00-4.17217E+00 1.70000E+00
 -1       865 1.12329E+01-3.81543E+00 1.02500E+00
 -1       866 1.08716E+01-4.74790E+00 1.02500E+00
 -1       867 4.43174E+00-2.25307E+00 3.49999E-01
 -1       868 5.91787E+00-2.82880E+00 1.02500E+00
 -1       869 7.89937E+00-3.59644E+00 1.02500E+00
 -1       870 9.38548E+00-4.17217E+00 3.49999E-01
 -1       871 9.74676E+00-3.23970E+00 3.49999E-01
 -1       872 8.26062E+00-2.66397E+00 1.02500E+00
 -1       873 6.27911E+00-1.89633E+00 1.02500E+00
 -1       874 4.79298E+00-1.32060E+00 3.49999E-01
 -1       875 5.73725E+00-3.29504E+00 1.02500E+00
 -1       876 6.45973E+00-1.43010E+00 1.02500E+00
 -1       877 7.71875E+00-4.06268E+00 1.02500E+00
 -1       878 8.44124E+00-2.19773E+00 1.02500E+00
 -1       879 6.72800E+00-3.67886E+00 3.49999E-01
 -1       880 7.45049E+00-1.81392E+00 3.49999E-01
 -1       881 1.68367E+01 1.65826E+00 3.49999E-01
 -1       882 1.68367E+01 1.65826E+00-3.49999E-01
 -1       883-1.68367E+01 1.65826E+00-3.49999E-01
 -1       884-1.68367E+01 1.65826E+00 3.49999E-01
 -1       885 1.65826E+00 1.68367E+01 3.49999E-01
 -1       886 1.65826E+00 1.68367E+01-3.49999E-01
 -1       887-1.30779E+01-1.07327E+01-3.49999E-01
 -1       888-1.30779E+01-1.07327E+01 3.49999E-01
 -1       889 1.30779E+01 1.07327E+01 3.49999E-01
 -1       890 1.30779E+01 1.07327E+01-3.49999E-01
 -1       891 1.61896E+01 4.91108E+00 3.49999E-01
 -1       892 1.61896E+01 4.91108E+00-3.49999E-01
 -1       893-1.07327E+01 1.30779E+01 3.49999E-01
 -1       894-1.07327E+01 1.30779E+01-3.49999E-01
 -1       895-4.91108E+00 1.61896E+01 3.49999E-01
 -1       896-4.91108E+00 1.61896E+01-3.49999E-01
 -1       897 1.30779E+01-1.07327E+01 3.49999E-01
 -1       898 1.30779E+01-1.07327E+01-3.49999E-01
 -1       899 1.68367E+01-1.65826E+00-3.49999E-01
 -1       900 1.61896E+01-4.91108E+00-3.49999E-01
 -1       901 1.49205E+01-7.97515E+00-3.49999E-01
 -1       902 1.49205E+01 7.97515E+00-3.49999E-01
 -1       903 1.07327E+01-1.30779E+01-3.49999E-01
 -1       904 1.07327E+01 1.30779E+01-3.49999E-01
 -1       905 7.97515E+00-1.49205E+01-3.49999E-01
 -1       906 7.97515E+00 1.49205E+01-3.49999E-01
 -1       907 4.91108E+00-1.61896E+01-3.49999E-01
 -1       908 4.91108E+00 1.61896E+01-3.49999E-01
 -1       909 1.65826E+00-1.68367E+01-3.49999E-01
 -1       910-1.65826E+00-1.68367E+01-3.49999E-01
 -1       911-1.65826E+00 1.68367E+01-3.49999E-01
 -1       912-4.91108E+00-1.61896E+01-3.49999E-01
 -1       913-7.97515E+00-1.49205E+01-3.49999E-01
 -1       914-7.97515E+00 1.49205E+01-3.49999E-01
 -1       915-1.07327E+01-1.30779E+01-3.49999E-01
 -1       916-1.30779E+01 1.07327E+01-3.49999E-01
 -1       917-1.49205E+01-7.97515E+00-3.49999E-01
 -1       918-1.49205E+01 7.97515E+00-3.49999E-01
 -1       919-1.61896E+01-4.91108E+00-3.49999E-01
 -1       920-1.61896E+01 4.91108E+00-3.49999E-01
 -1       921-1.68367E+01-1.65826E+00-3.49999E-01
 -1       922 1.49205E+01 7.97515E+00 3.49999E-01
 -1       923 7.97515E+00 1.49205E+01 3.49999E-01
 -1       924 4.91108E+00 1.61896E+01 3.49999E-01
 -1       925 1.07327E+01 1.30779E+01 3.49999E-01
 -1       926-1.49205E+01 7.97515E+00 3.49999E-01
 -1       927-1.30779E+01 1.07327E+01 3.49999E-01
 -1       928-1.61896E+01 4.91108E+00 3.49999E-01
 -1       929-1.07327E+01-1.30779E+01 3.49999E-01
 -1       930-1.49205E+01-7.97515E+00 3.49999E-01
 -1       931-1.61896E+01-4.91108E+00 3.49999E-01
 -1       932-1.68367E+01-1.65826E+00 3.49999E-01
 -1       933-1.65826E+00 1.68367E+01 3.49999E-01
 -1       934-7.97515E+00 1.49205E+01 3.49999E-01
 -1       935 1.68367E+01-1.65826E+00 3.49999E-01
 -1       936 1.61896E+01-4.91108E+00 3.49999E-01
 -1       937 1.49205E+01-7.97515E+00 3.49999E-01
 -1       938 1.07327E+01-1.30779E+01 3.49999E-01
 -1       939 7.97515E+00-1.49205E+01 3.49999E-01
 -1       940 4.91108E+00-1.61896E+01 3.49999E-01
 -1       941 1.65826E+00-1.68367E+01 3.49999E-01
 -1       942-1.65826E+00-1.68367E+01 3.49999E-01
 -1       943-4.91108E+00-1.61896E+01 3.49999E-01
 -1       944-7.97515E+00-1.49205E+01 3.49999E-01
 -1       945 5.74326E+00 5.00000E-01 1.70000E+00
 -1       946 4.14951E+00 5.00000E-01 1.70000E+00
 -1       947 5.74326E+00-5.00000E-01 1.70000E+00
 -1       948 9.46200E+00 5.00000E-01 1.70000E+00
 -1       949 1.10557E+01-5.00000E-01 1.70000E+00
 -1       950 9.46200E+00-5.00000E-01 3.49999E-01
 -1       951 1.10557E+01-5.00000E-01 3.49999E-01
 -1       952 9.46200E+00 5.00000E-01 3.49999E-01
 -1       953 4.14951E+00 5.00000E-01 3.49999E-01
 -1       954 4.04992E+00 1.03274E+00 1.70000E+00
 -1       955 5.53605E+00 1.60847E+00 1.70000E+00
 -1       956 3.68867E+00 1.96521E+00 1.70000E+00
 -1       957 9.00369E+00 2.95183E+00 3.49999E-01
 -1       958 1.04898E+01 3.52757E+00 3.49999E-01
 -1       959 8.64243E+00 3.88431E+00 3.49999E-01
 -1       960 3.68867E+00 1.96521E+00 3.49999E-01
 -1       961 3.40337E+00 2.42600E+00 1.70000E+00
 -1       962 4.58116E+00 3.49970E+00 1.70000E+00
 -1       963 2.72968E+00 3.16501E+00 1.70000E+00
 -1       964 7.32936E+00 6.00501E+00 3.49999E-01
 -1       965 8.50715E+00 7.07871E+00 3.49999E-01
 -1       966 6.65566E+00 6.74402E+00 3.49999E-01
 -1       967 2.72968E+00 3.16501E+00 3.49999E-01
 -1       968 3.00757E+00 4.91828E+00 3.49999E-01
 -1       969 5.37555E+00 9.67386E+00 3.49999E-01
 -1       970 3.77000E+00 8.69291E+00 3.49999E-01
 -1       971 1.40201E+00 3.93735E+00 3.49999E-01
 -1       972 3.75176E-01 9.46778E+00 1.70000E+00
 -1       973 1.02778E+00 5.67263E+00 1.70000E+00
 -1       974-1.14999E-01 4.17794E+00 1.70000E+00
 -1       975 1.02778E+00 5.67263E+00 3.49999E-01
 -1       976 1.51796E+00 1.09624E+01 3.49999E-01
 -1       977 3.75176E-01 9.46778E+00 3.49999E-01
 -1       978-1.14999E-01 4.17794E+00 3.49999E-01
 -1       979-3.07031E+00 8.96396E+00 1.70000E+00
 -1       980-2.54464E+00 1.07705E+01 1.70000E+00
 -1       981-1.09080E+00 5.66084E+00 1.70000E+00
 -1       982-1.09080E+00 5.66084E+00 3.49999E-01
 -1       983-2.54464E+00 1.07705E+01 3.49999E-01
 -1       984-3.07031E+00 8.96396E+00 3.49999E-01
 -1       985-1.61647E+00 3.85427E+00 3.49999E-01
 -1       986-6.26358E+00 9.12400E+00 1.70000E+00
 -1       987-6.10114E+00 7.24953E+00 1.70000E+00
 -1       988-3.06207E+00 4.88453E+00 1.70000E+00
 -1       989-2.89965E+00 3.01006E+00 1.70000E+00
 -1       990-3.06207E+00 4.88453E+00 3.49999E-01
 -1       991-5.30312E+00 7.85216E+00 3.49999E-01
 -1       992-6.26358E+00 9.12400E+00 3.49999E-01
 -1       993-6.10114E+00 7.24953E+00 3.49999E-01
 -1       994-2.89965E+00 3.01006E+00 3.49999E-01
 -1       995-3.26477E+00 2.60954E+00 1.70000E+00
 -1       996-4.61980E+00 3.44854E+00 1.70000E+00
 -1       997-3.79120E+00 1.75932E+00 1.70000E+00
 -1       998-4.61980E+00 3.44854E+00 3.49999E-01
 -1       999-9.13657E+00 6.24521E+00 3.49999E-01
 -1      1000-8.30797E+00 4.55600E+00 3.49999E-01
 -1      1001-3.79120E+00 1.75932E+00 3.49999E-01
 -1      1002-9.39278E+00 1.24715E+00 1.70000E+00
 -1      1003-3.98698E+00 1.25396E+00 1.70000E+00
 -1      1004-5.55359E+00 1.54681E+00 1.70000E+00
 -1      1005-4.17073E+00 2.70983E-01 1.70000E+00
 -1      1006-5.55359E+00 1.54681E+00 3.49999E-01
 -1      1007-1.07756E+01 2.52297E+00 3.49999E-01
 -1      1008-9.39278E+00 1.24715E+00 3.49999E-01
 -1      1009-4.17073E+00 2.70983E-01 3.49999E-01
 -1      1010-3.98698E+00-1.25396E+00 1.70000E+00
 -1      1011-5.73734E+00-5.63834E-01 1.70000E+00
 -1      1012-1.09594E+01-1.54000E+00 1.70000E+00
 -1      1013-5.73734E+00-5.63834E-01 3.49999E-01
 -1      1014-1.09594E+01-1.54000E+00 3.49999E-01
 -1      1015-9.20901E+00-2.23012E+00 3.49999E-01
 -1      1016-3.98698E+00-1.25396E+00 3.49999E-01
 -1      1017-4.61980E+00-3.44854E+00 1.70000E+00
 -1      1018-3.26477E+00-2.60954E+00 1.70000E+00
 -1      1019-5.14623E+00-2.59833E+00 1.70000E+00
 -1      1020-5.14623E+00-2.59833E+00 3.49999E-01
 -1      1021-9.66299E+00-5.39500E+00 3.49999E-01
 -1      1022-7.78155E+00-5.40621E+00 3.49999E-01
 -1      1023-3.26477E+00-2.60954E+00 3.49999E-01
 -1      1024-2.10162E+00-3.61269E+00 1.70000E+00
 -1      1025-3.86010E+00-4.28190E+00 1.70000E+00
 -1      1026-7.06159E+00-8.52137E+00 1.70000E+00
 -1      1027-3.86010E+00-4.28190E+00 3.49999E-01
 -1      1028-7.06159E+00-8.52137E+00 3.49999E-01
 -1      1029-5.30312E+00-7.85216E+00 3.49999E-01
 -1      1030-2.10162E+00-3.61269E+00 3.49999E-01
 -1      1031-1.09080E+00-5.66084E+00 1.70000E+00
 -1      1032-6.54653E-01-4.12793E+00 1.70000E+00
 -1      1033-2.05262E+00-5.38718E+00 3.49999E-01
 -1      1034-3.50646E+00-1.04969E+01 3.49999E-01
 -1      1035-2.10848E+00-9.23763E+00 3.49999E-01
 -1      1036-6.54653E-01-4.12793E+00 3.49999E-01
 -1      1037 1.37091E+00-9.37550E+00 1.70000E+00
 -1      1038 5.22229E-01-1.10547E+01 1.70000E+00
 -1      1039 3.20538E-02-5.76489E+00 1.70000E+00
 -1      1040 3.20538E-02-5.76489E+00 3.49999E-01
 -1      1041 5.22229E-01-1.10547E+01 3.49999E-01
 -1      1042 1.37091E+00-9.37550E+00 3.49999E-01
 -1      1043 8.80734E-01-4.08567E+00 3.49999E-01
 -1      1044 2.11241E+00-5.36402E+00 1.70000E+00
 -1      1045 2.11241E+00-5.36402E+00 3.49999E-01
 -1      1046 3.77000E+00-8.69291E+00 3.49999E-01
 -1      1047 4.48039E+00-1.01196E+01 3.49999E-01
 -1      1048 4.66516E+00-8.24718E+00 3.49999E-01
 -1      1049 2.29718E+00-3.49162E+00 3.49999E-01
 -1      1050 4.58116E+00-3.49970E+00 1.70000E+00
 -1      1051 3.40337E+00-2.42600E+00 1.70000E+00
 -1      1052 3.90747E+00-4.23871E+00 1.70000E+00
 -1      1053 7.32936E+00-6.00501E+00 1.70000E+00
 -1      1054 7.83345E+00-7.81772E+00 1.70000E+00
 -1      1055 6.65566E+00-6.74402E+00 3.49999E-01
 -1      1056 7.83345E+00-7.81772E+00 3.49999E-01
 -1      1057 7.32936E+00-6.00501E+00 3.49999E-01
 -1      1058 3.40337E+00-2.42600E+00 3.49999E-01
 -1      1059 4.04992E+00-1.03274E+00 1.70000E+00
 -1      1060 5.17481E+00-2.54094E+00 1.70000E+00
 -1      1061 9.00369E+00-2.95183E+00 1.70000E+00
 -1      1062 1.01285E+01-4.46003E+00 1.70000E+00
 -1      1063 8.64243E+00-3.88431E+00 3.49999E-01
 -1      1064 1.01285E+01-4.46003E+00 3.49999E-01
 -1      1065 9.00369E+00-2.95183E+00 3.49999E-01
 -1      1066 4.04992E+00-1.03274E+00 3.49999E-01
 -1      1067 1.69183E+01 8.29132E-01 3.49999E-01
 -1      1068-1.69183E+01 8.29132E-01-3.49999E-01
 -1      1069 2.48740E+00 1.67550E+01 3.49999E-01
 -1      1070 1.36065E+01 1.00887E+01 3.49999E-01
 -1      1071 1.64315E+01 4.11380E+00 3.49999E-01
 -1      1072 1.59478E+01 5.70835E+00-3.49999E-01
 -1      1073-1.00887E+01 1.36065E+01 3.49999E-01
 -1      1074 1.67550E+01-2.48740E+00-3.49999E-01
 -1      1075 1.59478E+01-5.70835E+00-3.49999E-01
 -1      1076 1.45278E+01-8.70992E+00-3.49999E-01
 -1      1077 1.45278E+01 8.70992E+00-3.49999E-01
 -1      1078 1.53132E+01 7.24039E+00-3.49999E-01
 -1      1079 1.13768E+01-1.25493E+01-3.49999E-01
 -1      1080 1.00887E+01-1.36065E+01-3.49999E-01
 -1      1081 1.13768E+01 1.25493E+01-3.49999E-01
 -1      1082 7.24039E+00-1.53132E+01-3.49999E-01
 -1      1083 8.70992E+00 1.45278E+01-3.49999E-01
 -1      1084 4.11380E+00-1.64315E+01-3.49999E-01
 -1      1085 4.11380E+00 1.64315E+01-3.49999E-01
 -1      1086 5.70835E+00 1.59478E+01-3.49999E-01
 -1      1087 8.29132E-01-1.69183E+01-3.49999E-01
 -1      1088-2.48740E+00-1.67550E+01-3.49999E-01
 -1      1089-2.48740E+00 1.67550E+01-3.49999E-01
 -1      1090-8.29132E-01 1.69183E+01-3.49999E-01
 -1      1091-5.70835E+00-1.59478E+01-3.49999E-01
 -1      1092-8.70992E+00-1.45278E+01-3.49999E-01
 -1      1093-8.70992E+00 1.45278E+01-3.49999E-01
 -1      1094-7.24039E+00 1.53132E+01-3.49999E-01
 -1      1095-1.13768E+01-1.25493E+01-3.49999E-01
 -1      1096-1.36065E+01 1.00887E+01-3.49999E-01
 -1      1097-1.25493E+01 1.13768E+01-3.49999E-01
 -1      1098-1.53132E+01-7.24039E+00-3.49999E-01
 -1      1099-1.45278E+01 8.70992E+00-3.49999E-01
 -1      1100-1.64315E+01-4.11380E+00-3.49999E-01
 -1      1101-1.59478E+01 5.70835E+00-3.49999E-01
 -1      1102-1.69183E+01-8.29132E-01-3.49999E-01
 -1      1103 1.53132E+01 7.24039E+00 3.49999E-01
 -1      1104 8.70992E+00 1.45278E+01 3.49999E-01
 -1      1105 1.13768E+01 1.25493E+01 3.49999E-01
 -1      1106-1.25493E+01 1.13768E+01 3.49999E-01
 -1      1107-1.59478E+01 5.70835E+00 3.49999E-01
 -1      1108-1.00887E+01-1.36065E+01 3.49999E-01
 -1      1109-1.45278E+01-8.70992E+00 3.49999E-01
 -1      1110-1.59478E+01-5.70835E+00 3.49999E-01
 -1      1111-1.67550E+01-2.48740E+00 3.49999E-01
 -1      1112-2.48740E+00 1.67550E+01 3.49999E-01
 -1      1113-8.70992E+00 1.45278E+01 3.49999E-01
 -1      1114 1.69183E+01-8.29132E-01 3.49999E-01
 -1      1115 1.64315E+01-4.11380E+00 3.49999E-01
 -1      1116 1.53132E+01-7.24039E+00 3.49999E-01
 -1      1117 1.13768E+01-1.25493E+01 3.49999E-01
 -1      1118 8.70992E+00-1.45278E+01 3.49999E-01
 -1      1119 5.70835E+00-1.59478E+01 3.49999E-01
 -1      1120 2.48740E+00-1.67550E+01 3.49999E-01
 -1      1121-8.29132E-01-1.69183E+01 3.49999E-01
 -1      1122-4.11380E+00-1.64315E+01 3.49999E-01
 -1      1123-7.24039E+00-1.53132E+01 3.49999E-01
 -1      1124 4.14951E+00-5.00000E-01 1.70000E+00
 -1      1125 1.10557E+01 5.00000E-01 1.70000E+00
 -1      1126 9.46200E+00-5.00000E-01 1.70000E+00
 -1      1127 5.74326E+00-5.00000E-01 3.49999E-01
 -1      1128 4.14951E+00-5.00000E-01 3.49999E-01
 -1      1129 1.10557E+01 5.00000E-01 3.49999E-01
 -1      1130 5.74326E+00 5.00000E-01 3.49999E-01
 -1      1131 1.04898E+01 3.52757E+00 1.70000E+00
 -1      1132 9.00369E+00 2.95183E+00 1.70000E+00
 -1      1133 8.64243E+00 3.88431E+00 1.70000E+00
 -1      1134 1.01285E+01 4.46003E+00 1.70000E+00
 -1      1135 5.17481E+00 2.54094E+00 1.70000E+00
 -1      1136 5.53605E+00 1.60847E+00 3.49999E-01
 -1      1137 4.04992E+00 1.03274E+00 3.49999E-01
 -1      1138 1.01285E+01 4.46003E+00 3.49999E-01
 -1      1139 5.17481E+00 2.54094E+00 3.49999E-01
 -1      1140 8.50715E+00 7.07871E+00 1.70000E+00
 -1      1141 7.32936E+00 6.00501E+00 1.70000E+00
 -1      1142 6.65566E+00 6.74402E+00 1.70000E+00
 -1      1143 7.83345E+00 7.81772E+00 1.70000E+00
 -1      1144 3.90747E+00 4.23871E+00 1.70000E+00
 -1      1145 4.58116E+00 3.49970E+00 3.49999E-01
 -1      1146 3.40337E+00 2.42600E+00 3.49999E-01
 -1      1147 7.83345E+00 7.81772E+00 3.49999E-01
 -1      1148 3.90747E+00 4.23871E+00 3.49999E-01
 -1      1149 5.37555E+00 9.67386E+00 1.70000E+00
 -1      1150 4.66516E+00 8.24718E+00 1.70000E+00
 -1      1151 3.77000E+00 8.69291E+00 1.70000E+00
 -1      1152 4.48039E+00 1.01196E+01 1.70000E+00
 -1      1153 1.40201E+00 3.93735E+00 1.70000E+00
 -1      1154 3.00757E+00 4.91828E+00 1.70000E+00
 -1      1155 2.29718E+00 3.49162E+00 1.70000E+00
 -1      1156 2.11241E+00 5.36402E+00 1.70000E+00
 -1      1157 2.29718E+00 3.49162E+00 3.49999E-01
 -1      1158 4.66516E+00 8.24718E+00 3.49999E-01
 -1      1159 4.48039E+00 1.01196E+01 3.49999E-01
 -1      1160 2.11241E+00 5.36402E+00 3.49999E-01
 -1      1161 1.51796E+00 1.09624E+01 1.70000E+00
 -1      1162 1.37091E+00 9.37550E+00 1.70000E+00
 -1      1163 5.22229E-01 1.10547E+01 1.70000E+00
 -1      1164 8.80734E-01 4.08567E+00 1.70000E+00
 -1      1165 3.20538E-02 5.76489E+00 1.70000E+00
 -1      1166 8.80734E-01 4.08567E+00 3.49999E-01
 -1      1167 1.37091E+00 9.37550E+00 3.49999E-01
 -1      1168 5.22229E-01 1.10547E+01 3.49999E-01
 -1      1169 3.20538E-02 5.76489E+00 3.49999E-01
 -1      1170-3.50646E+00 1.04969E+01 1.70000E+00
 -1      1171-1.61647E+00 3.85427E+00 1.70000E+00
 -1      1172-2.05262E+00 5.38718E+00 1.70000E+00
 -1      1173-2.10848E+00 9.23763E+00 1.70000E+00
 -1      1174-6.54653E-01 4.12793E+00 1.70000E+00
 -1      1175-6.54653E-01 4.12793E+00 3.49999E-01
 -1      1176-2.10848E+00 9.23763E+00 3.49999E-01
 -1      1177-3.50646E+00 1.04969E+01 3.49999E-01
 -1      1178-2.05262E+00 5.38718E+00 3.49999E-01
 -1      1179-5.30312E+00 7.85216E+00 1.70000E+00
 -1      1180-7.06159E+00 8.52137E+00 1.70000E+00
 -1      1181-2.10162E+00 3.61269E+00 1.70000E+00
 -1      1182-3.86010E+00 4.28190E+00 1.70000E+00
 -1      1183-2.10162E+00 3.61269E+00 3.49999E-01
 -1      1184-7.06159E+00 8.52137E+00 3.49999E-01
 -1      1185-3.86010E+00 4.28190E+00 3.49999E-01
 -1      1186-9.13657E+00 6.24521E+00 1.70000E+00
 -1      1187-7.78155E+00 5.40621E+00 1.70000E+00
 -1      1188-8.30797E+00 4.55600E+00 1.70000E+00
 -1      1189-9.66299E+00 5.39500E+00 1.70000E+00
 -1      1190-5.14623E+00 2.59833E+00 1.70000E+00
 -1      1191-3.26477E+00 2.60954E+00 3.49999E-01
 -1      1192-7.78155E+00 5.40621E+00 3.49999E-01
 -1      1193-9.66299E+00 5.39500E+00 3.49999E-01
 -1      1194-5.14623E+00 2.59833E+00 3.49999E-01
 -1      1195-1.07756E+01 2.52297E+00 1.70000E+00
 -1      1196-9.20901E+00 2.23012E+00 1.70000E+00
 -1      1197-1.09594E+01 1.54000E+00 1.70000E+00
 -1      1198-5.73734E+00 5.63834E-01 1.70000E+00
 -1      1199-3.98698E+00 1.25396E+00 3.49999E-01
 -1      1200-9.20901E+00 2.23012E+00 3.49999E-01
 -1      1201-1.09594E+01 1.54000E+00 3.49999E-01
 -1      1202-5.73734E+00 5.63834E-01 3.49999E-01
 -1      1203-5.55359E+00-1.54681E+00 1.70000E+00
 -1      1204-4.17073E+00-2.70983E-01 1.70000E+00
 -1      1205-9.20901E+00-2.23012E+00 1.70000E+00
 -1      1206-1.07756E+01-2.52297E+00 1.70000E+00
 -1      1207-9.39278E+00-1.24715E+00 1.70000E+00
 -1      1208-4.17073E+00-2.70983E-01 3.49999E-01
 -1      1209-9.39278E+00-1.24715E+00 3.49999E-01
 -1      1210-1.07756E+01-2.52297E+00 3.49999E-01
 -1      1211-5.55359E+00-1.54681E+00 3.49999E-01
 -1      1212-3.79120E+00-1.75932E+00 1.70000E+00
 -1      1213-9.66299E+00-5.39500E+00 1.70000E+00
 -1      1214-7.78155E+00-5.40621E+00 1.70000E+00
 -1      1215-9.13657E+00-6.24521E+00 1.70000E+00
 -1      1216-8.30797E+00-4.55600E+00 1.70000E+00
 -1      1217-3.79120E+00-1.75932E+00 3.49999E-01
 -1      1218-8.30797E+00-4.55600E+00 3.49999E-01
 -1      1219-9.13657E+00-6.24521E+00 3.49999E-01
 -1      1220-4.61980E+00-3.44854E+00 3.49999E-01
 -1      1221-3.06207E+00-4.88453E+00 1.70000E+00
 -1      1222-2.89965E+00-3.01006E+00 1.70000E+00
 -1      1223-5.30312E+00-7.85216E+00 1.70000E+00
 -1      1224-6.26358E+00-9.12400E+00 1.70000E+00
 -1      1225-6.10114E+00-7.24953E+00 1.70000E+00
 -1      1226-2.89965E+00-3.01006E+00 3.49999E-01
 -1      1227-6.10114E+00-7.24953E+00 3.49999E-01
 -1      1228-6.26358E+00-9.12400E+00 3.49999E-01
 -1      1229-3.06207E+00-4.88453E+00 3.49999E-01
 -1      1230-2.05262E+00-5.38718E+00 1.70000E+00
 -1      1231-1.61647E+00-3.85427E+00 1.70000E+00
 -1      1232-2.10848E+00-9.23763E+00 1.70000E+00
 -1      1233-2.54464E+00-1.07705E+01 1.70000E+00
 -1      1234-3.50646E+00-1.04969E+01 1.70000E+00
 -1      1235-3.07031E+00-8.96396E+00 1.70000E+00
 -1      1236-1.61647E+00-3.85427E+00 3.49999E-01
 -1      1237-3.07031E+00-8.96396E+00 3.49999E-01
 -1      1238-2.54464E+00-1.07705E+01 3.49999E-01
 -1      1239-1.09080E+00-5.66084E+00 3.49999E-01
 -1      1240 8.80734E-01-4.08567E+00 1.70000E+00
 -1      1241 1.02778E+00-5.67263E+00 1.70000E+00
 -1      1242 1.51796E+00-1.09624E+01 1.70000E+00
 -1      1243 3.75176E-01-9.46778E+00 1.70000E+00
 -1      1244-1.14999E-01-4.17794E+00 1.70000E+00
 -1      1245-1.14999E-01-4.17794E+00 3.49999E-01
 -1      1246 3.75176E-01-9.46778E+00 3.49999E-01
 -1      1247 1.51796E+00-1.09624E+01 3.49999E-01
 -1      1248 1.02778E+00-5.67263E+00 3.49999E-01
 -1      1249 4.66516E+00-8.24718E+00 1.70000E+00
 -1      1250 5.37555E+00-9.67386E+00 1.70000E+00
 -1      1251 4.48039E+00-1.01196E+01 1.70000E+00
 -1      1252 3.77000E+00-8.69291E+00 1.70000E+00
 -1      1253 2.29718E+00-3.49162E+00 1.70000E+00
 -1      1254 3.00757E+00-4.91828E+00 1.70000E+00
 -1      1255 1.40201E+00-3.93735E+00 1.70000E+00
 -1      1256 1.40201E+00-3.93735E+00 3.49999E-01
 -1      1257 5.37555E+00-9.67386E+00 3.49999E-01
 -1      1258 3.00757E+00-4.91828E+00 3.49999E-01
 -1      1259 2.72968E+00-3.16501E+00 1.70000E+00
 -1      1260 8.50715E+00-7.07871E+00 1.70000E+00
 -1      1261 6.65566E+00-6.74402E+00 1.70000E+00
 -1      1262 3.90747E+00-4.23871E+00 3.49999E-01
 -1      1263 2.72968E+00-3.16501E+00 3.49999E-01
 -1      1264 8.50715E+00-7.07871E+00 3.49999E-01
 -1      1265 4.58116E+00-3.49970E+00 3.49999E-01
 -1      1266 5.53605E+00-1.60847E+00 1.70000E+00
 -1      1267 3.68867E+00-1.96521E+00 1.70000E+00
 -1      1268 1.04898E+01-3.52757E+00 1.70000E+00
 -1      1269 8.64243E+00-3.88431E+00 1.70000E+00
 -1      1270 5.17481E+00-2.54094E+00 3.49999E-01
 -1      1271 3.68867E+00-1.96521E+00 3.49999E-01
 -1      1272 1.04898E+01-3.52757E+00 3.49999E-01
 -1      1273 5.53605E+00-1.60847E+00 3.49999E-01
 -1      1274 1.67550E+01 2.48740E+00 3.49999E-01
 -1      1275 1.67550E+01 2.48740E+00-3.49999E-01
 -1      1276 1.69183E+01 8.29132E-01-3.49999E-01
 -1      1277-1.67550E+01 2.48740E+00-3.49999E-01
 -1      1278-1.67550E+01 2.48740E+00 3.49999E-01
 -1      1279-1.69183E+01 8.29132E-01 3.49999E-01
 -1      1280 8.29132E-01 1.69183E+01 3.49999E-01
 -1      1281 8.29132E-01 1.69183E+01-3.49999E-01
 -1      1282 2.48740E+00 1.67550E+01-3.49999E-01
 -1      1283-1.25493E+01-1.13768E+01-3.49999E-01
 -1      1284-1.36065E+01-1.00887E+01-3.49999E-01
 -1      1285-1.36065E+01-1.00887E+01 3.49999E-01
 -1      1286-1.25493E+01-1.13768E+01 3.49999E-01
 -1      1287 1.25493E+01 1.13768E+01 3.49999E-01
 -1      1288 1.25493E+01 1.13768E+01-3.49999E-01
 -1      1289 1.36065E+01 1.00887E+01-3.49999E-01
 -1      1290 1.59478E+01 5.70835E+00 3.49999E-01
 -1      1291 1.64315E+01 4.11380E+00-3.49999E-01
 -1      1292-1.13768E+01 1.25493E+01 3.49999E-01
 -1      1293-1.13768E+01 1.25493E+01-3.49999E-01
 -1      1294-1.00887E+01 1.36065E+01-3.49999E-01
 -1      1295-4.11380E+00 1.64315E+01 3.49999E-01
 -1      1296-5.70835E+00 1.59478E+01 3.49999E-01
 -1      1297-5.70835E+00 1.59478E+01-3.49999E-01
 -1      1298-4.11380E+00 1.64315E+01-3.49999E-01
 -1      1299 1.25493E+01-1.13768E+01 3.49999E-01
 -1      1300 1.36065E+01-1.00887E+01 3.49999E-01
 -1      1301 1.36065E+01-1.00887E+01-3.49999E-01
 -1      1302 1.25493E+01-1.13768E+01-3.49999E-01
 -1      1303 1.69183E+01-8.29132E-01-3.49999E-01
 -1      1304 1.64315E+01-4.11380E+00-3.49999E-01
 -1      1305 1.53132E+01-7.24039E+00-3.49999E-01
 -1      1306 1.00887E+01 1.36065E+01-3.49999E-01
 -1      1307 8.70992E+00-1.45278E+01-3.49999E-01
 -1      1308 7.24039E+00 1.53132E+01-3.49999E-01
 -1      1309 5.70835E+00-1.59478E+01-3.49999E-01
 -1      1310 2.48740E+00-1.67550E+01-3.49999E-01
 -1      1311-8.29132E-01-1.69183E+01-3.49999E-01
 -1      1312-4.11380E+00-1.64315E+01-3.49999E-01
 -1      1313-7.24039E+00-1.53132E+01-3.49999E-01
 -1      1314-1.00887E+01-1.36065E+01-3.49999E-01
 -1      1315-1.45278E+01-8.70992E+00-3.49999E-01
 -1      1316-1.53132E+01 7.24039E+00-3.49999E-01
 -1      1317-1.59478E+01-5.70835E+00-3.49999E-01
 -1      1318-1.64315E+01 4.11380E+00-3.49999E-01
 -1      1319-1.67550E+01-2.48740E+00-3.49999E-01
 -1      1320 1.45278E+01 8.70992E+00 3.49999E-01
 -1      1321 7.24039E+00 1.53132E+01 3.49999E-01
 -1      1322 5.70835E+00 1.59478E+01 3.49999E-01
 -1      1323 4.11380E+00 1.64315E+01 3.49999E-01
 -1      1324 1.00887E+01 1.36065E+01 3.49999E-01
 -1      1325-1.45278E+01 8.70992E+00 3.49999E-01
 -1      1326-1.53132E+01 7.24039E+00 3.49999E-01
 -1      1327-1.36065E+01 1.00887E+01 3.49999E-01
 -1      1328-1.64315E+01 4.11380E+00 3.49999E-01
 -1      1329-1.13768E+01-1.25493E+01 3.49999E-01
 -1      1330-1.53132E+01-7.24039E+00 3.49999E-01
 -1      1331-1.64315E+01-4.11380E+00 3.49999E-01
 -1      1332-1.69183E+01-8.29132E-01 3.49999E-01
 -1      1333-8.29132E-01 1.69183E+01 3.49999E-01
 -1      1334-7.24039E+00 1.53132E+01 3.49999E-01
 -1      1335 1.67550E+01-2.48740E+00 3.49999E-01
 -1      1336 1.59478E+01-5.70835E+00 3.49999E-01
 -1      1337 1.45278E+01-8.70992E+00 3.49999E-01
 -1      1338 1.00887E+01-1.36065E+01 3.49999E-01
 -1      1339 7.24039E+00-1.53132E+01 3.49999E-01
 -1      1340 4.11380E+00-1.64315E+01 3.49999E-01
 -1      1341 8.29132E-01-1.69183E+01 3.49999E-01
 -1      1342-2.48740E+00-1.67550E+01 3.49999E-01
 -1      1343-5.70835E+00-1.59478E+01 3.49999E-01
 -1      1344-8.70992E+00-1.45278E+01 3.49999E-01
 -1      1345 4.52074E+00 6.83541E+00 3.49999E-01
 -1      1346-3.77907E+00-1.97771E-01 3.49999E-01
 -1      1347-3.70763E+00 1.84416E-01 3.49999E-01
 -1      1348-3.45244E+00-1.54957E+00 3.49999E-01
 -1      1349-3.52388E+00-1.16739E+00 3.49999E-01
 -1      1350 3.31714E+00-1.82128E+00 3.49999E-01
 -1      1351 3.05521E+00-2.10861E+00 3.49999E-01
 -1      1352 3.67839E+00 8.88806E-01 3.49999E-01
 -1      1353 3.67839E+00 5.00000E-01 3.49999E-01
 -1      1354 3.10892E+00 2.15757E+00 3.49999E-01
 -1      1355 3.24937E+00 1.79503E+00 3.49999E-01
 -1      1356-5.45616E-01 3.74471E+00 3.49999E-01
 -1      1357-1.58468E-01 3.70883E+00 3.49999E-01
 -1      1358 2.43523E+00 2.89658E+00 3.49999E-01
 -1      1359 2.08718E+00 3.06989E+00 3.49999E-01
 -1      1360-1.50744E+00 3.47105E+00 3.49999E-01
 -1      1361-1.81772E+00 3.23673E+00 3.49999E-01
 -1      1362-1.50744E+00-3.47105E+00 3.49999E-01
 -1      1363-1.81772E+00-3.23673E+00 3.49999E-01
 -1      1364 8.43972E-01-3.68894E+00 3.49999E-01
 -1      1365 1.19202E+00-3.51563E+00 3.49999E-01
 -1      1366-3.45244E+00 1.54957E+00 3.49999E-01
 -1      1367-3.52388E+00 1.16739E+00 3.49999E-01
 -1      1368-2.92601E+00-2.39979E+00 3.49999E-01
 -1      1369-2.61573E+00-2.63410E+00 3.49999E-01
 -1      1370-5.45616E-01-3.74471E+00 3.49999E-01
 -1      1371-1.58468E-01-3.70883E+00 3.49999E-01
 -1      1372 2.43523E+00-2.89658E+00 3.49999E-01
 -1      1373 2.08718E+00-3.06989E+00 3.49999E-01
 -1      1374 1.43639E+01 9.96096E-01 3.49999E-01
 -1      1375 2.64900E+00 1.41462E+01 3.49999E-01
 -1      1376 5.14112E+00 1.34127E+01 3.49999E-01
 -1      1377 1.44726E-03 7.61458E-04-3.49999E-01
 -1      1378-3.93205E+00 1.38194E+01 3.49999E-01
 -1      1379 1.38437E+01 3.76420E+00 3.49999E-01
 -1      1380 1.50503E+01 2.55803E+00 3.49999E-01
 -1      1381-4.87957E+00 1.17803E+01-3.49999E-01
 -1      1382 1.27506E+01-0.00000E+00-3.49999E-01
 -1      1383-8.45847E+00 4.14370E-01-3.49999E-01
 -1      1384 1.06013E+01 7.08348E+00-3.49999E-01
 -1      1385-8.15667E+00 1.19089E+01 3.49999E-01
 -1      1386-1.42905E+01 1.82604E+00 3.49999E-01
 -1      1387-1.25040E+01-2.48724E+00-3.49999E-01
 -1      1388 1.13797E+01 8.80017E+00 3.49999E-01
 -1      1389 6.72200E+00 1.00603E+01-3.49999E-01
 -1      1390-1.06013E+01 7.08348E+00-3.49999E-01
 -1      1391-1.42905E+01-1.82604E+00 3.49999E-01
 -1      1392 1.54866E+00 1.14746E+01-3.49999E-01
 -1      1393-1.22227E+01-7.56795E+00 3.49999E-01
 -1      1394-8.15667E+00-1.19089E+01 3.49999E-01
 -1      1395-5.88596E+00 1.36630E+01-3.49999E-01
 -1      1396-1.35139E+01-4.53478E+00 3.49999E-01
 -1      1397 3.47485E+00 1.23517E+01 3.49999E-01
 -1      1398-8.20073E+00 1.06493E+01-3.49999E-01
 -1      1399-1.28839E+01-5.46948E+00-3.49999E-01
 -1      1400-1.49360E-05 0.00000E+00 3.49999E-01
 -1      1401 9.90722E+00 6.13429E+00 3.49999E-01
 -1      1402-1.35139E+01 4.53478E+00 3.49999E-01
 -1      1403-1.50299E+01-0.00000E+00 3.49999E-01
 -1      1404 1.38437E+01-3.76420E+00 3.49999E-01
 -1      1405 1.17873E+01-8.05686E+00 3.49999E-01
 -1      1406-1.16624E+01 4.51804E+00 3.49999E-01
 -1      1407 1.37035E+01 2.85105E+00-3.49999E-01
 -1      1408-1.03268E+00-1.36748E+00 3.49999E-01
 -1      1409 1.52397E+01 2.75672E+00-3.49999E-01
 -1      1410 8.06088E+00-1.17922E+01 3.49999E-01
 -1      1411 1.06013E+01-7.08348E+00-3.49999E-01
 -1      1412 1.01352E+01-1.02725E+01 3.49999E-01
 -1      1413 2.64900E+00-1.41462E+01 3.49999E-01
 -1      1414-9.74260E-01-1.41423E+01 3.49999E-01
 -1      1415-1.48467E+01 3.45123E+00 3.49999E-01
 -1      1416-1.30975E+01 2.80233E-01 3.49999E-01
 -1      1417-1.02264E+01 3.96172E+00 3.49999E-01
 -1      1418-8.16602E+00 1.26265E+01-3.49999E-01
 -1      1419 1.09410E+01-9.51793E+00-3.49999E-01
 -1      1420 1.26636E+00 1.15445E+00 3.49999E-01
 -1      1421-4.68950E-01 1.64819E+00 3.49999E-01
 -1      1422-1.29804E+01 6.46580E+00-3.49999E-01
 -1      1423-4.57452E+00-7.13141E+00-3.49999E-01
 -1      1424-1.21706E-01 1.39862E+01-3.49999E-01
 -1      1425 7.02226E+00 9.29898E+00 3.49999E-01
 -1      1426-7.28198E+00 1.37079E+01-3.49999E-01
 -1      1427 1.28048E+01 7.31661E+00-3.49999E-01
 -1      1428-2.91357E+00 1.39096E+01-3.49999E-01
 -1      1429 9.81005E+00 9.98369E+00-3.49999E-01
 -1      1430-7.70773E+00-1.00486E+01-3.49999E-01
 -1      1431 5.06893E+00 3.88997E+00-3.49999E-01
 -1      1432-5.90181E+00 1.18524E+01 3.49999E-01
 -1      1433-1.46295E+01-1.85944E+00-3.49999E-01
 -1      1434-1.44753E+01-4.82640E+00-3.49999E-01
 -1      1435-1.24289E+01 2.16272E+00-3.49999E-01
 -1      1436 4.10387E+00-9.23121E+00-3.49999E-01
 -1      1437 1.17274E+01 9.12173E+00-3.49999E-01
 -1      1438 2.27031E+00 1.28847E+01 3.49999E-01
 -1      1439-1.49398E+01-4.09667E+00 3.49999E-01
 -1      1440-6.75067E+00 1.35134E+01 3.49999E-01
 -1      1441-5.62124E+00-1.31678E+01 3.49999E-01
 -1      1442 9.68576E+00-1.18346E+01 3.49999E-01
 -1      1443-1.53643E+01-2.74714E+00 3.49999E-01
 -1      1444-1.12021E+01 4.50686E+00-3.49999E-01
 -1      1445 8.37857E-01-1.36982E+01 3.49999E-01
 -1      1446 6.06275E-01 2.13086E+00 3.49999E-01
 -1      1447 1.07231E+01-1.10963E+01-3.49999E-01
 -1      1448-5.70654E+00 1.45067E+01 3.49999E-01
 -1      1449 1.30114E+01-5.53762E+00-3.49999E-01
 -1      1450 1.03252E+01 8.56621E+00-3.49999E-01
 -1      1451-9.66450E+00-1.11196E+01-3.49999E-01
 -1      1452-1.10275E+01-9.58887E+00 3.49999E-01
 -1      1453 1.36902E+01 5.17159E+00-3.49999E-01
 -1      1454-1.11498E+01-1.07671E+01-3.49999E-01
 -1      1455 5.25698E+00-1.24863E+01-3.49999E-01
 -1      1456-1.52810E+01-2.49256E-01-3.49999E-01
 -1      1457-1.53642E+01-4.22541E+00-3.49999E-01
 -1      1458-1.68443E+00 3.14873E-01 3.49999E-01
 -1      1459 3.88002E+00-1.42255E+01-3.49999E-01
 -1      1460 1.25191E+01-8.65745E+00-3.49999E-01
 -1      1461 8.31312E+00 1.19209E+01-3.49999E-01
 -1      1462 4.17504E+00 1.47307E+01 3.49999E-01
 -1      1463-1.25067E+01 7.15727E+00 3.49999E-01
 -1      1464-1.36603E+01-6.38852E+00 3.49999E-01
 -1      1465 1.06458E+01-6.59158E+00 3.49999E-01
 -1      1466 1.25098E+01 2.33847E+00 3.49999E-01
 -1      1467 1.31893E+01-6.08958E+00 3.49999E-01
 -1      1468 5.36322E+00-1.33748E+01 3.49999E-01
 -1      1469 7.50262E+00-9.84748E+00-3.49999E-01
 -1      1470-1.14922E+01 0.00000E+00 3.49999E-01
 -1      1471-4.90551E+00 1.47361E+01-3.49999E-01
 -1      1472-1.40805E+01 6.10909E+00 3.49999E-01
 -1      1473-1.41042E+01-3.31962E+00-3.49999E-01
 -1      1474 1.25356E+01 3.65121E+00 3.49999E-01
 -1      1475-5.16171E+00 1.03661E+01 3.49999E-01
 -1      1476 1.25098E+01-2.33847E+00 3.49999E-01
 -1      1477-1.92818E+00 6.10220E+00-3.49999E-01
 -1      1478 3.08203E+00 1.08322E+01 3.49999E-01
 -1      1479-1.27486E+01-3.97140E+00-3.49999E-01
 -1      1480 1.96688E+00-1.30189E+01 3.49999E-01
 -1      1481 1.28630E+01 6.40301E+00 3.49999E-01
 -1      1482 7.83808E+00 1.20130E+01 3.49999E-01
 -1      1483 1.87315E+00-1.47687E+01-3.49999E-01
 -1      1484-9.58510E-01-1.39824E+01-3.49999E-01
 -1      1485-1.01776E+01 9.96919E+00 3.49999E-01
 -1      1486-1.55322E+01-1.26611E+00 3.49999E-01
 -1      1487-1.55322E+01 1.26611E+00 3.49999E-01
 -1      1488-8.98337E+00 1.29163E+01 3.49999E-01
 -1      1489 5.47346E+00 1.46694E+01 3.49999E-01
 -1      1490 2.91378E+00 1.39103E+01-3.49999E-01
 -1      1491-1.39525E+01-6.26465E-01 3.49999E-01
 -1      1492-1.09410E+01 9.51793E+00-3.49999E-01
 -1      1493 1.13637E+01 7.99247E+00-3.49999E-01
 -1      1494-1.21190E+01-7.89472E+00-3.49999E-01
 -1      1495 1.40375E+01 6.57019E+00-3.49999E-01
 -1      1496-9.65837E+00 1.16638E+01-3.49999E-01
 -1      1497-8.64282E+00 1.35185E+01-3.49999E-01
 -1      1498-6.55000E+00 1.20977E+01-3.49999E-01
 -1      1499 1.30360E+01 1.11365E+00 3.49999E-01
 -1      1500 1.16875E+00 3.72578E+00-3.49999E-01
 -1      1501-1.38757E+01-3.17281E+00 3.49999E-01
 -1      1502-8.55668E+00-5.43793E+00-3.49999E-01
 -1      1503-1.43150E+01-6.23446E+00-3.49999E-01
 -1      1504 4.33869E+00 1.15113E+01-3.49999E-01
 -1      1505-1.28024E+01-8.88992E+00 3.49999E-01
 -1      1506 1.43636E+01 1.04569E+00-3.49999E-01
 -1      1507-9.54064E+00-1.22820E+01 3.49999E-01
 -1      1508 1.18646E+01 5.67328E+00-3.49999E-01
 -1      1509 1.23875E+01 4.00381E+00-3.49999E-01
 -1      1510-7.93907E+00-1.05130E+01 3.49999E-01
 -1      1511-1.30288E+01-1.53413E+00 3.49999E-01
 -1      1512 1.51479E+01 3.86232E+00 3.49999E-01
 -1      1513 1.55829E+01 1.39221E+00 3.49999E-01
 -1      1514-8.74210E+00 1.37043E+01 3.49999E-01
 -1      1515 1.28103E+01 8.89638E+00 3.49999E-01
 -1      1516 8.93216E+00 1.28538E+01 3.49999E-01
 -1      1517-1.25971E+01 3.53850E+00 3.49999E-01
 -1      1518 1.13966E+01 6.14173E+00 3.49999E-01
 -1      1519 1.17265E+01-9.73534E+00 3.49999E-01
 -1      1520-6.09877E+00 9.91861E+00-3.49999E-01
 -1      1521-1.46840E+01-6.43171E+00 3.49999E-01
 -1      1522-1.27327E+00 1.37408E+01 3.49999E-01
 -1      1523-1.00547E+01 1.15951E+01 3.49999E-01
 -1      1524-1.30269E+01 1.56798E+00 3.49999E-01
 -1      1525 1.03042E+01-8.67473E+00 3.49999E-01
 -1      1526-3.29766E+00 1.51759E+01 3.49999E-01
 -1      1527-1.43553E+01 5.66061E+00-3.49999E-01
 -1      1528-1.11605E+01 6.91029E+00 3.49999E-01
 -1      1529-2.59554E+00 1.40209E+01 3.49999E-01
 -1      1530 1.22478E+01 5.02530E+00 3.49999E-01
 -1      1531 1.22600E+01-7.01782E+00-3.49999E-01
 -1      1532-3.09592E+00 1.28070E+01 3.49999E-01
 -1      1533 7.17359E+00 6.63271E+00-3.49999E-01
 -1      1534-1.91711E+00 1.52150E+01-3.49999E-01
 -1      1535-7.01800E+00 1.23294E+01 3.49999E-01
 -1      1536 5.97388E+00-2.53510E+00-3.49999E-01
 -1      1537-2.06583E+00-8.00301E-01 3.49999E-01
 -1      1538 1.29013E+01 1.53439E+00-3.49999E-01
 -1      1539-1.06452E+01-1.11348E+01 3.49999E-01
 -1      1540-1.20913E+01-9.48507E+00-3.49999E-01
 -1      1541-1.51565E+00 1.38755E+01-3.49999E-01
 -1      1542 8.23094E+00 8.60739E+00-3.49999E-01
 -1      1543-5.41104E+00 1.31506E+01 3.49999E-01
 -1      1544 4.08438E+00 1.48993E+01-3.49999E-01
 -1      1545-1.35705E+01-7.74486E+00 3.49999E-01
 -1      1546-1.20906E+01-5.57990E+00 3.49999E-01
 -1      1547-1.11459E+00 1.20284E+01 3.49999E-01
 -1      1548-1.49546E-01 1.29814E+01 3.49999E-01
 -1      1549-6.39902E+00 1.46229E+01-3.49999E-01
 -1      1550 1.37644E+01-8.53289E-01 3.49999E-01
 -1      1551-1.25123E+01 8.36042E+00-3.49999E-01
 -1      1552-9.13785E+00 1.19466E+01 3.49999E-01
 -1      1553 1.19924E+01-6.71981E+00 3.49999E-01
 -1      1554 1.28539E+01-8.93221E+00 3.49999E-01
 -1      1555-5.87397E+00 1.11014E+01-3.49999E-01
 -1      1556 1.40199E+01 7.02140E+00 3.49999E-01
 -1      1557-1.48100E+01 4.95740E+00 3.49999E-01
 -1      1558 8.29182E+00-1.20736E+01-3.49999E-01
 -1      1559-1.14366E+00-1.23420E+01 3.49999E-01
 -1      1560 6.65486E+00-1.14010E+01-3.49999E-01
 -1      1561 1.08930E+01-1.13362E+01 3.49999E-01
 -1      1562 8.84475E+00-1.29093E+01 3.49999E-01
 -1      1563 1.35563E+01 4.01051E+00-3.49999E-01
 -1      1564 3.74686E+00 1.35642E+01 3.49999E-01
 -1      1565 1.12635E+01-8.23199E+00-3.49999E-01
 -1      1566-6.90821E+00 1.10417E+01 3.49999E-01
 -1      1567 3.04645E+00 1.53929E+01 3.49999E-01
 -1      1568-1.12415E+01 1.08672E+01 3.49999E-01
 -1      1569 1.38100E+01-2.72507E+00-3.49999E-01
 -1      1570 1.30141E+01 8.66559E+00-3.49999E-01
 -1      1571-8.61356E+00 1.03623E+01 3.49999E-01
 -1      1572-1.10923E+01-1.84480E-01-3.49999E-01
 -1      1573 3.95858E+00 1.14162E+01 3.49999E-01
 -1      1574-1.20827E+01-4.07752E+00 3.49999E-01
 -1      1575-1.56962E+01-1.35412E+00-3.49999E-01
 -1      1576-9.27080E+00-1.09168E+01 3.49999E-01
 -1      1577-4.34830E+00-2.24251E+00-3.49999E-01
 -1      1578 1.17340E+01 6.90767E+00-3.49999E-01
 -1      1579-9.58232E+00-2.69432E+00-3.49999E-01
 -1      1580-1.55572E+01 1.11364E+00-3.49999E-01
 -1      1581-1.40802E+01 7.05367E+00-3.49999E-01
 -1      1582 8.52715E+00 1.18938E+00-3.49999E-01
 -1      1583-1.02127E+01 8.29309E+00 3.49999E-01
 -1      1584-1.20511E+01 5.84836E+00 3.49999E-01
 -1      1585 9.93864E+00 1.16300E+01-3.49999E-01
 -1      1586 7.61390E+00 1.33610E+01-3.49999E-01
 -1      1587 9.11157E+00-8.53232E+00-3.49999E-01
 -1      1588 1.26636E+00-1.15445E+00 3.49999E-01
 -1      1589-1.72110E+00 1.04573E+01-3.49999E-01
 -1      1590-9.76449E+00-8.64924E+00-3.49999E-01
 -1      1591 1.58837E+01 1.98299E+00-3.49999E-01
 -1      1592-1.07715E+01-9.50253E+00-3.49999E-01
 -1      1593 1.50458E+01 4.12882E+00-3.49999E-01
 -1      1594-7.00393E+00 1.07034E+01-3.49999E-01
 -1      1595-5.23682E-01-9.37309E+00-3.49999E-01
 -1      1596-4.03949E-01 1.19872E+01-3.49999E-01
 -1      1597 1.44279E+01 2.09256E+00-3.49999E-01
 -1      1598-1.37002E+01 2.93583E+00 3.49999E-01
 -1      1599-9.96828E+00 2.36810E+00-3.49999E-01
 -1      1600 1.38572E+01 7.66348E+00-3.49999E-01
 -1      1601 7.77465E+00-1.10040E+01-3.49999E-01
 -1      1602 2.99572E+00 7.53697E+00-3.49999E-01
 -1      1603 1.26632E+01 5.00679E+00-3.49999E-01
 -1      1604 1.19050E+01-1.03091E+01-3.49999E-01
 -1      1605-7.57368E+00-7.64044E+00-3.49999E-01
 -1      1606-5.05473E+00 1.52281E+01 3.49999E-01
 -1      1607 3.44991E+00 1.56779E+01-3.49999E-01
 -1      1608-9.22685E+00 1.26329E+01-3.49999E-01
 -1      1609-6.51265E+00 1.48355E+01 3.49999E-01
 -1      1610 3.71377E+00-1.27319E+01 3.49999E-01
 -1      1611-1.37016E+01-4.21784E+00-3.49999E-01
 -1      1612-1.56832E+01-4.32214E+00 3.49999E-01
 -1      1613-4.65978E+00 1.21248E+01 3.49999E-01
 -1      1614 4.63973E+00 1.23612E+01 3.49999E-01
 -1      1615 9.33631E+00-5.78080E+00 3.49999E-01
 -1      1616-7.53457E+00 9.17702E+00-3.49999E-01
 -1      1617 6.18103E+00 8.18502E+00 3.49999E-01
 -1      1618-9.89974E+00 1.25624E+01 3.49999E-01
 -1      1619-1.26892E+01-3.05041E+00 3.49999E-01
 -1      1620-1.07242E+01-4.90930E+00-3.49999E-01
 -1      1621-1.14989E+01-6.36590E+00-3.49999E-01
 -1      1622-5.85865E+00-4.62231E+00-3.49999E-01
 -1      1623-1.32557E+01-8.50232E+00-3.49999E-01
 -1      1624-9.38577E+00-8.55626E+00 3.49999E-01
 -1      1625-1.09894E+01-1.83170E+00-3.49999E-01
 -1      1626-1.36470E+01-8.62630E+00 3.49999E-01
 -1      1627 1.43848E+01 5.28932E+00 3.49999E-01
 -1      1628 8.26938E+00 1.01573E+01-3.49999E-01
 -1      1629 2.10429E+00-1.16438E+01-3.49999E-01
 -1      1630 1.03766E+01 1.06740E+01 3.49999E-01
 -1      1631 1.01900E+01-7.58642E+00 3.49999E-01
 -1      1632 9.84161E+00 8.97182E+00 3.49999E-01
 -1      1633-1.36092E+01-2.31696E+00-3.49999E-01
 -1      1634 1.17532E+01 1.01844E+01 3.49999E-01
 -1      1635 7.71146E+00 1.35435E+01 3.49999E-01
 -1      1636 1.32524E+01 2.98052E+00 3.49999E-01
 -1      1637 1.03144E+01 1.19115E+01 3.49999E-01
 -1      1638-1.44585E+01 3.08007E+00-3.49999E-01
 -1      1639 6.23588E+00-6.21744E+00-3.49999E-01
 -1      1640-7.64536E+00 1.16285E+01-3.49999E-01
 -1      1641-1.54214E+01-2.91059E+00-3.49999E-01
 -1      1642-1.60150E+01-3.21557E-01 3.49999E-01
 -1      1643-1.33555E+01-2.40347E+00 3.49999E-01
 -1      1644-1.12657E+01 1.08622E+01-3.49999E-01
 -1      1645 9.21814E+00-9.36767E+00 3.49999E-01
 -1      1646 1.51172E+01 1.52482E+00-3.49999E-01
 -1      1647 8.83488E+00-1.06732E+01 3.49999E-01
 -1      1648-6.38926E+00-1.15320E+01 3.49999E-01
 -1      1649-1.60862E+01-5.77101E-01-3.49999E-01
 -1      1650-6.90765E+00-6.02256E+00-3.49999E-01
 -1      1651 1.34377E+01 7.07123E-01-3.49999E-01
 -1      1652-2.19975E+00 1.22013E+01-3.49999E-01
 -1      1653 1.24297E+01 2.72442E+00-3.49999E-01
 -1      1654-1.24217E+01-8.69539E+00-3.49999E-01
 -1      1655 1.10806E+01 8.70684E+00-3.49999E-01
 -1      1656-7.79262E+00 1.31265E+01 3.49999E-01
 -1      1657-7.16528E+00-1.25217E+01-3.49999E-01
 -1      1658 6.46449E+00 8.28282E+00-3.49999E-01
 -1      1659 1.47701E+01 5.64585E+00-3.49999E-01
 -1      1660-1.31304E+01 7.50799E+00-3.49999E-01
 -1      1661-8.95853E+00 8.97638E+00 3.49999E-01
 -1      1662 1.39921E+01 2.09130E+00 3.49999E-01
 -1      1663-1.27979E+01-7.22959E-01-3.49999E-01
 -1      1664-1.23123E+01-2.30160E+00 3.49999E-01
 -1      1665-3.02178E+00-4.75358E+00-3.49999E-01
 -1      1666 8.56792E+00 1.03072E+01 3.49999E-01
 -1      1667-9.73596E+00-6.82718E+00-3.49999E-01
 -1      1668 1.05714E+01 1.22247E+01-3.49999E-01
 -1      1669-1.30594E+01 4.31642E+00-3.49999E-01
 -1      1670 6.41252E+00 1.37487E+01 3.49999E-01
 -1      1671-1.01098E+01-3.91655E+00 3.49999E-01
 -1      1672-1.49066E+01 4.39033E+00-3.49999E-01
 -1      1673-2.52957E-01-1.31663E+01 3.49999E-01
 -1      1674-5.00809E+00-1.18817E+01 3.49999E-01
 -1      1675 1.30175E+01 6.08105E+00-3.49999E-01
 -1      1676-9.64025E+00-1.24034E+01-3.49999E-01
 -1      1677-5.97068E+00 1.37389E+01 3.49999E-01
 -1      1678-6.96465E+00 9.83433E+00-3.49999E-01
 -1      1679-3.62733E+00-1.14054E+01-3.49999E-01
 -1      1680 4.71336E+00 9.44389E+00-3.49999E-01
 -1      1681-6.24642E+00 4.87719E+00-3.49999E-01
 -1      1682-9.93821E+00 8.31090E-01-3.49999E-01
 -1      1683 1.04824E+01 7.73651E+00 3.49999E-01
 -1      1684-1.12637E+01 3.04605E+00-3.49999E-01
 -1      1685 7.13597E+00 1.07444E+01 3.49999E-01
 -1      1686 1.47968E+01 1.73767E+00 3.49999E-01
 -1      1687 1.44713E+01-5.19561E+00 3.49999E-01
 -1      1688 1.58908E+01 2.23743E+00 3.49999E-01
 -1      1689 1.35325E+01-7.65698E+00-3.49999E-01
 -1      1690-1.94175E+00-7.15474E+00-3.49999E-01
 -1      1691 9.57441E+00 1.26516E+01-3.49999E-01
 -1      1692 3.91051E+00 1.55726E+01 3.49999E-01
 -1      1693-9.08307E+00-9.85888E+00-3.49999E-01
 -1      1694-1.22282E+01 5.36201E+00-3.49999E-01
 -1      1695 9.05838E+00 1.15261E+01 3.49999E-01
 -1      1696-4.37042E+00 1.32628E+01-3.49999E-01
 -1      1697-1.22032E+00 1.27780E+01-3.49999E-01
 -1      1698 7.29177E+00-1.04330E+01 3.49999E-01
 -1      1699-1.04575E+01-5.98544E+00-3.49999E-01
 -1      1700-4.47773E+00-5.49872E+00-3.49999E-01
 -1      1701 8.52425E+00-1.32967E+01-3.49999E-01
 -1      1702 1.07147E+01 1.35622E+00-3.49999E-01
 -1      1703-7.54569E+00 1.40579E+01 3.49999E-01
 -1      1704-1.30445E+01-6.26245E-01 3.49999E-01
 -1      1705-6.03870E+00-1.39488E+01-3.49999E-01
 -1      1706 1.45531E+01-9.08158E-01-3.49999E-01
 -1      1707 9.57349E+00 9.99122E+00 3.49999E-01
 -1      1708-8.52339E+00-1.08814E+01-3.49999E-01
 -1      1709-8.84983E+00-7.75232E+00-3.49999E-01
 -1      1710 5.48781E+00 1.33011E+01-3.49999E-01
 -1      1711-6.42612E+00 8.79168E+00-3.49999E-01
 -1      1712-8.47471E+00-1.11444E+01 3.49999E-01
 -1      1713 9.89073E+00-2.68023E+00-3.49999E-01
 -1      1714-5.71523E+00 1.19367E+01-3.49999E-01
 -1      1715 1.06777E+00 1.50916E+01 3.49999E-01
 -1      1716-1.12111E+01 8.23931E+00-3.49999E-01
 -1      1717 1.35896E+01 8.07147E+00 3.49999E-01
 -1      1718 1.53953E+01-2.60518E-01 3.49999E-01
 -1      1719 3.23567E+00 1.03267E+00-3.49999E-01
 -1      1720-1.11502E+01 1.68626E+00-3.49999E-01
 -1      1721-1.07756E+01 2.40216E+00-3.49999E-01
 -1      1722-1.36458E+01 7.76617E+00 3.49999E-01
 -1      1723-1.13404E+01-6.62817E+00 3.49999E-01
 -1      1724-1.45674E+01-4.00465E+00-3.49999E-01
 -1      1725-8.70133E+00 1.18183E+01-3.49999E-01
 -1      1726-1.24494E+01 2.32724E+00 3.49999E-01
 -1      1727 1.51329E+01-2.74620E+00 3.49999E-01
 -1      1728-6.26253E+00-1.43675E+01 3.49999E-01
 -1      1729 8.47146E+00-6.38388E+00-3.49999E-01
 -1      1730 1.45250E+01-4.84148E+00-3.49999E-01
 -1      1731 8.60400E-01 1.28281E+01-3.49999E-01
 -1      1732 1.06172E+00 1.29664E+01 3.49999E-01
 -1      1733 1.09817E+01-2.05283E+00 3.49999E-01
 -1      1734 9.73479E+00 1.81974E+00 3.49999E-01
 -1      1735-1.51644E+01 5.25698E+00-3.49999E-01
 -1      1736 1.28627E+01 0.00000E+00 3.49999E-01
 -1      1737 2.00984E+00-5.48885E+00-3.49999E-01
 -1      1738 1.21765E+01 7.63574E+00 3.49999E-01
 -1      1739-7.31871E+00-6.67189E+00 3.49999E-01
 -1      1740 9.35340E+00-7.29069E+00-3.49999E-01
 -1      1741 4.11438E+00-1.41414E+01 3.49999E-01
 -1      1742-1.25841E+01 4.97067E+00 3.49999E-01
 -1      1743-7.62854E+00-1.33884E+01 3.49999E-01
 -1      1744-1.00534E+01 1.04437E+01-3.49999E-01
 -1      1745-1.04543E+01 1.12475E+01-3.49999E-01
 -1      1746 1.06083E+01 7.85184E+00-3.49999E-01
 -1      1747 2.53819E+00-1.32469E+01-3.49999E-01
 -1      1748-7.48393E+00-9.91033E+00 3.49999E-01
 -1      1749-7.75030E+00 6.76952E+00-3.49999E-01
 -1      1750 2.71447E+00-1.21094E+01 3.49999E-01
 -1      1751 9.04657E+00-1.00946E+01-3.49999E-01
 -1      1752 1.79155E+00-9.34962E+00-3.49999E-01
 -1      1753 3.38540E+00-1.52863E+01 3.49999E-01
 -1      1754 9.45770E+00 4.00269E+00-3.49999E-01
 -1      1755 8.56821E+00 1.29346E+01-3.49999E-01
 -1      1756-1.09822E+01 5.81395E+00-3.49999E-01
 -1      1757 7.75970E+00-1.36337E+01 3.49999E-01
 -1      1758 1.40445E+00 1.42849E+01-3.49999E-01
 -1      1759-4.28802E-01 1.54635E+01-3.49999E-01
 -1      1760 1.32333E+01-9.24356E+00-3.49999E-01
 -1      1761 1.12972E+01 7.14419E+00 3.49999E-01
 -1      1762 4.99579E+00 6.67426E+00-3.49999E-01
 -1      1763-1.29323E+01-3.88659E+00 3.49999E-01
 -1      1764-1.17800E+01-5.28212E+00-3.49999E-01
 -1      1765-1.07301E+01-5.98486E-01 3.49999E-01
 -1      1766-3.62791E+00 8.36550E+00-3.49999E-01
 -1      1767-1.05441E+01 4.22858E-01 3.49999E-01
 -1      1768-1.28164E+01 4.25663E+00 3.49999E-01
 -1      1769-1.55434E+01 3.40913E+00-3.49999E-01
 -1      1770 8.00521E+00-1.09265E+01 3.49999E-01
 -1      1771 1.59501E+01 1.00171E+00-3.49999E-01
 -1      1772 9.53366E+00 2.41702E+00-3.49999E-01
 -1      1773-7.49715E+00 2.71751E+00-3.49999E-01
 -1      1774 1.93646E+00-1.54115E+01 3.49999E-01
 -1      1775 7.28348E+00 3.16130E+00-3.49999E-01
 -1      1776 1.12306E+01 1.05801E+01-3.49999E-01
 -1      1777 9.49929E+00-1.24778E+01-3.49999E-01
 -1      1778-1.30795E+01 5.87220E+00 3.49999E-01
 -1      1779-1.07033E+01 4.86225E+00 3.49999E-01
 -1      1780 1.38384E+01-2.43228E+00 3.49999E-01
 -1      1781-1.10101E+01 3.43672E+00 3.49999E-01
 -1      1782 6.02293E+00-8.32779E+00-3.49999E-01
 -1      1783 8.72039E+00 5.39944E+00 3.49999E-01
 -1      1784-1.24035E+01 3.33932E+00-3.49999E-01
 -1      1785-1.41456E+01 7.04627E-01 3.49999E-01
 -1      1786 5.94005E+00-1.19294E+01 3.49999E-01
 -1      1787 1.94911E+00 1.32515E+01-3.49999E-01
 -1      1788-1.54563E+01 4.21962E+00 3.49999E-01
 -1      1789 9.28603E+00 8.99087E+00-3.49999E-01
 -1      1790 1.10458E+01 6.21076E+00-3.49999E-01
 -1      1791-8.41970E+00 4.69379E+00-3.49999E-01
 -1      1792 7.04643E+00-1.25717E+01 3.49999E-01
 -1      1793-7.39411E+00 5.50885E+00-3.49999E-01
 -1      1794-5.47543E+00 5.21461E-01-3.49999E-01
 -1      1795 6.04517E+00-8.00511E+00 3.49999E-01
 -1      1796 6.62111E+00 4.87778E+00-3.49999E-01
 -1      1797 6.94268E+00-1.14764E+01 3.49999E-01
 -1      1798 1.22005E+01 1.00967E+01-3.49999E-01
 -1      1799 1.01494E+01-8.10918E+00-3.49999E-01
 -1      1800-7.87340E+00 1.09845E+01 3.49999E-01
 -1      1801-4.76273E+00 1.43091E+01 3.49999E-01
 -1      1802 9.85361E+00-9.34567E+00-3.49999E-01
 -1      1803-9.04666E+00 8.09910E+00-3.49999E-01
 -1      1804 3.94914E+00-6.86075E+00-3.49999E-01
 -1      1805-1.57172E+01 2.80376E+00 3.49999E-01
 -1      1806-1.33139E+00 1.18465E+01-3.49999E-01
 -1      1807-3.56867E+00 1.51444E+01-3.49999E-01
 -1      1808-8.51910E+00 5.87165E+00-3.49999E-01
 -1      1809 1.47257E+01-1.59942E+00 3.49999E-01
 -1      1810 7.27272E+00-7.38799E+00-3.49999E-01
 -1      1811-7.22742E+00 1.27612E+01-3.49999E-01
 -1      1812 4.22652E+00 1.56629E+01-3.49999E-01
 -1      1813-3.64495E+00 1.02960E+01-3.49999E-01
 -1      1814-9.13769E-01-9.86117E+00 3.49999E-01
 -1      1815 1.97717E+00-1.58247E+01-3.49999E-01
 -1      1816 1.05753E+01 8.56853E+00 3.49999E-01
 -1      1817 1.52951E+01-2.76218E+00-3.49999E-01
 -1      1818-8.38790E+00-1.21516E+01-3.49999E-01
 -1      1819 1.32621E+01-4.08916E+00-3.49999E-01
 -1      1820 8.30807E+00 5.31112E+00-3.49999E-01
 -1      1821 8.15832E+00-9.94269E+00 3.49999E-01
 -1      1822 1.12080E+01 1.13361E+01 3.49999E-01
 -1      1823 9.89905E+00 1.27187E+01 3.49999E-01
 -1      1824 5.40175E+00 1.46408E+01-3.49999E-01
 -1      1825 1.26653E+01 9.85520E+00 3.49999E-01
 -1      1826-1.53360E+00-2.36151E+00-3.49999E-01
 -1      1827-1.31876E+01-3.14868E+00-3.49999E-01
 -1      1828 4.19498E+00 1.35811E+01-3.49999E-01
 -1      1829-5.67237E+00-5.85492E+00-3.49999E-01
 -1      1830 1.11109E+01-7.40654E+00 3.49999E-01
 -1      1831 9.62036E+00-6.75111E+00 3.49999E-01
 -1      1832 4.65337E+00 1.25730E+01-3.49999E-01
 -1      1833-8.50787E+00-9.61029E+00 3.49999E-01
 -1      1834 3.93218E+00-1.11238E+01-3.49999E-01
 -1      1835-2.59288E-01-1.17232E+01-3.49999E-01
 -1      1836 2.96704E+00-1.04280E+01 3.49999E-01
 -1      1837 9.12927E+00 1.08651E+01-3.49999E-01
 -1      1838 7.54015E+00 9.39998E+00-3.49999E-01
 -1      1839 1.33612E+01 4.79392E+00 3.49999E-01
 -1      1840-1.12094E+01-3.40088E+00-3.49999E-01
 -1      1841-9.49269E+00-9.69232E-01-3.49999E-01
 -1      1842 2.73537E+00-1.03893E+01-3.49999E-01
 -1      1843 5.39127E+00-1.03021E+01-3.49999E-01
 -1      1844-8.86316E+00-7.44365E+00 3.49999E-01
 -1      1845-9.77530E+00-9.75831E+00 3.49999E-01
 -1      1846-1.08178E+01-8.10093E+00 3.49999E-01
 -1      1847 2.81637E+00-1.42747E+01-3.49999E-01
 -1      1848-1.32618E+01-7.12381E+00-3.49999E-01
 -1      1849-1.39981E+01-7.95444E+00-3.49999E-01
 -1      1850 7.96142E+00-1.40111E+01-3.49999E-01
 -1      1851-7.31871E+00 6.67188E+00 3.49999E-01
 -1      1852 6.15135E+00 1.16984E+01-3.49999E-01
 -1      1853-4.47424E+00 1.30487E+01 3.49999E-01
 -1      1854-4.66894E+00 1.11764E+01 3.49999E-01
 -1      1855-1.50211E+01-5.16692E+00 3.49999E-01
 -1      1856-1.53100E+01-5.10306E+00-3.49999E-01
 -1      1857 8.38446E+00-9.28455E+00-3.49999E-01
 -1      1858 8.22386E+00-1.02881E+01-3.49999E-01
 -1      1859-1.01354E+01 8.06806E+00-3.49999E-01
 -1      1860-9.98812E+00 1.28272E+01-3.49999E-01
 -1      1861-3.49080E+00 1.16799E+01-3.49999E-01
 -1      1862 1.02709E+01-1.02296E+01-3.49999E-01
 -1      1863-8.88332E+00 6.96159E+00-3.49999E-01
 -1      1864-1.21330E+01 4.43309E+00-3.49999E-01
 -1      1865 6.76065E+00-1.29801E+01-3.49999E-01
 -1      1866 1.12786E+01 7.97517E+00 3.49999E-01
 -1      1867 5.63432E-01 8.87782E+00-3.49999E-01
 -1      1868 3.06184E+00 5.16178E+00-3.49999E-01
 -1      1869 6.13510E-01-7.34646E+00-3.49999E-01
 -1      1870-1.86306E+00-1.07137E+01-3.49999E-01
 -1      1871 6.99321E+00-1.05776E+01-3.49999E-01
 -1      1872-8.91753E+00 1.61986E+00-3.49999E-01
 -1      1873 6.09409E+00 7.14623E+00-3.49999E-01
 -1      1874 6.22683E+00 1.20762E+01 3.49999E-01
 -1      1875-1.56558E+01 4.17938E+00-3.49999E-01
 -1      1876 1.35900E+01 2.01751E+00-3.49999E-01
 -1      1877-9.46340E+00-5.86340E+00-3.49999E-01
 -1      1878 8.08308E+00 9.36163E+00 3.49999E-01
 -1      1879-2.30391E-01-1.22485E+01 3.49999E-01
 -1      1880-1.09438E+01-8.27837E+00-3.49999E-01
 -1      1881 1.09067E+01 3.27744E+00-3.49999E-01
 -1      1882-7.29470E+00 4.33099E+00-3.49999E-01
 -1      1883-8.60155E+00-6.62756E+00-3.49999E-01
 -1      1884 1.89139E-01-2.04126E+00 3.49999E-01
 -1      1885 2.05000E+00 0.00000E+00 3.49999E-01
 -1      1886-4.96770E-01-5.05828E+00-3.49999E-01
 -1      1887-7.42722E+00 1.16268E+01 3.49999E-01
 -1      1888 1.08295E+01-4.78769E+00-3.49999E-01
 -1      1889 2.85922E+00-1.29904E+01 3.49999E-01
 -1      1890-1.12004E+01 5.59688E+00 3.49999E-01
 -1      1891-1.20004E+01 9.01922E+00 3.49999E-01
 -1      1892 1.32860E+01-4.86204E+00 3.49999E-01
 -1      1893 1.42425E+01 2.95654E+00 3.49999E-01
 -1      1894 1.20516E+01-5.38171E+00 3.49999E-01
 -1      1895-1.18980E+01 6.39526E+00-3.49999E-01
 -1      1896 9.97842E+00 3.23298E+00-3.49999E-01
 -1      1897-1.03086E+01 1.59264E+00-3.49999E-01
 -1      1898 1.06573E+01 1.42215E+00 3.49999E-01
 -1      1899-1.40105E+01 7.96109E+00-3.49999E-01
 -1      1900-1.37906E+01 6.27281E+00-3.49999E-01
 -1      1901-7.33483E+00-4.60949E+00-3.49999E-01
 -1      1902 7.32982E+00 5.61909E+00-3.49999E-01
 -1      1903 1.50619E+00-1.05569E+01-3.49999E-01
 -1      1904 3.16042E+00 3.09772E+00-3.49999E-01
 -1      1905-1.17156E+01-8.73314E+00 3.49999E-01
 -1      1906 1.36349E+01-4.89963E+00-3.49999E-01
 -1      1907-1.10998E+01-4.83388E+00 3.49999E-01
 -1      1908 9.19289E-01-1.15879E+01-3.49999E-01
 -1      1909-1.21216E+01-9.76413E+00 3.49999E-01
 -1      1910-4.26525E+00 6.11697E+00-3.49999E-01
 -1      1911-9.53955E+00 1.07385E+01 3.49999E-01
 -1      1912 1.22873E+01 8.08760E+00-3.49999E-01
 -1      1913 9.25591E+00 1.07385E+01 3.49999E-01
 -1      1914 1.43332E+01-3.72730E+00-3.49999E-01
 -1      1915 1.72088E+00 1.37372E+01 3.49999E-01
 -1      1916 6.02341E-01 1.18451E+01-3.49999E-01
 -1      1917-5.14019E+00 1.26984E+01-3.49999E-01
 -1      1918-5.46559E-02 1.43328E+01 3.49999E-01
 -1      1919-8.09865E+00-1.34007E+01-3.49999E-01
 -1      1920-1.19073E+01 6.63216E+00 3.49999E-01
 -1      1921-4.14001E+00 1.23549E+01-3.49999E-01
 -1      1922 1.25383E+01-3.79168E+00 3.49999E-01
 -1      1923 2.88779E+00-8.12031E+00-3.49999E-01
 -1      1924 9.08598E+00 3.19023E+00-3.49999E-01
 -1      1925-8.68333E+00-8.83694E+00-3.49999E-01
 -1      1926-9.89304E+00-9.51841E+00-3.49999E-01
 -1      1927-5.96079E+00 1.08956E+01 3.49999E-01
 -1      1928 1.11805E+00 1.56019E+01-3.49999E-01
 -1      1929 2.39149E+00 1.50338E+01-3.49999E-01
 -1      1930 9.75046E+00-1.27516E+01 3.49999E-01
 -1      1931 1.17358E+01-1.07576E+01 3.49999E-01
 -1      1932-1.33927E+01 6.78199E+00 3.49999E-01
 -1      1933 1.27059E+01-1.23166E+00 3.49999E-01
 -1      1934-9.60341E+00 3.25170E-01 3.49999E-01
 -1      1935 2.93574E+00 1.20956E+01-3.49999E-01
 -1      1936-8.38513E+00-8.61544E+00 3.49999E-01
 -1      1937-1.26795E+01 8.20406E+00 3.49999E-01
 -1      1938 1.16048E+00 1.60326E+01 3.49999E-01
 -1      1939-2.07985E+00 2.69838E+00-3.49999E-01
 -1      1940 1.12873E+01 2.57201E+00 3.49999E-01
 -1      1941 1.14430E+01-7.36332E+00-3.49999E-01
 -1      1942 1.37860E+01 6.06764E+00 3.49999E-01
 -1      1943-6.06517E+00 6.56499E+00-3.49999E-01
 -1      1944-5.80924E+00-8.94648E+00-3.49999E-01
 -1      1945 4.38643E+00 8.01134E+00-3.49999E-01
 -1      1946-3.42617E+00 1.20417E+01 3.49999E-01
 -1      1947 1.20513E+01 6.71281E+00 3.49999E-01
 -1      1948-2.59611E+00 9.33995E+00-3.49999E-01
 -1      1949 2.08139E-01-1.52728E+01-3.49999E-01
 -1      1950 4.20779E+00-1.53062E+01-3.49999E-01
 -1      1951-1.63722E+00 1.49252E+00 3.49999E-01
 -1      1952-1.45146E+01 2.65713E+00 3.49999E-01
 -1      1953 8.03245E+00-8.21676E+00-3.49999E-01
 -1      1954 9.12096E+00-9.26893E+00-3.49999E-01
 -1      1955-9.88196E+00-1.15053E+01 3.49999E-01
 -1      1956 1.18594E+01-1.91492E+00-3.49999E-01
 -1      1957-1.31831E+01 5.51948E+00-3.49999E-01
 -1      1958-3.56055E+00-9.14867E+00-3.49999E-01
 -1      1959-4.96610E+00 8.97858E+00-3.49999E-01
 -1      1960 3.95295E+00 7.00639E+00-3.49999E-01
 -1      1961-1.69772E+00-1.14258E+01 3.49999E-01
 -1      1962 1.18555E+01 8.62505E-01-3.49999E-01
 -1      1963-3.56408E+00 9.33141E+00-3.49999E-01
 -1      1964-1.05970E+01-1.17431E+01-3.49999E-01
 -1      1965 4.25741E+00-4.36835E+00-3.49999E-01
 -1      1966 1.32090E+01-1.41882E+00-3.49999E-01
 -1      1967-5.83875E+00-1.49426E+01-3.49999E-01
 -1      1968 1.07312E+01 4.73700E+00-3.49999E-01
 -1      1969 7.47717E+00 7.74058E+00-3.49999E-01
 -1      1970 1.16473E+01 1.94621E+00-3.49999E-01
 -1      1971-8.34107E+00-9.55997E+00-3.49999E-01
 -1      1972 5.53425E+00 1.57465E+00-3.49999E-01
 -1      1973 2.62592E+00 1.17607E+01 3.49999E-01
 -1      1974-6.89029E+00-1.66732E+00-3.49999E-01
 -1      1975-3.33836E+00-1.38487E+01 3.49999E-01
 -1      1976 7.50436E+00-4.27670E+00-3.49999E-01
 -1      1977-5.84686E+00-2.96061E+00-3.49999E-01
 -1      1978-8.34585E+00-1.89370E+00-3.49999E-01
 -1      1979 9.22363E+00-1.12955E+01-3.49999E-01
 -1      1980 5.86338E+00 9.27729E+00-3.49999E-01
 -1      1981-4.79226E+00-1.02416E+01-3.49999E-01
 -1      1982 1.25480E+01-3.01026E+00-3.49999E-01
 -1      1983 1.21993E+01 5.88235E+00 3.49999E-01
 -1      1984 7.30818E+00-8.98534E+00 3.49999E-01
 -1      1985-3.66183E+00-1.02751E+01-3.49999E-01
 -1      1986-1.64076E+00 1.52670E+01 3.49999E-01
 -1      1987 5.95862E+00 2.86436E+00-3.49999E-01
 -1      1988-7.64102E+00-5.47316E+00-3.49999E-01
 -1      1989 1.41165E+00-2.59550E+00-3.49999E-01
 -1      1990 2.48387E-03-1.67980E+00-3.49999E-01
 -1      1991-7.34661E+00-3.10305E+00-3.49999E-01
 -1      1992-1.11099E+01-3.83010E+00 3.49999E-01
 -1      1993-4.62865E+00-8.42209E+00-3.49999E-01
 -1      1994 1.36289E+01-4.99731E-01-3.49999E-01
 -1      1995-1.84842E+00-1.24691E+01-3.49999E-01
 -1      1996-3.44157E+00-7.82540E+00-3.49999E-01
 -1      1997 7.29715E+00 1.11791E+01-3.49999E-01
 -1      1998-2.40739E+00-1.28530E+01 3.49999E-01
 -1      1999-7.62906E+00 1.42037E+00-3.49999E-01
 -1      2000 1.17087E+01 4.70783E+00-3.49999E-01
 -1      2001-1.38592E+01 4.84210E+00-3.49999E-01
 -1      2002 9.77926E+00-5.99424E+00-3.49999E-01
 -1      2003-1.04871E+01-9.73491E-01-3.49999E-01
 -1      2004 1.00440E+01-1.17275E+01-3.49999E-01
 -1      2005-1.08143E+01 8.75844E-01-3.49999E-01
 -1      2006 2.96738E+00 1.01951E+01-3.49999E-01
 -1      2007-1.06161E+01-1.20463E+01 3.49999E-01
 -1      2008 7.19006E-01 6.28452E+00-3.49999E-01
 -1      2009 9.95653E+00 1.08004E+01-3.49999E-01
 -1      2010-1.43389E+01-4.68049E+00 3.49999E-01
 -1      2011 4.27422E+00-1.55252E+01 3.49999E-01
 -1      2012-1.45891E-01 1.29702E+01-3.49999E-01
 -1      2013-8.17864E+00 2.13154E+00-3.49999E-01
 -1      2014-5.28379E+00 9.36462E+00 3.49999E-01
 -1      2015 6.24347E+00-9.05340E+00 3.49999E-01
 -1      2016-1.94927E+00 1.28146E+01 3.49999E-01
 -1      2017 1.40496E+01-7.03726E+00 3.49999E-01
 -1      2018-1.64412E+00-3.95170E+00-3.49999E-01
 -1      2019 4.62478E+00 7.31257E+00-3.49999E-01
 -1      2020-5.12569E+00 1.54621E+01-3.49999E-01
 -1      2021-1.39977E+01 5.24976E+00 3.49999E-01
 -1      2022 8.31810E+00 9.38068E+00-3.49999E-01
 -1      2023 3.73395E+00-1.14029E+01 3.49999E-01
 -1      2024-3.33856E+00-6.38547E+00-3.49999E-01
 -1      2025-1.16732E+01-8.52087E+00-3.49999E-01
 -1      2026-3.03137E+00-3.15273E+00-3.49999E-01
 -1      2027-8.16831E-02-3.35145E+00-3.49999E-01
 -1      2028-1.22669E+01 9.67252E+00-3.49999E-01
 -1      2029 3.47602E+00 8.97269E+00-3.49999E-01
 -1      2030 1.31409E+01 7.27442E+00 3.49999E-01
 -1      2031 3.56463E+00 8.14485E+00-3.49999E-01
 -1      2032 1.25601E+00 1.65303E+00-3.49999E-01
 -1      2033 9.21094E+00-4.24588E+00-3.49999E-01
 -1      2034-5.63226E+00 1.44157E+01-3.49999E-01
 -1      2035-2.41406E-01 1.21093E+01 3.49999E-01
 -1      2036-1.02273E+00 1.29005E+01 3.49999E-01
 -1      2037-7.53455E-01 1.07728E+01 3.49999E-01
 -1      2038 1.35915E+01-8.07291E+00 3.49999E-01
 -1      2039 1.17004E+01-5.80294E+00-3.49999E-01
 -1      2040-2.72641E+00 1.08942E+01-3.49999E-01
 -1      2041-1.46908E+01 4.20096E+00 3.49999E-01
 -1      2042-1.03011E+01-8.93249E+00 3.49999E-01
 -1      2043 3.88255E+00-1.28128E+01-3.49999E-01
 -1      2044-6.06395E+00-7.44571E+00-3.49999E-01
 -1      2045-7.12079E+00-8.87348E+00-3.49999E-01
 -1      2046-1.37417E+01-1.24604E+00-3.49999E-01
 -1      2047-3.90365E+00 1.41755E+01-3.49999E-01
 -1      2048 1.44923E+01 4.81178E+00-3.49999E-01
 -1      2049 5.51744E+00-1.43189E+01-3.49999E-01
 -1      2050-6.30909E+00-1.10379E+01-3.49999E-01
 -1      2051-3.09046E+00-1.44928E+01-3.49999E-01
 -1      2052 2.41355E-01-1.00703E+00 3.49999E-01
 -1      2053-1.34019E+01-6.22146E+00-3.49999E-01
 -1      2054 2.71239E+00 9.53307E+00 3.49999E-01
 -1      2055-1.98553E+00 1.19399E+01 3.49999E-01
 -1      2056 8.76648E+00-1.07494E+01-3.49999E-01
 -1      2057-8.35995E+00-7.37604E-01-3.49999E-01
 -1      2058 6.27093E-01-8.68645E+00-3.49999E-01
 -1      2059 8.69288E+00-6.28356E+00 3.49999E-01
 -1      2060-2.73005E+00 1.16553E+01-3.49999E-01
 -1      2061-1.39483E+01 1.50491E+00-3.49999E-01
 -1      2062-4.34603E+00-3.96106E+00-3.49999E-01
 -1      2063 1.45717E+01-1.97619E+00-3.49999E-01
 -1      2064 4.13669E+00 5.78008E+00-3.49999E-01
 -1      2065-1.04202E+01-1.09984E+01-3.49999E-01
 -1      2066-1.22299E+01-5.97715E+00-3.49999E-01
 -1      2067-7.92298E+00 1.33299E+01-3.49999E-01
 -1      2068 6.11338E+00 9.11072E+00 3.49999E-01
 -1      2069-3.09110E+00 6.99875E+00-3.49999E-01
 -1      2070-1.16113E+01-1.11458E+01 3.49999E-01
 -1      2071 1.11133E+01-5.71318E+00 3.49999E-01
 -1      2072 1.16596E+01-1.11855E+01-3.49999E-01
 -1      2073 7.55959E+00-8.96456E+00-3.49999E-01
 -1      2074-7.17940E+00-1.40909E+01-3.49999E-01
 -1      2075-7.49743E+00-1.14143E+01-3.49999E-01
 -1      2076-9.73502E+00 5.17591E+00-3.49999E-01
 -1      2077-1.15568E+01 7.31812E+00-3.49999E-01
 -1      2078-1.03775E+01 7.38978E+00 3.49999E-01
 -1      2079 1.04904E+01-8.84438E+00-3.49999E-01
 -1      2080-1.33758E+01 2.77172E+00-3.49999E-01
 -1      2081 1.29800E+01-7.14384E+00 3.49999E-01
 -1      2082 6.34023E+00-9.57917E+00-3.49999E-01
 -1      2083 1.16361E+01 4.50787E+00 3.49999E-01
 -1      2084 6.13998E+00 3.92039E+00-3.49999E-01
 -1      2085-7.73915E+00-6.36832E+00-3.49999E-01
 -1      2086-7.23555E+00-1.42825E+01 3.49999E-01
 -1      2087 6.88265E+00 1.84565E+00-3.49999E-01
 -1      2088 1.00375E+01-9.45435E+00 3.49999E-01
 -1      2089-7.13953E-01-1.28203E+01-3.49999E-01
 -1      2090 1.12592E+01-8.87808E+00 3.49999E-01
 -1      2091-1.08854E+00-1.20223E+01-3.49999E-01
 -1      2092-6.58143E-01-1.05781E+01-3.49999E-01
 -1      2093-1.31259E+01-5.49809E+00 3.49999E-01
 -1      2094-4.25758E+00 7.32939E+00-3.49999E-01
 -1      2095 6.52544E+00-9.92724E+00 3.49999E-01
 -1      2096-1.00818E+01 3.72789E+00-3.49999E-01
 -1      2097-6.37258E+00-5.33036E+00-3.49999E-01
 -1      2098-4.66556E+00 1.39894E+01-3.49999E-01
 -1      2099-3.93150E+00-4.77104E+00-3.49999E-01
 -1      2100-2.84436E+00-1.74083E-02-3.49999E-01
 -1      2101 1.57445E+01-1.13210E+00-3.49999E-01
 -1      2102 1.21216E+01 8.45296E+00 3.49999E-01
 -1      2103 1.04549E+01 6.84203E+00 3.49999E-01
 -1      2104 8.42560E+00-9.17112E+00 3.49999E-01
 -1      2105-2.16019E+00-1.36708E+01-3.49999E-01
 -1      2106-9.40055E+00-4.18988E+00-3.49999E-01
 -1      2107 3.83632E+00 4.16438E+00-3.49999E-01
 -1      2108-7.34122E+00 7.94628E+00-3.49999E-01
 -1      2109 1.38504E+01 1.40693E-01 3.49999E-01
 -1      2110 1.18780E+01-9.35906E+00-3.49999E-01
 -1      2111 1.45297E+01-4.18820E-01 3.49999E-01
 -1      2112-9.15831E+00 1.08279E+01-3.49999E-01
 -1      2113-6.94653E-01 7.50103E+00-3.49999E-01
 -1      2114 1.44511E+01 4.40723E+00 3.49999E-01
 -1      2115-1.29026E+01-1.64702E+00-3.49999E-01
 -1      2116-6.42993E+00-8.27983E+00-3.49999E-01
 -1      2117-1.29795E+01-7.02456E+00 3.49999E-01
 -1      2118 1.12404E+01 1.17265E+01-3.49999E-01
 -1      2119-5.53336E-01 1.72443E+00-3.49999E-01
 -1      2120 1.21144E+01 1.44313E+00 3.49999E-01
 -1      2121 3.43435E+00-5.53182E+00-3.49999E-01
 -1      2122-1.16384E+01 2.33014E+00-3.49999E-01
 -1      2123 6.42395E+00 9.89940E+00 3.49999E-01
 -1      2124-5.11078E+00-1.02638E+01 3.49999E-01
 -1      2125-1.37398E+01-1.33382E+00 3.49999E-01
 -1      2126 7.98830E+00 2.22768E+00-3.49999E-01
 -1      2127-1.03378E+01 4.55474E+00-3.49999E-01
 -1      2128-1.49343E+01 2.05575E+00-3.49999E-01
 -1      2129-2.50426E+00-2.75450E-02 3.49999E-01
 -1      2130-3.80014E+00 6.72027E+00-3.49999E-01
 -1      2131 5.88888E+00-4.60573E+00-3.49999E-01
 -1      2132 8.18579E+00 3.10963E+00-3.49999E-01
 -1      2133-8.31717E+00 1.26201E+01 3.49999E-01
 -1      2134 4.69747E+00-8.00218E+00-3.49999E-01
 -1      2135-8.96519E+00 5.24088E+00-3.49999E-01
 -1      2136-7.78596E+00-7.68761E+00 3.49999E-01
 -1      2137-8.14026E+00 8.20608E+00 3.49999E-01
 -1      2138-2.15913E+00-1.40182E+01 3.49999E-01
 -1      2139 1.32000E+01 1.90956E+00 3.49999E-01
 -1      2140-3.46220E+00-5.51477E+00-3.49999E-01
 -1      2141-1.17560E+01-1.05277E+00-3.49999E-01
 -1      2142-3.44352E+00-3.95565E+00-3.49999E-01
 -1      2143-3.96883E+00-3.10129E+00-3.49999E-01
 -1      2144 9.15274E+00 1.19255E+01-3.49999E-01
 -1      2145 1.05765E+01-5.27996E-01-3.49999E-01
 -1      2146 1.41476E+01 2.01036E-01-3.49999E-01
 -1      2147 1.46170E+00-1.26780E+01-3.49999E-01
 -1      2148-9.43424E+00-3.19359E+00 3.49999E-01
 -1      2149 2.35692E+00-1.12848E+01 3.49999E-01
 -1      2150 1.62460E+00-1.44026E+01 3.49999E-01
 -1      2151 1.51844E+01-4.17084E+00 3.49999E-01
 -1      2152 4.45580E-01-2.54005E+00-3.49999E-01
 -1      2153-1.80248E+00-5.26400E+00-3.49999E-01
 -1      2154 1.43662E+01-7.20653E+00-3.49999E-01
 -1      2155 1.32674E+01-6.59841E+00-3.49999E-01
 -1      2156 1.41472E+01-5.89957E+00-3.49999E-01
 -1      2157-7.15334E-01-7.93318E+00-3.49999E-01
 -1      2158-5.22984E+00-5.15766E+00-3.49999E-01
 -1      2159 6.71119E+00 9.20987E+00-3.49999E-01
 -1      2160-1.70396E+00-1.53910E+01 3.49999E-01
 -1      2161-8.31236E+00 6.81950E+00 3.49999E-01
 -1      2162 1.06580E+01-1.73935E+00-3.49999E-01
 -1      2163-1.20824E+01-7.74156E-01 3.49999E-01
 -1      2164-1.01878E+01-3.52674E+00-3.49999E-01
 -1      2165 1.04089E+01 3.95793E+00-3.49999E-01
 -1      2166-6.12481E+00 3.36476E+00-3.49999E-01
 -1      2167 1.18477E+01-1.65038E+00 3.49999E-01
 -1      2168-1.43407E+01 7.06288E+00 3.49999E-01
 -1      2169-6.03486E-01 6.17734E+00-3.49999E-01
 -1      2170 5.17597E+00 8.58473E+00-3.49999E-01
 -1      2171 9.77161E-01-1.72201E+00-3.49999E-01
 -1      2172 6.21415E+00-7.28117E+00-3.49999E-01
 -1      2173-2.21923E+00-4.54800E+00-3.49999E-01
 -1      2174-4.92005E+00-1.47841E+01 3.49999E-01
 -1      2175-3.45814E+00-2.36241E+00-3.49999E-01
 -1      2176 1.53843E+01-4.23149E+00-3.49999E-01
 -1      2177-2.01089E+00-8.83833E+00-3.49999E-01
 -1      2178 1.06573E+01-1.25918E+00 3.49999E-01
 -1      2179-2.45919E+00 1.01340E+01-3.49999E-01
 -1      2180 1.22669E+01-9.39713E-01-3.49999E-01
 -1      2181-8.77922E+00-1.31716E+01 3.49999E-01
 -1      2182-1.05310E+00 9.03291E+00-3.49999E-01
 -1      2183-9.41991E+00 6.03559E+00-3.49999E-01
 -1      2184-4.23347E+00 1.10621E+01-3.49999E-01
 -1      2185 1.15902E+01 2.78607E+00-3.49999E-01
 -1      2186 1.09738E+01 3.90038E-01-3.49999E-01
 -1      2187 1.36871E+01-8.50765E+00-3.49999E-01
 -1      2188 7.01655E+00 1.16391E+01 3.49999E-01
 -1      2189-9.43814E+00-3.43562E+00-3.49999E-01
 -1      2190 2.68969E+00-6.58445E+00-3.49999E-01
 -1      2191-1.03911E+01 1.07955E+01 3.49999E-01
 -1      2192 3.82008E+00 1.22425E+01-3.49999E-01
 -1      2193 2.82695E+00 1.30018E+01-3.49999E-01
 -1      2194 2.00976E+00 1.23043E+01-3.49999E-01
 -1      2195 6.19889E+00 5.97513E+00-3.49999E-01
 -1      2196 6.14565E+00-1.28492E+01 3.49999E-01
 -1      2197 1.46630E+01-3.47644E+00 3.49999E-01
 -1      2198-1.42466E+00 4.92871E-01-3.49999E-01
 -1      2199 3.89460E-01 2.65476E+00-3.49999E-01
 -1      2200 5.46109E+00 1.05528E+01-3.49999E-01
 -1      2201-6.59724E+00 1.32725E+01-3.49999E-01
 -1      2202 7.87775E+00 5.36427E+00 3.49999E-01
 -1      2203 7.30350E+00-1.21506E+01-3.49999E-01
 -1      2204 6.17531E+00-1.22262E+01-3.49999E-01
 -1      2205-3.73286E+00-1.03768E+00-3.49999E-01
 -1      2206-2.84081E+00-1.08157E+01-3.49999E-01
 -1      2207-3.44195E-01 1.56549E+01 3.49999E-01
 -1      2208 1.29004E+01 9.54777E+00-3.49999E-01
 -1      2209 6.02573E-01 7.57885E+00-3.49999E-01
 -1      2210-8.87476E+00 9.45750E+00-3.49999E-01
 -1      2211-1.55647E+01 3.50762E+00 3.49999E-01
 -1      2212-1.23815E+01 7.09854E+00-3.49999E-01
 -1      2213 5.27141E-01-8.39194E-01-3.49999E-01
 -1      2214 6.61213E+00 1.41812E+01-3.49999E-01
 -1      2215 1.53376E+01-1.60925E-02-3.49999E-01
 -1      2216-1.24138E+01-3.26434E+00-3.49999E-01
 -1      2217-4.55469E+00-1.41672E+01-3.49999E-01
 -1      2218-1.85327E+00-1.15914E+01-3.49999E-01
 -1      2219 1.00442E+01-6.10029E+00 3.49999E-01
 -1      2220 4.37859E+00-1.02102E+01-3.49999E-01
 -1      2221 5.24602E+00-9.16743E+00-3.49999E-01
 -1      2222-5.22171E+00-7.75074E+00-3.49999E-01
 -1      2223 1.02686E+01-3.77471E+00-3.49999E-01
 -1      2224-3.76323E+00-7.07874E+00-3.49999E-01
 -1      2225 2.30950E+00-9.68866E+00 3.49999E-01
 -1      2226 9.67531E+00 5.59652E-01-3.49999E-01
 -1      2227-5.34128E+00 5.63362E+00-3.49999E-01
 -1      2228 7.45517E+00-9.71095E+00 3.49999E-01
 -1      2229 3.87412E+00 4.99313E+00-3.49999E-01
 -1      2230-1.15213E+01-4.33344E+00-3.49999E-01
 -1      2231-4.96838E+00 8.60423E+00 3.49999E-01
 -1      2232-9.36902E+00 1.66608E-02-3.49999E-01
 -1      2233 2.99626E+00-1.13065E+01-3.49999E-01
 -1      2234-5.27601E+00-1.00902E+00-3.49999E-01
 -1      2235 5.03539E+00-1.13765E+01-3.49999E-01
 -1      2236 9.08163E+00-1.23705E+00-3.49999E-01
 -1      2237-8.38393E+00-6.70391E+00 3.49999E-01
 -1      2238-1.15689E+01 7.96935E+00 3.49999E-01
 -1      2239-9.08744E+00-1.01479E+01 3.49999E-01
 -1      2240 1.29442E+01-7.24181E+00-3.49999E-01
 -1      2241 1.87458E+00 1.46460E+01 3.49999E-01
 -1      2242 9.60692E+00-4.14185E-01-3.49999E-01
 -1      2243 5.90900E+00-1.30372E+01-3.49999E-01
 -1      2244 7.63576E+00-1.31756E+01-3.49999E-01
 -1      2245-5.86642E+00-1.00382E+01-3.49999E-01
 -1      2246-5.02556E+00-1.16400E+01-3.49999E-01
 -1      2247 8.17323E+00-2.69473E+00-3.49999E-01
 -1      2248-5.55594E+00 7.79014E+00-3.49999E-01
 -1      2249 6.47157E+00-1.41796E+01 3.49999E-01
 -1      2250 5.94237E+00 1.29543E+01 3.49999E-01
 -1      2251 5.64195E+00 1.13306E+01 3.49999E-01
 -1      2252 4.25737E+00 3.15010E+00-3.49999E-01
 -1      2253-1.09076E+01 9.14606E+00 3.49999E-01
 -1      2254-1.26249E+01 9.82207E+00 3.49999E-01
 -1      2255-9.28498E+00 7.65721E+00 3.49999E-01
 -1      2256 1.45053E+01 3.35272E+00-3.49999E-01
 -1      2257 2.95787E+00-9.26466E+00-3.49999E-01
 -1      2258 1.21417E+01-7.87681E+00-3.49999E-01
 -1      2259 2.76212E+00-4.18341E+00-3.49999E-01
 -1      2260 4.86790E+00-5.74068E+00-3.49999E-01
 -1      2261-3.32345E+00-1.52610E+01 3.49999E-01
 -1      2262-4.32693E+00-1.29957E+01 3.49999E-01
 -1      2263 5.67188E-01 1.03617E+01-3.49999E-01
 -1      2264 8.76629E-01 1.41647E+01 3.49999E-01
 -1      2265-9.07265E+00-1.32161E+01-3.49999E-01
 -1      2266-3.39392E+00 1.30275E+01-3.49999E-01
 -1      2267 1.08526E+01-9.77199E+00 3.49999E-01
 -1      2268 4.04276E-01 1.48661E+01-3.49999E-01
 -1      2269 6.43229E-01 1.41261E+01-3.49999E-01
 -1      2270 7.92040E-01-9.75074E+00-3.49999E-01
 -1      2271-5.65718E+00 8.58098E+00-3.49999E-01
 -1      2272-3.10721E+00 4.44945E+00-3.49999E-01
 -1      2273-4.01650E+00 1.24762E+01 3.49999E-01
 -1      2274-1.11662E+00-1.55874E+01-3.49999E-01
 -1      2275 3.08912E+00-1.55510E+01-3.49999E-01
 -1      2276-1.51359E+01 2.04390E+00 3.49999E-01
 -1      2277-7.69459E-01-1.14901E+01 3.49999E-01
 -1      2278-1.72718E+00-1.05889E+01 3.49999E-01
 -1      2279-9.11770E-01-1.06819E+01 3.49999E-01
 -1      2280-1.19017E+01 1.62353E+00-3.49999E-01
 -1      2281 2.73937E+00 4.11199E+00-3.49999E-01
 -1      2282-6.72577E+00-1.17864E+01-3.49999E-01
 -1      2283-6.18295E+00 1.85568E+00-3.49999E-01
 -1      2284 9.57720E+00 5.26695E+00-3.49999E-01
 -1      2285 8.92726E+00 6.87971E+00-3.49999E-01
 -1      2286 1.21918E+01 1.48898E+00-3.49999E-01
 -1      2287-2.88210E+00-7.14177E+00-3.49999E-01
 -1      2288 1.27097E+01-2.14445E+00-3.49999E-01
 -1      2289-7.54512E+00-2.24958E+00-3.49999E-01
 -1      2290 3.67816E+00-1.46238E+00-3.49999E-01
 -1      2291 4.21323E+00-5.20996E+00-3.49999E-01
 -1      2292 3.36601E+00 1.11523E+01-3.49999E-01
 -1      2293-5.39708E+00-6.91966E+00-3.49999E-01
 -1      2294 2.17919E+00 6.32573E+00-3.49999E-01
 -1      2295 2.46381E+00 2.03843E+00-3.49999E-01
 -1      2296-1.24284E+00 4.36637E+00-3.49999E-01
 -1      2297 9.85775E+00-5.00218E+00-3.49999E-01
 -1      2298 8.37376E+00-5.15320E+00-3.49999E-01
 -1      2299-6.88183E-01 9.68869E+00 3.49999E-01
 -1      2300 1.68574E+00 5.01007E+00-3.49999E-01
 -1      2301 3.46822E+00 1.00202E+01 3.49999E-01
 -1      2302-4.07763E+00 9.09160E+00 3.49999E-01
 -1      2303-1.02419E+01 1.27035E-02-3.49999E-01
 -1      2304 2.98371E+00-1.23278E+01-3.49999E-01
 -1      2305 6.92894E+00-4.52408E-01-3.49999E-01
 -1      2306 4.99442E+00-1.34584E+01-3.49999E-01
 -1      2307-6.48448E+00 7.45768E+00-3.49999E-01
 -1      2308 6.39359E+00-1.38859E+01-3.49999E-01
 -1      2309 2.07398E+00 1.56259E+01 3.49999E-01
 -1      2310 1.72138E+00 9.61682E+00-3.49999E-01
 -1      2311 2.32792E+00-1.59492E+00-3.49999E-01
 -1      2312 4.44186E+00-2.82087E+00-3.49999E-01
 -1      2313 4.09438E+00-6.02571E+00-3.49999E-01
 -1      2314 5.02317E+00-4.83051E+00-3.49999E-01
 -1      2315 4.04967E+00 1.03060E+01-3.49999E-01
 -1      2316 2.45621E+00 1.13071E+01-3.49999E-01
 -1      2317-6.21226E+00-6.57197E+00-3.49999E-01
 -1      2318 1.42946E+00 7.00083E+00-3.49999E-01
 -1      2319 3.21829E+00 6.26940E+00-3.49999E-01
 -1      2320 3.55693E+00 2.07827E+00-3.49999E-01
 -1      2321 1.58569E+00 2.70512E+00-3.49999E-01
 -1      2322-1.22260E+00 5.37757E+00-3.49999E-01
 -1      2323-9.53605E-02 3.82654E+00-3.49999E-01
 -1      2324-2.20195E+00 3.80366E+00-3.49999E-01
 -1      2325-3.12922E-01 4.85356E+00-3.49999E-01
 -1      2326-7.52023E-01 2.86866E+00-3.49999E-01
 -1      2327 7.19109E+00-5.45685E+00-3.49999E-01
 -1      2328 9.15319E+00-5.44557E+00-3.49999E-01
 -1      2329-1.44174E+00 1.01873E+01 3.49999E-01
 -1      2330 5.30717E+00-9.69042E-01-3.49999E-01
 -1      2331-6.90171E+00 6.71687E+00-3.49999E-01
 -1      2332 2.70711E+00-2.86198E+00-3.49999E-01
 -1      2333 1.94206E+00 8.97604E-03-3.49999E-01
 -1      2334 5.37004E+00-3.54737E+00-3.49999E-01
 -1      2335 3.60501E+00-3.50586E+00-3.49999E-01
 -1      2336 3.20622E+00-2.59317E-01-3.49999E-01
 -1      2337 1.58359E+00-9.25628E-01-3.49999E-01
 -1      2338 4.37932E+00-3.59815E+00-3.49999E-01
 -1      2339 4.69246E+00 1.07891E+01-3.49999E-01
 -1      2340 3.96341E+00 9.55302E+00-3.49999E-01
 -1      2341 1.85013E+00 1.05657E+01-3.49999E-01
 -1      2342-7.03620E+00-6.92371E+00-3.49999E-01
 -1      2343 4.62650E+00 2.14410E+00-3.49999E-01
 -1      2344 2.38635E+00 2.84806E+00-3.49999E-01
 -1      2345-2.15353E+00 4.89040E+00-3.49999E-01
 -1      2346 6.62453E-01 5.23774E+00-3.49999E-01
 -1      2347 6.32893E+00-5.35420E+00-3.49999E-01
 -1      2348-1.48518E+00 3.32346E+00-3.49999E-01
 -1      2349-3.37654E+00 3.11452E+00-3.49999E-01
 -1      2350-4.59194E-02 5.60594E+00-3.49999E-01
 -1      2351-4.67497E+00 4.07111E+00-3.49999E-01
 -1      2352 7.18122E+00-6.42456E+00-3.49999E-01
 -1      2353 5.25457E+00 1.15122E+01-3.49999E-01
 -1      2354 3.56896E+00-2.60812E+00-3.49999E-01
 -1      2355 4.58430E+00 3.55595E-01-3.49999E-01
 -1      2356-3.10164E+00 5.68918E+00-3.49999E-01
 -1      2357 5.84089E-01 4.37075E+00-3.49999E-01
 -1      2358-4.51159E+00 1.88728E+00-3.49999E-01
 -1      2359 3.04738E+00-1.98033E+00-3.49999E-01
 -1      2360 3.74958E+00 3.74624E-01-3.49999E-01
 -1      2361 5.88433E+00 3.22194E-01-3.49999E-01
 -1      2362 4.19385E+00 1.25956E+00-3.49999E-01
 -1      2363 4.32069E+00-6.47822E-01-3.49999E-01
 -1      2364 4.95035E+00 1.05000E+00-3.49999E-01
 -1      2365-1.30210E+01-9.38619E+00-3.49999E-01
 -1      2366 1.30105E+01 3.35214E+00-3.49999E-01
 -1      2367-2.08868E+00 1.31328E+01-3.49999E-01
 -1      2368 8.06651E+00 6.25149E+00-3.49999E-01
 -1      2369 1.37296E+01 5.90423E+00-3.49999E-01
 -1      2370-7.35871E+00-1.13184E+01 3.49999E-01
 -1      2371-6.87561E-01-4.10799E+00-3.49999E-01
 -1      2372 9.30365E+00-8.48140E+00 3.49999E-01
 -1      2373 7.65664E+00 1.39658E+00-3.49999E-01
 -1      2374 3.07599E+00 1.30780E+01 3.49999E-01
 -1      2375 2.13520E+00-1.32207E+00 3.49999E-01
 -1      2376-4.51142E+00-1.39958E+00-3.49999E-01
 -1      2377 5.19155E+00 5.62639E+00-3.49999E-01
 -1      2378 6.56557E+00 1.28086E+01-3.49999E-01
 -1      2379 5.64047E+00 7.46920E+00 3.49999E-01
 -1      2380-2.37257E+00 8.06976E+00-3.49999E-01
 -1      2381 7.57138E+00 4.67873E+00-3.49999E-01
 -1      2382-5.74575E+00-1.50736E+01 3.49999E-01
 -1      2383 1.50652E+01 5.87594E+00 3.49999E-01
 -1      2384 1.02586E+00-1.27327E+01 3.49999E-01
 -1      2385 7.95290E+00-1.27015E+01 3.49999E-01
 -1      2386 8.88066E+00-1.15320E+01 3.49999E-01
 -1      2387 2.73634E+00-5.03803E+00-3.49999E-01
 -1      2388 7.17285E+00 1.43477E+01 3.49999E-01
 -1      2389-1.74702E+00 9.57632E+00-3.49999E-01
 -1      2390 2.49689E-01 1.50922E+01 3.49999E-01
 -1      2391-2.79659E+00-1.20355E+01-3.49999E-01
 -1      2392-8.15575E+00 8.44887E+00-3.49999E-01
 -1      2393 7.05891E+00 1.27190E+01 3.49999E-01
 -1      2394-1.12893E+00-8.72094E+00-3.49999E-01
 -1      2395-5.89360E+00-9.90268E+00 3.49999E-01
 -1      2396-3.41451E+00-1.55612E+01-3.49999E-01
 -1      2397-9.03078E+00 2.57273E+00-3.49999E-01
 -1      2398-1.06028E+01-2.68593E+00-3.49999E-01
 -1      2399-4.03467E+00-1.28052E+01-3.49999E-01
 -1      2400-1.49580E+00-9.74124E+00-3.49999E-01
 -1      2401-8.34696E+00 3.52428E+00-3.49999E-01
 -1      2402 1.19787E+01 9.38111E+00 3.49999E-01
 -1      2403 1.59966E+01 5.08257E-01 3.49999E-01
 -1      2404 6.13155E+00 2.09279E+00-3.49999E-01
 -1      2405 6.28937E+00 1.30751E+00-3.49999E-01
 -1      2406 2.61653E+00 8.46202E+00-3.49999E-01
 -1      2407-5.11074E+00 6.55980E+00-3.49999E-01
 -1      2408 1.59307E+01-1.15044E+00 3.49999E-01
 -1      2409-1.29175E+01-9.68177E+00 3.49999E-01
 -1      2410-7.17200E-01 1.09250E+01-3.49999E-01
 -1      2411 5.71187E+00 6.52179E+00-3.49999E-01
 -1      2412 9.59403E+00 2.53096E+00 3.49999E-01
 -1      2413 9.90540E+00-6.75384E+00-3.49999E-01
 -1      2414-6.76045E+00-6.16296E+00 3.49999E-01
 -1      2415-9.98630E+00-1.80846E+00-3.49999E-01
 -1      2416 4.44826E+00-1.32848E+01 3.49999E-01
 -1      2417-2.97950E-01 8.40173E+00-3.49999E-01
 -1      2418-1.22081E+00-4.70935E+00-3.49999E-01
 -1      2419-6.69148E+00-1.26721E+01 3.49999E-01
 -1      2420 2.70684E+00-1.58803E+01 3.49999E-01
 -1      2421 8.59028E+00-1.37029E+01 3.49999E-01
 -1      2422-1.03208E+00-3.21120E+00-3.49999E-01
 -1      2423 4.25802E-01-4.37875E+00-3.49999E-01
 -1      2424 2.02234E+00 1.59176E+01-3.49999E-01
 -1      2425-1.67248E+00-8.00901E+00-3.49999E-01
 -1      2426 1.11223E+01 1.05906E+01 3.49999E-01
 -1      2427-8.31472E+00-3.75770E+00-3.49999E-01
 -1      2428 8.99171E+00 6.28707E+00 3.49999E-01
 -1      2429-9.07966E+00 3.65357E+00 3.49999E-01
 -1      2430 6.08675E+00-7.24693E+00 3.49999E-01
 -1      2431-5.83738E+00-1.08098E+01 3.49999E-01
 -1      2432 1.07654E+01 2.30811E+00-3.49999E-01
 -1      2433 7.29947E+00 1.45401E+01-3.49999E-01
 -1      2434-1.04712E+01-8.83607E+00-3.49999E-01
 -1      2435-1.63494E+00-9.78662E+00 3.49999E-01
 -1      2436-7.54160E+00-3.85784E+00-3.49999E-01
 -1      2437 2.32621E+00 1.03451E+01 3.49999E-01
 -1      2438 8.96592E+00 5.95795E+00-3.49999E-01
 -1      2439-8.61982E+00-4.57130E+00-3.49999E-01
 -1      2440-1.57251E+00-2.08233E+00 3.49999E-01
 -1      2441-1.15781E+01-2.54917E+00-3.49999E-01
 -1      2442-1.42052E+01-5.62684E+00 3.49999E-01
 -1      2443-1.93765E+00-1.21965E+01 3.49999E-01
 -1      2444-5.33927E+00 1.44837E+00-3.49999E-01
 -1      2445-9.57278E+00 7.44307E+00-3.49999E-01
 -1      2446 1.31984E+01-4.12695E+00 3.49999E-01
 -1      2447 1.18724E+01-3.07787E+00 3.49999E-01
 -1      2448-1.16687E+00-1.60976E+01 3.49999E-01
 -1      2449-3.82859E+00-1.74838E+00-3.49999E-01
 -1      2450 8.99031E+00 9.29287E+00 3.49999E-01
 -1      2451 1.12707E+00-2.26347E+00 3.49999E-01
 -1      2452-1.17468E+01-1.81046E+00-3.49999E-01
 -1      2453-1.07732E+01-7.19207E+00-3.49999E-01
 -1      2454 6.45967E-01-5.91725E+00-3.49999E-01
 -1      2455 9.49953E+00-4.98072E+00 3.49999E-01
 -1      2456 2.13899E+00-2.34173E+00-3.49999E-01
 -1      2457 3.51361E+00-8.65630E+00-3.49999E-01
 -1      2458 1.28034E+01-5.44157E+00 3.49999E-01
 -1      2459-6.64382E+00-2.53603E+00-3.49999E-01
 -1      2460 9.81569E+00 1.12975E+01 3.49999E-01
 -1      2461 1.04755E+01 2.26929E+00 3.49999E-01
 -1      2462 1.10403E+01-8.15689E+00 3.49999E-01
 -1      2463-8.78081E+00-3.80015E+00 3.49999E-01
 -1      2464-1.87629E+00-3.13663E+00-3.49999E-01
 -1      2465 1.31270E+01-3.05325E+00 3.49999E-01
 -1      2466-6.66381E-01-1.51597E+01 3.49999E-01
 -1      2467 6.37484E-01-1.52603E+01 3.49999E-01
 -1      2468-5.94719E+00 1.00485E+01 3.49999E-01
 -1      2469-1.30295E+00 6.79415E+00-3.49999E-01
 -1      2470 1.34555E+01-1.65901E+00 3.49999E-01
 -1      2471 1.88882E+00-3.55791E+00-3.49999E-01
 -1      2472-6.50876E+00 5.75900E+00-3.49999E-01
 -1      2473 1.19686E+01-4.16954E+00-3.49999E-01
 -1      2474-4.41432E+00-8.86516E+00 3.49999E-01
 -1      2475-7.30810E+00-1.33051E+01-3.49999E-01
 -1      2476 8.39990E+00-7.33576E+00-3.49999E-01
 -1      2477 1.32774E+01-3.30324E+00-3.49999E-01
 -1      2478 1.30845E+00 5.72776E+00-3.49999E-01
 -1      2479-1.08891E+01 3.76195E+00-3.49999E-01
 -1      2480-3.80299E+00 3.89519E+00-3.49999E-01
 -1      2481 8.98149E-01-3.50642E+00-3.49999E-01
 -1      2482-6.95073E+00 1.62149E-02-3.49999E-01
 -1      2483-1.10535E+01 1.00107E+01 3.49999E-01
 -1      2484-5.07945E+00-4.34404E+00-3.49999E-01
 -1      2485 4.99801E+00-1.23912E+01 3.49999E-01
 -1      2486 8.25908E+00-1.48450E-01-3.49999E-01
 -1      2487 7.01534E+00 3.99820E+00-3.49999E-01
 -1      2488 4.66934E+00-1.79908E+00-3.49999E-01
 -1      2489 6.98719E+00 1.20189E+01-3.49999E-01
 -1      2490 2.25035E+00 7.15860E+00-3.49999E-01
 -1      2491-5.29420E+00-1.98832E+00-3.49999E-01
 -1      2492 1.35271E+00-4.31660E+00-3.49999E-01
 -1      2493-1.37832E+01-5.40435E+00-3.49999E-01
 -1      2494 1.58973E+00-1.37386E+01-3.49999E-01
 -1      2495-4.48041E+00-9.35253E+00-3.49999E-01
 -1      2496-2.43788E+00-9.94103E+00-3.49999E-01
 -1      2497-7.01638E+00 3.47663E+00-3.49999E-01
 -1      2498-1.80908E-01 9.62164E+00-3.49999E-01
 -1      2499 8.55106E-01 1.10970E+01-3.49999E-01
 -1      2500-4.49198E+00 8.50449E-01-3.49999E-01
 -1      2501 1.15377E+01 3.86367E+00-3.49999E-01
 -1      2502 8.85616E+00 4.27680E-01-3.49999E-01
 -1      2503-1.20422E+01-1.46227E-01-3.49999E-01
 -1      2504 9.82827E+00 6.45581E+00-3.49999E-01
 -1      2505-5.00059E+00 7.29538E+00-3.49999E-01
 -1      2506-9.74048E-01-6.27552E+00-3.49999E-01
 -1      2507-1.18052E+01 8.90716E+00-3.49999E-01
 -1      2508 7.29689E+00 1.26916E+01-3.49999E-01
 -1      2509 1.46999E+01-6.21707E+00 3.49999E-01
 -1      2510-4.25177E+00-9.81883E+00 3.49999E-01
 -1      2511 7.82895E+00-1.32853E+00-3.49999E-01
 -1      2512 7.42980E+00 4.18164E-01-3.49999E-01
 -1      2513 1.48717E+00 2.01504E+00 3.49999E-01
 -1      2514 2.32590E+00 5.52034E+00-3.49999E-01
 -1      2515 1.07258E+01-5.75778E+00-3.49999E-01
 -1      2516-4.66654E+00 8.13049E+00-3.49999E-01
 -1      2517 3.28163E-01-1.39917E+01-3.49999E-01
 -1      2518-7.89276E+00-8.45733E+00-3.49999E-01
 -1      2519 9.48287E+00-3.43354E+00-3.49999E-01
 -1      2520-5.43904E+00-1.08524E+01-3.49999E-01
 -1      2521 9.02799E+00-2.21552E+00-3.49999E-01
 -1      2522-3.65474E-01-8.61933E+00-3.49999E-01
 -1      2523 4.56818E+00 4.54623E+00-3.49999E-01
 -1      2524-2.83732E+00-1.45496E+01 3.49999E-01
 -1      2525 1.13809E+01 1.77319E+00 3.49999E-01
 -1      2526-1.26624E+01-6.22390E+00 3.49999E-01
 -1      2527 6.35315E+00-1.44869E+00-3.49999E-01
 -1      2528 1.69695E+00-8.16182E+00-3.49999E-01
 -1      2529-1.23089E+01-6.94371E+00-3.49999E-01
 -1      2530-1.39484E+01 1.21667E-01-3.49999E-01
 -1      2531 8.18809E+00-5.27797E+00 3.49999E-01
 -1      2532-1.47883E+01 5.59991E-01-3.49999E-01
 -1      2533-1.11362E+01-1.04360E+01 3.49999E-01
 -1      2534-1.17631E+01-1.12704E+01-3.49999E-01
 -1      2535-5.71573E+00-3.79243E+00-3.49999E-01
 -1      2536-6.54089E+00-1.45668E+01-3.49999E-01
 -1      2537 1.26900E+01-8.00048E+00 3.49999E-01
 -1      2538-1.32373E+01 1.94635E+00-3.49999E-01
 -1      2539-5.05637E+00 1.09715E+01-3.49999E-01
 -1      2540-7.01907E+00 2.01362E+00-3.49999E-01
 -1      2541 5.76215E+00 1.24760E+01-3.49999E-01
 -1      2542-2.44554E+00-3.73937E+00-3.49999E-01
 -1      2543 4.21544E+00-1.35198E+01-3.49999E-01
 -1      2544 2.43944E-01-1.09059E+01-3.49999E-01
 -1      2545-8.81252E-01-1.12978E+01-3.49999E-01
 -1      2546-4.45057E+00 5.09013E+00-3.49999E-01
 -1      2547-9.81086E+00-5.01241E+00-3.49999E-01
 -1      2548 7.85055E+00 3.88320E+00-3.49999E-01
 -1      2549-1.01875E+01 5.82936E+00-3.49999E-01
 -1      2550 6.09368E+00-6.34208E-01-3.49999E-01
 -1      2551 3.53681E-01 1.74814E+00-3.49999E-01
 -1      2552 1.25922E+01-3.75678E+00-3.49999E-01
 -1      2553 3.21679E+00-9.54386E+00 3.49999E-01
 -1      2554 3.73859E+00-7.76028E+00-3.49999E-01
 -1      2555-9.90994E+00 9.41770E+00-3.49999E-01
 -1      2556-2.62303E+00-1.29094E+01-3.49999E-01
 -1      2557 8.80160E+00 1.99079E+00-3.49999E-01
 -1      2558-6.75304E+00 1.12984E+00-3.49999E-01
 -1      2559 9.77852E+00-2.05473E+00 3.49999E-01
 -1      2560-2.87589E+00-8.54325E+00-3.49999E-01
 -1      2561-2.49588E+00-2.35317E+00-3.49999E-01
 -1      2562-1.57947E+01 2.48227E+00-3.49999E-01
 -1      2563 5.11053E+00-6.91536E+00-3.49999E-01
 -1      2564-4.49324E+00-4.20289E-01-3.49999E-01
 -1      2565 5.41559E+00 7.72542E+00-3.49999E-01
 -1      2566-4.90568E+00-3.00202E+00-3.49999E-01
 -1      2567 1.48275E+01-6.45737E+00-3.49999E-01
 -1      2568-7.45543E+00 7.58573E+00 3.49999E-01
 -1      2569 4.28341E-01-1.25122E+01-3.49999E-01
 -1      2570-2.56553E+00-5.83157E+00-3.49999E-01
 -1      2571 4.87529E-02-1.43909E+01 3.49999E-01
 -1      2572 1.58253E+00-1.36580E+01 3.49999E-01
 -1      2573-7.79015E+00-1.08674E-01-3.49999E-01
 -1      2574-1.71650E+00-9.25258E-01-3.49999E-01
 -1      2575-4.32237E+00-1.39897E+01 3.49999E-01
 -1      2576-1.23165E+01 1.63296E-02 3.49999E-01
 -1      2577 5.61034E-01 9.61976E+00-3.49999E-01
 -1      2578 5.35464E+00 9.81803E+00-3.49999E-01
 -1      2579 1.16706E+00-5.19098E+00-3.49999E-01
 -1      2580-6.47109E+00 2.62244E+00-3.49999E-01
 -1      2581 1.17967E+01-1.03302E-01-3.49999E-01
 -1      2582 6.23329E+00 1.35069E+01-3.49999E-01
 -1      2583 5.44960E+00 1.23096E+01 3.49999E-01
 -1      2584-1.69947E+00 1.61131E+00-3.49999E-01
 -1      2585-7.44740E-01 6.78917E-01 3.49999E-01
 -1      2586 2.58452E-01 2.78909E+00 3.49999E-01
 -1      2587 9.78129E+00-1.76611E+00-3.49999E-01
 -1      2588-9.85215E+00 9.12396E+00 3.49999E-01
 -1      2589-6.65475E-03 6.88343E+00-3.49999E-01
 -1      2590 5.22601E+00-2.77522E+00-3.49999E-01
 -1      2591 6.55480E+00-3.56787E+00-3.49999E-01
 -1      2592 1.61670E+01 1.77970E-01-3.49999E-01
 -1      2593-1.84652E+00 8.73449E+00-3.49999E-01
 -1      2594 2.59374E+00 9.36870E+00-3.49999E-01
 -1      2595-4.83059E+00-1.51612E+01-3.49999E-01
 -1      2596 1.11049E+01-2.87977E+00-3.49999E-01
 -1      2597 9.77835E+00 1.50159E+00-3.49999E-01
 -1      2598-4.19796E+00 8.88824E+00-3.49999E-01
 -1      2599-5.41506E+00 2.58175E+00-3.49999E-01
 -1      2600-3.50290E+00-1.23113E+01 3.49999E-01
 -1      2601-3.67575E+00-1.90408E-01-3.49999E-01
 -1      2602 8.34753E+00-3.70081E+00-3.49999E-01
 -1      2603-6.78860E+00-9.77355E+00-3.49999E-01
 -1      2604-9.28267E+00 9.79296E+00 3.49999E-01
 -1      2605 5.29116E+00-1.47189E+01 3.49999E-01
 -1      2606 6.80618E+00-1.33925E+01 3.49999E-01
 -1      2607 4.90729E+00 1.16188E+01 3.49999E-01
 -1      2608-9.02958E+00 6.97025E+00 3.49999E-01
 -1      2609 5.11152E+00 3.02822E+00-3.49999E-01
 -1      2610 2.40624E+00-9.73988E+00-3.49999E-01
 -1      2611 3.51997E+00-9.96021E+00-3.49999E-01
 -1      2612 1.28746E+01-8.00404E+00-3.49999E-01
 -1      2613-4.25884E+00-1.54815E+01 3.49999E-01
 -1      2614 9.50131E+00 7.82653E+00-3.49999E-01
 -1      2615 8.42190E+00 7.68019E+00-3.49999E-01
 -1      2616-3.19477E-01-1.45772E+01-3.49999E-01
 -1      2617 9.96211E+00 4.59279E+00-3.49999E-01
 -1      2618-1.78866E+00-1.47109E+01-3.49999E-01
 -1      2619-1.98961E+00-1.59509E+01-3.49999E-01
 -1      2620-5.97056E+00-1.27368E+01-3.49999E-01
 -1      2621-5.09882E+00 9.97107E+00-3.49999E-01
 -1      2622 9.48445E+00 5.01965E+00 3.49999E-01
 -1      2623 1.88939E+00 4.18189E+00-3.49999E-01
 -1      2624-2.13791E-01-5.87142E+00-3.49999E-01
 -1      2625-1.23893E+00-7.40278E+00-3.49999E-01
 -1      2626-7.14090E-01 2.50977E+00 3.49999E-01
 -1      2627 9.69367E-01 5.68249E-01-3.49999E-01
 -1      2628-3.11707E-01-1.35117E+01-3.49999E-01
 -1      2629 1.77323E-01-6.62158E+00-3.49999E-01
 -1      2630-5.33908E+00 4.71123E+00-3.49999E-01
 -1      2631-2.67149E+00 6.34055E+00-3.49999E-01
 -1      2632 4.98412E+00-2.85778E-01-3.49999E-01
 -1      2633-9.98112E+00 6.59277E+00-3.49999E-01
 -1      2634-7.72904E+00 6.57898E-01-3.49999E-01
 -1      2635 6.34386E+00 1.46179E+01 3.49999E-01
 -1      2636-3.68658E+00-1.37184E+01-3.49999E-01
 -1      2637-3.56300E+00-1.21833E+01-3.49999E-01
 -1      2638-9.16338E+00 4.06051E+00-3.49999E-01
 -1      2639 1.50618E+00 8.25615E+00-3.49999E-01
 -1      2640-1.19002E+00 8.19300E+00-3.49999E-01
 -1      2641-1.09197E+00-5.52709E+00-3.49999E-01
 -1      2642-7.54620E+00-1.25250E+01 3.49999E-01
 -1      2643-9.17237E+00-1.97233E+00-3.49999E-01
 -1      2644-5.86092E+00-1.22821E+01 3.49999E-01
 -1      2645-2.91656E+00-1.50943E+00-3.49999E-01
 -1      2646-8.21897E+00-2.85613E+00-3.49999E-01
 -1      2647 2.26635E+00 3.56284E+00-3.49999E-01
 -1      2648-6.71644E+00-1.07100E+01 3.49999E-01
 -1      2649 9.67900E-01-6.63953E+00-3.49999E-01
 -1      2650 1.11004E+01-3.05450E+00 3.49999E-01
 -1      2651-1.93198E+00-1.61218E+01 3.49999E-01
 -1      2652-1.44505E+01-6.53678E-01-3.49999E-01
 -1      2653-1.05903E+01-7.19111E+00 3.49999E-01
 -1      2654 3.05174E-01-5.18102E+00-3.49999E-01
 -1      2655-1.41218E+01 8.13300E-01-3.49999E-01
 -1      2656-9.41436E+00 1.00100E+01-3.49999E-01
 -1      2657-9.40690E+00-4.29662E+00 3.49999E-01
 -1      2658 1.14738E+00-1.53733E+01-3.49999E-01
 -1      2659 1.22306E+01-5.05129E+00-3.49999E-01
 -1      2660 1.11203E+01-3.96492E+00-3.49999E-01
 -1      2661 1.17393E+01-4.54786E+00 3.49999E-01
 -1      2662 7.83929E+00-6.81499E+00-3.49999E-01
 -1      2663-4.42784E+00 3.04705E+00-3.49999E-01
 -1      2664-6.30126E+00-8.03322E-01-3.49999E-01
 -1      2665-9.70009E-01-1.55996E+00-3.49999E-01
 -1      2666 5.18646E+00-1.15840E+01 3.49999E-01
 -1      2667 5.52897E+00-1.79957E+00-3.49999E-01
 -1      2668-6.10982E+00-1.91520E+00-3.49999E-01
 -1      2669 2.02848E+00-4.70809E+00-3.49999E-01
 -1      2670-9.31946E-01 1.00746E+01-3.49999E-01
 -1      2671-3.14657E+00-9.75364E+00-3.49999E-01
 -1      2672-3.15311E+00 1.39437E+00-3.49999E-01
 -1      2673 1.39707E+01-5.84390E+00 3.49999E-01
 -1      2674 6.64367E+00 5.85964E-01-3.49999E-01
 -1      2675 8.43665E-01-1.32906E+01-3.49999E-01
 -1      2676 8.30854E+00-1.93415E+00-3.49999E-01
 -1      2677 8.88522E+00-2.96278E+00-3.49999E-01
 -1      2678 5.70681E+00-1.40672E+01 3.49999E-01
 -1      2679-1.21120E+01-6.78779E+00 3.49999E-01
 -1      2680 7.09516E+00-2.31714E+00-3.49999E-01
 -1      2681 2.26722E+00-7.41965E+00-3.49999E-01
 -1      2682-1.29560E+01 2.67647E-01-3.49999E-01
 -1      2683-1.37899E+01 7.66650E-02 3.49999E-01
 -1      2684-1.49242E+01 7.74620E-01 3.49999E-01
 -1      2685 1.13848E+01-8.85170E-01-3.49999E-01
 -1      2686 2.77318E-02-1.00957E+01-3.49999E-01
 -1      2687 8.58295E+00 3.74117E+00-3.49999E-01
 -1      2688 3.55686E-01 1.25013E+00 3.49999E-01
 -1      2689 3.70006E+00-1.01577E+01 3.49999E-01
 -1      2690 9.42004E+00-1.31813E+00 3.49999E-01
 -1      2691-6.28265E+00 4.71974E-01-3.49999E-01
 -1      2692 7.47825E+00-3.33327E+00-3.49999E-01
 -1      2693-1.83772E+00-6.29708E+00-3.49999E-01
 -1      2694-7.47565E+00-9.66182E-01-3.49999E-01
 -1      2695-5.27000E-01 7.81793E-01-3.49999E-01
 -1      2696 6.68496E+00-4.38395E+00-3.49999E-01
 -1      2697-4.33257E+00-1.57175E+01-3.49999E-01
 -1      2698 1.17893E+01-3.35551E+00-3.49999E-01
 -1      2699-5.26158E+00 3.43405E+00-3.49999E-01
 -1      2700-7.04394E+00-1.05935E+01-3.49999E-01
 -1      2701 5.14574E+00-1.51881E+01-3.49999E-01
 -1      2702 9.74877E+00 8.13980E+00 3.49999E-01
 -1      2703-5.86173E+00-1.18750E+01-3.49999E-01
 -1      2704-1.62131E+00-1.46017E+01 3.49999E-01
 -1      2705-5.19811E+00-1.33881E+01-3.49999E-01
 -1      2706 1.82078E+00 9.23534E-01-3.49999E-01
 -1      2707 1.02499E+00-1.47416E-01 3.49999E-01
 -1      2708-5.54733E-01-6.96880E+00-3.49999E-01
 -1      2709 6.19966E+00 1.49185E+01-3.49999E-01
 -1      2710 1.82089E+00-6.36483E+00-3.49999E-01
 -1      2711-1.46944E+01-1.06486E+00 3.49999E-01
 -1      2712-5.66326E+00-2.81246E-01-3.49999E-01
 -1      2713-2.49213E+00 1.94403E+00-3.49999E-01
 -1      2714-3.62676E+00 2.20743E+00-3.49999E-01
 -1      2715-3.92708E+00 1.37973E+00-3.49999E-01
 -1      2716 1.44315E+00-7.32008E+00-3.49999E-01
 -1      2717-1.27180E+01 1.17045E+00-3.49999E-01
 -1      2718 2.60255E-01 9.48805E-01-3.49999E-01
 -1      2719 5.12523E+00-1.54605E+01 3.49999E-01
 -1      2720-4.91907E+00-1.34954E+01 3.49999E-01
 -1      2721 7.45400E-01 5.77726E-01 3.49999E-01
 -1      2722 1.10725E+00-2.48271E-01-3.49999E-01
 -1      2723 2.35782E+00 9.13420E-01 3.49999E-01
 -1      2724-1.24561E+01 8.90891E-01 3.49999E-01
 -1      2725 2.56075E+00 5.56343E-01-3.49999E-01
 -1      2726-1.19432E+01 7.36372E-01-3.49999E-01
 -1      2727-1.14915E+01 8.61925E-01 3.49999E-01
 -1      2728 2.51515E+00-1.55732E+00 3.49999E-01
 -1      2729 1.78031E+00 2.35749E+00 3.49999E-01
 -1      2730-1.42749E+00-2.87173E+00-3.49999E-01
 -1      2731-2.95420E+00 0.00000E+00 3.49999E-01
 -1      2732-1.35912E+00 2.34049E+00-3.49999E-01
 -1      2733-1.43063E+00 2.23253E+00 3.49999E-01
 -1      2734-4.47045E-01-2.53702E+00-3.49999E-01
 -1      2735-6.88730E-01-2.18847E+00 3.49999E-01
 -1      2736-6.76895E-02-3.98354E+00-3.49999E-01
 -1      2737-1.17823E+00-2.53188E+00 3.49999E-01
 -1      2738 2.09006E+00-2.96548E+00-3.49999E-01
 -1      2739 9.71997E-01 3.04992E+00-3.49999E-01
 -1      2740 3.15076E+00 4.36662E-01-3.49999E-01
 -1      2741-3.42171E+00-1.44139E+00-3.49999E-01
 -1      2742 1.80275E+00-1.97655E+00 3.49999E-01
 -1      2743 3.02454E+00 1.66969E+00-3.49999E-01
 -1      2744-1.11585E-01 3.13364E+00-3.49999E-01
 -1      2745 2.52386E+00-6.33241E-01 3.49999E-01
 -1      2746 2.44247E+00-7.19000E-01-3.49999E-01
 -1      2747 3.64988E+00-7.79375E-01-3.49999E-01
 -1      2748 5.41293E-01-2.64542E+00 3.49999E-01
 -1      2749 9.08845E-01-2.91225E+00-3.49999E-01
 -1      2750-2.11298E+00-1.63551E+00-3.49999E-01
 -1      2751-2.14051E+00-1.56497E+00 3.49999E-01
 -1      2752-1.18078E+00 2.65137E+00 3.49999E-01
 -1      2753-3.02583E+00-7.56385E-01-3.49999E-01
 -1      2754-2.33083E+00 8.63194E-01-3.49999E-01
 -1      2755-2.32520E+00 9.30331E-01 3.49999E-01
 -1      2756-3.03094E+00 6.81437E-01-3.49999E-01
 -1      2757 2.11930E+00 1.61977E+00 3.49999E-01
 -1      2758-2.07517E+00 1.89176E+00 3.49999E-01
 -1      2759-2.82200E+00 2.61415E+00-3.49999E-01
 -1      2760 2.68408E+00 2.94893E-01 3.49999E-01
 -1      2761-1.69121E-01-2.67375E+00 3.49999E-01
 -1      2762-1.57396E+00 2.81250E+00-3.49999E-01
 -1      2763 8.36392E-01 2.67347E+00 3.49999E-01
 -1      2764 2.55170E+00 1.37234E+00 3.49999E-01
 -1      2765-1.71040E-03-2.82641E+00-3.49999E-01
 -1      2766 1.80428E+00-2.38924E+00 3.49999E-01
 -1      2767 3.04116E+00-8.49396E-01-3.49999E-01
 -1      2768-2.82624E-01 2.84025E+00 3.49999E-01
 -1      2769-2.01294E+00-2.14986E+00-3.49999E-01
 -1      2770-2.43356E+00-1.05490E+00-3.49999E-01
 -1      2771-2.76441E+00 1.09404E+00-3.49999E-01
 -1      2772-2.80438E-01-3.02633E+00 3.49999E-01
 -1      2773 2.93537E+00-5.48723E-01 3.49999E-01
 -1      2774-2.19328E+00-1.99943E+00 3.49999E-01
 -1      2775-2.61842E+00-1.01438E+00 3.49999E-01
 -3
    3C                          8164                                     1
 -1         1    3    0    1
 -2       584       581       585       592
 -1         2    3    0    1
 -2       193       194      2464      1363
 -1         3    3    0    1
 -2      1520       992      1711      2271
 -1         4    3    0    1
 -2       198       758       751       741
 -1         5    3    0    1
 -2       621       107       622       633
 -1         6    3    0    1
 -2       362        92       609       982
 -1         7    3    0    1
 -2      1682       679      1897      2005
 -1         8    3    0    1
 -2      1903       800      2225      2610
 -1         9    3    0    1
 -2       770       217       221      1233
 -1        10    3    0    1
 -2      1003       666      1005      1009
 -1        11    3    0    1
 -2      1004      1202      1006       672
 -1        12    3    0    1
 -2      2263       583      2498      2577
 -1        13    3    0    1
 -2       393       391       537       544
 -1        14    3    0    1
 -2       576       571       581       585
 -1        15    3    0    1
 -2      1495      1556      1942      2383
 -1        16    3    0    1
 -2      1732      1438      1787      1915
 -1        17    3    0    1
 -2       563       555       552       567
 -1        18    3    0    1
 -2      1011      1211       705      1013
 -1        19    3    0    1
 -2       525        40       533       536
 -1        20    3    0    1
 -2       264       259      2121      2313
 -1        21    3    0    1
 -2       484       477       485       488
 -1        22    3    0    1
 -2       605        94       608       984
 -1        23    3    0    1
 -2       336       663      1681      2472
 -1        24    3    0    1
 -2       289       869       872      1269
 -1        25    3    0    1
 -2       652       646       653       657
 -1        26    3    0    1
 -2       500       511       957       959
 -1        27    3    0    1
 -2       632       629       633       640
 -1        28    3    0    1
 -2      1146       967       531      1904
 -1        29    3    0    1
 -2      1183       989       617      1181
 -1        30    3    0    1
 -2      1482      1666      1685      1997
 -1        31    3    0    1
 -2        66       557       560       568
 -1        32    3    0    1
 -2      1200       331      2397      2429
 -1        33    3    0    1
 -2       286       285       868      1266
 -1        34    3    0    1
 -2        88        97       596       603
 -1        35    3    0    1
 -2      2384      1673      2569      2675
 -1        36    3    0    1
 -2      1034       219      1981      1985
 -1        37    3    0    1
 -2        45        41       532      1144
 -1        38    3    0    1
 -2       452       393       532       543
 -1        39    3    0    1
 -2      1580      1403      2532      2684
 -1        40    3    0    1
 -2      1401      1790      2284      2504
 -1        41    3    0    1
 -2      1002      1200      1008       667
 -1        42    3    0    1
 -2      1687       936      1730      2176
 -1        43    3    0    1
 -2      1440      1395      1549      1677
 -1        44    3    0    1
 -2       185       192      1622      2484
 -1        45    3    0    1
 -2       736       183      1622      2097
 -1        46    3    0    1
 -2      1158       549       970      1150
 -1        47    3    0    1
 -2       508       501       509       512
 -1        48    3    0    1
 -2       571        79       576       581
 -1        49    3    0    1
 -2       236       797       799      1037
 -1        50    3    0    1
 -2        75       584       972      1162
 -1        51    3    0    1
 -2      1114      1303      2408      2592
 -1        52    3    0    1
 -2        83       588       585       592
 -1        53    3    0    1
 -2      1271      1066      2290      1350
 -1        54    3    0    1
 -2       780       764       777       784
 -1        55    3    0    1
 -2       778      1036      2371      2418
 -1        56    3    0    1
 -2       536       533       966      1142
 -1        57    3    0    1
 -2      1285      1284      2365      2409
 -1        58    3    0    1
 -2      1746      1655      1816      1866
 -1        59    3    0    1
 -2      1567      1544      1607      1692
 -1        60    3    0    1
 -2       897       898      1604      1760
 -1        61    3    0    1
 -2      1040      2454      2624      2654
 -1        62    3    0    1
 -2       668      1201      1197      1007
 -1        63    3    0    1
 -2      1727      1335      1817      2408
 -1        64    3    0    1
 -2       811       253       816       823
 -1        65    3    0    1
 -2        35       508       515       519
 -1        66    3    0    1
 -2       633       118       636       640
 -1        67    3    0    1
 -2       561       968      1156      1160
 -1        68    3    0    1
 -2       243      1040      1248      2454
 -1        69    3    0    1
 -2       690       157       374      1349
 -1        70    3    0    1
 -2        35       448       508       519
 -1        71    3    0    1
 -2      1791       654      1808      2135
 -1        72    3    0    1
 -2      1217       723      1577      2175
 -1        73    3    0    1
 -2      1683      1746      1816      1866
 -1        74    3    0    1
 -2       443       760      1423      1700
 -1        75    3    0    1
 -2      1671      1620      1907      1992
 -1        76    3    0    1
 -2        18        16       496      1582
 -1        77    3    0    1
 -2        28       517       509       519
 -1        78    3    0    1
 -2       772       218       777      1031
 -1        79    3    0    1
 -2      1000       653      1187      1188
 -1        80    3    0    1
 -2        73       588       571       585
 -1        81    3    0    1
 -2       612       599       609       616
 -1        82    3    0    1
 -2        61       565        67       552
 -1        83    3    0    1
 -2       517        28       446       519
 -1        84    3    0    1
 -2      1598      1386      2080      2538
 -1        85    3    0    1
 -2       777       773       783       784
 -1        86    3    0    1
 -2       658      1001      2358      2714
 -1        87    3    0    1
 -2       532       525       539       543
 -1        88    3    0    1
 -2       620       992       986       619
 -1        89    3    0    1
 -2       234       787       796       801
 -1        90    3    0    1
 -2       516       502       513       520
 -1        91    3    0    1
 -2       660       131       140       664
 -1        92    3    0    1
 -2      1395      1543      1677      2201
 -1        93    3    0    1
 -2       393       532       537      1148
 -1        94    3    0    1
 -2      1085      1323      1607      1692
 -1        95    3    0    1
 -2      1861      1921      1946      2266
 -1        96    3    0    1
 -2       848       844       849       856
 -1        97    3    0    1
 -2      1407      1636      1662      1893
 -1        98    3    0    1
 -2        77       587       576        86
 -1        99    3    0    1
 -2       705       351       708       712
 -1       100    3    0    1
 -2      1228      1026       745      1224
 -1       101    3    0    1
 -2       528      1145       962       527
 -1       102    3    0    1
 -2      1616       335      2210      2392
 -1       103    3    0    1
 -2      1199      1009       675      2500
 -1       104    3    0    1
 -2       508        32       513       519
 -1       105    3    0    1
 -2       629       622       632       633
 -1       106    3    0    1
 -2      1693      1833      1845      2239
 -1       107    3    0    1
 -2      1699      1021      1877      2547
 -1       108    3    0    1
 -2       340       322      1472      1527
 -1       109    3    0    1
 -2        58       547       552       555
 -1       110    3    0    1
 -2       512       508       513       519
 -1       111    3    0    1
 -2      1412      1751      1862      1979
 -1       112    3    0    1
 -2       448        32       508       519
 -1       113    3    0    1
 -2       811       823       825       832
 -1       114    3    0    1
 -2      1473      1433      1501      1633
 -1       115    3    0    1
 -2        31        28       512       519
 -1       116    3    0    1
 -2       545       546       971      1153
 -1       117    3    0    1
 -2        28       509       512       519
 -1       118    3    0    1
 -2       207       748       759       760
 -1       119    3    0    1
 -2       509       508       512       519
 -1       120    3    0    1
 -2       211       443       751       760
 -1       121    3    0    1
 -2       686       680       670       688
 -1       122    3    0    1
 -2        63        64       555       968
 -1       123    3    0    1
 -2         9        13       495      2486
 -1       124    3    0    1
 -2       501       508       509       519
 -1       125    3    0    1
 -2       180       177       718       725
 -1       126    3    0    1
 -2       637       114       357       639
 -1       127    3    0    1
 -2       331      1773      2013      2401
 -1       128    3    0    1
 -2       146       674       673      1197
 -1       129    3    0    1
 -2       764       215       773       775
 -1       130    3    0    1
 -2       729       728       735       736
 -1       131    3    0    1
 -2      1881       399      1940      2185
 -1       132    3    0    1
 -2       840      1056       846       839
 -1       133    3    0    1
 -2       508       501       515       519
 -1       134    3    0    1
 -2       215       216       764       773
 -1       135    3    0    1
 -2       124       127       646       657
 -1       136    3    0    1
 -2      1752       436      2225      2257
 -1       137    3    0    1
 -2       627       116       633       639
 -1       138    3    0    1
 -2       751       443       759       760
 -1       139    3    0    1
 -2       259       820       825      1258
 -1       140    3    0    1
 -2      1617      1425      1658      2068
 -1       141    3    0    1
 -2      1995      1559      2091      2443
 -1       142    3    0    1
 -2       517       501       509       519
 -1       143    3    0    1
 -2        81       587       378       591
 -1       144    3    0    1
 -2        56       561      1154      1156
 -1       145    3    0    1
 -2       792       236       797       799
 -1       146    3    0    1
 -2      1949      2466      2467      2571
 -1       147    3    0    1
 -2      1511       167      2115      2163
 -1       148    3    0    1
 -2       504      1139       503       514
 -1       149    3    0    1
 -2       149       676       681      1202
 -1       150    3    0    1
 -2      1016      1217      2376      2449
 -1       151    3    0    1
 -2       352        94       608       615
 -1       152    3    0    1
 -2       636       622       633       640
 -1       153    3    0    1
 -2      1027       370      2062      2099
 -1       154    3    0    1
 -2      1320       314      1077      1717
 -1       155    3    0    1
 -2       638       334       632       640
 -1       156    3    0    1
 -2      1739      1605      2136      2237
 -1       157    3    0    1
 -2       756       209       371       760
 -1       158    3    0    1
 -2       407       602       414       983
 -1       159    3    0    1
 -2      1584      1422      1694      1778
 -1       160    3    0    1
 -2       185       192       736      1622
 -1       161    3    0    1
 -2       143       669       670       677
 -1       162    3    0    1
 -2      1468      1455      2243      2306
 -1       163    3    0    1
 -2       302      1279       350      1642
 -1       164    3    0    1
 -2       566        66       560       568
 -1       165    3    0    1
 -2       904      1306      1691      1823
 -1       166    3    0    1
 -2       609       603       981       982
 -1       167    3    0    1
 -2       647      1191       658       651
 -1       168    3    0    1
 -2         6      1499      1962      2120
 -1       169    3    0    1
 -2       692      1208      1204       691
 -1       170    3    0    1
 -2       119       118       633       640
 -1       171    3    0    1
 -2      1454      1539      2065      2533
 -1       172    3    0    1
 -2      1596      1547      1697      1806
 -1       173    3    0    1
 -2        37       522       521       961
 -1       174    3    0    1
 -2       821       262       823      1046
 -1       175    3    0    1
 -2       124       659       645       138
 -1       176    3    0    1
 -2      1429      1450      1632      1789
 -1       177    3    0    1
 -2      1627      1453      1839      1942
 -1       178    3    0    1
 -2       492       477       489       496
 -1       179    3    0    1
 -2       390        68       557      1345
 -1       180    3    0    1
 -2       513       955      1135      1139
 -1       181    3    0    1
 -2       123       650       649      1186
 -1       182    3    0    1
 -2       772       777       783      1690
 -1       183    3    0    1
 -2      1443      1319      1575      1641
 -1       184    3    0    1
 -2       609       362       982      1178
 -1       185    3    0    1
 -2        28        31       512       959
 -1       186    3    0    1
 -2       557        66       560       970
 -1       187    3    0    1
 -2      1194      2358      2444      2599
 -1       188    3    0    1
 -2      1522      1424      1548      2012
 -1       189    3    0    1
 -2       295       388      1536      2591
 -1       190    3    0    1
 -2       677       150       680      1200
 -1       191    3    0    1
 -2       376       185       735      2535
 -1       192    3    0    1
 -2       518        31       512       520
 -1       193    3    0    1
 -2       378      2294      2318      2490
 -1       194    3    0    1
 -2      2062      1027      2099      2142
 -1       195    3    0    1
 -2        90       612       599       609
 -1       196    3    0    1
 -2       986      1184       626       992
 -1       197    3    0    1
 -2       109       120       622       632
 -1       198    3    0    1
 -2      1457      1439      1612      1855
 -1       199    3    0    1
 -2       753       209      1027      1229
 -1       200    3    0    1
 -2       437       237      1041      1908
 -1       201    3    0    1
 -2      1178       981       609      1172
 -1       202    3    0    1
 -2       370      1700       759      2158
 -1       203    3    0    1
 -2      1901       183      1988      2097
 -1       204    3    0    1
 -2      1470      1572      2503      2726
 -1       205    3    0    1
 -2      1922      2473      2659      2661
 -1       206    3    0    1
 -2       571       584       585       592
 -1       207    3    0    1
 -2       677       676       680       688
 -1       208    3    0    1
 -2       292       869       872       880
 -1       209    3    0    1
 -2      2054      2029      2406      2594
 -1       210    3    0    1
 -2       119       633       639       640
 -1       211    3    0    1
 -2      1621       332      1699      1764
 -1       212    3    0    1
 -2       959      1754      1924      2687
 -1       213    3    0    1
 -2      1509      1530      1603      2000
 -1       214    3    0    1
 -2       318      1334      1094      1609
 -1       215    3    0    1
 -2        27        24       508       955
 -1       216    3    0    1
 -2       471       470      1110      1521
 -1       217    3    0    1
 -2       598      1177       983       606
 -1       218    3    0    1
 -2       690       159       689      1010
 -1       219    3    0    1
 -2      1406      1444      1779      1781
 -1       220    3    0    1
 -2       142       143       677      1196
 -1       221    3    0    1
 -2      1508      1518      1578      1790
 -1       222    3    0    1
 -2       648      1194      1190       647
 -1       223    3    0    1
 -2       241       256      2481      2749
 -1       224    3    0    1
 -2      1508      1675      1947      1983
 -1       225    3    0    1
 -2       582      2310      2341      2437
 -1       226    3    0    1
 -2      1492      1716      1859      2253
 -1       227    3    0    1
 -2      1780      1809      2063      2470
 -1       228    3    0    1
 -2       144       152       669       676
 -1       229    3    0    1
 -2      2027       409      1370      1371
 -1       230    3    0    1
 -2      1769      1788      1875      2211
 -1       231    3    0    1
 -2       667      1200      1008       678
 -1       232    3    0    1
 -2       671      1006       675       682
 -1       233    3    0    1
 -2      1727      1780      1809      2063
 -1       234    3    0    1
 -2       605       608       979       984
 -1       235    3    0    1
 -2      1443      1439      1473      1501
 -1       236    3    0    1
 -2       689       690      1010      1016
 -1       237    3    0    1
 -2        24       516        33       502
 -1       238    3    0    1
 -2       634       628       994      2324
 -1       239    3    0    1
 -2       999       654      1193      2135
 -1       240    3    0    1
 -2       908      1323      1085      1812
 -1       241    3    0    1
 -2       145       684       670       681
 -1       242    3    0    1
 -2       136       137       656       664
 -1       243    3    0    1
 -2       573       977       583       572
 -1       244    3    0    1
 -2        29        21       501       512
 -1       245    3    0    1
 -2       363      1477      2356      2631
 -1       246    3    0    1
 -2       417      1515      1570      1717
 -1       247    3    0    1
 -2      1018      1217      1023       716
 -1       248    3    0    1
 -2      1552      1488      1608      1618
 -1       249    3    0    1
 -2       308      1380      1409      1688
 -1       250    3    0    1
 -2       621       622       629       633
 -1       251    3    0    1
 -2       582       572       583       977
 -1       252    3    0    1
 -2       577       976      1163      1168
 -1       253    3    0    1
 -2        29       501       502       512
 -1       254    3    0    1
 -2      1544      1462      1564      1828
 -1       255    3    0    1
 -2       114       334       632       991
 -1       256    3    0    1
 -2       987       632       991      1179
 -1       257    3    0    1
 -2        75        79       581      1162
 -1       258    3    0    1
 -2       648      1191      1001       658
 -1       259    3    0    1
 -2       129       659       139       663
 -1       260    3    0    1
 -2       105       621       629       637
 -1       261    3    0    1
 -2       315      1338      1080      1562
 -1       262    3    0    1
 -2      1976       879      2591      2696
 -1       263    3    0    1
 -2       839      1264      1056       847
 -1       264    3    0    1
 -2      1288      1634      1776      1798
 -1       265    3    0    1
 -2       524      1147       523       535
 -1       266    3    0    1
 -2        29       518       502        34
 -1       267    3    0    1
 -2       599       596       603       608
 -1       268    3    0    1
 -2       598      1177       606       595
 -1       269    3    0    1
 -2      1774      1815      2275      2420
 -1       270    3    0    1
 -2       679      1682      1767      2005
 -1       271    3    0    1
 -2      1030      1226      2464      2542
 -1       272    3    0    1
 -2       598      1177       595      1170
 -1       273    3    0    1
 -2       134       661       653       663
 -1       274    3    0    1
 -2       887       888      1909      2409
 -1       275    3    0    1
 -2      2162      2145      2178      2685
 -1       276    3    0    1
 -2        89       613       596       605
 -1       277    3    0    1
 -2       425      2219      2297      2515
 -1       278    3    0    1
 -2      1466      1474      1653      2185
 -1       279    3    0    1
 -2       332       722       346      1219
 -1       280    3    0    1
 -2        42       541        43       525
 -1       281    3    0    1
 -2        72       570       569       974
 -1       282    3    0    1
 -2       501        24       502       513
 -1       283    3    0    1
 -2       603        90       609       981
 -1       284    3    0    1
 -2      2006      2054      2301      2437
 -1       285    3    0    1
 -2      1756      1444      1779      1890
 -1       286    3    0    1
 -2       136       656       662       664
 -1       287    3    0    1
 -2       599       608       609       616
 -1       288    3    0    1
 -2      2059      1615      2328      2531
 -1       289    3    0    1
 -2      2360      1137      2362      1352
 -1       290    3    0    1
 -2        90       599       603       609
 -1       291    3    0    1
 -2      1380      1409      1591      1646
 -1       292    3    0    1
 -2       325      1324       328      1516
 -1       293    3    0    1
 -2       552       555       557       567
 -1       294    3    0    1
 -2       400       966      1873      2379
 -1       295    3    0    1
 -2        89       605       608       979
 -1       296    3    0    1
 -2        97        90       599       603
 -1       297    3    0    1
 -2        87       602       601       980
 -1       298    3    0    1
 -2       334       632       991       993
 -1       299    3    0    1
 -2      2190      2387       261      2121
 -1       300    3    0    1
 -2       701       166       704      1015
 -1       301    3    0    1
 -2        92       611        98       615
 -1       302    3    0    1
 -2       501        21       509       512
 -1       303    3    0    1
 -2       645       652       653       663
 -1       304    3    0    1
 -2       644      1192       655       643
 -1       305    3    0    1
 -2       453      1719      2743      1355
 -1       306    3    0    1
 -2       668      1008       679       667
 -1       307    3    0    1
 -2      1016      1208      2205      2564
 -1       308    3    0    1
 -2       634      2272      2349      2480
 -1       309    3    0    1
 -2      1332      1575       921      1649
 -1       310    3    0    1
 -2       377       705       711       712
 -1       311    3    0    1
 -2       780       222       226       784
 -1       312    3    0    1
 -2       533        42      1141      1142
 -1       313    3    0    1
 -2      1546      1399      1574      1764
 -1       314    3    0    1
 -2       205      1430      1971      2045
 -1       315    3    0    1
 -2       154       688      1999      2558
 -1       316    3    0    1
 -2      1471      1606      2020      2034
 -1       317    3    0    1
 -2       773       764       775       777
 -1       318    3    0    1
 -2      1113       319      1093      1514
 -1       319    3    0    1
 -2      1083      1104      1635      1755
 -1       320    3    0    1
 -2       741       751       753       760
 -1       321    3    0    1
 -2       117      1910      2130      2356
 -1       322    3    0    1
 -2      2033      2298      2328      2455
 -1       323    3    0    1
 -2        58        56       547       555
 -1       324    3    0    1
 -2       125       662       656       646
 -1       325    3    0    1
 -2      1064       870      2297      2455
 -1       326    3    0    1
 -2       498       497       956       960
 -1       327    3    0    1
 -2       451       520      1987      2084
 -1       328    3    0    1
 -2       931       919      1612      1856
 -1       329    3    0    1
 -2       564        63        70       568
 -1       330    3    0    1
 -2      1594      1566      1640      1800
 -1       331    3    0    1
 -2       554       969      1152      1159
 -1       332    3    0    1
 -2      1404      1730      1914      2151
 -1       333    3    0    1
 -2       702       695       703      1209
 -1       334    3    0    1
 -2       524       535       964       966
 -1       335    3    0    1
 -2      1884      1990      2152      2734
 -1       336    3    0    1
 -2       215       782       764       229
 -1       337    3    0    1
 -2       705       704       711       712
 -1       338    3    0    1
 -2      1487      1279      1580      1642
 -1       339    3    0    1
 -2       436      1752      1923      2257
 -1       340    3    0    1
 -2       479       952       950       948
 -1       341    3    0    1
 -2       508       501       512       513
 -1       342    3    0    1
 -2       901      1116      1305      2154
 -1       343    3    0    1
 -2       720       719      1022      1214
 -1       344    3    0    1
 -2      1629       437      1750      2149
 -1       345    3    0    1
 -2       184       732       717       729
 -1       346    3    0    1
 -2       603       599       608       609
 -1       347    3    0    1
 -2       662       656       646       664
 -1       348    3    0    1
 -2       715      1023       730       723
 -1       349    3    0    1
 -2        24       501       508       513
 -1       350    3    0    1
 -2       664       663      2166      2497
 -1       351    3    0    1
 -2      1065       871       870      2519
 -1       352    3    0    1
 -2       676       670       677       680
 -1       353    3    0    1
 -2       603       596       611       615
 -1       354    3    0    1
 -2        90       612        99       599
 -1       355    3    0    1
 -2      2274      2466      2618      2704
 -1       356    3    0    1
 -2        24       516       502       513
 -1       357    3    0    1
 -2      1472      1527      1900      2021
 -1       358    3    0    1
 -2       648      1001       995       997
 -1       359    3    0    1
 -2       752       750      1227      2044
 -1       360    3    0    1
 -2      1694      1584      1756      1895
 -1       361    3    0    1
 -2       356      1008      1383      1682
 -1       362    3    0    1
 -2        92       603       609       982
 -1       363    3    0    1
 -2      1007       668      1195      1197
 -1       364    3    0    1
 -2       498       497       960      1352
 -1       365    3    0    1
 -2       797       799      1037      1042
 -1       366    3    0    1
 -2      1522      1697      2016      2367
 -1       367    3    0    1
 -2       419      1727      1817      2151
 -1       368    3    0    1
 -2       211       751       758       760
 -1       369    3    0    1
 -2      1546       332      1621      1764
 -1       370    3    0    1
 -2      1389      1425      2123      2159
 -1       371    3    0    1
 -2      1094      1426      1549      1703
 -1       372    3    0    1
 -2       137       134       656       664
 -1       373    3    0    1
 -2       391       393      2229      2523
 -1       374    3    0    1
 -2      1021       332      1699      1877
 -1       375    3    0    1
 -2       107       636       622       633
 -1       376    3    0    1
 -2      1515       417      1570      2208
 -1       377    3    0    1
 -2      1474      1379      1636      2366
 -1       378    3    0    1
 -2       644      1192      1000       655
 -1       379    3    0    1
 -2       239       807       808      1869
 -1       380    3    0    1
 -2        31       518       422       520
 -1       381    3    0    1
 -2       332      1621      1699      1723
 -1       382    3    0    1
 -2       245       806       799       787
 -1       383    3    0    1
 -2       470      1317      1521      1856
 -1       384    3    0    1
 -2        96       596       599       608
 -1       385    3    0    1
 -2      1530      1508      1603      2000
 -1       386    3    0    1
 -2      2169       982      2322      2350
 -1       387    3    0    1
 -2       958      1881      1896      2165
 -1       388    3    0    1
 -2       336       134      1192      1793
 -1       389    3    0    1
 -2       501        23       508       515
 -1       390    3    0    1
 -2        10       484       495       496
 -1       391    3    0    1
 -2       573      1168      1163       976
 -1       392    3    0    1
 -2      1590      1624      1846      2042
 -1       393    3    0    1
 -2      1302       897       898      1604
 -1       394    3    0    1
 -2      1637       925      1668      1823
 -1       395    3    0    1
 -2       506       505       958      1131
 -1       396    3    0    1
 -2       136      1000      2401      2429
 -1       397    3    0    1
 -2      1264       847      1729      2662
 -1       398    3    0    1
 -2       555       557       567       568
 -1       399    3    0    1
 -2       864      1065      1061       863
 -1       400    3    0    1
 -2       815      1045       814      1044
 -1       401    3    0    1
 -2      2471      1256      2481      2492
 -1       402    3    0    1
 -2      1450      1683      1746      1816
 -1       403    3    0    1
 -2       825       823       831       832
 -1       404    3    0    1
 -2      1498      1432      1535      1566
 -1       405    3    0    1
 -2       525       526       536       537
 -1       406    3    0    1
 -2      1973       404      2194      2316
 -1       407    3    0    1
 -2       135       133       645       653
 -1       408    3    0    1
 -2       897      1302      1299      1604
 -1       409    3    0    1
 -2       786       232       235      1244
 -1       410    3    0    1
 -2       504      1137       503       954
 -1       411    3    0    1
 -2       269       851       838       280
 -1       412    3    0    1
 -2      1462      1544      1567      1692
 -1       413    3    0    1
 -2       837       271       838       845
 -1       414    3    0    1
 -2      1632      1707      1789      2450
 -1       415    3    0    1
 -2       773       228       783       784
 -1       416    3    0    1
 -2       114       637       629       639
 -1       417    3    0    1
 -2      1505      1545      1623      1626
 -1       418    3    0    1
 -2       542       536       526       544
 -1       419    3    0    1
 -2       932      1332      1486      1575
 -1       420    3    0    1
 -2      1935      1397      2193      2374
 -1       421    3    0    1
 -2       220       228       784      1690
 -1       422    3    0    1
 -2       708       693       705       712
 -1       423    3    0    1
 -2       187       731       718       191
 -1       424    3    0    1
 -2        24       513       955      1135
 -1       425    3    0    1
 -2       845       279       855       856
 -1       426    3    0    1
 -2       195       753      1025      1221
 -1       427    3    0    1
 -2       456       844       855       856
 -1       428    3    0    1
 -2       270       845       848      1261
 -1       429    3    0    1
 -2        21       517        22       501
 -1       430    3    0    1
 -2       314      1320       417      1717
 -1       431    3    0    1
 -2      1471      1606      1801      1807
 -1       432    3    0    1
 -2      1480      1413      1747      1889
 -1       433    3    0    1
 -2      1433      1391      1443      1501
 -1       434    3    0    1
 -2        50       450      1796      1902
 -1       435    3    0    1
 -2       437      1247      1629      1908
 -1       436    3    0    1
 -2      1842      1836      2149      2233
 -1       437    3    0    1
 -2       135       645       646       653
 -1       438    3    0    1
 -2        50       541       533       543
 -1       439    3    0    1
 -2       560       557       561       568
 -1       440    3    0    1
 -2      1279       302      1068      1642
 -1       441    3    0    1
 -2      1819      1404      1914      2477
 -1       442    3    0    1
 -2       494        16       488       496
 -1       443    3    0    1
 -2       133       645       653       661
 -1       444    3    0    1
 -2      1651      1374      2109      2146
 -1       445    3    0    1
 -2       377       355       705      1013
 -1       446    3    0    1
 -2       449       447      2740      2760
 -1       447    3    0    1
 -2        32       516       513       520
 -1       448    3    0    1
 -2       149       154       681       688
 -1       449    3    0    1
 -2       799       239       807       808
 -1       450    3    0    1
 -2       726       719       727      1022
 -1       451    3    0    1
 -2       270       271       837       845
 -1       452    3    0    1
 -2      1029       752      1227      2044
 -1       453    3    0    1
 -2       579       576       581       585
 -1       454    3    0    1
 -2      1050       849      1262      1265
 -1       455    3    0    1
 -2      1448      1297      1549      1609
 -1       456    3    0    1
 -2       897      1519      1604      1931
 -1       457    3    0    1
 -2       920      1735      1788      1875
 -1       458    3    0    1
 -2       447       449      2360      1353
 -1       459    3    0    1
 -2       103       352       608       616
 -1       460    3    0    1
 -2      1438      1935      1973      2194
 -1       461    3    0    1
 -2       972      1167       977       572
 -1       462    3    0    1
 -2        16       494        18       496
 -1       463    3    0    1
 -2       555       561       968      1154
 -1       464    3    0    1
 -2      1672      1557      1788      2041
 -1       465    3    0    1
 -2       362       612       609       616
 -1       466    3    0    1
 -2      1718      1706      2111      2215
 -1       467    3    0    1
 -2      1192      1791      1793      1882
 -1       468    3    0    1
 -2      1719       960      2320      1355
 -1       469    3    0    1
 -2       572       582       583       976
 -1       470    3    0    1
 -2      1624      1590      1926      2042
 -1       471    3    0    1
 -2       491       394       484       495
 -1       472    3    0    1
 -2       107       621       627       633
 -1       473    3    0    1
 -2       635       116       627       639
 -1       474    3    0    1
 -2         9       493       485       495
 -1       475    3    0    1
 -2      1522      1541      1697      2367
 -1       476    3    0    1
 -2      2252       514      2320      2343
 -1       477    3    0    1
 -2       335       413       625       992
 -1       478    3    0    1
 -2       411      1867      2417      2498
 -1       479    3    0    1
 -2        80       590       411       592
 -1       480    3    0    1
 -2       541        50       450       543
 -1       481    3    0    1
 -2       127       660       132       646
 -1       482    3    0    1
 -2       560      1150        61       557
 -1       483    3    0    1
 -2      1403      1456      1486      1642
 -1       484    3    0    1
 -2       394       491       398       495
 -1       485    3    0    1
 -2      1434      1611      1724      2010
 -1       486    3    0    1
 -2      1425      1147      1658      1969
 -1       487    3    0    1
 -2        75       590       584       571
 -1       488    3    0    1
 -2      1395      1677      1801      2034
 -1       489    3    0    1
 -2       230       211       760      2224
 -1       490    3    0    1
 -2      1185       988       627      1182
 -1       491    3    0    1
 -2       368       222       772      1690
 -1       492    3    0    1
 -2       308      1291       312      1512
 -1       493    3    0    1
 -2       493         9        13       495
 -1       494    3    0    1
 -2       948       485       950      1126
 -1       495    3    0    1
 -2      1130        12      2361      2405
 -1       496    3    0    1
 -2      1583      1803      1859      2588
 -1       497    3    0    1
 -2       653       134       663       664
 -1       498    3    0    1
 -2      1116      2017      2509      2567
 -1       499    3    0    1
 -2        75       581       584      1162
 -1       500    3    0    1
 -2      1160       968      2300      2514
 -1       501    3    0    1
 -2       516        32       451       520
 -1       502    3    0    1
 -2      1352       497       447       498
 -1       503    3    0    1
 -2       504      1137       514       503
 -1       504    3    0    1
 -2      1448      1471      1801      2034
 -1       505    3    0    1
 -2       329      1568      1106      1644
 -1       506    3    0    1
 -2      1540      1452      1905      1909
 -1       507    3    0    1
 -2       508        24       513       955
 -1       508    3    0    1
 -2       253       830       823       811
 -1       509    3    0    1
 -2       667       678       679      1007
 -1       510    3    0    1
 -2        54       547       561       564
 -1       511    3    0    1
 -2      1440      1426      1656      1703
 -1       512    3    0    1
 -2       970       560      1150      1151
 -1       513    3    0    1
 -2      1758      1732      1915      2269
 -1       514    3    0    1
 -2       116       990      1185      2272
 -1       515    3    0    1
 -2        20       498       497       956
 -1       516    3    0    1
 -2       834       833      1051      1058
 -1       517    3    0    1
 -2       600      1178       982       604
 -1       518    3    0    1
 -2       830       823       811       832
 -1       519    3    0    1
 -2      1597      1407      1662      1893
 -1       520    3    0    1
 -2         4       485       488       948
 -1       521    3    0    1
 -2       394        10       484       495
 -1       522    3    0    1
 -2       590        80       584       592
 -1       523    3    0    1
 -2       131       660       657       664
 -1       524    3    0    1
 -2      1795      1782      1984      2015
 -1       525    3    0    1
 -2       478       484       485       495
 -1       526    3    0    1
 -2       491       484       478       495
 -1       527    3    0    1
 -2       835      1265       843       850
 -1       528    3    0    1
 -2       106       105       621       629
 -1       529    3    0    1
 -2      1523      1496      1552      1911
 -1       530    3    0    1
 -2         2       477       478       484
 -1       531    3    0    1
 -2       493       478       485       495
 -1       532    3    0    1
 -2      1434      1396      2010      2493
 -1       533    3    0    1
 -2      1501      1439      1724      2010
 -1       534    3    0    1
 -2        38       529      1140      1143
 -1       535    3    0    1
 -2       308       312      1409      1512
 -1       536    3    0    1
 -2       557       390       567       568
 -1       537    3    0    1
 -2       480       951       479       949
 -1       538    3    0    1
 -2       143       685       155       669
 -1       539    3    0    1
 -2       952        18      2226      2502
 -1       540    3    0    1
 -2       254       255       825      1254
 -1       541    3    0    1
 -2      1902      1820      2202      2381
 -1       542    3    0    1
 -2      1569      1727      1780      2197
 -1       543    3    0    1
 -2       103       608       614       616
 -1       544    3    0    1
 -2       498        20        25       956
 -1       545    3    0    1
 -2       644      1000      1187      1188
 -1       546    3    0    1
 -2       522        37        47       961
 -1       547    3    0    1
 -2       680       676       681       688
 -1       548    3    0    1
 -2        57       546      1153      1155
 -1       549    3    0    1
 -2       304      1069      1282      1567
 -1       550    3    0    1
 -2      1815      1310      2275      2420
 -1       551    3    0    1
 -2      1021       726      2547      2657
 -1       552    3    0    1
 -2       522       521       961      1146
 -1       553    3    0    1
 -2        41       540        46       526
 -1       554    3    0    1
 -2       531       527       538       967
 -1       555    3    0    1
 -2      1336       900      1075      1730
 -1       556    3    0    1
 -2        40        42       525       533
 -1       557    3    0    1
 -2       547       552       555       557
 -1       558    3    0    1
 -2        32       513       519       520
 -1       559    3    0    1
 -2       521        37       961       963
 -1       560    3    0    1
 -2        89       613       100       596
 -1       561    3    0    1
 -2       413      1616      1678      1711
 -1       562    3    0    1
 -2        23        27       501       508
 -1       563    3    0    1
 -2       533       525       536       537
 -1       564    3    0    1
 -2        64       555       567       568
 -1       565    3    0    1
 -2      1200      1008       678      1599
 -1       566    3    0    1
 -2      2296      2348      1356      1360
 -1       567    3    0    1
 -2       653       652       657       664
 -1       568    3    0    1
 -2       602       414       983      1177
 -1       569    3    0    1
 -2      1698      1601      1770      1797
 -1       570    3    0    1
 -2        29        21       512      1133
 -1       571    3    0    1
 -2       120       106       622       632
 -1       572    3    0    1
 -2      1586      1670      2214      2582
 -1       573    3    0    1
 -2      1998      2391      2556      2600
 -1       574    3    0    1
 -2       125       135       653      1188
 -1       575    3    0    1
 -2       547        61       552       557
 -1       576    3    0    1
 -2      1051       834      1058      1263
 -1       577    3    0    1
 -2      1480       437      2147      2384
 -1       578    3    0    1
 -2      2049      1468      2243      2306
 -1       579    3    0    1
 -2       183       344      1988      2097
 -1       580    3    0    1
 -2       477       478       484       485
 -1       581    3    0    1
 -2        30       505      1131      1134
 -1       582    3    0    1
 -2      1433      1443      1575      1641
 -1       583    3    0    1
 -2      1459      1741      1753      1950
 -1       584    3    0    1
 -2      1059      1271       860      1267
 -1       585    3    0    1
 -2        42       541       525       533
 -1       586    3    0    1
 -2      1413      1459      1753      1847
 -1       587    3    0    1
 -2      1656      1426      1811      2067
 -1       588    3    0    1
 -2       957       500       959      1133
 -1       589    3    0    1
 -2       456       855      2260      2314
 -1       590    3    0    1
 -2      1383       356      1682      2232
 -1       591    3    0    1
 -2        10       492       489       496
 -1       592    3    0    1
 -2        41       525       532       537
 -1       593    3    0    1
 -2       608       603       609       616
 -1       594    3    0    1
 -2       334       640      2227      2407
 -1       595    3    0    1
 -2       594       593      1174      1175
 -1       596    3    0    1
 -2      1757      1701      1850      2244
 -1       597    3    0    1
 -2       292       872      1063      1065
 -1       598    3    0    1
 -2      1782      1048      1795      2134
 -1       599    3    0    1
 -2      1265       843       850      2335
 -1       600    3    0    1
 -2       600      1178       604       597
 -1       601    3    0    1
 -2      1606      1295      1807      2020
 -1       602    3    0    1
 -2      1911      1744      2112      2656
 -1       603    3    0    1
 -2       547       561       564       568
 -1       604    3    0    1
 -2      2337      1885      2745      2746
 -1       605    3    0    1
 -2       277      1262      1265      1965
 -1       606    3    0    1
 -2      1383       688      2573      2634
 -1       607    3    0    1
 -2      1535      1498      1811      2201
 -1       608    3    0    1
 -2      1302      1299      1931      2072
 -1       609    3    0    1
 -2       158       705      1011      1203
 -1       610    3    0    1
 -2        41       540       526       537
 -1       611    3    0    1
 -2      1806      2040      2055      2060
 -1       612    3    0    1
 -2      1433      1443      1473      1501
 -1       613    3    0    1
 -2       532       525       533       537
 -1       614    3    0    1
 -2      2299      2037      2498      2670
 -1       615    3    0    1
 -2        10       394      2361      2674
 -1       616    3    0    1
 -2       614       608       599       616
 -1       617    3    0    1
 -2      1810      1056      1953      2476
 -1       618    3    0    1
 -2      1229       754      1665      2142
 -1       619    3    0    1
 -2       485       484       488       496
 -1       620    3    0    1
 -2         9       485       488       496
 -1       621    3    0    1
 -2       484       485       495       496
 -1       622    3    0    1
 -2       561       968      1154      1156
 -1       623    3    0    1
 -2        40       533       536      1142
 -1       624    3    0    1
 -2        10       484       489      1130
 -1       625    3    0    1
 -2      1404      1730      1906      1914
 -1       626    3    0    1
 -2      1402      1598      1638      1669
 -1       627    3    0    1
 -2       513       512       519       520
 -1       628    3    0    1
 -2      1432      1381      1613      1854
 -1       629    3    0    1
 -2      1116       937      2017      2154
 -1       630    3    0    1
 -2       868       861       869       873
 -1       631    3    0    1
 -2         2         3       477       489
 -1       632    3    0    1
 -2         3       492        19       477
 -1       633    3    0    1
 -2       621       627       629       639
 -1       634    3    0    1
 -2       294       284       857      1267
 -1       635    3    0    1
 -2      1817       419      2151      2176
 -1       636    3    0    1
 -2       812       813       822      1047
 -1       637    3    0    1
 -2       812      1047      1250      1251
 -1       638    3    0    1
 -2       270       271       845      1261
 -1       639    3    0    1
 -2        64       563        69       567
 -1       640    3    0    1
 -2       422       450      2381      2487
 -1       641    3    0    1
 -2       533       532       537       543
 -1       642    3    0    1
 -2         5       482         8       949
 -1       643    3    0    1
 -2       861       872       873       880
 -1       644    3    0    1
 -2      1248      1039       801      1241
 -1       645    3    0    1
 -2        26        30       505      1131
 -1       646    3    0    1
 -2        15         4       477       488
 -1       647    3    0    1
 -2      1801      1378      1853      2098
 -1       648    3    0    1
 -2       125       135       646       653
 -1       649    3    0    1
 -2       525        41       526       537
 -1       650    3    0    1
 -2      1628      1666      1878      2022
 -1       651    3    0    1
 -2       766      1034      1233      1234
 -1       652    3    0    1
 -2      1553      1405      1830      1941
 -1       653    3    0    1
 -2       869       868       873       880
 -1       654    3    0    1
 -2        94       613       605       615
 -1       655    3    0    1
 -2      1119      2605      2701      2719
 -1       656    3    0    1
 -2       238       233       793      1038
 -1       657    3    0    1
 -2        14        15       477       488
 -1       658    3    0    1
 -2       804       243       381       808
 -1       659    3    0    1
 -2       581       579       585       591
 -1       660    3    0    1
 -2      1332       921      1102      1649
 -1       661    3    0    1
 -2       791      1040       795       788
 -1       662    3    0    1
 -2       624       994       634       623
 -1       663    3    0    1
 -2      1481      1427      1947      2030
 -1       664    3    0    1
 -2      1399      1396      1479      1611
 -1       665    3    0    1
 -2       220       773       775       784
 -1       666    3    0    1
 -2      1491      2530      2652      2683
 -1       667    3    0    1
 -2      1453      1563      2048      2114
 -1       668    3    0    1
 -2      1084      1753      2011      2275
 -1       669    3    0    1
 -2       787       799       801       808
 -1       670    3    0    1
 -2       613       596       605       615
 -1       671    3    0    1
 -2      1717      1515      1912      2102
 -1       672    3    0    1
 -2       661       134       336       663
 -1       673    3    0    1
 -2      2219       425      2297      2455
 -1       674    3    0    1
 -2      1462      1544      1812      1824
 -1       675    3    0    1
 -2       382       589       581       591
 -1       676    3    0    1
 -2       536        48       543       544
 -1       677    3    0    1
 -2      2091      1961      2277      2545
 -1       678    3    0    1
 -2       577        74       578      1163
 -1       679    3    0    1
 -2       537       391       540       544
 -1       680    3    0    1
 -2      1315       306       320      1626
 -1       681    3    0    1
 -2       812      1257      1250      1047
 -1       682    3    0    1
 -2       693       704       705       712
 -1       683    3    0    1
 -2       701       166      1015      1209
 -1       684    3    0    1
 -2       168       710       174       712
 -1       685    3    0    1
 -2       484        10      1127      1130
 -1       686    3    0    1
 -2      1861       414      1921      2184
 -1       687    3    0    1
 -2      2723      1719      2725      2764
 -1       688    3    0    1
 -2      1108       929      1507      1676
 -1       689    3    0    1
 -2       863       870       871      1064
 -1       690    3    0    1
 -2       121       641       642       997
 -1       691    3    0    1
 -2      1510      1430      1708      1971
 -1       692    3    0    1
 -2      1904       538      2107      2281
 -1       693    3    0    1
 -2       605       603       608       615
 -1       694    3    0    1
 -2       674       146       147      1197
 -1       695    3    0    1
 -2       519      2087      2126      2373
 -1       696    3    0    1
 -2       319      1113       415      1514
 -1       697    3    0    1
 -2        75       590       571        85
 -1       698    3    0    1
 -2       200       755       748       742
 -1       699    3    0    1
 -2      1412      1647      1751      1979
 -1       700    3    0    1
 -2       917      1109      1315      1849
 -1       701    3    0    1
 -2       211       230      1993      1996
 -1       702    3    0    1
 -2      1128      2336      2360      2747
 -1       703    3    0    1
 -2      1572      1470      1767      2005
 -1       704    3    0    1
 -2      1293      1292      1523      1618
 -1       705    3    0    1
 -2       187       184       724      1019
 -1       706    3    0    1
 -2      1419      1519      1604      2110
 -1       707    3    0    1
 -2      1405      1565      1830      1941
 -1       708    3    0    1
 -2       635       627       621       639
 -1       709    3    0    1
 -2       512        31       519       520
 -1       710    3    0    1
 -2       340       322      1527      1735
 -1       711    3    0    1
 -2       369       783      2024      2287
 -1       712    3    0    1
 -2       485       948       950       952
 -1       713    3    0    1
 -2      1843      1257      2082      2221
 -1       714    3    0    1
 -2       756       741       753       760
 -1       715    3    0    1
 -2       751       748       753       760
 -1       716    3    0    1
 -2       535       964       966      1533
 -1       717    3    0    1
 -2       801       243       808      1869
 -1       718    3    0    1
 -2       782       775       764       784
 -1       719    3    0    1
 -2       620       993       619       987
 -1       720    3    0    1
 -2      1428      1532      2266      2367
 -1       721    3    0    1
 -2      2245      1944      2395      2495
 -1       722    3    0    1
 -2      1258       264      2121      2291
 -1       723    3    0    1
 -2       161       165       694       700
 -1       724    3    0    1
 -2       959      1783      1820      2202
 -1       725    3    0    1
 -2      1617      1158      2170      2379
 -1       726    3    0    1
 -2       621       629       637       639
 -1       727    3    0    1
 -2      1631      1799      1830      2462
 -1       728    3    0    1
 -2       772       218      1031      1230
 -1       729    3    0    1
 -2       187       731       724       718
 -1       730    3    0    1
 -2      1498      1555      1566      1594
 -1       731    3    0    1
 -2       416      1382      1736      2180
 -1       732    3    0    1
 -2       869       861       872       873
 -1       733    3    0    1
 -2       676       677       687       688
 -1       734    3    0    1
 -2       694       163       701       704
 -1       735    3    0    1
 -2        63       564       561       568
 -1       736    3    0    1
 -2       356      1008      1682      1934
 -1       737    3    0    1
 -2      1758      2264      2268      2269
 -1       738    3    0    1
 -2      1063      1065       870      2519
 -1       739    3    0    1
 -2       999      1808      1863      2161
 -1       740    3    0    1
 -2       846      1055      1810      2172
 -1       741    3    0    1
 -2       724       718       725       728
 -1       742    3    0    1
 -2       732       717       729       736
 -1       743    3    0    1
 -2       992       413      1678      1711
 -1       744    3    0    1
 -2      2442      2053      2093      1464
 -1       745    3    0    1
 -2      2081      1531      2155      2240
 -1       746    3    0    1
 -2       185       729       735       736
 -1       747    3    0    1
 -2       184       717       718       729
 -1       748    3    0    1
 -2      1437      1388      1493      2102
 -1       749    3    0    1
 -2       453       447      1719      1355
 -1       750    3    0    1
 -2      1559      1879      2089      2091
 -1       751    3    0    1
 -2       724       184       729      1019
 -1       752    3    0    1
 -2       704       693       710       712
 -1       753    3    0    1
 -2       677       680      1196      1200
 -1       754    3    0    1
 -2      1487      2128      2562      2276
 -1       755    3    0    1
 -2      1158       970       559      1680
 -1       756    3    0    1
 -2      2150      1445      2517      2571
 -1       757    3    0    1
 -2       226       222      2506      2625
 -1       758    3    0    1
 -2       293       868       873      1273
 -1       759    3    0    1
 -2       608       352       615       616
 -1       760    3    0    1
 -2       646       656       657       664
 -1       761    3    0    1
 -2       613        94       101       615
 -1       762    3    0    1
 -2      1457      1100      1612      1641
 -1       763    3    0    1
 -2       669       144       676       683
 -1       764    3    0    1
 -2      2225      1752      2257      2610
 -1       765    3    0    1
 -2       979       605       984      1176
 -1       766    3    0    1
 -2       700       158       705      1011
 -1       767    3    0    1
 -2       560        61        55       547
 -1       768    3    0    1
 -2      1683      1384      1761      2103
 -1       769    3    0    1
 -2       111       635       621       115
 -1       770    3    0    1
 -2      1400      1377      2695      2718
 -1       771    3    0    1
 -2       602        87        95       980
 -1       772    3    0    1
 -2        40       525       526       536
 -1       773    3    0    1
 -2       162       698      1012      1206
 -1       774    3    0    1
 -2      1319      1111      1443      1575
 -1       775    3    0    1
 -2      1527      1557      2001      2021
 -1       776    3    0    1
 -2         4       493        17       478
 -1       777    3    0    1
 -2      1100      1331      1612      1641
 -1       778    3    0    1
 -2       129       652       663       664
 -1       779    3    0    1
 -2       134       653       656       664
 -1       780    3    0    1
 -2      1422      1584      1694      1895
 -1       781    3    0    1
 -2       644      1193      1189       643
 -1       782    3    0    1
 -2      1681       134      1793      1882
 -1       783    3    0    1
 -2       131       129       657      1194
 -1       784    3    0    1
 -2         4       493       478       485
 -1       785    3    0    1
 -2       484       477       488       489
 -1       786    3    0    1
 -2      1456      1403      1580      1642
 -1       787    3    0    1
 -2      2701      2011       907      2719
 -1       788    3    0    1
 -2       596        88       603       611
 -1       789    3    0    1
 -2       334       114       632       640
 -1       790    3    0    1
 -2       652       653       663       664
 -1       791    3    0    1
 -2         2       477       484       489
 -1       792    3    0    1
 -2       684       670       681       688
 -1       793    3    0    1
 -2        55       566       547        65
 -1       794    3    0    1
 -2      1502      1219      1877      1883
 -1       795    3    0    1
 -2       557       547       560       561
 -1       796    3    0    1
 -2       554       402       969      1159
 -1       797    3    0    1
 -2        92       603       615       616
 -1       798    3    0    1
 -2       167      1664      2115      2452
 -1       799    3    0    1
 -2       276      1639      2327      2352
 -1       800    3    0    1
 -2      1434      1396      1611      2010
 -1       801    3    0    1
 -2       619       987       991      1179
 -1       802    3    0    1
 -2         2       491       484       478
 -1       803    3    0    1
 -2       669       152       670       676
 -1       804    3    0    1
 -2      1495      1481      1675      1942
 -1       805    3    0    1
 -2       129       131       657       664
 -1       806    3    0    1
 -2       127       660       646       657
 -1       807    3    0    1
 -2      1432      1498      1555      1566
 -1       808    3    0    1
 -2      1291      1409      1512      1593
 -1       809    3    0    1
 -2        96       614       599       102
 -1       810    3    0    1
 -2       142       680      1002      1196
 -1       811    3    0    1
 -2      1393      1494      1846      1905
 -1       812    3    0    1
 -2      1217      2175      2449      1348
 -1       813    3    0    1
 -2      2280       349      2724      2726
 -1       814    3    0    1
 -2      1008      1383      1682      1872
 -1       815    3    0    1
 -2      1667      1219      1844      1883
 -1       816    3    0    1
 -2       747      1027      2062      2142
 -1       817    3    0    1
 -2       142       686       680       670
 -1       818    3    0    1
 -2      2219      1465      2413      2515
 -1       819    3    0    1
 -2      1547      1806      2037      2055
 -1       820    3    0    1
 -2       603        92       609       616
 -1       821    3    0    1
 -2      1137       504       960       954
 -1       822    3    0    1
 -2      1272      1064       871      2223
 -1       823    3    0    1
 -2        58       563       552        59
 -1       824    3    0    1
 -2       104       626       625       986
 -1       825    3    0    1
 -2       962      1148       532      1145
 -1       826    3    0    1
 -2       676       149       681       688
 -1       827    3    0    1
 -2       673      1007      1197      1201
 -1       828    3    0    1
 -2      1593      1512      2114      2256
 -1       829    3    0    1
 -2       646       645       652       653
 -1       830    3    0    1
 -2       211      1029      1993      2474
 -1       831    3    0    1
 -2       587       579       576       591
 -1       832    3    0    1
 -2        40       542       536       526
 -1       833    3    0    1
 -2       333      1840      2216      2441
 -1       834    3    0    1
 -2       981      1178       609       982
 -1       835    3    0    1
 -2      1817      1914      2176      2197
 -1       836    3    0    1
 -2      1576      1539      1845      2065
 -1       837    3    0    1
 -2       623       990       628       634
 -1       838    3    0    1
 -2       588       571       585       592
 -1       839    3    0    1
 -2       672      1009       682       671
 -1       840    3    0    1
 -2        96        89       596       608
 -1       841    3    0    1
 -2       289       878       861       297
 -1       842    3    0    1
 -2        58        56       555      1154
 -1       843    3    0    1
 -2        77       587       579       576
 -1       844    3    0    1
 -2       645       124       646       652
 -1       845    3    0    1
 -2       976       573      1161      1163
 -1       846    3    0    1
 -2       107       636       108       622
 -1       847    3    0    1
 -2       670       680       681       688
 -1       848    3    0    1
 -2       185       724       729      1020
 -1       849    3    0    1
 -2       421      1138      1968      2165
 -1       850    3    0    1
 -2      1200      1002       680      1196
 -1       851    3    0    1
 -2       656       653      1000      1188
 -1       852    3    0    1
 -2       611        92       603       615
 -1       853    3    0    1
 -2       477        14       488       494
 -1       854    3    0    1
 -2       629       627       633       639
 -1       855    3    0    1
 -2        92        98       982      2169
 -1       856    3    0    1
 -2       699      1794      2564      2712
 -1       857    3    0    1
 -2       807       796       808      1869
 -1       858    3    0    1
 -2       114       629       632       640
 -1       859    3    0    1
 -2      2473       291      2660      2661
 -1       860    3    0    1
 -2       596        97       599       603
 -1       861    3    0    1
 -2       184       732       188       717
 -1       862    3    0    1
 -2       734       183       728       736
 -1       863    3    0    1
 -2       185       732       729       736
 -1       864    3    0    1
 -2       744      1228       750       743
 -1       865    3    0    1
 -2       405        66       568      1602
 -1       866    3    0    1
 -2       748       751       759       760
 -1       867    3    0    1
 -2       684       154       354       688
 -1       868    3    0    1
 -2       742       198       749       751
 -1       869    3    0    1
 -2        64        63       555       568
 -1       870    3    0    1
 -2       218       779       772       767
 -1       871    3    0    1
 -2       791      1245      1244      1043
 -1       872    3    0    1
 -2       806       799       787       808
 -1       873    3    0    1
 -2       528       967       538       527
 -1       874    3    0    1
 -2       596        89       605       608
 -1       875    3    0    1
 -2        61       565       552       557
 -1       876    3    0    1
 -2       980      1177       598      1170
 -1       877    3    0    1
 -2       563        64       555       567
 -1       878    3    0    1
 -2       691      1211       699       706
 -1       879    3    0    1
 -2       631      1184      1711      2108
 -1       880    3    0    1
 -2        32       451       520      1987
 -1       881    3    0    1
 -2       355       700       705      1013
 -1       882    3    0    1
 -2      1518      1508      1530      2083
 -1       883    3    0    1
 -2       124       659       652       645
 -1       884    3    0    1
 -2       125       662       646       126
 -1       885    3    0    1
 -2      1501      1396      1611      1763
 -1       886    3    0    1
 -2        77        73       576       579
 -1       887    3    0    1
 -2       141       665       666      1003
 -1       888    3    0    1
 -2        58       563       555       552
 -1       889    3    0    1
 -2      1287      1288      1634      1776
 -1       890    3    0    1
 -2      1820      1783      2284      2438
 -1       891    3    0    1
 -2       392        49      2344      1359
 -1       892    3    0    1
 -2       659       652       645       663
 -1       893    3    0    1
 -2      1938       885      2309      2424
 -1       894    3    0    1
 -2       991       357      2505      2516
 -1       895    3    0    1
 -2        61      1151       560        55
 -1       896    3    0    1
 -2      1465      1411      1631      2413
 -1       897    3    0    1
 -2       473      1124       946         1
 -1       898    3    0    1
 -2      1320       902       922      1600
 -1       899    3    0    1
 -2       438      1341      1949      2467
 -1       900    3    0    1
 -2       648      1191       658       647
 -1       901    3    0    1
 -2       228       220       773      1237
 -1       902    3    0    1
 -2       859      1066       874       867
 -1       903    3    0    1
 -2       231      1595      1814      2394
 -1       904    3    0    1
 -2       414      1861      1921      1946
 -1       905    3    0    1
 -2      1511      1663      1704      2163
 -1       906    3    0    1
 -2       211       443       760      1423
 -1       907    3    0    1
 -2        75        79       571       581
 -1       908    3    0    1
 -2       961       521       967      1146
 -1       909    3    0    1
 -2      1247       800      1836      1842
 -1       910    3    0    1
 -2      1072       891      1290      1659
 -1       911    3    0    1
 -2      1058      1271      2359      1350
 -1       912    3    0    1
 -2       868       869       879       880
 -1       913    3    0    1
 -2       902      1320      1077      1600
 -1       914    3    0    1
 -2        48        50       533       543
 -1       915    3    0    1
 -2       262       830       387       832
 -1       916    3    0    1
 -2        62        60       553      1149
 -1       917    3    0    1
 -2       253       830       811       266
 -1       918    3    0    1
 -2      1923       433      2257      2457
 -1       919    3    0    1
 -2       234       240       787       801
 -1       920    3    0    1
 -2       812       822       824      1047
 -1       921    3    0    1
 -2       485       488       948       952
 -1       922    3    0    1
 -2       502       512       513       520
 -1       923    3    0    1
 -2      1584      1890      1895      1920
 -1       924    3    0    1
 -2       596       603       605       615
 -1       925    3    0    1
 -2        16         9       488       496
 -1       926    3    0    1
 -2       488       477       494       496
 -1       927    3    0    1
 -2      1451      1676      1955      1964
 -1       928    3    0    1
 -2      1781      1784      1864      2479
 -1       929    3    0    1
 -2       594        91        93      1174
 -1       930    3    0    1
 -2        21       509       512      1133
 -1       931    3    0    1
 -2         9        16       488       952
 -1       932    3    0    1
 -2       477         4       478       485
 -1       933    3    0    1
 -2       839       846       847      1056
 -1       934    3    0    1
 -2       726      2106      2547      2657
 -1       935    3    0    1
 -2       964       524       966      1142
 -1       936    3    0    1
 -2        48       542       400       544
 -1       937    3    0    1
 -2       388       295       879      2591
 -1       938    3    0    1
 -2      1956      2447      2596      2698
 -1       939    3    0    1
 -2      1429      1630      1632      2426
 -1       940    3    0    1
 -2       484        10       489       496
 -1       941    3    0    1
 -2       525        44       532       539
 -1       942    3    0    1
 -2      1415      1769      1805      2211
 -1       943    3    0    1
 -2        32       448       508      1136
 -1       944    3    0    1
 -2       504      1139      1135       503
 -1       945    3    0    1
 -2       529       420       965      1147
 -1       946    3    0    1
 -2       570        72        76       974
 -1       947    3    0    1
 -2      1014      1765      2141      2163
 -1       948    3    0    1
 -2       501       502       512       513
 -1       949    3    0    1
 -2       482         6       416       951
 -1       950    3    0    1
 -2        96        89       608       979
 -1       951    3    0    1
 -2        96       614       608       599
 -1       952    3    0    1
 -2       981      1178       982       600
 -1       953    3    0    1
 -2       593       985      1174      1175
 -1       954    3    0    1
 -2      1107       920      1101      1735
 -1       955    3    0    1
 -2       304      1323       327      1607
 -1       956    3    0    1
 -2       111       107       621       627
 -1       957    3    0    1
 -2       549      1158       559       548
 -1       958    3    0    1
 -2       334       638       342       640
 -1       959    3    0    1
 -2       627       107       633      1182
 -1       960    3    0    1
 -2        78        74       577      1163
 -1       961    3    0    1
 -2       551      1160       550       562
 -1       962    3    0    1
 -2      1470      1572      2141      2503
 -1       963    3    0    1
 -2        66       566       405       568
 -1       964    3    0    1
 -2       703      1579      2415      2643
 -1       965    3    0    1
 -2      2486       496      2502      2512
 -1       966    3    0    1
 -2       951      2145      2186      2581
 -1       967    3    0    1
 -2      1751      1647      1858      2056
 -1       968    3    0    1
 -2       589       576       581       591
 -1       969    3    0    1
 -2       211       230      1996      2224
 -1       970    3    0    1
 -2      1835      1879      2089      2569
 -1       971    3    0    1
 -2       503      1137       514       507
 -1       972    3    0    1
 -2       566       560       547       568
 -1       973    3    0    1
 -2       504       960       954       956
 -1       974    3    0    1
 -2         3       492       477       489
 -1       975    3    0    1
 -2       660       646       657       664
 -1       976    3    0    1
 -2        49       392      2321      2729
 -1       977    3    0    1
 -2      1294       319      1488      1497
 -1       978    3    0    1
 -2        73       588        82       571
 -1       979    3    0    1
 -2      1150       560        61      1151
 -1       980    3    0    1
 -2       844       277       849       856
 -1       981    3    0    1
 -2       612       362       363       616
 -1       982    3    0    1
 -2      1064       870      2033      2297
 -1       983    3    0    1
 -2       659       129       652       663
 -1       984    3    0    1
 -2      1157       551       971      1155
 -1       985    3    0    1
 -2       351       712      1974      2459
 -1       986    3    0    1
 -2       488       484       489       496
 -1       987    3    0    1
 -2       705       377      1013      1211
 -1       988    3    0    1
 -2       196       738       737      1024
 -1       989    3    0    1
 -2       492        10        12       496
 -1       990    3    0    1
 -2      1032      1236       762      1036
 -1       991    3    0    1
 -2       111       635       627       621
 -1       992    3    0    1
 -2       653       646       656       657
 -1       993    3    0    1
 -2      1721      2479      1781      2096
 -1       994    3    0    1
 -2       335      1571      1616      2210
 -1       995    3    0    1
 -2       121       128       641       997
 -1       996    3    0    1
 -2       507       514      1139      2343
 -1       997    3    0    1
 -2      2310      2006      2437      2594
 -1       998    3    0    1
 -2       653      1000      1187      1192
 -1       999    3    0    1
 -2       576       579       581       591
 -1      1000    3    0    1
 -2       504      1137       960       514
 -1      1001    3    0    1
 -2       499       500       957      1132
 -1      1002    3    0    1
 -2      1945       970      2029      2031
 -1      1003    3    0    1
 -2       585       581       591       592
 -1      1004    3    0    1
 -2       539       452       532       543
 -1      1005    3    0    1
 -2       547       560       561       568
 -1      1006    3    0    1
 -2        27        24       501       508
 -1      1007    3    0    1
 -2       526       536       537       544
 -1      1008    3    0    1
 -2        21       517       501       509
 -1      1009    3    0    1
 -2        73       571       576       585
 -1      1010    3    0    1
 -2      1071      1291      1512      1593
 -1      1011    3    0    1
 -2      1541      1522      1918      1986
 -1      1012    3    0    1
 -2       481       482       949       951
 -1      1013    3    0    1
 -2       525       532       533       543
 -1      1014    3    0    1
 -2       317      1091      1967      2382
 -1      1015    3    0    1
 -2      1422      1581      1900      1932
 -1      1016    3    0    1
 -2      1423       211      1993      1996
 -1      1017    3    0    1
 -2       590       584       571       592
 -1      1018    3    0    1
 -2      1068      1580      1642      1649
 -1      1019    3    0    1
 -2        56       547       555       561
 -1      1020    3    0    1
 -2      2524      2051      2618      2619
 -1      1021    3    0    1
 -2      1666      1628      1685      1997
 -1      1022    3    0    1
 -2      1390       341      1528      1756
 -1      1023    3    0    1
 -2        45        41       525       532
 -1      1024    3    0    1
 -2       393       537       543       544
 -1      1025    3    0    1
 -2       523       524       964      1141
 -1      1026    3    0    1
 -2        40        42       533      1142
 -1      1027    3    0    1
 -2         9      2242      2486      2502
 -1      1028    3    0    1
 -2       588        83       364       592
 -1      1029    3    0    1
 -2       622       632       633       640
 -1      1030    3    0    1
 -2       740      1229       747       739
 -1      1031    3    0    1
 -2      1661      1803      2210      2392
 -1      1032    3    0    1
 -2       557       552       567      1345
 -1      1033    3    0    1
 -2      1802      1419      2079      2088
 -1      1034    3    0    1
 -2        66       390       557       568
 -1      1035    3    0    1
 -2        79       589        84       576
 -1      1036    3    0    1
 -2      1741      2049      2306      2605
 -1      1037    3    0    1
 -2       533        48       536       966
 -1      1038    3    0    1
 -2      1317      1110      1855      1856
 -1      1039    3    0    1
 -2      1591      1380      1646      1688
 -1      1040    3    0    1
 -2      1063       870      2033      2519
 -1      1041    3    0    1
 -2      1713      1733      2559      2650
 -1      1042    3    0    1
 -2      1247       800      1842      1903
 -1      1043    3    0    1
 -2      2124      2245      2395      2495
 -1      1044    3    0    1
 -2       134       336       663      1681
 -1      1045    3    0    1
 -2      1994      1651      2109      2146
 -1      1046    3    0    1
 -2        40       542       526        51
 -1      1047    3    0    1
 -2       751       749      1029      1223
 -1      1048    3    0    1
 -2        44        45       525       532
 -1      1049    3    0    1
 -2      1396      1399      2093      2493
 -1      1050    3    0    1
 -2       555        63       561       568
 -1      1051    3    0    1
 -2       540       526       537       544
 -1      1052    3    0    1
 -2       205      1028      1228      2045
 -1      1053    3    0    1
 -2       844       837       848       849
 -1      1054    3    0    1
 -2       949      1129       481       951
 -1      1055    3    0    1
 -2       314       417      1070      2208
 -1      1056    3    0    1
 -2       589       382       406       591
 -1      1057    3    0    1
 -2       622       109       632       638
 -1      1058    3    0    1
 -2       452       539       455       543
 -1      1059    3    0    1
 -2       796       799       807       808
 -1      1060    3    0    1
 -2       603       608       615       616
 -1      1061    3    0    1
 -2       646       125       653       656
 -1      1062    3    0    1
 -2       587        81       579       591
 -1      1063    3    0    1
 -2       687      1999      2013      2540
 -1      1064    3    0    1
 -2       116       119       633       639
 -1      1065    3    0    1
 -2      1944      1228      2045      2603
 -1      1066    3    0    1
 -2       796       787       799       801
 -1      1067    3    0    1
 -2      1449      1894      2039      2458
 -1      1068    3    0    1
 -2       620       993       631       619
 -1      1069    3    0    1
 -2       986      1184       992       620
 -1      1070    3    0    1
 -2       676       670       680       681
 -1      1071    3    0    1
 -2       116       635       117       639
 -1      1072    3    0    1
 -2       373       122      2672      1367
 -1      1073    3    0    1
 -2      1477        92      2169      2469
 -1      1074    3    0    1
 -2      1863      1749      2137      2161
 -1      1075    3    0    1
 -2      1167       972       584      1162
 -1      1076    3    0    1
 -2       254       816       820       825
 -1      1077    3    0    1
 -2      1047       817      1250      1251
 -1      1078    3    0    1
 -2       269       851       844       838
 -1      1079    3    0    1
 -2       557       555       561       568
 -1      1080    3    0    1
 -2       600      1175       597       604
 -1      1081    3    0    1
 -2       276       279       845       856
 -1      1082    3    0    1
 -2       844       837       845       848
 -1      1083    3    0    1
 -2       532       393       537       543
 -1      1084    3    0    1
 -2       270       854       837       282
 -1      1085    3    0    1
 -2       271       853       278       838
 -1      1086    3    0    1
 -2       240       804       787       801
 -1      1087    3    0    1
 -2        56        54       547       561
 -1      1088    3    0    1
 -2        48       533       536       543
 -1      1089    3    0    1
 -2      1975      2051      2105      2138
 -1      1090    3    0    1
 -2      1385      1552      1725      1800
 -1      1091    3    0    1
 -2        94       605       608       615
 -1      1092    3    0    1
 -2       807       366      1869      2629
 -1      1093    3    0    1
 -2       286       861       862       868
 -1      1094    3    0    1
 -2       946       473       953      1128
 -1      1095    3    0    1
 -2       541       525       533       543
 -1      1096    3    0    1
 -2         2       491       478        11
 -1      1097    3    0    1
 -2       565       552       557      1345
 -1      1098    3    0    1
 -2        73       576       579       585
 -1      1099    3    0    1
 -2      1415      1672      1788      2041
 -1      1100    3    0    1
 -2       867      1270      2312      2590
 -1      1101    3    0    1
 -2       796       792       797       799
 -1      1102    3    0    1
 -2      1318      1769      1875      2211
 -1      1103    3    0    1
 -2       536       533       537       543
 -1      1104    3    0    1
 -2      1689      2017      2038      2154
 -1      1105    3    0    1
 -2       787       792       796       799
 -1      1106    3    0    1
 -2       538       531       967      1904
 -1      1107    3    0    1
 -2       255       828       811       825
 -1      1108    3    0    1
 -2       258       250       809      1255
 -1      1109    3    0    1
 -2      1552      1385      1725      2133
 -1      1110    3    0    1
 -2       844       268       849      1052
 -1      1111    3    0    1
 -2       269       268       844      1052
 -1      1112    3    0    1
 -2       834       267       274      1051
 -1      1113    3    0    1
 -2      1759      1541      1918      1986
 -1      1114    3    0    1
 -2       702      1625      2003      2415
 -1      1115    3    0    1
 -2       828       259       264       832
 -1      1116    3    0    1
 -2        97        90       603       981
 -1      1117    3    0    1
 -2       463      1331      1100      1641
 -1      1118    3    0    1
 -2       767       764       773       777
 -1      1119    3    0    1
 -2       672      1006      1004       671
 -1      1120    3    0    1
 -2       716      1217      1023       723
 -1      1121    3    0    1
 -2       980      1177       602       983
 -1      1122    3    0    1
 -2       207       748       753      1027
 -1      1123    3    0    1
 -2      2278      1814      2400      2435
 -1      1124    3    0    1
 -2       628       623       634       994
 -1      1125    3    0    1
 -2      1928      1938      2207      2390
 -1      1126    3    0    1
 -2       629       114       639       640
 -1      1127    3    0    1
 -2      1383       330      2057      2573
 -1      1128    3    0    1
 -2        28        31       959      2132
 -1      1129    3    0    1
 -2       319      1488      1497      1514
 -1      1130    3    0    1
 -2      1637      1691      2144      1823
 -1      1131    3    0    1
 -2       837       848       849       856
 -1      1132    3    0    1
 -2      1466      1970      2120      2525
 -1      1133    3    0    1
 -2      1464      1503      1848      1849
 -1      1134    3    0    1
 -2       510      1754      1896      1924
 -1      1135    3    0    1
 -2       724       718       728       729
 -1      1136    3    0    1
 -2      1295      1298      1807      2020
 -1      1137    3    0    1
 -2      1863       338      2445      2633
 -1      1138    3    0    1
 -2       363       362      1477      2631
 -1      1139    3    0    1
 -2      1528      1390      1895      2077
 -1      1140    3    0    1
 -2       797       239       799      1042
 -1      1141    3    0    1
 -2       219      1679      1981      1985
 -1      1142    3    0    1
 -2      1006      1194      2358      2444
 -1      1143    3    0    1
 -2      1675      1495      1942      2369
 -1      1144    3    0    1
 -2       762       761      1032      1036
 -1      1145    3    0    1
 -2       766      1238      1233      1034
 -1      1146    3    0    1
 -2       812       813      1047      1251
 -1      1147    3    0    1
 -2      1631      1411      1740      2413
 -1      1148    3    0    1
 -2        12        10      2361      2674
 -1      1149    3    0    1
 -2      1562      1080      1701      1777
 -1      1150    3    0    1
 -2       136       664      1773      2497
 -1      1151    3    0    1
 -2       878       872       861       880
 -1      1152    3    0    1
 -2       484         2       945       947
 -1      1153    3    0    1
 -2      1047      1257      1843      2220
 -1      1154    3    0    1
 -2      1425      1389      1685      1838
 -1      1155    3    0    1
 -2      1928      1938      2309      2424
 -1      1156    3    0    1
 -2       480       951       486       479
 -1      1157    3    0    1
 -2       815      1045       819       814
 -1      1158    3    0    1
 -2      1080       315      1562      1701
 -1      1159    3    0    1
 -2       581       571       584       585
 -1      1160    3    0    1
 -2        38       530        39      1140
 -1      1161    3    0    1
 -2      1275       308       312      1688
 -1      1162    3    0    1
 -2      1339       939      1850      2249
 -1      1163    3    0    1
 -2      1396      1399      1574      2093
 -1      1164    3    0    1
 -2       428       292       869      1063
 -1      1165    3    0    1
 -2      1398       335      1616      1678
 -1      1166    3    0    1
 -2       498       960      1137      1352
 -1      1167    3    0    1
 -2      1137       953      2360      2362
 -1      1168    3    0    1
 -2      1796       543      2084      2487
 -1      1169    3    0    1
 -2      1499      1962      2120      2286
 -1      1170    3    0    1
 -2      1508       421      1968      2000
 -1      1171    3    0    1
 -2       656       653       657       664
 -1      1172    3    0    1
 -2       603       596       605       608
 -1      1173    3    0    1
 -2      1327       916       927      2254
 -1      1174    3    0    1
 -2      1306      1324      1516      1691
 -1      1175    3    0    1
 -2       134       137       656      1000
 -1      1176    3    0    1
 -2       312      1291      1409      1512
 -1      1177    3    0    1
 -2      1409      1512      1593      2256
 -1      1178    3    0    1
 -2      1736      1382      1933      2180
 -1      1179    3    0    1
 -2      1297      1448      1549      2020
 -1      1180    3    0    1
 -2       700       694       701       705
 -1      1181    3    0    1
 -2      1857      1821      2104      2228
 -1      1182    3    0    1
 -2       441      2506      2624      2708
 -1      1183    3    0    1
 -2       633       629       639       640
 -1      1184    3    0    1
 -2       509        28       512       959
 -1      1185    3    0    1
 -2       557       390       970      1158
 -1      1186    3    0    1
 -2       319      1073      1294      1488
 -1      1187    3    0    1
 -2       410      2326      2626      2752
 -1      1188    3    0    1
 -2      2399      1674      2600      2637
 -1      1189    3    0    1
 -2      1403      1487      1580      1642
 -1      1190    3    0    1
 -2       741       742       748       751
 -1      1191    3    0    1
 -2      1382      1736      1994      2109
 -1      1192    3    0    1
 -2      2182       101      2389      2593
 -1      1193    3    0    1
 -2       957        28       959      2132
 -1      1194    3    0    1
 -2        52       546       545      1153
 -1      1195    3    0    1
 -2       836      1265      1262       843
 -1      1196    3    0    1
 -2      1329      1095      1964      2007
 -1      1197    3    0    1
 -2       794       793      1038      1041
 -1      1198    3    0    1
 -2      1394      1507      1818      2181
 -1      1199    3    0    1
 -2      1892      1404      1906      2446
 -1      1200    3    0    1
 -2       368       772       783      1690
 -1      1201    3    0    1
 -2      1524      2061      2538      2717
 -1      1202    3    0    1
 -2       652       129       657       664
 -1      1203    3    0    1
 -2      1676      1955      1964      2007
 -1      1204    3    0    1
 -2      1176        94      1948      2593
 -1      1205    3    0    1
 -2      1191       648      1001       995
 -1      1206    3    0    1
 -2       670       669       676       677
 -1      1207    3    0    1
 -2       764       216       767       773
 -1      1208    3    0    1
 -2      1885      1588      2337      2745
 -1      1209    3    0    1
 -2       919      1457      1612      1856
 -1      1210    3    0    1
 -2       863      1272      1064       871
 -1      1211    3    0    1
 -2       639       119       640      1910
 -1      1212    3    0    1
 -2       848      1053      1055      1057
 -1      1213    3    0    1
 -2       995       641       997      1001
 -1      1214    3    0    1
 -2       668      1008       667      1002
 -1      1215    3    0    1
 -2       142       143       670       677
 -1      1216    3    0    1
 -2       124       646       652       657
 -1      1217    3    0    1
 -2      1630      1429      1632      1707
 -1      1218    3    0    1
 -2      1450      1429      1632      1655
 -1      1219    3    0    1
 -2      1659      1627      1942      2369
 -1      1220    3    0    1
 -2      1459      1413      1741      1889
 -1      1221    3    0    1
 -2       130       650      1186      1189
 -1      1222    3    0    1
 -2      1550      1706      1809      2470
 -1      1223    3    0    1
 -2        63       555       561       968
 -1      1224    3    0    1
 -2      1331       919      1100      1612
 -1      1225    3    0    1
 -2       626       625       986       992
 -1      1226    3    0    1
 -2      1516      1691      1823      2144
 -1      1227    3    0    1
 -2       732       185       192       736
 -1      1228    3    0    1
 -2       748       741       751       753
 -1      1229    3    0    1
 -2      1444      1781      1864      2479
 -1      1230    3    0    1
 -2       693       160       704       710
 -1      1231    3    0    1
 -2      1846      1590      2453      2653
 -1      1232    3    0    1
 -2      1685      1482      1997      2188
 -1      1233    3    0    1
 -2      1429      1837      1913      2009
 -1      1234    3    0    1
 -2      2244      1865      2308      2606
 -1      1235    3    0    1
 -2       546       971      1153      1155
 -1      1236    3    0    1
 -2       626       104       112       986
 -1      1237    3    0    1
 -2      1525      1802      2088      2372
 -1      1238    3    0    1
 -2       964       533      1141      1142
 -1      1239    3    0    1
 -2       772       767       773       777
 -1      1240    3    0    1
 -2       766       768      1034      1234
 -1      1241    3    0    1
 -2      1730      1687      1906      2156
 -1      1242    3    0    1
 -2       279       276       845      1055
 -1      1243    3    0    1
 -2       475       953       490       483
 -1      1244    3    0    1
 -2      1482      1461      1516      1695
 -1      1245    3    0    1
 -2       286       285       861       868
 -1      1246    3    0    1
 -2       334       342       993      1943
 -1      1247    3    0    1
 -2       476      1128      1124       475
 -1      1248    3    0    1
 -2       518       512       502       520
 -1      1249    3    0    1
 -2       382        80       581      1167
 -1      1250    3    0    1
 -2       537       532      1144      1148
 -1      1251    3    0    1
 -2      2526      2117      2529      2679
 -1      1252    3    0    1
 -2       393       452       532      1148
 -1      1253    3    0    1
 -2       285       861       868       873
 -1      1254    3    0    1
 -2       985      1183      2348      1360
 -1      1255    3    0    1
 -2       524       964      1141      1142
 -1      1256    3    0    1
 -2       575      1169      1165       574
 -1      1257    3    0    1
 -2        79       589       576       581
 -1      1258    3    0    1
 -2       679       678      1008      1599
 -1      1259    3    0    1
 -2      1757      1792      2244      2606
 -1      1260    3    0    1
 -2       273       249      2456      2738
 -1      1261    3    0    1
 -2       475      1124       946      1128
 -1      1262    3    0    1
 -2      1184       335      1616      2392
 -1      1263    3    0    1
 -2      1338       315       431      1562
 -1      1264    3    0    1
 -2      2723      1885      2725      2760
 -1      1265    3    0    1
 -2       477       488       489       496
 -1      1266    3    0    1
 -2       106       621       622       629
 -1      1267    3    0    1
 -2       627       621       629       633
 -1      1268    3    0    1
 -2      1011      1211      1013       692
 -1      1269    3    0    1
 -2       163       171       694       701
 -1      1270    3    0    1
 -2      1733      1713      2596      2650
 -1      1271    3    0    1
 -2      1374      1506      1662      1686
 -1      1272    3    0    1
 -2      1959      2231      2271      2516
 -1      1273    3    0    1
 -2       560        61       547       557
 -1      1274    3    0    1
 -2      1148       962       532      1144
 -1      1275    3    0    1
 -2      1743      2419      2475      2642
 -1      1276    3    0    1
 -2      2283       149      2540      2558
 -1      1277    3    0    1
 -2       193       214      2730      2737
 -1      1278    3    0    1
 -2      1412      1862      2088      2267
 -1      1279    3    0    1
 -2       954       498       960      1137
 -1      1280    3    0    1
 -2       555        56       561      1154
 -1      1281    3    0    1
 -2       485         9       488       952
 -1      1282    3    0    1
 -2      1900      1527      1957      2021
 -1      1283    3    0    1
 -2      1597      1506      1646      1686
 -1      1284    3    0    1
 -2       390        66       557       970
 -1      1285    3    0    1
 -2      1467      1449      1531      1553
 -1      1286    3    0    1
 -2       837       838       844       845
 -1      1287    3    0    1
 -2      1783      1820      2284      2622
 -1      1288    3    0    1
 -2       271       853       838       845
 -1      1289    3    0    1
 -2      1498      1432      1555      1714
 -1      1290    3    0    1
 -2       653       135      1187      1188
 -1      1291    3    0    1
 -2       558      1680      1980      2170
 -1      1292    3    0    1
 -2       645       653       661       663
 -1      1293    3    0    1
 -2       152       145       670       676
 -1      1294    3    0    1
 -2      1226      1030      2464      1369
 -1      1295    3    0    1
 -2       915       929      1108      1676
 -1      1296    3    0    1
 -2      1769       303      1805      2211
 -1      1297    3    0    1
 -2       809       250       810      1255
 -1      1298    3    0    1
 -2       968      1148      2107      2229
 -1      1299    3    0    1
 -2       734       728       717       736
 -1      1300    3    0    1
 -2       852       837       849       856
 -1      1301    3    0    1
 -2       287       288       865      1268
 -1      1302    3    0    1
 -2       112       626       986      1180
 -1      1303    3    0    1
 -2       424      1301      1300      1760
 -1      1304    3    0    1
 -2      1191       360      2714      2759
 -1      1305    3    0    1
 -2      1177      1813      2040      2179
 -1      1306    3    0    1
 -2       781       767       773       783
 -1      1307    3    0    1
 -2       876       861       873       880
 -1      1308    3    0    1
 -2       145       670       676       681
 -1      1309    3    0    1
 -2       671      1199      1009       675
 -1      1310    3    0    1
 -2      1841       702      2003      2415
 -1      1311    3    0    1
 -2      1054      1264      1056       839
 -1      1312    3    0    1
 -2      2255       338      2445      2608
 -1      1313    3    0    1
 -2      1850      1082      2249      2308
 -1      1314    3    0    1
 -2      1209       702      1841      2415
 -1      1315    3    0    1
 -2       605       979      1173      1176
 -1      1316    3    0    1
 -2       301      1718      2403      2592
 -1      1317    3    0    1
 -2      1434      2010      2442      2493
 -1      1318    3    0    1
 -2      1493      1384      1578      1761
 -1      1319    3    0    1
 -2      1552      1496      1608      1725
 -1      1320    3    0    1
 -2        92       362       609       616
 -1      1321    3    0    1
 -2       624       990       988       623
 -1      1322    3    0    1
 -2       704       168       711       712
 -1      1323    3    0    1
 -2       184       718       724       729
 -1      1324    3    0    1
 -2       187       184       718       724
 -1      1325    3    0    1
 -2       700       694       707       711
 -1      1326    3    0    1
 -2       198       203       742       749
 -1      1327    3    0    1
 -2      1201      1720      2005      2727
 -1      1328    3    0    1
 -2       146       673      1195      1197
 -1      1329    3    0    1
 -2       598      1176       595       606
 -1      1330    3    0    1
 -2       622       106       629       632
 -1      1331    3    0    1
 -2      1490      1758      1787      1915
 -1      1332    3    0    1
 -2      1975      1998      2105      2556
 -1      1333    3    0    1
 -2       195       756       199       741
 -1      1334    3    0    1
 -2       670       142       677       680
 -1      1335    3    0    1
 -2       718       717       728       729
 -1      1336    3    0    1
 -2       159       690       169      1010
 -1      1337    3    0    1
 -2       728      1022      1216      1218
 -1      1338    3    0    1
 -2      1596      1547      1806      2410
 -1      1339    3    0    1
 -2       143       685       669       677
 -1      1340    3    0    1
 -2      1564      1376      1614      1828
 -1      1341    3    0    1
 -2      1013       699      2234      2712
 -1      1342    3    0    1
 -2        90       609       981      1172
 -1      1343    3    0    1
 -2      1523      1496      1745      1860
 -1      1344    3    0    1
 -2       678       667       679      1008
 -1      1345    3    0    1
 -2       692      1211      1013       699
 -1      1346    3    0    1
 -2      1879      1835      2091      2277
 -1      1347    3    0    1
 -2      1809      1727      1817      2408
 -1      1348    3    0    1
 -2       748       742       749       751
 -1      1349    3    0    1
 -2       631       630       993      2248
 -1      1350    3    0    1
 -2       750       743       752      1227
 -1      1351    3    0    1
 -2       793       233       794      1038
 -1      1352    3    0    1
 -2       971      1500      2357      2623
 -1      1353    3    0    1
 -2      1066      2290      2363      2488
 -1      1354    3    0    1
 -2       824       822      1048      1436
 -1      1355    3    0    1
 -2       311      1079      1561      2072
 -1      1356    3    0    1
 -2       192       736      1622      2158
 -1      1357    3    0    1
 -2       694       161       700       707
 -1      1358    3    0    1
 -2       748       195       753      1025
 -1      1359    3    0    1
 -2       200       755       742       201
 -1      1360    3    0    1
 -2      1554       424      1760      2187
 -1      1361    3    0    1
 -2      2178      2162      2559      2587
 -1      1362    3    0    1
 -2      1453      1675      1839      1942
 -1      1363    3    0    1
 -2       319       415      1073      1488
 -1      1364    3    0    1
 -2      1707      1429      1913      2009
 -1      1365    3    0    1
 -2      1265      1262      2335      2338
 -1      1366    3    0    1
 -2       218       767       772       777
 -1      1367    3    0    1
 -2       243       804       801       808
 -1      1368    3    0    1
 -2       255       828       265       811
 -1      1369    3    0    1
 -2      1236      1030      2018      2173
 -1      1370    3    0    1
 -2       254       827       816       260
 -1      1371    3    0    1
 -2       268       852       281       837
 -1      1372    3    0    1
 -2      1428      1378      1529      2047
 -1      1373    3    0    1
 -2      1691      1637      2144      1585
 -1      1374    3    0    1
 -2      2467      1949      2517      2658
 -1      1375    3    0    1
 -2       312       308      1409      1688
 -1      1376    3    0    1
 -2      2715      2672      1367      2756
 -1      1377    3    0    1
 -2       532        41       537      1144
 -1      1378    3    0    1
 -2        29       518       512       502
 -1      1379    3    0    1
 -2      1007      1201      1720      1721
 -1      1380    3    0    1
 -2      1548      2012      2035      2036
 -1      1381    3    0    1
 -2      1644      1568      2028      2483
 -1      1382    3    0    1
 -2      1539      1454      1964      2070
 -1      1383    3    0    1
 -2      2024       369      2287      2570
 -1      1384    3    0    1
 -2      1272      1062       866      1268
 -1      1385    3    0    1
 -2      1783       511      1820      2622
 -1      1386    3    0    1
 -2      1425      1542      1838      1878
 -1      1387    3    0    1
 -2       571        75       581       584
 -1      1388    3    0    1
 -2      1904      2344      1354      1358
 -1      1389    3    0    1
 -2       986      1184       620      1180
 -1      1390    3    0    1
 -2      1884      2152      2761      2765
 -1      1391    3    0    1
 -2      1406      1584      1694      1742
 -1      1392    3    0    1
 -2       329      1106      1097      1644
 -1      1393    3    0    1
 -2       512       509       959      1133
 -1      1394    3    0    1
 -2       145       684       153       670
 -1      1395    3    0    1
 -2      1475      1520      1555      2621
 -1      1396    3    0    1
 -2       537       536       543       544
 -1      1397    3    0    1
 -2      1335      1074      1817      2408
 -1      1398    3    0    1
 -2       485         9       495       496
 -1      1399    3    0    1
 -2        15         4       488       948
 -1      1400    3    0    1
 -2      1792      1865      2196      2204
 -1      1401    3    0    1
 -2       542        48       536       544
 -1      1402    3    0    1
 -2      1439      1434      1457      1724
 -1      1403    3    0    1
 -2       861       862       868       869
 -1      1404    3    0    1
 -2       454       389      2359      1351
 -1      1405    3    0    1
 -2      1451      1576      1693      2239
 -1      1406    3    0    1
 -2       573       977       572       972
 -1      1407    3    0    1
 -2       527      1145       531       538
 -1      1408    3    0    1
 -2       167       698       333      1014
 -1      1409    3    0    1
 -2      1257       386      1843      2082
 -1      1410    3    0    1
 -2       970      2029      2054      2301
 -1      1411    3    0    1
 -2       632       622       638       640
 -1      1412    3    0    1
 -2      1462      1490      1544      1564
 -1      1413    3    0    1
 -2      1450      1683      1816      2702
 -1      1414    3    0    1
 -2       163       701       704      1205
 -1      1415    3    0    1
 -2       694       693       704       705
 -1      1416    3    0    1
 -2      1474      1509      1563      2366
 -1      1417    3    0    1
 -2      1519      1419      2090      2110
 -1      1418    3    0    1
 -2      1496      1523      1552      1618
 -1      1419    3    0    1
 -2      2214      1824      2635      2709
 -1      1420    3    0    1
 -2       477         4       485       488
 -1      1421    3    0    1
 -2       500       957      1132      1133
 -1      1422    3    0    1
 -2      1710      1376      1824      1828
 -1      1423    3    0    1
 -2        28       957      1924      2132
 -1      1424    3    0    1
 -2       555       547       557       561
 -1      1425    3    0    1
 -2        55       566       560       547
 -1      1426    3    0    1
 -2      1409      1380      1591      1688
 -1      1427    3    0    1
 -2       675       671       682      1009
 -1      1428    3    0    1
 -2       386       434      1843      2235
 -1      1429    3    0    1
 -2       666       141      1003      1005
 -1      1430    3    0    1
 -2      1706      1550      1809      2111
 -1      1431    3    0    1
 -2       909      1120      1310      1815
 -1      1432    3    0    1
 -2       142       686       670       156
 -1      1433    3    0    1
 -2      1486      1332      1642      1649
 -1      1434    3    0    1
 -2       141       148       665      1003
 -1      1435    3    0    1
 -2       701      1015      1207      1209
 -1      1436    3    0    1
 -2      2092      1870      2278      2400
 -1      1437    3    0    1
 -2       149       676       687       688
 -1      1438    3    0    1
 -2       129       652       657      1194
 -1      1439    3    0    1
 -2      1884      1990      2052      2171
 -1      1440    3    0    1
 -2       165       158       694       700
 -1      1441    3    0    1
 -2       676       669       683       687
 -1      1442    3    0    1
 -2       685       669       677       687
 -1      1443    3    0    1
 -2       669       676       677       687
 -1      1444    3    0    1
 -2      1012      1210       698      1014
 -1      1445    3    0    1
 -2       158       694       700       705
 -1      1446    3    0    1
 -2       149       683       358       687
 -1      1447    3    0    1
 -2       685       150       331       687
 -1      1448    3    0    1
 -2       683       149       676       687
 -1      1449    3    0    1
 -2       150       685       677       687
 -1      1450    3    0    1
 -2       151       686       356       688
 -1      1451    3    0    1
 -2       154       684       681       688
 -1      1452    3    0    1
 -2       686       151       680       688
 -1      1453    3    0    1
 -2       748       207       753       760
 -1      1454    3    0    1
 -2       698       167       697      1014
 -1      1455    3    0    1
 -2       163       171       701      1205
 -1      1456    3    0    1
 -2       118       119      2351      2546
 -1      1457    3    0    1
 -2      1210      1012       698      1206
 -1      1458    3    0    1
 -2       192       370       736      2158
 -1      1459    3    0    1
 -2       701      1015      1205      1207
 -1      1460    3    0    1
 -2      1464      1848      2053      2117
 -1      1461    3    0    1
 -2      1494      1393      1654      1905
 -1      1462    3    0    1
 -2       165       158       700      1011
 -1      1463    3    0    1
 -2       377       351       705       712
 -1      1464    3    0    1
 -2       171       709       172       694
 -1      1465    3    0    1
 -2       164       162       697      1012
 -1      1466    3    0    1
 -2       728       183       735       736
 -1      1467    3    0    1
 -2      1031       763      1033      1230
 -1      1468    3    0    1
 -2       171       709       694       701
 -1      1469    3    0    1
 -2       777       222       784      1690
 -1      1470    3    0    1
 -2       729       724      1019      1020
 -1      1471    3    0    1
 -2       967       538      1904      2281
 -1      1472    3    0    1
 -2      1604      1519      1760      2110
 -1      1473    3    0    1
 -2       701       694       704       705
 -1      1474    3    0    1
 -2       175       714      1018      1212
 -1      1475    3    0    1
 -2       160       163       693       704
 -1      1476    3    0    1
 -2       293       295      1273      1536
 -1      1477    3    0    1
 -2       693       163       694       704
 -1      1478    3    0    1
 -2       717       728       729       736
 -1      1479    3    0    1
 -2      1202      1004       676      1198
 -1      1480    3    0    1
 -2       158       693       694       705
 -1      1481    3    0    1
 -2       158       708       693       705
 -1      1482    3    0    1
 -2       158       708       170       693
 -1      1483    3    0    1
 -2       676       145       681      1198
 -1      1484    3    0    1
 -2       698       697      1012      1014
 -1      1485    3    0    1
 -2       719       720      1021      1213
 -1      1486    3    0    1
 -2       712      1974      2289      2694
 -1      1487    3    0    1
 -2       185       376       724      1020
 -1      1488    3    0    1
 -2       709       694       701       711
 -1      1489    3    0    1
 -2       694       700       701       711
 -1      1490    3    0    1
 -2       700       355       705       711
 -1      1491    3    0    1
 -2      1801      1471      1807      2047
 -1      1492    3    0    1
 -2       701       700       705       711
 -1      1493    3    0    1
 -2       355       377       705       711
 -1      1494    3    0    1
 -2       166       701       704       711
 -1      1495    3    0    1
 -2       704       701       705       711
 -1      1496    3    0    1
 -2       181       734       728       717
 -1      1497    3    0    1
 -2       168       166       704       711
 -1      1498    3    0    1
 -2       173       355       700       711
 -1      1499    3    0    1
 -2       173       700       707       711
 -1      1500    3    0    1
 -2       709       166       330       711
 -1      1501    3    0    1
 -2       166       709       701       711
 -1      1502    3    0    1
 -2       710       168       704       712
 -1      1503    3    0    1
 -2       183       734       344       736
 -1      1504    3    0    1
 -2       735      1901      2436      2535
 -1      1505    3    0    1
 -2       663       134      1681      1882
 -1      1506    3    0    1
 -2       180       725       728      1216
 -1      1507    3    0    1
 -2       716      1020       723       715
 -1      1508    3    0    1
 -2       177       718       725       733
 -1      1509    3    0    1
 -2       623      1183       994       628
 -1      1510    3    0    1
 -2       650       999      1186      1189
 -1      1511    3    0    1
 -2      1427      1578      1738      1912
 -1      1512    3    0    1
 -2       719       720       726      1021
 -1      1513    3    0    1
 -2      1378      1801      2047      2098
 -1      1514    3    0    1
 -2       179       183       728      1218
 -1      1515    3    0    1
 -2       198       749       751      1223
 -1      1516    3    0    1
 -2      2743      2320      1354      1355
 -1      1517    3    0    1
 -2      1583      1716      2238      2253
 -1      1518    3    0    1
 -2       883      1279      1068      1580
 -1      1519    3    0    1
 -2       716      1023      1018       715
 -1      1520    3    0    1
 -2       722       721      1215      1219
 -1      1521    3    0    1
 -2       719      1219      1215      1021
 -1      1522    3    0    1
 -2      1506      1374      1646      1686
 -1      1523    3    0    1
 -2       915       929      1676      2007
 -1      1524    3    0    1
 -2       720       719       726      1022
 -1      1525    3    0    1
 -2       718       180       725       728
 -1      1526    3    0    1
 -2      2006      2054      2437      2594
 -1      1527    3    0    1
 -2       181       734       717       190
 -1      1528    3    0    1
 -2       717       181       718       728
 -1      1529    3    0    1
 -2       722       178       182      1215
 -1      1530    3    0    1
 -2       729       185      1020      1220
 -1      1531    3    0    1
 -2       181       180       718       728
 -1      1532    3    0    1
 -2       923      1635      2388      2433
 -1      1533    3    0    1
 -2      1021       719      1213      1215
 -1      1534    3    0    1
 -2       328       325      1516      1755
 -1      1535    3    0    1
 -2      1236      1032       762      1231
 -1      1536    3    0    1
 -2       421      1401      1790      1968
 -1      1537    3    0    1
 -2       200       741       742       748
 -1      1538    3    0    1
 -2       200       195       741       748
 -1      1539    3    0    1
 -2      1472      1527      1581      1900
 -1      1540    3    0    1
 -2       731       724       718       735
 -1      1541    3    0    1
 -2      1836      1842      2553      2611
 -1      1542    3    0    1
 -2       718       725       733       735
 -1      1543    3    0    1
 -2       718       724       725       735
 -1      1544    3    0    1
 -2       725       724       728       735
 -1      1545    3    0    1
 -2       179       725       728       735
 -1      1546    3    0    1
 -2       183       179       728       735
 -1      1547    3    0    1
 -2       376       185       724       735
 -1      1548    3    0    1
 -2       322      1527      1581      2168
 -1      1549    3    0    1
 -2       728       724       729       735
 -1      1550    3    0    1
 -2       724       185       729       735
 -1      1551    3    0    1
 -2       414      1177      1813      2040
 -1      1552    3    0    1
 -2       375       376       724       735
 -1      1553    3    0    1
 -2       375       724       731       735
 -1      1554    3    0    1
 -2       733       179       189       735
 -1      1555    3    0    1
 -2       179       733       725       735
 -1      1556    3    0    1
 -2       207       209       753       760
 -1      1557    3    0    1
 -2       349      1435      1726      2122
 -1      1558    3    0    1
 -2       745       204       746      1224
 -1      1559    3    0    1
 -2       209       207       753      1027
 -1      1560    3    0    1
 -2       768       766      1035      1232
 -1      1561    3    0    1
 -2      1726      1598      2080      2538
 -1      1562    3    0    1
 -2      1559      1995      2089      2105
 -1      1563    3    0    1
 -2       738       196       197      1024
 -1      1564    3    0    1
 -2      1517      1406      1784      1864
 -1      1565    3    0    1
 -2      1299       897      1604      1931
 -1      1566    3    0    1
 -2       447       453       497      1355
 -1      1567    3    0    1
 -2      1624      1693      1833      1845
 -1      1568    3    0    1
 -2      1797      1698      1871      2095
 -1      1569    3    0    1
 -2       195       756       741       753
 -1      1570    3    0    1
 -2      1515      1570      1717      1912
 -1      1571    3    0    1
 -2      1940      1466      1970      2185
 -1      1572    3    0    1
 -2      2160      2274      2448      2619
 -1      1573    3    0    1
 -2       758       751       741       760
 -1      1574    3    0    1
 -2       797       244      1042      1246
 -1      1575    3    0    1
 -2      1374      1718      2215      2403
 -1      1576    3    0    1
 -2       203       757       742       749
 -1      1577    3    0    1
 -2       203       757       210       742
 -1      1578    3    0    1
 -2       345       443       751      1029
 -1      1579    3    0    1
 -2       384      1587      1953      2476
 -1      1580    3    0    1
 -2       198       758       741       202
 -1      1581    3    0    1
 -2      1393      1848      2117      2529
 -1      1582    3    0    1
 -2       741       198       742       751
 -1      1583    3    0    1
 -2       195       741       748       753
 -1      1584    3    0    1
 -2      1694      1406      1742      1864
 -1      1585    3    0    1
 -2       738       737      1024      1030
 -1      1586    3    0    1
 -2      2050      1648      2282      2703
 -1      1587    3    0    1
 -2       215       782       775       764
 -1      1588    3    0    1
 -2      1519      1604      1931      2267
 -1      1589    3    0    1
 -2      1394      1507      1712      1818
 -1      1590    3    0    1
 -2       764       775       777       784
 -1      1591    3    0    1
 -2       200       195       748      1025
 -1      1592    3    0    1
 -2      1774      1483      1815      2658
 -1      1593    3    0    1
 -2       761       212       762      1032
 -1      1594    3    0    1
 -2       218       224       777      1031
 -1      1595    3    0    1
 -2      1704      1491      2046      2125
 -1      1596    3    0    1
 -2       218       779       767       223
 -1      1597    3    0    1
 -2      2152      2451      2748      2749
 -1      1598    3    0    1
 -2      2001      1402      2021      2041
 -1      1599    3    0    1
 -2       757       742       749       759
 -1      1600    3    0    1
 -2       755       748       742       759
 -1      1601    3    0    1
 -2       742       748       749       759
 -1      1602    3    0    1
 -2       345       749       751       759
 -1      1603    3    0    1
 -2      1113       914       934      1703
 -1      1604    3    0    1
 -2       749       748       751       759
 -1      1605    3    0    1
 -2       443       345       751       759
 -1      1606    3    0    1
 -2       989      1183       994       623
 -1      1607    3    0    1
 -2      2736      1245      1364      1371
 -1      1608    3    0    1
 -2      1034       769      1233      1234
 -1      1609    3    0    1
 -2       207       755       370       759
 -1      1610    3    0    1
 -2       749       343       757       759
 -1      1611    3    0    1
 -2       755       207       748       759
 -1      1612    3    0    1
 -2       345       343       749       759
 -1      1613    3    0    1
 -2       209       756       753       760
 -1      1614    3    0    1
 -2       775       773       777       784
 -1      1615    3    0    1
 -2      1411      1631      1740      1799
 -1      1616    3    0    1
 -2       456       277       856      2314
 -1      1617    3    0    1
 -2       245       236       799      1037
 -1      1618    3    0    1
 -2       804       787       801       808
 -1      1619    3    0    1
 -2       173       355      2482      2664
 -1      1620    3    0    1
 -2       365       409      2027      1371
 -1      1621    3    0    1
 -2       632       987       991       993
 -1      1622    3    0    1
 -2       214      2464      1362      1363
 -1      1623    3    0    1
 -2       220       228       773       784
 -1      1624    3    0    1
 -2       473      1124         1       474
 -1      1625    3    0    1
 -2       224       780       764       777
 -1      1626    3    0    1
 -2       774      1238       776       766
 -1      1627    3    0    1
 -2      1064      2033      2223      2297
 -1      1628    3    0    1
 -2      2051      2217      2575      2636
 -1      1629    3    0    1
 -2      1270       867      2488      2590
 -1      1630    3    0    1
 -2       216       781       227       767
 -1      1631    3    0    1
 -2       602       601       980       983
 -1      1632    3    0    1
 -2       765      1036      1032       763
 -1      1633    3    0    1
 -2      1032      1236      1036       765
 -1      1634    3    0    1
 -2       559      2029      2301      2340
 -1      1635    3    0    1
 -2       216       781       767       773
 -1      1636    3    0    1
 -2       198       203       749      1223
 -1      1637    3    0    1
 -2       765      1236      1036       771
 -1      1638    3    0    1
 -2      2205      1016      2449      2741
 -1      1639    3    0    1
 -2       765      1036       763       771
 -1      1640    3    0    1
 -2       234       803       796       792
 -1      1641    3    0    1
 -2       224       780       225       764
 -1      1642    3    0    1
 -2       763      1036       778       771
 -1      1643    3    0    1
 -2       234       787       792       796
 -1      1644    3    0    1
 -2       799       796       801       808
 -1      1645    3    0    1
 -2      1486      1456      1575      1649
 -1      1646    3    0    1
 -2      1542      1147      1969      2615
 -1      1647    3    0    1
 -2       417       314      1570      2208
 -1      1648    3    0    1
 -2      1865      1792      2196      2606
 -1      1649    3    0    1
 -2       953       490       483      2355
 -1      1650    3    0    1
 -2       631       630      2248      2271
 -1      1651    3    0    1
 -2       224       764       767       777
 -1      1652    3    0    1
 -2       213       212       761      1032
 -1      1653    3    0    1
 -2       218       224       767       777
 -1      1654    3    0    1
 -2      1775        32      1987      2404
 -1      1655    3    0    1
 -2      2250      2378      2541      2582
 -1      1656    3    0    1
 -2       166       168      1978      2694
 -1      1657    3    0    1
 -2       335       413      1616      1678
 -1      1658    3    0    1
 -2       801       243      1040      1248
 -1      1659    3    0    1
 -2        31        28      1775      2132
 -1      1660    3    0    1
 -2       766       768       774      1034
 -1      1661    3    0    1
 -2         2         3       489       945
 -1      1662    3    0    1
 -2       779       772       767       783
 -1      1663    3    0    1
 -2       767       772       773       783
 -1      1664    3    0    1
 -2       879       856      2591      2696
 -1      1665    3    0    1
 -2       244       239       797      1042
 -1      1666    3    0    1
 -2       243       366       796      1040
 -1      1667    3    0    1
 -2       818       817      1250      1257
 -1      1668    3    0    1
 -2       773       772       777       783
 -1      1669    3    0    1
 -2      1708      1510      1712      2075
 -1      1670    3    0    1
 -2       243       796       801      1040
 -1      1671    3    0    1
 -2       781       228       230       783
 -1      1672    3    0    1
 -2       368       779       369       783
 -1      1673    3    0    1
 -2       228       781       773       783
 -1      1674    3    0    1
 -2       779       368       772       783
 -1      1675    3    0    1
 -2       239       806       436       808
 -1      1676    3    0    1
 -2       220       782       231       784
 -1      1677    3    0    1
 -2       222       780       777       784
 -1      1678    3    0    1
 -2       782       220       775       784
 -1      1679    3    0    1
 -2      1048       824      1436      2134
 -1      1680    3    0    1
 -2      1217      1023       723      2175
 -1      1681    3    0    1
 -2       240       804       242       787
 -1      1682    3    0    1
 -2       243      1869      2649      2716
 -1      1683    3    0    1
 -2      1039      1248      1040       788
 -1      1684    3    0    1
 -2      1039      1248       801      1040
 -1      1685    3    0    1
 -2      1560       386      1797      1871
 -1      1686    3    0    1
 -2       240       801      1039      1241
 -1      1687    3    0    1
 -2       236       797      1037      1243
 -1      1688    3    0    1
 -2       774       766       776      1035
 -1      1689    3    0    1
 -2       879      2591      2680      2692
 -1      1690    3    0    1
 -2      1049       815      1253      1255
 -1      1691    3    0    1
 -2       815      1256      1255      1049
 -1      1692    3    0    1
 -2       911       933      1986      2207
 -1      1693    3    0    1
 -2       236       805       792       797
 -1      1694    3    0    1
 -2       237       794       437      1041
 -1      1695    3    0    1
 -2       234       803       792       247
 -1      1696    3    0    1
 -2      2119      1421      2626      2733
 -1      1697    3    0    1
 -2      1489       908      1812       924
 -1      1698    3    0    1
 -2       386       434      1257      1843
 -1      1699    3    0    1
 -2       236       805       248       792
 -1      1700    3    0    1
 -2       234       240       801      1039
 -1      1701    3    0    1
 -2       796       234       801      1039
 -1      1702    3    0    1
 -2       824      1048      1782      2134
 -1      1703    3    0    1
 -2       534      1533      1969      2368
 -1      1704    3    0    1
 -2      1038      1247       794      1041
 -1      1705    3    0    1
 -2      1757      1701      2244      2385
 -1      1706    3    0    1
 -2       310      1112       412      1526
 -1      1707    3    0    1
 -2      1862      1419      2088      2267
 -1      1708    3    0    1
 -2       787       245       792       799
 -1      1709    3    0    1
 -2       245       806       787       246
 -1      1710    3    0    1
 -2       245       236       792       799
 -1      1711    3    0    1
 -2      1750      1629      2149      2233
 -1      1712    3    0    1
 -2       821       253       823       816
 -1      1713    3    0    1
 -2       950         9       952      2502
 -1      1714    3    0    1
 -2      1439      1443      1473      1641
 -1      1715    3    0    1
 -2       820       816       821       823
 -1      1716    3    0    1
 -2       818       252       257      1250
 -1      1717    3    0    1
 -2       275       842      1054      1260
 -1      1718    3    0    1
 -2       795       788       802      1043
 -1      1719    3    0    1
 -2       854       848       837       856
 -1      1720    3    0    1
 -2       254       827       820       816
 -1      1721    3    0    1
 -2      1919      1092      2181      2265
 -1      1722    3    0    1
 -2      1509      1474      2083      2501
 -1      1723    3    0    1
 -2      1093       319      1497      1514
 -1      1724    3    0    1
 -2       805       792       797       807
 -1      1725    3    0    1
 -2       789      1247       798       800
 -1      1726    3    0    1
 -2       803       796       792       807
 -1      1727    3    0    1
 -2       792       796       797       807
 -1      1728    3    0    1
 -2       239       244       797       807
 -1      1729    3    0    1
 -2      1044      1258      1045       814
 -1      1730    3    0    1
 -2      1252       253       821       251
 -1      1731    3    0    1
 -2       797       796       799       807
 -1      1732    3    0    1
 -2       239       797       799       807
 -1      1733    3    0    1
 -2        36        49      2295      2757
 -1      1734    3    0    1
 -2      1258      1044       820      1254
 -1      1735    3    0    1
 -2      1530      1508      2000      2083
 -1      1736    3    0    1
 -2       836      1263      1259       835
 -1      1737    3    0    1
 -2       805       244       440       807
 -1      1738    3    0    1
 -2       366       803       441       807
 -1      1739    3    0    1
 -2       244       805       797       807
 -1      1740    3    0    1
 -2       803       366       796       807
 -1      1741    3    0    1
 -2       830       262       823       832
 -1      1742    3    0    1
 -2       806       239       799       808
 -1      1743    3    0    1
 -2       259       828       825       832
 -1      1744    3    0    1
 -2       836      1263       835       843
 -1      1745    3    0    1
 -2      1054      1264       839      1260
 -1      1746    3    0    1
 -2       820       816       823       825
 -1      1747    3    0    1
 -2       251       829       816       821
 -1      1748    3    0    1
 -2       272       842       275      1260
 -1      1749    3    0    1
 -2       823       262       831       832
 -1      1750    3    0    1
 -2       828       811       825       832
 -1      1751    3    0    1
 -2      1279      1068      1580      1642
 -1      1752    3    0    1
 -2       259       825       831       832
 -1      1753    3    0    1
 -2       251       829       263       816
 -1      1754    3    0    1
 -2       752       750      2044      2116
 -1      1755    3    0    1
 -2      1256      1049       819      2471
 -1      1756    3    0    1
 -2       277       456       844      1262
 -1      1757    3    0    1
 -2       430      1587      1740      1799
 -1      1758    3    0    1
 -2       836      1265       843       835
 -1      1759    3    0    1
 -2      1265       836      1262      1050
 -1      1760    3    0    1
 -2       909       941      1120      1815
 -1      1761    3    0    1
 -2       345       759      1700      1829
 -1      1762    3    0    1
 -2      1501      1619      1763      1827
 -1      1763    3    0    1
 -2       819       815       814      1049
 -1      1764    3    0    1
 -2      1584      1694      1756      1890
 -1      1765    3    0    1
 -2      1403      1456      2652      2711
 -1      1766    3    0    1
 -2      1581      1472      1932      2168
 -1      1767    3    0    1
 -2       520      1775      1987      2084
 -1      1768    3    0    1
 -2       255       811       816       825
 -1      1769    3    0    1
 -2       816       811       823       825
 -1      1770    3    0    1
 -2       663       640      1681      2472
 -1      1771    3    0    1
 -2      1456      1486      1575      2711
 -1      1772    3    0    1
 -2       390       970      1158      1945
 -1      1773    3    0    1
 -2      1507      1451      1576      1712
 -1      1774    3    0    1
 -2      1404      1569      1914      2477
 -1      1775    3    0    1
 -2       406      2310      2406      2639
 -1      1776    3    0    1
 -2      1428      1526      1534      1807
 -1      1777    3    0    1
 -2       254       255       816       825
 -1      1778    3    0    1
 -2      1428      1526      1807      2047
 -1      1779    3    0    1
 -2      1270      1265      2312      2590
 -1      1780    3    0    1
 -2       843       835       850      1263
 -1      1781    3    0    1
 -2      1762       544      2377      2411
 -1      1782    3    0    1
 -2      1218       189      2427      2463
 -1      1783    3    0    1
 -2      1666      1461      1695      1837
 -1      1784    3    0    1
 -2       269       268       837       844
 -1      1785    3    0    1
 -2       269       837       838       844
 -1      1786    3    0    1
 -2       154       149      1202      2691
 -1      1787    3    0    1
 -2       829       816       821       831
 -1      1788    3    0    1
 -2       827       820       816       831
 -1      1789    3    0    1
 -2      1792      1865      2244      2606
 -1      1790    3    0    1
 -2       816       820       821       831
 -1      1791    3    0    1
 -2       262       435       821       831
 -1      1792    3    0    1
 -2      1375      1490      1758      1929
 -1      1793    3    0    1
 -2       821       820       823       831
 -1      1794    3    0    1
 -2       262       821       823       831
 -1      1795    3    0    1
 -2       399      1474      1940      2185
 -1      1796    3    0    1
 -2       261       259       820       831
 -1      1797    3    0    1
 -2       823       820       825       831
 -1      1798    3    0    1
 -2       820       259       825       831
 -1      1799    3    0    1
 -2       261       827       380       831
 -1      1800    3    0    1
 -2       821       433       829       831
 -1      1801    3    0    1
 -2       827       261       820       831
 -1      1802    3    0    1
 -2       435       433       821       831
 -1      1803    3    0    1
 -2       456       277       844       856
 -1      1804    3    0    1
 -2       276       848      1055      1057
 -1      1805    3    0    1
 -2       893      1293       894      1618
 -1      1806    3    0    1
 -2      1508       421      1790      1968
 -1      1807    3    0    1
 -2       836      1262      1050      1052
 -1      1808    3    0    1
 -2      1584      1694      1742      1778
 -1      1809    3    0    1
 -2      1529      1428      1541      2367
 -1      1810    3    0    1
 -2      1885      2706      2723      2725
 -1      1811    3    0    1
 -2       961       521       963       967
 -1      1812    3    0    1
 -2       268       852       837       849
 -1      1813    3    0    1
 -2       918      1316      1581      2168
 -1      1814    3    0    1
 -2       209       760      1700      2140
 -1      1815    3    0    1
 -2       841       842      1260      1264
 -1      1816    3    0    1
 -2       839      1057       847       846
 -1      1817    3    0    1
 -2       385       279      1055      1639
 -1      1818    3    0    1
 -2      1059      1271       857      1066
 -1      1819    3    0    1
 -2       268       837       844       849
 -1      1820    3    0    1
 -2       273      2332      2456      1351
 -1      1821    3    0    1
 -2       819       814       826      1049
 -1      1822    3    0    1
 -2       323      1769      1805      2562
 -1      1823    3    0    1
 -2      1059      1271      1066       860
 -1      1824    3    0    1
 -2        60       554      1149      1152
 -1      1825    3    0    1
 -2       270       854       848       837
 -1      1826    3    0    1
 -2      2054      2310      2437      2594
 -1      1827    3    0    1
 -2      1408      1884      1990      2052
 -1      1828    3    0    1
 -2       837       270       845       848
 -1      1829    3    0    1
 -2      1525      1802      2079      2088
 -1      1830    3    0    1
 -2      1644      1492      1744      2483
 -1      1831    3    0    1
 -2      1033       368      2570      2693
 -1      1832    3    0    1
 -2       267       834       833      1051
 -1      1833    3    0    1
 -2      1264      1054       842      1260
 -1      1834    3    0    1
 -2      1576      1451      1708      1712
 -1      1835    3    0    1
 -2       486      1129       487       479
 -1      1836    3    0    1
 -2       345       343       759      1829
 -1      1837    3    0    1
 -2      1547      1697      2016      2036
 -1      1838    3    0    1
 -2      1451      1507      1676      1818
 -1      1839    3    0    1
 -2      1062      1272      1064       863
 -1      1840    3    0    1
 -2       860      1066      1059       859
 -1      1841    3    0    1
 -2       286       875       868       862
 -1      1842    3    0    1
 -2       851       844       838       855
 -1      1843    3    0    1
 -2       853       838       845       855
 -1      1844    3    0    1
 -2       838       844       845       855
 -1      1845    3    0    1
 -2      1271      1059       857      1267
 -1      1846    3    0    1
 -2       860      1270       867       859
 -1      1847    3    0    1
 -2       872      1061      1063      1065
 -1      1848    3    0    1
 -2       383       456       844       855
 -1      1849    3    0    1
 -2       383       844       851       855
 -1      1850    3    0    1
 -2       853       279       385       855
 -1      1851    3    0    1
 -2       279       853       845       855
 -1      1852    3    0    1
 -2       276       845       848       856
 -1      1853    3    0    1
 -2       844       845       855       856
 -1      1854    3    0    1
 -2       845       844       848       856
 -1      1855    3    0    1
 -2       852       277       283       856
 -1      1856    3    0    1
 -2       277       852       849       856
 -1      1857    3    0    1
 -2       276       854       429       856
 -1      1858    3    0    1
 -2       295       868       879       880
 -1      1859    3    0    1
 -2       854       276       848       856
 -1      1860    3    0    1
 -2       872       869       873       880
 -1      1861    3    0    1
 -2       476      1127       475       947
 -1      1862    3    0    1
 -2      1063       864      1061      1269
 -1      1863    3    0    1
 -2      2035      1731      1596      2012
 -1      1864    3    0    1
 -2      1057       840      1055       846
 -1      1865    3    0    1
 -2      1117       311      1079      1561
 -1      1866    3    0    1
 -2       860      1270       859      1060
 -1      1867    3    0    1
 -2       868       293       873       880
 -1      1868    3    0    1
 -2      1975      1998      2556      2600
 -1      1869    3    0    1
 -2      2359       389      2456      1351
 -1      1870    3    0    1
 -2       487      1702      2186      2226
 -1      1871    3    0    1
 -2       289       290       861       869
 -1      1872    3    0    1
 -2       286       875       862       298
 -1      1873    3    0    1
 -2       863      1065       871       870
 -1      1874    3    0    1
 -2       861       290       862       869
 -1      1875    3    0    1
 -2       290       877       299       862
 -1      1876    3    0    1
 -2       290       877       862       869
 -1      1877    3    0    1
 -2       285       876       861       873
 -1      1878    3    0    1
 -2       864      1064       870       863
 -1      1879    3    0    1
 -2       861       289       869       872
 -1      1880    3    0    1
 -2       289       878       872       861
 -1      1881    3    0    1
 -2       293       295       868      1273
 -1      1882    3    0    1
 -2       864      1065       863       870
 -1      1883    3    0    1
 -2      1469      2082      2095      2228
 -1      1884    3    0    1
 -2       285       876       296       861
 -1      1885    3    0    1
 -2       475       953       483      1128
 -1      1886    3    0    1
 -2       858       857      1267      1271
 -1      1887    3    0    1
 -2       239       244      1869      2058
 -1      1888    3    0    1
 -2      1617      1658      1980      2068
 -1      1889    3    0    1
 -2       954       498       956       960
 -1      1890    3    0    1
 -2       877       862       869       879
 -1      1891    3    0    1
 -2       814      1258      1045       826
 -1      1892    3    0    1
 -2       875       868       862       879
 -1      1893    3    0    1
 -2       862       868       869       879
 -1      1894    3    0    1
 -2       154       149       681      1202
 -1      1895    3    0    1
 -2       428       427       869       879
 -1      1896    3    0    1
 -2       295       875       388       879
 -1      1897    3    0    1
 -2       869       427       877       879
 -1      1898    3    0    1
 -2       875       295       868       879
 -1      1899    3    0    1
 -2       295       293       868       880
 -1      1900    3    0    1
 -2       292       428       869       880
 -1      1901    3    0    1
 -2       869       428       879       880
 -1      1902    3    0    1
 -2       292       878       300       880
 -1      1903    3    0    1
 -2       876       293       397       880
 -1      1904    3    0    1
 -2       878       292       872       880
 -1      1905    3    0    1
 -2       293       876       873       880
 -1      1906    3    0    1
 -2       353      1347      1367      2756
 -1      1907    3    0    1
 -2       802      2423      2579      2654
 -1      1908    3    0    1
 -2      1210      1625      2398      2441
 -1      1909    3    0    1
 -2      1424      1522      1548      1918
 -1      1910    3    0    1
 -2      1274      1275      1591      1688
 -1      1911    3    0    1
 -2       641       642       997      1001
 -1      1912    3    0    1
 -2      1497      1514      1656      2067
 -1      1913    3    0    1
 -2       412       310      1526      1807
 -1      1914    3    0    1
 -2      1448      1471      1606      1801
 -1      1915    3    0    1
 -2      2017      1689      2081      2155
 -1      1916    3    0    1
 -2       353       157      2100      2731
 -1      1917    3    0    1
 -2      2260       832      2313      2563
 -1      1918    3    0    1
 -2      2049      1468      2605      2678
 -1      1919    3    0    1
 -2      1718      1809      2101      2408
 -1      1920    3    0    1
 -2       346      1219      1667      1877
 -1      1921    3    0    1
 -2       953       475       946      1128
 -1      1922    3    0    1
 -2      1937      1463      2212      2238
 -1      1923    3    0    1
 -2       889      1634      1798      1825
 -1      1924    3    0    1
 -2      1685      1425      1838      1878
 -1      1925    3    0    1
 -2      1192       654      1749      1808
 -1      1926    3    0    1
 -2       749       345       751      1029
 -1      1927    3    0    1
 -2      1124       473       946      1128
 -1      1928    3    0    1
 -2         4       485       948      1126
 -1      1929    3    0    1
 -2      1502      1219       726      1877
 -1      1930    3    0    1
 -2      1561      1447      1931      2072
 -1      1931    3    0    1
 -2       473      1124       474      1128
 -1      1932    3    0    1
 -2      1576      1451      1845      2239
 -1      1933    3    0    1
 -2       346      1699      2453      2653
 -1      1934    3    0    1
 -2      1443      1439      1612      1641
 -1      1935    3    0    1
 -2      1845      1624      1926      2042
 -1      1936    3    0    1
 -2      2064       391      2229      2523
 -1      1937    3    0    1
 -2       209       207      1027      2099
 -1      1938    3    0    1
 -2      1706      1994      2111      2146
 -1      1939    3    0    1
 -2      1542       420      1789      2450
 -1      1940    3    0    1
 -2       605        94       984      1176
 -1      1941    3    0    1
 -2      1840       333      2398      2441
 -1      1942    3    0    1
 -2      1903       798      2270      2544
 -1      1943    3    0    1
 -2      1672      1638      2001      2041
 -1      1944    3    0    1
 -2      1444      1406      1694      1864
 -1      1945    3    0    1
 -2        83        81       585      1169
 -1      1946    3    0    1
 -2       481         6       951      1129
 -1      1947    3    0    1
 -2      1645      1412      1647      1751
 -1      1948    3    0    1
 -2      1526      1529      1534      1986
 -1      1949    3    0    1
 -2       458       305      1280      1938
 -1      1950    3    0    1
 -2       261       259       831      2190
 -1      1951    3    0    1
 -2      1219      1502       726       727
 -1      1952    3    0    1
 -2       570       569       974       978
 -1      1953    3    0    1
 -2       437      1480      1629      1750
 -1      1954    3    0    1
 -2      1128       953      2360      1353
 -1      1955    3    0    1
 -2       487      1129      1702      1898
 -1      1956    3    0    1
 -2       476      1128       475       483
 -1      1957    3    0    1
 -2      1570      1427      1600      1717
 -1      1958    3    0    1
 -2      2351      1185      2480      2546
 -1      1959    3    0    1
 -2        26       505       506      1131
 -1      1960    3    0    1
 -2      1624      1709      1844      1936
 -1      1961    3    0    1
 -2       556      1157      2623      2647
 -1      1962    3    0    1
 -2      2029       405      2054      2406
 -1      1963    3    0    1
 -2      1557       928      1735      1788
 -1      1964    3    0    1
 -2      1281       885      1280      1938
 -1      1965    3    0    1
 -2      1647      1645      1751      1821
 -1      1966    3    0    1
 -2      1288      1287      1634      1798
 -1      1967    3    0    1
 -2      1774       941      1815      2420
 -1      1968    3    0    1
 -2       407       983      2040      2060
 -1      1969    3    0    1
 -2      1904       967      2344      1358
 -1      1970    3    0    1
 -2       151       150      1999      2013
 -1      1971    3    0    1
 -2      1158       558      1617      2170
 -1      1972    3    0    1
 -2      1029       752      2044      2222
 -1      1973    3    0    1
 -2       891      1071      1512      1593
 -1      1974    3    0    1
 -2      1413      1459      1847      1889
 -1      1975    3    0    1
 -2       969       558      1159      1680
 -1      1976    3    0    1
 -2      1521      1317      1855      1856
 -1      1977    3    0    1
 -2      1544      1607      1692      1812
 -1      1978    3    0    1
 -2       346       332      1219      1877
 -1      1979    3    0    1
 -2      1193       999      2135      2183
 -1      1980    3    0    1
 -2       840      1057      1053       839
 -1      1981    3    0    1
 -2       561        63       968      1160
 -1      1982    3    0    1
 -2      1338       903      1080      1930
 -1      1983    3    0    1
 -2       574      1166       586       580
 -1      1984    3    0    1
 -2      1324       325      1306      1516
 -1      1985    3    0    1
 -2       750      1227      2044      2342
 -1      1986    3    0    1
 -2       237      1041      1835      2277
 -1      1987    3    0    1
 -2      1055       385      1639      2172
 -1      1988    3    0    1
 -2      1043       791      1240      1244
 -1      1989    3    0    1
 -2      1461      1516      1695      2144
 -1      1990    3    0    1
 -2      1541      1522      1697      2012
 -1      1991    3    0    1
 -2      1961      1559      2091      2277
 -1      1992    3    0    1
 -2      1116      1305      2154      2567
 -1      1993    3    0    1
 -2      1640      1385      1725      1800
 -1      1994    3    0    1
 -2       262       823      1046      1048
 -1      1995    3    0    1
 -2       435       262       821      1046
 -1      1996    3    0    1
 -2      1630      1707      1913      2009
 -1      1997    3    0    1
 -2      1554      1460      1760      2110
 -1      1998    3    0    1
 -2      1709      1605      2136      2518
 -1      1999    3    0    1
 -2       990       628       634      2272
 -1      2000    3    0    1
 -2      1634      1437      1776      1798
 -1      2001    3    0    1
 -2        18      1582      2557      2597
 -1      2002    3    0    1
 -2      1922       291      2473      2661
 -1      2003    3    0    1
 -2       957      1924      2132      2687
 -1      2004    3    0    1
 -2      1297      1296      1448      2020
 -1      2005    3    0    1
 -2       600      1175      1174       597
 -1      2006    3    0    1
 -2      1046      1048      1436      2134
 -1      2007    3    0    1
 -2       797      1037      1243      1246
 -1      2008    3    0    1
 -2       332       346      1699      1877
 -1      2009    3    0    1
 -2      1540      1454      1909      2534
 -1      2010    3    0    1
 -2      1624      1590      1709      1925
 -1      2011    3    0    1
 -2      1332       350      1642      1649
 -1      2012    3    0    1
 -2      1429      1632      1707      1789
 -1      2013    3    0    1
 -2      1378      1428      1529      1532
 -1      2014    3    0    1
 -2       388      1536      2334      2590
 -1      2015    3    0    1
 -2       222       772       777      1239
 -1      2016    3    0    1
 -2       889      1288       890      1798
 -1      2017    3    0    1
 -2       619       992       630       631
 -1      2018    3    0    1
 -2        10      1127      1130      2361
 -1      2019    3    0    1
 -2      1387       333      2216      2441
 -1      2020    3    0    1
 -2      1456      1486      1642      1649
 -1      2021    3    0    1
 -2       203       749      1223      1225
 -1      2022    3    0    1
 -2       653       134       656      1000
 -1      2023    3    0    1
 -2      1751      1412      1802      2088
 -1      2024    3    0    1
 -2        32       520      1775      1987
 -1      2025    3    0    1
 -2       624      1185       990       634
 -1      2026    3    0    1
 -2      1587      1857      1954      2104
 -1      2027    3    0    1
 -2      1429      1632      1655      1816
 -1      2028    3    0    1
 -2      1614      1564      1832      2192
 -1      2029    3    0    1
 -2       483      1130      1127      2632
 -1      2030    3    0    1
 -2      2715      2672      1366      1367
 -1      2031    3    0    1
 -2      1334       318       457      1609
 -1      2032    3    0    1
 -2       152       676      1004      1198
 -1      2033    3    0    1
 -2       387       262      1804      2134
 -1      2034    3    0    1
 -2      1936      1709      2136      2518
 -1      2035    3    0    1
 -2       349       348      1201      1720
 -1      2036    3    0    1
 -2       440      1595      2394      2522
 -1      2037    3    0    1
 -2      1434      1439      1855      2010
 -1      2038    3    0    1
 -2       171       701      1205      1207
 -1      2039    3    0    1
 -2       819       802      1043      2492
 -1      2040    3    0    1
 -2       390        66       970      1945
 -1      2041    3    0    1
 -2      1466      1474      1636      1653
 -1      2042    3    0    1
 -2      1549      1448      1609      1677
 -1      2043    3    0    1
 -2      1643      1511      1664      2115
 -1      2044    3    0    1
 -2      1758      1715      1928      2268
 -1      2045    3    0    1
 -2       400      1762      2379      2411
 -1      2046    3    0    1
 -2      2037      1589      2410      2670
 -1      2047    3    0    1
 -2      1036      2018      2371      2418
 -1      2048    3    0    1
 -2      1553      1894      2039      2071
 -1      2049    3    0    1
 -2      1414      1559      2105      2138
 -1      2050    3    0    1
 -2        63        70      2294      2514
 -1      2051    3    0    1
 -2      1041      1903      1908      2544
 -1      2052    3    0    1
 -2      1411      1465      1631      1830
 -1      2053    3    0    1
 -2       333       167      1014      1625
 -1      2054    3    0    1
 -2      1544      1490      1567      1929
 -1      2055    3    0    1
 -2       484         2       489       945
 -1      2056    3    0    1
 -2      1842      1247      1903      2149
 -1      2057    3    0    1
 -2       476      1127       483       475
 -1      2058    3    0    1
 -2         1      1124         7       474
 -1      2059    3    0    1
 -2       205      1028      2045      2518
 -1      2060    3    0    1
 -2      1518      1508      1578      1947
 -1      2061    3    0    1
 -2      1667       346      2453      2653
 -1      2062    3    0    1
 -2       873       868      1266      1273
 -1      2063    3    0    1
 -2       482         5       481       949
 -1      2064    3    0    1
 -2       957      1772      1924      2412
 -1      2065    3    0    1
 -2      1955      1539      1964      2007
 -1      2066    3    0    1
 -2       479      1126       950       480
 -1      2067    3    0    1
 -2      1537      2574      2751      2770
 -1      2068    3    0    1
 -2       219       442      1679      2206
 -1      2069    3    0    1
 -2       960      1719      1352      1355
 -1      2070    3    0    1
 -2      1518      1761      1790      2103
 -1      2071    3    0    1
 -2      1747      1413      1847      1889
 -1      2072    3    0    1
 -2       486       952       950       479
 -1      2073    3    0    1
 -2      1851      1749      2161      2568
 -1      2074    3    0    1
 -2       480       479       486       950
 -1      2075    3    0    1
 -2      1065       864      1063       870
 -1      2076    3    0    1
 -2       440       231      2157      2522
 -1      2077    3    0    1
 -2      1336      1075      1687      1730
 -1      2078    3    0    1
 -2       479      1126       948       950
 -1      2079    3    0    1
 -2         6       482       481       951
 -1      2080    3    0    1
 -2       640       334      1910      2407
 -1      2081    3    0    1
 -2      1696      1921      2266      2273
 -1      2082    3    0    1
 -2       486       952       479       487
 -1      2083    3    0    1
 -2         9       485       950       952
 -1      2084    3    0    1
 -2       447      2360      1352      1353
 -1      2085    3    0    1
 -2      1718      1706      1809      2111
 -1      2086    3    0    1
 -2        32       508       513      1136
 -1      2087    3    0    1
 -2       498        25       954       956
 -1      2088    3    0    1
 -2      1535      1498      1640      1811
 -1      2089    3    0    1
 -2       510       499       511       957
 -1      2090    3    0    1
 -2       205      1748      1833      1971
 -1      2091    3    0    1
 -2      1302      1299      1604      1931
 -1      2092    3    0    1
 -2       920      1107       928      1735
 -1      2093    3    0    1
 -2      1107       322       340      1735
 -1      2094    3    0    1
 -2      1706      1718      1809      2101
 -1      2095    3    0    1
 -2      1658      1980      2068      2159
 -1      2096    3    0    1
 -2       499       500       511       957
 -1      2097    3    0    1
 -2      2051      2105      2138      2618
 -1      2098    3    0    1
 -2      1958       774      2474      2510
 -1      2099    3    0    1
 -2       342       993      1943      2331
 -1      2100    3    0    1
 -2       421       399       505       958
 -1      2101    3    0    1
 -2       505       399       506       958
 -1      2102    3    0    1
 -2       955       513      1136      1139
 -1      2103    3    0    1
 -2       524      1147      1143       523
 -1      2104    3    0    1
 -2      1160      2300      2478      2514
 -1      2105    3    0    1
 -2       871      1065      1713      2519
 -1      2106    3    0    1
 -2        28       509       957       959
 -1      2107    3    0    1
 -2       315       431      1562      2421
 -1      2108    3    0    1
 -2       505       421       958      1138
 -1      2109    3    0    1
 -2       505       958      1134      1138
 -1      2110    3    0    1
 -2       528       967       527       963
 -1      2111    3    0    1
 -2      1826       193      2464      2730
 -1      2112    3    0    1
 -2       534       523       535       964
 -1      2113    3    0    1
 -2       616       639      2069      2631
 -1      2114    3    0    1
 -2       219      1034      1981      2510
 -1      2115    3    0    1
 -2       497       960      1352      1355
 -1      2116    3    0    1
 -2       473       953      1128      1353
 -1      2117    3    0    1
 -2       523       524       535       964
 -1      2118    3    0    1
 -2       902      1078      1556      1600
 -1      2119    3    0    1
 -2      1027      1665      2099      2142
 -1      2120    3    0    1
 -2      1834      1836      2023      2689
 -1      2121    3    0    1
 -2       527      1146       967       531
 -1      2122    3    0    1
 -2       530       420       423       965
 -1      2123    3    0    1
 -2       420       530       529       965
 -1      2124    3    0    1
 -2        50        48       533       966
 -1      2125    3    0    1
 -2       391        69      2064      2229
 -1      2126    3    0    1
 -2       548      1158       559       558
 -1      2127    3    0    1
 -2        50       533       964       966
 -1      2128    3    0    1
 -2       971      1500      2647      1359
 -1      2129    3    0    1
 -2       529       965      1143      1147
 -1      2130    3    0    1
 -2       527       961       963       967
 -1      2131    3    0    1
 -2       527      1146       961       967
 -1      2132    3    0    1
 -2       528      1148      1145       538
 -1      2133    3    0    1
 -2      2296       985      2348      1360
 -1      2134    3    0    1
 -2      2343       507      2362      2364
 -1      2135    3    0    1
 -2       401       554       402       969
 -1      2136    3    0    1
 -2       554       401       553       969
 -1      2137    3    0    1
 -2      1376      1614      1832      2583
 -1      2138    3    0    1
 -2      1550      1994      2109      2111
 -1      2139    3    0    1
 -2      2092       798      2544      2686
 -1      2140    3    0    1
 -2       549       970      1150      1151
 -1      2141    3    0    1
 -2       572      1167       977       582
 -1      2142    3    0    1
 -2      1846      1590      1880      2453
 -1      2143    3    0    1
 -2       361       593      1356      1360
 -1      2144    3    0    1
 -2        77        73       579      1165
 -1      2145    3    0    1
 -2       980      1177       983       598
 -1      2146    3    0    1
 -2        76       570       974      1164
 -1      2147    3    0    1
 -2      1166       974       570      1164
 -1      2148    3    0    1
 -2       974      1166       570       978
 -1      2149    3    0    1
 -2       727       726      1022      1502
 -1      2150    3    0    1
 -2       573       572       583       976
 -1      2151    3    0    1
 -2       573      1168       976       583
 -1      2152    3    0    1
 -2      1298       895       896      2020
 -1      2153    3    0    1
 -2       736       185      1622      2535
 -1      2154    3    0    1
 -2      1851      2307      2331      2568
 -1      2155    3    0    1
 -2        31      1775      2487      2548
 -1      2156    3    0    1
 -2       435       433       831      1923
 -1      2157    3    0    1
 -2      1764      1574      1907      2230
 -1      2158    3    0    1
 -2      1532      1652      2016      2055
 -1      2159    3    0    1
 -2       579        73       585      1165
 -1      2160    3    0    1
 -2       598      1176      1173       595
 -1      2161    3    0    1
 -2      1275      1409      1591      1688
 -1      2162    3    0    1
 -2       106       629       632      1179
 -1      2163    3    0    1
 -2       120       632       987      1179
 -1      2164    3    0    1
 -2       595      1177       606       607
 -1      2165    3    0    1
 -2       597      1178       604       610
 -1      2166    3    0    1
 -2      1177       980       602      1170
 -1      2167    3    0    1
 -2       350       302      1642      1649
 -1      2168    3    0    1
 -2        89       605       979      1173
 -1      2169    3    0    1
 -2       120       106       632      1179
 -1      2170    3    0    1
 -2       602       407       601       983
 -1      2171    3    0    1
 -2        94       352       608       984
 -1      2172    3    0    1
 -2       736       370       759      2158
 -1      2173    3    0    1
 -2      1490      1544      1564      1828
 -1      2174    3    0    1
 -2       310      1089      1526      1807
 -1      2175    3    0    1
 -2       295      1270      1273      1536
 -1      2176    3    0    1
 -2      1493      1655      1746      1866
 -1      2177    3    0    1
 -2      1183      2324      2348      1361
 -1      2178    3    0    1
 -2       881      1275       882      1591
 -1      2179    3    0    1
 -2      1418      1488      1497      1608
 -1      2180    3    0    1
 -2      1375      1462      1544      1567
 -1      2181    3    0    1
 -2      1183      1939      2324      1361
 -1      2182    3    0    1
 -2       359       367      1939      1361
 -1      2183    3    0    1
 -2       652       124       657      1190
 -1      2184    3    0    1
 -2       988      1185       990       624
 -1      2185    3    0    1
 -2       624       994       623       989
 -1      2186    3    0    1
 -2       632       629       991      1179
 -1      2187    3    0    1
 -2      1548      1522      2012      2036
 -1      2188    3    0    1
 -2       624       990       623       634
 -1      2189    3    0    1
 -2       629       114       632       991
 -1      2190    3    0    1
 -2      1081      1105      1668      2118
 -1      2191    3    0    1
 -2       653       134      1000      1192
 -1      2192    3    0    1
 -2       620      1184       992       631
 -1      2193    3    0    1
 -2       421       399      1968      2083
 -1      2194    3    0    1
 -2      1346       690       157       689
 -1      2195    3    0    1
 -2       626       335       992      1184
 -1      2196    3    0    1
 -2       335       625       626       992
 -1      2197    3    0    1
 -2       620       992       619       631
 -1      2198    3    0    1
 -2      1574      1840      1992      2230
 -1      2199    3    0    1
 -2       630       619       631       993
 -1      2200    3    0    1
 -2       987       619       991       993
 -1      2201    3    0    1
 -2      1297       895      1296      2020
 -1      2202    3    0    1
 -2      2295        49      1354      1358
 -1      2203    3    0    1
 -2       619       630       991       993
 -1      2204    3    0    1
 -2       995       641      1001      1191
 -1      2205    3    0    1
 -2       641       128       995       997
 -1      2206    3    0    1
 -2      1004      1202       676      1006
 -1      2207    3    0    1
 -2      1192       644      1000      1187
 -1      2208    3    0    1
 -2      1002      1200       680      1008
 -1      2209    3    0    1
 -2       470      1098      1503      1521
 -1      2210    3    0    1
 -2       152       145       676      1198
 -1      2211    3    0    1
 -2      1672      1769      1788      1875
 -1      2212    3    0    1
 -2       142       677       680      1196
 -1      2213    3    0    1
 -2       338       650       341       999
 -1      2214    3    0    1
 -2       650       338       649       999
 -1      2215    3    0    1
 -2       124       127       657      1190
 -1      2216    3    0    1
 -2       762      1036      1362      1370
 -1      2217    3    0    1
 -2       371      2024      2140      2570
 -1      2218    3    0    1
 -2      1834      2023      2233      2304
 -1      2219    3    0    1
 -2       125       653       656      1188
 -1      2220    3    0    1
 -2       380       261      2190      2710
 -1      2221    3    0    1
 -2       441      2624      2629      2708
 -1      2222    3    0    1
 -2      1729      1615      2002      2328
 -1      2223    3    0    1
 -2       850      2312      2335      2354
 -1      2224    3    0    1
 -2       672      1009       671      1005
 -1      2225    3    0    1
 -2       222       226       784      2625
 -1      2226    3    0    1
 -2       673      1007      1195      1197
 -1      2227    3    0    1
 -2       692      1211       699       691
 -1      2228    3    0    1
 -2       672      1006       671       682
 -1      2229    3    0    1
 -2      1462      1544      1692      1812
 -1      2230    3    0    1
 -2      1510      1708      1712      2239
 -1      2231    3    0    1
 -2       668       667       679      1007
 -1      2232    3    0    1
 -2       668      1201      1007       679
 -1      2233    3    0    1
 -2       681       676      1198      1202
 -1      2234    3    0    1
 -2       348       674       349      1201
 -1      2235    3    0    1
 -2       674       348       673      1201
 -1      2236    3    0    1
 -2       674       673      1197      1201
 -1      2237    3    0    1
 -2      1295      1526      1606      1807
 -1      2238    3    0    1
 -2       408      1596      1731      1916
 -1      2239    3    0    1
 -2       673       348      1007      1201
 -1      2240    3    0    1
 -2       704       701      1015      1205
 -1      2241    3    0    1
 -2       671      1003      1005      1009
 -1      2242    3    0    1
 -2       671      1199      1003      1009
 -1      2243    3    0    1
 -2       697       162       698      1012
 -1      2244    3    0    1
 -2       696      1209      1207       695
 -1      2245    3    0    1
 -2      1578      1493      1738      1912
 -1      2246    3    0    1
 -2       705       700      1011      1013
 -1      2247    3    0    1
 -2       720      1218      1216      1022
 -1      2248    3    0    1
 -2      1568       329      1106       337
 -1      2249    3    0    1
 -2      2027      2736      1364      1371
 -1      2250    3    0    1
 -2      1211      1011       705      1203
 -1      2251    3    0    1
 -2       159       689      1010      1204
 -1      2252    3    0    1
 -2      1375      1462      1490      1544
 -1      2253    3    0    1
 -2       423       420      2614      2615
 -1      2254    3    0    1
 -2       166       168       704      1015
 -1      2255    3    0    1
 -2       720      1218      1022       726
 -1      2256    3    0    1
 -2      1376      1614      1828      1832
 -1      2257    3    0    1
 -2      1426      1440      1549      1703
 -1      2258    3    0    1
 -2      1453      1675      1942      2369
 -1      2259    3    0    1
 -2      2500      1009      2601      1347
 -1      2260    3    0    1
 -2      1768      1517      1784      1864
 -1      2261    3    0    1
 -2      1022       720      1214      1216
 -1      2262    3    0    1
 -2       716      1020       715      1019
 -1      2263    3    0    1
 -2       729       184      1017      1019
 -1      2264    3    0    1
 -2       772      1031      1033      1230
 -1      2265    3    0    1
 -2       965      2285      2368      2615
 -1      2266    3    0    1
 -2      1018      1217       714      1023
 -1      2267    3    0    1
 -2      1217      1018       714      1212
 -1      2268    3    0    1
 -2      1017       729      1019      1020
 -1      2269    3    0    1
 -2       715       723       730      1020
 -1      2270    3    0    1
 -2      1229      1025       753      1221
 -1      2271    3    0    1
 -2      1391      1501      1633      1643
 -1      2272    3    0    1
 -2       715      1017      1019      1020
 -1      2273    3    0    1
 -2       715      1220      1017      1020
 -1      2274    3    0    1
 -2      1219       726      1021       719
 -1      2275    3    0    1
 -2      1017       729      1020      1220
 -1      2276    3    0    1
 -2      1834       434      2023      2235
 -1      2277    3    0    1
 -2      1836      1842      2225      2610
 -1      2278    3    0    1
 -2       744      1227       743       750
 -1      2279    3    0    1
 -2      1617       535      1658      1969
 -1      2280    3    0    1
 -2      1438      1935      2193      2374
 -1      2281    3    0    1
 -2       535       966      1617      1873
 -1      2282    3    0    1
 -2       721      1021      1215      1219
 -1      2283    3    0    1
 -2       716      1023       715       723
 -1      2284    3    0    1
 -2       725       728      1216      1218
 -1      2285    3    0    1
 -2      1890      1528      1895      1920
 -1      2286    3    0    1
 -2       740      1226      1222       739
 -1      2287    3    0    1
 -2      1384      1493      1746      1761
 -1      2288    3    0    1
 -2       744      1227      1225       743
 -1      2289    3    0    1
 -2      1029       743      1223      1225
 -1      2290    3    0    1
 -2      1473      1439      1641      1724
 -1      2291    3    0    1
 -2       753       748      1025      1027
 -1      2292    3    0    1
 -2      2180       416      2581      2685
 -1      2293    3    0    1
 -2       715      1220      1020       730
 -1      2294    3    0    1
 -2       197       738      1024      1222
 -1      2295    3    0    1
 -2      1025      1229       753      1027
 -1      2296    3    0    1
 -2       446       519      2126      2373
 -1      2297    3    0    1
 -2       738       193       737      1363
 -1      2298    3    0    1
 -2       749      1029      1225      1227
 -1      2299    3    0    1
 -2       743      1228       750       752
 -1      2300    3    0    1
 -2       749      1029      1223      1225
 -1      2301    3    0    1
 -2       992       630       631      1711
 -1      2302    3    0    1
 -2       768      1237      1035       774
 -1      2303    3    0    1
 -2       424      1300      1554      1760
 -1      2304    3    0    1
 -2       329      1293      1568      1644
 -1      2305    3    0    1
 -2      1029       743      1225      1227
 -1      2306    3    0    1
 -2       212       762      1032      1231
 -1      2307    3    0    1
 -2       763       771       778      1033
 -1      2308    3    0    1
 -2       739      1229       747       754
 -1      2309    3    0    1
 -2       763       765       771      1033
 -1      2310    3    0    1
 -2       763      1239      1031      1033
 -1      2311    3    0    1
 -2       769       217      1233      1234
 -1      2312    3    0    1
 -2       768       766       774      1035
 -1      2313    3    0    1
 -2        83        81      1169      2008
 -1      2314    3    0    1
 -2      1523      1568      1745      2191
 -1      2315    3    0    1
 -2       769      1034      1233      1238
 -1      2316    3    0    1
 -2      2626      2326      2732      2752
 -1      2317    3    0    1
 -2       790      1246      1243       789
 -1      2318    3    0    1
 -2      1493      1738      1912      2102
 -1      2319    3    0    1
 -2       370       207      1700      2099
 -1      2320    3    0    1
 -2       791      1040       788      1039
 -1      2321    3    0    1
 -2      1843       386      1871      2082
 -1      2322    3    0    1
 -2      1321       906       923      2433
 -1      2323    3    0    1
 -2      1046       813      1048      1249
 -1      2324    3    0    1
 -2       801       796      1039      1040
 -1      2325    3    0    1
 -2       791       788      1043      1240
 -1      2326    3    0    1
 -2      2033      1063      2298      2455
 -1      2327    3    0    1
 -2       763      1239      1033       778
 -1      2328    3    0    1
 -2       233       794      1038      1242
 -1      2329    3    0    1
 -2       788       795       802      1040
 -1      2330    3    0    1
 -2       823      1046      1249       821
 -1      2331    3    0    1
 -2       794       237       793      1041
 -1      2332    3    0    1
 -2      1778      1422      1900      1932
 -1      2333    3    0    1
 -2      1374      1499      1651      2109
 -1      2334    3    0    1
 -2      1104      1516      1635      1755
 -1      2335    3    0    1
 -2       795       791       788      1043
 -1      2336    3    0    1
 -2       791      1245      1043       795
 -1      2337    3    0    1
 -2      1749      1851      2331      2568
 -1      2338    3    0    1
 -2      1738      1493      1761      1866
 -1      2339    3    0    1
 -2      1595      1246      1814      2686
 -1      2340    3    0    1
 -2       231      1035      2400      2435
 -1      2341    3    0    1
 -2       992      1520      2014      2271
 -1      2342    3    0    1
 -2       814       819       826      1045
 -1      2343    3    0    1
 -2       788      1248      1040       802
 -1      2344    3    0    1
 -2       813       812      1048      1249
 -1      2345    3    0    1
 -2      1282       304      1567      1607
 -1      2346    3    0    1
 -2      1778      1472      1957      2021
 -1      2347    3    0    1
 -2       583       582       977      2577
 -1      2348    3    0    1
 -2      1821      1751      1857      2104
 -1      2349    3    0    1
 -2      2017      2154      2156      2567
 -1      2350    3    0    1
 -2       817       252      1250      1251
 -1      2351    3    0    1
 -2       822       812       824      1048
 -1      2352    3    0    1
 -2       812      1257      1047       824
 -1      2353    3    0    1
 -2      1493      1578      1738      1761
 -1      2354    3    0    1
 -2      1569      1780      2063      2470
 -1      2355    3    0    1
 -2       813       812       822      1048
 -1      2356    3    0    1
 -2        68      1762      1345      2019
 -1      2357    3    0    1
 -2      1046       823      1249      1048
 -1      2358    3    0    1
 -2       813       822      1046      1048
 -1      2359    3    0    1
 -2       815      1256      1049       819
 -1      2360    3    0    1
 -2       392        53      2321      2763
 -1      2361    3    0    1
 -2       337       329      1292      1568
 -1      2362    3    0    1
 -2       817      1047      1250      1257
 -1      2363    3    0    1
 -2       842       272       841      1260
 -1      2364    3    0    1
 -2       849       277      1262      1265
 -1      2365    3    0    1
 -2       849       268      1050      1052
 -1      2366    3    0    1
 -2      1290      1072      1659      2383
 -1      2367    3    0    1
 -2      1559      1961      2091      2443
 -1      2368    3    0    1
 -2      1136       507      1972      2364
 -1      2369    3    0    1
 -2      1053       848      1055      1261
 -1      2370    3    0    1
 -2       848       845      1055      1261
 -1      2371    3    0    1
 -2      1055       840      1053      1261
 -1      2372    3    0    1
 -2       840      1056       839      1054
 -1      2373    3    0    1
 -2      2732      1939      2733      2762
 -1      2374    3    0    1
 -2      1137       960      2362      1352
 -1      2375    3    0    1
 -2       434      1047      1843      2220
 -1      2376    3    0    1
 -2       845       276       848      1055
 -1      2377    3    0    1
 -2       840      1057      1055      1053
 -1      2378    3    0    1
 -2      1627      1659      1942      2383
 -1      2379    3    0    1
 -2       889      1289      1070      1825
 -1      2380    3    0    1
 -2      1867       382      2209      2639
 -1      2381    3    0    1
 -2      1472      1900      1957      2021
 -1      2382    3    0    1
 -2      1147       965      1969      2615
 -1      2383    3    0    1
 -2       960      1719      2362      1352
 -1      2384    3    0    1
 -2       865       866      1268      1272
 -1      2385    3    0    1
 -2       723      1020      1577      2566
 -1      2386    3    0    1
 -2       317       444      1967      2536
 -1      2387    3    0    1
 -2       840      1057       839       846
 -1      2388    3    0    1
 -2      2332      1058      2359      1351
 -1      2389    3    0    1
 -2      1615      2297      2328      2455
 -1      2390    3    0    1
 -2       430       384       841      1264
 -1      2391    3    0    1
 -2       857       284       858      1267
 -1      2392    3    0    1
 -2      1278      1277      1805      2562
 -1      2393    3    0    1
 -2      1061       872      1063      1269
 -1      2394    3    0    1
 -2       872       869      1063      1269
 -1      2395    3    0    1
 -2       864      1064       863      1062
 -1      2396    3    0    1
 -2      1520      1555      1927      2468
 -1      2397    3    0    1
 -2      1557      1672      2001      2041
 -1      2398    3    0    1
 -2       404       408      1731      1916
 -1      2399    3    0    1
 -2       869       292       872      1063
 -1      2400    3    0    1
 -2       864      1065      1063      1061
 -1      2401    3    0    1
 -2       860      1271      1066       867
 -1      2402    3    0    1
 -2      1107       340      1557      1735
 -1      2403    3    0    1
 -2       289       290       869      1269
 -1      2404    3    0    1
 -2       800       798      1246      2270
 -1      2405    3    0    1
 -2      1795      1782      1810      1984
 -1      2406    3    0    1
 -2       860      1066       859       867
 -1      2407    3    0    1
 -2       486      1129       479       951
 -1      2408    3    0    1
 -2      2399      2556      2600      2636
 -1      2409    3    0    1
 -2      1516       325      1691      1755
 -1      2410    3    0    1
 -2      1084       907      1950      2011
 -1      2411    3    0    1
 -2      1481      1495      1556      1942
 -1      2412    3    0    1
 -2       807       366      2629      2708
 -1      2413    3    0    1
 -2       175       176       713      1212
 -1      2414    3    0    1
 -2       496      2373      2512      2674
 -1      2415    3    0    1
 -2      2422       214      1362      1370
 -1      2416    3    0    1
 -2      2182      2299      2498      2670
 -1      2417    3    0    1
 -2      1430      1510      1833      1971
 -1      2418    3    0    1
 -2      1158       970      1680      1945
 -1      2419    3    0    1
 -2      1315      1109      1626      1849
 -1      2420    3    0    1
 -2       915      1329       929      2007
 -1      2421    3    0    1
 -2        18      1582      2226      2502
 -1      2422    3    0    1
 -2      1430      1510      1748      1833
 -1      2423    3    0    1
 -2      2326      2119      2626      2732
 -1      2424    3    0    1
 -2      1928      1715      2241      2309
 -1      2425    3    0    1
 -2      1633      1511      1643      2115
 -1      2426    3    0    1
 -2      2448      2160      2619      2651
 -1      2427    3    0    1
 -2       421      1968      2000      2083
 -1      2428    3    0    1
 -2      1418      1656      2067      2133
 -1      2429    3    0    1
 -2      1551      1937      2212      2238
 -1      2430    3    0    1
 -2       496        12      2087      2373
 -1      2431    3    0    1
 -2       421       958      1138      2165
 -1      2432    3    0    1
 -2      1543      1696      1917      2098
 -1      2433    3    0    1
 -2      1846      1494      1880      2025
 -1      2434    3    0    1
 -2      1628      1666      2022      2450
 -1      2435    3    0    1
 -2       307      1288      1822      2118
 -1      2436    3    0    1
 -2      1293       893      1292      1618
 -1      2437    3    0    1
 -2       730       747      2062      2143
 -1      2438    3    0    1
 -2      1185       990       634      2272
 -1      2439    3    0    1
 -2      1959      2302      2598      2621
 -1      2440    3    0    1
 -2      1848      2053      2117      2526
 -1      2441    3    0    1
 -2      1525      1631      1799      2372
 -1      2442    3    0    1
 -2      1426      1440      1811      2201
 -1      2443    3    0    1
 -2       362       982      1178      1477
 -1      2444    3    0    1
 -2       970      1680      1945      2029
 -1      2445    3    0    1
 -2         9        16       952      2502
 -1      2446    3    0    1
 -2      1226      2026      2464      2542
 -1      2447    3    0    1
 -2       318      1094      1549      1609
 -1      2448    3    0    1
 -2       441       226      1239      2624
 -1      2449    3    0    1
 -2      1632      1450      1655      1816
 -1      2450    3    0    1
 -2      1293      1292      1568      1745
 -1      2451    3    0    1
 -2       306      1315      1109      1626
 -1      2452    3    0    1
 -2      1468      1455      2196      2243
 -1      2453    3    0    1
 -2      1022       727      1502      1988
 -1      2454    3    0    1
 -2      1729      1740      1831      2059
 -1      2455    3    0    1
 -2      1548       408      1731      1732
 -1      2456    3    0    1
 -2      1504       402      2339      2607
 -1      2457    3    0    1
 -2      1433      1443      1486      1575
 -1      2458    3    0    1
 -2      1177       606       607      2179
 -1      2459    3    0    1
 -2       834      1051      1259      1263
 -1      2460    3    0    1
 -2       330       688       711      1383
 -1      2461    3    0    1
 -2      1437      1493      1912      2102
 -1      2462    3    0    1
 -2       440      1246      1595      2522
 -1      2463    3    0    1
 -2       735      1622      1901      2535
 -1      2464    3    0    1
 -2      2606      1850      2249      2308
 -1      2465    3    0    1
 -2      1490      1375      1544      1567
 -1      2466    3    0    1
 -2      1331       463       464      1641
 -1      2467    3    0    1
 -2       393       452      1148      2523
 -1      2468    3    0    1
 -2      1054      1264       842      1056
 -1      2469    3    0    1
 -2      1909      1454      2070      2534
 -1      2470    3    0    1
 -2      1128       953      2355      2360
 -1      2471    3    0    1
 -2      1597      1380      1662      1686
 -1      2472    3    0    1
 -2      1440      1535      1656      1811
 -1      2473    3    0    1
 -2      1435      1726      2080      2538
 -1      2474    3    0    1
 -2      1683      1384      1746      1761
 -1      2475    3    0    1
 -2      2257      2553      2610      2611
 -1      2476    3    0    1
 -2       453        36      2743      2764
 -1      2477    3    0    1
 -2        31        28       519      1775
 -1      2478    3    0    1
 -2      1301       424       468      1760
 -1      2479    3    0    1
 -2      1780      1569      2288      2470
 -1      2480    3    0    1
 -2      1496      1523      1618      1860
 -1      2481    3    0    1
 -2       730       723      1577      2566
 -1      2482    3    0    1
 -2      1501      1473      1611      1724
 -1      2483    3    0    1
 -2      1490      1375      1567      1929
 -1      2484    3    0    1
 -2      1651      1499      1736      2109
 -1      2485    3    0    1
 -2      1627      1453      1942      2369
 -1      2486    3    0    1
 -2      1958       230      1993      2474
 -1      2487    3    0    1
 -2      1817      1569      1914      2197
 -1      2488    3    0    1
 -2      1527      1472      1557      2021
 -1      2489    3    0    1
 -2      1459      1747      1889      2543
 -1      2490    3    0    1
 -2      1888      1064      2223      2297
 -1      2491    3    0    1
 -2      1507      1818      2181      2265
 -1      2492    3    0    1
 -2       129       139      2351      2630
 -1      2493    3    0    1
 -2       472       439      1084      2275
 -1      2494    3    0    1
 -2       972      1167       584       977
 -1      2495    3    0    1
 -2      1794       699      1013      2712
 -1      2496    3    0    1
 -2      2260       383      2291      2313
 -1      2497    3    0    1
 -2      1331       464      1612      1641
 -1      2498    3    0    1
 -2      1258      1965      2121      2387
 -1      2499    3    0    1
 -2      1193       341      2183      2549
 -1      2500    3    0    1
 -2      1751      1645      1857      2104
 -1      2501    3    0    1
 -2      1545      1494      1623      1848
 -1      2502    3    0    1
 -2      1546      1399      1764      2066
 -1      2503    3    0    1
 -2      1769       303      1318       323
 -1      2504    3    0    1
 -2      1291       308      1071      1512
 -1      2505    3    0    1
 -2       907      1340       940      2011
 -1      2506    3    0    1
 -2      1487       883      1279       884
 -1      2507    3    0    1
 -2      1631       430      1740      1799
 -1      2508    3    0    1
 -2       933      1112      1534      1986
 -1      2509    3    0    1
 -2      1247      1038       794      1242
 -1      2510    3    0    1
 -2      1579      2148      2164      2189
 -1      2511    3    0    1
 -2      1246       440      1595      1814
 -1      2512    3    0    1
 -2      1258       826      2259      2387
 -1      2513    3    0    1
 -2      2561       186      2645      1368
 -1      2514    3    0    1
 -2      1414      2618      2105      1484
 -1      2515    3    0    1
 -2      1611      1501      1763      1827
 -1      2516    3    0    1
 -2      1538      1466      2120      2139
 -1      2517    3    0    1
 -2       408       404      1731      1732
 -1      2518    3    0    1
 -2      2198      1951      2585      2695
 -1      2519    3    0    1
 -2       231       440      2394      2522
 -1      2520    3    0    1
 -2      1716      1390      1859      2078
 -1      2521    3    0    1
 -2      1762      1960      1345      2019
 -1      2522    3    0    1
 -2      1531      1405      2258      2537
 -1      2523    3    0    1
 -2      1474      1466      1940      2185
 -1      2524    3    0    1
 -2       763       765      1033      1230
 -1      2525    3    0    1
 -2      1256      1043      2481      2492
 -1      2526    3    0    1
 -2      1857      1645      1954      2104
 -1      2527    3    0    1
 -2       301      1276       459      2592
 -1      2528    3    0    1
 -2      1292       329      1293      1568
 -1      2529    3    0    1
 -2      1722       926      1899      2168
 -1      2530    3    0    1
 -2      1066       396      2290      1350
 -1      2531    3    0    1
 -2      2079      1419      2090      2267
 -1      2532    3    0    1
 -2       971       379      1166      1500
 -1      2533    3    0    1
 -2      2240      2081      2537      2612
 -1      2534    3    0    1
 -2       915      1108      1314      1676
 -1      2535    3    0    1
 -2      1455      1786      2196      2204
 -1      2536    3    0    1
 -2      1581      1660      1722      1932
 -1      2537    3    0    1
 -2      1055       276      1057      1639
 -1      2538    3    0    1
 -2      2253      1583      2555      2588
 -1      2539    3    0    1
 -2       134       137      1000      1882
 -1      2540    3    0    1
 -2      1518      1508      1947      1983
 -1      2541    3    0    1
 -2      1184       986       626      1180
 -1      2542    3    0    1
 -2      1708      1394      1712      1818
 -1      2543    3    0    1
 -2      1695      1585      1837      2144
 -1      2544    3    0    1
 -2       400        68      1762      1345
 -1      2545    3    0    1
 -2      2039      1465      2071      2515
 -1      2546    3    0    1
 -2       969       558      1680      2578
 -1      2547    3    0    1
 -2      1085      1323      1692      1812
 -1      2548    3    0    1
 -2       302      1068      1642      1649
 -1      2549    3    0    1
 -2      1944       752      2395      2474
 -1      2550    3    0    1
 -2      1776      1630      1822      2009
 -1      2551    3    0    1
 -2      1914      2151      2176      2197
 -1      2552    3    0    1
 -2      1440      1549      1609      1677
 -1      2553    3    0    1
 -2      1781      1684      1784      2479
 -1      2554    3    0    1
 -2      1422      1584      1895      1920
 -1      2555    3    0    1
 -2      2576      1470      2726      2727
 -1      2556    3    0    1
 -2       929      1507      1676      2007
 -1      2557    3    0    1
 -2        83        81      2008      2209
 -1      2558    3    0    1
 -2      1591      1513      1646      1771
 -1      2559    3    0    1
 -2       643      1192       655       654
 -1      2560    3    0    1
 -2      1433      1391      1501      1633
 -1      2561    3    0    1
 -2       119       116       633      1185
 -1      2562    3    0    1
 -2       914      1334       934      1703
 -1      2563    3    0    1
 -2      1700       345      1829      2293
 -1      2564    3    0    1
 -2      1512       891      1593      2114
 -1      2565    3    0    1
 -2       650       123       130      1186
 -1      2566    3    0    1
 -2       650       999      1189      1193
 -1      2567    3    0    1
 -2      1219       346      1667      1844
 -1      2568    3    0    1
 -2      1538      1499      2120      2286
 -1      2569    3    0    1
 -2      1630      1429      1707      2009
 -1      2570    3    0    1
 -2      1546       332      1764      1907
 -1      2571    3    0    1
 -2      2124      2395      2474      2495
 -1      2572    3    0    1
 -2      1021      1620      1907      2547
 -1      2573    3    0    1
 -2       631       993      1851      2307
 -1      2574    3    0    1
 -2      1581      1422      1660      1932
 -1      2575    3    0    1
 -2      1472      1778      1900      1932
 -1      2576    3    0    1
 -2        18        16      1582      2502
 -1      2577    3    0    1
 -2      1855      1503      1856      2442
 -1      2578    3    0    1
 -2      1387      1619      1827      2216
 -1      2579    3    0    1
 -2       393       391      2377      2523
 -1      2580    3    0    1
 -2      1320      1077      1600      1717
 -1      2581    3    0    1
 -2      1891      1492      2028      2483
 -1      2582    3    0    1
 -2       175       713       714      1212
 -1      2583    3    0    1
 -2       725       179       728      1218
 -1      2584    3    0    1
 -2       385      2172      2430      2563
 -1      2585    3    0    1
 -2      1323       327      1607      1692
 -1      2586    3    0    1
 -2      1709      1624      1925      1936
 -1      2587    3    0    1
 -2      1264       430      1740      1831
 -1      2588    3    0    1
 -2       657       652      1190      1194
 -1      2589    3    0    1
 -2       802      2423      2492      2579
 -1      2590    3    0    1
 -2       464      1111      1443      1641
 -1      2591    3    0    1
 -2      1490      1375      1758      1915
 -1      2592    3    0    1
 -2       413      1566      1594      1800
 -1      2593    3    0    1
 -2      2257      1436      2553      2611
 -1      2594    3    0    1
 -2      1772       510      1896      1924
 -1      2595    3    0    1
 -2      1393      1505      1623      1654
 -1      2596    3    0    1
 -2      1687      1075      2509      2567
 -1      2597    3    0    1
 -2      1184      1616      2108      2392
 -1      2598    3    0    1
 -2      1111      1319      1443      1641
 -1      2599    3    0    1
 -2      1833      1693      1971      2239
 -1      2600    3    0    1
 -2      1740      1729      1831      2413
 -1      2601    3    0    1
 -2       966      1617      1873      2379
 -1      2602    3    0    1
 -2      1655      1450      1746      1816
 -1      2603    3    0    1
 -2       895      1295      1606      2020
 -1      2604    3    0    1
 -2       388       295      1536      2590
 -1      2605    3    0    1
 -2       783       368      1690      2287
 -1      2606    3    0    1
 -2      1282       885       886      2424
 -1      2607    3    0    1
 -2      1605      1028      2045      2116
 -1      2608    3    0    1
 -2       343       759      1829      2097
 -1      2609    3    0    1
 -2      1499      1374      1876      2139
 -1      2610    3    0    1
 -2      1993      1958      2474      2495
 -1      2611    3    0    1
 -2       783      1996      2224      2287
 -1      2612    3    0    1
 -2         5       481       949      1125
 -1      2613    3    0    1
 -2       949      1129       951       479
 -1      2614    3    0    1
 -2      1129       949       481      1125
 -1      2615    3    0    1
 -2      1100       919      1457      1612
 -1      2616    3    0    1
 -2        10       394       484      1127
 -1      2617    3    0    1
 -2      1965      1258      2259      2387
 -1      2618    3    0    1
 -2      1450      1632      1789      2702
 -1      2619    3    0    1
 -2       395      1128      2360      1353
 -1      2620    3    0    1
 -2      1035      2400      2435      2496
 -1      2621    3    0    1
 -2      1669      1402      1742      1957
 -1      2622    3    0    1
 -2       945       484       947      1127
 -1      2623    3    0    1
 -2       859      1273      1270       874
 -1      2624    3    0    1
 -2       483      1130       490       475
 -1      2625    3    0    1
 -2      1765      1841      2003      2303
 -1      2626    3    0    1
 -2      1412      1751      1802      1862
 -1      2627    3    0    1
 -2       947       475       945      1127
 -1      2628    3    0    1
 -2       475      1130       945      1127
 -1      2629    3    0    1
 -2       949      1129       479      1125
 -1      2630    3    0    1
 -2       489       484       945      1130
 -1      2631    3    0    1
 -2       945       484      1127      1130
 -1      2632    3    0    1
 -2      1488      1418      1497      2133
 -1      2633    3    0    1
 -2      1631       430      1799      2372
 -1      2634    3    0    1
 -2       483      1130       475      1127
 -1      2635    3    0    1
 -2       500      1138      1134       499
 -1      2636    3    0    1
 -2       513        32      1136      1139
 -1      2637    3    0    1
 -2       505       958      1131      1134
 -1      2638    3    0    1
 -2       509       957       959      1133
 -1      2639    3    0    1
 -2       509        21      1132      1133
 -1      2640    3    0    1
 -2       957       509      1132      1133
 -1      2641    3    0    1
 -2       958       499      1131      1134
 -1      2642    3    0    1
 -2       500      1138       499       511
 -1      2643    3    0    1
 -2       530       529       965      1140
 -1      2644    3    0    1
 -2       513       508       955      1136
 -1      2645    3    0    1
 -2      1112       310      1089      1526
 -1      2646    3    0    1
 -2      1301       897      1300      1760
 -1      2647    3    0    1
 -2       343      1650      1829      2317
 -1      2648    3    0    1
 -2       464       463      1111      1641
 -1      2649    3    0    1
 -2       530        38       529      1140
 -1      2650    3    0    1
 -2       533       964       966      1142
 -1      2651    3    0    1
 -2       529       965      1140      1143
 -1      2652    3    0    1
 -2      1744      1485      2191      2483
 -1      2653    3    0    1
 -2       464      1443      1612      1641
 -1      2654    3    0    1
 -2       965       523      1140      1143
 -1      2655    3    0    1
 -2       499       510       511      1138
 -1      2656    3    0    1
 -2       958       499      1134      1138
 -1      2657    3    0    1
 -2       510       499       958      1138
 -1      2658    3    0    1
 -2       922       902      1556      1600
 -1      2659    3    0    1
 -2      1108      1507      2181      2265
 -1      2660    3    0    1
 -2       514       503       507      1139
 -1      2661    3    0    1
 -2      1551      1891      1937      2238
 -1      2662    3    0    1
 -2       962      1148      1145       528
 -1      2663    3    0    1
 -2       955       503      1135      1139
 -1      2664    3    0    1
 -2      1136       503       955      1139
 -1      2665    3    0    1
 -2       503      1136       507      1139
 -1      2666    3    0    1
 -2        45       532       962      1144
 -1      2667    3    0    1
 -2       546        52        57      1153
 -1      2668    3    0    1
 -2      1306      1324      1691      1823
 -1      2669    3    0    1
 -2       901       937      1116      2154
 -1      2670    3    0    1
 -2       553       554       969      1149
 -1      2671    3    0    1
 -2      2023      1610      2043      2485
 -1      2672    3    0    1
 -2       402      2251      2353      2607
 -1      2673    3    0    1
 -2       800      1836      1842      2225
 -1      2674    3    0    1
 -2       528      1145       527       538
 -1      2675    3    0    1
 -2       554       969      1149      1152
 -1      2676    3    0    1
 -2       553        60       554      1149
 -1      2677    3    0    1
 -2      1617      1658      1873      2565
 -1      2678    3    0    1
 -2       523       534       535      1147
 -1      2679    3    0    1
 -2       965       523      1143      1147
 -1      2680    3    0    1
 -2      1377      1400      1408      2052
 -1      2681    3    0    1
 -2       534       523       965      1147
 -1      2682    3    0    1
 -2         6      1382      1499      1736
 -1      2683    3    0    1
 -2        12      2087      2373      2674
 -1      2684    3    0    1
 -2       962      1148       528      1144
 -1      2685    3    0    1
 -2       532       452      1145      1148
 -1      2686    3    0    1
 -2       549      1158       970       559
 -1      2687    3    0    1
 -2       549      1159      1152       548
 -1      2688    3    0    1
 -2       549      1159       548       559
 -1      2689    3    0    1
 -2       969       548      1149      1152
 -1      2690    3    0    1
 -2       551      1160      1156       550
 -1      2691    3    0    1
 -2      1218      1022       726      1502
 -1      2692    3    0    1
 -2      1175       985      2296      1360
 -1      2693    3    0    1
 -2       546       971      1155      1157
 -1      2694    3    0    1
 -2       383      1258      1262      2291
 -1      2695    3    0    1
 -2       550      1157       562       556
 -1      2696    3    0    1
 -2       551      1157       562       550
 -1      2697    3    0    1
 -2       971       551      1153      1155
 -1      2698    3    0    1
 -2       551      1157       971       562
 -1      2699    3    0    1
 -2       573       572       976      1161
 -1      2700    3    0    1
 -2       968       550      1154      1156
 -1      2701    3    0    1
 -2      2321       392      2344      1359
 -1      2702    3    0    1
 -2       822      1046      1048      1436
 -1      2703    3    0    1
 -2      2259      1049      2332      2471
 -1      2704    3    0    1
 -2      1594      1398      1678      1800
 -1      2705    3    0    1
 -2         6       416       951      2581
 -1      2706    3    0    1
 -2       551      1157       550      1155
 -1      2707    3    0    1
 -2       821       253       816       251
 -1      2708    3    0    1
 -2       557       970      1150      1158
 -1      2709    3    0    1
 -2       970       557      1150       560
 -1      2710    3    0    1
 -2      1396      1399      1479      1574
 -1      2711    3    0    1
 -2       549      1158       548      1150
 -1      2712    3    0    1
 -2       919       931      1110      1856
 -1      2713    3    0    1
 -2      1604      1302      1931      2072
 -1      2714    3    0    1
 -2       969       548      1152      1159
 -1      2715    3    0    1
 -2       559       548       558      1159
 -1      2716    3    0    1
 -2      1095      1329      1964      2534
 -1      2717    3    0    1
 -2       558       548       969      1159
 -1      2718    3    0    1
 -2       968       550      1156      1160
 -1      2719    3    0    1
 -2       562       550       556      1160
 -1      2720    3    0    1
 -2       556       550       968      1160
 -1      2721    3    0    1
 -2       577       976      1161      1163
 -1      2722    3    0    1
 -2        78       577      1161      1163
 -1      2723    3    0    1
 -2       575      1166       586       574
 -1      2724    3    0    1
 -2       974      1166       978       575
 -1      2725    3    0    1
 -2       575      1166       978       586
 -1      2726    3    0    1
 -2       575      1169       574       586
 -1      2727    3    0    1
 -2        95       602       980      1170
 -1      2728    3    0    1
 -2        77       579       973      1165
 -1      2729    3    0    1
 -2       344       736       759      2097
 -1      2730    3    0    1
 -2      1694      1444      1756      1890
 -1      2731    3    0    1
 -2       887      1540      1909      2534
 -1      2732    3    0    1
 -2       575      1166       574      1164
 -1      2733    3    0    1
 -2       974      1166       575      1164
 -1      2734    3    0    1
 -2       581       584      1162      1167
 -1      2735    3    0    1
 -2       581        80       584      1167
 -1      2736    3    0    1
 -2      1387      1633      1643      2115
 -1      2737    3    0    1
 -2      1883      1709      2136      2237
 -1      2738    3    0    1
 -2       972      1167       572      1162
 -1      2739    3    0    1
 -2       584        80       977      1167
 -1      2740    3    0    1
 -2       442      2391      2600      2637
 -1      2741    3    0    1
 -2       578       577      1163      1168
 -1      2742    3    0    1
 -2       404       578       408      1168
 -1      2743    3    0    1
 -2       577       404       976      1168
 -1      2744    3    0    1
 -2       578       404       577      1168
 -1      2745    3    0    1
 -2       585       579      1165      1169
 -1      2746    3    0    1
 -2        81       579       585      1169
 -1      2747    3    0    1
 -2       586       574       580      1169
 -1      2748    3    0    1
 -2       579       973      1165      1169
 -1      2749    3    0    1
 -2       579        81       975      1169
 -1      2750    3    0    1
 -2       574       975       580      1169
 -1      2751    3    0    1
 -2       973       579       975      1169
 -1      2752    3    0    1
 -2       973       574      1165      1169
 -1      2753    3    0    1
 -2       975       574       973      1169
 -1      2754    3    0    1
 -2      1693      1624      1833      1925
 -1      2755    3    0    1
 -2        91       594       593      1174
 -1      2756    3    0    1
 -2       985       597      1171      1174
 -1      2757    3    0    1
 -2       593       985      1171      1174
 -1      2758    3    0    1
 -2        91       593      1171      1174
 -1      2759    3    0    1
 -2       591        81      2209      2318
 -1      2760    3    0    1
 -2       903      1338       938      1930
 -1      2761    3    0    1
 -2       985       597      1174      1175
 -1      2762    3    0    1
 -2       604       597       610      1175
 -1      2763    3    0    1
 -2       410      2323      1356      1357
 -1      2764    3    0    1
 -2      1715      1928      1938      2309
 -1      2765    3    0    1
 -2        71       379      2323      1357
 -1      2766    3    0    1
 -2       610       597       985      1175
 -1      2767    3    0    1
 -2       595       607       606      1176
 -1      2768    3    0    1
 -2       595       984       607      1176
 -1      2769    3    0    1
 -2       979       595      1173      1176
 -1      2770    3    0    1
 -2       984       595       979      1176
 -1      2771    3    0    1
 -2       535       534       964      1533
 -1      2772    3    0    1
 -2       600      1178       597      1172
 -1      2773    3    0    1
 -2       981      1178       600      1172
 -1      2774    3    0    1
 -2       618       110       113      1181
 -1      2775    3    0    1
 -2       110       618       617      1181
 -1      2776    3    0    1
 -2       989      1183       617       994
 -1      2777    3    0    1
 -2       110       617       989      1181
 -1      2778    3    0    1
 -2       111       107       627      1182
 -1      2779    3    0    1
 -2       988      1185       627       990
 -1      2780    3    0    1
 -2       111       627       988      1182
 -1      2781    3    0    1
 -2      1324      1516      1691      1823
 -1      2782    3    0    1
 -2       323       303      1277      1805
 -1      2783    3    0    1
 -2       618       617      1181      1183
 -1      2784    3    0    1
 -2      2119      1421      2551      2768
 -1      2785    3    0    1
 -2      1421      2119      2626      2768
 -1      2786    3    0    1
 -2       925      1105      1637      1668
 -1      2787    3    0    1
 -2       989      1183       623      1181
 -1      2788    3    0    1
 -2      2119      2326      2626      2768
 -1      2789    3    0    1
 -2      1633      1391      1643      2125
 -1      2790    3    0    1
 -2       633       627      1182      1185
 -1      2791    3    0    1
 -2       116       627       633      1185
 -1      2792    3    0    1
 -2       137       136      1791      2401
 -1      2793    3    0    1
 -2      1511      1704      2046      2125
 -1      2794    3    0    1
 -2       988      1185       624      1182
 -1      2795    3    0    1
 -2       627       116       990      1185
 -1      2796    3    0    1
 -2       649       650       999      1186
 -1      2797    3    0    1
 -2       999       643      1186      1189
 -1      2798    3    0    1
 -2       644      1193       643       655
 -1      2799    3    0    1
 -2       648      1194       647       658
 -1      2800    3    0    1
 -2       124       652       996      1190
 -1      2801    3    0    1
 -2       668       667      1007      1195
 -1      2802    3    0    1
 -2       771       778      2153      2418
 -1      2803    3    0    1
 -2       648      1191       647       995
 -1      2804    3    0    1
 -2       358      2283      2540      2580
 -1      2805    3    0    1
 -2      1956      2167      2180      2685
 -1      2806    3    0    1
 -2       644      1192       643      1187
 -1      2807    3    0    1
 -2       650       341       999      1193
 -1      2808    3    0    1
 -2       796       243       801      1869
 -1      2809    3    0    1
 -2       320       306      1284      2365
 -1      2810    3    0    1
 -2      1127      1273      2330      2550
 -1      2811    3    0    1
 -2       655       643       654      1193
 -1      2812    3    0    1
 -2       999       643      1189      1193
 -1      2813    3    0    1
 -2      2092      2277      2279      2545
 -1      2814    3    0    1
 -2       654       643       999      1193
 -1      2815    3    0    1
 -2      1537      2129      2770      2775
 -1      2816    3    0    1
 -2      2062      1220      2143      2566
 -1      2817    3    0    1
 -2       408       404      1168      2499
 -1      2818    3    0    1
 -2       658       647       651      1194
 -1      2819    3    0    1
 -2       652       996      1190      1194
 -1      2820    3    0    1
 -2       652       129       998      1194
 -1      2821    3    0    1
 -2       647       998       651      1194
 -1      2822    3    0    1
 -2       996       652       998      1194
 -1      2823    3    0    1
 -2       996       647      1190      1194
 -1      2824    3    0    1
 -2       998       647       996      1194
 -1      2825    3    0    1
 -2      1863      2255      2445      2608
 -1      2826    3    0    1
 -2       665       666      1003      1199
 -1      2827    3    0    1
 -2      1003       666      1009      1199
 -1      2828    3    0    1
 -2      2440      1408      2665      2750
 -1      2829    3    0    1
 -2      1459      1753      1847      2275
 -1      2830    3    0    1
 -2      1719       447      2725      2740
 -1      2831    3    0    1
 -2      2336       449      2360      2740
 -1      2832    3    0    1
 -2       150       151       680      1200
 -1      2833    3    0    1
 -2      1503      1464      1848      2053
 -1      2834    3    0    1
 -2      1444      1406      1779      1890
 -1      2835    3    0    1
 -2      1545      1623      1626      1849
 -1      2836    3    0    1
 -2      1002      1200       667      1196
 -1      2837    3    0    1
 -2       680       151      1008      1200
 -1      2838    3    0    1
 -2       150       331       687      2013
 -1      2839    3    0    1
 -2      1004      1202       672      1198
 -1      2840    3    0    1
 -2       672      1202      1006       682
 -1      2841    3    0    1
 -2       676       149      1006      1202
 -1      2842    3    0    1
 -2       692      1208       691       699
 -1      2843    3    0    1
 -2       695      1210       702       703
 -1      2844    3    0    1
 -2       696      1210       702       695
 -1      2845    3    0    1
 -2      1012      1210      1014       696
 -1      2846    3    0    1
 -2       696      1210      1014       702
 -1      2847    3    0    1
 -2      1699      1723      2453      2653
 -1      2848    3    0    1
 -2      1015       695      1205      1207
 -1      2849    3    0    1
 -2       992       413      1520      1678
 -1      2850    3    0    1
 -2       689      1010      1204      1208
 -1      2851    3    0    1
 -2      1010       689      1016      1208
 -1      2852    3    0    1
 -2       691       706       699      1208
 -1      2853    3    0    1
 -2      1422      1463      1778      1920
 -1      2854    3    0    1
 -2       691      1016       706      1208
 -1      2855    3    0    1
 -2      1010       691      1204      1208
 -1      2856    3    0    1
 -2      1016       691      1010      1208
 -1      2857    3    0    1
 -2      1015       695      1207      1209
 -1      2858    3    0    1
 -2       698       333      1014      1210
 -1      2859    3    0    1
 -2       696      1209       695       702
 -1      2860    3    0    1
 -2       703       695      1015      1209
 -1      2861    3    0    1
 -2       696      1210       695      1206
 -1      2862    3    0    1
 -2      1012      1210       696      1206
 -1      2863    3    0    1
 -2      1718      2215      2403      2592
 -1      2864    3    0    1
 -2       692      1211       691      1203
 -1      2865    3    0    1
 -2      1011      1211       692      1203
 -1      2866    3    0    1
 -2       178       722       721      1215
 -1      2867    3    0    1
 -2       721      1021      1213      1215
 -1      2868    3    0    1
 -2       178       721      1213      1215
 -1      2869    3    0    1
 -2       181       180       728      1216
 -1      2870    3    0    1
 -2       728      1022      1214      1216
 -1      2871    3    0    1
 -2       181       728      1214      1216
 -1      2872    3    0    1
 -2       713       714      1212      1217
 -1      2873    3    0    1
 -2       401      1389      1685      2123
 -1      2874    3    0    1
 -2      1398      1640      1725      1800
 -1      2875    3    0    1
 -2      2205       157      1346      1349
 -1      2876    3    0    1
 -2      1667      1624      1709      1844
 -1      2877    3    0    1
 -2      1018      1217       716      1212
 -1      2878    3    0    1
 -2       690      1016      1346      1349
 -1      2879    3    0    1
 -2      1741      1468      2306      2416
 -1      2880    3    0    1
 -2      1089      1112      1526      1534
 -1      2881    3    0    1
 -2       999      1808      2135      2183
 -1      2882    3    0    1
 -2       728       183      1022      1218
 -1      2883    3    0    1
 -2      1952      1805      2128      2276
 -1      2884    3    0    1
 -2       722       332       721      1219
 -1      2885    3    0    1
 -2       721       332      1021      1219
 -1      2886    3    0    1
 -2      1025      1229      1027       740
 -1      2887    3    0    1
 -2       740      1229      1027       747
 -1      2888    3    0    1
 -2       921       932      1111      1575
 -1      2889    3    0    1
 -2       740      1226       739       747
 -1      2890    3    0    1
 -2       749       345      1029      1227
 -1      2891    3    0    1
 -2       208       204       745      1224
 -1      2892    3    0    1
 -2      1026      1228       745      1028
 -1      2893    3    0    1
 -2      1026      1228      1028       744
 -1      2894    3    0    1
 -2       208       745      1026      1224
 -1      2895    3    0    1
 -2       744      1228      1028       750
 -1      2896    3    0    1
 -2      2026      1226      2464      1369
 -1      2897    3    0    1
 -2      1435      1726      1784      2080
 -1      2898    3    0    1
 -2      1398       335      1571      1616
 -1      2899    3    0    1
 -2      1277       303      1278      1805
 -1      2900    3    0    1
 -2       738      1024      1222      1226
 -1      2901    3    0    1
 -2      1024       738      1030      1226
 -1      2902    3    0    1
 -2       739       754       747      1226
 -1      2903    3    0    1
 -2      1995      2091      2218      2443
 -1      2904    3    0    1
 -2       739      1030       754      1226
 -1      2905    3    0    1
 -2      1024       739      1222      1226
 -1      2906    3    0    1
 -2      1030       739      1024      1226
 -1      2907    3    0    1
 -2       752       743      1029      1227
 -1      2908    3    0    1
 -2       746       745      1224      1228
 -1      2909    3    0    1
 -2       205       746       206      1228
 -1      2910    3    0    1
 -2       745       205      1028      1228
 -1      2911    3    0    1
 -2       746       205       745      1228
 -1      2912    3    0    1
 -2       744      1228       743      1224
 -1      2913    3    0    1
 -2      1026      1228       744      1224
 -1      2914    3    0    1
 -2       740      1229       739      1221
 -1      2915    3    0    1
 -2      1025      1229       740      1221
 -1      2916    3    0    1
 -2      1247       437      1629      2149
 -1      2917    3    0    1
 -2       217       770       769      1233
 -1      2918    3    0    1
 -2       215       216       773      1235
 -1      2919    3    0    1
 -2      1035       768      1232      1235
 -1      2920    3    0    1
 -2       768      1237      1235      1035
 -1      2921    3    0    1
 -2       366       441      2624      2629
 -1      2922    3    0    1
 -2       215       773       775      1235
 -1      2923    3    0    1
 -2       775      1035      1232      1235
 -1      2924    3    0    1
 -2       215       775      1232      1235
 -1      2925    3    0    1
 -2      1112      1526      1534      1986
 -1      2926    3    0    1
 -2      1852      1685      2188      2251
 -1      2927    3    0    1
 -2       383       264      1258      2291
 -1      2928    3    0    1
 -2      1032      1236       765      1231
 -1      2929    3    0    1
 -2       775      1035      1235      1237
 -1      2930    3    0    1
 -2       773       775      1235      1237
 -1      2931    3    0    1
 -2       773       220       775      1237
 -1      2932    3    0    1
 -2       338      1390      1528      2078
 -1      2933    3    0    1
 -2      2074      1743      2086      2475
 -1      2934    3    0    1
 -2      1728      2086      2419      2475
 -1      2935    3    0    1
 -2      1380      1409      1893      2256
 -1      2936    3    0    1
 -2      1831      2002      2219      2413
 -1      2937    3    0    1
 -2       775       220      1035      1237
 -1      2938    3    0    1
 -2       770       769      1233      1238
 -1      2939    3    0    1
 -2       219       770       442      1238
 -1      2940    3    0    1
 -2       769       219      1034      1238
 -1      2941    3    0    1
 -2       770       219       769      1238
 -1      2942    3    0    1
 -2       222       368       772      1239
 -1      2943    3    0    1
 -2       777       772      1031      1239
 -1      2944    3    0    1
 -2      1031       772      1033      1239
 -1      2945    3    0    1
 -2       772       368      1033      1239
 -1      2946    3    0    1
 -2       790      1247       798       789
 -1      2947    3    0    1
 -2      1038      1247      1041       790
 -1      2948    3    0    1
 -2       790      1247      1041       798
 -1      2949    3    0    1
 -2       790      1246       789       798
 -1      2950    3    0    1
 -2      1669      1742      1768      1864
 -1      2951    3    0    1
 -2       232       786       785      1244
 -1      2952    3    0    1
 -2       785      1043      1240      1244
 -1      2953    3    0    1
 -2       232       785      1240      1244
 -1      2954    3    0    1
 -2       783       777       784      1690
 -1      2955    3    0    1
 -2      1157       971       562      2623
 -1      2956    3    0    1
 -2       785      1043      1244      1245
 -1      2957    3    0    1
 -2       786       785      1244      1245
 -1      2958    3    0    1
 -2       834      1058      1263      1372
 -1      2959    3    0    1
 -2      1543      1395      1677      2098
 -1      2960    3    0    1
 -2      1256      2481      1364      1365
 -1      2961    3    0    1
 -2      1037       797      1042      1246
 -1      2962    3    0    1
 -2       789       800       798      1246
 -1      2963    3    0    1
 -2       794       437      1041      1247
 -1      2964    3    0    1
 -2       789      1042       800      1246
 -1      2965    3    0    1
 -2      1037       789      1243      1246
 -1      2966    3    0    1
 -2      1042       789      1037      1246
 -1      2967    3    0    1
 -2       317      1343      1091      2382
 -1      2968    3    0    1
 -2       790      1247       789      1242
 -1      2969    3    0    1
 -2      1038      1247       790      1242
 -1      2970    3    0    1
 -2      1039      1248       788      1241
 -1      2971    3    0    1
 -2       815       814      1049      1253
 -1      2972    3    0    1
 -2       252       818       817      1250
 -1      2973    3    0    1
 -2       821      1046      1249      1252
 -1      2974    3    0    1
 -2      1046       813      1249      1252
 -1      2975    3    0    1
 -2      1249       821       253       823
 -1      2976    3    0    1
 -2       821      1249       253      1252
 -1      2977    3    0    1
 -2      2321        53      2739      2763
 -1      2978    3    0    1
 -2       274       834      1051      1259
 -1      2979    3    0    1
 -2       820       254       825      1254
 -1      2980    3    0    1
 -2      1044      1258       820      1045
 -1      2981    3    0    1
 -2       254       820      1044      1254
 -1      2982    3    0    1
 -2       809      1049      1253      1255
 -1      2983    3    0    1
 -2       258       809      1253      1255
 -1      2984    3    0    1
 -2      1708      1394      1818      2075
 -1      2985    3    0    1
 -2      1479      1611      1763      1827
 -1      2986    3    0    1
 -2       809      1049      1255      1256
 -1      2987    3    0    1
 -2       810       809      1255      1256
 -1      2988    3    0    1
 -2       122       360      2672      1366
 -1      2989    3    0    1
 -2      2714      1001      2715      1366
 -1      2990    3    0    1
 -2      1803      1583      1859      2255
 -1      2991    3    0    1
 -2       641       642      1001      1366
 -1      2992    3    0    1
 -2      1408      2574      2665      2750
 -1      2993    3    0    1
 -2       386       817       818      1257
 -1      2994    3    0    1
 -2       817       434      1047      1257
 -1      2995    3    0    1
 -2       386       434       817      1257
 -1      2996    3    0    1
 -2       249       809      1365      1373
 -1      2997    3    0    1
 -2       259       261       820      1258
 -1      2998    3    0    1
 -2       825       820      1254      1258
 -1      2999    3    0    1
 -2      2471       249      1365      1373
 -1      3000    3    0    1
 -2       820       261      1045      1258
 -1      3001    3    0    1
 -2      1044      1258       814      1254
 -1      3002    3    0    1
 -2       270       848      1053      1261
 -1      3003    3    0    1
 -2       277       844       849      1262
 -1      3004    3    0    1
 -2       327      1567      1607      1692
 -1      3005    3    0    1
 -2       849       844      1052      1262
 -1      3006    3    0    1
 -2      1491      1663      1704      2046
 -1      3007    3    0    1
 -2       754      1229      1665      2173
 -1      3008    3    0    1
 -2      1050       849      1052      1262
 -1      3009    3    0    1
 -2       286       868      1060      1266
 -1      3010    3    0    1
 -2       772       222       777      1690
 -1      3011    3    0    1
 -2       868       285       873      1266
 -1      3012    3    0    1
 -2       760       209      2024      2140
 -1      3013    3    0    1
 -2       835      1058       850      1263
 -1      3014    3    0    1
 -2      1051       835      1259      1263
 -1      3015    3    0    1
 -2      1058       835      1051      1263
 -1      3016    3    0    1
 -2       842       384      1056      1264
 -1      3017    3    0    1
 -2       841       384       842      1264
 -1      3018    3    0    1
 -2       384      1984      2073      2104
 -1      3019    3    0    1
 -2       405        66      1602      2031
 -1      3020    3    0    1
 -2       437      1908      2147      2384
 -1      3021    3    0    1
 -2       836      1265       835      1050
 -1      3022    3    0    1
 -2       294       857      1059      1267
 -1      3023    3    0    1
 -2       287       865       866      1268
 -1      3024    3    0    1
 -2      1062      1272       866      1064
 -1      3025    3    0    1
 -2       287       866      1062      1268
 -1      3026    3    0    1
 -2       289       872      1061      1269
 -1      3027    3    0    1
 -2      1429      1630      1776      2009
 -1      3028    3    0    1
 -2      1060      1273       868      1270
 -1      3029    3    0    1
 -2       874       859       867      1270
 -1      3030    3    0    1
 -2      1329       915      1095      2007
 -1      3031    3    0    1
 -2      1379      1474      1563      2366
 -1      3032    3    0    1
 -2      1060      1273      1270       859
 -1      3033    3    0    1
 -2      1273      1060       868      1266
 -1      3034    3    0    1
 -2       953      1137      2360      1352
 -1      3035    3    0    1
 -2       291       866       865      1272
 -1      3036    3    0    1
 -2      1062      1272       863      1268
 -1      3037    3    0    1
 -2       866       291       425      1272
 -1      3038    3    0    1
 -2       866       425      1064      1272
 -1      3039    3    0    1
 -2      1060      1273       859      1266
 -1      3040    3    0    1
 -2       868       295      1270      1273
 -1      3041    3    0    1
 -2       735       736      1622      2535
 -1      3042    3    0    1
 -2       654      1192      1791      1808
 -1      3043    3    0    1
 -2      1606      1448      2020      2034
 -1      3044    3    0    1
 -2      1111       463      1319      1641
 -1      3045    3    0    1
 -2      1558      1562      1701      1777
 -1      3046    3    0    1
 -2      1387       333      1664      2216
 -1      3047    3    0    1
 -2      1104       325       328      1755
 -1      3048    3    0    1
 -2      1637      1668      1691      1823
 -1      3049    3    0    1
 -2       348      1007      1201      1720
 -1      3050    3    0    1
 -2       730      1023      2026      2143
 -1      3051    3    0    1
 -2       925       904      1668      1823
 -1      3052    3    0    1
 -2      1399      1546      2093      2526
 -1      3053    3    0    1
 -2       901      1689      2038      2154
 -1      3054    3    0    1
 -2      1920      1463      2077      2212
 -1      3055    3    0    1
 -2      1493      1388      1655      1866
 -1      3056    3    0    1
 -2      1158       559       558      1680
 -1      3057    3    0    1
 -2      1148       968      2107      2281
 -1      3058    3    0    1
 -2      1463      1660      1937      2212
 -1      3059    3    0    1
 -2        92        98      2169      2469
 -1      3060    3    0    1
 -2       205      1430      2045      2603
 -1      3061    3    0    1
 -2       924      1462      1692      1812
 -1      3062    3    0    1
 -2       439      1753      2275      2420
 -1      3063    3    0    1
 -2      1652      1532      2016      2367
 -1      3064    3    0    1
 -2       437       237      1908      2384
 -1      3065    3    0    1
 -2       752      1944      2116      2222
 -1      3066    3    0    1
 -2       534       535      1147      1969
 -1      3067    3    0    1
 -2       303      1769      1318      2211
 -1      3068    3    0    1
 -2      1028       750      1605      2136
 -1      3069    3    0    1
 -2      1448      1549      2020      2034
 -1      3070    3    0    1
 -2      2349      1191      2714      2759
 -1      3071    3    0    1
 -2      1697      1652      2016      2367
 -1      3072    3    0    1
 -2      1440      1535      1811      2201
 -1      3073    3    0    1
 -2      1801      1471      2047      2098
 -1      3074    3    0    1
 -2      1939      2348      1361      2762
 -1      3075    3    0    1
 -2      1539      1964      2007      2070
 -1      3076    3    0    1
 -2      1481      1675      1839      1983
 -1      3077    3    0    1
 -2       262       831       832      1804
 -1      3078    3    0    1
 -2      1565      1411      1830      1941
 -1      3079    3    0    1
 -2      1766       984      1948      1963
 -1      3080    3    0    1
 -2      1519       897      1604      1760
 -1      3081    3    0    1
 -2      2008       975      2346      2478
 -1      3082    3    0    1
 -2       119      1185      2351      2546
 -1      3083    3    0    1
 -2      2328      1615      2455      2531
 -1      3084    3    0    1
 -2      1758      1375      1929      2241
 -1      3085    3    0    1
 -2      2454      1248      2579      2654
 -1      3086    3    0    1
 -2       383       456       855      2260
 -1      3087    3    0    1
 -2       568        63      2294      2319
 -1      3088    3    0    1
 -2      1499      1382      1651      1736
 -1      3089    3    0    1
 -2      1439      1457      1612      1641
 -1      3090    3    0    1
 -2      1925      1709      1936      2518
 -1      3091    3    0    1
 -2      1978       168      2289      2694
 -1      3092    3    0    1
 -2      2299      2182      2389      2670
 -1      3093    3    0    1
 -2      2348       361      1356      1360
 -1      3094    3    0    1
 -2       966       535      1533      1873
 -1      3095    3    0    1
 -2      2011      2701       907      1950
 -1      3096    3    0    1
 -2       430      1631      1740      1831
 -1      3097    3    0    1
 -2       831       435      1923      2554
 -1      3098    3    0    1
 -2      1008       679      1599      1897
 -1      3099    3    0    1
 -2      1736      1550      1994      2109
 -1      3100    3    0    1
 -2      1598      1638      1669      2080
 -1      3101    3    0    1
 -2       349      1435      1524      1726
 -1      3102    3    0    1
 -2      2280      1524      2717      2724
 -1      3103    3    0    1
 -2      1623      1505      1626      2365
 -1      3104    3    0    1
 -2      1458      1400      2198      2585
 -1      3105    3    0    1
 -2      1707      1429      1789      2450
 -1      3106    3    0    1
 -2      2627      1420      2688      2721
 -1      3107    3    0    1
 -2       439      1310      1120      2420
 -1      3108    3    0    1
 -2      2355       490      2361      2364
 -1      3109    3    0    1
 -2       993      1851      2307      2331
 -1      3110    3    0    1
 -2      1374      1513      1646      1686
 -1      3111    3    0    1
 -2      2428      1783      2438      2622
 -1      3112    3    0    1
 -2      1275       312      1409      1688
 -1      3113    3    0    1
 -2      1423       211      1996      2224
 -1      3114    3    0    1
 -2       976      2263      2341       582
 -1      3115    3    0    1
 -2      1659      1495      1942      2383
 -1      3116    3    0    1
 -2       206       205      1228      2045
 -1      3117    3    0    1
 -2      1512      1380      1893      2256
 -1      3118    3    0    1
 -2       116       119       639      1910
 -1      3119    3    0    1
 -2      1407      1379      1636      1893
 -1      3120    3    0    1
 -2      1918      1424      2268      2269
 -1      3121    3    0    1
 -2      1425      1658      2068      2159
 -1      3122    3    0    1
 -2       137       134       664      1882
 -1      3123    3    0    1
 -2       890       889      1798      1825
 -1      3124    3    0    1
 -2        53       379       971      1500
 -1      3125    3    0    1
 -2       824      1436      2134      2221
 -1      3126    3    0    1
 -2      1409      1380      1512      2256
 -1      3127    3    0    1
 -2       902      1103       922      1556
 -1      3128    3    0    1
 -2      1343       317       444      2382
 -1      3129    3    0    1
 -2      1399      1479      1574      1764
 -1      3130    3    0    1
 -2       390      1945      1960      2031
 -1      3131    3    0    1
 -2      1339       905      1082      1850
 -1      3132    3    0    1
 -2      1494      1393      1545      1623
 -1      3133    3    0    1
 -2      1619      1387      1643      1664
 -1      3134    3    0    1
 -2      2349       651      2663      2714
 -1      3135    3    0    1
 -2      1622       736      2097      2158
 -1      3136    3    0    1
 -2       220       228      1690      2425
 -1      3137    3    0    1
 -2       231       220       784      2425
 -1      3138    3    0    1
 -2       363       362      1178      1477
 -1      3139    3    0    1
 -2       348      1007      1684      1781
 -1      3140    3    0    1
 -2      1488      1294      1497      1608
 -1      3141    3    0    1
 -2       401      1685      1852      2251
 -1      3142    3    0    1
 -2      1836      1247      1842      2149
 -1      3143    3    0    1
 -2       167      2115      2141      2452
 -1      3144    3    0    1
 -2      1767      1682      1934      2303
 -1      3145    3    0    1
 -2      1506      1597      1662      1686
 -1      3146    3    0    1
 -2       374      2645      2741      2753
 -1      3147    3    0    1
 -2      1572      1470      2005      2727
 -1      3148    3    0    1
 -2      1064       425      1888      2660
 -1      3149    3    0    1
 -2       114       639       640      1910
 -1      3150    3    0    1
 -2      1713      1272      2596      2650
 -1      3151    3    0    1
 -2      2190      2387      1737       261
 -1      3152    3    0    1
 -2       654      1192      1749      1851
 -1      3153    3    0    1
 -2       440       231      1595      1814
 -1      3154    3    0    1
 -2      2246      2431      2520      2703
 -1      3155    3    0    1
 -2      1742      1402      1778      1957
 -1      3156    3    0    1
 -2       330       356       688      1383
 -1      3157    3    0    1
 -2       429      1057      2327      2531
 -1      3158    3    0    1
 -2      1332       302       350      1649
 -1      3159    3    0    1
 -2      1820       422      2202      2381
 -1      3160    3    0    1
 -2       534      1783      2368      2428
 -1      3161    3    0    1
 -2      1738      1427      1912      2030
 -1      3162    3    0    1
 -2      1617      1873      2379      2565
 -1      3163    3    0    1
 -2      1777      1442      1930      2004
 -1      3164    3    0    1
 -2      1554      1460      2537      2612
 -1      3165    3    0    1
 -2      1731      1732      1787      1915
 -1      3166    3    0    1
 -2      1687      1404      1730      1906
 -1      3167    3    0    1
 -2      1684      1007      1721      1781
 -1      3168    3    0    1
 -2      1696      1853      1921      2273
 -1      3169    3    0    1
 -2       302      1332      1102      1649
 -1      3170    3    0    1
 -2       778      1239      2153      2641
 -1      3171    3    0    1
 -2      1484      1414      2616      2628
 -1      3172    3    0    1
 -2      1612      1457      1855      1856
 -1      3173    3    0    1
 -2      2300       580      2346      2357
 -1      3174    3    0    1
 -2      1287      1288      1776      1822
 -1      3175    3    0    1
 -2      1513       881      1591      1688
 -1      3176    3    0    1
 -2      1426      1656      1703      2067
 -1      3177    3    0    1
 -2      1415      1672      1769      1788
 -1      3178    3    0    1
 -2       386       434      2235      2666
 -1      3179    3    0    1
 -2      1976       427      2298      2602
 -1      3180    3    0    1
 -2      1731      1548      1732      2269
 -1      3181    3    0    1
 -2      1192      1749      1793      1808
 -1      3182    3    0    1
 -2      1047       822      2220      2689
 -1      3183    3    0    1
 -2      1503      1521      1855      1856
 -1      3184    3    0    1
 -2       585        83       592      2209
 -1      3185    3    0    1
 -2      1380      1597      1646      1686
 -1      3186    3    0    1
 -2      1129      1702      1962      2186
 -1      3187    3    0    1
 -2      1638      1402      1669      2001
 -1      3188    3    0    1
 -2       535       534      1533      1969
 -1      3189    3    0    1
 -2      2312      1265      2334      2590
 -1      3190    3    0    1
 -2      1467      1531      2081      1553
 -1      3191    3    0    1
 -2       470      1330      1098      1521
 -1      3192    3    0    1
 -2      1042      1246      2058      2270
 -1      3193    3    0    1
 -2         9       950      2236      2242
 -1      3194    3    0    1
 -2       628       610       985      2324
 -1      3195    3    0    1
 -2      1461      1482      1516      1755
 -1      3196    3    0    1
 -2      1070      1515      1825      2208
 -1      3197    3    0    1
 -2       450        50       964      1902
 -1      3198    3    0    1
 -2      2124      1981      2495      2510
 -1      3199    3    0    1
 -2      1542      1425      1838      1969
 -1      3200    3    0    1
 -2      1572      1470      1765      1767
 -1      3201    3    0    1
 -2       883      1487      1279      1580
 -1      3202    3    0    1
 -2      1706      1718      2101      2215
 -1      3203    3    0    1
 -2      1601      1469      1698      1858
 -1      3204    3    0    1
 -2      1479      1396      1574      1763
 -1      3205    3    0    1
 -2      1744      1485      2555      2656
 -1      3206    3    0    1
 -2      1862      1412      1979      2004
 -1      3207    3    0    1
 -2       897      1301       898      1760
 -1      3208    3    0    1
 -2        32      1775      2087      2404
 -1      3209    3    0    1
 -2      2618      1414      2105      2704
 -1      3210    3    0    1
 -2      1428      1526      1529      1534
 -1      3211    3    0    1
 -2      1628      1429      1666      1707
 -1      3212    3    0    1
 -2       968      1868      2107      2281
 -1      3213    3    0    1
 -2      1462      1375      1490      1564
 -1      3214    3    0    1
 -2      1575      1332       921       932
 -1      3215    3    0    1
 -2        94       984      1176      1948
 -1      3216    3    0    1
 -2       639      2069      2094       616
 -1      3217    3    0    1
 -2       103      1766      2069      2094
 -1      3218    3    0    1
 -2      2419      1657      2475      2642
 -1      3219    3    0    1
 -2      1323       304      1085      1607
 -1      3220    3    0    1
 -2      1508       421      2000      2083
 -1      3221    3    0    1
 -2      1129       487      1702      2186
 -1      3222    3    0    1
 -2      1545      1464      1848      1849
 -1      3223    3    0    1
 -2      1389      1425      1685      2123
 -1      3224    3    0    1
 -2      1979      1647      2056      2386
 -1      3225    3    0    1
 -2       847       846      2352      2662
 -1      3226    3    0    1
 -2      1658       535      1873      1969
 -1      3227    3    0    1
 -2      1595      1814      2092      2686
 -1      3228    3    0    1
 -2      1540      1654      1905      2025
 -1      3229    3    0    1
 -2      1669      1402      1957      2001
 -1      3230    3    0    1
 -2       336      1681      1793      2472
 -1      3231    3    0    1
 -2      1465      1553      1941      2039
 -1      3232    3    0    1
 -2      1808      1749      1863      2161
 -1      3233    3    0    1
 -2      1605       750      2116      2342
 -1      3234    3    0    1
 -2      1574       333      1840      2216
 -1      3235    3    0    1
 -2      1389      1628      1685      1838
 -1      3236    3    0    1
 -2      1520       413      1594      1678
 -1      3237    3    0    1
 -2      1883      1605      2085      2237
 -1      3238    3    0    1
 -2      1676      1507      1955      2007
 -1      3239    3    0    1
 -2      1393      1505      1654      1905
 -1      3240    3    0    1
 -2      2423      1043      2481      1364
 -1      3241    3    0    1
 -2      1429      1628      1666      1837
 -1      3242    3    0    1
 -2      1385      1418      1535      1640
 -1      3243    3    0    1
 -2      1558      2203      2244      2385
 -1      3244    3    0    1
 -2       521      1146      1354      1358
 -1      3245    3    0    1
 -2      1411      1631      1799      1830
 -1      3246    3    0    1
 -2      1658      1425      1969      2159
 -1      3247    3    0    1
 -2       640      1910      2227      2407
 -1      3248    3    0    1
 -2       103       984      1766      2302
 -1      3249    3    0    1
 -2      1330       470       471      1521
 -1      3250    3    0    1
 -2      1297       318      1549      1609
 -1      3251    3    0    1
 -2      1430      1510      1708      2075
 -1      3252    3    0    1
 -2      1248      2454      2579      2710
 -1      3253    3    0    1
 -2       919      1331       931      1612
 -1      3254    3    0    1
 -2       404      1392      2194      2316
 -1      3255    3    0    1
 -2       969       558      1980      2068
 -1      3256    3    0    1
 -2      1380      1409      1597      1893
 -1      3257    3    0    1
 -2      1443      1433      1473      1641
 -1      3258    3    0    1
 -2      1619      1501      1643      1827
 -1      3259    3    0    1
 -2      1709      1844      2136      2237
 -1      3260    3    0    1
 -2       214       409      2422      2737
 -1      3261    3    0    1
 -2      1219      1844      1883      2237
 -1      3262    3    0    1
 -2       726      1218      1502      2439
 -1      3263    3    0    1
 -2      1836      2225      2553      2610
 -1      3264    3    0    1
 -2       421      1401      2284      2622
 -1      3265    3    0    1
 -2      1758      1915      2264      2269
 -1      3266    3    0    1
 -2       892       891      1072      1659
 -1      3267    3    0    1
 -2      1705      1728      1967      2174
 -1      3268    3    0    1
 -2      1462      1544      1824      1828
 -1      3269    3    0    1
 -2      1615      1729      2059      2328
 -1      3270    3    0    1
 -2      1103      1078      1495      1556
 -1      3271    3    0    1
 -2      1741      1610      2416      2543
 -1      3272    3    0    1
 -2       975       580      1169      2346
 -1      3273    3    0    1
 -2      1000       137      1791      1882
 -1      3274    3    0    1
 -2       394      2305      2361      2674
 -1      3275    3    0    1
 -2       654      1749      1808      2161
 -1      3276    3    0    1
 -2      1752       436      1923      2528
 -1      3277    3    0    1
 -2       322      1326       340      2168
 -1      3278    3    0    1
 -2      1587       384      1857      2104
 -1      3279    3    0    1
 -2      1427      1578      1675      1947
 -1      3280    3    0    1
 -2       322       340      1472      2168
 -1      3281    3    0    1
 -2      1480      2147      2494      2572
 -1      3282    3    0    1
 -2      1388      1437      1493      1655
 -1      3283    3    0    1
 -2      1529      1428      1534      1541
 -1      3284    3    0    1
 -2      1974       355      2664      2694
 -1      3285    3    0    1
 -2       735       185       736      2535
 -1      3286    3    0    1
 -2      1451      1693      1845      2239
 -1      3287    3    0    1
 -2       319       415      1488      1514
 -1      3288    3    0    1
 -2      1627      1453      2048      2114
 -1      3289    3    0    1
 -2      1374      1662      1876      2139
 -1      3290    3    0    1
 -2       358       140      2283      2580
 -1      3291    3    0    1
 -2       486       951      2145      2186
 -1      3292    3    0    1
 -2      1495      1556      1600      2030
 -1      3293    3    0    1
 -2       332      1546      1621      1723
 -1      3294    3    0    1
 -2      1694      1669      1742      1957
 -1      3295    3    0    1
 -2      1382      1651      1736      2109
 -1      3296    3    0    1
 -2      1746      1683      1761      1866
 -1      3297    3    0    1
 -2      1415      1638      1672      2041
 -1      3298    3    0    1
 -2      1756      1584      1890      1895
 -1      3299    3    0    1
 -2       496        18      1582      2373
 -1      3300    3    0    1
 -2       631      1184      2108      2568
 -1      3301    3    0    1
 -2      1439      1434      1724      2010
 -1      3302    3    0    1
 -2      1289       889       890      1825
 -1      3303    3    0    1
 -2      2124      1981      2246      2520
 -1      3304    3    0    1
 -2      2605      2011      2701      2719
 -1      3305    3    0    1
 -2      1396      1479      1611      1763
 -1      3306    3    0    1
 -2      1741      1459      1889      2543
 -1      3307    3    0    1
 -2      1532      1652      2266      2367
 -1      3308    3    0    1
 -2      1821      1469      1857      1858
 -1      3309    3    0    1
 -2       427      1063      2298      2602
 -1      3310    3    0    1
 -2      1029       211      1993      2222
 -1      3311    3    0    1
 -2      1184      1616      1711      2108
 -1      3312    3    0    1
 -2      1000       655      1791      2638
 -1      3313    3    0    1
 -2      1647      1751      1979      2056
 -1      3314    3    0    1
 -2      1393      1846      2453      2653
 -1      3315    3    0    1
 -2      1802      1412      1862      2088
 -1      3316    3    0    1
 -2       385      1639      2172      2563
 -1      3317    3    0    1
 -2      2091      1961      2218      2443
 -1      3318    3    0    1
 -2       114      1910      2094      2130
 -1      3319    3    0    1
 -2      1627       891      2048      2383
 -1      3320    3    0    1
 -2      2106      1671      2547      2657
 -1      3321    3    0    1
 -2       881      1274      1591      1688
 -1      3322    3    0    1
 -2      1330      1098      1521      1849
 -1      3323    3    0    1
 -2      1989       249      2471      2738
 -1      3324    3    0    1
 -2       174       168      1978      2643
 -1      3325    3    0    1
 -2       978      1166      2323      2357
 -1      3326    3    0    1
 -2        48       400      1873      2411
 -1      3327    3    0    1
 -2      2051      1975      2261      2524
 -1      3328    3    0    1
 -2       886       885      1938      2424
 -1      3329    3    0    1
 -2      1693      1624      1925      1926
 -1      3330    3    0    1
 -2      1496      1552      1608      1618
 -1      3331    3    0    1
 -2      1494      1393      1623      1654
 -1      3332    3    0    1
 -2      1789      1632      2450      2702
 -1      3333    3    0    1
 -2       348       349      1726      2122
 -1      3334    3    0    1
 -2      1551       339      1937      2254
 -1      3335    3    0    1
 -2       304       327      1567      1607
 -1      3336    3    0    1
 -2      1951      1421      2119      2733
 -1      3337    3    0    1
 -2       362        92       982      1477
 -1      3338    3    0    1
 -2       101       411      2182      2299
 -1      3339    3    0    1
 -2      2113       592      2209      2417
 -1      3340    3    0    1
 -2      1628      1685      1838      1878
 -1      3341    3    0    1
 -2       911       933      1534      1986
 -1      3342    3    0    1
 -2      1288       889      1287      1798
 -1      3343    3    0    1
 -2       654       655      1193      2135
 -1      3344    3    0    1
 -2      1598      1402      1638      2041
 -1      3345    3    0    1
 -2      1263       843      2259      2335
 -1      3346    3    0    1
 -2      1395      1440      1549      2201
 -1      3347    3    0    1
 -2       495       398      2305      2527
 -1      3348    3    0    1
 -2       335       413      1678      1800
 -1      3349    3    0    1
 -2      1679       442      2600      2637
 -1      3350    3    0    1
 -2      1729      1831      2002      2059
 -1      3351    3    0    1
 -2      1057       847       846      2352
 -1      3352    3    0    1
 -2       341      1528      1756      1890
 -1      3353    3    0    1
 -2      1094       914      1426      1703
 -1      3354    3    0    1
 -2      1929      1928      2241      2309
 -1      3355    3    0    1
 -2       262       435      1804      2554
 -1      3356    3    0    1
 -2      1296      1297      1448      1609
 -1      3357    3    0    1
 -2       912      1122      1312      2697
 -1      3358    3    0    1
 -2      1459      2049      2605      2701
 -1      3359    3    0    1
 -2      1884      2152      2171      2451
 -1      3360    3    0    1
 -2      1547      1596      2037      2410
 -1      3361    3    0    1
 -2      1391      1433      1443      1486
 -1      3362    3    0    1
 -2       346       332      1699      2653
 -1      3363    3    0    1
 -2      1503      1464      1521      1849
 -1      3364    3    0    1
 -2      1555      1566      1594      1927
 -1      3365    3    0    1
 -2      1480      1747      1750      1889
 -1      3366    3    0    1
 -2      1706      1809      2063      2101
 -1      3367    3    0    1
 -2      1098      1503      1521      1849
 -1      3368    3    0    1
 -2       426       311      1561      2072
 -1      3369    3    0    1
 -2      1895      1422      1920      2212
 -1      3370    3    0    1
 -2      1310       472      2275      2420
 -1      3371    3    0    1
 -2      1491      1663      2046      2530
 -1      3372    3    0    1
 -2       114       357       639      2094
 -1      3373    3    0    1
 -2      1731      1548      2012      2035
 -1      3374    3    0    1
 -2       134      1192      1793      1882
 -1      3375    3    0    1
 -2       333      1619      1664      2216
 -1      3376    3    0    1
 -2       466       313      1116      2567
 -1      3377    3    0    1
 -2       952      2226      2242      2502
 -1      3378    3    0    1
 -2      1834      1836      1842      2233
 -1      3379    3    0    1
 -2      1613      1381      1714      1917
 -1      3380    3    0    1
 -2      1110       470      1317      1521
 -1      3381    3    0    1
 -2       422       959      1820      2202
 -1      3382    3    0    1
 -2       151       356      1008      1872
 -1      3383    3    0    1
 -2      1584      1406      1694      1890
 -1      3384    3    0    1
 -2      1587       430      1740      2476
 -1      3385    3    0    1
 -2      1402      1778      1957      2021
 -1      3386    3    0    1
 -2      1045       261      1737      2387
 -1      3387    3    0    1
 -2      1538      1499      1876      2139
 -1      3388    3    0    1
 -2       452       393      2377      2523
 -1      3389    3    0    1
 -2       903      1777      1930      2004
 -1      3390    3    0    1
 -2       333      1014      1210      1625
 -1      3391    3    0    1
 -2      1716      2077      2078      2238
 -1      3392    3    0    1
 -2       425      1064      2297      2455
 -1      3393    3    0    1
 -2      1507      1676      1818      2265
 -1      3394    3    0    1
 -2       900      1336       936      1730
 -1      3395    3    0    1
 -2      1583      1716      1859      2078
 -1      3396    3    0    1
 -2      1148      2107      2229      2523
 -1      3397    3    0    1
 -2      1382      1499      1538      1962
 -1      3398    3    0    1
 -2       333      1210      1840      2398
 -1      3399    3    0    1
 -2      1556       922      1600      1717
 -1      3400    3    0    1
 -2       495      2305      2511      2527
 -1      3401    3    0    1
 -2      1630      1429      1776      2426
 -1      3402    3    0    1
 -2      1741      1753      1950      2011
 -1      3403    3    0    1
 -2      1334      1094      1609      1703
 -1      3404    3    0    1
 -2       416       951      2581      2685
 -1      3405    3    0    1
 -2      2323       978      1356      1357
 -1      3406    3    0    1
 -2      1880      1846      1905      2042
 -1      3407    3    0    1
 -2       919      1110      1317      1856
 -1      3408    3    0    1
 -2      1520      1475      2468      2621
 -1      3409    3    0    1
 -2      1570      1427      1717      1912
 -1      3410    3    0    1
 -2       306       320      1626      2365
 -1      3411    3    0    1
 -2      1401      2284      2438      2504
 -1      3412    3    0    1
 -2      1630      1585      1637      1822
 -1      3413    3    0    1
 -2      1463      1422      1778      1932
 -1      3414    3    0    1
 -2       230       760       783      2224
 -1      3415    3    0    1
 -2      1168       408      1596      2035
 -1      3416    3    0    1
 -2       928       920      1735      1788
 -1      3417    3    0    1
 -2       408      1168      1596      1916
 -1      3418    3    0    1
 -2      1810      1056      2476      2662
 -1      3419    3    0    1
 -2      1719       447      1352      1355
 -1      3420    3    0    1
 -2       610      2296      2324      2345
 -1      3421    3    0    1
 -2       819      1737      2579      2669
 -1      3422    3    0    1
 -2      1738      1717      1912      2102
 -1      3423    3    0    1
 -2      1304       419       467      2176
 -1      3424    3    0    1
 -2      2281       556      2300      2623
 -1      3425    3    0    1
 -2       593       985      1175      1360
 -1      3426    3    0    1
 -2      2530      1403      2532      2652
 -1      3427    3    0    1
 -2      1342      1088      2396      2619
 -1      3428    3    0    1
 -2       434      1047      1257      1843
 -1      3429    3    0    1
 -2      1695      1585      1637      2460
 -1      3430    3    0    1
 -2       315      1562      1701      2421
 -1      3431    3    0    1
 -2       348      1007      1720      2122
 -1      3432    3    0    1
 -2      1461      1482      1666      1695
 -1      3433    3    0    1
 -2      1599      1007      1897       678
 -1      3434    3    0    1
 -2       228       783       784      1690
 -1      3435    3    0    1
 -2      1734      1772      2412      2461
 -1      3436    3    0    1
 -2      1275       881      1274      1591
 -1      3437    3    0    1
 -2      1650      1739      2085      2342
 -1      3438    3    0    1
 -2       558       559      1159      1680
 -1      3439    3    0    1
 -2      1505      1540      1654      1905
 -1      3440    3    0    1
 -2      1454      1909      2070      2533
 -1      3441    3    0    1
 -2      1519      1419      1604      2267
 -1      3442    3    0    1
 -2      1759       911      1986      2207
 -1      3443    3    0    1
 -2      1553      1531      1941      2039
 -1      3444    3    0    1
 -2       535      1617      1658      1873
 -1      3445    3    0    1
 -2       386      1797      1871      2095
 -1      3446    3    0    1
 -2      1130       483       490      2632
 -1      3447    3    0    1
 -2      1598      1415      1638      1952
 -1      3448    3    0    1
 -2      2706      2295      2757      2764
 -1      3449    3    0    1
 -2      1399      1546      1574      2093
 -1      3450    3    0    1
 -2      2145       487      2186      2226
 -1      3451    3    0    1
 -2      1036      1245      1886      2371
 -1      3452    3    0    1
 -2        31       519       520      1775
 -1      3453    3    0    1
 -2      1394      1708      1712      2075
 -1      3454    3    0    1
 -2      1401      1518      1790      2103
 -1      3455    3    0    1
 -2       901      1337       937      2038
 -1      3456    3    0    1
 -2      1247       798       800      1903
 -1      3457    3    0    1
 -2      2517      1949      2571      2616
 -1      3458    3    0    1
 -2      1313      2074      2086      2536
 -1      3459    3    0    1
 -2       150       151      1200      1872
 -1      3460    3    0    1
 -2      1622       183      1901      2097
 -1      3461    3    0    1
 -2      1791      1192      1793      1808
 -1      3462    3    0    1
 -2      1602        66      1960      2031
 -1      3463    3    0    1
 -2      1219       726       719       727
 -1      3464    3    0    1
 -2      1633      1387      1643      1827
 -1      3465    3    0    1
 -2      1705      1728      2419      2475
 -1      3466    3    0    1
 -2      2553      1836      2611      2689
 -1      3467    3    0    1
 -2       241       365      2027      1371
 -1      3468    3    0    1
 -2       308      1275      1274      1688
 -1      3469    3    0    1
 -2      1407      1379      1563      2366
 -1      3470    3    0    1
 -2       304       327      1069      1567
 -1      3471    3    0    1
 -2      1689      2081      2155      2240
 -1      3472    3    0    1
 -2      1289      1070      1825      2208
 -1      3473    3    0    1
 -2      1555      1432      1566      1927
 -1      3474    3    0    1
 -2      1413      1753      1774      1847
 -1      3475    3    0    1
 -2       279       276      1055      1639
 -1      3476    3    0    1
 -2       137      1791      1882      2401
 -1      3477    3    0    1
 -2      1334       914      1094      1703
 -1      3478    3    0    1
 -2      1771      1513      2215      2403
 -1      3479    3    0    1
 -2      1178      1477      2322      2345
 -1      3480    3    0    1
 -2      1497      1093      1514      1703
 -1      3481    3    0    1
 -2      1380       308      1409      1512
 -1      3482    3    0    1
 -2      1698      1469      1821      1858
 -1      3483    3    0    1
 -2       325      1306      1516      1691
 -1      3484    3    0    1
 -2      1585      1630      1637      2460
 -1      3485    3    0    1
 -2      1455      2043      2416      2485
 -1      3486    3    0    1
 -2       858       396       857      1350
 -1      3487    3    0    1
 -2      1752       800      1903      2610
 -1      3488    3    0    1
 -2      1016      2205      2376      2564
 -1      3489    3    0    1
 -2       750      1028      1605      2116
 -1      3490    3    0    1
 -2       914      1113      1093      1703
 -1      3491    3    0    1
 -2      1580      1456      1642      1649
 -1      3492    3    0    1
 -2      1112       911       933      1534
 -1      3493    3    0    1
 -2      1332      1486      1575      1649
 -1      3494    3    0    1
 -2      1434      1855      1856      2442
 -1      3495    3    0    1
 -2      2400      1870      2435      2496
 -1      3496    3    0    1
 -2      1518      1578      1761      1947
 -1      3497    3    0    1
 -2      1693      1708      1971      2239
 -1      3498    3    0    1
 -2       965       534      2368      2428
 -1      3499    3    0    1
 -2       918      1326      1316      2168
 -1      3500    3    0    1
 -2      1696      1853      1917      1921
 -1      3501    3    0    1
 -2      1264      1056       847      2662
 -1      3502    3    0    1
 -2      1722      1581      1932      2168
 -1      3503    3    0    1
 -2      2046      1491      2530      2652
 -1      3504    3    0    1
 -2       343       344       759      2097
 -1      3505    3    0    1
 -2      1007       348      1684      1721
 -1      3506    3    0    1
 -2      1513      1374      2215      2403
 -1      3507    3    0    1
 -2      1655      1388      1816      1866
 -1      3508    3    0    1
 -2      1645      1751      1821      2104
 -1      3509    3    0    1
 -2        64      1868      2064      2229
 -1      3510    3    0    1
 -2      1296       318      1297      1609
 -1      3511    3    0    1
 -2      1660      1463      1722      1932
 -1      3512    3    0    1
 -2      1585      1695      1837      2460
 -1      3513    3    0    1
 -2      1459      1747      1847      1889
 -1      3514    3    0    1
 -2      1178       982       604      2322
 -1      3515    3    0    1
 -2       346      1667      1699      1877
 -1      3516    3    0    1
 -2       368       222      1690      2693
 -1      3517    3    0    1
 -2       457       318      1296      1609
 -1      3518    3    0    1
 -2       207       209      1700      2099
 -1      3519    3    0    1
 -2      1069      1282      1567      2424
 -1      3520    3    0    1
 -2      1607      1085      1692      1812
 -1      3521    3    0    1
 -2       134       336      1681      1793
 -1      3522    3    0    1
 -2      1624      1590      1667      1709
 -1      3523    3    0    1
 -2       887      1540      2365      2409
 -1      3524    3    0    1
 -2      1631      1525      1799      2462
 -1      3525    3    0    1
 -2      1229      1033      1665      2173
 -1      3526    3    0    1
 -2       428       292      2247      2692
 -1      3527    3    0    1
 -2      1425      1147      1617      1658
 -1      3528    3    0    1
 -2      1492      1485      1744      2483
 -1      3529    3    0    1
 -2       941      1120      1815      2420
 -1      3530    3    0    1
 -2      2015      1782      2073      2082
 -1      3531    3    0    1
 -2      1467      1449      1553      2039
 -1      3532    3    0    1
 -2      1078      1495      1556      1600
 -1      3533    3    0    1
 -2      1440      1426      1549      2201
 -1      3534    3    0    1
 -2      1315       320      1623      1626
 -1      3535    3    0    1
 -2      2203      1792      2244      2385
 -1      3536    3    0    1
 -2      1958       774      1985      2671
 -1      3537    3    0    1
 -2      1566      1498      1594      1640
 -1      3538    3    0    1
 -2      1831      1729      2002      2413
 -1      3539    3    0    1
 -2      2014      1520      2468      2621
 -1      3540    3    0    1
 -2      1652      1806      2055      2060
 -1      3541    3    0    1
 -2      1300       897      1554      1760
 -1      3542    3    0    1
 -2       922      1320      1600      1717
 -1      3543    3    0    1
 -2       452       455      1145      1431
 -1      3544    3    0    1
 -2      1246      1595      2058      2270
 -1      3545    3    0    1
 -2      1568      1106      1644      2254
 -1      3546    3    0    1
 -2      1105       904      1081      1668
 -1      3547    3    0    1
 -2       906      1104       923      1635
 -1      3548    3    0    1
 -2      1147       420      1542      1878
 -1      3549    3    0    1
 -2      1646      1380      1686      1688
 -1      3550    3    0    1
 -2       314       417      1570      1717
 -1      3551    3    0    1
 -2      1670      1376      1710      2250
 -1      3552    3    0    1
 -2      2446      1922      2465      2477
 -1      3553    3    0    1
 -2      2215      1771      2403      2592
 -1      3554    3    0    1
 -2       994      1183      1939      2324
 -1      3555    3    0    1
 -2      1563      1453      1839      2114
 -1      3556    3    0    1
 -2      1908      2147      2384      2569
 -1      3557    3    0    1
 -2      1735      1672      1788      1875
 -1      3558    3    0    1
 -2      1636      1407      1653      2366
 -1      3559    3    0    1
 -2      1013      1794      1202       682
 -1      3560    3    0    1
 -2      1093      1113      1514      1703
 -1      3561    3    0    1
 -2      1763      1479      1827      2216
 -1      3562    3    0    1
 -2       407       414      1861      2040
 -1      3563    3    0    1
 -2       405       970      2029      2054
 -1      3564    3    0    1
 -2      1453      1627      1659      2369
 -1      3565    3    0    1
 -2      1571      1398      1616      2210
 -1      3566    3    0    1
 -2       334       114       640      1910
 -1      3567    3    0    1
 -2        68       400      1762      2379
 -1      3568    3    0    1
 -2      1717      1738      1912      2030
 -1      3569    3    0    1
 -2       964       450      1902      2202
 -1      3570    3    0    1
 -2      1457      1434      1855      1856
 -1      3571    3    0    1
 -2      1459      1741      2049      2306
 -1      3572    3    0    1
 -2      1637      1585      1668      2118
 -1      3573    3    0    1
 -2      1840      1574      2216      2230
 -1      3574    3    0    1
 -2      1422      1463      1660      1932
 -1      3575    3    0    1
 -2      1321       923      2388      2433
 -1      3576    3    0    1
 -2      1517      1406      1781      1784
 -1      3577    3    0    1
 -2       209      1700      2099      2140
 -1      3578    3    0    1
 -2      1621      1546      1764      2066
 -1      3579    3    0    1
 -2       151      1008      1200      1872
 -1      3580    3    0    1
 -2      1634      1287      1776      1822
 -1      3581    3    0    1
 -2       879       427      1976      2692
 -1      3582    3    0    1
 -2       687       331      1773      2013
 -1      3583    3    0    1
 -2      1424      1918      2264      2269
 -1      3584    3    0    1
 -2      1409      1380      1597      1646
 -1      3585    3    0    1
 -2       458       305      1938      2207
 -1      3586    3    0    1
 -2      1549      1440      1609      1703
 -1      3587    3    0    1
 -2       891      1291      1071      1593
 -1      3588    3    0    1
 -2      1344      1743      1919      2181
 -1      3589    3    0    1
 -2      1513      1646      1686      1688
 -1      3590    3    0    1
 -2      1499      1538      1962      2286
 -1      3591    3    0    1
 -2      1432      1498      1543      1714
 -1      3592    3    0    1
 -2      1375      1567      1929      2241
 -1      3593    3    0    1
 -2      1878      1542      2022      2450
 -1      3594    3    0    1
 -2      1465      1553      1830      1941
 -1      3595    3    0    1
 -2       325      1104      1083      1755
 -1      3596    3    0    1
 -2      1475      1555      2539      2621
 -1      3597    3    0    1
 -2      1653      1466      1970      2286
 -1      3598    3    0    1
 -2      1439      1473      1501      1724
 -1      3599    3    0    1
 -2      1625      1014      2141      2452
 -1      3600    3    0    1
 -2       420      1542      1878      2450
 -1      3601    3    0    1
 -2       414      1813      1861      2040
 -1      3602    3    0    1
 -2       519        32       520      1775
 -1      3603    3    0    1
 -2       998       129      2351      2699
 -1      3604    3    0    1
 -2        10        12       496      2674
 -1      3605    3    0    1
 -2      1991       189      2427      2436
 -1      3606    3    0    1
 -2      1340      1084      1753      2011
 -1      3607    3    0    1
 -2      1077       314      1570      1717
 -1      3608    3    0    1
 -2      1528      1756      1890      1895
 -1      3609    3    0    1
 -2      1393      1505      1545      1623
 -1      3610    3    0    1
 -2      1959      2014      2231      2302
 -1      3611    3    0    1
 -2      1863       999      2161      2608
 -1      3612    3    0    1
 -2       449       395      2336      1353
 -1      3613    3    0    1
 -2       702      1765      1841      2003
 -1      3614    3    0    1
 -2      2037      1596      1168      2410
 -1      3615    3    0    1
 -2      1925      1936      1971      2518
 -1      3616    3    0    1
 -2      1517       348      1726      1784
 -1      3617    3    0    1
 -2      1104       328      1516      1755
 -1      3618    3    0    1
 -2      1728      1967      2382      2536
 -1      3619    3    0    1
 -2      1441      1674      2620      2644
 -1      3620    3    0    1
 -2       311      1117       426      1561
 -1      3621    3    0    1
 -2      1220       730      2143      2566
 -1      3622    3    0    1
 -2      1669      1694      1742      1864
 -1      3623    3    0    1
 -2      2368      2285      2428      2438
 -1      3624    3    0    1
 -2      1690       222      2625      2693
 -1      3625    3    0    1
 -2      1606      1526      1801      1807
 -1      3626    3    0    1
 -2      1627      1453      1659      2048
 -1      3627    3    0    1
 -2      1573      1478      1973      2292
 -1      3628    3    0    1
 -2      1509      1474      1653      2366
 -1      3629    3    0    1
 -2      1192      1000       655      1791
 -1      3630    3    0    1
 -2      1292      1293      1523      1745
 -1      3631    3    0    1
 -2      2053      1399      2093      2526
 -1      3632    3    0    1
 -2      2037      2410      2498      2670
 -1      3633    3    0    1
 -2      1684       348      1781      1784
 -1      3634    3    0    1
 -2      1515      1912      1437      1570
 -1      3635    3    0    1
 -2      1756       341      1779      2549
 -1      3636    3    0    1
 -2      1533       964      1902      2368
 -1      3637    3    0    1
 -2      1697      1547      2016      2055
 -1      3638    3    0    1
 -2      1247      1041       798      1903
 -1      3639    3    0    1
 -2       150       151      1872      2013
 -1      3640    3    0    1
 -2      1291       891       892      1593
 -1      3641    3    0    1
 -2      1451      1845      1926      2065
 -1      3642    3    0    1
 -2       117       363      2356      2631
 -1      3643    3    0    1
 -2      1483      1413      1774      1847
 -1      3644    3    0    1
 -2       129      2166      2630      2699
 -1      3645    3    0    1
 -2        80      1867      2209      2417
 -1      3646    3    0    1
 -2      1540      1452      1909      2533
 -1      3647    3    0    1
 -2      2732      2733      2752      2762
 -1      3648    3    0    1
 -2      1380      1597      1662      1893
 -1      3649    3    0    1
 -2       639       114      2094      2130
 -1      3650    3    0    1
 -2       261      1045      1258      2387
 -1      3651    3    0    1
 -2       655       654      1791      2135
 -1      3652    3    0    1
 -2      1449      1531      1553      2039
 -1      3653    3    0    1
 -2      1491      2046      2125      2711
 -1      3654    3    0    1
 -2      1272       871      1713      2223
 -1      3655    3    0    1
 -2      1094      1549      1609      1703
 -1      3656    3    0    1
 -2      1388      1429      1655      1816
 -1      3657    3    0    1
 -2      1623      1545      1848      1849
 -1      3658    3    0    1
 -2      1539      1576      1955      2065
 -1      3659    3    0    1
 -2       944       913      1919      2086
 -1      3660    3    0    1
 -2      1328       928      1788      1875
 -1      3661    3    0    1
 -2      1520       992      1678      1711
 -1      3662    3    0    1
 -2      1727      1817      2151      2197
 -1      3663    3    0    1
 -2      1526      1428      1529      2047
 -1      3664    3    0    1
 -2       759      1700      1829      2158
 -1      3665    3    0    1
 -2       149       154      1999      2558
 -1      3666    3    0    1
 -2      1481      1427      1675      1947
 -1      3667    3    0    1
 -2       519       496      2087      2373
 -1      3668    3    0    1
 -2      1402      1598      1669      1768
 -1      3669    3    0    1
 -2       559       970      2029      2340
 -1      3670    3    0    1
 -2      1385      1418      1640      1725
 -1      3671    3    0    1
 -2       331       150      1200      2397
 -1      3672    3    0    1
 -2      1975      2051      2138      2524
 -1      3673    3    0    1
 -2      1455      2235      2485      2666
 -1      3674    3    0    1
 -2       870      2033      2297      2455
 -1      3675    3    0    1
 -2      1790      1401      2103      2504
 -1      3676    3    0    1
 -2      1420      2032      2513      2757
 -1      3677    3    0    1
 -2      1422      1778      1900      1957
 -1      3678    3    0    1
 -2      1549      1448      1677      2034
 -1      3679    3    0    1
 -2       332      1021      1219      1877
 -1      3680    3    0    1
 -2       117       116       639      1910
 -1      3681    3    0    1
 -2       186       714      1348      1368
 -1      3682    3    0    1
 -2      1439      1457      1641      1724
 -1      3683    3    0    1
 -2      1623      1315      1626      1849
 -1      3684    3    0    1
 -2      1505      1540      1905      1909
 -1      3685    3    0    1
 -2       959       422      2381      2548
 -1      3686    3    0    1
 -2      1402      1957      2001      2021
 -1      3687    3    0    1
 -2      1695      1666      1837      1913
 -1      3688    3    0    1
 -2      1083       906      1586      1635
 -1      3689    3    0    1
 -2       376       735      1977      2535
 -1      3690    3    0    1
 -2       958       399      1881      2165
 -1      3691    3    0    1
 -2       959       422      1820      2381
 -1      3692    3    0    1
 -2      1503       470      1521      1856
 -1      3693    3    0    1
 -2      1386      1952      2128      2276
 -1      3694    3    0    1
 -2       231       440      1595      2394
 -1      3695    3    0    1
 -2      2044      1029      2222      2293
 -1      3696    3    0    1
 -2       277      2131      2314      2334
 -1      3697    3    0    1
 -2      2391      2556      2600      2637
 -1      3698    3    0    1
 -2      1425      1147      1542      1878
 -1      3699    3    0    1
 -2      1434      1439      1457      1855
 -1      3700    3    0    1
 -2      1425      2068      2123      2159
 -1      3701    3    0    1
 -2      1808       999      1863      2183
 -1      3702    3    0    1
 -2      1447      1412      1862      2004
 -1      3703    3    0    1
 -2      1495      1659      1942      2369
 -1      3704    3    0    1
 -2      1707      1429      1837      1913
 -1      3705    3    0    1
 -2       904      1105       925      1668
 -1      3706    3    0    1
 -2      1412      1442      1979      2004
 -1      3707    3    0    1
 -2      1077      1570      1600      1717
 -1      3708    3    0    1
 -2       249      1989      2456      2738
 -1      3709    3    0    1
 -2      1016      1217      2449      1348
 -1      3710    3    0    1
 -2       867      2312      2354      2488
 -1      3711    3    0    1
 -2      1499      1382      1538      1651
 -1      3712    3    0    1
 -2      1082      1339      1850      2249
 -1      3713    3    0    1
 -2       915      1676      1964      2007
 -1      3714    3    0    1
 -2      1443      1111      1486      1575
 -1      3715    3    0    1
 -2      1624      1693      1845      1926
 -1      3716    3    0    1
 -2       408       404      1392      1916
 -1      3717    3    0    1
 -2      1111       932      1486      1575
 -1      3718    3    0    1
 -2       231      1035      2177      2400
 -1      3719    3    0    1
 -2      1104       906      1083      1635
 -1      3720    3    0    1
 -2      1952      1638      2061      2128
 -1      3721    3    0    1
 -2       679      1201      1897      2005
 -1      3722    3    0    1
 -2      1576      1451      1693      1708
 -1      3723    3    0    1
 -2       418       307      1287      1822
 -1      3724    3    0    1
 -2      1957      1527      2001      2021
 -1      3725    3    0    1
 -2       911      1112      1089      1534
 -1      3726    3    0    1
 -2        80       411      1867      2417
 -1      3727    3    0    1
 -2       907      1119      1309      2719
 -1      3728    3    0    1
 -2      1484      1414      1673      2089
 -1      3729    3    0    1
 -2      2028      1568      2254      2483
 -1      3730    3    0    1
 -2      1638      1415      1672      1769
 -1      3731    3    0    1
 -2      1020      1977      2491      2566
 -1      3732    3    0    1
 -2      1647      1770      2056      2386
 -1      3733    3    0    1
 -2       568      1602      2319      2490
 -1      3734    3    0    1
 -2      1344       913      1092      1919
 -1      3735    3    0    1
 -2      1513      1591      1646      1688
 -1      3736    3    0    1
 -2      1022      1218      1901      1988
 -1      3737    3    0    1
 -2      1103       902      1078      1556
 -1      3738    3    0    1
 -2      1293      1568      1644      1745
 -1      3739    3    0    1
 -2       921      1111      1319      1575
 -1      3740    3    0    1
 -2      2378      1586      2393      2508
 -1      3741    3    0    1
 -2       435      1046      2457      2554
 -1      3742    3    0    1
 -2      1493      1746      1761      1866
 -1      3743    3    0    1
 -2      2017      2156      2509      2567
 -1      3744    3    0    1
 -2      1406      1444      1694      1890
 -1      3745    3    0    1
 -2      1761      1384      1790      2103
 -1      3746    3    0    1
 -2       443       345      1423      2293
 -1      3747    3    0    1
 -2      1418      1656      1811      2067
 -1      3748    3    0    1
 -2       390       557       567      1345
 -1      3749    3    0    1
 -2      1879      1835      2089      2091
 -1      3750    3    0    1
 -2      1674      2262      2399      2600
 -1      3751    3    0    1
 -2      1594      1520      1927      2468
 -1      3752    3    0    1
 -2      1672      1557      1735      1788
 -1      3753    3    0    1
 -2      1710      1376      1828      1832
 -1      3754    3    0    1
 -2      1559      1879      2091      2277
 -1      3755    3    0    1
 -2      1842      1836      2553      2610
 -1      3756    3    0    1
 -2       443       759       760      1700
 -1      3757    3    0    1
 -2       759       207       760      1700
 -1      3758    3    0    1
 -2      2160      2274      2618      2704
 -1      3759    3    0    1
 -2      2205       157      2601      1346
 -1      3760    3    0    1
 -2      1874      2250      2541      2583
 -1      3761    3    0    1
 -2      1376      1489      1710      1824
 -1      3762    3    0    1
 -2      1792      1757      2244      2385
 -1      3763    3    0    1
 -2      1376      1462      1824      1828
 -1      3764    3    0    1
 -2       998      2351      2663      2699
 -1      3765    3    0    1
 -2       207       209       760      1700
 -1      3766    3    0    1
 -2      1169       982      2169      2350
 -1      3767    3    0    1
 -2      1597      1407      1893      2256
 -1      3768    3    0    1
 -2      1069      1567      2309      2424
 -1      3769    3    0    1
 -2       150       687      1999      2013
 -1      3770    3    0    1
 -2      1945       390      1960      2019
 -1      3771    3    0    1
 -2      1995      2218      2391      2443
 -1      3772    3    0    1
 -2      1503      1464      2053      2442
 -1      3773    3    0    1
 -2       291       425      1272      2660
 -1      3774    3    0    1
 -2       982        92      2169      2322
 -1      3775    3    0    1
 -2       185      1020      1220      2566
 -1      3776    3    0    1
 -2       407      1861      1946      2060
 -1      3777    3    0    1
 -2      1788      1328      1875      2211
 -1      3778    3    0    1
 -2      1208      1016      2205      1346
 -1      3779    3    0    1
 -2      1292      1523      1568      1745
 -1      3780    3    0    1
 -2      1239       778      1886      2641
 -1      3781    3    0    1
 -2      1560       386      1786      1797
 -1      3782    3    0    1
 -2      1564      1490      2193      2374
 -1      3783    3    0    1
 -2      1624      1833      1925      1936
 -1      3784    3    0    1
 -2      1614      1564      1828      1832
 -1      3785    3    0    1
 -2      1602       568      2406      2490
 -1      3786    3    0    1
 -2      1578      1738      1761      1947
 -1      3787    3    0    1
 -2      1466      1653      1970      2185
 -1      3788    3    0    1
 -2      1425      1838      1969      2159
 -1      3789    3    0    1
 -2      1944       752      1993      2222
 -1      3790    3    0    1
 -2       970       405      2029      2031
 -1      3791    3    0    1
 -2       967      1904      2344      2647
 -1      3792    3    0    1
 -2       334       114      2407      2505
 -1      3793    3    0    1
 -2      1585      1637      1668      1691
 -1      3794    3    0    1
 -2       984       607      1963      2302
 -1      3795    3    0    1
 -2       891      1659      2048      2383
 -1      3796    3    0    1
 -2       675      1006      2358      2444
 -1      3797    3    0    1
 -2      1955      1451      1964      2065
 -1      3798    3    0    1
 -2      1960       390      1345      2019
 -1      3799    3    0    1
 -2      1445      1673      2517      2571
 -1      3800    3    0    1
 -2      2428      1401      2438      2504
 -1      3801    3    0    1
 -2       802       795      2423      2654
 -1      3802    3    0    1
 -2      1650       343      2097      2414
 -1      3803    3    0    1
 -2      1462      1376      1564      1828
 -1      3804    3    0    1
 -2      1344       944      1919      2086
 -1      3805    3    0    1
 -2      1782      1810      1984      2073
 -1      3806    3    0    1
 -2       219      1034      1238      2206
 -1      3807    3    0    1
 -2      1629       437      1908      2147
 -1      3808    3    0    1
 -2      1956      1476      1982      2288
 -1      3809    3    0    1
 -2      1042       800      1752      2225
 -1      3810    3    0    1
 -2       189       179      2427      2436
 -1      3811    3    0    1
 -2      1324       904       925      1823
 -1      3812    3    0    1
 -2      2236        13      2511      2676
 -1      3813    3    0    1
 -2      1970      1940      2432      2525
 -1      3814    3    0    1
 -2      1029       443      2222      2293
 -1      3815    3    0    1
 -2        66       970      1945      2031
 -1      3816    3    0    1
 -2       774      1237      1958      2474
 -1      3817    3    0    1
 -2      1596       408      1731      2035
 -1      3818    3    0    1
 -2      1782       824      2134      2221
 -1      3819    3    0    1
 -2      1386      1952      2061      2128
 -1      3820    3    0    1
 -2      1379      1563      1839      2114
 -1      3821    3    0    1
 -2      1980      1389      2123      2159
 -1      3822    3    0    1
 -2      1577      1020      2491      2566
 -1      3823    3    0    1
 -2      1123      1313      2086      2536
 -1      3824    3    0    1
 -2        68       390      1158      1945
 -1      3825    3    0    1
 -2      1578      1508      1675      1947
 -1      3826    3    0    1
 -2      1175      2296      2323      1356
 -1      3827    3    0    1
 -2       386      1560      1843      1871
 -1      3828    3    0    1
 -2      2329      2299      2389      2670
 -1      3829    3    0    1
 -2      1698      1601      1797      1871
 -1      3830    3    0    1
 -2      1578      1427      1738      1947
 -1      3831    3    0    1
 -2      1716      1551      2077      2238
 -1      3832    3    0    1
 -2      1238       776      1870      2496
 -1      3833    3    0    1
 -2       630       991       993      2248
 -1      3834    3    0    1
 -2       262      1804      2134      2554
 -1      3835    3    0    1
 -2      1014       167      2141      2452
 -1      3836    3    0    1
 -2      1427      1717      1912      2030
 -1      3837    3    0    1
 -2      1786      1560      2204      2235
 -1      3838    3    0    1
 -2       630      2014      2231      2271
 -1      3839    3    0    1
 -2      1951      2119      2585      2695
 -1      3840    3    0    1
 -2       832      1804      2313      2563
 -1      3841    3    0    1
 -2      1558      1410      1562      2386
 -1      3842    3    0    1
 -2      1841      1209      2415      2643
 -1      3843    3    0    1
 -2      1758      1731      1787      1915
 -1      3844    3    0    1
 -2       214      2422      2730      2737
 -1      3845    3    0    1
 -2      2751      1537      2770      2775
 -1      3846    3    0    1
 -2       703       702      1209      2415
 -1      3847    3    0    1
 -2      1601      1410      1770      1797
 -1      3848    3    0    1
 -2      1421      1446      2551      2586
 -1      3849    3    0    1
 -2      1193       655      2076      2135
 -1      3850    3    0    1
 -2      1831      1615      2002      2059
 -1      3851    3    0    1
 -2      1619      1574      1763      2216
 -1      3852    3    0    1
 -2       413      1594      1678      1800
 -1      3853    3    0    1
 -2      1287       889      1634      1798
 -1      3854    3    0    1
 -2      1576      1451      1955      2065
 -1      3855    3    0    1
 -2       887      1285       888      2409
 -1      3856    3    0    1
 -2      2282      1648      2419      2644
 -1      3857    3    0    1
 -2       874      1066      2363      2488
 -1      3858    3    0    1
 -2      2246      1674      2431      2703
 -1      3859    3    0    1
 -2        68       390      1945      2019
 -1      3860    3    0    1
 -2       101        94      2593      2640
 -1      3861    3    0    1
 -2      2264      1918      2268      2269
 -1      3862    3    0    1
 -2       332      1021      1620      1907
 -1      3863    3    0    1
 -2       580      2300      2346      2478
 -1      3864    3    0    1
 -2        36       453      2743      1355
 -1      3865    3    0    1
 -2      1379      1407      1636      2366
 -1      3866    3    0    1
 -2      2521       300      2559      2690
 -1      3867    3    0    1
 -2      1469      1821      1857      2228
 -1      3868    3    0    1
 -2      1772      2432      2461      2597
 -1      3869    3    0    1
 -2       322      1472      1527      2168
 -1      3870    3    0    1
 -2       688       711      1383      2573
 -1      3871    3    0    1
 -2      1496      1523      1745      1911
 -1      3872    3    0    1
 -2      2395      1944      2474      2495
 -1      3873    3    0    1
 -2      2245       206      2603      2648
 -1      3874    3    0    1
 -2      1769      1415      1788      2211
 -1      3875    3    0    1
 -2       237      1835      1879      2277
 -1      3876    3    0    1
 -2       604       982      1169      2350
 -1      3877    3    0    1
 -2      1504      1573      1614      2192
 -1      3878    3    0    1
 -2      1478      2006      2301      2437
 -1      3879    3    0    1
 -2       465       438      1087      1949
 -1      3880    3    0    1
 -2      1474      1636      1653      2366
 -1      3881    3    0    1
 -2       448        32       519      1775
 -1      3882    3    0    1
 -2      1459      1741      2306      2543
 -1      3883    3    0    1
 -2      1092       462      2181      2265
 -1      3884    3    0    1
 -2      1592      1540      1905      2025
 -1      3885    3    0    1
 -2      1461      1628      1666      1997
 -1      3886    3    0    1
 -2       352        94      2380      2593
 -1      3887    3    0    1
 -2      1237       230      1958      2474
 -1      3888    3    0    1
 -2      1666      1707      1837      1913
 -1      3889    3    0    1
 -2      1063       427      2298      2531
 -1      3890    3    0    1
 -2      1700       370       759       207
 -1      3891    3    0    1
 -2      1498      1535      1640      1887
 -1      3892    3    0    1
 -2      1833      1925      1936      1971
 -1      3893    3    0    1
 -2       824      1782      1795      2015
 -1      3894    3    0    1
 -2      1628      1389      1685      1997
 -1      3895    3    0    1
 -2      1200      1008      1599      1872
 -1      3896    3    0    1
 -2       205      1833      1936      1971
 -1      3897    3    0    1
 -2      1236       762      1036      1362
 -1      3898    3    0    1
 -2      1685      1389      1852      1997
 -1      3899    3    0    1
 -2      1770      1601      1858      2056
 -1      3900    3    0    1
 -2      1509      1530      2000      2083
 -1      3901    3    0    1
 -2      1865      2196      2243      2606
 -1      3902    3    0    1
 -2       941      1774      1815      2658
 -1      3903    3    0    1
 -2       345       443      1423      1700
 -1      3904    3    0    1
 -2       443       345       759      1700
 -1      3905    3    0    1
 -2      1569      1727      1817      2063
 -1      3906    3    0    1
 -2      1396      1434      1611      2493
 -1      3907    3    0    1
 -2        48       966      2195      2411
 -1      3908    3    0    1
 -2      1583      1661      1803      2588
 -1      3909    3    0    1
 -2      1544      1567      1607      1929
 -1      3910    3    0    1
 -2      1562      1080      1777      1930
 -1      3911    3    0    1
 -2      1516      1482      1635      1755
 -1      3912    3    0    1
 -2      1586      1083      1635      1755
 -1      3913    3    0    1
 -2      1743      1344      1919      2086
 -1      3914    3    0    1
 -2       168       174      1978      2289
 -1      3915    3    0    1
 -2       568       405      1602      2406
 -1      3916    3    0    1
 -2      1677      1448      1801      2034
 -1      3917    3    0    1
 -2       344      1650      2097      2414
 -1      3918    3    0    1
 -2       322      1107      1101      1735
 -1      3919    3    0    1
 -2      1381      1432      1613      1714
 -1      3920    3    0    1
 -2       340      1472      1557      1735
 -1      3921    3    0    1
 -2      1472      1527      1557      1735
 -1      3922    3    0    1
 -2      1407      1597      1662      1876
 -1      3923    3    0    1
 -2      1472       340      1527      1735
 -1      3924    3    0    1
 -2       420       965      1147      2615
 -1      3925    3    0    1
 -2      1119       316      1309      2701
 -1      3926    3    0    1
 -2      2106      2439      2463      2657
 -1      3927    3    0    1
 -2       333      1574      1840      1992
 -1      3928    3    0    1
 -2      1415      1598      1638      2041
 -1      3929    3    0    1
 -2       249       256      2471      1365
 -1      3930    3    0    1
 -2      2053      2066      2526      2529
 -1      3931    3    0    1
 -2      1624      1590      1925      1926
 -1      3932    3    0    1
 -2      1426      1440      1656      1811
 -1      3933    3    0    1
 -2        63        70       568      2294
 -1      3934    3    0    1
 -2       867      2312      2488      2590
 -1      3935    3    0    1
 -2      1276      1067      1771      2403
 -1      3936    3    0    1
 -2      1886       778      2371      2418
 -1      3937    3    0    1
 -2      1708      1510      1833      2239
 -1      3938    3    0    1
 -2      1693      1451      1845      1926
 -1      3939    3    0    1
 -2      1855      1434      2010      2442
 -1      3940    3    0    1
 -2      1376      1489      1670      1710
 -1      3941    3    0    1
 -2      2261      2396      2524      2619
 -1      3942    3    0    1
 -2       366       441      2629      2708
 -1      3943    3    0    1
 -2      1912      1515      1437      2102
 -1      3944    3    0    1
 -2       413       335      1616      1711
 -1      3945    3    0    1
 -2       335       413       992      1711
 -1      3946    3    0    1
 -2      1622       185      2484      2535
 -1      3947    3    0    1
 -2      1184       992       631      1711
 -1      3948    3    0    1
 -2       335       992      1184      1711
 -1      3949    3    0    1
 -2       335      1184      1616      1711
 -1      3950    3    0    1
 -2       377       351       712      1974
 -1      3951    3    0    1
 -2      1990      1408      2052      2665
 -1      3952    3    0    1
 -2      1325       918      1099      1899
 -1      3953    3    0    1
 -2      1778      1472      1900      1957
 -1      3954    3    0    1
 -2       343       344      2097      2414
 -1      3955    3    0    1
 -2      1844      1709      1883      2237
 -1      3956    3    0    1
 -2      1506      1374      1651      2146
 -1      3957    3    0    1
 -2       936      1336      1687      1730
 -1      3958    3    0    1
 -2       342       334       640      2227
 -1      3959    3    0    1
 -2       847      1057      1729      2352
 -1      3960    3    0    1
 -2      1920      1528      2077      2238
 -1      3961    3    0    1
 -2      1210       333      1840      1992
 -1      3962    3    0    1
 -2      1420      2627      2688      2718
 -1      3963    3    0    1
 -2      1661      1803      2137      2255
 -1      3964    3    0    1
 -2      1926      1592      2042      2434
 -1      3965    3    0    1
 -2      2145       951      2178      2685
 -1      3966    3    0    1
 -2      2017      1116      2154      2567
 -1      3967    3    0    1
 -2      1605      1883      2136      2237
 -1      3968    3    0    1
 -2       400        48      2377      2411
 -1      3969    3    0    1
 -2      1463      1920      2077      2238
 -1      3970    3    0    1
 -2      1560       386      1843      2235
 -1      3971    3    0    1
 -2       556       562      2300      2623
 -1      3972    3    0    1
 -2       230       783      1996      2224
 -1      3973    3    0    1
 -2      1868        64      2064      2319
 -1      3974    3    0    1
 -2       970       559      2029      2301
 -1      3975    3    0    1
 -2      1507      1108      1676      2265
 -1      3976    3    0    1
 -2      1708      1833      1971      2239
 -1      3977    3    0    1
 -2       567      1762      1960      1345
 -1      3978    3    0    1
 -2       239       244       807      1869
 -1      3979    3    0    1
 -2      2290      1066      2363      2747
 -1      3980    3    0    1
 -2      1404      1687      1892      1906
 -1      3981    3    0    1
 -2      1540      1452      1592      1905
 -1      3982    3    0    1
 -2       341       338      2549      2633
 -1      3983    3    0    1
 -2      1981      1034      1985      2510
 -1      3984    3    0    1
 -2      1296       895      1606      2020
 -1      3985    3    0    1
 -2      1423       345      1700      2293
 -1      3986    3    0    1
 -2      1505      1623      1654      2365
 -1      3987    3    0    1
 -2       895      1297       896      2020
 -1      3988    3    0    1
 -2       383       456      2260      2291
 -1      3989    3    0    1
 -2      1567      1282      1607      2424
 -1      3990    3    0    1
 -2       567       544      1762      1345
 -1      3991    3    0    1
 -2      1377      2198      2585      2695
 -1      3992    3    0    1
 -2      1397      1438      1935      1973
 -1      3993    3    0    1
 -2       607      1813      1963      2302
 -1      3994    3    0    1
 -2       538      1148      2107      2281
 -1      3995    3    0    1
 -2      2595      2396      2613      2697
 -1      3996    3    0    1
 -2      1166       978      2323      1357
 -1      3997    3    0    1
 -2       404       408      1392      2499
 -1      3998    3    0    1
 -2      1935      1397      1973      2292
 -1      3999    3    0    1
 -2      1584      1422      1778      1920
 -1      4000    3    0    1
 -2      1505      1626      2365      2409
 -1      4001    3    0    1
 -2       167      1625      2441      2452
 -1      4002    3    0    1
 -2      1663      1511      1704      2046
 -1      4003    3    0    1
 -2      1728      1123      2086      2536
 -1      4004    3    0    1
 -2      1535      1418      1656      1811
 -1      4005    3    0    1
 -2      1826       193      2440      2769
 -1      4006    3    0    1
 -2       341      1756      1779      1890
 -1      4007    3    0    1
 -2      1390      1716      2077      2078
 -1      4008    3    0    1
 -2      1418      1535      1640      1811
 -1      4009    3    0    1
 -2       375       376       735      1977
 -1      4010    3    0    1
 -2      1419      1519      2090      2267
 -1      4011    3    0    1
 -2      2040       983      2055      2060
 -1      4012    3    0    1
 -2      1517      1669      1768      1784
 -1      4013    3    0    1
 -2       798      1246      2270      2686
 -1      4014    3    0    1
 -2      1694      1742      1778      1957
 -1      4015    3    0    1
 -2       607      1948      1963      2179
 -1      4016    3    0    1
 -2       582       583      2263      2577
 -1      4017    3    0    1
 -2       606       983      1589      2179
 -1      4018    3    0    1
 -2      1589       983      2040      2179
 -1      4019    3    0    1
 -2      1928      1715      1938      2390
 -1      4020    3    0    1
 -2      1715      1928      2268      2390
 -1      4021    3    0    1
 -2       607       606      1948      2179
 -1      4022    3    0    1
 -2      2264      1715      2268      2390
 -1      4023    3    0    1
 -2       928      1107      1557      1735
 -1      4024    3    0    1
 -2      1263      2259      2332      2335
 -1      4025    3    0    1
 -2       428       292      1063      2602
 -1      4026    3    0    1
 -2       982      1178      1477      2322
 -1      4027    3    0    1
 -2      1405      1460      1554      2090
 -1      4028    3    0    1
 -2      1510      1712      2075      2370
 -1      4029    3    0    1
 -2      1640      1385      1800      1887
 -1      4030    3    0    1
 -2      1592      1454      2065      2533
 -1      4031    3    0    1
 -2      2134      1795      2172      2563
 -1      4032    3    0    1
 -2       303       323      1769      1805
 -1      4033    3    0    1
 -2      1748      1430      1833      1971
 -1      4034    3    0    1
 -2       369       368       783      2287
 -1      4035    3    0    1
 -2      1745      1744      1911      2191
 -1      4036    3    0    1
 -2       310      1295      1298      1807
 -1      4037    3    0    1
 -2       352       615       616      2380
 -1      4038    3    0    1
 -2      1654      1494      1905      2025
 -1      4039    3    0    1
 -2      1701      1757      1850      2421
 -1      4040    3    0    1
 -2      1218      2427      2439      2463
 -1      4041    3    0    1
 -2       891      1290      1659      2383
 -1      4042    3    0    1
 -2      1008       356      1383      1872
 -1      4043    3    0    1
 -2        16         9      2486      2502
 -1      4044    3    0    1
 -2      2017      1689      2038      2081
 -1      4045    3    0    1
 -2      1501      1473      1633      1827
 -1      4046    3    0    1
 -2      1727      1569      1817      2197
 -1      4047    3    0    1
 -2      1393      1494      1545      1848
 -1      4048    3    0    1
 -2      1804       387      2134      2563
 -1      4049    3    0    1
 -2      1526      1089      1534      1807
 -1      4050    3    0    1
 -2       356       151      1383      1872
 -1      4051    3    0    1
 -2       352        94       615      2380
 -1      4052    3    0    1
 -2      1413      1459      1741      1753
 -1      4053    3    0    1
 -2      1473      1501      1611      1827
 -1      4054    3    0    1
 -2      1378      1696      1853      2098
 -1      4055    3    0    1
 -2       408      1548      1731      2035
 -1      4056    3    0    1
 -2      1382         6      1499      1962
 -1      4057    3    0    1
 -2       832       387      1804      2563
 -1      4058    3    0    1
 -2        70      1160      2478      2514
 -1      4059    3    0    1
 -2      1522      1697      2012      2036
 -1      4060    3    0    1
 -2      1387      1619      1643      1827
 -1      4061    3    0    1
 -2      1501      1633      1643      1827
 -1      4062    3    0    1
 -2      1000      2401      2429      2638
 -1      4063    3    0    1
 -2       885      1069      2309      2424
 -1      4064    3    0    1
 -2      1567      1607      1929      2424
 -1      4065    3    0    1
 -2      1045       380      1248      1737
 -1      4066    3    0    1
 -2       261       380      1045      1737
 -1      4067    3    0    1
 -2      1712      1394      2075      2370
 -1      4068    3    0    1
 -2      1776      1634      1822      2426
 -1      4069    3    0    1
 -2      2353      2251      2583      2607
 -1      4070    3    0    1
 -2       380       381      1248      1737
 -1      4071    3    0    1
 -2      1780      1476      2288      2465
 -1      4072    3    0    1
 -2      1448      1296      1606      2020
 -1      4073    3    0    1
 -2      1058      1263      2332      2354
 -1      4074    3    0    1
 -2      1638      1415      1769      1805
 -1      4075    3    0    1
 -2       939      1757      1850      2249
 -1      4076    3    0    1
 -2      2218       442      2391      2443
 -1      4077    3    0    1
 -2       907       940      1119      2719
 -1      4078    3    0    1
 -2       390        68      1345      2019
 -1      4079    3    0    1
 -2       654       999      1808      2135
 -1      4080    3    0    1
 -2       335      1661      2210      2392
 -1      4081    3    0    1
 -2      1389       401      1685      1852
 -1      4082    3    0    1
 -2       387       262       832      1804
 -1      4083    3    0    1
 -2      1698      1469      1871      2095
 -1      4084    3    0    1
 -2      2002      2219      2413      2515
 -1      4085    3    0    1
 -2      1529      1522      1541      1986
 -1      4086    3    0    1
 -2        48       400       966      1873
 -1      4087    3    0    1
 -2      1534      1529      1541      1986
 -1      4088    3    0    1
 -2       331       136      1773      2401
 -1      4089    3    0    1
 -2       382       591      2209      2639
 -1      4090    3    0    1
 -2       421      1508      1518      2083
 -1      4091    3    0    1
 -2      1921      1946      2266      2273
 -1      4092    3    0    1
 -2       239       436      1042      1752
 -1      4093    3    0    1
 -2      1429      1666      1707      1837
 -1      4094    3    0    1
 -2       511       959      1754      1924
 -1      4095    3    0    1
 -2      1193      1779      2076      2127
 -1      4096    3    0    1
 -2      1751      1645      1802      1954
 -1      4097    3    0    1
 -2      2351       129      2630      2699
 -1      4098    3    0    1
 -2      1762       544      2064      2377
 -1      4099    3    0    1
 -2      1437      1515      2208      2402
 -1      4100    3    0    1
 -2      1865      1792      2203      2204
 -1      4101    3    0    1
 -2       348      1517      1781      1784
 -1      4102    3    0    1
 -2      2210      2555      2588      2604
 -1      4103    3    0    1
 -2      1843       434      2220      2235
 -1      4104    3    0    1
 -2      2006      1478      2316      2437
 -1      4105    3    0    1
 -2      2106      1671      2164      2547
 -1      4106    3    0    1
 -2      2023      1834      2043      2304
 -1      4107    3    0    1
 -2      1674      2246      2399      2705
 -1      4108    3    0    1
 -2      1568      1644      2028      2254
 -1      4109    3    0    1
 -2       897      1519      1554      1760
 -1      4110    3    0    1
 -2      1075       313      2509      2567
 -1      4111    3    0    1
 -2      1451      1576      1845      2065
 -1      4112    3    0    1
 -2       366       796       807      1869
 -1      4113    3    0    1
 -2       366       243       796      1869
 -1      4114    3    0    1
 -2      2723      2706      2757      2764
 -1      4115    3    0    1
 -2      1680      1159      2315      2340
 -1      4116    3    0    1
 -2      2298      2328      2455      2531
 -1      4117    3    0    1
 -2       414       407      1861      1946
 -1      4118    3    0    1
 -2      1482      1461      1666      1997
 -1      4119    3    0    1
 -2      1539      1955      1964      2065
 -1      4120    3    0    1
 -2       230       211      1993      2474
 -1      4121    3    0    1
 -2        63      2294      2319      2514
 -1      4122    3    0    1
 -2      1402      1669      1742      1768
 -1      4123    3    0    1
 -2      1598      1517      1669      1768
 -1      4124    3    0    1
 -2      1701      1562      2385      2421
 -1      4125    3    0    1
 -2      1404      1687      1730      2151
 -1      4126    3    0    1
 -2      1753      1459      1950      2275
 -1      4127    3    0    1
 -2      1998      1995      2391      2443
 -1      4128    3    0    1
 -2       951       486      2145      2178
 -1      4129    3    0    1
 -2      1757      1118      1850      2421
 -1      4130    3    0    1
 -2      2128      1487      2562      1580
 -1      4131    3    0    1
 -2       390       567       568      1960
 -1      4132    3    0    1
 -2      1407      1379      1893      2256
 -1      4133    3    0    1
 -2      1964      2007      2070      2534
 -1      4134    3    0    1
 -2       352       103       984      1766
 -1      4135    3    0    1
 -2      1454      1964      2070      2534
 -1      4136    3    0    1
 -2      1772       510      1924      2412
 -1      4137    3    0    1
 -2      1454      1539      1964      2065
 -1      4138    3    0    1
 -2      1639      1055      2172      2352
 -1      4139    3    0    1
 -2       881      1513      1591      1771
 -1      4140    3    0    1
 -2       882       881      1591      1771
 -1      4141    3    0    1
 -2        94       352      1948      2593
 -1      4142    3    0    1
 -2       448        32      2087      2404
 -1      4143    3    0    1
 -2        32      1139      1987      2404
 -1      4144    3    0    1
 -2        94       101       615      2640
 -1      4145    3    0    1
 -2      1276       881       882      1771
 -1      4146    3    0    1
 -2       881      1276      1067      1771
 -1      4147    3    0    1
 -2       881      1067      1513      1771
 -1      4148    3    0    1
 -2       237      1908      2384      2569
 -1      4149    3    0    1
 -2      1404      1569      1780      2197
 -1      4150    3    0    1
 -2       727      1219      1502      1883
 -1      4151    3    0    1
 -2      1581      1722      1899      2168
 -1      4152    3    0    1
 -2      1527      1557      1735      2001
 -1      4153    3    0    1
 -2      2603      2245      2648      2700
 -1      4154    3    0    1
 -2      1456      1575      2652      2711
 -1      4155    3    0    1
 -2       433      1046      2257      2457
 -1      4156    3    0    1
 -2      1422      1463      1920      2212
 -1      4157    3    0    1
 -2      1226       747      2026      2542
 -1      4158    3    0    1
 -2      1728      1967      2174      2382
 -1      4159    3    0    1
 -2      1377      2627      2707      2722
 -1      4160    3    0    1
 -2       594       593      1175      1356
 -1      4161    3    0    1
 -2      1220      1020       730      2566
 -1      4162    3    0    1
 -2      1542      1838      1878      2022
 -1      4163    3    0    1
 -2      1398       335      1678      1800
 -1      4164    3    0    1
 -2      2290       454      2359      1350
 -1      4165    3    0    1
 -2      1608      1496      1618      1860
 -1      4166    3    0    1
 -2      1751      1821      1857      1858
 -1      4167    3    0    1
 -2       894       893      1618      1860
 -1      4168    3    0    1
 -2       335      1398      1571      1800
 -1      4169    3    0    1
 -2       331       664       687      1773
 -1      4170    3    0    1
 -2       331       136       664      1773
 -1      4171    3    0    1
 -2      1048       824      1782      1795
 -1      4172    3    0    1
 -2      1647      1770      1858      2056
 -1      4173    3    0    1
 -2       331       136      2401      2429
 -1      4174    3    0    1
 -2      1326       322      1316      2168
 -1      4175    3    0    1
 -2      2151      1817      2176      2197
 -1      4176    3    0    1
 -2      1398      1594      1640      1800
 -1      4177    3    0    1
 -2       344      1650      1988      2097
 -1      4178    3    0    1
 -2      1693      1576      1708      2239
 -1      4179    3    0    1
 -2       384      1587      1857      1953
 -1      4180    3    0    1
 -2      1287       307      1288      1822
 -1      4181    3    0    1
 -2       149       358      2283      2540
 -1      4182    3    0    1
 -2      1388      1437      1655      2426
 -1      4183    3    0    1
 -2        50       450       543      1796
 -1      4184    3    0    1
 -2      1666      1628      1707      2450
 -1      4185    3    0    1
 -2      1743      1919      2074      2086
 -1      4186    3    0    1
 -2      1405      1460      2258      2537
 -1      4187    3    0    1
 -2      1845      1592      1926      2065
 -1      4188    3    0    1
 -2       379      2323      2739      2744
 -1      4189    3    0    1
 -2      1425      1389      1838      2159
 -1      4190    3    0    1
 -2      2043      1610      2416      2485
 -1      4191    3    0    1
 -2      1168      2263      2410      2499
 -1      4192    3    0    1
 -2      1490      1915      1438      1375
 -1      4193    3    0    1
 -2      1872       151      1999      2013
 -1      4194    3    0    1
 -2      1852      1874      2378      2541
 -1      4195    3    0    1
 -2       157       353      2601      1347
 -1      4196    3    0    1
 -2      1597      1506      1662      1876
 -1      4197    3    0    1
 -2      2219      2002      2297      2515
 -1      4198    3    0    1
 -2      1674      2246      2620      2703
 -1      4199    3    0    1
 -2      1508       421      1518      1790
 -1      4200    3    0    1
 -2      1578      1518      1761      1790
 -1      4201    3    0    1
 -2      1384      1578      1761      1790
 -1      4202    3    0    1
 -2       421      1401      1518      1790
 -1      4203    3    0    1
 -2      1219      1667      1877      1883
 -1      4204    3    0    1
 -2      2339       402      2353      2607
 -1      4205    3    0    1
 -2      1751      1647      1821      1858
 -1      4206    3    0    1
 -2      1192       655       654      1791
 -1      4207    3    0    1
 -2       982       364      1169      2169
 -1      4208    3    0    1
 -2      1409      1597      1893      2256
 -1      4209    3    0    1
 -2       249       256      1989      2471
 -1      4210    3    0    1
 -2       456      2260      2291      2314
 -1      4211    3    0    1
 -2       990       363      1178      2356
 -1      4212    3    0    1
 -2       867       874      1270      2488
 -1      4213    3    0    1
 -2      1934      1682      2232      2303
 -1      4214    3    0    1
 -2      1451      1708      1712      1818
 -1      4215    3    0    1
 -2      1507      1451      1712      1818
 -1      4216    3    0    1
 -2      1650       343      1829      2097
 -1      4217    3    0    1
 -2      1799      1525      1802      2079
 -1      4218    3    0    1
 -2       137       136      1000      1791
 -1      4219    3    0    1
 -2      2068      1980      2123      2159
 -1      4220    3    0    1
 -2       344       183       736      2097
 -1      4221    3    0    1
 -2      1538      1466      1653      2286
 -1      4222    3    0    1
 -2      1557      1672      1735      2001
 -1      4223    3    0    1
 -2       306      1285      2365      2409
 -1      4224    3    0    1
 -2      1626       306      2365      2409
 -1      4225    3    0    1
 -2      1631      1740      1831      2413
 -1      4226    3    0    1
 -2       399       958      1881      1940
 -1      4227    3    0    1
 -2       114       334       991      2505
 -1      4228    3    0    1
 -2      1644      1744      2191      2483
 -1      4229    3    0    1
 -2       149       154       688      1999
 -1      4230    3    0    1
 -2      1891      2028      2254      2483
 -1      4231    3    0    1
 -2        94       352       984      1948
 -1      4232    3    0    1
 -2      1687      2156      2509      2673
 -1      4233    3    0    1
 -2      1819      1404      1906      1914
 -1      4234    3    0    1
 -2      1696      1378      2047      2098
 -1      4235    3    0    1
 -2      1744      1496      1745      1911
 -1      4236    3    0    1
 -2        98       364       982      2169
 -1      4237    3    0    1
 -2       906      1586      1635      2433
 -1      4238    3    0    1
 -2       950       952      2242      2502
 -1      4239    3    0    1
 -2       137       136      1882      2497
 -1      4240    3    0    1
 -2      1615      1831      2002      2219
 -1      4241    3    0    1
 -2       798      2092      2279      2686
 -1      4242    3    0    1
 -2      1574      1479      1763      2216
 -1      4243    3    0    1
 -2      2002      1615      2219      2297
 -1      4244    3    0    1
 -2       442       219      1238      2206
 -1      4245    3    0    1
 -2      2082      1984      2095      2228
 -1      4246    3    0    1
 -2      2336       395      2360      1353
 -1      4247    3    0    1
 -2      1469      1857      2073      2228
 -1      4248    3    0    1
 -2       428       427       879      2692
 -1      4249    3    0    1
 -2       879      1976      2591      2692
 -1      4250    3    0    1
 -2      1401      1790      1968      2284
 -1      4251    3    0    1
 -2      1464      1545      1848      2117
 -1      4252    3    0    1
 -2      1504      1614      1832      2192
 -1      4253    3    0    1
 -2      1474      1509      1653      2501
 -1      4254    3    0    1
 -2      1540      1505      2365      2409
 -1      4255    3    0    1
 -2      1177       607      1813      2179
 -1      4256    3    0    1
 -2      1968       399      2165      2501
 -1      4257    3    0    1
 -2       402      1504      1573      2607
 -1      4258    3    0    1
 -2      1316       322      1581      2168
 -1      4259    3    0    1
 -2      1583      1716      2078      2238
 -1      4260    3    0    1
 -2       262       435       831      1804
 -1      4261    3    0    1
 -2       444      1728      2382      2536
 -1      4262    3    0    1
 -2       511       957       959      1924
 -1      4263    3    0    1
 -2       205      1430      1748      1971
 -1      4264    3    0    1
 -2      1698      1469      2095      2228
 -1      4265    3    0    1
 -2      2274       910      2448      2619
 -1      4266    3    0    1
 -2      1644      1744      1745      2191
 -1      4267    3    0    1
 -2      1726      1435      1784      2122
 -1      4268    3    0    1
 -2      1523      1745      1911      2191
 -1      4269    3    0    1
 -2      2163      1470      2503      2576
 -1      4270    3    0    1
 -2       349       348      1720      2122
 -1      4271    3    0    1
 -2       348      1684      1721      2122
 -1      4272    3    0    1
 -2      1147       535      1617      1969
 -1      4273    3    0    1
 -2      1295       412      1526      1807
 -1      4274    3    0    1
 -2       310       412      1295      1807
 -1      4275    3    0    1
 -2      1504      1573      2315      2339
 -1      4276    3    0    1
 -2      1528      1895      1920      2077
 -1      4277    3    0    1
 -2       943       912      2595      2697
 -1      4278    3    0    1
 -2      1645      1751      1857      1954
 -1      4279    3    0    1
 -2      1938       305      1928      2207
 -1      4280    3    0    1
 -2      1046       433      2257      2553
 -1      4281    3    0    1
 -2      2288      1569      2465      2477
 -1      4282    3    0    1
 -2      2306      1741      2416      2543
 -1      4283    3    0    1
 -2      1889      1747      2043      2543
 -1      4284    3    0    1
 -2      1852      2200      2251      2353
 -1      4285    3    0    1
 -2      1863      2161      2255      2608
 -1      4286    3    0    1
 -2       219      1034      1679      1985
 -1      4287    3    0    1
 -2       771      1236      2018      2173
 -1      4288    3    0    1
 -2      1323       924      1692      1812
 -1      4289    3    0    1
 -2      1323       908       924      1812
 -1      4290    3    0    1
 -2      1462       924      1489      1812
 -1      4291    3    0    1
 -2       923       906      1635      2433
 -1      4292    3    0    1
 -2       413       992      1520      2468
 -1      4293    3    0    1
 -2      1056      1264      2476      2662
 -1      4294    3    0    1
 -2      1028      1936      2136      2518
 -1      4295    3    0    1
 -2      1638      1402      2001      2041
 -1      4296    3    0    1
 -2      1424      1759      1918      2268
 -1      4297    3    0    1
 -2      1892      1449      2458      2659
 -1      4298    3    0    1
 -2      1990      1884      2152      2171
 -1      4299    3    0    1
 -2      1809      1706      2063      2470
 -1      4300    3    0    1
 -2      1317      1110      1521      1855
 -1      4301    3    0    1
 -2      1915      1490      1438      1787
 -1      4302    3    0    1
 -2      1732      1731      1758      1915
 -1      4303    3    0    1
 -2      1067      1513      1771      2403
 -1      4304    3    0    1
 -2       467       419      1074      1817
 -1      4305    3    0    1
 -2      1944      1228      2245      2395
 -1      4306    3    0    1
 -2      1074       419      1335      1817
 -1      4307    3    0    1
 -2      1335       419      1727      1817
 -1      4308    3    0    1
 -2      1782      1795      1810      2172
 -1      4309    3    0    1
 -2      1460      1554      2187      2612
 -1      4310    3    0    1
 -2      1615      1729      2002      2059
 -1      4311    3    0    1
 -2      2285       423      2614      2615
 -1      4312    3    0    1
 -2       230       228      1996      2287
 -1      4313    3    0    1
 -2      1769      1638      1805      2562
 -1      4314    3    0    1
 -2      1147      1425      1542      1969
 -1      4315    3    0    1
 -2      1466      1538      2120      2286
 -1      4316    3    0    1
 -2      1446      1421      2551      2688
 -1      4317    3    0    1
 -2      2466      1414      2571      2616
 -1      4318    3    0    1
 -2       157      2601      1346      1347
 -1      4319    3    0    1
 -2       965       423      2285      2615
 -1      4320    3    0    1
 -2      1970      1466      2120      2286
 -1      4321    3    0    1
 -2       511       959      1783      1820
 -1      4322    3    0    1
 -2       131      1194      2599      2699
 -1      4323    3    0    1
 -2      1478      1973      2292      2316
 -1      4324    3    0    1
 -2       904      1324      1306      1823
 -1      4325    3    0    1
 -2      1668       904      1691      1823
 -1      4326    3    0    1
 -2      1489      1462      1812      1824
 -1      4327    3    0    1
 -2       357       103      1766      2302
 -1      4328    3    0    1
 -2      1948       352      2380      2593
 -1      4329    3    0    1
 -2      1374      2111      2146      2215
 -1      4330    3    0    1
 -2      2111      1706      2146      2215
 -1      4331    3    0    1
 -2       774      1238       766      1034
 -1      4332    3    0    1
 -2       908      1489      1812      1824
 -1      4333    3    0    1
 -2      1489      1086       908      1322
 -1      4334    3    0    1
 -2      1506      1374      2146      2215
 -1      4335    3    0    1
 -2      1394      2075      2370      2642
 -1      4336    3    0    1
 -2      1376      1462      1489      1824
 -1      4337    3    0    1
 -2      1086      1489       908      1824
 -1      4338    3    0    1
 -2       908      1489      1322       924
 -1      4339    3    0    1
 -2      1953       384      2073      2104
 -1      4340    3    0    1
 -2       520      1775      2084      2487
 -1      4341    3    0    1
 -2       362       363       616      2631
 -1      4342    3    0    1
 -2      1802      1645      2088      2372
 -1      4343    3    0    1
 -2       401      1852      2200      2251
 -1      4344    3    0    1
 -2      1967      1705      2174      2217
 -1      4345    3    0    1
 -2      1809      1817      2063      2101
 -1      4346    3    0    1
 -2      1723      1393      2453      2653
 -1      4347    3    0    1
 -2      1837      1695      1913      2460
 -1      4348    3    0    1
 -2      2506       226      2625      2708
 -1      4349    3    0    1
 -2       376       375      1020      1977
 -1      4350    3    0    1
 -2      1551      1891      2028      2254
 -1      4351    3    0    1
 -2       370       192      2062      2484
 -1      4352    3    0    1
 -2       333      1210      2398      2441
 -1      4353    3    0    1
 -2       193      1826      2464      2769
 -1      4354    3    0    1
 -2      1210       333      1625      2441
 -1      4355    3    0    1
 -2      1429      1632      1816      2426
 -1      4356    3    0    1
 -2      1566      1640      1800      1887
 -1      4357    3    0    1
 -2      2446      1922      2477      2552
 -1      4358    3    0    1
 -2      1528      1390      1756      1895
 -1      4359    3    0    1
 -2      1805      2128      2276      2562
 -1      4360    3    0    1
 -2      1416      2682      2717      2724
 -1      4361    3    0    1
 -2      1540       887      1909      2409
 -1      4362    3    0    1
 -2      1303       301       459      2592
 -1      4363    3    0    1
 -2      1014       702      1625      2003
 -1      4364    3    0    1
 -2      1245       786      1364      1371
 -1      4365    3    0    1
 -2      1965      1258      2121      2291
 -1      4366    3    0    1
 -2      1463      1660      1722      1937
 -1      4367    3    0    1
 -2      1465      1411      2413      2515
 -1      4368    3    0    1
 -2       870      1064      2033      2223
 -1      4369    3    0    1
 -2      1446      2199      2551      2586
 -1      4370    3    0    1
 -2      1628      1461      1666      1837
 -1      4371    3    0    1
 -2       429      1976      2327      2696
 -1      4372    3    0    1
 -2      1621      1699      1723      2453
 -1      4373    3    0    1
 -2      1429      1388      1655      2426
 -1      4374    3    0    1
 -2      1474      1379      1563      1839
 -1      4375    3    0    1
 -2      1509      1474      1563      1839
 -1      4376    3    0    1
 -2      1469      1601      1698      1871
 -1      4377    3    0    1
 -2         9       950      2242      2502
 -1      4378    3    0    1
 -2       871      1713      2559      2650
 -1      4379    3    0    1
 -2      1766       357      2302      2516
 -1      4380    3    0    1
 -2      1727      1809      1817      2063
 -1      4381    3    0    1
 -2      2394       231      2400      2435
 -1      4382    3    0    1
 -2       421      1401      1968      2284
 -1      4383    3    0    1
 -2      1601      1560      1797      1871
 -1      4384    3    0    1
 -2      2245      2050      2648      2700
 -1      4385    3    0    1
 -2      2332      1263      2335      2354
 -1      4386    3    0    1
 -2       211       443      1423      2222
 -1      4387    3    0    1
 -2      1474      1509      1530      1839
 -1      4388    3    0    1
 -2      1530      1509      1603      1839
 -1      4389    3    0    1
 -2      1563      1453      1603      1839
 -1      4390    3    0    1
 -2      1603      1453      1675      1839
 -1      4391    3    0    1
 -2      1509      1563      1603      1839
 -1      4392    3    0    1
 -2        48      2195      2377      2411
 -1      4393    3    0    1
 -2       390       567      1960      1345
 -1      4394    3    0    1
 -2      1041       798      1903      2544
 -1      4395    3    0    1
 -2      1492      1644      2028      2483
 -1      4396    3    0    1
 -2      1653      1538      1876      2139
 -1      4397    3    0    1
 -2      1023      2026      2143      2175
 -1      4398    3    0    1
 -2        70       568      2294      2490
 -1      4399    3    0    1
 -2      1095       915      1964      2007
 -1      4400    3    0    1
 -2      1376      1710      2250      2583
 -1      4401    3    0    1
 -2      1438      1732      1787      2194
 -1      4402    3    0    1
 -2      1852      1874      2541      2583
 -1      4403    3    0    1
 -2      1564      1490      1828      2193
 -1      4404    3    0    1
 -2       330       166      1209      1841
 -1      4405    3    0    1
 -2      1209       702      1765      1841
 -1      4406    3    0    1
 -2      2745      2728      2767      2773
 -1      4407    3    0    1
 -2      1393      1723      2529      2679
 -1      4408    3    0    1
 -2        98       615      2113      2469
 -1      4409    3    0    1
 -2      1716      1551      2238      2507
 -1      4410    3    0    1
 -2      1399      2053      2093      2493
 -1      4411    3    0    1
 -2       795      1886      2423      2654
 -1      4412    3    0    1
 -2      1853      1613      1921      2273
 -1      4413    3    0    1
 -2      1660      1581      1722      1899
 -1      4414    3    0    1
 -2       965       534      1147      1969
 -1      4415    3    0    1
 -2      1766       984      1963      2302
 -1      4416    3    0    1
 -2      1585      1822      2009      2118
 -1      4417    3    0    1
 -2       413      1520      1594      2468
 -1      4418    3    0    1
 -2       930      1521      1545      1849
 -1      4419    3    0    1
 -2      1521      1464      1545      1849
 -1      4420    3    0    1
 -2      1109      1545      1626      1849
 -1      4421    3    0    1
 -2      1109       930      1545      1849
 -1      4422    3    0    1
 -2       917       930      1109      1849
 -1      4423    3    0    1
 -2      1330       917      1098      1849
 -1      4424    3    0    1
 -2       930      1330      1521      1849
 -1      4425    3    0    1
 -2       917      1330       930      1849
 -1      4426    3    0    1
 -2       905      1339       939      1850
 -1      4427    3    0    1
 -2       905      1118      1307      1850
 -1      4428    3    0    1
 -2      1118       939      1757      1850
 -1      4429    3    0    1
 -2       905       939      1118      1850
 -1      4430    3    0    1
 -2      1841       330      2057      2232
 -1      4431    3    0    1
 -2      1749      1192      1793      1851
 -1      4432    3    0    1
 -2      1192       336      1793      1851
 -1      4433    3    0    1
 -2      1895      1920      2077      2212
 -1      4434    3    0    1
 -2      1463      1422      1660      2212
 -1      4435    3    0    1
 -2      1989       249      2456      2766
 -1      4436    3    0    1
 -2      1229       209      2099      2140
 -1      4437    3    0    1
 -2      1636      1407      1662      1876
 -1      4438    3    0    1
 -2      1328       920       928      1875
 -1      4439    3    0    1
 -2       920      1328      1318      1875
 -1      4440    3    0    1
 -2       928       920      1788      1875
 -1      4441    3    0    1
 -2       442      1998      2391      2443
 -1      4442    3    0    1
 -2       192       370      2158      2484
 -1      4443    3    0    1
 -2      1451      1507      1576      1955
 -1      4444    3    0    1
 -2       277       456      1262      1965
 -1      4445    3    0    1
 -2      1507      1451      1676      1955
 -1      4446    3    0    1
 -2      1720      1007      1721      2122
 -1      4447    3    0    1
 -2      1669      1768      1784      1864
 -1      4448    3    0    1
 -2      1403      1491      2652      2683
 -1      4449    3    0    1
 -2       931      1612      1855      1856
 -1      4450    3    0    1
 -2      1110       931      1855      1856
 -1      4451    3    0    1
 -2        81       975      1169      2008
 -1      4452    3    0    1
 -2       335      1184      2137      2392
 -1      4453    3    0    1
 -2      1636      1466      1653      2139
 -1      4454    3    0    1
 -2      1700       370      2099      2484
 -1      4455    3    0    1
 -2      1543      1395      1917      2201
 -1      4456    3    0    1
 -2      1601      1698      1770      1858
 -1      4457    3    0    1
 -2      1647      1770      1821      1858
 -1      4458    3    0    1
 -2      1770      1698      1821      1858
 -1      4459    3    0    1
 -2       303      1318      1328      2211
 -1      4460    3    0    1
 -2      1995      1998      2391      2556
 -1      4461    3    0    1
 -2      1293       894      1618      1860
 -1      4462    3    0    1
 -2      1488      1608      1618      1860
 -1      4463    3    0    1
 -2      1073      1294      1488      1860
 -1      4464    3    0    1
 -2      1488      1294      1608      1860
 -1      4465    3    0    1
 -2      1293      1523      1745      1860
 -1      4466    3    0    1
 -2      1523      1293      1618      1860
 -1      4467    3    0    1
 -2      1294       893       894      1860
 -1      4468    3    0    1
 -2       893      1294      1073      1860
 -1      4469    3    0    1
 -2      1073      1488      1618      1860
 -1      4470    3    0    1
 -2       893      1073      1618      1860
 -1      4471    3    0    1
 -2      1557      2001      2021      2041
 -1      4472    3    0    1
 -2      1422      1694      1778      1957
 -1      4473    3    0    1
 -2      1675      1603      1839      1983
 -1      4474    3    0    1
 -2       998       651      1194      2663
 -1      4475    3    0    1
 -2      1998      1975      2105      2138
 -1      4476    3    0    1
 -2      1559      1998      2105      2138
 -1      4477    3    0    1
 -2       651       634      2349      2480
 -1      4478    3    0    1
 -2      1671      1620      2164      2547
 -1      4479    3    0    1
 -2      1021       726      1877      2547
 -1      4480    3    0    1
 -2      1406      1781      1784      1864
 -1      4481    3    0    1
 -2      1742      1406      1768      1864
 -1      4482    3    0    1
 -2      1406      1517      1768      1864
 -1      4483    3    0    1
 -2      1467      2155      2156      2673
 -1      4484    3    0    1
 -2      1661      1571      2210      2604
 -1      4485    3    0    1
 -2      1395      1543      1917      2098
 -1      4486    3    0    1
 -2      1575      1433      2652      2711
 -1      4487    3    0    1
 -2       411       101      2182      2417
 -1      4488    3    0    1
 -2      1246       244      2058      2522
 -1      4489    3    0    1
 -2      1696      1543      1853      2098
 -1      4490    3    0    1
 -2      1569      1404      1914      2197
 -1      4491    3    0    1
 -2      1677      1395      1801      2098
 -1      4492    3    0    1
 -2      1520       992      2014      2468
 -1      4493    3    0    1
 -2       382        80      1167      1867
 -1      4494    3    0    1
 -2        80       977      1167      1867
 -1      4495    3    0    1
 -2       999       338      1863      2183
 -1      4496    3    0    1
 -2      1611      1501      1724      2010
 -1      4497    3    0    1
 -2      1424      1522      1541      2012
 -1      4498    3    0    1
 -2      2243      2196      2308      2606
 -1      4499    3    0    1
 -2      1340       907      1084      2011
 -1      4500    3    0    1
 -2      1387      1643      1664      2115
 -1      4501    3    0    1
 -2      1396      1501      1611      2010
 -1      4502    3    0    1
 -2      1894      1888      2039      2071
 -1      4503    3    0    1
 -2        16        18       952      2502
 -1      4504    3    0    1
 -2      1047       434      1834      2220
 -1      4505    3    0    1
 -2      2556      2399      2600      2637
 -1      4506    3    0    1
 -2        80       411       977      1867
 -1      4507    3    0    1
 -2       891      1627      2048      2114
 -1      4508    3    0    1
 -2      1265       277      1965      2338
 -1      4509    3    0    1
 -2      1935      1973      2194      2316
 -1      4510    3    0    1
 -2        64        69       968      1868
 -1      4511    3    0    1
 -2      1569      1780      2288      2465
 -1      4512    3    0    1
 -2      2294       568      2319      2490
 -1      4513    3    0    1
 -2      1574      1479      2216      2230
 -1      4514    3    0    1
 -2       300        13      2236      2676
 -1      4515    3    0    1
 -2      1630      1585      1822      2009
 -1      4516    3    0    1
 -2      1479      1574      1764      2230
 -1      4517    3    0    1
 -2      1220       730      2062      2143
 -1      4518    3    0    1
 -2       796       801       808      1869
 -1      4519    3    0    1
 -2       370      2062      2099      2484
 -1      4520    3    0    1
 -2      1535      1385      1640      1887
 -1      4521    3    0    1
 -2      1455      2043      2306      2416
 -1      4522    3    0    1
 -2      1566      1498      1640      1887
 -1      4523    3    0    1
 -2      1379      1407      1563      2256
 -1      4524    3    0    1
 -2      1535      1498      1566      1887
 -1      4525    3    0    1
 -2      1744      1485      1911      2191
 -1      4526    3    0    1
 -2      1471      1606      1807      2020
 -1      4527    3    0    1
 -2      1874      1852      2188      2251
 -1      4528    3    0    1
 -2       402       401      2200      2251
 -1      4529    3    0    1
 -2      1407      1636      1653      1876
 -1      4530    3    0    1
 -2      1538      1499      1651      1876
 -1      4531    3    0    1
 -2      1506      1374      1662      1876
 -1      4532    3    0    1
 -2      1374      1506      1651      1876
 -1      4533    3    0    1
 -2      1499      1374      1651      1876
 -1      4534    3    0    1
 -2       209       371      2024      2140
 -1      4535    3    0    1
 -2      1700       760      2024      2140
 -1      4536    3    0    1
 -2      1665      1229      2099      2140
 -1      4537    3    0    1
 -2      1620      1764      1907      2230
 -1      4538    3    0    1
 -2       726      1877      1219      1021
 -1      4539    3    0    1
 -2      1628      1666      1685      1878
 -1      4540    3    0    1
 -2       396       454      2290      1350
 -1      4541    3    0    1
 -2      1030      1236      2018      1362
 -1      4542    3    0    1
 -2        13       300      2236      2690
 -1      4543    3    0    1
 -2       950        13      2236      2690
 -1      4544    3    0    1
 -2       784       220      1690      2425
 -1      4545    3    0    1
 -2      1524      1785      2061      2655
 -1      4546    3    0    1
 -2       228       230       783      2287
 -1      4547    3    0    1
 -2       783       230      1996      2287
 -1      4548    3    0    1
 -2      1411      1465      1830      1941
 -1      4549    3    0    1
 -2      1147      1617      1658      1969
 -1      4550    3    0    1
 -2       535      1533      1873      1969
 -1      4551    3    0    1
 -2       679      1008      1682      1897
 -1      4552    3    0    1
 -2      2100      2129      2198      2754
 -1      4553    3    0    1
 -2      1276      1067      2403      2592
 -1      4554    3    0    1
 -2       168       166       711      2694
 -1      4555    3    0    1
 -2       134       663       664      1882
 -1      4556    3    0    1
 -2       134      1000      1192      1882
 -1      4557    3    0    1
 -2      1192      1000      1791      1882
 -1      4558    3    0    1
 -2      1709      1667      1844      1883
 -1      4559    3    0    1
 -2      2441       167      1664       333
 -1      4560    3    0    1
 -2       795      1040      1886      2654
 -1      4561    3    0    1
 -2      1514      1497      1703      2067
 -1      4562    3    0    1
 -2      1913      1630      2009      2460
 -1      4563    3    0    1
 -2      1588      1885      2337      2707
 -1      4564    3    0    1
 -2      1470      1572      2726      2727
 -1      4565    3    0    1
 -2       372      2645      1348      2741
 -1      4566    3    0    1
 -2      1894      1553      2039      2458
 -1      4567    3    0    1
 -2      1845      1592      2065      2533
 -1      4568    3    0    1
 -2      1928       886      1938      2424
 -1      4569    3    0    1
 -2      2474      2124      2495      2510
 -1      4570    3    0    1
 -2      2017       937      2038      2154
 -1      4571    3    0    1
 -2       736       759      2097      2158
 -1      4572    3    0    1
 -2       885      1282      1069      2424
 -1      4573    3    0    1
 -2      1956      2162      2167      2685
 -1      4574    3    0    1
 -2       678      1200      1599      2397
 -1      4575    3    0    1
 -2       231       784      2157      2425
 -1      4576    3    0    1
 -2      1468      1455      2306      2485
 -1      4577    3    0    1
 -2       333       167      1625      2441
 -1      4578    3    0    1
 -2       855       856      2131      2314
 -1      4579    3    0    1
 -2      1571      1911      2112      2656
 -1      4580    3    0    1
 -2       795       778      1036      1886
 -1      4581    3    0    1
 -2       795      1036      1245      1886
 -1      4582    3    0    1
 -2       778       795      1040      1886
 -1      4583    3    0    1
 -2       778      1040      1239      1886
 -1      4584    3    0    1
 -2      1819      1892      1906      2446
 -1      4585    3    0    1
 -2      1891      1716      2238      2507
 -1      4586    3    0    1
 -2      1492      1716      2253      2507
 -1      4587    3    0    1
 -2      1615      2219      2297      2455
 -1      4588    3    0    1
 -2       241      2027      2481      1364
 -1      4589    3    0    1
 -2      1427      1600      1717      2030
 -1      4590    3    0    1
 -2      1427      1481      1675      2030
 -1      4591    3    0    1
 -2      1481      1495      1675      2030
 -1      4592    3    0    1
 -2      1600      1556      1717      2030
 -1      4593    3    0    1
 -2      1420      2032      2627      2718
 -1      4594    3    0    1
 -2       149      1999      2540      2558
 -1      4595    3    0    1
 -2       414       407       983      2040
 -1      4596    3    0    1
 -2      1246       798      1814      2686
 -1      4597    3    0    1
 -2       414       983      1177      2040
 -1      4598    3    0    1
 -2      1528      1390      2077      2078
 -1      4599    3    0    1
 -2      1708      1576      1712      2239
 -1      4600    3    0    1
 -2      1853      1613      1917      1921
 -1      4601    3    0    1
 -2      1613      1381      1917      1921
 -1      4602    3    0    1
 -2      1201      1720      1721      1897
 -1      4603    3    0    1
 -2       345      1029      1227      2293
 -1      4604    3    0    1
 -2       679       678      1599      1897
 -1      4605    3    0    1
 -2      1682      1008      1872      1897
 -1      4606    3    0    1
 -2      1008      1599      1872      1897
 -1      4607    3    0    1
 -2      1007      1201      1721      1897
 -1      4608    3    0    1
 -2      1201      1007       679      1897
 -1      4609    3    0    1
 -2       678       679      1007      1897
 -1      4610    3    0    1
 -2      1007      1599      1897      1721
 -1      4611    3    0    1
 -2      1495      1481      1556      2030
 -1      4612    3    0    1
 -2       342       336      1851      2472
 -1      4613    3    0    1
 -2      1531      1405      1553      1941
 -1      4614    3    0    1
 -2       321      1325      1099      1899
 -1      4615    3    0    1
 -2       926      1325      1722      1899
 -1      4616    3    0    1
 -2       918      1325       926      1899
 -1      4617    3    0    1
 -2      1325       339      1722      1899
 -1      4618    3    0    1
 -2      1325       321       339      1899
 -1      4619    3    0    1
 -2       544       400      2377      2411
 -1      4620    3    0    1
 -2       183       179       735      1901
 -1      4621    3    0    1
 -2       179       183      1218      1901
 -1      4622    3    0    1
 -2      1861       407      2040      2060
 -1      4623    3    0    1
 -2       441       226      2506      2708
 -1      4624    3    0    1
 -2      1471      1448      1606      2034
 -1      4625    3    0    1
 -2      2245      2124      2395      2431
 -1      4626    3    0    1
 -2      1801      1395      2034      2098
 -1      4627    3    0    1
 -2      1965       456      2291      2314
 -1      4628    3    0    1
 -2      1497      1093      1703      2067
 -1      4629    3    0    1
 -2       183      1622       735       736
 -1      4630    3    0    1
 -2      1622       183       735      1901
 -1      4631    3    0    1
 -2       183      1022      1218      1901
 -1      4632    3    0    1
 -2       230      1958      1993      1996
 -1      4633    3    0    1
 -2      1950      1741      2011      2605
 -1      4634    3    0    1
 -2       606      1176      1948      2389
 -1      4635    3    0    1
 -2      1028       205      1936      2518
 -1      4636    3    0    1
 -2      1729      1264      1740      2059
 -1      4637    3    0    1
 -2       847      1264      1729      2059
 -1      4638    3    0    1
 -2       630       631      1711      2271
 -1      4639    3    0    1
 -2      1082       316      2249      2308
 -1      4640    3    0    1
 -2      1106      1097      1644      2254
 -1      4641    3    0    1
 -2       982       604      2322      2325
 -1      4642    3    0    1
 -2       604      2296      2322      2325
 -1      4643    3    0    1
 -2       435       262      1046      2554
 -1      4644    3    0    1
 -2      2524      2160      2618      2704
 -1      4645    3    0    1
 -2        71       410      2744      2768
 -1      4646    3    0    1
 -2      1950      1741      2605      2701
 -1      4647    3    0    1
 -2      1884      2152      2748      2761
 -1      4648    3    0    1
 -2      1716      1891      2238      2253
 -1      4649    3    0    1
 -2      1574      1546      1764      1907
 -1      4650    3    0    1
 -2       332      1620      1699      1907
 -1      4651    3    0    1
 -2       332      1699      1764      1907
 -1      4652    3    0    1
 -2      1699      1620      1764      1907
 -1      4653    3    0    1
 -2      1629      1247      1903      1908
 -1      4654    3    0    1
 -2      1715      1758      2264      2268
 -1      4655    3    0    1
 -2      1550      1706      1994      2111
 -1      4656    3    0    1
 -2       437      1041      1247      1908
 -1      4657    3    0    1
 -2      1247      1041      1903      1908
 -1      4658    3    0    1
 -2      1460      1405      1565      2090
 -1      4659    3    0    1
 -2      1015       703      1579      2148
 -1      4660    3    0    1
 -2      1814      1595      2092      2400
 -1      4661    3    0    1
 -2      1087      1949      2467      2658
 -1      4662    3    0    1
 -2       174      1015      1579      2148
 -1      4663    3    0    1
 -2       256      1989      2471      2749
 -1      4664    3    0    1
 -2      1730      1687      2156      2567
 -1      4665    3    0    1
 -2      1532      1378      2266      2273
 -1      4666    3    0    1
 -2       783       760      2024      2224
 -1      4667    3    0    1
 -2       129       131      2166      2699
 -1      4668    3    0    1
 -2      1868       968      2107      2229
 -1      4669    3    0    1
 -2      1433      1391      1633      2046
 -1      4670    3    0    1
 -2      1545      1393      1848      2117
 -1      4671    3    0    1
 -2      1385      1418      1725      2133
 -1      4672    3    0    1
 -2      1469      1984      2082      2228
 -1      4673    3    0    1
 -2      2073      1857      2104      2228
 -1      4674    3    0    1
 -2      1585      1695      1637      2144
 -1      4675    3    0    1
 -2       723      1217      1577      2449
 -1      4676    3    0    1
 -2      1441      1705      2419      2620
 -1      4677    3    0    1
 -2      1661      2210      2588      2604
 -1      4678    3    0    1
 -2      1675      1481      1839      1942
 -1      4679    3    0    1
 -2       427       428      1976      2692
 -1      4680    3    0    1
 -2      2555      1485      2588      2604
 -1      4681    3    0    1
 -2       906      1321      1308      2433
 -1      4682    3    0    1
 -2      1246      1595      2270      2686
 -1      4683    3    0    1
 -2      1964      1329      2007      2534
 -1      4684    3    0    1
 -2      1984      1469      2073      2228
 -1      4685    3    0    1
 -2       462       347      2181      2265
 -1      4686    3    0    1
 -2       347      1314      1108      2265
 -1      4687    3    0    1
 -2       347      1108      2181      2265
 -1      4688    3    0    1
 -2      1378      1428      1532      2266
 -1      4689    3    0    1
 -2      1314       347       462      2265
 -1      4690    3    0    1
 -2      1432      1613      1714      1917
 -1      4691    3    0    1
 -2      1543      1432      1714      1917
 -1      4692    3    0    1
 -2      1543      1696      1853      1917
 -1      4693    3    0    1
 -2      1432      1543      1613      1917
 -1      4694    3    0    1
 -2      1613      1543      1853      1917
 -1      4695    3    0    1
 -2      1716      1583      1859      2253
 -1      4696    3    0    1
 -2      1522      1424      1541      1918
 -1      4697    3    0    1
 -2        12        35      2087      2405
 -1      4698    3    0    1
 -2       314      1070      1289      2208
 -1      4699    3    0    1
 -2      1070       417      1515      2208
 -1      4700    3    0    1
 -2      1818      1919      2181      2265
 -1      4701    3    0    1
 -2      1108      1314      1676      2265
 -1      4702    3    0    1
 -2       321       339      1551      2254
 -1      4703    3    0    1
 -2      1419      1802      1862      2088
 -1      4704    3    0    1
 -2      1541      1424      1759      1918
 -1      4705    3    0    1
 -2      1759      1928      2207      2390
 -1      4706    3    0    1
 -2      1928      1759      2268      2390
 -1      4707    3    0    1
 -2      1614      2353      2583      2607
 -1      4708    3    0    1
 -2       913      1344       944      1919
 -1      4709    3    0    1
 -2      1548      1424      1918      2264
 -1      4710    3    0    1
 -2      1589      2037      2055      2329
 -1      4711    3    0    1
 -2      2079      1525      2088      2267
 -1      4712    3    0    1
 -2      1525      2079      2090      2267
 -1      4713    3    0    1
 -2      1419      2079      2088      2267
 -1      4714    3    0    1
 -2      1508      1518      1530      1983
 -1      4715    3    0    1
 -2      2077      1551      2212      2238
 -1      4716    3    0    1
 -2       192       185      2062      2484
 -1      4717    3    0    1
 -2      1564      1828      1832      2192
 -1      4718    3    0    1
 -2      1622       192      2158      2484
 -1      4719    3    0    1
 -2      1568      1644      1745      2191
 -1      4720    3    0    1
 -2      1740      1264      1831      2059
 -1      4721    3    0    1
 -2       510       511      1754      1924
 -1      4722    3    0    1
 -2       511       510       957      1924
 -1      4723    3    0    1
 -2      1418      1385      1535      2133
 -1      4724    3    0    1
 -2      1418      1535      1656      2133
 -1      4725    3    0    1
 -2       688       154      2482      2558
 -1      4726    3    0    1
 -2      1520      1555      1594      1927
 -1      4727    3    0    1
 -2      1080       903      1777      1930
 -1      4728    3    0    1
 -2      1338      1080      1562      1930
 -1      4729    3    0    1
 -2      1055      1057       846      2352
 -1      4730    3    0    1
 -2      2551      1421      2586      2768
 -1      4731    3    0    1
 -2      1645      1587      1954      2104
 -1      4732    3    0    1
 -2      1128      2360      2363      2747
 -1      4733    3    0    1
 -2      1759      1918      2268      2390
 -1      4734    3    0    1
 -2      1857       384      1953      2104
 -1      4735    3    0    1
 -2      1442      1562      1777      1930
 -1      4736    3    0    1
 -2      1857      1953      2073      2104
 -1      4737    3    0    1
 -2      1814      2092      2279      2400
 -1      4738    3    0    1
 -2      1835      2277      2544      2545
 -1      4739    3    0    1
 -2      1782      1984      2015      2073
 -1      4740    3    0    1
 -2      2081      1531      2240      2537
 -1      4741    3    0    1
 -2      1008       679      1682      1934
 -1      4742    3    0    1
 -2      1682       679      1767      1934
 -1      4743    3    0    1
 -2      1442      1777      1979      2004
 -1      4744    3    0    1
 -2      1765      1209      1841      1934
 -1      4745    3    0    1
 -2      1412      1447      1561      2004
 -1      4746    3    0    1
 -2      1836      2023      2149      2233
 -1      4747    3    0    1
 -2      1719       453      2743      2764
 -1      4748    3    0    1
 -2      1490      1438      1787      2193
 -1      4749    3    0    1
 -2      1935      1397      2192      2193
 -1      4750    3    0    1
 -2      2076      1193      2183      2549
 -1      4751    3    0    1
 -2      1201      1720      1897      2005
 -1      4752    3    0    1
 -2      1859      1583      2078      2255
 -1      4753    3    0    1
 -2      1722      1660      1899      1937
 -1      4754    3    0    1
 -2        68      1762      2019      2565
 -1      4755    3    0    1
 -2       339      1722      1899      1937
 -1      4756    3    0    1
 -2       321       339      1899      1937
 -1      4757    3    0    1
 -2       339       321      1551      1937
 -1      4758    3    0    1
 -2      1660      1551      1899      1937
 -1      4759    3    0    1
 -2      1551       321      1899      1937
 -1      4760    3    0    1
 -2      2044      1227      2293      2317
 -1      4761    3    0    1
 -2       885      1281       886      1938
 -1      4762    3    0    1
 -2      1280       305      1281      1938
 -1      4763    3    0    1
 -2       890      1289      1825      2208
 -1      4764    3    0    1
 -2       886      1281      1928      1938
 -1      4765    3    0    1
 -2      1886       778      2418      2641
 -1      4766    3    0    1
 -2      1326       918       926      2168
 -1      4767    3    0    1
 -2       332      1021      1699      2547
 -1      4768    3    0    1
 -2      1169        83      2008      2350
 -1      4769    3    0    1
 -2      2325       586      2346      2350
 -1      4770    3    0    1
 -2      1658      1617      1980      2170
 -1      4771    3    0    1
 -2      1278       883      1277      2562
 -1      4772    3    0    1
 -2      1403      1456      2532      2652
 -1      4773    3    0    1
 -2      1620      1671      1907      2547
 -1      4774    3    0    1
 -2      1217       723      2376      2449
 -1      4775    3    0    1
 -2      1340       439      1753      2275
 -1      4776    3    0    1
 -2      1527      1472      1581      2168
 -1      4777    3    0    1
 -2       918      1581      1899      2168
 -1      4778    3    0    1
 -2      1589      2329      2389      2670
 -1      4779    3    0    1
 -2      1809      1817      2101      2408
 -1      4780    3    0    1
 -2      1177       983       606      2179
 -1      4781    3    0    1
 -2       926       918      1899      2168
 -1      4782    3    0    1
 -2      1638      1415      1805      1952
 -1      4783    3    0    1
 -2       808       239      1869      2716
 -1      4784    3    0    1
 -2      1505      1540      1909      2409
 -1      4785    3    0    1
 -2       333      1574      1619      2216
 -1      4786    3    0    1
 -2      1464      2053      2093      2526
 -1      4787    3    0    1
 -2      1946      1532      2266      2273
 -1      4788    3    0    1
 -2       279       855       856      2347
 -1      4789    3    0    1
 -2      2160      2261      2524      2619
 -1      4790    3    0    1
 -2       435       831      1804      2554
 -1      4791    3    0    1
 -2      1465      1553      2039      2071
 -1      4792    3    0    1
 -2       984       607      1176      1948
 -1      4793    3    0    1
 -2       468       424      1076      2187
 -1      4794    3    0    1
 -2       607       606      1176      1948
 -1      4795    3    0    1
 -2       394      1127      2361      2550
 -1      4796    3    0    1
 -2      1950      1084      2011      2275
 -1      4797    3    0    1
 -2      1087       438      1341      1949
 -1      4798    3    0    1
 -2      1749       654      1851      2161
 -1      4799    3    0    1
 -2      1009      1208      2601      1346
 -1      4800    3    0    1
 -2       999       654      1808      2161
 -1      4801    3    0    1
 -2      1697      1522      2016      2036
 -1      4802    3    0    1
 -2       231      2177      2394      2400
 -1      4803    3    0    1
 -2       149       154      2558      2691
 -1      4804    3    0    1
 -2      1333       305       458      2207
 -1      4805    3    0    1
 -2      1404      2446      2465      2477
 -1      4806    3    0    1
 -2      1569      1404      2465      2477
 -1      4807    3    0    1
 -2      1982      2288      2465      2477
 -1      4808    3    0    1
 -2      1404      1819      2446      2477
 -1      4809    3    0    1
 -2       430       384      1264      2476
 -1      4810    3    0    1
 -2      1603      1530      1839      1983
 -1      4811    3    0    1
 -2       442      1679      2391      2637
 -1      4812    3    0    1
 -2       136       137      1882      2401
 -1      4813    3    0    1
 -2      1056       846      1810      1984
 -1      4814    3    0    1
 -2       846      1795      1810      1984
 -1      4815    3    0    1
 -2       984       607      1948      1963
 -1      4816    3    0    1
 -2      1480       437      1629      2147
 -1      4817    3    0    1
 -2      1508      1603      1675      1983
 -1      4818    3    0    1
 -2      1508      1530      1603      1983
 -1      4819    3    0    1
 -2      1994      2109      2111      2146
 -1      4820    3    0    1
 -2      2124      1981      2245      2495
 -1      4821    3    0    1
 -2       760      1700      2024      2224
 -1      4822    3    0    1
 -2      1820      1902      2202      2368
 -1      4823    3    0    1
 -2      1472      1581      1932      1900
 -1      4824    3    0    1
 -2      1675      1481      1947      1983
 -1      4825    3    0    1
 -2       760      1423      1700      2224
 -1      4826    3    0    1
 -2       727      1219      1883      2237
 -1      4827    3    0    1
 -2       759      1829      2097      2158
 -1      4828    3    0    1
 -2       760       211      1423      2224
 -1      4829    3    0    1
 -2      1460      1554      2090      2110
 -1      4830    3    0    1
 -2      1565      1460      2090      2110
 -1      4831    3    0    1
 -2      2285       965      2368      2428
 -1      4832    3    0    1
 -2      1550      1706      1966      1994
 -1      4833    3    0    1
 -2      1933      1550      1966      1994
 -1      4834    3    0    1
 -2        66       568      1602      1960
 -1      4835    3    0    1
 -2        66       390       568      1960
 -1      4836    3    0    1
 -2       682       699      1794      2564
 -1      4837    3    0    1
 -2      1483      2150      2494      2517
 -1      4838    3    0    1
 -2      2109      1374      2111      2146
 -1      4839    3    0    1
 -2      1510      1708      1833      1971
 -1      4840    3    0    1
 -2      1670      1824      2214      2582
 -1      4841    3    0    1
 -2      1619      1387      1664      2216
 -1      4842    3    0    1
 -2      1656      1497      2067      2133
 -1      4843    3    0    1
 -2      1872       150      2013      2397
 -1      4844    3    0    1
 -2      1634      1437      1798      2402
 -1      4845    3    0    1
 -2      1833      1693      1925      1971
 -1      4846    3    0    1
 -2      1772      1734      2412      2557
 -1      4847    3    0    1
 -2      1980       969      2068      2123
 -1      4848    3    0    1
 -2       384       430      1587      2476
 -1      4849    3    0    1
 -2       976       582      2341      2437
 -1      4850    3    0    1
 -2      1727      1569      1780      2063
 -1      4851    3    0    1
 -2      1775        28      2126      2132
 -1      4852    3    0    1
 -2       291       425      2660      2661
 -1      4853    3    0    1
 -2       259       264       832      2313
 -1      4854    3    0    1
 -2      1504      1573      2192      2292
 -1      4855    3    0    1
 -2       189       174       735      1991
 -1      4856    3    0    1
 -2       348      1726      1784      2122
 -1      4857    3    0    1
 -2      1736      1550      1933      1994
 -1      4858    3    0    1
 -2      1419      1565      2090      2110
 -1      4859    3    0    1
 -2      1728      1705      2074      2475
 -1      4860    3    0    1
 -2       351      1211      2491      2668
 -1      4861    3    0    1
 -2      2378      2393      2489      2508
 -1      4862    3    0    1
 -2       557        68       565      1345
 -1      4863    3    0    1
 -2      1842      1903      2225      2610
 -1      4864    3    0    1
 -2       383      1262      1965      2291
 -1      4865    3    0    1
 -2       456       383      1262      1965
 -1      4866    3    0    1
 -2       345       343      1829      2317
 -1      4867    3    0    1
 -2       699       706      2234      2564
 -1      4868    3    0    1
 -2      1684       348      1784      2122
 -1      4869    3    0    1
 -2      1007       348      1721      2122
 -1      4870    3    0    1
 -2       174       712       735      1991
 -1      4871    3    0    1
 -2        94       615      2380      2640
 -1      4872    3    0    1
 -2       970      1680      2029      2340
 -1      4873    3    0    1
 -2       456       383      1965      2291
 -1      4874    3    0    1
 -2      2295        49      2729      2757
 -1      4875    3    0    1
 -2      1573      1397      2192      2292
 -1      4876    3    0    1
 -2       970       559      1680      2340
 -1      4877    3    0    1
 -2      1645      1751      1802      2088
 -1      4878    3    0    1
 -2      1471      1801      2034      2098
 -1      4879    3    0    1
 -2       993       342      1851      2331
 -1      4880    3    0    1
 -2      1262      1258      1965      2291
 -1      4881    3    0    1
 -2        49      2295      2321      2344
 -1      4882    3    0    1
 -2       183      1022      1901      1988
 -1      4883    3    0    1
 -2       640      2227      2546      2630
 -1      4884    3    0    1
 -2      1218      1022      1502      1988
 -1      4885    3    0    1
 -2      1022       344      1650      1988
 -1      4886    3    0    1
 -2       117       363       990      2356
 -1      4887    3    0    1
 -2       483      1127      2330      2632
 -1      4888    3    0    1
 -2      2471       819      2492      2669
 -1      4889    3    0    1
 -2      2174      1967      2217      2595
 -1      4890    3    0    1
 -2      1130       490      2361      2632
 -1      4891    3    0    1
 -2      1492      1891      2253      2483
 -1      4892    3    0    1
 -2      2117      1848      2526      2529
 -1      4893    3    0    1
 -2       434      1834      2220      2235
 -1      4894    3    0    1
 -2       544       400      1762      1345
 -1      4895    3    0    1
 -2      2119      1951      2584      2695
 -1      4896    3    0    1
 -2      1271      2290      2359      1350
 -1      4897    3    0    1
 -2      1312      1122      2396      2697
 -1      4898    3    0    1
 -2       391      2064      2377      2523
 -1      4899    3    0    1
 -2      1412      1442      1647      1979
 -1      4900    3    0    1
 -2      2059      1729      2298      2328
 -1      4901    3    0    1
 -2      1563      1593      2048      2114
 -1      4902    3    0    1
 -2      1391      1633      2046      2125
 -1      4903    3    0    1
 -2      1382      1736      1933      1994
 -1      4904    3    0    1
 -2      1209      1015      2415      2643
 -1      4905    3    0    1
 -2      1511      1633      1643      2125
 -1      4906    3    0    1
 -2      1775       519      2087      2126
 -1      4907    3    0    1
 -2      1375      1490      1564      2374
 -1      4908    3    0    1
 -2        28       446       519      2126
 -1      4909    3    0    1
 -2        28       519      1775      2126
 -1      4910    3    0    1
 -2      1633      1511      2046      2125
 -1      4911    3    0    1
 -2      2150      1413      2494      2572
 -1      4912    3    0    1
 -2      1555      1475      1927      2468
 -1      4913    3    0    1
 -2      2274      2160      2448      2466
 -1      4914    3    0    1
 -2      2119      1421      2585      2695
 -1      4915    3    0    1
 -2      1995      1559      1998      2105
 -1      4916    3    0    1
 -2       384      1056      1953      1984
 -1      4917    3    0    1
 -2      1803      1661      2137      2392
 -1      4918    3    0    1
 -2      1753      1774      2275      2420
 -1      4919    3    0    1
 -2      1405      1531      1553      2537
 -1      4920    3    0    1
 -2      1437      1515      1570      2208
 -1      4921    3    0    1
 -2      1534      1541      1759      1986
 -1      4922    3    0    1
 -2       911      1534      1759      1986
 -1      4923    3    0    1
 -2      1798       890      1825      2208
 -1      4924    3    0    1
 -2      1645      1412      1751      2088
 -1      4925    3    0    1
 -2      1995      1559      2089      2091
 -1      4926    3    0    1
 -2      1377      1408      2574      2665
 -1      4927    3    0    1
 -2      1650      1022      1988      2085
 -1      4928    3    0    1
 -2      2225      2257      2553      2610
 -1      4929    3    0    1
 -2      1737      1045      2387      2669
 -1      4930    3    0    1
 -2       183       344      1022      1988
 -1      4931    3    0    1
 -2       342      1943      2227      2472
 -1      4932    3    0    1
 -2       385       279      1639      2260
 -1      4933    3    0    1
 -2      1009       682      2500      2564
 -1      4934    3    0    1
 -2      1504      1573      2292      2315
 -1      4935    3    0    1
 -2      1851      1793      2331      2472
 -1      4936    3    0    1
 -2       279       385       855      2260
 -1      4937    3    0    1
 -2       514       531      2252      2320
 -1      4938    3    0    1
 -2       567       568      1960      2319
 -1      4939    3    0    1
 -2       150       331      2013      2397
 -1      4940    3    0    1
 -2      1661      1583      1803      2255
 -1      4941    3    0    1
 -2      1837      1913      2009      2460
 -1      4942    3    0    1
 -2      1397      1573      1973      2292
 -1      4943    3    0    1
 -2      2393      1482      2489      2508
 -1      4944    3    0    1
 -2      2184      1475      2539      2621
 -1      4945    3    0    1
 -2      2137      1863      2161      2255
 -1      4946    3    0    1
 -2      1803      1863      2137      2255
 -1      4947    3    0    1
 -2       167      1014      1625      2452
 -1      4948    3    0    1
 -2      1265      2312      2334      2338
 -1      4949    3    0    1
 -2      1795       846      1810      2172
 -1      4950    3    0    1
 -2      1673      1484      2089      2628
 -1      4951    3    0    1
 -2       345       443      1029      2293
 -1      4952    3    0    1
 -2      1664      1387      2115      2452
 -1      4953    3    0    1
 -2       682      1794      2500      2564
 -1      4954    3    0    1
 -2      1929      1928      2309      2424
 -1      4955    3    0    1
 -2       129       998      1194      2699
 -1      4956    3    0    1
 -2      1795      1782      2134      2172
 -1      4957    3    0    1
 -2       370      1700      2158      2484
 -1      4958    3    0    1
 -2      1138       421      1968      2284
 -1      4959    3    0    1
 -2       983      1589      2040      2055
 -1      4960    3    0    1
 -2      1733      1956      2162      2167
 -1      4961    3    0    1
 -2      1846      1880      1905      2025
 -1      4962    3    0    1
 -2      1494      1846      1905      2025
 -1      4963    3    0    1
 -2       189       174      1991      2646
 -1      4964    3    0    1
 -2       436      1042      1752      2225
 -1      4965    3    0    1
 -2       136      1773      2401      2497
 -1      4966    3    0    1
 -2      1209      1841      1934      2232
 -1      4967    3    0    1
 -2      1799      1411      1830      2462
 -1      4968    3    0    1
 -2       966        48      1873      2411
 -1      4969    3    0    1
 -2      1568      1644      2191      2483
 -1      4970    3    0    1
 -2      1885      2333      2627      2706
 -1      4971    3    0    1
 -2       687       149       688      1999
 -1      4972    3    0    1
 -2       151      1383      1872      1999
 -1      4973    3    0    1
 -2      1682      1767      2005      2303
 -1      4974    3    0    1
 -2      1765      1572      1767      2303
 -1      4975    3    0    1
 -2      1747      1750      1889      2304
 -1      4976    3    0    1
 -2       677       687       688      1999
 -1      4977    3    0    1
 -2       677       150       687      1999
 -1      4978    3    0    1
 -2       151       150       680      1999
 -1      4979    3    0    1
 -2       151       680       688      1999
 -1      4980    3    0    1
 -2       150       677       680      1999
 -1      4981    3    0    1
 -2       680       677       688      1999
 -1      4982    3    0    1
 -2      1838      1628      1878      2022
 -1      4983    3    0    1
 -2       407      1652      2055      2060
 -1      4984    3    0    1
 -2       344      1022      1650      2414
 -1      4985    3    0    1
 -2       752      1029      1993      2222
 -1      4986    3    0    1
 -2      1395      1549      1677      2034
 -1      4987    3    0    1
 -2      1447      1604      1931      2072
 -1      4988    3    0    1
 -2      1689      2081      2240      2612
 -1      4989    3    0    1
 -2       211      1423      1993      2222
 -1      4990    3    0    1
 -2      1836      1834      2023      2233
 -1      4991    3    0    1
 -2       702      1014      1765      2003
 -1      4992    3    0    1
 -2      1629      1842      2149      2233
 -1      4993    3    0    1
 -2      1447      1079      1561      2004
 -1      4994    3    0    1
 -2       938       903      1930      2004
 -1      4995    3    0    1
 -2      1079      1117      1561      2004
 -1      4996    3    0    1
 -2      1442      1412      1561      2004
 -1      4997    3    0    1
 -2      1442       938      1930      2004
 -1      4998    3    0    1
 -2       903      1117      1079      2004
 -1      4999    3    0    1
 -2       938      1442      1561      2004
 -1      5000    3    0    1
 -2      1117       903       938      2004
 -1      5001    3    0    1
 -2      1117       938      1561      2004
 -1      5002    3    0    1
 -2      1201       679      1767      2005
 -1      5003    3    0    1
 -2       899       935      1114      2408
 -1      5004    3    0    1
 -2      1227      1029      2044      2293
 -1      5005    3    0    1
 -2      1427      1738      1947      2030
 -1      5006    3    0    1
 -2       856       277      2131      2314
 -1      5007    3    0    1
 -2       443      1423      2222      2293
 -1      5008    3    0    1
 -2      1494      1393      2453      2529
 -1      5009    3    0    1
 -2      1532       407      1652      2055
 -1      5010    3    0    1
 -2      1652      1697      2016      2055
 -1      5011    3    0    1
 -2      1547      1697      1806      2055
 -1      5012    3    0    1
 -2      2213      1377      2707      2722
 -1      5013    3    0    1
 -2      2272       628      2324      2345
 -1      5014    3    0    1
 -2       558      1980      2068      2170
 -1      5015    3    0    1
 -2      1453      1627      1839      2114
 -1      5016    3    0    1
 -2      1617       558      2068      2170
 -1      5017    3    0    1
 -2      1781      1417      2096      2479
 -1      5018    3    0    1
 -2      2054       406      2310      2594
 -1      5019    3    0    1
 -2      1680      1158      1945      2170
 -1      5020    3    0    1
 -2      2296       610      2322      2345
 -1      5021    3    0    1
 -2       610      1178      2322      2345
 -1      5022    3    0    1
 -2      1681       129      2166      2630
 -1      5023    3    0    1
 -2      1980      1617      2068      2170
 -1      5024    3    0    1
 -2      1674      2124      2246      2520
 -1      5025    3    0    1
 -2      1840      1210      2164      2398
 -1      5026    3    0    1
 -2      1521      1503      1855      2442
 -1      5027    3    0    1
 -2        36      2295      2743      2764
 -1      5028    3    0    1
 -2        98        92       615      2469
 -1      5029    3    0    1
 -2       711      2057      2573      2694
 -1      5030    3    0    1
 -2      1209       330      1841      2232
 -1      5031    3    0    1
 -2       330       356      1383      2232
 -1      5032    3    0    1
 -2       330      1383      2057      2232
 -1      5033    3    0    1
 -2      2023      1750      2233      2304
 -1      5034    3    0    1
 -2      1682       356      1934      2232
 -1      5035    3    0    1
 -2      1767      1572      2005      2303
 -1      5036    3    0    1
 -2       534       964      1533      2368
 -1      5037    3    0    1
 -2       220       228      2425      2560
 -1      5038    3    0    1
 -2      1981      1985      2495      2510
 -1      5039    3    0    1
 -2      1467      2017      2081      2155
 -1      5040    3    0    1
 -2      1449      1467      1531      2155
 -1      5041    3    0    1
 -2      1531      1467      2081      2155
 -1      5042    3    0    1
 -2      1689      2017      2154      2155
 -1      5043    3    0    1
 -2      1452      1592      1845      2533
 -1      5044    3    0    1
 -2        12      2361      2405      2674
 -1      5045    3    0    1
 -2       345      1829      2293      2317
 -1      5046    3    0    1
 -2       899      1335       935      2408
 -1      5047    3    0    1
 -2      2297      2033      2328      2455
 -1      5048    3    0    1
 -2      1716      1891      2253      2507
 -1      5049    3    0    1
 -2       430      1587      1799      2372
 -1      5050    3    0    1
 -2      1826       193      2730      2737
 -1      5051    3    0    1
 -2      1734      1772      2461      2597
 -1      5052    3    0    1
 -2      1567      1929      2309      2424
 -1      5053    3    0    1
 -2      2745      2336      2760      2773
 -1      5054    3    0    1
 -2      1238      1870      1961      2218
 -1      5055    3    0    1
 -2      1982      1476      2447      2465
 -1      5056    3    0    1
 -2       895      1298      1295      2020
 -1      5057    3    0    1
 -2      2152      1989      2451      2749
 -1      5058    3    0    1
 -2      1719       447      2360      1352
 -1      5059    3    0    1
 -2      1588      1884      2171      2451
 -1      5060    3    0    1
 -2       256       249      1989      2451
 -1      5061    3    0    1
 -2      1046      2134      2457      2554
 -1      5062    3    0    1
 -2       711       688      2482      2573
 -1      5063    3    0    1
 -2      1520      1475      1555      2468
 -1      5064    3    0    1
 -2       399      1968      2083      2501
 -1      5065    3    0    1
 -2      1420      1885      2706      2723
 -1      5066    3    0    1
 -2        13         9      2236      2486
 -1      5067    3    0    1
 -2        16         9       496      2486
 -1      5068    3    0    1
 -2         9       495       496      2486
 -1      5069    3    0    1
 -2      1413      1483      1774      2150
 -1      5070    3    0    1
 -2       209       371       760      2024
 -1      5071    3    0    1
 -2      1749      2108      2137      2568
 -1      5072    3    0    1
 -2       230      1958      1996      2560
 -1      5073    3    0    1
 -2       371       369       760      2024
 -1      5074    3    0    1
 -2       760       369       783      2024
 -1      5075    3    0    1
 -2      1476      1982      2288      2465
 -1      5076    3    0    1
 -2      1659      1627      2048      2383
 -1      5077    3    0    1
 -2      1461      1695      1837      2144
 -1      5078    3    0    1
 -2      2250      1710      2541      2583
 -1      5079    3    0    1
 -2      1762       567      1960      2064
 -1      5080    3    0    1
 -2      1619      1763      1827      2216
 -1      5081    3    0    1
 -2       936       900      1730      2176
 -1      5082    3    0    1
 -2       447      1719      2723      2764
 -1      5083    3    0    1
 -2       467       419      1817      2176
 -1      5084    3    0    1
 -2      1569      1404      1780      2465
 -1      5085    3    0    1
 -2      1922      1982      2447      2465
 -1      5086    3    0    1
 -2      2053      2442      2093      2493
 -1      5087    3    0    1
 -2      1687      1730      2151      2176
 -1      5088    3    0    1
 -2       419      1304      1115      2176
 -1      5089    3    0    1
 -2       747      1023      1226      2026
 -1      5090    3    0    1
 -2       747       730      1023      2026
 -1      5091    3    0    1
 -2      1493      1388      1866      2102
 -1      5092    3    0    1
 -2      1738      1493      1866      2102
 -1      5093    3    0    1
 -2      1431      1145      2252      2609
 -1      5094    3    0    1
 -2      1145      1139      2252      2609
 -1      5095    3    0    1
 -2      1495      1427      1675      2030
 -1      5096    3    0    1
 -2      1427      1495      1600      2030
 -1      5097    3    0    1
 -2        66       390      1960      2031
 -1      5098    3    0    1
 -2       390        66      1945      2031
 -1      5099    3    0    1
 -2        66       405       970      2031
 -1      5100    3    0    1
 -2      2024       783      2224      2287
 -1      5101    3    0    1
 -2       277       456      1965      2314
 -1      5102    3    0    1
 -2      1639       276      2327      2347
 -1      5103    3    0    1
 -2      2396      1122      2613      2697
 -1      5104    3    0    1
 -2      1973      1935      2292      2316
 -1      5105    3    0    1
 -2       402       969      1159      2200
 -1      5106    3    0    1
 -2      1416      1785      2655      2683
 -1      5107    3    0    1
 -2       228       783      1690      2287
 -1      5108    3    0    1
 -2      2530      1416      1704      2682
 -1      5109    3    0    1
 -2      2053      1464      2117      2526
 -1      5110    3    0    1
 -2      1271      2290      2354      2359
 -1      5111    3    0    1
 -2       968      1868      2281      2514
 -1      5112    3    0    1
 -2        63       968      1160      2514
 -1      5113    3    0    1
 -2       379      1166      2323      1357
 -1      5114    3    0    1
 -2      1699       332      1723      2653
 -1      5115    3    0    1
 -2      2117      1393      2529      2679
 -1      5116    3    0    1
 -2      2555      1485      2604      2656
 -1      5117    3    0    1
 -2       976       404      1392      2499
 -1      5118    3    0    1
 -2      1596      1547      2035      2036
 -1      5119    3    0    1
 -2      1547      1596      1697      2036
 -1      5120    3    0    1
 -2      2012      1596      2035      2036
 -1      5121    3    0    1
 -2      1697      1596      2012      2036
 -1      5122    3    0    1
 -2      2277      2092      2544      2545
 -1      5123    3    0    1
 -2      1547      1596      2035      2037
 -1      5124    3    0    1
 -2       276       279       856      2347
 -1      5125    3    0    1
 -2       966      1873      2195      2411
 -1      5126    3    0    1
 -2       798       800      1903      2270
 -1      5127    3    0    1
 -2      1758      1915      2241      2264
 -1      5128    3    0    1
 -2      1715      1758      2241      2264
 -1      5129    3    0    1
 -2      1949      2274      2448      2466
 -1      5130    3    0    1
 -2      1417      1444      2127      2479
 -1      5131    3    0    1
 -2       341       338       999      2183
 -1      5132    3    0    1
 -2      2330      1273      2527      2550
 -1      5133    3    0    1
 -2       400       544      1762      2411
 -1      5134    3    0    1
 -2       423       965      2285      2428
 -1      5135    3    0    1
 -2      1337       901      1076      2038
 -1      5136    3    0    1
 -2      1852      1685      1997      2188
 -1      5137    3    0    1
 -2      1411      1465      1941      2039
 -1      5138    3    0    1
 -2      1079      1447      1561      2072
 -1      5139    3    0    1
 -2      1689       901      2038      2187
 -1      5140    3    0    1
 -2       424       468      1760      2187
 -1      5141    3    0    1
 -2      1592      1845      1926      2042
 -1      5142    3    0    1
 -2      1592      1452      1845      2042
 -1      5143    3    0    1
 -2      1814       231      2394      2435
 -1      5144    3    0    1
 -2      1943       993      2248      2307
 -1      5145    3    0    1
 -2       450      1796      2381      2487
 -1      5146    3    0    1
 -2      1137       514       507      2362
 -1      5147    3    0    1
 -2       993       631      2248      2307
 -1      5148    3    0    1
 -2      1228      1944      2045      2116
 -1      5149    3    0    1
 -2      1028      1228      2045      2116
 -1      5150    3    0    1
 -2      2466      1414      2618      2704
 -1      5151    3    0    1
 -2       706      2234      2376      2491
 -1      5152    3    0    1
 -2        64        63       568      2319
 -1      5153    3    0    1
 -2       752      1944      1993      2474
 -1      5154    3    0    1
 -2      2351       118      2546      2630
 -1      5155    3    0    1
 -2      2440      1826      2665      2735
 -1      5156    3    0    1
 -2        81      2008      2209      2318
 -1      5157    3    0    1
 -2       531      1904      2252      2320
 -1      5158    3    0    1
 -2       871      1713      2223      2519
 -1      5159    3    0    1
 -2      2157       231      2394      2522
 -1      5160    3    0    1
 -2      1526      1801      1807      2047
 -1      5161    3    0    1
 -2      1378      1526      1529      2047
 -1      5162    3    0    1
 -2      1526      1378      1801      2047
 -1      5163    3    0    1
 -2      1663      1511      2046      2115
 -1      5164    3    0    1
 -2       892       891      1659      2048
 -1      5165    3    0    1
 -2       891       892      1593      2048
 -1      5166    3    0    1
 -2      1229       747       754      2142
 -1      5167    3    0    1
 -2      1511      1633      2046      2115
 -1      5168    3    0    1
 -2      1850      1757      2244      2606
 -1      5169    3    0    1
 -2      1865      2243      2308      2606
 -1      5170    3    0    1
 -2      1030       754      1226      2542
 -1      5171    3    0    1
 -2       754      1030      2173      2542
 -1      5172    3    0    1
 -2      1874      2378      2393      2489
 -1      5173    3    0    1
 -2       754       747      1226      2542
 -1      5174    3    0    1
 -2       880       292      2247      2676
 -1      5175    3    0    1
 -2      1914      1404      2151      2197
 -1      5176    3    0    1
 -2       631      2108      2307      2568
 -1      5177    3    0    1
 -2      1441      1705      1728      2419
 -1      5178    3    0    1
 -2       664       137      1882      2497
 -1      5179    3    0    1
 -2      1437      1388      2102      2402
 -1      5180    3    0    1
 -2       300       292       880      2676
 -1      5181    3    0    1
 -2      1515      1825      2208      2402
 -1      5182    3    0    1
 -2      1636      1653      1876      2139
 -1      5183    3    0    1
 -2      1466      1538      1653      2139
 -1      5184    3    0    1
 -2      1563      1593      2114      2256
 -1      5185    3    0    1
 -2      1499      1538      2120      2139
 -1      5186    3    0    1
 -2      1806      1589      2037      2055
 -1      5187    3    0    1
 -2      1697      1652      1806      2055
 -1      5188    3    0    1
 -2      1589      1806      2040      2055
 -1      5189    3    0    1
 -2       166       330       711      2057
 -1      5190    3    0    1
 -2       330       166      1841      2057
 -1      5191    3    0    1
 -2      1273      2330      2527      2667
 -1      5192    3    0    1
 -2       244       807      1869      2058
 -1      5193    3    0    1
 -2       244      1042      1246      2058
 -1      5194    3    0    1
 -2       316      2049      2249      2308
 -1      5195    3    0    1
 -2       244       239      1042      2058
 -1      5196    3    0    1
 -2      1042       239      1752      2058
 -1      5197    3    0    1
 -2      1393      1494      1848      2529
 -1      5198    3    0    1
 -2      1723      1621      2453      2529
 -1      5199    3    0    1
 -2       630       991      2248      2271
 -1      5200    3    0    1
 -2       992       630      1711      2271
 -1      5201    3    0    1
 -2       991       630      2231      2271
 -1      5202    3    0    1
 -2      1848      2053      2526      2529
 -1      5203    3    0    1
 -2      2182       101      2593      2640
 -1      5204    3    0    1
 -2       407      1532      1652      2060
 -1      5205    3    0    1
 -2       983       407      2055      2060
 -1      5206    3    0    1
 -2      1532       407      1946      2060
 -1      5207    3    0    1
 -2       427      1976      2298      2531
 -1      5208    3    0    1
 -2        92      1477      2169      2322
 -1      5209    3    0    1
 -2      1063      2298      2455      2531
 -1      5210    3    0    1
 -2       427       429      1976      2531
 -1      5211    3    0    1
 -2      2210      2555      2604      2656
 -1      5212    3    0    1
 -2       774      1958      1985      2510
 -1      5213    3    0    1
 -2      1571      2210      2604      2656
 -1      5214    3    0    1
 -2      1386      1524      1785      2061
 -1      5215    3    0    1
 -2      1785      1403      2530      2683
 -1      5216    3    0    1
 -2      1075      1687      1730      2567
 -1      5217    3    0    1
 -2       936      1687      2151      2176
 -1      5218    3    0    1
 -2       586      1169      2346      2350
 -1      5219    3    0    1
 -2      1027       192      1220      2062
 -1      5220    3    0    1
 -2       192       185      1220      2062
 -1      5221    3    0    1
 -2       730      1027      1220      2062
 -1      5222    3    0    1
 -2       370       192      1027      2062
 -1      5223    3    0    1
 -2       730       747      1027      2062
 -1      5224    3    0    1
 -2      2263       583      2410      2498
 -1      5225    3    0    1
 -2       544       567      1762      2064
 -1      5226    3    0    1
 -2        69        64       567      2064
 -1      5227    3    0    1
 -2       531      1146      1904      2320
 -1      5228    3    0    1
 -2       391        69       567      2064
 -1      5229    3    0    1
 -2       544       391       567      2064
 -1      5230    3    0    1
 -2      1585      1637      1822      2118
 -1      5231    3    0    1
 -2      1822      1776      2009      2118
 -1      5232    3    0    1
 -2      1288      1776      1822      2118
 -1      5233    3    0    1
 -2       914      1426      1703      2067
 -1      5234    3    0    1
 -2      1093       914      1703      2067
 -1      5235    3    0    1
 -2      1656      1514      1703      2067
 -1      5236    3    0    1
 -2       631      1711      2271      2307
 -1      5237    3    0    1
 -2      1956      1733      2162      2596
 -1      5238    3    0    1
 -2      2160      2524      2618      2619
 -1      5239    3    0    1
 -2      1066       874       867      2488
 -1      5240    3    0    1
 -2       103       352       616      2069
 -1      5241    3    0    1
 -2       450      1796      1902      2381
 -1      5242    3    0    1
 -2       386      1871      2082      2095
 -1      5243    3    0    1
 -2      1779       341      2076      2549
 -1      5244    3    0    1
 -2       450      1902      2202      2381
 -1      5245    3    0    1
 -2      1984      2015      2082      2095
 -1      5246    3    0    1
 -2      1593       891      2048      2114
 -1      5247    3    0    1
 -2      1511       167      1664      2115
 -1      5248    3    0    1
 -2       490       483      2355      2632
 -1      5249    3    0    1
 -2      1257       386      2082      2095
 -1      5250    3    0    1
 -2       483      2330      2363      2632
 -1      5251    3    0    1
 -2      2015      1257      2082      2095
 -1      5252    3    0    1
 -2       311      1299      1302      2072
 -1      5253    3    0    1
 -2       426      1561      1931      2072
 -1      5254    3    0    1
 -2      1299       426      1931      2072
 -1      5255    3    0    1
 -2       311       426      1299      2072
 -1      5256    3    0    1
 -2       136      1000      1791      2401
 -1      5257    3    0    1
 -2      1953       384      1984      2073
 -1      5258    3    0    1
 -2      1984      1953      1810      1056
 -1      5259    3    0    1
 -2      1953      1984      1810      2073
 -1      5260    3    0    1
 -2      1553      1531      2081      2537
 -1      5261    3    0    1
 -2      1689      2038      2081      2537
 -1      5262    3    0    1
 -2      1444      1756      1779      2127
 -1      5263    3    0    1
 -2       338      1390      2078      2633
 -1      5264    3    0    1
 -2       405      2029      2031      2406
 -1      5265    3    0    1
 -2      1417      1444      1779      2127
 -1      5266    3    0    1
 -2       231      2157      2394      2425
 -1      5267    3    0    1
 -2       778      1036      1886      2371
 -1      5268    3    0    1
 -2      1452      1540      1592      2533
 -1      5269    3    0    1
 -2       802       795      1043      2423
 -1      5270    3    0    1
 -2      1475      1177      1813      2184
 -1      5271    3    0    1
 -2      1813       414      1861      2184
 -1      5272    3    0    1
 -2      2077      1528      2078      2238
 -1      5273    3    0    1
 -2      1382       416      1736      2581
 -1      5274    3    0    1
 -2       414      1613      1921      2184
 -1      5275    3    0    1
 -2       358       149       687      2540
 -1      5276    3    0    1
 -2      1613      1381      1921      2184
 -1      5277    3    0    1
 -2      1381      1613      1854      2184
 -1      5278    3    0    1
 -2      1177       414      1813      2184
 -1      5279    3    0    1
 -2       687       149      1999      2540
 -1      5280    3    0    1
 -2      1193       655      1417      2076
 -1      5281    3    0    1
 -2       341      1193      1779      2076
 -1      5282    3    0    1
 -2      1517      1669      1784      2080
 -1      5283    3    0    1
 -2      1517      1598      1669      2080
 -1      5284    3    0    1
 -2      1138      2284      2617      2622
 -1      5285    3    0    1
 -2      1726      1517      1784      2080
 -1      5286    3    0    1
 -2      1638      1598      1952      2080
 -1      5287    3    0    1
 -2      1638      1952      2061      2080
 -1      5288    3    0    1
 -2      1475      1555      1927      2539
 -1      5289    3    0    1
 -2      1952      1386      2061      2080
 -1      5290    3    0    1
 -2      1401      2428      2438      2622
 -1      5291    3    0    1
 -2      1783      2284      2438      2622
 -1      5292    3    0    1
 -2      1598      1517      1726      2080
 -1      5293    3    0    1
 -2      1598      1386      1952      2080
 -1      5294    3    0    1
 -2      1539      1454      2070      2533
 -1      5295    3    0    1
 -2      1984      2015      2073      2082
 -1      5296    3    0    1
 -2      1469      1984      2073      2082
 -1      5297    3    0    1
 -2       447      2725      2740      2760
 -1      5298    3    0    1
 -2      1805      1638      1952      2128
 -1      5299    3    0    1
 -2       634      1185      2272      2480
 -1      5300    3    0    1
 -2      1509      1474      1530      2083
 -1      5301    3    0    1
 -2       452       455      1431      2084
 -1      5302    3    0    1
 -2       455       452       543      2084
 -1      5303    3    0    1
 -2       543       452      1431      2084
 -1      5304    3    0    1
 -2       520       451       543      2084
 -1      5305    3    0    1
 -2       451       455       543      2084
 -1      5306    3    0    1
 -2       727      1502      1988      2085
 -1      5307    3    0    1
 -2      1502       727      1883      2085
 -1      5308    3    0    1
 -2      1022       727      1988      2085
 -1      5309    3    0    1
 -2       727      1022      1739      2085
 -1      5310    3    0    1
 -2      2174       943      2595      2613
 -1      5311    3    0    1
 -2      1919       913      2074      2086
 -1      5312    3    0    1
 -2       913       944      1123      2086
 -1      5313    3    0    1
 -2       913      1313      2074      2086
 -1      5314    3    0    1
 -2       913      1123      1313      2086
 -1      5315    3    0    1
 -2       519       448      1775      2087
 -1      5316    3    0    1
 -2      1690       228      2287      2425
 -1      5317    3    0    1
 -2      1991       712      2289      2646
 -1      5318    3    0    1
 -2      1445      2494      2517      2675
 -1      5319    3    0    1
 -2      2147      2384      2569      2675
 -1      5320    3    0    1
 -2        35       448       519      2087
 -1      5321    3    0    1
 -2       448        32      1775      2087
 -1      5322    3    0    1
 -2      1972      1130      2361      2405
 -1      5323    3    0    1
 -2      1850      2606      2249      1757
 -1      5324    3    0    1
 -2      1397      2192      2193      2374
 -1      5325    3    0    1
 -2        12        35       519      2087
 -1      5326    3    0    1
 -2       496        12       519      2087
 -1      5327    3    0    1
 -2      1211      1013       699      2234
 -1      5328    3    0    1
 -2      1629      1842      1903      2149
 -1      5329    3    0    1
 -2      1949      2466      2571      2616
 -1      5330    3    0    1
 -2      1247      1629      1903      2149
 -1      5331    3    0    1
 -2      1414      1559      1673      2089
 -1      5332    3    0    1
 -2      1673      1559      1879      2089
 -1      5333    3    0    1
 -2      1419      1565      2079      2090
 -1      5334    3    0    1
 -2      1870      1238      1961      2278
 -1      5335    3    0    1
 -2      1918      2264      2268      2390
 -1      5336    3    0    1
 -2      1520      1959      2014      2271
 -1      5337    3    0    1
 -2      2014      1959      2231      2271
 -1      5338    3    0    1
 -2      1870      2092      2279      2545
 -1      5339    3    0    1
 -2      1961      2091      2218      2545
 -1      5340    3    0    1
 -2      2150      1445      2494      2517
 -1      5341    3    0    1
 -2      1870      2092      2278      2279
 -1      5342    3    0    1
 -2       776      1238      1870      2278
 -1      5343    3    0    1
 -2      1961       442      2218      2443
 -1      5344    3    0    1
 -2      1559      1995      1998      2443
 -1      5345    3    0    1
 -2       103       357      1766      2094
 -1      5346    3    0    1
 -2       616       103      2069      2094
 -1      5347    3    0    1
 -2       357       103       639      2094
 -1      5348    3    0    1
 -2       103       616       639      2094
 -1      5349    3    0    1
 -2      1871      1469      2082      2095
 -1      5350    3    0    1
 -2       446        18      1582      2557
 -1      5351    3    0    1
 -2      1721      2479      1684      1781
 -1      5352    3    0    1
 -2      2213      1588      2337      2722
 -1      5353    3    0    1
 -2      1208      2205      2564      2601
 -1      5354    3    0    1
 -2      1959      2231      2516      2598
 -1      5355    3    0    1
 -2      1007      1721      1781      2096
 -1      5356    3    0    1
 -2      1007      1599      1721      2096
 -1      5357    3    0    1
 -2      1007       678      1599      2096
 -1      5358    3    0    1
 -2      1210       703      2164      2398
 -1      5359    3    0    1
 -2      1634      1798      1825      2402
 -1      5360    3    0    1
 -2      1417       678      1781      2096
 -1      5361    3    0    1
 -2       703      1579      2164      2398
 -1      5362    3    0    1
 -2      1388      1437      1634      2402
 -1      5363    3    0    1
 -2       678      1007      1781      2096
 -1      5364    3    0    1
 -2      1543      1677      1801      2098
 -1      5365    3    0    1
 -2      1543      1801      1853      2098
 -1      5366    3    0    1
 -2      1730      1914      2151      2176
 -1      5367    3    0    1
 -2       209      1027      1229      2099
 -1      5368    3    0    1
 -2      1229      1027      1665      2099
 -1      5369    3    0    1
 -2      1625      1014      2003      2141
 -1      5370    3    0    1
 -2       207       370      1027      2099
 -1      5371    3    0    1
 -2       628       634      2272      2324
 -1      5372    3    0    1
 -2       663       664      1882      2497
 -1      5373    3    0    1
 -2      1588      2213      2707      2722
 -1      5374    3    0    1
 -2      1546      1399      2066      2526
 -1      5375    3    0    1
 -2       419      1115      2151      2176
 -1      5376    3    0    1
 -2      1169      2008      2346      2350
 -1      5377    3    0    1
 -2      1951      1458      2198      2585
 -1      5378    3    0    1
 -2       858       857      1271      1350
 -1      5379    3    0    1
 -2      1034       219      1679      2206
 -1      5380    3    0    1
 -2       900      1115      1304      2176
 -1      5381    3    0    1
 -2       900       936      1115      2176
 -1      5382    3    0    1
 -2       360      2713      2714      2759
 -1      5383    3    0    1
 -2       114       639      1910      2130
 -1      5384    3    0    1
 -2       639       117      1910      2130
 -1      5385    3    0    1
 -2      1414      1559      2089      2105
 -1      5386    3    0    1
 -2      1484      1414      2089      2105
 -1      5387    3    0    1
 -2      1662      1636      1876      2139
 -1      5388    3    0    1
 -2      1775        31      2132      2548
 -1      5389    3    0    1
 -2      2397       331      2401      2429
 -1      5390    3    0    1
 -2      1433      1391      2046      2711
 -1      5391    3    0    1
 -2       678      1200      2397      2429
 -1      5392    3    0    1
 -2      1630      1585      2009      2460
 -1      5393    3    0    1
 -2       422        31      2487      2548
 -1      5394    3    0    1
 -2       472       439      2275      2420
 -1      5395    3    0    1
 -2      2115       167      2141      2163
 -1      5396    3    0    1
 -2      1651      1382      1994      2109
 -1      5397    3    0    1
 -2      1490      1438      2193      2374
 -1      5398    3    0    1
 -2      1744      1496      1911      2112
 -1      5399    3    0    1
 -2      1519      1554      1760      2110
 -1      5400    3    0    1
 -2      1554      1519      2090      2110
 -1      5401    3    0    1
 -2       369       368      2287      2570
 -1      5402    3    0    1
 -2       436       433      1923      2528
 -1      5403    3    0    1
 -2      1496      1552      1911      2112
 -1      5404    3    0    1
 -2      1552      1496      1725      2112
 -1      5405    3    0    1
 -2      1990      2052      2171      2213
 -1      5406    3    0    1
 -2      1660      1551      1937      2212
 -1      5407    3    0    1
 -2      1725      1398      1800      2112
 -1      5408    3    0    1
 -2      1398      1571      1800      2112
 -1      5409    3    0    1
 -2      1552      1725      1800      2112
 -1      5410    3    0    1
 -2      1552      1571      1911      2112
 -1      5411    3    0    1
 -2      1571      1552      1800      2112
 -1      5412    3    0    1
 -2      2305       394      2361      2550
 -1      5413    3    0    1
 -2       341       999      1193      2183
 -1      5414    3    0    1
 -2      1998      1995      2105      2556
 -1      5415    3    0    1
 -2       558      1158      1680      2170
 -1      5416    3    0    1
 -2      1933      1476      2288      2470
 -1      5417    3    0    1
 -2      1706      1550      1966      2470
 -1      5418    3    0    1
 -2      2231      1959      2302      2598
 -1      5419    3    0    1
 -2       295      1270      1536      2590
 -1      5420    3    0    1
 -2       592        98       615      2113
 -1      5421    3    0    1
 -2       364        98       592      2113
 -1      5422    3    0    1
 -2      1228      1028       750      2116
 -1      5423    3    0    1
 -2      1228       752      1944      2116
 -1      5424    3    0    1
 -2      1228       750       752      2116
 -1      5425    3    0    1
 -2       379        71      2323      2744
 -1      5426    3    0    1
 -2      1836      1834      2611      2689
 -1      5427    3    0    1
 -2      2162      1713      2559      2587
 -1      5428    3    0    1
 -2      2046      1391      2125      2711
 -1      5429    3    0    1
 -2       856       429      2347      2696
 -1      5430    3    0    1
 -2       377      1974      2664      2668
 -1      5431    3    0    1
 -2      1105      1637      1668      2118
 -1      5432    3    0    1
 -2       418       307      1822      2118
 -1      5433    3    0    1
 -2       307      1105      1081      2118
 -1      5434    3    0    1
 -2      1637      1105      1822      2118
 -1      5435    3    0    1
 -2      1105       418      1822      2118
 -1      5436    3    0    1
 -2      1105       307       418      2118
 -1      5437    3    0    1
 -2       276       429      1057      2327
 -1      5438    3    0    1
 -2       402      2200      2339      2353
 -1      5439    3    0    1
 -2      1440      1395      1677      2201
 -1      5440    3    0    1
 -2      1389       401      1852      2200
 -1      5441    3    0    1
 -2      2200       402      2251      2353
 -1      5442    3    0    1
 -2        92       982      1477      2322
 -1      5443    3    0    1
 -2       402       401       969      2200
 -1      5444    3    0    1
 -2       985      1183      2324      2348
 -1      5445    3    0    1
 -2       678      1599      2096      2397
 -1      5446    3    0    1
 -2      1670      1586      2214      2388
 -1      5447    3    0    1
 -2      1975      2262      2399      2636
 -1      5448    3    0    1
 -2       522       521      1146      1354
 -1      5449    3    0    1
 -2       800      1752      2225      2610
 -1      5450    3    0    1
 -2      2044      1227      2317      2342
 -1      5451    3    0    1
 -2       264       259      1258      2121
 -1      5452    3    0    1
 -2       404       976      1392      2316
 -1      5453    3    0    1
 -2      2553      1842      2610      2611
 -1      5454    3    0    1
 -2      1303      2101      2408      2592
 -1      5455    3    0    1
 -2      1728      2074      2086      2475
 -1      5456    3    0    1
 -2      1919      1743      2074      2475
 -1      5457    3    0    1
 -2      1438      1397      1935      2374
 -1      5458    3    0    1
 -2      1417      1193      2076      2127
 -1      5459    3    0    1
 -2      1193      1417      1779      2127
 -1      5460    3    0    1
 -2       387      1795      2134      2563
 -1      5461    3    0    1
 -2      1639       385      2260      2563
 -1      5462    3    0    1
 -2       855       832      2260      2563
 -1      5463    3    0    1
 -2       385       855      2260      2563
 -1      5464    3    0    1
 -2      1384      1790      2103      2504
 -1      5465    3    0    1
 -2      2069       639      2094      2130
 -1      5466    3    0    1
 -2      1166       978       586      2357
 -1      5467    3    0    1
 -2       586       978      2325      2357
 -1      5468    3    0    1
 -2       139       118      2351      2630
 -1      5469    3    0    1
 -2       580       586      2346      2357
 -1      5470    3    0    1
 -2      2101      1718      2408      2592
 -1      5471    3    0    1
 -2       832       383       855      2313
 -1      5472    3    0    1
 -2      2002      1615      2297      2328
 -1      5473    3    0    1
 -2      2296       985      2324      2348
 -1      5474    3    0    1
 -2       570       569       978      1357
 -1      5475    3    0    1
 -2      1086      1322      1489      2709
 -1      5476    3    0    1
 -2      1504       402      1573      2339
 -1      5477    3    0    1
 -2       559      1159      1680      2340
 -1      5478    3    0    1
 -2       277       283       856      2131
 -1      5479    3    0    1
 -2       507       514      2343      2362
 -1      5480    3    0    1
 -2       402      1159      2315      2339
 -1      5481    3    0    1
 -2       444       317      1967      2382
 -1      5482    3    0    1
 -2       341      1193      2076      2549
 -1      5483    3    0    1
 -2      1488      1497      1514      2133
 -1      5484    3    0    1
 -2      1514      1497      1656      2133
 -1      5485    3    0    1
 -2      1488      1552      1608      2133
 -1      5486    3    0    1
 -2      1608      1552      1725      2133
 -1      5487    3    0    1
 -2      1418      1488      1608      2133
 -1      5488    3    0    1
 -2      1497      1418      2067      2133
 -1      5489    3    0    1
 -2      1418      1608      1725      2133
 -1      5490    3    0    1
 -2      1485      1492      1744      2555
 -1      5491    3    0    1
 -2      2043      2306      2416      2543
 -1      5492    3    0    1
 -2      1033       771      2153      2173
 -1      5493    3    0    1
 -2      1029       752      1993      2474
 -1      5494    3    0    1
 -2       262       387      1048      2134
 -1      5495    3    0    1
 -2      1048       387      1795      2134
 -1      5496    3    0    1
 -2      1709      1844      1936      2136
 -1      5497    3    0    1
 -2      1709      1605      1883      2136
 -1      5498    3    0    1
 -2      1891      1551      1937      2254
 -1      5499    3    0    1
 -2      1512      1379      2114      2256
 -1      5500    3    0    1
 -2      1670      2250      2378      2393
 -1      5501    3    0    1
 -2      1328      1318      1875      2211
 -1      5502    3    0    1
 -2       983      1177      2040      2179
 -1      5503    3    0    1
 -2      1092      1344      1919      2181
 -1      5504    3    0    1
 -2      1379      1563      2114      2256
 -1      5505    3    0    1
 -2      1379      1512      1893      2256
 -1      5506    3    0    1
 -2      1586      1635      1670      2393
 -1      5507    3    0    1
 -2      1586      1670      2378      2393
 -1      5508    3    0    1
 -2      2250      1874      2378      2393
 -1      5509    3    0    1
 -2      2467      2150      2517      2571
 -1      5510    3    0    1
 -2       937       901      2038      2154
 -1      5511    3    0    1
 -2      2017      2154      2155      2156
 -1      5512    3    0    1
 -2      2305        10      2512      2674
 -1      5513    3    0    1
 -2       371       209      1229      2140
 -1      5514    3    0    1
 -2      1464      1503      1521      2442
 -1      5515    3    0    1
 -2       703      1579      2148      2164
 -1      5516    3    0    1
 -2      1470      1572      1765      2141
 -1      5517    3    0    1
 -2      1765      1572      2003      2141
 -1      5518    3    0    1
 -2      1014      1765      2003      2141
 -1      5519    3    0    1
 -2      2397      2096      2429      2638
 -1      5520    3    0    1
 -2      1919      1743      2475      2642
 -1      5521    3    0    1
 -2      1840      1210      1992      2164
 -1      5522    3    0    1
 -2      1027      1229      1665      2142
 -1      5523    3    0    1
 -2      1229      1027       747      2142
 -1      5524    3    0    1
 -2      2062       747      2142      2143
 -1      5525    3    0    1
 -2       747      2026      2142      2143
 -1      5526    3    0    1
 -2       747       730      2026      2143
 -1      5527    3    0    1
 -2      2156      1687      2509      2567
 -1      5528    3    0    1
 -2      1116       313      1305      2567
 -1      5529    3    0    1
 -2       466      1116      2509      2567
 -1      5530    3    0    1
 -2      1691      1516      1755      2144
 -1      5531    3    0    1
 -2      1516      1461      1755      2144
 -1      5532    3    0    1
 -2      1695      1516      1823      2144
 -1      5533    3    0    1
 -2      1637      1695      1823      2144
 -1      5534    3    0    1
 -2      1337       424      2038      2187
 -1      5535    3    0    1
 -2      1460      1554      1760      2187
 -1      5536    3    0    1
 -2       901      1076      2038      2187
 -1      5537    3    0    1
 -2      2018      1030      2464      2542
 -1      5538    3    0    1
 -2      1076      1337      2038      2187
 -1      5539    3    0    1
 -2      1321       326      1308      2709
 -1      5540    3    0    1
 -2      1092       347      1344      2181
 -1      5541    3    0    1
 -2       334       342      1943      2227
 -1      5542    3    0    1
 -2      1681       640      2630      2227
 -1      5543    3    0    1
 -2      1765      1470      2141      2163
 -1      5544    3    0    1
 -2      1828      1564      2193      2374
 -1      5545    3    0    1
 -2      1629      1480      2304      1750
 -1      5546    3    0    1
 -2       495      2305      2486      2511
 -1      5547    3    0    1
 -2      1562      1558      1701      2385
 -1      5548    3    0    1
 -2      1410      1792      2203      2385
 -1      5549    3    0    1
 -2      1558      1410      2203      2385
 -1      5550    3    0    1
 -2      1410      1558      1562      2385
 -1      5551    3    0    1
 -2        13       495      2486      2511
 -1      5552    3    0    1
 -2      1944      1993      2474      2495
 -1      5553    3    0    1
 -2       723      1577      2376      2449
 -1      5554    3    0    1
 -2      1577      1217      2175      2449
 -1      5555    3    0    1
 -2       883      1278       884      2562
 -1      5556    3    0    1
 -2      1035      2177      2400      2496
 -1      5557    3    0    1
 -2       122       373      2672      2771
 -1      5558    3    0    1
 -2      2358       675      2500      2715
 -1      5559    3    0    1
 -2      2332       273      2456      2738
 -1      5560    3    0    1
 -2      1239      1033       778      2153
 -1      5561    3    0    1
 -2       166      1841      2057      2643
 -1      5562    3    0    1
 -2      1891      1551      2028      2507
 -1      5563    3    0    1
 -2       711       330      1383      2573
 -1      5564    3    0    1
 -2      1321      1308      2635      2709
 -1      5565    3    0    1
 -2       771       778      1033      2153
 -1      5566    3    0    1
 -2       430       384      1587      2372
 -1      5567    3    0    1
 -2      1949      2467      2517      2571
 -1      5568    3    0    1
 -2      1891      1492      2253      2507
 -1      5569    3    0    1
 -2      1492      1891      2028      2507
 -1      5570    3    0    1
 -2      1461      1482      1755      2508
 -1      5571    3    0    1
 -2      1086      1489      1824      2709
 -1      5572    3    0    1
 -2      1958      2474      2495      2510
 -1      5573    3    0    1
 -2       228       220      1237      2560
 -1      5574    3    0    1
 -2      1034       774      1985      2510
 -1      5575    3    0    1
 -2      1449      1467      2155      2156
 -1      5576    3    0    1
 -2       219      1981      2124      2510
 -1      5577    3    0    1
 -2      1985      1958      2495      2510
 -1      5578    3    0    1
 -2        10       496      2512      2674
 -1      5579    3    0    1
 -2      1431       452      2377      2523
 -1      5580    3    0    1
 -2      2086      1743      2419      2475
 -1      5581    3    0    1
 -2       230      1237      1958      2560
 -1      5582    3    0    1
 -2      1437      1388      1634      2426
 -1      5583    3    0    1
 -2       231       784       807      2157
 -1      5584    3    0    1
 -2       440       231       807      2157
 -1      5585    3    0    1
 -2      1483      1774      1815      2275
 -1      5586    3    0    1
 -2      1863      1803      2137      2392
 -1      5587    3    0    1
 -2      1749      1863      2137      2392
 -1      5588    3    0    1
 -2      1666      1878      2022      2450
 -1      5589    3    0    1
 -2      1084      1340      1753      2275
 -1      5590    3    0    1
 -2      1753      1950      2011      2275
 -1      5591    3    0    1
 -2      1657      2282      2419      2620
 -1      5592    3    0    1
 -2      1663      2163      2503      2576
 -1      5593    3    0    1
 -2      2761      2734      2765      2772
 -1      5594    3    0    1
 -2      1753      1774      1847      2275
 -1      5595    3    0    1
 -2      1774      1483      1847      2275
 -1      5596    3    0    1
 -2       167      1014      2141      2163
 -1      5597    3    0    1
 -2      1663      1511      2115      2163
 -1      5598    3    0    1
 -2      1663      2115      2141      2163
 -1      5599    3    0    1
 -2      1671      1620      1992      2164
 -1      5600    3    0    1
 -2      1671       703      2148      2164
 -1      5601    3    0    1
 -2      1210      1671      1992      2164
 -1      5602    3    0    1
 -2      1210       703      1671      2164
 -1      5603    3    0    1
 -2       399       421      1968      2165
 -1      5604    3    0    1
 -2       421       399       958      2165
 -1      5605    3    0    1
 -2       958       510      1138      2165
 -1      5606    3    0    1
 -2       510       958      1896      2165
 -1      5607    3    0    1
 -2      1754       510      1896      2165
 -1      5608    3    0    1
 -2       511       510      1754      2165
 -1      5609    3    0    1
 -2       510       511      1138      2165
 -1      5610    3    0    1
 -2      1138       511      1754      2165
 -1      5611    3    0    1
 -2      1055      1810      2172      2352
 -1      5612    3    0    1
 -2       131       140       664      2166
 -1      5613    3    0    1
 -2       129       131       664      2166
 -1      5614    3    0    1
 -2       969      1159      2200      2578
 -1      5615    3    0    1
 -2      1949      2274      2466      2616
 -1      5616    3    0    1
 -2       206      2245      2395      2648
 -1      5617    3    0    1
 -2      1000      1791      2401      2638
 -1      5618    3    0    1
 -2       604       586      2325      2350
 -1      5619    3    0    1
 -2       129       663      1681      2166
 -1      5620    3    0    1
 -2       663       129       664      2166
 -1      5621    3    0    1
 -2       411       977      1867      2498
 -1      5622    3    0    1
 -2       411      2182      2299      2498
 -1      5623    3    0    1
 -2      1984      2073      2104      2228
 -1      5624    3    0    1
 -2      1853      1696      2266      2273
 -1      5625    3    0    1
 -2      1921       414      1946      2273
 -1      5626    3    0    1
 -2      1613       414      1921      2273
 -1      5627    3    0    1
 -2      1469      1698      1821      2228
 -1      5628    3    0    1
 -2      1467      1449      2039      2458
 -1      5629    3    0    1
 -2       364        83      1169      2169
 -1      5630    3    0    1
 -2       167      2441      1664      2452
 -1      5631    3    0    1
 -2      1852      1874      2188      2489
 -1      5632    3    0    1
 -2      1588      1884      2052      2171
 -1      5633    3    0    1
 -2      1667       346      1699      2453
 -1      5634    3    0    1
 -2       771      1033      1229      2173
 -1      5635    3    0    1
 -2       771       754      1236      2173
 -1      5636    3    0    1
 -2       754       771      1229      2173
 -1      5637    3    0    1
 -2       754      1030      1236      2173
 -1      5638    3    0    1
 -2      1065      1713      2521      2559
 -1      5639    3    0    1
 -2       179      1218      2427      2436
 -1      5640    3    0    1
 -2      1733      1713      2162      2596
 -1      5641    3    0    1
 -2      1892      1922      2659      2661
 -1      5642    3    0    1
 -2      1798      1437      2208      2402
 -1      5643    3    0    1
 -2      1277       323      1805      2562
 -1      5644    3    0    1
 -2      1805      1638      2128      2562
 -1      5645    3    0    1
 -2       730      1023      2143      2175
 -1      5646    3    0    1
 -2      1577       730      2143      2175
 -1      5647    3    0    1
 -2      1023       730       723      2175
 -1      5648    3    0    1
 -2       723       730      1577      2175
 -1      5649    3    0    1
 -2       357      1766      2094      2516
 -1      5650    3    0    1
 -2      1034      1679      1985      2206
 -1      5651    3    0    1
 -2      1115       936      2151      2176
 -1      5652    3    0    1
 -2       292       428      2247      2602
 -1      5653    3    0    1
 -2      1882       136      2401      2497
 -1      5654    3    0    1
 -2       331      2013      2397      2401
 -1      5655    3    0    1
 -2      1016      2205      1349      2741
 -1      5656    3    0    1
 -2      1918      1759      1986      2207
 -1      5657    3    0    1
 -2       220       231      1035      2177
 -1      5658    3    0    1
 -2      2177       220      2425      2560
 -1      5659    3    0    1
 -2       239       808      2528      2716
 -1      5660    3    0    1
 -2      1813       607      1963      2179
 -1      5661    3    0    1
 -2      1610      2043      2416      2543
 -1      5662    3    0    1
 -2      1933      1956      2167      2180
 -1      5663    3    0    1
 -2      1966      1933      1994      2180
 -1      5664    3    0    1
 -2      1933      1382      1994      2180
 -1      5665    3    0    1
 -2       416      1736      1933      2180
 -1      5666    3    0    1
 -2       416      1933      2167      2180
 -1      5667    3    0    1
 -2      1028      1605      2045      2518
 -1      5668    3    0    1
 -2       462       347      1092      2181
 -1      5669    3    0    1
 -2      1532      1652      2060      2266
 -1      5670    3    0    1
 -2      1888       425      2297      2515
 -1      5671    3    0    1
 -2      1918      1759      2207      2390
 -1      5672    3    0    1
 -2       666      1009      1199      1347
 -1      5673    3    0    1
 -2      2322       982      2325      2350
 -1      5674    3    0    1
 -2      1731      1732      1758      2269
 -1      5675    3    0    1
 -2      2076      1193      2135      2183
 -1      5676    3    0    1
 -2      1773       687      2013      2540
 -1      5677    3    0    1
 -2      1382         6      1962      2581
 -1      5678    3    0    1
 -2      1962         6      2186      2581
 -1      5679    3    0    1
 -2      1177      1475      1854      2184
 -1      5680    3    0    1
 -2      1613       414      1854      2184
 -1      5681    3    0    1
 -2       414      1177      1854      2184
 -1      5682    3    0    1
 -2       486      1129       951      2186
 -1      5683    3    0    1
 -2         6      1129      1962      2186
 -1      5684    3    0    1
 -2      1670      1586      2378      2582
 -1      5685    3    0    1
 -2      1129       486       487      2186
 -1      5686    3    0    1
 -2       487       486      2145      2186
 -1      5687    3    0    1
 -2      1378      1853      2266      2273
 -1      5688    3    0    1
 -2      1710      2250      2541      2582
 -1      5689    3    0    1
 -2      2250      1670      2378      2582
 -1      5690    3    0    1
 -2      1710      1670      2250      2582
 -1      5691    3    0    1
 -2      1076       424      1337      2187
 -1      5692    3    0    1
 -2       424      1554      2038      2187
 -1      5693    3    0    1
 -2      1157       562       556      2623
 -1      5694    3    0    1
 -2      2281       556      2623      2647
 -1      5695    3    0    1
 -2      1671      2106      2164      2189
 -1      5696    3    0    1
 -2      2148      1671      2164      2189
 -1      5697    3    0    1
 -2       114      2094      2407      2505
 -1      5698    3    0    1
 -2       380       261       831      2190
 -1      5699    3    0    1
 -2       870      1063      2033      2455
 -1      5700    3    0    1
 -2       259       261      2121      2190
 -1      5701    3    0    1
 -2       831       259       832      2190
 -1      5702    3    0    1
 -2       832       259      1804      2190
 -1      5703    3    0    1
 -2       831       832      1804      2190
 -1      5704    3    0    1
 -2      1438      1787      2193      2194
 -1      5705    3    0    1
 -2      1935      1438      2193      2194
 -1      5706    3    0    1
 -2      1573      1397      1614      2192
 -1      5707    3    0    1
 -2      1397      1564      1614      2192
 -1      5708    3    0    1
 -2      2295        49      2321      2729
 -1      5709    3    0    1
 -2      2311      2337      2375      2746
 -1      5710    3    0    1
 -2      1731       404      1916      2194
 -1      5711    3    0    1
 -2       404      1392      1916      2194
 -1      5712    3    0    1
 -2       404      1731      1732      2194
 -1      5713    3    0    1
 -2      1732      1731      1787      2194
 -1      5714    3    0    1
 -2       404      1438      1973      2194
 -1      5715    3    0    1
 -2      1438       404      1732      2194
 -1      5716    3    0    1
 -2       222      2506      2625      2693
 -1      5717    3    0    1
 -2      1533       966      1873      2195
 -1      5718    3    0    1
 -2       730      1577      2143      2566
 -1      5719    3    0    1
 -2       568       591      2406      2490
 -1      5720    3    0    1
 -2       378        70      2294      2490
 -1      5721    3    0    1
 -2        50        48       966      2195
 -1      5722    3    0    1
 -2      1796        50      1902      2195
 -1      5723    3    0    1
 -2       964       966      1533      2195
 -1      5724    3    0    1
 -2       964        50       966      2195
 -1      5725    3    0    1
 -2       964      1533      1902      2195
 -1      5726    3    0    1
 -2        50       964      1902      2195
 -1      5727    3    0    1
 -2      2530      1416      2655      2683
 -1      5728    3    0    1
 -2      2131       856      2347      2696
 -1      5729    3    0    1
 -2       429       427      1976      2696
 -1      5730    3    0    1
 -2      1377      1400      2707      2721
 -1      5731    3    0    1
 -2        49        36      2295      1354
 -1      5732    3    0    1
 -2      1663      1704      2163      2576
 -1      5733    3    0    1
 -2      2051      2217      2261      2575
 -1      5734    3    0    1
 -2      1975      2051      2261      2575
 -1      5735    3    0    1
 -2      1674      2620      2644      2703
 -1      5736    3    0    1
 -2      1403      1456      1580      2532
 -1      5737    3    0    1
 -2       425      1064      1888      2297
 -1      5738    3    0    1
 -2      1403      1785      2530      2532
 -1      5739    3    0    1
 -2      1498      1432      1543      2201
 -1      5740    3    0    1
 -2      1432      1498      1535      2201
 -1      5741    3    0    1
 -2      1498      1543      1714      2201
 -1      5742    3    0    1
 -2      1714      1543      1917      2201
 -1      5743    3    0    1
 -2      1535      1440      1543      2201
 -1      5744    3    0    1
 -2      1543      1440      1677      2201
 -1      5745    3    0    1
 -2      1432      1535      1543      2201
 -1      5746    3    0    1
 -2      1560      1601      1797      2203
 -1      5747    3    0    1
 -2      2106       726      2439      2657
 -1      5748    3    0    1
 -2      1713      1272      2223      2596
 -1      5749    3    0    1
 -2      1558      1410      1601      2203
 -1      5750    3    0    1
 -2      1601      1410      1797      2203
 -1      5751    3    0    1
 -2      1410      1792      1797      2203
 -1      5752    3    0    1
 -2      1786      1560      1797      2204
 -1      5753    3    0    1
 -2      1797      1560      2203      2204
 -1      5754    3    0    1
 -2      1792      1797      2203      2204
 -1      5755    3    0    1
 -2      1786      1792      2196      2204
 -1      5756    3    0    1
 -2      1792      1786      1797      2204
 -1      5757    3    0    1
 -2      1487      1805      2276      2562
 -1      5758    3    0    1
 -2      1487       884      1805      2562
 -1      5759    3    0    1
 -2      2601      1009      1346      1347
 -1      5760    3    0    1
 -2      1466      1940      1970      2525
 -1      5761    3    0    1
 -2      2620      2282      2644      2703
 -1      5762    3    0    1
 -2      1455      1786      2204      2235
 -1      5763    3    0    1
 -2      2236         9      2242      2486
 -1      5764    3    0    1
 -2       884      1278      1805      2562
 -1      5765    3    0    1
 -2       883       884      1487      2562
 -1      5766    3    0    1
 -2       883      1487      1580      2562
 -1      5767    3    0    1
 -2      2290       396      2747      2767
 -1      5768    3    0    1
 -2      1681       663      1882      2497
 -1      5769    3    0    1
 -2       305      1090      1759      2207
 -1      5770    3    0    1
 -2       305      1333      1090      2207
 -1      5771    3    0    1
 -2       305      1759      1928      2207
 -1      5772    3    0    1
 -2      1333       911      1090      2207
 -1      5773    3    0    1
 -2      1090       911      1759      2207
 -1      5774    3    0    1
 -2       911      1333       933      2207
 -1      5775    3    0    1
 -2       305      1938      1928      1281
 -1      5776    3    0    1
 -2       591       585       592      2209
 -1      5777    3    0    1
 -2       382        80      1867      2209
 -1      5778    3    0    1
 -2       567        64       568      2319
 -1      5779    3    0    1
 -2       435       433      1923      2457
 -1      5780    3    0    1
 -2      1910       114      2094      2407
 -1      5781    3    0    1
 -2       101      2182      2417      2640
 -1      5782    3    0    1
 -2       581       591       592      2209
 -1      5783    3    0    1
 -2       581       382       591      2209
 -1      5784    3    0    1
 -2        81        83       585      2209
 -1      5785    3    0    1
 -2        80       382       581      2209
 -1      5786    3    0    1
 -2       579       585       591      2209
 -1      5787    3    0    1
 -2        81       579       591      2209
 -1      5788    3    0    1
 -2       579        81       585      2209
 -1      5789    3    0    1
 -2        80       581       584      2209
 -1      5790    3    0    1
 -2       584       581       592      2209
 -1      5791    3    0    1
 -2        80       584       592      2209
 -1      5792    3    0    1
 -2      1571       335      1661      2210
 -1      5793    3    0    1
 -2      1741      1459      2049      2605
 -1      5794    3    0    1
 -2      2052      1588      2171      2213
 -1      5795    3    0    1
 -2      1377      1400      2052      2213
 -1      5796    3    0    1
 -2      2217      2262      2575      2636
 -1      5797    3    0    1
 -2      2054      2006      2301      2594
 -1      5798    3    0    1
 -2      1589       606      2179      2389
 -1      5799    3    0    1
 -2      1435      1524      2538      2717
 -1      5800    3    0    1
 -2      1592      1452      2042      2434
 -1      5801    3    0    1
 -2       606      1948      2179      2389
 -1      5802    3    0    1
 -2      1975      2051      2575      2636
 -1      5803    3    0    1
 -2      2310       406      2406      2594
 -1      5804    3    0    1
 -2       606      1589      2329      2389
 -1      5805    3    0    1
 -2      1374      1506      1646      2215
 -1      5806    3    0    1
 -2      1020       723      1577      2491
 -1      5807    3    0    1
 -2      1513      1646      1771      2215
 -1      5808    3    0    1
 -2      1513      1374      1646      2215
 -1      5809    3    0    1
 -2      1374      1718      2111      2215
 -1      5810    3    0    1
 -2      1967      2174      2382      2595
 -1      5811    3    0    1
 -2      1825      1798      2208      2402
 -1      5812    3    0    1
 -2      1200       150      1872      2397
 -1      5813    3    0    1
 -2      1599      1200      1872      2397
 -1      5814    3    0    1
 -2      1238       442      2206      2218
 -1      5815    3    0    1
 -2      1870      1238      2206      2218
 -1      5816    3    0    1
 -2       442      1238      1961      2218
 -1      5817    3    0    1
 -2       389      2311      2359      2456
 -1      5818    3    0    1
 -2       396       858       454      1350
 -1      5819    3    0    1
 -2       983       606      1589      2329
 -1      5820    3    0    1
 -2      1228      1944      2245      2603
 -1      5821    3    0    1
 -2      1405      1460      1565      2258
 -1      5822    3    0    1
 -2      1047       822      1436      2220
 -1      5823    3    0    1
 -2      1531      1405      1941      2258
 -1      5824    3    0    1
 -2       824      1782      2015      2221
 -1      5825    3    0    1
 -2      2015      1782      2082      2221
 -1      5826    3    0    1
 -2      1257      1047       824      2221
 -1      5827    3    0    1
 -2      1257      1843      2220      2221
 -1      5828    3    0    1
 -2      1257      2015      2082      2221
 -1      5829    3    0    1
 -2      1436      1047      2220      2221
 -1      5830    3    0    1
 -2      1047      1257      2220      2221
 -1      5831    3    0    1
 -2       822      1047      1436      2221
 -1      5832    3    0    1
 -2       824       822      1436      2221
 -1      5833    3    0    1
 -2       822       824      1047      2221
 -1      5834    3    0    1
 -2      1257       824      2015      2221
 -1      5835    3    0    1
 -2      2044       752      2116      2222
 -1      5836    3    0    1
 -2      1888      2039      2071      2515
 -1      5837    3    0    1
 -2      2006      1478      2292      2316
 -1      5838    3    0    1
 -2      1824      1489      2635      2709
 -1      5839    3    0    1
 -2       443       211      1029      2222
 -1      5840    3    0    1
 -2       870       871      1064      2223
 -1      5841    3    0    1
 -2      1702       487      1898      2597
 -1      5842    3    0    1
 -2       438      1949      2466      2467
 -1      5843    3    0    1
 -2       465       438      1949      2448
 -1      5844    3    0    1
 -2       800      1842      1903      2225
 -1      5845    3    0    1
 -2      1405      1565      1941      2258
 -1      5846    3    0    1
 -2      1386      2061      2080      2538
 -1      5847    3    0    1
 -2      1605      1739      2085      2237
 -1      5848    3    0    1
 -2      1463      2077      2212      2238
 -1      5849    3    0    1
 -2      1963      1766      2302      2598
 -1      5850    3    0    1
 -2      1711       631      2108      2307
 -1      5851    3    0    1
 -2      1739       727      2085      2237
 -1      5852    3    0    1
 -2      1006      1194      2444      2599
 -1      5853    3    0    1
 -2      2302      1766      2516      2598
 -1      5854    3    0    1
 -2      1138       421      2284      2622
 -1      5855    3    0    1
 -2       727      1883      2085      2237
 -1      5856    3    0    1
 -2        69        64      2064      2229
 -1      5857    3    0    1
 -2        64        69      1868      2229
 -1      5858    3    0    1
 -2        69       968      1868      2229
 -1      5859    3    0    1
 -2       391       393      1148      2229
 -1      5860    3    0    1
 -2       968       391      1148      2229
 -1      5861    3    0    1
 -2        69       391       968      2229
 -1      5862    3    0    1
 -2      1992      1840      2164      2230
 -1      5863    3    0    1
 -2      1620      1992      2164      2230
 -1      5864    3    0    1
 -2      1620      1907      1992      2230
 -1      5865    3    0    1
 -2      1907      1574      1992      2230
 -1      5866    3    0    1
 -2      1572      1765      2003      2303
 -1      5867    3    0    1
 -2      1610      2023      2043      2304
 -1      5868    3    0    1
 -2      1841      1934      2232      2303
 -1      5869    3    0    1
 -2      1841      1765      1934      2303
 -1      5870    3    0    1
 -2      1889      1610      2043      2304
 -1      5871    3    0    1
 -2      1765      1767      1934      2303
 -1      5872    3    0    1
 -2      1413      1480      1747      2572
 -1      5873    3    0    1
 -2      1747      1889      2043      2304
 -1      5874    3    0    1
 -2       330      1209      1934      2232
 -1      5875    3    0    1
 -2       356       330      1934      2232
 -1      5876    3    0    1
 -2      1750      1629      2233      2304
 -1      5877    3    0    1
 -2      2023      1750      2149      2233
 -1      5878    3    0    1
 -2      1211       699       706      2234
 -1      5879    3    0    1
 -2      1990      1408      2665      2735
 -1      5880    3    0    1
 -2      2574      2750      2751      2770
 -1      5881    3    0    1
 -2       510       957      1924      2412
 -1      5882    3    0    1
 -2       399      1881      2165      2501
 -1      5883    3    0    1
 -2      1485      1492      2253      2483
 -1      5884    3    0    1
 -2       386      1560      1786      2235
 -1      5885    3    0    1
 -2      2330       874      2488      2667
 -1      5886    3    0    1
 -2      2482       688      2558      2634
 -1      5887    3    0    1
 -2      2147      1480      2384      2572
 -1      5888    3    0    1
 -2      1803      1863      2255      2445
 -1      5889    3    0    1
 -2      1442      1647      1979      2386
 -1      5890    3    0    1
 -2      1865      2196      2204      2243
 -1      5891    3    0    1
 -2      1869       807      2157      2522
 -1      5892    3    0    1
 -2      1792      1865      2203      2244
 -1      5893    3    0    1
 -2      2196      1455      2204      2243
 -1      5894    3    0    1
 -2      1582       496      2373      2512
 -1      5895    3    0    1
 -2        13         9       950      2236
 -1      5896    3    0    1
 -2      1661      2210      2555      2588
 -1      5897    3    0    1
 -2      1375      1758      1915      2241
 -1      5898    3    0    1
 -2      1715      1758      1928      2241
 -1      5899    3    0    1
 -2      2075      1510      2370      2700
 -1      5900    3    0    1
 -2      1739      1605      2085      2342
 -1      5901    3    0    1
 -2      1928      1758      1929      2241
 -1      5902    3    0    1
 -2       422        31       520      2487
 -1      5903    3    0    1
 -2      1803      1661      2555      2588
 -1      5904    3    0    1
 -2       952       486       950      2242
 -1      5905    3    0    1
 -2       486       487      2145      2242
 -1      5906    3    0    1
 -2      2145       487      2226      2242
 -1      5907    3    0    1
 -2       341       338      2183      2549
 -1      5908    3    0    1
 -2       486       952       487      2242
 -1      5909    3    0    1
 -2       487       952      2226      2242
 -1      5910    3    0    1
 -2      1767      1201      2005      2727
 -1      5911    3    0    1
 -2      2298      2059      2328      2531
 -1      5912    3    0    1
 -2      1777      1442      1979      2386
 -1      5913    3    0    1
 -2       136       137       664      2497
 -1      5914    3    0    1
 -2      1040       441      1239      2624
 -1      5915    3    0    1
 -2      1674       219      1679      2246
 -1      5916    3    0    1
 -2      1679       219      1981      2246
 -1      5917    3    0    1
 -2       361       410      2348      1356
 -1      5918    3    0    1
 -2      1970      1940      2185      2432
 -1      5919    3    0    1
 -2      1981       219      2124      2246
 -1      5920    3    0    1
 -2       219      1674      2124      2246
 -1      5921    3    0    1
 -2      1228       206      2045      2603
 -1      5922    3    0    1
 -2      1430       205      1748      2603
 -1      5923    3    0    1
 -2      1459      1741      1950      2701
 -1      5924    3    0    1
 -2       807      1869      2058      2522
 -1      5925    3    0    1
 -2      2050      2245      2431      2520
 -1      5926    3    0    1
 -2       222       784      1690      2625
 -1      5927    3    0    1
 -2      1483      2150      2517      2658
 -1      5928    3    0    1
 -2      1850      2244      2308      2606
 -1      5929    3    0    1
 -2      1614      1832      2353      2607
 -1      5930    3    0    1
 -2      1614      1504      1832      2607
 -1      5931    3    0    1
 -2      1573      1504      1614      2607
 -1      5932    3    0    1
 -2      1567      1929      2241      2309
 -1      5933    3    0    1
 -2      1339       316       432      2249
 -1      5934    3    0    1
 -2       978      1175      2323      1356
 -1      5935    3    0    1
 -2       316      1339      1082      2249
 -1      5936    3    0    1
 -2       220       231      2177      2425
 -1      5937    3    0    1
 -2       628       610      2324      2345
 -1      5938    3    0    1
 -2      1431      1145      2107      2252
 -1      5939    3    0    1
 -2       538      1904      2107      2252
 -1      5940    3    0    1
 -2       538       531      1904      2252
 -1      5941    3    0    1
 -2      1145       531       538      2252
 -1      5942    3    0    1
 -2      1148       538      2107      2252
 -1      5943    3    0    1
 -2      1145      1148      2107      2252
 -1      5944    3    0    1
 -2      1148      1145       538      2252
 -1      5945    3    0    1
 -2       990       628      2272      2345
 -1      5946    3    0    1
 -2       514       531      1145      2252
 -1      5947    3    0    1
 -2      1139       514      1145      2252
 -1      5948    3    0    1
 -2       689      1016      1208      1346
 -1      5949    3    0    1
 -2       916      1096      2028      2254
 -1      5950    3    0    1
 -2       916      1327      1096      2254
 -1      5951    3    0    1
 -2       916      1106       927      2254
 -1      5952    3    0    1
 -2       321      1327       339      2254
 -1      5953    3    0    1
 -2      1096       321      2028      2254
 -1      5954    3    0    1
 -2      1327       321      1096      2254
 -1      5955    3    0    1
 -2      1097       916      2028      2254
 -1      5956    3    0    1
 -2      1106       916      1097      2254
 -1      5957    3    0    1
 -2      1644      1097      2028      2254
 -1      5958    3    0    1
 -2       321      1551      2028      2254
 -1      5959    3    0    1
 -2       433       436      1923      2257
 -1      5960    3    0    1
 -2      1923       435      2457      2554
 -1      5961    3    0    1
 -2      1421      2688      2695      2718
 -1      5962    3    0    1
 -2       436       433      2225      2257
 -1      5963    3    0    1
 -2      1386      1524      2061      2538
 -1      5964    3    0    1
 -2      1435      1524      1726      2538
 -1      5965    3    0    1
 -2      2530      1403      2652      2683
 -1      5966    3    0    1
 -2      2556      1975      2600      2636
 -1      5967    3    0    1
 -2       277      1265      2334      2338
 -1      5968    3    0    1
 -2       392        49      2321      2344
 -1      5969    3    0    1
 -2      1397      1935      2192      2292
 -1      5970    3    0    1
 -2      1681       640      2227      2472
 -1      5971    3    0    1
 -2      1635      1586      1670      2388
 -1      5972    3    0    1
 -2      1258      1262      1965      2259
 -1      5973    3    0    1
 -2      1975      2399      2600      2636
 -1      5974    3    0    1
 -2      2262      2217      2399      2636
 -1      5975    3    0    1
 -2      1227       345      2293      2317
 -1      5976    3    0    1
 -2       264       383       832      2313
 -1      5977    3    0    1
 -2       259      1804      2190      2313
 -1      5978    3    0    1
 -2       264      2121      2291      2313
 -1      5979    3    0    1
 -2       826      1049      1263      2259
 -1      5980    3    0    1
 -2      1258       826      1262      2259
 -1      5981    3    0    1
 -2       843       826      1263      2259
 -1      5982    3    0    1
 -2       826       843      1262      2259
 -1      5983    3    0    1
 -2      2092      2278      2279      2400
 -1      5984    3    0    1
 -2      2108      1749      2137      2392
 -1      5985    3    0    1
 -2      1184      2108      2137      2392
 -1      5986    3    0    1
 -2       381      2649      2710      2716
 -1      5987    3    0    1
 -2      1168       976       583      2263
 -1      5988    3    0    1
 -2       582       583       976      2263
 -1      5989    3    0    1
 -2      1771      1276      2403      2592
 -1      5990    3    0    1
 -2       259       832      1804      2313
 -1      5991    3    0    1
 -2      1159       969      1680      2578
 -1      5992    3    0    1
 -2      1873       400      2379      2411
 -1      5993    3    0    1
 -2      1417      1444      1781      1779
 -1      5994    3    0    1
 -2      1754      1138      2165      2617
 -1      5995    3    0    1
 -2      1378      1696      2047      2266
 -1      5996    3    0    1
 -2      1428      1378      2047      2266
 -1      5997    3    0    1
 -2      1946      1532      2060      2266
 -1      5998    3    0    1
 -2      1861      1946      2060      2266
 -1      5999    3    0    1
 -2      1696      1378      1853      2266
 -1      6000    3    0    1
 -2      2205      1016      2376      2449
 -1      6001    3    0    1
 -2      1412      1447      1862      2267
 -1      6002    3    0    1
 -2      1447      1561      1931      2267
 -1      6003    3    0    1
 -2      1447      1412      1561      2267
 -1      6004    3    0    1
 -2      1604      1447      1931      2267
 -1      6005    3    0    1
 -2      1604      1419      1862      2267
 -1      6006    3    0    1
 -2      1447      1604      1862      2267
 -1      6007    3    0    1
 -2      1548      1424      2264      2269
 -1      6008    3    0    1
 -2      1548      1731      2012      2269
 -1      6009    3    0    1
 -2      1424      1548      2012      2269
 -1      6010    3    0    1
 -2      1915      1732      2264      2269
 -1      6011    3    0    1
 -2      1732      1548      2264      2269
 -1      6012    3    0    1
 -2      1752      1042      2058      2270
 -1      6013    3    0    1
 -2      1835      2091      2277      2545
 -1      6014    3    0    1
 -2      1042       800      1246      2270
 -1      6015    3    0    1
 -2       800      1752      1903      2270
 -1      6016    3    0    1
 -2       800      1042      1752      2270
 -1      6017    3    0    1
 -2       630       992      2014      2271
 -1      6018    3    0    1
 -2      1729      1057      2327      2352
 -1      6019    3    0    1
 -2      1482      2188      2393      2489
 -1      6020    3    0    1
 -2       429       276       856      2347
 -1      6021    3    0    1
 -2      1781      1444      1864      1406
 -1      6022    3    0    1
 -2       119       116      1185      2272
 -1      6023    3    0    1
 -2       276       429      2327      2347
 -1      6024    3    0    1
 -2       586       604      1169      2350
 -1      6025    3    0    1
 -2      1826      2734      2735      2737
 -1      6026    3    0    1
 -2      1602       405      2031      2406
 -1      6027    3    0    1
 -2      2332      1058      2354      2359
 -1      6028    3    0    1
 -2      1166      1500      2323      2357
 -1      6029    3    0    1
 -2       116       990      2272      2356
 -1      6030    3    0    1
 -2       688       151      1999      2634
 -1      6031    3    0    1
 -2      2130       117      2356      2631
 -1      6032    3    0    1
 -2       276      1057      1639      2352
 -1      6033    3    0    1
 -2      2248       991      2505      2516
 -1      6034    3    0    1
 -2       982       604      2325      2350
 -1      6035    3    0    1
 -2      1057       276      2327      2352
 -1      6036    3    0    1
 -2      1055       846      1810      2352
 -1      6037    3    0    1
 -2      1084       439      1340      2275
 -1      6038    3    0    1
 -2      1757      1701      2385      2421
 -1      6039    3    0    1
 -2      1185       119      2272      2546
 -1      6040    3    0    1
 -2      2285      2428      2438      2504
 -1      6041    3    0    1
 -2      1185      2272      2480      2546
 -1      6042    3    0    1
 -2      1910       640      2227      2546
 -1      6043    3    0    1
 -2       119       640      1910      2546
 -1      6044    3    0    1
 -2      1720       349      2122      2280
 -1      6045    3    0    1
 -2       349      1435      2122      2280
 -1      6046    3    0    1
 -2      1435       349      1524      2280
 -1      6047    3    0    1
 -2      1475      1854      2184      2539
 -1      6048    3    0    1
 -2      1854      1381      2184      2539
 -1      6049    3    0    1
 -2       977      1867      2498      2577
 -1      6050    3    0    1
 -2      1785      1386      2061      2655
 -1      6051    3    0    1
 -2       139       129       663      2630
 -1      6052    3    0    1
 -2      1239       226      2506      2624
 -1      6053    3    0    1
 -2       556       967      1157      2281
 -1      6054    3    0    1
 -2       538       556      1148      2281
 -1      6055    3    0    1
 -2       556       538       967      2281
 -1      6056    3    0    1
 -2       556       968      1148      2281
 -1      6057    3    0    1
 -2        83      1169      2169      2350
 -1      6058    3    0    1
 -2      2676       292      2677       300
 -1      6059    3    0    1
 -2      1874      2250      2378      2541
 -1      6060    3    0    1
 -2      2119      2626      2732      2733
 -1      6061    3    0    1
 -2       300      1065      2521      2559
 -1      6062    3    0    1
 -2       798      2270      2544      2686
 -1      6063    3    0    1
 -2      2359      1058      1350      1351
 -1      6064    3    0    1
 -2       149       358      1006      2283
 -1      6065    3    0    1
 -2       395      1128      2336      2360
 -1      6066    3    0    1
 -2      1058      1271      2354      2359
 -1      6067    3    0    1
 -2      2049       316      2605      2701
 -1      6068    3    0    1
 -2       420      1147      1542      2615
 -1      6069    3    0    1
 -2       965       534      1969      2615
 -1      6070    3    0    1
 -2       534       965      2368      2615
 -1      6071    3    0    1
 -2      1969       534      2368      2615
 -1      6072    3    0    1
 -2       420      1542      2614      2615
 -1      6073    3    0    1
 -2       114       357      2094      2505
 -1      6074    3    0    1
 -2      1966      1933      2180      2288
 -1      6075    3    0    1
 -2      1933      1956      2180      2288
 -1      6076    3    0    1
 -2      1956      1933      2167      2288
 -1      6077    3    0    1
 -2      1476      1956      2167      2288
 -1      6078    3    0    1
 -2      1933      1476      2167      2288
 -1      6079    3    0    1
 -2       174       168       712      2289
 -1      6080    3    0    1
 -2      1482      1461      1997      2489
 -1      6081    3    0    1
 -2       843      1262      2259      2335
 -1      6082    3    0    1
 -2      1885      2722      2627      2333
 -1      6083    3    0    1
 -2      1049      1263      2259      2332
 -1      6084    3    0    1
 -2      1482      1997      2188      2489
 -1      6085    3    0    1
 -2       383       264      2291      2313
 -1      6086    3    0    1
 -2      1245      1043      2736      1364
 -1      6087    3    0    1
 -2      1262      1965      2335      2338
 -1      6088    3    0    1
 -2       425      1064      1272      2660
 -1      6089    3    0    1
 -2       960      1719      2320      2362
 -1      6090    3    0    1
 -2       822      1046      1436      2553
 -1      6091    3    0    1
 -2      2092       798      2279      2544
 -1      6092    3    0    1
 -2      2248       631      2271      2307
 -1      6093    3    0    1
 -2       855       456       856      2314
 -1      6094    3    0    1
 -2       832       855      2260      2313
 -1      6095    3    0    1
 -2      2006      1478      2301      2315
 -1      6096    3    0    1
 -2      1972       507      2343      2364
 -1      6097    3    0    1
 -2       850      1265      2335      2338
 -1      6098    3    0    1
 -2      1492      1485      2253      2555
 -1      6099    3    0    1
 -2      1965       277      2334      2338
 -1      6100    3    0    1
 -2      1874      1852      2378      2489
 -1      6101    3    0    1
 -2       338      2078      2445      2633
 -1      6102    3    0    1
 -2      1158      2170      2379      2565
 -1      6103    3    0    1
 -2       291      1272      2650      2660
 -1      6104    3    0    1
 -2       953      1137      2355      2362
 -1      6105    3    0    1
 -2      2121       259      2190      2313
 -1      6106    3    0    1
 -2       855       383      2260      2313
 -1      6107    3    0    1
 -2      1658      1617      2170      2565
 -1      6108    3    0    1
 -2       433       435      1046      2457
 -1      6109    3    0    1
 -2       425      1888      2071      2515
 -1      6110    3    0    1
 -2        64       567      2064      2319
 -1      6111    3    0    1
 -2       610       604      1175      2296
 -1      6112    3    0    1
 -2       985       610      1175      2296
 -1      6113    3    0    1
 -2      2337      1588      2375      2745
 -1      6114    3    0    1
 -2       279       276      1639      2347
 -1      6115    3    0    1
 -2      1271       857      1066      1350
 -1      6116    3    0    1
 -2       279      1639      2260      2347
 -1      6117    3    0    1
 -2       628       985      1183      2324
 -1      6118    3    0    1
 -2      1183       994       628      2324
 -1      6119    3    0    1
 -2       855       279      2260      2347
 -1      6120    3    0    1
 -2       943      2595      2613      2697
 -1      6121    3    0    1
 -2       226       441      2506      2624
 -1      6122    3    0    1
 -2       556       562      1160      2300
 -1      6123    3    0    1
 -2      2096      1417      2127      2479
 -1      6124    3    0    1
 -2      1208      2205      2601      1346
 -1      6125    3    0    1
 -2       366       441      1040      2624
 -1      6126    3    0    1
 -2       977      1167      1867      2577
 -1      6127    3    0    1
 -2       968       556      1160      2300
 -1      6128    3    0    1
 -2       562       580      1160      2300
 -1      6129    3    0    1
 -2       580       975      1160      2300
 -1      6130    3    0    1
 -2      1177      1475      1813      2302
 -1      6131    3    0    1
 -2       607      1177      1813      2302
 -1      6132    3    0    1
 -2       140      2283      2580      2599
 -1      6133    3    0    1
 -2      1480      1747      2147      2304
 -1      6134    3    0    1
 -2      1747      1480      1750      2304
 -1      6135    3    0    1
 -2      1480      1629      2304      2147
 -1      6136    3    0    1
 -2      1750      1610      1889      2304
 -1      6137    3    0    1
 -2      1610      1750      2023      2304
 -1      6138    3    0    1
 -2       398       394       495      2305
 -1      6139    3    0    1
 -2       193       214      2464      2730
 -1      6140    3    0    1
 -2      2147      2494      2572      2675
 -1      6141    3    0    1
 -2      2312       850      2335      2338
 -1      6142    3    0    1
 -2        53      1500      2321      2739
 -1      6143    3    0    1
 -2       953      2355      2360      2362
 -1      6144    3    0    1
 -2      1943       342      2331      2472
 -1      6145    3    0    1
 -2       543       520      2084      2487
 -1      6146    3    0    1
 -2      1673      1445      2517      2675
 -1      6147    3    0    1
 -2       495        10       496      2512
 -1      6148    3    0    1
 -2      1272      1064      2223      2660
 -1      6149    3    0    1
 -2       520        31      1775      2487
 -1      6150    3    0    1
 -2       151      1383      1999      2634
 -1      6151    3    0    1
 -2      2305       495      2486      2512
 -1      6152    3    0    1
 -2      1064      1888      2223      2660
 -1      6153    3    0    1
 -2       496      2502      2512      1582
 -1      6154    3    0    1
 -2      1943       993      2307      2331
 -1      6155    3    0    1
 -2       495       496      2486      2512
 -1      6156    3    0    1
 -2      2177       231      2394      2425
 -1      6157    3    0    1
 -2       750      2044      2116      2342
 -1      6158    3    0    1
 -2       706      1211      2234      2491
 -1      6159    3    0    1
 -2       567      1960      2064      2319
 -1      6160    3    0    1
 -2       406      1167      2054      2310
 -1      6161    3    0    1
 -2       406       382      1167      2310
 -1      6162    3    0    1
 -2      1729       847      2352      2662
 -1      6163    3    0    1
 -2      1265       850      2312      2338
 -1      6164    3    0    1
 -2      1965       277      2314      2334
 -1      6165    3    0    1
 -2      1573       402      2315      2339
 -1      6166    3    0    1
 -2       277       283      2131      2334
 -1      6167    3    0    1
 -2      1589      2037      2329      2670
 -1      6168    3    0    1
 -2      1158        68      1945      2565
 -1      6169    3    0    1
 -2       831      2190      2554      2681
 -1      6170    3    0    1
 -2      1793      1749      1851      2331
 -1      6171    3    0    1
 -2       292      2676      2677      2247
 -1      6172    3    0    1
 -2      2360       953      1352      1353
 -1      6173    3    0    1
 -2       850       867      1265      2312
 -1      6174    3    0    1
 -2       874       483      2330      2363
 -1      6175    3    0    1
 -2      1265       867      1270      2312
 -1      6176    3    0    1
 -2      1159       402      2200      2339
 -1      6177    3    0    1
 -2      1262      1965      2259      2335
 -1      6178    3    0    1
 -2      1265      1262       843      2335
 -1      6179    3    0    1
 -2      1478      2006      2292      2315
 -1      6180    3    0    1
 -2      1573      1478      2292      2315
 -1      6181    3    0    1
 -2      1945        68      2019      2565
 -1      6182    3    0    1
 -2      2379      1873      2411      2565
 -1      6183    3    0    1
 -2       402      1159      1573      2315
 -1      6184    3    0    1
 -2      1573      1159      2301      2315
 -1      6185    3    0    1
 -2       976      1392      2316      2341
 -1      6186    3    0    1
 -2      1478      1573      2301      2315
 -1      6187    3    0    1
 -2       976       404      1973      2316
 -1      6188    3    0    1
 -2       343       345      1227      2317
 -1      6189    3    0    1
 -2       313       466      2509      2567
 -1      6190    3    0    1
 -2      1943       334      2227      2407
 -1      6191    3    0    1
 -2       334       114      1910      2407
 -1      6192    3    0    1
 -2        81       378      2008      2318
 -1      6193    3    0    1
 -2       378        81       591      2318
 -1      6194    3    0    1
 -2       568      1602      1960      2319
 -1      6195    3    0    1
 -2      2295        36      2743      1354
 -1      6196    3    0    1
 -2      2395      2245      2431      2648
 -1      6197    3    0    1
 -2      2245      2050      2431      2648
 -1      6198    3    0    1
 -2       951      2145      2581      2685
 -1      6199    3    0    1
 -2      2344      1157      2647      1359
 -1      6200    3    0    1
 -2       531       960      1146      2320
 -1      6201    3    0    1
 -2       531       514       960      2320
 -1      6202    3    0    1
 -2      2320       960      1354      1355
 -1      6203    3    0    1
 -2      1166       971      1500      2357
 -1      6204    3    0    1
 -2       975      1169      2008      2346
 -1      6205    3    0    1
 -2      1178       604       610      2322
 -1      6206    3    0    1
 -2       610       604      2296      2322
 -1      6207    3    0    1
 -2       985       610      2296      2324
 -1      6208    3    0    1
 -2       362       616      2469      2631
 -1      6209    3    0    1
 -2      1421      1951      2119      2585
 -1      6210    3    0    1
 -2       193      1826      2440      2737
 -1      6211    3    0    1
 -2       379      1166      1500      2323
 -1      6212    3    0    1
 -2      2440      2750      2769      2774
 -1      6213    3    0    1
 -2       983      1589      2055      2329
 -1      6214    3    0    1
 -2      1713      2521      2559      2587
 -1      6215    3    0    1
 -2      2220       822      2611      2689
 -1      6216    3    0    1
 -2      1057      1055      1639      2352
 -1      6217    3    0    1
 -2      1166       570       978      1357
 -1      6218    3    0    1
 -2       427       879      1976      2696
 -1      6219    3    0    1
 -2       570        71       569      1357
 -1      6220    3    0    1
 -2      1183       994      1939      1361
 -1      6221    3    0    1
 -2       604      1175      2296      2325
 -1      6222    3    0    1
 -2      2296      1175      2323      2325
 -1      6223    3    0    1
 -2      1175       978      2323      2325
 -1      6224    3    0    1
 -2       726      2106      2439      2547
 -1      6225    3    0    1
 -2       604       586      1175      2325
 -1      6226    3    0    1
 -2       586       978      1175      2325
 -1      6227    3    0    1
 -2      1178      1477      2345      2356
 -1      6228    3    0    1
 -2       116       117       990      2356
 -1      6229    3    0    1
 -2       990      1178      2345      2356
 -1      6230    3    0    1
 -2       663       129      1681      2630
 -1      6231    3    0    1
 -2       436       239       808      2528
 -1      6232    3    0    1
 -2      1393      1723      2453      2529
 -1      6233    3    0    1
 -2      1137       953      2355      2364
 -1      6234    3    0    1
 -2      1127      1130      2361      2632
 -1      6235    3    0    1
 -2      1588      2171      2213      2337
 -1      6236    3    0    1
 -2       293      1536      2527      2680
 -1      6237    3    0    1
 -2      2503      1663      2576      2682
 -1      6238    3    0    1
 -2       874       483      1127      2330
 -1      6239    3    0    1
 -2      1137      2355      2362      2364
 -1      6240    3    0    1
 -2       874      1127      1273      2330
 -1      6241    3    0    1
 -2      1704      1663      2530      2682
 -1      6242    3    0    1
 -2       239       436      1752      2528
 -1      6243    3    0    1
 -2       349      1524      2280      2724
 -1      6244    3    0    1
 -2      1414      2571      2616      2628
 -1      6245    3    0    1
 -2      1400      2052      2213      2707
 -1      6246    3    0    1
 -2      2052      1588      2213      2707
 -1      6247    3    0    1
 -2      1673      2517      2571      2628
 -1      6248    3    0    1
 -2      1414      1484      1673      2628
 -1      6249    3    0    1
 -2       389      2311      2456      2728
 -1      6250    3    0    1
 -2      2571      2517      2616      2628
 -1      6251    3    0    1
 -2      1536       388      2334      2591
 -1      6252    3    0    1
 -2      1718      2101      2215      2592
 -1      6253    3    0    1
 -2       283       277      1265      2334
 -1      6254    3    0    1
 -2      2272       990      2345      2356
 -1      6255    3    0    1
 -2       117       116      1910      2356
 -1      6256    3    0    1
 -2      2333      1885      2337      2746
 -1      6257    3    0    1
 -2       507      1137      2362      2364
 -1      6258    3    0    1
 -2      1262      1265      1965      2338
 -1      6259    3    0    1
 -2        36      2743      1354      1355
 -1      6260    3    0    1
 -2      1159      1680      2315      2339
 -1      6261    3    0    1
 -2       819       802      2492      2579
 -1      6262    3    0    1
 -2       338      1863      2183      2633
 -1      6263    3    0    1
 -2      2029      2006      2301      2340
 -1      6264    3    0    1
 -2      2301      2006      2315      2340
 -1      6265    3    0    1
 -2      1159      2301      2315      2340
 -1      6266    3    0    1
 -2      1159       559      2301      2340
 -1      6267    3    0    1
 -2      2263       582      2310      2341
 -1      6268    3    0    1
 -2      1445      2150      2494      2572
 -1      6269    3    0    1
 -2      1783      2368      2428      2438
 -1      6270    3    0    1
 -2      1943       334      2407      2505
 -1      6271    3    0    1
 -2      1783      1820      2368      2438
 -1      6272    3    0    1
 -2      1605      1739      2136      2342
 -1      6273    3    0    1
 -2       750      1605      2136      2342
 -1      6274    3    0    1
 -2      1227       750      1739      2342
 -1      6275    3    0    1
 -2      1739       750      2136      2342
 -1      6276    3    0    1
 -2      1178       363      1477      2356
 -1      6277    3    0    1
 -2      2188      1874      2393      2489
 -1      6278    3    0    1
 -2       338      2183      2549      2633
 -1      6279    3    0    1
 -2       514       960      2320      2343
 -1      6280    3    0    1
 -2      1136      1139      1972      2343
 -1      6281    3    0    1
 -2       507      1136      1972      2343
 -1      6282    3    0    1
 -2      1136       507      1139      2343
 -1      6283    3    0    1
 -2      2050      1648      2431      2648
 -1      6284    3    0    1
 -2      1719      2320      2743      1355
 -1      6285    3    0    1
 -2      2344        49      1358      1359
 -1      6286    3    0    1
 -2       546       971      1157      1359
 -1      6287    3    0    1
 -2      1040      1239      1886      2624
 -1      6288    3    0    1
 -2      1166       586       580      2357
 -1      6289    3    0    1
 -2       586      2325      2346      2357
 -1      6290    3    0    1
 -2       610       990      1178      2345
 -1      6291    3    0    1
 -2       610       628       990      2345
 -1      6292    3    0    1
 -2       978      2323      2325      2357
 -1      6293    3    0    1
 -2       580       586      1169      2346
 -1      6294    3    0    1
 -2       616      2069      2469      2631
 -1      6295    3    0    1
 -2       151       356      1383      2634
 -1      6296    3    0    1
 -2       675      1199      2500      2715
 -1      6297    3    0    1
 -2      2249      2049      2605      2678
 -1      6298    3    0    1
 -2       856       855      2131      2347
 -1      6299    3    0    1
 -2       855      2260      2314      2347
 -1      6300    3    0    1
 -2      2131       855      2314      2347
 -1      6301    3    0    1
 -2        71       570       379      1357
 -1      6302    3    0    1
 -2       361       410      2326      2348
 -1      6303    3    0    1
 -2       410        71      2323      1357
 -1      6304    3    0    1
 -2      1183      2348      1360      1361
 -1      6305    3    0    1
 -2       618       617      1183      1361
 -1      6306    3    0    1
 -2      2078      1390      2445      2633
 -1      6307    3    0    1
 -2        10       394      1127      2361
 -1      6308    3    0    1
 -2       634      2272      2324      2349
 -1      6309    3    0    1
 -2       994       634      2324      2349
 -1      6310    3    0    1
 -2      1397      1564      2192      2374
 -1      6311    3    0    1
 -2      2156      2017      2509      2673
 -1      6312    3    0    1
 -2      2155      2017      2156      2673
 -1      6313    3    0    1
 -2      1467      2017      2155      2673
 -1      6314    3    0    1
 -2      1803      1661      2210      2555
 -1      6315    3    0    1
 -2       454       389      2311      2359
 -1      6316    3    0    1
 -2      1723      1621      2529      2679
 -1      6317    3    0    1
 -2       454      2359      1350      1351
 -1      6318    3    0    1
 -2       449      2336      2360      1353
 -1      6319    3    0    1
 -2       651       634      1191      2349
 -1      6320    3    0    1
 -2       634       994      1191      2349
 -1      6321    3    0    1
 -2      2440      1826      2735      2737
 -1      6322    3    0    1
 -2       139       118      1185      2351
 -1      6323    3    0    1
 -2       118       119      1185      2351
 -1      6324    3    0    1
 -2       998       139      1185      2351
 -1      6325    3    0    1
 -2       129       139       998      2351
 -1      6326    3    0    1
 -2      1399      1396      1611      2493
 -1      6327    3    0    1
 -2      1001      1199      2715      1366
 -1      6328    3    0    1
 -2      1030      2018      2173      2542
 -1      6329    3    0    1
 -2      1058       850      1263      2354
 -1      6330    3    0    1
 -2       850       867      2312      2354
 -1      6331    3    0    1
 -2       843       850      2335      2354
 -1      6332    3    0    1
 -2       850       843      1263      2354
 -1      6333    3    0    1
 -2      1263       843      2335      2354
 -1      6334    3    0    1
 -2       850      1058      1271      2354
 -1      6335    3    0    1
 -2      1997      1852      2188      2489
 -1      6336    3    0    1
 -2       867       850      1271      2354
 -1      6337    3    0    1
 -2      1540      1505      1654      2365
 -1      6338    3    0    1
 -2      1375      1438      1490      2374
 -1      6339    3    0    1
 -2       320      1623      1626      2365
 -1      6340    3    0    1
 -2      1130      1972      2361      2364
 -1      6341    3    0    1
 -2       490      1130      2361      2364
 -1      6342    3    0    1
 -2      2355      1128      2360      2363
 -1      6343    3    0    1
 -2       953       483      1128      2355
 -1      6344    3    0    1
 -2       953       490      2355      2364
 -1      6345    3    0    1
 -2      2262      1975      2399      2600
 -1      6346    3    0    1
 -2      1400      1377      2198      2585
 -1      6347    3    0    1
 -2      1470      2141      2163      2503
 -1      6348    3    0    1
 -2      1998       442      2391      2600
 -1      6349    3    0    1
 -2      1001      1199      2358      2715
 -1      6350    3    0    1
 -2       394        10      2305      2674
 -1      6351    3    0    1
 -2      2141      1663      2163      2503
 -1      6352    3    0    1
 -2      1474       399      2083      2501
 -1      6353    3    0    1
 -2      1474      1653      2185      2501
 -1      6354    3    0    1
 -2      2000      1509      2083      2501
 -1      6355    3    0    1
 -2       399      1474      2185      2501
 -1      6356    3    0    1
 -2       658      1006      1194      2358
 -1      6357    3    0    1
 -2       675       658      1001      2358
 -1      6358    3    0    1
 -2       658       675      1006      2358
 -1      6359    3    0    1
 -2       675      1001      1199      2358
 -1      6360    3    0    1
 -2      1881       399      2185      2501
 -1      6361    3    0    1
 -2        13       300      2511      2676
 -1      6362    3    0    1
 -2        12        10      1130      2361
 -1      6363    3    0    1
 -2       960      2320      2343      2362
 -1      6364    3    0    1
 -2      1137       960       514      2362
 -1      6365    3    0    1
 -2       514       960      2343      2362
 -1      6366    3    0    1
 -2      1939       367      2733      2762
 -1      6367    3    0    1
 -2       483      1066      1128      2363
 -1      6368    3    0    1
 -2       483       874      1066      2363
 -1      6369    3    0    1
 -2      1884      2152      2451      2748
 -1      6370    3    0    1
 -2      1130      1136      1972      2364
 -1      6371    3    0    1
 -2       507       490      1137      2364
 -1      6372    3    0    1
 -2       490       507      1130      2364
 -1      6373    3    0    1
 -2       490       953      1137      2364
 -1      6374    3    0    1
 -2      1130       507      1136      2364
 -1      6375    3    0    1
 -2      1589      1806      2037      2410
 -1      6376    3    0    1
 -2      1284       306      1285      2365
 -1      6377    3    0    1
 -2      1596      2037      1168      2035
 -1      6378    3    0    1
 -2       682       675      1009      2500
 -1      6379    3    0    1
 -2      1806      1547      2037      2410
 -1      6380    3    0    1
 -2       976      1392      2341      2499
 -1      6381    3    0    1
 -2      1168      1596      1916      2410
 -1      6382    3    0    1
 -2      1522      1529      1541      2367
 -1      6383    3    0    1
 -2      1428      1529      1532      2367
 -1      6384    3    0    1
 -2      1529      1522      2016      2367
 -1      6385    3    0    1
 -2      1532      1529      2016      2367
 -1      6386    3    0    1
 -2      1783      1820      2202      2368
 -1      6387    3    0    1
 -2      1902       964      2202      2368
 -1      6388    3    0    1
 -2       534      1783      2202      2368
 -1      6389    3    0    1
 -2       964       534      2202      2368
 -1      6390    3    0    1
 -2      1120      1310      1815      2420
 -1      6391    3    0    1
 -2      2283      1006      2444      2599
 -1      6392    3    0    1
 -2      1648      2050      2282      2370
 -1      6393    3    0    1
 -2       703      1015      1579      2643
 -1      6394    3    0    1
 -2      1416      2530      2655      2682
 -1      6395    3    0    1
 -2      2018      1036      1362      1236
 -1      6396    3    0    1
 -2       336       342       640      2472
 -1      6397    3    0    1
 -2      1525      1799      1802      2372
 -1      6398    3    0    1
 -2      1645      1587      2104      2372
 -1      6399    3    0    1
 -2      1587       384      2104      2372
 -1      6400    3    0    1
 -2      1645      1587      1802      1954
 -1      6401    3    0    1
 -2      1799      1587      1802      2372
 -1      6402    3    0    1
 -2      1587      1645      1802      2372
 -1      6403    3    0    1
 -2      1582       446      2126      2373
 -1      6404    3    0    1
 -2      1091      1967      2382      2595
 -1      6405    3    0    1
 -2        18       446      1582      2373
 -1      6406    3    0    1
 -2        18       496       519      2373
 -1      6407    3    0    1
 -2       446        18       519      2373
 -1      6408    3    0    1
 -2      1564      1828      2192      2374
 -1      6409    3    0    1
 -2      2192      1828      2193      2374
 -1      6410    3    0    1
 -2      2375      2337      2745      2746
 -1      6411    3    0    1
 -2      1436      1046      2134      2457
 -1      6412    3    0    1
 -2      1387      1664      2441      2452
 -1      6413    3    0    1
 -2      2326       410      2626      2768
 -1      6414    3    0    1
 -2      2734      1884      2735      2761
 -1      6415    3    0    1
 -2       140       664      2166      2580
 -1      6416    3    0    1
 -2       706      1016      1217      2376
 -1      6417    3    0    1
 -2       723       706      1217      2376
 -1      6418    3    0    1
 -2       393       391       544      2377
 -1      6419    3    0    1
 -2       544       391      2064      2377
 -1      6420    3    0    1
 -2       543      1796      2084      2377
 -1      6421    3    0    1
 -2      1431       543      2084      2377
 -1      6422    3    0    1
 -2       510      1772      1896      2412
 -1      6423    3    0    1
 -2       400        48       544      2377
 -1      6424    3    0    1
 -2       543       393       544      2377
 -1      6425    3    0    1
 -2      2051      2261      2396      2524
 -1      6426    3    0    1
 -2        48       543       544      2377
 -1      6427    3    0    1
 -2       543        50      1796      2377
 -1      6428    3    0    1
 -2      1796        50      2195      2377
 -1      6429    3    0    1
 -2       452       543      1431      2377
 -1      6430    3    0    1
 -2       452       393       543      2377
 -1      6431    3    0    1
 -2        50        48      2195      2377
 -1      6432    3    0    1
 -2        48        50       543      2377
 -1      6433    3    0    1
 -2       352       616      2069      2380
 -1      6434    3    0    1
 -2       103       352      2069      2380
 -1      6435    3    0    1
 -2       352       103      1766      2380
 -1      6436    3    0    1
 -2      1766       103      2069      2380
 -1      6437    3    0    1
 -2      1948       352      1766      2380
 -1      6438    3    0    1
 -2       352      1948      1766       984
 -1      6439    3    0    1
 -2      1966      1933      2288      2470
 -1      6440    3    0    1
 -2      1476      1780      2288      2470
 -1      6441    3    0    1
 -2      1550      1933      1966      2470
 -1      6442    3    0    1
 -2      2330       874      2363      2488
 -1      6443    3    0    1
 -2       422       450      2202      2381
 -1      6444    3    0    1
 -2      1495      1103      1556      2383
 -1      6445    3    0    1
 -2      1078      1103      1495      2383
 -1      6446    3    0    1
 -2       309      1290       324      2383
 -1      6447    3    0    1
 -2       309      1495      1659      2383
 -1      6448    3    0    1
 -2      1072       309      1659      2383
 -1      6449    3    0    1
 -2      1290       309      1072      2383
 -1      6450    3    0    1
 -2      1103       309       324      2383
 -1      6451    3    0    1
 -2       309      1103      1078      2383
 -1      6452    3    0    1
 -2       309      1078      1495      2383
 -1      6453    3    0    1
 -2      1701      1558      2244      2385
 -1      6454    3    0    1
 -2      1410      1558      1601      2386
 -1      6455    3    0    1
 -2      1410      1601      1770      2386
 -1      6456    3    0    1
 -2      1770      1601      2056      2386
 -1      6457    3    0    1
 -2      1562      1442      1777      2386
 -1      6458    3    0    1
 -2      1558      1562      1777      2386
 -1      6459    3    0    1
 -2      1558      1979      2056      2386
 -1      6460    3    0    1
 -2      1558      1777      1979      2386
 -1      6461    3    0    1
 -2      1601      1558      2056      2386
 -1      6462    3    0    1
 -2       259      1258      2121      2387
 -1      6463    3    0    1
 -2       261       259      2121      2387
 -1      6464    3    0    1
 -2       259       261      1258      2387
 -1      6465    3    0    1
 -2      1880      2042      1590      1846
 -1      6466    3    0    1
 -2      1590      1926      2042      2434
 -1      6467    3    0    1
 -2      2042      1880      1590      2434
 -1      6468    3    0    1
 -2      2029      2054      2301      2594
 -1      6469    3    0    1
 -2       406      2054      2406      2594
 -1      6470    3    0    1
 -2      2182       101      2299      2389
 -1      6471    3    0    1
 -2      2299      1176      2329      2389
 -1      6472    3    0    1
 -2      1176       606      2329      2389
 -1      6473    3    0    1
 -2       101      1176      2299      2389
 -1      6474    3    0    1
 -2       442      1679      2206      2391
 -1      6475    3    0    1
 -2       442      2206      2218      2391
 -1      6476    3    0    1
 -2      1595      1814      2394      2400
 -1      6477    3    0    1
 -2      1009      1208      2564      2601
 -1      6478    3    0    1
 -2      2182       411      2417      2498
 -1      6479    3    0    1
 -2      1661       335      2137      2392
 -1      6480    3    0    1
 -2      1388      1429      1816      2426
 -1      6481    3    0    1
 -2       558       969      1980      2578
 -1      6482    3    0    1
 -2       591       406      2406      2639
 -1      6483    3    0    1
 -2      1437      1634      1776      2426
 -1      6484    3    0    1
 -2      1630      1776      1822      2426
 -1      6485    3    0    1
 -2      2209       591      2318      2639
 -1      6486    3    0    1
 -2      1940      1881      2185      2432
 -1      6487    3    0    1
 -2      1565      1405      1830      2462
 -1      6488    3    0    1
 -2       752      1228      1944      2395
 -1      6489    3    0    1
 -2      2396      2051      2524      2619
 -1      6490    3    0    1
 -2      1524      1416      2717      2724
 -1      6491    3    0    1
 -2      1733      1956      2447      2596
 -1      6492    3    0    1
 -2      1312       445       469      2396
 -1      6493    3    0    1
 -2       469       445      1088      2396
 -1      6494    3    0    1
 -2       445      1312      1122      2396
 -1      6495    3    0    1
 -2       445      1122      2261      2396
 -1      6496    3    0    1
 -2      1088       445      1342      2396
 -1      6497    3    0    1
 -2      1342       445      2261      2396
 -1      6498    3    0    1
 -2      1420      1885      2627      2706
 -1      6499    3    0    1
 -2      1194       998      2663      2699
 -1      6500    3    0    1
 -2       131       129      1194      2699
 -1      6501    3    0    1
 -2       846      1055      2172      2430
 -1      6502    3    0    1
 -2      1515      1437      2102      2402
 -1      6503    3    0    1
 -2      1959      2014      2302      2621
 -1      6504    3    0    1
 -2      1475      1813      2302      2621
 -1      6505    3    0    1
 -2      1813      1475      2184      2621
 -1      6506    3    0    1
 -2      1959      1520      2014      2621
 -1      6507    3    0    1
 -2       446      1582      2126      2557
 -1      6508    3    0    1
 -2       157       353      2100      2601
 -1      6509    3    0    1
 -2      2500      1009      2564      2601
 -1      6510    3    0    1
 -2      1687      1906      2156      2673
 -1      6511    3    0    1
 -2       179       735      1901      2436
 -1      6512    3    0    1
 -2      1218       179      1901      2436
 -1      6513    3    0    1
 -2      2278      1814      2279      2400
 -1      6514    3    0    1
 -2      1055       385      2172      2430
 -1      6515    3    0    1
 -2      2138      2524      2618      2704
 -1      6516    3    0    1
 -2      2454       366      2629      2649
 -1      6517    3    0    1
 -2      1795       846      2172      2430
 -1      6518    3    0    1
 -2      1176      1948      2389      2593
 -1      6519    3    0    1
 -2       101      1176      2389      2593
 -1      6520    3    0    1
 -2        32       448      1136      2404
 -1      6521    3    0    1
 -2      1136       448      1972      2404
 -1      6522    3    0    1
 -2        32      1136      1139      2404
 -1      6523    3    0    1
 -2      1139      1136      1972      2404
 -1      6524    3    0    1
 -2      1136      1130      1972      2405
 -1      6525    3    0    1
 -2      1416      2576      2682      2724
 -1      6526    3    0    1
 -2      2725      1719      2743      2764
 -1      6527    3    0    1
 -2      2706      2723      2725      2764
 -1      6528    3    0    1
 -2      1446      1420      2032      2513
 -1      6529    3    0    1
 -2        35       448      2087      2405
 -1      6530    3    0    1
 -2      2087       448      2404      2405
 -1      6531    3    0    1
 -2       448      1972      2404      2405
 -1      6532    3    0    1
 -2       448      1136      1972      2405
 -1      6533    3    0    1
 -2        12      1130      1136      2405
 -1      6534    3    0    1
 -2        35        12      1136      2405
 -1      6535    3    0    1
 -2       448        35      1136      2405
 -1      6536    3    0    1
 -2        94      2380      2593      2640
 -1      6537    3    0    1
 -2       615       592      2113      2640
 -1      6538    3    0    1
 -2       615      2113      2469      2640
 -1      6539    3    0    1
 -2      2380       615      2469      2640
 -1      6540    3    0    1
 -2      2113       592      2417      2640
 -1      6541    3    0    1
 -2       405       406      2054      2406
 -1      6542    3    0    1
 -2       406       405       568      2406
 -1      6543    3    0    1
 -2       406       568       591      2406
 -1      6544    3    0    1
 -2       899      1114      1303      2408
 -1      6545    3    0    1
 -2       899      1303      2101      2408
 -1      6546    3    0    1
 -2      1335       899      1074      2408
 -1      6547    3    0    1
 -2      1074       899      2101      2408
 -1      6548    3    0    1
 -2      1817      1074      2101      2408
 -1      6549    3    0    1
 -2      1284       887      2365      2409
 -1      6550    3    0    1
 -2      1285       887      1284      2409
 -1      6551    3    0    1
 -2       583      1168      2263      2410
 -1      6552    3    0    1
 -2       404       976      1168      2499
 -1      6553    3    0    1
 -2      1916      1168      2410      2499
 -1      6554    3    0    1
 -2      1392       408      1916      2499
 -1      6555    3    0    1
 -2       408      1168      1916      2499
 -1      6556    3    0    1
 -2      1168       583      2037      2410
 -1      6557    3    0    1
 -2      1168       976      2263      2499
 -1      6558    3    0    1
 -2       261       380      1737      2710
 -1      6559    3    0    1
 -2      1635      1586      2388      2433
 -1      6560    3    0    1
 -2      1411      1565      1830      2462
 -1      6561    3    0    1
 -2      1586      2214      2388      2433
 -1      6562    3    0    1
 -2       357      2094      2505      2516
 -1      6563    3    0    1
 -2      1465      1631      1831      2413
 -1      6564    3    0    1
 -2      1465      1831      2219      2413
 -1      6565    3    0    1
 -2       343      1650      2317      2414
 -1      6566    3    0    1
 -2      1227       343      2317      2414
 -1      6567    3    0    1
 -2      1739      1650      2085      2414
 -1      6568    3    0    1
 -2      1022      1739      2085      2414
 -1      6569    3    0    1
 -2      1650      1022      2085      2414
 -1      6570    3    0    1
 -2      1650      1739      2342      2414
 -1      6571    3    0    1
 -2      1227      2317      2342      2414
 -1      6572    3    0    1
 -2      1739      1227      2342      2414
 -1      6573    3    0    1
 -2      2317      1650      2342      2414
 -1      6574    3    0    1
 -2      2282      2419      2620      2644
 -1      6575    3    0    1
 -2       703      1579      2398      2415
 -1      6576    3    0    1
 -2      1210       702       703      2415
 -1      6577    3    0    1
 -2      2419      1441      2620      2644
 -1      6578    3    0    1
 -2      1015       703      1209      2415
 -1      6579    3    0    1
 -2      1210       703      2398      2415
 -1      6580    3    0    1
 -2      1625      1210      2398      2415
 -1      6581    3    0    1
 -2       702      1625      1210      1014
 -1      6582    3    0    1
 -2      1625       702      1210      2415
 -1      6583    3    0    1
 -2      1239      1886      2624      2641
 -1      6584    3    0    1
 -2      2482       711      2573      2694
 -1      6585    3    0    1
 -2       411        80       592      2417
 -1      6586    3    0    1
 -2       592        80      2209      2417
 -1      6587    3    0    1
 -2      2506      1239      2624      2641
 -1      6588    3    0    1
 -2      1036       778       771      2418
 -1      6589    3    0    1
 -2       771      2153      2173      2418
 -1      6590    3    0    1
 -2      2018       771      2173      2418
 -1      6591    3    0    1
 -2      1236       771      2018      2418
 -1      6592    3    0    1
 -2      1036      1236      2018      2418
 -1      6593    3    0    1
 -2      1236      1036       771      2418
 -1      6594    3    0    1
 -2      2282      1648      2370      2419
 -1      6595    3    0    1
 -2      1015       703      2415      2643
 -1      6596    3    0    1
 -2      1978       166      2057      2643
 -1      6597    3    0    1
 -2       430      1264      1740      2476
 -1      6598    3    0    1
 -2      1264      1729      1740      2476
 -1      6599    3    0    1
 -2      1310       439       472      2420
 -1      6600    3    0    1
 -2      1118      1307      1850      2421
 -1      6601    3    0    1
 -2       431       315      1118      2421
 -1      6602    3    0    1
 -2      1307      1701      1850      2421
 -1      6603    3    0    1
 -2      1307       315      1701      2421
 -1      6604    3    0    1
 -2      1118       315      1307      2421
 -1      6605    3    0    1
 -2      1036      1245      2736      1370
 -1      6606    3    0    1
 -2      2464      1030      1362      1363
 -1      6607    3    0    1
 -2      2235      2023      2485      2666
 -1      6608    3    0    1
 -2      1049      2332      2471      2738
 -1      6609    3    0    1
 -2      1884      1408      1990      2735
 -1      6610    3    0    1
 -2       214       193      2464      1363
 -1      6611    3    0    1
 -2      1989       256      2451      2749
 -1      6612    3    0    1
 -2      2626      2732      2733      2752
 -1      6613    3    0    1
 -2      1884      1990      2734      2735
 -1      6614    3    0    1
 -2      1245       795      1886      2423
 -1      6615    3    0    1
 -2      1245      1043       795      2423
 -1      6616    3    0    1
 -2       433      2225      2257      2553
 -1      6617    3    0    1
 -2       342      1851      2331      2472
 -1      6618    3    0    1
 -2      1006       149      2558      2691
 -1      6619    3    0    1
 -2       336      1793      1851      2472
 -1      6620    3    0    1
 -2       336       640       663      2472
 -1      6621    3    0    1
 -2      1503      1434      2442      2493
 -1      6622    3    0    1
 -2       640       342      2227      2472
 -1      6623    3    0    1
 -2      1655      1437      1776      2426
 -1      6624    3    0    1
 -2      1429      1655      1776      2426
 -1      6625    3    0    1
 -2      1610      1889      2043      2543
 -1      6626    3    0    1
 -2      1157       967      2344      2647
 -1      6627    3    0    1
 -2       971      1500      2623      2647
 -1      6628    3    0    1
 -2       967      1157      2281      2647
 -1      6629    3    0    1
 -2      1904       967      2281      2647
 -1      6630    3    0    1
 -2      1157       971      2623      2647
 -1      6631    3    0    1
 -2       189       179      1218      2427
 -1      6632    3    0    1
 -2       382       406       591      2639
 -1      6633    3    0    1
 -2      2310       382      1867      2639
 -1      6634    3    0    1
 -2      1417       678      2096      2429
 -1      6635    3    0    1
 -2      2096       678      2397      2429
 -1      6636    3    0    1
 -2       406       382      2310      2639
 -1      6637    3    0    1
 -2       382      2310      1867      1167
 -1      6638    3    0    1
 -2       591      2406      2490      2639
 -1      6639    3    0    1
 -2      2496       774      1238       776
 -1      6640    3    0    1
 -2       243       366      2454      2649
 -1      6641    3    0    1
 -2      1486      1433      1575      2711
 -1      6642    3    0    1
 -2      1065      1713      2519      2677
 -1      6643    3    0    1
 -2      1405      1565      2090      2462
 -1      6644    3    0    1
 -2       397       293      2527      2680
 -1      6645    3    0    1
 -2      2079      1525      2090      2462
 -1      6646    3    0    1
 -2      1565      2079      2090      2462
 -1      6647    3    0    1
 -2      1565      1799      2079      2462
 -1      6648    3    0    1
 -2      1799      1525      2079      2462
 -1      6649    3    0    1
 -2      1905      1880      2042      2434
 -1      6650    3    0    1
 -2      1452      1592      1905      2434
 -1      6651    3    0    1
 -2      1905      1592      2025      2434
 -1      6652    3    0    1
 -2      1880      1905      2025      2434
 -1      6653    3    0    1
 -2      1452      1905      2042      2434
 -1      6654    3    0    1
 -2      1814      2394      2400      2435
 -1      6655    3    0    1
 -2      1870      2278      2400      2435
 -1      6656    3    0    1
 -2       663      1681      2166      2497
 -1      6657    3    0    1
 -2      1870       776      2278      2435
 -1      6658    3    0    1
 -2      1728      1705      1967      2536
 -1      6659    3    0    1
 -2       179       189       735      2436
 -1      6660    3    0    1
 -2       735       189      1991      2436
 -1      6661    3    0    1
 -2      2074      1728      2086      2536
 -1      6662    3    0    1
 -2      1705      1728      2074      2536
 -1      6663    3    0    1
 -2      1967       444      2382      2536
 -1      6664    3    0    1
 -2      1167      2054      2310      2437
 -1      6665    3    0    1
 -2       582      1167      2310      2437
 -1      6666    3    0    1
 -2      2316       976      2341      2437
 -1      6667    3    0    1
 -2      1973       976      2316      2437
 -1      6668    3    0    1
 -2      1478      1973      2316      2437
 -1      6669    3    0    1
 -2      2006      2316      2341      2437
 -1      6670    3    0    1
 -2      2310      2006      2341      2437
 -1      6671    3    0    1
 -2      2381       422      2487      2548
 -1      6672    3    0    1
 -2      1218      1901      1988      2439
 -1      6673    3    0    1
 -2      1502      1218      1988      2439
 -1      6674    3    0    1
 -2      1218      2427      2436      2439
 -1      6675    3    0    1
 -2      1901      1218      2436      2439
 -1      6676    3    0    1
 -2      1786       386      2235      2666
 -1      6677    3    0    1
 -2       434      2023      2235      2666
 -1      6678    3    0    1
 -2      1455      1786      2235      2666
 -1      6679    3    0    1
 -2      2481       241      1364      1365
 -1      6680    3    0    1
 -2      2736      2027      1370      1371
 -1      6681    3    0    1
 -2       333      1387      1664      2441
 -1      6682    3    0    1
 -2      1674      2246      2431      2520
 -1      6683    3    0    1
 -2       870       871      2223      2519
 -1      6684    3    0    1
 -2      2033       870      2223      2519
 -1      6685    3    0    1
 -2      1971       205      2045      2518
 -1      6686    3    0    1
 -2      1503      1434      1856      2442
 -1      6687    3    0    1
 -2      1936       205      1971      2518
 -1      6688    3    0    1
 -2      1605      1028      2136      2518
 -1      6689    3    0    1
 -2      1006       675       682      2444
 -1      6690    3    0    1
 -2      1968      2000      2083      2501
 -1      6691    3    0    1
 -2      1202      1006       682      2444
 -1      6692    3    0    1
 -2      1202       682      1794      2444
 -1      6693    3    0    1
 -2      1859      1803      2255      2445
 -1      6694    3    0    1
 -2      1390      1859      2078      2445
 -1      6695    3    0    1
 -2      2078      1859      2255      2445
 -1      6696    3    0    1
 -2       356       688      1383      2634
 -1      6697    3    0    1
 -2       688      1999      2558      2634
 -1      6698    3    0    1
 -2       338      2078      2255      2445
 -1      6699    3    0    1
 -2      1404      1819      1906      2446
 -1      6700    3    0    1
 -2      1476      1956      1982      2447
 -1      6701    3    0    1
 -2      2396      1342      2619      2651
 -1      6702    3    0    1
 -2      2261      1342      2396      2651
 -1      6703    3    0    1
 -2      1956      1476      2167      2447
 -1      6704    3    0    1
 -2      1733      1956      2167      2447
 -1      6705    3    0    1
 -2       487      1702      2226      2597
 -1      6706    3    0    1
 -2      1772      1734      2557      2597
 -1      6707    3    0    1
 -2       952       487      2226      2597
 -1      6708    3    0    1
 -2      2432      1702      2461      2597
 -1      6709    3    0    1
 -2      1702      1898      2461      2597
 -1      6710    3    0    1
 -2       438      1311      1121      2448
 -1      6711    3    0    1
 -2       465      1949      2274      2448
 -1      6712    3    0    1
 -2       910       942      1121      2448
 -1      6713    3    0    1
 -2       910      1121      1311      2448
 -1      6714    3    0    1
 -2      1311       438       465      2448
 -1      6715    3    0    1
 -2      1311       465      2274      2448
 -1      6716    3    0    1
 -2       910      1311      2274      2448
 -1      6717    3    0    1
 -2      1628      1429      1707      2450
 -1      6718    3    0    1
 -2      1789      1429      2022      2450
 -1      6719    3    0    1
 -2      1542      1789      2022      2450
 -1      6720    3    0    1
 -2      1429      1628      2022      2450
 -1      6721    3    0    1
 -2      1030      2018      2464      1362
 -1      6722    3    0    1
 -2      2066      1546      2526      2679
 -1      6723    3    0    1
 -2      2152      1989      2171      2451
 -1      6724    3    0    1
 -2       795       802      1040      2654
 -1      6725    3    0    1
 -2      1494      1846      1880      2453
 -1      6726    3    0    1
 -2      1494      1393      1846      2453
 -1      6727    3    0    1
 -2      1248       802      2579      2654
 -1      6728    3    0    1
 -2      1886      1040      2624      2654
 -1      6729    3    0    1
 -2       871      1272      1713      2650
 -1      6730    3    0    1
 -2      1482      1461      2489      2508
 -1      6731    3    0    1
 -2      1482      1635      1755      2508
 -1      6732    3    0    1
 -2      1635      1586      1755      2508
 -1      6733    3    0    1
 -2      1635      1482      2393      2508
 -1      6734    3    0    1
 -2      1586      1635      2393      2508
 -1      6735    3    0    1
 -2       243       366      1040      2454
 -1      6736    3    0    1
 -2      1785      2530      2532      2655
 -1      6737    3    0    1
 -2      1491      1403      2652      2711
 -1      6738    3    0    1
 -2      1551      1891      2238      2507
 -1      6739    3    0    1
 -2      1553      1467      2039      2458
 -1      6740    3    0    1
 -2      1043       802      2423      2492
 -1      6741    3    0    1
 -2       819      1043      1256      2492
 -1      6742    3    0    1
 -2       735      1977      1991      2459
 -1      6743    3    0    1
 -2       735       375      1977      2459
 -1      6744    3    0    1
 -2       712      1991      2289      2459
 -1      6745    3    0    1
 -2      1974       712      2289      2459
 -1      6746    3    0    1
 -2      1043      2423      2481      2492
 -1      6747    3    0    1
 -2      2401      2397      2429      2638
 -1      6748    3    0    1
 -2       819      1256      2471      2492
 -1      6749    3    0    1
 -2       712       735      1991      2459
 -1      6750    3    0    1
 -2       351       375       712      2459
 -1      6751    3    0    1
 -2       712       375       735      2459
 -1      6752    3    0    1
 -2      1585      1837      2009      2460
 -1      6753    3    0    1
 -2      1772      1896      2412      2461
 -1      6754    3    0    1
 -2       958      1881      1940      2461
 -1      6755    3    0    1
 -2      1940      1881      2432      2461
 -1      6756    3    0    1
 -2      1702      1898      2432      2461
 -1      6757    3    0    1
 -2      2231      2302      2516      2598
 -1      6758    3    0    1
 -2      1896       510      2412      2461
 -1      6759    3    0    1
 -2       958       510      1896      2461
 -1      6760    3    0    1
 -2      1881       958      1896      2461
 -1      6761    3    0    1
 -2      1896      1772      2432      2461
 -1      6762    3    0    1
 -2      1881      1896      2432      2461
 -1      6763    3    0    1
 -2      1565      1411      1799      2462
 -1      6764    3    0    1
 -2      1157       556      2281      2647
 -1      6765    3    0    1
 -2      1341      1087      2467      2658
 -1      6766    3    0    1
 -2      2150      2467      2517      2658
 -1      6767    3    0    1
 -2      2427      2106      2439      2463
 -1      6768    3    0    1
 -2      2189      2106      2427      2463
 -1      6769    3    0    1
 -2       738       737      1030      1363
 -1      6770    3    0    1
 -2       193       738       194      1363
 -1      6771    3    0    1
 -2       975      1160      2300      2478
 -1      6772    3    0    1
 -2      1411      1465      2039      2515
 -1      6773    3    0    1
 -2       438      1949      2448      2466
 -1      6774    3    0    1
 -2      1894      1449      2039      2659
 -1      6775    3    0    1
 -2      1341      1087      1949      2467
 -1      6776    3    0    1
 -2      1449      1894      2458      2659
 -1      6777    3    0    1
 -2      1819      2446      2552      2659
 -1      6778    3    0    1
 -2      1566      1594      1927      2468
 -1      6779    3    0    1
 -2      1566       413      1594      2468
 -1      6780    3    0    1
 -2       362        92      1477      2469
 -1      6781    3    0    1
 -2       615        92       616      2469
 -1      6782    3    0    1
 -2       615       616      2380      2469
 -1      6783    3    0    1
 -2       616      2069      2380      2469
 -1      6784    3    0    1
 -2        92       362       616      2469
 -1      6785    3    0    1
 -2       490      2355      2361      2632
 -1      6786    3    0    1
 -2      1966      1569      2063      2470
 -1      6787    3    0    1
 -2      1706      1966      2063      2470
 -1      6788    3    0    1
 -2      1569      1966      2288      2470
 -1      6789    3    0    1
 -2      2247       292      2680      2692
 -1      6790    3    0    1
 -2       826      1049      2259      2471
 -1      6791    3    0    1
 -2       826       819      1049      2471
 -1      6792    3    0    1
 -2       149      1006      1202      2691
 -1      6793    3    0    1
 -2       447       453      1719      2764
 -1      6794    3    0    1
 -2        53       379      1500      2739
 -1      6795    3    0    1
 -2       410      2326      2348      1356
 -1      6796    3    0    1
 -2      2129      2100      2198      2574
 -1      6797    3    0    1
 -2      1272      2596      2650      2660
 -1      6798    3    0    1
 -2      2349       651      2480      2663
 -1      6799    3    0    1
 -2      1272      2223      2596      2660
 -1      6800    3    0    1
 -2       846       847      1056      2662
 -1      6801    3    0    1
 -2      1238      1870      2206      2496
 -1      6802    3    0    1
 -2      1870       776      2435      2496
 -1      6803    3    0    1
 -2      1035      1237      2177      2496
 -1      6804    3    0    1
 -2      1869       239      2528      2716
 -1      6805    3    0    1
 -2      1001      2358      2714      2715
 -1      6806    3    0    1
 -2      1056       384      1953      2476
 -1      6807    3    0    1
 -2       384      1056      1264      2476
 -1      6808    3    0    1
 -2      2050      2282      2370      2700
 -1      6809    3    0    1
 -2      1510      1430      1748      2700
 -1      6810    3    0    1
 -2       998      2351      2480      2663
 -1      6811    3    0    1
 -2       975       580      2346      2478
 -1      6812    3    0    1
 -2       580       975      2300      2478
 -1      6813    3    0    1
 -2      2294       378      2318      2478
 -1      6814    3    0    1
 -2       378      2008      2318      2478
 -1      6815    3    0    1
 -2        70       378      2294      2478
 -1      6816    3    0    1
 -2        81       975      2008      2478
 -1      6817    3    0    1
 -2       378        81      2008      2478
 -1      6818    3    0    1
 -2       975        70      1160      2478
 -1      6819    3    0    1
 -2       378        70       975      2478
 -1      6820    3    0    1
 -2        81       378       975      2478
 -1      6821    3    0    1
 -2      1444      1417      1781      2479
 -1      6822    3    0    1
 -2      1951      2198      2584      2695
 -1      6823    3    0    1
 -2      1185       998      2351      2480
 -1      6824    3    0    1
 -2       634       651      1185      2480
 -1      6825    3    0    1
 -2       651       998      1185      2480
 -1      6826    3    0    1
 -2      2053      1503      2442      2493
 -1      6827    3    0    1
 -2      1043      2423      2736      1364
 -1      6828    3    0    1
 -2       810       809      1256      1365
 -1      6829    3    0    1
 -2      1485      2253      2555      2588
 -1      6830    3    0    1
 -2      2160      2261      2619      2651
 -1      6831    3    0    1
 -2      1408      1377      2052      2665
 -1      6832    3    0    1
 -2      1049      1263      2332      2738
 -1      6833    3    0    1
 -2      1408      2440      2665      2735
 -1      6834    3    0    1
 -2       360       359      2713      2759
 -1      6835    3    0    1
 -2       154       354       688      2482
 -1      6836    3    0    1
 -2       688       173       711      2482
 -1      6837    3    0    1
 -2       354       173       688      2482
 -1      6838    3    0    1
 -2      1123       317      1313      2536
 -1      6839    3    0    1
 -2      2306      1455      2416      2485
 -1      6840    3    0    1
 -2      1468      2306      2416      2485
 -1      6841    3    0    1
 -2      1786      1455      2196      2485
 -1      6842    3    0    1
 -2      1455      1468      2196      2485
 -1      6843    3    0    1
 -2      1273       874      2330      2667
 -1      6844    3    0    1
 -2       874      1273      2488      2667
 -1      6845    3    0    1
 -2      2023      1834      2235      2485
 -1      6846    3    0    1
 -2      1834      2023      2043      2485
 -1      6847    3    0    1
 -2      2043      1455      2235      2485
 -1      6848    3    0    1
 -2      1834      2043      2235      2485
 -1      6849    3    0    1
 -2      2724      2576      2726      2727
 -1      6850    3    0    1
 -2      1720       349      2280      2727
 -1      6851    3    0    1
 -2       450       543      1796      2487
 -1      6852    3    0    1
 -2       450       422       520      2487
 -1      6853    3    0    1
 -2       450       520       543      2487
 -1      6854    3    0    1
 -2      1271       867      2354      2488
 -1      6855    3    0    1
 -2      2290      1271      2354      2488
 -1      6856    3    0    1
 -2      1066      1271      2290      2488
 -1      6857    3    0    1
 -2      1271      1066       867      2488
 -1      6858    3    0    1
 -2       377       351      1974      2668
 -1      6859    3    0    1
 -2      1273      1270       874      2488
 -1      6860    3    0    1
 -2       591       378      2318      2490
 -1      6861    3    0    1
 -2       568        70       591      2490
 -1      6862    3    0    1
 -2        70       378       591      2490
 -1      6863    3    0    1
 -2       723       706      2376      2491
 -1      6864    3    0    1
 -2      1577       723      2376      2491
 -1      6865    3    0    1
 -2       375      1020      1977      2491
 -1      6866    3    0    1
 -2       826      2259      2387      2669
 -1      6867    3    0    1
 -2      1020       351      1211      2491
 -1      6868    3    0    1
 -2       723      1020      1211      2491
 -1      6869    3    0    1
 -2      2492       819      2579      2669
 -1      6870    3    0    1
 -2       706       723      1211      2491
 -1      6871    3    0    1
 -2       375       351      1020      2491
 -1      6872    3    0    1
 -2      1396      2093      2442      2493
 -1      6873    3    0    1
 -2      2010      1396      2442      2493
 -1      6874    3    0    1
 -2      1747      1480      2147      2494
 -1      6875    3    0    1
 -2       300      2236      2521      2676
 -1      6876    3    0    1
 -2      1413      1483      2150      2494
 -1      6877    3    0    1
 -2      1483      1413      1847      2494
 -1      6878    3    0    1
 -2      1413      1747      1847      2494
 -1      6879    3    0    1
 -2      1489      1670      1824      2635
 -1      6880    3    0    1
 -2       330       711      2057      2573
 -1      6881    3    0    1
 -2      2585      1421      2688      2695
 -1      6882    3    0    1
 -2      2236        13      2486      2511
 -1      6883    3    0    1
 -2       994      1191      2349      2759
 -1      6884    3    0    1
 -2      2748      2761      2765      2772
 -1      6885    3    0    1
 -2      1191       651      2349      2714
 -1      6886    3    0    1
 -2      2129      1458      2754      2755
 -1      6887    3    0    1
 -2      1199       666      1347      1367
 -1      6888    3    0    1
 -2       776      1035      2435      2496
 -1      6889    3    0    1
 -2      1237      2496       774      2671
 -1      6890    3    0    1
 -2      1237       774      1958      2671
 -1      6891    3    0    1
 -2      1237      1958      2560      2671
 -1      6892    3    0    1
 -2       583      2037      2410      2498
 -1      6893    3    0    1
 -2      2496      1237      2560      2671
 -1      6894    3    0    1
 -2      2496      1237       774      1035
 -1      6895    3    0    1
 -2       977       411      2299      2498
 -1      6896    3    0    1
 -2       583       977      2299      2498
 -1      6897    3    0    1
 -2      2037       583      2299      2498
 -1      6898    3    0    1
 -2      2263       976      2341      2499
 -1      6899    3    0    1
 -2      2358       675      2444      2500
 -1      6900    3    0    1
 -2       185       376      1020      2566
 -1      6901    3    0    1
 -2      1762      2379      2411      2565
 -1      6902    3    0    1
 -2       682      1794      2444      2500
 -1      6903    3    0    1
 -2       675       682      2444      2500
 -1      6904    3    0    1
 -2       723       730      1020      2566
 -1      6905    3    0    1
 -2      1063      2033      2298      2602
 -1      6906    3    0    1
 -2      1467      1449      2458      2673
 -1      6907    3    0    1
 -2      2494      1445      2572      2675
 -1      6908    3    0    1
 -2      1762        68      2379      2565
 -1      6909    3    0    1
 -2        68      1158      2379      2565
 -1      6910    3    0    1
 -2      1449      1467      2156      2673
 -1      6911    3    0    1
 -2      1158      1945      2170      2565
 -1      6912    3    0    1
 -2      2170      1617      2379      2565
 -1      6913    3    0    1
 -2      1687      1892      1906      2673
 -1      6914    3    0    1
 -2       583       977      2498      2577
 -1      6915    3    0    1
 -2      1867      1167      2310      2577
 -1      6916    3    0    1
 -2      1167       977       582      2577
 -1      6917    3    0    1
 -2      2285       423      2428      2504
 -1      6918    3    0    1
 -2      1401       423      2103      2504
 -1      6919    3    0    1
 -2       423      1401      2428      2504
 -1      6920    3    0    1
 -2       991       334       993      2505
 -1      6921    3    0    1
 -2       991       993      2248      2505
 -1      6922    3    0    1
 -2       993      1943      2248      2505
 -1      6923    3    0    1
 -2       993       334      1943      2505
 -1      6924    3    0    1
 -2       357       114       991      2505
 -1      6925    3    0    1
 -2      1818      1394      2181      2642
 -1      6926    3    0    1
 -2       711       166      2057      2694
 -1      6927    3    0    1
 -2       355      2482      2664      2694
 -1      6928    3    0    1
 -2      1690       784      2425      2625
 -1      6929    3    0    1
 -2       784      2157      2425      2625
 -1      6930    3    0    1
 -2       226       222      1239      2506
 -1      6931    3    0    1
 -2      1075      1336      1687      2509
 -1      6932    3    0    1
 -2      2307      2108      2331      2568
 -1      6933    3    0    1
 -2      1749      2137      2161      2568
 -1      6934    3    0    1
 -2      1336       313       466      2509
 -1      6935    3    0    1
 -2      1851       631      2307      2568
 -1      6936    3    0    1
 -2       313      1336      1075      2509
 -1      6937    3    0    1
 -2      2108      1184      2137      2568
 -1      6938    3    0    1
 -2      1713      1065      2521      2677
 -1      6939    3    0    1
 -2       239      1752      2058      2528
 -1      6940    3    0    1
 -2      1869       239      2058      2528
 -1      6941    3    0    1
 -2       495        13       880      2511
 -1      6942    3    0    1
 -2      2551      2032      2688      2718
 -1      6943    3    0    1
 -2        13       300       880      2511
 -1      6944    3    0    1
 -2       496      2486      2502        16
 -1      6945    3    0    1
 -2       394       495      2305      2512
 -1      6946    3    0    1
 -2        10       394      2305      2512
 -1      6947    3    0    1
 -2       394        10       495      2512
 -1      6948    3    0    1
 -2      1673      2517      2628      2675
 -1      6949    3    0    1
 -2      2569      1673      2628      2675
 -1      6950    3    0    1
 -2      2384      2147      2572      2675
 -1      6951    3    0    1
 -2      2294        70      2478      2514
 -1      6952    3    0    1
 -2       556      2281      2300      2514
 -1      6953    3    0    1
 -2       968       556      2300      2514
 -1      6954    3    0    1
 -2       556       968      2281      2514
 -1      6955    3    0    1
 -2        64        63      2319      2514
 -1      6956    3    0    1
 -2      1868        64      2319      2514
 -1      6957    3    0    1
 -2        63        64       968      2514
 -1      6958    3    0    1
 -2       968        64      1868      2514
 -1      6959    3    0    1
 -2        70        63      1160      2514
 -1      6960    3    0    1
 -2      2071      1465      2219      2515
 -1      6961    3    0    1
 -2       425      2071      2219      2515
 -1      6962    3    0    1
 -2       991      2248      2271      2516
 -1      6963    3    0    1
 -2      2231       991      2271      2516
 -1      6964    3    0    1
 -2       357       991      2231      2516
 -1      6965    3    0    1
 -2       357      2231      2302      2516
 -1      6966    3    0    1
 -2       166      1978      2057      2694
 -1      6967    3    0    1
 -2      1413      1747      2494      2572
 -1      6968    3    0    1
 -2       300      2677      2676      2521
 -1      6969    3    0    1
 -2      1747      1480      2494      2572
 -1      6970    3    0    1
 -2      1981      2124      2245      2520
 -1      6971    3    0    1
 -2      2245      2124      2431      2520
 -1      6972    3    0    1
 -2      2124      1674      2431      2520
 -1      6973    3    0    1
 -2      2049      2249      2308      2678
 -1      6974    3    0    1
 -2      1468      2049      2243      2678
 -1      6975    3    0    1
 -2      1468      2049      2605      2306
 -1      6976    3    0    1
 -2       228      1996      2287      2560
 -1      6977    3    0    1
 -2      1237      2177      2496      2560
 -1      6978    3    0    1
 -2       228       230      1996      2560
 -1      6979    3    0    1
 -2       228      2287      2425      2560
 -1      6980    3    0    1
 -2      1595      1246      2058      2522
 -1      6981    3    0    1
 -2       244       440       807      2522
 -1      6982    3    0    1
 -2       807       440      2157      2522
 -1      6983    3    0    1
 -2       244       807      2058      2522
 -1      6984    3    0    1
 -2       440       244      1246      2522
 -1      6985    3    0    1
 -2       393      1148      2229      2523
 -1      6986    3    0    1
 -2      1145       452      1431      2523
 -1      6987    3    0    1
 -2       452      1145      1148      2523
 -1      6988    3    0    1
 -2      1145      1431      2107      2523
 -1      6989    3    0    1
 -2      1148      1145      2107      2523
 -1      6990    3    0    1
 -2      2432      1940      2461      2525
 -1      6991    3    0    1
 -2      1898      2432      2461      2525
 -1      6992    3    0    1
 -2      1898      1702      2432      2525
 -1      6993    3    0    1
 -2      2120      1970      2286      2525
 -1      6994    3    0    1
 -2      1962      2120      2286      2525
 -1      6995    3    0    1
 -2      1702      1129      1962      2525
 -1      6996    3    0    1
 -2      1129      1702      1898      2525
 -1      6997    3    0    1
 -2      1129         6      1962      2525
 -1      6998    3    0    1
 -2      1962         6      2120      2525
 -1      6999    3    0    1
 -2      1702      1970      2432      2525
 -1      7000    3    0    1
 -2      1702      1962      1970      2525
 -1      7001    3    0    1
 -2      1970      1962      2286      2525
 -1      7002    3    0    1
 -2      1539      1845      2065      2533
 -1      7003    3    0    1
 -2      1454      1540      1909      2533
 -1      7004    3    0    1
 -2      1399      2053      2066      2526
 -1      7005    3    0    1
 -2       300       880      2511      2676
 -1      7006    3    0    1
 -2      1456      1403      1486      2711
 -1      7007    3    0    1
 -2       808       436      2528      2681
 -1      7008    3    0    1
 -2       880       495      2511      2527
 -1      7009    3    0    1
 -2       397       293      1273      2527
 -1      7010    3    0    1
 -2      2032      1446      2199      2551
 -1      7011    3    0    1
 -2       397       398       880      2527
 -1      7012    3    0    1
 -2       398       495       880      2527
 -1      7013    3    0    1
 -2      2511       880      2527      2680
 -1      7014    3    0    1
 -2       293       397       880      2680
 -1      7015    3    0    1
 -2      2284      1401      2438      2622
 -1      7016    3    0    1
 -2      1663      1491      1704      2530
 -1      7017    3    0    1
 -2      1785      2530      2655      2683
 -1      7018    3    0    1
 -2      1487      1403      1580      2684
 -1      7019    3    0    1
 -2      2532      1785      2655      2684
 -1      7020    3    0    1
 -2      1403      1785      2532      2684
 -1      7021    3    0    1
 -2      1729      2059      2298      2531
 -1      7022    3    0    1
 -2      1729       847      2059      2531
 -1      7023    3    0    1
 -2      1057       847      1729      2531
 -1      7024    3    0    1
 -2      1976       429      2327      2531
 -1      7025    3    0    1
 -2      1057      1729      2327      2531
 -1      7026    3    0    1
 -2      2298      1976      2327      2531
 -1      7027    3    0    1
 -2      1729      2298      2327      2531
 -1      7028    3    0    1
 -2      1540      1454      1592      2533
 -1      7029    3    0    1
 -2       888       887      1909      2534
 -1      7030    3    0    1
 -2      1286       460      1283      2534
 -1      7031    3    0    1
 -2      1286      1909      2070      2534
 -1      7032    3    0    1
 -2       461      1286      2070      2534
 -1      7033    3    0    1
 -2       460      1286       461      2534
 -1      7034    3    0    1
 -2       887      1286      1283      2534
 -1      7035    3    0    1
 -2      1329       460       461      2534
 -1      7036    3    0    1
 -2      1329       461      2070      2534
 -1      7037    3    0    1
 -2       460      1329      1095      2534
 -1      7038    3    0    1
 -2      1286       887       888      2534
 -1      7039    3    0    1
 -2      2007      1329      2070      2534
 -1      7040    3    0    1
 -2      1286       888      1909      2534
 -1      7041    3    0    1
 -2      1977       735      1991      2535
 -1      7042    3    0    1
 -2      1991       735      2436      2535
 -1      7043    3    0    1
 -2       444      1123      1728      2536
 -1      7044    3    0    1
 -2       444       317      1123      2536
 -1      7045    3    0    1
 -2      1460      1405      1554      2537
 -1      7046    3    0    1
 -2      1122      2261      2396      2613
 -1      7047    3    0    1
 -2      2217      2174      2595      2613
 -1      7048    3    0    1
 -2      2240      1531      2258      2537
 -1      7049    3    0    1
 -2      2217      2261      2575      2613
 -1      7050    3    0    1
 -2      2174      2217      2575      2613
 -1      7051    3    0    1
 -2      1491      1704      2530      2683
 -1      7052    3    0    1
 -2      1524      1386      1598      2538
 -1      7053    3    0    1
 -2      1524      1598      1726      2538
 -1      7054    3    0    1
 -2       511      1138      2617      2622
 -1      7055    3    0    1
 -2      1432      1555      1714      2539
 -1      7056    3    0    1
 -2      1381      1432      1714      2539
 -1      7057    3    0    1
 -2      1432      1381      1854      2539
 -1      7058    3    0    1
 -2      1555      1432      1927      2539
 -1      7059    3    0    1
 -2      1854      1475      1927      2539
 -1      7060    3    0    1
 -2      1432      1854      1927      2539
 -1      7061    3    0    1
 -2      1065       871      1713      2559
 -1      7062    3    0    1
 -2      1794      1202      2444      2691
 -1      7063    3    0    1
 -2       416      1382      2180      2581
 -1      7064    3    0    1
 -2      2092      1814      2279      2686
 -1      7065    3    0    1
 -2       359      1939      2733      2758
 -1      7066    3    0    1
 -2       747       754      2142      2542
 -1      7067    3    0    1
 -2      2026       747      2142      2542
 -1      7068    3    0    1
 -2      1665       754      2173      2542
 -1      7069    3    0    1
 -2       754      1665      2142      2542
 -1      7070    3    0    1
 -2      1610      1741      1889      2543
 -1      7071    3    0    1
 -2      1041      1835      2277      2544
 -1      7072    3    0    1
 -2       237      1041      1908      2544
 -1      7073    3    0    1
 -2      1041       237      1835      2544
 -1      7074    3    0    1
 -2      1835       237      1908      2544
 -1      7075    3    0    1
 -2      2277      2092      2279      2544
 -1      7076    3    0    1
 -2       798      1041      2279      2544
 -1      7077    3    0    1
 -2      1041      2277      2279      2544
 -1      7078    3    0    1
 -2      1870      1961      2218      2545
 -1      7079    3    0    1
 -2      1961      1870      2278      2545
 -1      7080    3    0    1
 -2      2278      1870      2279      2545
 -1      7081    3    0    1
 -2      2277      1961      2279      2545
 -1      7082    3    0    1
 -2      1961      2278      2279      2545
 -1      7083    3    0    1
 -2       119       116      2272      2546
 -1      7084    3    0    1
 -2      2272       116      2356      2546
 -1      7085    3    0    1
 -2       116      1910      2356      2546
 -1      7086    3    0    1
 -2       116       119      1910      2546
 -1      7087    3    0    1
 -2       119       118       640      2546
 -1      7088    3    0    1
 -2      1477       362      2469      2631
 -1      7089    3    0    1
 -2      1021       332      1620      2547
 -1      7090    3    0    1
 -2      1620       332      1699      2547
 -1      7091    3    0    1
 -2      1502       726      2439      2547
 -1      7092    3    0    1
 -2       726      1502      1877      2547
 -1      7093    3    0    1
 -2      1671      1021      1907      2547
 -1      7094    3    0    1
 -2      1420      1446      2032      2688
 -1      7095    3    0    1
 -2        31       422       959      2548
 -1      7096    3    0    1
 -2       688      2482      2573      2634
 -1      7097    3    0    1
 -2      1779      2076      2127      2549
 -1      7098    3    0    1
 -2      1756      1779      2127      2549
 -1      7099    3    0    1
 -2       398      2305      2527      2550
 -1      7100    3    0    1
 -2       398       394      2305      2550
 -1      7101    3    0    1
 -2       397       398      2527      2550
 -1      7102    3    0    1
 -2      1273       397      2527      2550
 -1      7103    3    0    1
 -2       394       398      1127      2550
 -1      7104    3    0    1
 -2      1127       398      1273      2550
 -1      7105    3    0    1
 -2       398       397      1273      2550
 -1      7106    3    0    1
 -2      1673      2089      2569      2628
 -1      7107    3    0    1
 -2      1834      1047      2220      2689
 -1      7108    3    0    1
 -2      1819      2446      2477      2552
 -1      7109    3    0    1
 -2      1922      1982      2465      2552
 -1      7110    3    0    1
 -2      2465      1982      2477      2552
 -1      7111    3    0    1
 -2      1922      2465      2477      2552
 -1      7112    3    0    1
 -2      2257      1046      1436      2457
 -1      7113    3    0    1
 -2      1046      2257      1436      2553
 -1      7114    3    0    1
 -2      2258      2240      2537      2612
 -1      7115    3    0    1
 -2      1460      2258      2537      2612
 -1      7116    3    0    1
 -2      2081      1689      2537      2612
 -1      7117    3    0    1
 -2      1689      2038      2537      2612
 -1      7118    3    0    1
 -2      1804       831      2190      2554
 -1      7119    3    0    1
 -2      1046       262      1048      2554
 -1      7120    3    0    1
 -2      1048       262      2134      2554
 -1      7121    3    0    1
 -2      1046      1048      2134      2554
 -1      7122    3    0    1
 -2      1859      1492      2253      2555
 -1      7123    3    0    1
 -2      1583      1859      2253      2555
 -1      7124    3    0    1
 -2       364        83      2169      2589
 -1      7125    3    0    1
 -2        83       592      2209      2589
 -1      7126    3    0    1
 -2       592      2113      2209      2589
 -1      7127    3    0    1
 -2      2008        83      2209      2589
 -1      7128    3    0    1
 -2      1772       957      1924      2557
 -1      7129    3    0    1
 -2       957      1772      2412      2557
 -1      7130    3    0    1
 -2       957        28      1924      2557
 -1      7131    3    0    1
 -2        28      2126      2132      2557
 -1      7132    3    0    1
 -2        28       446      2126      2557
 -1      7133    3    0    1
 -2      1924        28      2132      2557
 -1      7134    3    0    1
 -2        18       446      1734      2557
 -1      7135    3    0    1
 -2      1734       446      2412      2557
 -1      7136    3    0    1
 -2       446       957      2412      2557
 -1      7137    3    0    1
 -2       446        28       957      2557
 -1      7138    3    0    1
 -2      1006       149      2283      2558
 -1      7139    3    0    1
 -2       428      2247      2602      2692
 -1      7140    3    0    1
 -2      1713      1733      2162      2559
 -1      7141    3    0    1
 -2      2162      1733      2178      2559
 -1      7142    3    0    1
 -2      1468      1741      2306      2605
 -1      7143    3    0    1
 -2      1237      2177       220      1035
 -1      7144    3    0    1
 -2      2177      1237       220      2560
 -1      7145    3    0    1
 -2       230       228      1237      2560
 -1      7146    3    0    1
 -2      2464       194      2561      1369
 -1      7147    3    0    1
 -2       194       186      2561      1369
 -1      7148    3    0    1
 -2       738       194      1363      1369
 -1      7149    3    0    1
 -2      1885      1420      2627      2721
 -1      7150    3    0    1
 -2      2561       186      1368      1369
 -1      7151    3    0    1
 -2      2172      1795      2430      2563
 -1      7152    3    0    1
 -2       385       387       832      2563
 -1      7153    3    0    1
 -2       387       385      2430      2563
 -1      7154    3    0    1
 -2       385       832       855      2563
 -1      7155    3    0    1
 -2      1795       387      2430      2563
 -1      7156    3    0    1
 -2      2234       706      2376      2564
 -1      7157    3    0    1
 -2       706       699      1208      2564
 -1      7158    3    0    1
 -2       368      2287      2570      2693
 -1      7159    3    0    1
 -2       428       427      1976      2602
 -1      7160    3    0    1
 -2       706      1016      2376      2564
 -1      7161    3    0    1
 -2      1016       706      1208      2564
 -1      7162    3    0    1
 -2      2033      1063      2519      2602
 -1      7163    3    0    1
 -2       682      1208       699      2564
 -1      7164    3    0    1
 -2      1208       682      1009      2564
 -1      7165    3    0    1
 -2      1020       376      1977      2566
 -1      7166    3    0    1
 -2       185      1220      2062      2566
 -1      7167    3    0    1
 -2       185      2484      2535      2566
 -1      7168    3    0    1
 -2       185      2062      2484      2566
 -1      7169    3    0    1
 -2       376       185      2535      2566
 -1      7170    3    0    1
 -2      1977       376      2535      2566
 -1      7171    3    0    1
 -2      2108      1749      2331      2568
 -1      7172    3    0    1
 -2       237      1835      1908      2569
 -1      7173    3    0    1
 -2      1835       237      1879      2569
 -1      7174    3    0    1
 -2      1879      1673      2089      2569
 -1      7175    3    0    1
 -2      1879       237      2384      2569
 -1      7176    3    0    1
 -2      1673      1879      2384      2569
 -1      7177    3    0    1
 -2       436       433      2528      2681
 -1      7178    3    0    1
 -2       371       369      2024      2570
 -1      7179    3    0    1
 -2      1033      1665      2173      2570
 -1      7180    3    0    1
 -2      2153      1033      2173      2570
 -1      7181    3    0    1
 -2      1033      1229      1665      2570
 -1      7182    3    0    1
 -2      1229       371      2140      2570
 -1      7183    3    0    1
 -2      1665      1229      2140      2570
 -1      7184    3    0    1
 -2       368       369      1033      2570
 -1      7185    3    0    1
 -2      1033       369      1229      2570
 -1      7186    3    0    1
 -2       369       371      1229      2570
 -1      7187    3    0    1
 -2       429      2327      2347      2696
 -1      7188    3    0    1
 -2      2214      1670      2388      2635
 -1      7189    3    0    1
 -2      1579       174      2148      2646
 -1      7190    3    0    1
 -2       712       174      2289      2646
 -1      7191    3    0    1
 -2      1458      2129      2198      2574
 -1      7192    3    0    1
 -2      2713      2754      2755      2771
 -1      7193    3    0    1
 -2      1786      1455      2485      2666
 -1      7194    3    0    1
 -2       189      2427      2463      2646
 -1      7195    3    0    1
 -2      1400      1458      2198      2574
 -1      7196    3    0    1
 -2       174       712      1991      2646
 -1      7197    3    0    1
 -2       174      1978      2289      2646
 -1      7198    3    0    1
 -2      1377      1400      2198      2574
 -1      7199    3    0    1
 -2      1400      1377      1408      2574
 -1      7200    3    0    1
 -2      1978       174      2643      2646
 -1      7201    3    0    1
 -2       189      1991      2427      2646
 -1      7202    3    0    1
 -2      1458      1537      2129      2574
 -1      7203    3    0    1
 -2      1458      1408      1537      2574
 -1      7204    3    0    1
 -2      1400      1408      1458      2574
 -1      7205    3    0    1
 -2       582      2263      2310      2577
 -1      7206    3    0    1
 -2      1167       582      2310      2577
 -1      7207    3    0    1
 -2      1680       558      1980      2578
 -1      7208    3    0    1
 -2       401       969      2200      2578
 -1      7209    3    0    1
 -2      1159      1680      2339      2578
 -1      7210    3    0    1
 -2      2200      1159      2339      2578
 -1      7211    3    0    1
 -2      1389       401      2200      2578
 -1      7212    3    0    1
 -2      1980       969      2123      2578
 -1      7213    3    0    1
 -2      1389      1980      2123      2578
 -1      7214    3    0    1
 -2       401      1389      2123      2578
 -1      7215    3    0    1
 -2       969       401      2123      2578
 -1      7216    3    0    1
 -2      1045       819      1737      2579
 -1      7217    3    0    1
 -2      1248      1045      1737      2579
 -1      7218    3    0    1
 -2       802       819      1045      2579
 -1      7219    3    0    1
 -2       802      1045      1248      2579
 -1      7220    3    0    1
 -2      2166       664      2497      2580
 -1      7221    3    0    1
 -2       687       358      2540      2580
 -1      7222    3    0    1
 -2      2166       140      2599       131
 -1      7223    3    0    1
 -2       442       219      1679      2600
 -1      7224    3    0    1
 -2       664      1773      2497      2580
 -1      7225    3    0    1
 -2       664       687      1773      2580
 -1      7226    3    0    1
 -2      1773       687      2540      2580
 -1      7227    3    0    1
 -2       140       358       687      2580
 -1      7228    3    0    1
 -2       664       140       687      2580
 -1      7229    3    0    1
 -2         6      1382      1736      2581
 -1      7230    3    0    1
 -2         6       951      1129      2581
 -1      7231    3    0    1
 -2      1129       951      2186      2581
 -1      7232    3    0    1
 -2         6      1129      2186      2581
 -1      7233    3    0    1
 -2       416         6      1736      2581
 -1      7234    3    0    1
 -2      1489      1710      1824      2582
 -1      7235    3    0    1
 -2      1670      1489      1824      2582
 -1      7236    3    0    1
 -2      1489      1670      1710      2582
 -1      7237    3    0    1
 -2      1874      1852      2251      2583
 -1      7238    3    0    1
 -2       338       999      1863      2608
 -1      7239    3    0    1
 -2      1832      1614      2353      2583
 -1      7240    3    0    1
 -2      1710      1376      1832      2583
 -1      7241    3    0    1
 -2      2251      1852      2353      2583
 -1      7242    3    0    1
 -2      1832      2353      2541      2583
 -1      7243    3    0    1
 -2      1710      1832      2541      2583
 -1      7244    3    0    1
 -2      2353      1852      2541      2583
 -1      7245    3    0    1
 -2       496        12      2373      2674
 -1      7246    3    0    1
 -2      1892      1449      1906      2673
 -1      7247    3    0    1
 -2      1445      1673      2384      2675
 -1      7248    3    0    1
 -2      2205       374      2741      2753
 -1      7249    3    0    1
 -2      2087        12      2405      2674
 -1      7250    3    0    1
 -2      1445      2384      2572      2675
 -1      7251    3    0    1
 -2      1449      1892      2458      2673
 -1      7252    3    0    1
 -2      1458      1951      2198      2755
 -1      7253    3    0    1
 -2      1906      1449      2156      2673
 -1      7254    3    0    1
 -2       410      2323      2326      1356
 -1      7255    3    0    1
 -2       822      2553      2611      2689
 -1      7256    3    0    1
 -2      1309      1119      2701      2719
 -1      7257    3    0    1
 -2      2145      2162      2178      2587
 -1      7258    3    0    1
 -2       154       354      2482      2691
 -1      7259    3    0    1
 -2       154      2482      2558      2691
 -1      7260    3    0    1
 -2      2145       486      2242      2587
 -1      7261    3    0    1
 -2       486      2145      2178      2587
 -1      7262    3    0    1
 -2      1583      1859      2555      2588
 -1      7263    3    0    1
 -2      1859      1803      2555      2588
 -1      7264    3    0    1
 -2        98      2169      2469      2589
 -1      7265    3    0    1
 -2      2113        98      2469      2589
 -1      7266    3    0    1
 -2        83       364       592      2589
 -1      7267    3    0    1
 -2       592       364      2113      2589
 -1      7268    3    0    1
 -2        98       364      2169      2589
 -1      7269    3    0    1
 -2       364        98      2113      2589
 -1      7270    3    0    1
 -2      2169        83      2350      2589
 -1      7271    3    0    1
 -2        83      2008      2350      2589
 -1      7272    3    0    1
 -2      1974       351      2459      2668
 -1      7273    3    0    1
 -2      1265       283      2334      2590
 -1      7274    3    0    1
 -2       283       388      2334      2590
 -1      7275    3    0    1
 -2       295       388      1270      2590
 -1      7276    3    0    1
 -2       283      1265      1270      2590
 -1      7277    3    0    1
 -2       388       283      1270      2590
 -1      7278    3    0    1
 -2      1923       831      2554      2681
 -1      7279    3    0    1
 -2       283      2131      2334      2591
 -1      7280    3    0    1
 -2       283       856      2131      2591
 -1      7281    3    0    1
 -2       388       283      2334      2591
 -1      7282    3    0    1
 -2       433       831      1923      2681
 -1      7283    3    0    1
 -2       433      1923      2528      2681
 -1      7284    3    0    1
 -2      1524      1435      2280      2717
 -1      7285    3    0    1
 -2       856       388       879      2591
 -1      7286    3    0    1
 -2       283       388       856      2591
 -1      7287    3    0    1
 -2      1067       301      2403      2592
 -1      7288    3    0    1
 -2      1276       301      1067      2592
 -1      7289    3    0    1
 -2       301      1303      1114      2592
 -1      7290    3    0    1
 -2       301      1114      1718      2592
 -1      7291    3    0    1
 -2      1718      1114      2408      2592
 -1      7292    3    0    1
 -2       778      2153      2418      2641
 -1      7293    3    0    1
 -2       101        94      1176      2593
 -1      7294    3    0    1
 -2      2006      2029      2301      2594
 -1      7295    3    0    1
 -2       420      1542      1789      2614
 -1      7296    3    0    1
 -2      2282      1648      2644      2703
 -1      7297    3    0    1
 -2      1343      1091      2382      2595
 -1      7298    3    0    1
 -2      1343       912      1091      2595
 -1      7299    3    0    1
 -2       912      1343       943      2595
 -1      7300    3    0    1
 -2      2174      1343      2382      2595
 -1      7301    3    0    1
 -2       943      1343      2174      2595
 -1      7302    3    0    1
 -2      2274      2160      2618      2619
 -1      7303    3    0    1
 -2      2261      2396      2619      2651
 -1      7304    3    0    1
 -2      1734        18      2557      2597
 -1      7305    3    0    1
 -2      1582        18      2226      2597
 -1      7306    3    0    1
 -2        18       952      2226      2597
 -1      7307    3    0    1
 -2      1898      1734      2461      2597
 -1      7308    3    0    1
 -2       487      1734      1898      2597
 -1      7309    3    0    1
 -2       487       952      1734      2597
 -1      7310    3    0    1
 -2       952        18      1734      2597
 -1      7311    3    0    1
 -2       355       377      1974      2664
 -1      7312    3    0    1
 -2      1430      1510      2075      2700
 -1      7313    3    0    1
 -2       377       355      1013      2664
 -1      7314    3    0    1
 -2       819       826      1045      2669
 -1      7315    3    0    1
 -2       140      2166      2599      2580
 -1      7316    3    0    1
 -2       140       358      2283      2599
 -1      7317    3    0    1
 -2      2282      2075      2370      2700
 -1      7318    3    0    1
 -2      2050      2370      2648      2700
 -1      7319    3    0    1
 -2       358      1006      2283      2599
 -1      7320    3    0    1
 -2      1400      1377      2585      2695
 -1      7321    3    0    1
 -2       819      1045      1737      2669
 -1      7322    3    0    1
 -2      2336       449      2740      2760
 -1      7323    3    0    1
 -2       292       428      2680      2692
 -1      7324    3    0    1
 -2       496      2502      1582        16
 -1      7325    3    0    1
 -2       140       131      1194      2599
 -1      7326    3    0    1
 -2       358       140      1194      2599
 -1      7327    3    0    1
 -2      1006       358      1194      2599
 -1      7328    3    0    1
 -2      1063       292      1065      2602
 -1      7329    3    0    1
 -2       427       428      1063      2602
 -1      7330    3    0    1
 -2       206       205      2045      2603
 -1      7331    3    0    1
 -2       206      2245      1228      2395
 -1      7332    3    0    1
 -2      2245       206      1228      2603
 -1      7333    3    0    1
 -2      1433      2046      2652      2711
 -1      7334    3    0    1
 -2      2046      1491      2652      2711
 -1      7335    3    0    1
 -2       205       206      1748      2603
 -1      7336    3    0    1
 -2       423      1683      2614      2702
 -1      7337    3    0    1
 -2       316       432      2249      2605
 -1      7338    3    0    1
 -2      2049       316      2249      2605
 -1      7339    3    0    1
 -2      1789       420      2614      2702
 -1      7340    3    0    1
 -2      1683      1746      2614      2702
 -1      7341    3    0    1
 -2      1683      1450      1746      2702
 -1      7342    3    0    1
 -2       420       423      2614      2702
 -1      7343    3    0    1
 -2      1632      1450      1816      2702
 -1      7344    3    0    1
 -2      1504      2339      2353      2607
 -1      7345    3    0    1
 -2      1832      1504      2353      2607
 -1      7346    3    0    1
 -2       338      1863      2445      2608
 -1      7347    3    0    1
 -2       514      1139      2343      2609
 -1      7348    3    0    1
 -2      1139       514      2252      2609
 -1      7349    3    0    1
 -2      2252       514      2343      2609
 -1      7350    3    0    1
 -2      1139      1972      2343      2609
 -1      7351    3    0    1
 -2       455      1145      1431      2609
 -1      7352    3    0    1
 -2      1987       451      2084      2609
 -1      7353    3    0    1
 -2        32       451      1987      2609
 -1      7354    3    0    1
 -2      1139        32      1987      2609
 -1      7355    3    0    1
 -2      1139      1987      2404      2609
 -1      7356    3    0    1
 -2      1972      1139      2404      2609
 -1      7357    3    0    1
 -2       455      1431      2084      2609
 -1      7358    3    0    1
 -2       451       455      2084      2609
 -1      7359    3    0    1
 -2       455      1139      1145      2609
 -1      7360    3    0    1
 -2       451        32      1139      2609
 -1      7361    3    0    1
 -2       455       451      1139      2609
 -1      7362    3    0    1
 -2      1836      1834      1842      2611
 -1      7363    3    0    1
 -2      1436       822      2553      2611
 -1      7364    3    0    1
 -2       822      1436      2220      2611
 -1      7365    3    0    1
 -2      2236       300      2521      2690
 -1      7366    3    0    1
 -2      2559      2178      2587      2690
 -1      7367    3    0    1
 -2      2038      1689      2187      2612
 -1      7368    3    0    1
 -2      1554      2038      2187      2612
 -1      7369    3    0    1
 -2      2038      1554      2537      2612
 -1      7370    3    0    1
 -2      2217      2051      2261      2613
 -1      7371    3    0    1
 -2      2261      2051      2396      2613
 -1      7372    3    0    1
 -2      2396      2217      2595      2613
 -1      7373    3    0    1
 -2      1956      1982      2447      2698
 -1      7374    3    0    1
 -2      2051      2217      2396      2613
 -1      7375    3    0    1
 -2      1384      1683      1746      2614
 -1      7376    3    0    1
 -2      2285       423      2504      2614
 -1      7377    3    0    1
 -2      1683      1384      2103      2614
 -1      7378    3    0    1
 -2      2103      1384      2504      2614
 -1      7379    3    0    1
 -2       423      2103      2504      2614
 -1      7380    3    0    1
 -2      1648      2050      2431      2703
 -1      7381    3    0    1
 -2       423      1683      2103      2614
 -1      7382    3    0    1
 -2       420       423       965      2615
 -1      7383    3    0    1
 -2       511      1138      1754      2617
 -1      7384    3    0    1
 -2      1968      1138      2284      2617
 -1      7385    3    0    1
 -2      1138      1968      2165      2617
 -1      7386    3    0    1
 -2      2100       353      2731      2756
 -1      7387    3    0    1
 -2      2171      1588      2451      2742
 -1      7388    3    0    1
 -2      2051      2138      2524      2618
 -1      7389    3    0    1
 -2      2419      1705      2475      2620
 -1      7390    3    0    1
 -2      1657      2419      2475      2620
 -1      7391    3    0    1
 -2      2274      2160      2466      2704
 -1      7392    3    0    1
 -2      2274      2466      2616      2618
 -1      7393    3    0    1
 -2      2682      2717      2724      2726
 -1      7394    3    0    1
 -2      1414      1484      2616      2618
 -1      7395    3    0    1
 -2      2466      1414      2616      2618
 -1      7396    3    0    1
 -2      1441      1705      2620      2705
 -1      7397    3    0    1
 -2      2246      1674      2620      2705
 -1      7398    3    0    1
 -2      2217      2262      2399      2705
 -1      7399    3    0    1
 -2      2032      1420      2627      2706
 -1      7400    3    0    1
 -2       353      2100      2601      2756
 -1      7401    3    0    1
 -2      1813      1963      2302      2621
 -1      7402    3    0    1
 -2      2302      1963      2598      2621
 -1      7403    3    0    1
 -2      2014      1475      2302      2621
 -1      7404    3    0    1
 -2      1475      2014      2468      2621
 -1      7405    3    0    1
 -2      1754       511      2617      2622
 -1      7406    3    0    1
 -2       511      1754      1820      2622
 -1      7407    3    0    1
 -2      2284      1754      2617      2622
 -1      7408    3    0    1
 -2      1820      1754      2284      2622
 -1      7409    3    0    1
 -2       562       580      2300      2623
 -1      7410    3    0    1
 -2      2300       580      2357      2623
 -1      7411    3    0    1
 -2      2357       971       580      1166
 -1      7412    3    0    1
 -2      1648      2050      2370      2648
 -1      7413    3    0    1
 -2      2623       580       971       562
 -1      7414    3    0    1
 -2       971      2357       580      2623
 -1      7415    3    0    1
 -2      1308      2433      2635      2709
 -1      7416    3    0    1
 -2       122      2672      2713      2771
 -1      7417    3    0    1
 -2      1036      2371      1362      1370
 -1      7418    3    0    1
 -2      1826      2440      2750      2769
 -1      7419    3    0    1
 -2       367       359      1939      2733
 -1      7420    3    0    1
 -2      1951      2119      2584      2733
 -1      7421    3    0    1
 -2       441       366       807      2708
 -1      7422    3    0    1
 -2      1414      1673      2571      2628
 -1      7423    3    0    1
 -2       326      1322      1086      2709
 -1      7424    3    0    1
 -2      2447      1733      2596      2650
 -1      7425    3    0    1
 -2      2166       131      2599      2699
 -1      7426    3    0    1
 -2      1040       366      2624      2629
 -1      7427    3    0    1
 -2       366      1040      2454      2629
 -1      7428    3    0    1
 -2      2454      1040      2624      2629
 -1      7429    3    0    1
 -2      2433      2214      2635      2709
 -1      7430    3    0    1
 -2       118       640      2546      2630
 -1      7431    3    0    1
 -2       640      1681      2630       663
 -1      7432    3    0    1
 -2       118       139       663      2630
 -1      7433    3    0    1
 -2       640       118       663      2630
 -1      7434    3    0    1
 -2      2069       639      2130      2631
 -1      7435    3    0    1
 -2       639       117      2130      2631
 -1      7436    3    0    1
 -2       363       117       639      2631
 -1      7437    3    0    1
 -2       616       363       639      2631
 -1      7438    3    0    1
 -2      1127      2361      2550      2632
 -1      7439    3    0    1
 -2      2330      1127      2550      2632
 -1      7440    3    0    1
 -2      1128       483      2363      2632
 -1      7441    3    0    1
 -2       483      1128      2355      2632
 -1      7442    3    0    1
 -2      2355      1128      2363      2632
 -1      7443    3    0    1
 -2      1390       338      1528      2633
 -1      7444    3    0    1
 -2       341      1390      1528      2633
 -1      7445    3    0    1
 -2      1390       341      1756      2633
 -1      7446    3    0    1
 -2      1756       341      2549      2633
 -1      7447    3    0    1
 -2       338       341      1528      2633
 -1      7448    3    0    1
 -2       356       151       688      2634
 -1      7449    3    0    1
 -2      1824      1670      2214      2635
 -1      7450    3    0    1
 -2      2388      1321      2433      2635
 -1      7451    3    0    1
 -2      2214      2388      2433      2635
 -1      7452    3    0    1
 -2      1321      1308      2433      2635
 -1      7453    3    0    1
 -2      1737      1248      2579      2710
 -1      7454    3    0    1
 -2       380       381      1737      2710
 -1      7455    3    0    1
 -2      1737      2190       261      2710
 -1      7456    3    0    1
 -2      2051      1975      2105      2636
 -1      7457    3    0    1
 -2      2105      1975      2556      2636
 -1      7458    3    0    1
 -2      2262      1975      2575      2636
 -1      7459    3    0    1
 -2      1679      1674      2246      2637
 -1      7460    3    0    1
 -2      2246      1674      2399      2637
 -1      7461    3    0    1
 -2      2600      1679      1674       219
 -1      7462    3    0    1
 -2      1679      2600      1674      2637
 -1      7463    3    0    1
 -2       655      2076      2135      2638
 -1      7464    3    0    1
 -2      1791       655      2135      2638
 -1      7465    3    0    1
 -2      2096      1417      2429      2638
 -1      7466    3    0    1
 -2      1417      2096      2127      2638
 -1      7467    3    0    1
 -2       655      1417      2076      2638
 -1      7468    3    0    1
 -2      2076      1417      2127      2638
 -1      7469    3    0    1
 -2       655      1000      2429      2638
 -1      7470    3    0    1
 -2      1417       655      2429      2638
 -1      7471    3    0    1
 -2      2318       591      2490      2639
 -1      7472    3    0    1
 -2      2417       101       592       411
 -1      7473    3    0    1
 -2       101       592       615      2640
 -1      7474    3    0    1
 -2       101      2417       592      2640
 -1      7475    3    0    1
 -2      2282      1657      2419      2642
 -1      7476    3    0    1
 -2      2370      2282      2419      2642
 -1      7477    3    0    1
 -2      1394      1818      2075      2642
 -1      7478    3    0    1
 -2      1919      1818      2181      2642
 -1      7479    3    0    1
 -2      1743      1919      2181      2642
 -1      7480    3    0    1
 -2      2075      2282      2370      2642
 -1      7481    3    0    1
 -2      1657      1919      2475      2642
 -1      7482    3    0    1
 -2      1657      1818      1919      2642
 -1      7483    3    0    1
 -2      1818      1657      2075      2642
 -1      7484    3    0    1
 -2      2075      1657      2282      2642
 -1      7485    3    0    1
 -2       168       166      1978      2643
 -1      7486    3    0    1
 -2       166       168      1015      2643
 -1      7487    3    0    1
 -2       166      1209      1841      2643
 -1      7488    3    0    1
 -2       166      1015      1209      2643
 -1      7489    3    0    1
 -2       168       174      1015      2643
 -1      7490    3    0    1
 -2      1016      2205      1346      1349
 -1      7491    3    0    1
 -2       194      2464      1363      1369
 -1      7492    3    0    1
 -2      1408      1537      2574      2751
 -1      7493    3    0    1
 -2      1408      2574      2750      2751
 -1      7494    3    0    1
 -2       372       186      2645      2751
 -1      7495    3    0    1
 -2      1989      2171      2451      2742
 -1      7496    3    0    1
 -2      2198      1951      2584      2754
 -1      7497    3    0    1
 -2       396       395      2767      2773
 -1      7498    3    0    1
 -2       454       396      2290      2767
 -1      7499    3    0    1
 -2      2032      2295      2513      2757
 -1      7500    3    0    1
 -2      2440      1408      2750      2751
 -1      7501    3    0    1
 -2      1579      2148      2189      2646
 -1      7502    3    0    1
 -2      2427      2189      2463      2646
 -1      7503    3    0    1
 -2      1015      1579      2643      2646
 -1      7504    3    0    1
 -2       174      1015      2643      2646
 -1      7505    3    0    1
 -2      1015       174      1579      2646
 -1      7506    3    0    1
 -2      2189      2148      2463      2646
 -1      7507    3    0    1
 -2       174       189      2463      2646
 -1      7508    3    0    1
 -2      2148       174      2463      2646
 -1      7509    3    0    1
 -2       593      1175      1356      1360
 -1      7510    3    0    1
 -2      1741      1459      2605      2701
 -1      7511    3    0    1
 -2       316       432      2605      2701
 -1      7512    3    0    1
 -2      2011      1950      2605      2701
 -1      7513    3    0    1
 -2      2262      1441      2705      2720
 -1      7514    3    0    1
 -2       366      1869      2629      2649
 -1      7515    3    0    1
 -2       366       243      1869      2649
 -1      7516    3    0    1
 -2       910      2448      2619      2651
 -1      7517    3    0    1
 -2       910       942      2448      2651
 -1      7518    3    0    1
 -2      2619      1342       910      2651
 -1      7519    3    0    1
 -2       910      1342       942      2651
 -1      7520    3    0    1
 -2      1342      2619       910      1088
 -1      7521    3    0    1
 -2      2234       699      2564      2712
 -1      7522    3    0    1
 -2      1013      2234      2664      2712
 -1      7523    3    0    1
 -2       173      1013      2664      2712
 -1      7524    3    0    1
 -2       173      2664      2691      2712
 -1      7525    3    0    1
 -2      1794      1202      2691      2712
 -1      7526    3    0    1
 -2      1624      1590      1846      2653
 -1      7527    3    0    1
 -2      1590      1624      1667      2653
 -1      7528    3    0    1
 -2      1667      1624      1844      2653
 -1      7529    3    0    1
 -2       346      1667      1844      2653
 -1      7530    3    0    1
 -2      1590      1667      2453      2653
 -1      7531    3    0    1
 -2      1040      1248      2454      2654
 -1      7532    3    0    1
 -2      1248      1040       802      2654
 -1      7533    3    0    1
 -2      1416      2530      1704      2683
 -1      7534    3    0    1
 -2      1785      1386      2655      2684
 -1      7535    3    0    1
 -2      1487      1580      2128      2684
 -1      7536    3    0    1
 -2      1524      1416      1785      2655
 -1      7537    3    0    1
 -2      1571      1398      2210      2656
 -1      7538    3    0    1
 -2      1398      1571      2112      2656
 -1      7539    3    0    1
 -2      1485      1744      1911      2656
 -1      7540    3    0    1
 -2      1911      1571      2604      2656
 -1      7541    3    0    1
 -2      1485      1911      2604      2656
 -1      7542    3    0    1
 -2      1671      1021      2547      2657
 -1      7543    3    0    1
 -2       726      1218      2439      2657
 -1      7544    3    0    1
 -2      2439      1218      2463      2657
 -1      7545    3    0    1
 -2      2148      1671      2189      2657
 -1      7546    3    0    1
 -2      1671      2106      2189      2657
 -1      7547    3    0    1
 -2      2189      2106      2463      2657
 -1      7548    3    0    1
 -2      2148      2189      2463      2657
 -1      7549    3    0    1
 -2      1483      1774      2150      2658
 -1      7550    3    0    1
 -2       909       941      1815      2658
 -1      7551    3    0    1
 -2      1774       941      2467      2658
 -1      7552    3    0    1
 -2      2150      1774      2467      2658
 -1      7553    3    0    1
 -2      1341       909      1087      2658
 -1      7554    3    0    1
 -2       941      1341      2467      2658
 -1      7555    3    0    1
 -2       909      1341       941      2658
 -1      7556    3    0    1
 -2      1892      1819      1906      2659
 -1      7557    3    0    1
 -2      1449      1892      1906      2659
 -1      7558    3    0    1
 -2      1819      1892      2446      2659
 -1      7559    3    0    1
 -2       846      1056      1810      2662
 -1      7560    3    0    1
 -2      1922      2473      2552      2659
 -1      7561    3    0    1
 -2      2446      1922      2552      2659
 -1      7562    3    0    1
 -2      1264      1729      2476      2662
 -1      7563    3    0    1
 -2       846      1810      2352      2662
 -1      7564    3    0    1
 -2      1892      1922      2446      2659
 -1      7565    3    0    1
 -2      2458      1892      2659      2661
 -1      7566    3    0    1
 -2      1894      2458      2659      2661
 -1      7567    3    0    1
 -2      1888       425      2071      2661
 -1      7568    3    0    1
 -2      1894      1888      2071      2661
 -1      7569    3    0    1
 -2       425      1888      2660      2661
 -1      7570    3    0    1
 -2      1888      1894      2039      2661
 -1      7571    3    0    1
 -2      2039      1894      2659      2661
 -1      7572    3    0    1
 -2      2473      1888      2659      2661
 -1      7573    3    0    1
 -2      1888      2473      2660      2661
 -1      7574    3    0    1
 -2      1888      2039      2659      2661
 -1      7575    3    0    1
 -2       651       998      2480      2663
 -1      7576    3    0    1
 -2       651       658      1194      2663
 -1      7577    3    0    1
 -2      1194      2358      2599      2663
 -1      7578    3    0    1
 -2      1194       658      2358      2663
 -1      7579    3    0    1
 -2       377      1013      1211      2664
 -1      7580    3    0    1
 -2      1211      1013      2234      2664
 -1      7581    3    0    1
 -2      1976       428      2602      2692
 -1      7582    3    0    1
 -2       428       879      2680      2692
 -1      7583    3    0    1
 -2       355       173      1013      2664
 -1      7584    3    0    1
 -2      2052      1377      2213      2665
 -1      7585    3    0    1
 -2      1990      2052      2213      2665
 -1      7586    3    0    1
 -2       273      2738      1372      1373
 -1      7587    3    0    1
 -2      1273      1270      2488      2667
 -1      7588    3    0    1
 -2      2488      1270      2590      2667
 -1      7589    3    0    1
 -2      1270      1536      2590      2667
 -1      7590    3    0    1
 -2      1270      1273      1536      2667
 -1      7591    3    0    1
 -2       293      1273      2527      2667
 -1      7592    3    0    1
 -2      1273       293      1536      2667
 -1      7593    3    0    1
 -2      1536       293      2527      2667
 -1      7594    3    0    1
 -2       375       351      2491      2668
 -1      7595    3    0    1
 -2      1977       375      2491      2668
 -1      7596    3    0    1
 -2       375      1977      2459      2668
 -1      7597    3    0    1
 -2       351       375      2459      2668
 -1      7598    3    0    1
 -2      1211       377      2664      2668
 -1      7599    3    0    1
 -2      2234      1211      2664      2668
 -1      7600    3    0    1
 -2      1211      2234      2491      2668
 -1      7601    3    0    1
 -2       351       377      1211      2668
 -1      7602    3    0    1
 -2      1258       826      2387      2669
 -1      7603    3    0    1
 -2      1045      1258      2387      2669
 -1      7604    3    0    1
 -2      1258      1045       826      2669
 -1      7605    3    0    1
 -2       826       819      2471      2669
 -1      7606    3    0    1
 -2      2259       826      2471      2669
 -1      7607    3    0    1
 -2      2037      2299      2329      2670
 -1      7608    3    0    1
 -2       774      1034      1985      2671
 -1      7609    3    0    1
 -2      1985      1034      2206      2671
 -1      7610    3    0    1
 -2       774      2496      1035       776
 -1      7611    3    0    1
 -2      2671      1238       774      1034
 -1      7612    3    0    1
 -2      1034      1238      2206      2671
 -1      7613    3    0    1
 -2      2206      1238      2496      2671
 -1      7614    3    0    1
 -2       774      2496      1238      2671
 -1      7615    3    0    1
 -2      1191      1001       658      2714
 -1      7616    3    0    1
 -2       243       808      1869      2716
 -1      7617    3    0    1
 -2      2324       994      2349      2759
 -1      7618    3    0    1
 -2      1951      2584      2754      2755
 -1      7619    3    0    1
 -2       808       381      2710      2716
 -1      7620    3    0    1
 -2       381       243      2649      2716
 -1      7621    3    0    1
 -2      1199       675      2358      2715
 -1      7622    3    0    1
 -2      2715      2500      1347      1367
 -1      7623    3    0    1
 -2      2528       808      2681      2716
 -1      7624    3    0    1
 -2      2295      2032      2706      2757
 -1      7625    3    0    1
 -2      2152      2748      2761      2765
 -1      7626    3    0    1
 -2      2198      1951      2754      2755
 -1      7627    3    0    1
 -2      2681       808      2710      2716
 -1      7628    3    0    1
 -2      1065       300      2521      2677
 -1      7629    3    0    1
 -2      2247       292      2602      2677
 -1      7630    3    0    1
 -2       292      1065      2602      2677
 -1      7631    3    0    1
 -2      1063      2519      2602      2677
 -1      7632    3    0    1
 -2      1065      1063      2602      2677
 -1      7633    3    0    1
 -2      1063      1065      2519      2677
 -1      7634    3    0    1
 -2       292       300      1065      2677
 -1      7635    3    0    1
 -2      2196      1468      2243      2678
 -1      7636    3    0    1
 -2      2196      2243      2308      2678
 -1      7637    3    0    1
 -2      2308      2249      2606      2678
 -1      7638    3    0    1
 -2      2196      2308      2606      2678
 -1      7639    3    0    1
 -2      2243      2049      2308      2678
 -1      7640    3    0    1
 -2      2066      2526      2529      2679
 -1      7641    3    0    1
 -2      1621      1546      2066      2679
 -1      7642    3    0    1
 -2      1546      1621      1723      2679
 -1      7643    3    0    1
 -2      1621      2066      2529      2679
 -1      7644    3    0    1
 -2       880       397      2527      2680
 -1      7645    3    0    1
 -2       880      2511      2676      2680
 -1      7646    3    0    1
 -2      2247       880      2676      2680
 -1      7647    3    0    1
 -2       293       295      1536      2680
 -1      7648    3    0    1
 -2      1536       295      2591      2680
 -1      7649    3    0    1
 -2       295       293       880      2680
 -1      7650    3    0    1
 -2       368      1690      2287      2693
 -1      7651    3    0    1
 -2       295       879      2591      2680
 -1      7652    3    0    1
 -2       879       295       880      2680
 -1      7653    3    0    1
 -2       428       879       880      2680
 -1      7654    3    0    1
 -2       292       880      2247      2680
 -1      7655    3    0    1
 -2       292       428       880      2680
 -1      7656    3    0    1
 -2       433       436       831      2681
 -1      7657    3    0    1
 -2       436       808       831      2681
 -1      7658    3    0    1
 -2      1391      1433      1486      2711
 -1      7659    3    0    1
 -2      1663      1704      2576      2682
 -1      7660    3    0    1
 -2      2032      1420      2688      2718
 -1      7661    3    0    1
 -2      1704      1416      2576      2682
 -1      7662    3    0    1
 -2      2128      1386      2276      2684
 -1      7663    3    0    1
 -2      1487      2128      2276      2684
 -1      7664    3    0    1
 -2      1386      2061      2655      2684
 -1      7665    3    0    1
 -2      2061      1386      2128      2684
 -1      7666    3    0    1
 -2      2128      1580      2532      2684
 -1      7667    3    0    1
 -2      2128      2532      2655      2684
 -1      7668    3    0    1
 -2      2061      2128      2655      2684
 -1      7669    3    0    1
 -2      2167       416      2180      2685
 -1      7670    3    0    1
 -2      1733      2162      2178      2685
 -1      7671    3    0    1
 -2      2162      1733      2167      2685
 -1      7672    3    0    1
 -2       951      2167      2178      2685
 -1      7673    3    0    1
 -2       951       416      2167      2685
 -1      7674    3    0    1
 -2      2167      1733      2178      2685
 -1      7675    3    0    1
 -2      1814       798      2279      2686
 -1      7676    3    0    1
 -2       959       957      2132      2687
 -1      7677    3    0    1
 -2       957       959      1924      2687
 -1      7678    3    0    1
 -2        31      2132      2548      2687
 -1      7679    3    0    1
 -2       959        31      2548      2687
 -1      7680    3    0    1
 -2        31       959      2132      2687
 -1      7681    3    0    1
 -2       959      1754      1820       511
 -1      7682    3    0    1
 -2      1754       959      1820      2687
 -1      7683    3    0    1
 -2      1820       959      2381      2687
 -1      7684    3    0    1
 -2      2381       959      2548      2687
 -1      7685    3    0    1
 -2      2032      1446      2551      2688
 -1      7686    3    0    1
 -2       940       907      2011      2719
 -1      7687    3    0    1
 -2       856      2131      2591      2696
 -1      7688    3    0    1
 -2       907      1309      2701      2719
 -1      7689    3    0    1
 -2       434      1834      2023      2689
 -1      7690    3    0    1
 -2       434      1047      1834      2689
 -1      7691    3    0    1
 -2      1834      2220      2611      2689
 -1      7692    3    0    1
 -2      2521      2559      2587      2690
 -1      7693    3    0    1
 -2       950      2236      2242      2690
 -1      7694    3    0    1
 -2      2178       486      2587      2690
 -1      7695    3    0    1
 -2       486      2242      2587      2690
 -1      7696    3    0    1
 -2       486       950      2242      2690
 -1      7697    3    0    1
 -2      2236      2521      2587      2690
 -1      7698    3    0    1
 -2      2242      2236      2587      2690
 -1      7699    3    0    1
 -2      1202      1006      2444      2691
 -1      7700    3    0    1
 -2       354       173      2482      2691
 -1      7701    3    0    1
 -2      2482       173      2664      2691
 -1      7702    3    0    1
 -2      2283      1006      2558      2691
 -1      7703    3    0    1
 -2      1006      2283      2444      2691
 -1      7704    3    0    1
 -2      2032      1420      2706      2757
 -1      7705    3    0    1
 -2       360       122      2672      2713
 -1      7706    3    0    1
 -2       354       154      1202      2691
 -1      7707    3    0    1
 -2       665       666      1199      1367
 -1      7708    3    0    1
 -2      2153      1033      2570      2693
 -1      7709    3    0    1
 -2       222       368      1239      2693
 -1      7710    3    0    1
 -2       368      1033      1239      2693
 -1      7711    3    0    1
 -2      1239      1033      2153      2693
 -1      7712    3    0    1
 -2      1239      2153      2641      2693
 -1      7713    3    0    1
 -2       222      1239      2506      2693
 -1      7714    3    0    1
 -2      2506      1239      2641      2693
 -1      7715    3    0    1
 -2       168       712      2289      2694
 -1      7716    3    0    1
 -2       173       711      2482      2694
 -1      7717    3    0    1
 -2       355       173      2482      2694
 -1      7718    3    0    1
 -2       173       355       711      2694
 -1      7719    3    0    1
 -2       377       355      1974      2694
 -1      7720    3    0    1
 -2       355       377       711      2694
 -1      7721    3    0    1
 -2       168       711       712      2694
 -1      7722    3    0    1
 -2       711       377       712      2694
 -1      7723    3    0    1
 -2       712       377      1974      2694
 -1      7724    3    0    1
 -2       429       856       879      2696
 -1      7725    3    0    1
 -2       427       429       879      2696
 -1      7726    3    0    1
 -2       912       943      1122      2697
 -1      7727    3    0    1
 -2      1122       943      2613      2697
 -1      7728    3    0    1
 -2       291      2473      2660      2698
 -1      7729    3    0    1
 -2      2473      1922      2552      2698
 -1      7730    3    0    1
 -2      1922      1982      2552      2698
 -1      7731    3    0    1
 -2      1982      1922      2447      2698
 -1      7732    3    0    1
 -2      2596      2447      2650      2698
 -1      7733    3    0    1
 -2      2650       291      2660      2698
 -1      7734    3    0    1
 -2      2596      2650      2660      2698
 -1      7735    3    0    1
 -2       291      1922      2473      2698
 -1      7736    3    0    1
 -2      2447       291      2650      2698
 -1      7737    3    0    1
 -2      1922       291      2447      2698
 -1      7738    3    0    1
 -2      2599      1194      2663      2699
 -1      7739    3    0    1
 -2      1748      1430      2603      2700
 -1      7740    3    0    1
 -2       206      2603      2648      2700
 -1      7741    3    0    1
 -2       206      1748      2603      2700
 -1      7742    3    0    1
 -2      1510      1748      2648      2700
 -1      7743    3    0    1
 -2      2370      1510      2648      2700
 -1      7744    3    0    1
 -2      1748       206      2648      2700
 -1      7745    3    0    1
 -2       432      1119      2605      2701
 -1      7746    3    0    1
 -2       432       316      1119      2701
 -1      7747    3    0    1
 -2      2262      2217      2575      2720
 -1      7748    3    0    1
 -2      2217      2262      2705      2720
 -1      7749    3    0    1
 -2       420      1789      2450      2702
 -1      7750    3    0    1
 -2      1450      1789      2614      2702
 -1      7751    3    0    1
 -2      1746      1450      2614      2702
 -1      7752    3    0    1
 -2      2431      2050      2520      2703
 -1      7753    3    0    1
 -2      1648      1674      2644      2703
 -1      7754    3    0    1
 -2      1674      1648      2431      2703
 -1      7755    3    0    1
 -2      2105      2138      2618      2704
 -1      7756    3    0    1
 -2      2105      2704      1414      2138
 -1      7757    3    0    1
 -2      1885      2627      2707      2721
 -1      7758    3    0    1
 -2      1674      1441      2620      2705
 -1      7759    3    0    1
 -2      2262      1674      2399      2705
 -1      7760    3    0    1
 -2      2627      1377      2707      2721
 -1      7761    3    0    1
 -2      1441      1674      2262      2705
 -1      7762    3    0    1
 -2       349      2724      2726      2727
 -1      7763    3    0    1
 -2      1470      1767      2005      2727
 -1      7764    3    0    1
 -2      2449      1016      1348      2741
 -1      7765    3    0    1
 -2      1201       349      1720      2727
 -1      7766    3    0    1
 -2      2280       349      2726      2727
 -1      7767    3    0    1
 -2      1377      1400      2213      2707
 -1      7768    3    0    1
 -2      2337      1588      2707      2722
 -1      7769    3    0    1
 -2      1951      2584      2755      2758
 -1      7770    3    0    1
 -2      2734      1884      2761      2765
 -1      7771    3    0    1
 -2      1869       807      2629      2708
 -1      7772    3    0    1
 -2       807      1869      2157      2708
 -1      7773    3    0    1
 -2       784      2157      2625      2708
 -1      7774    3    0    1
 -2       784       807      2157      2708
 -1      7775    3    0    1
 -2       226       784      2625      2708
 -1      7776    3    0    1
 -2       226       441       807      2708
 -1      7777    3    0    1
 -2       784       226       807      2708
 -1      7778    3    0    1
 -2      1489       403      2635      2709
 -1      7779    3    0    1
 -2       326      1321       403      2709
 -1      7780    3    0    1
 -2      1322       326       403      2709
 -1      7781    3    0    1
 -2       403      1321      2635      2709
 -1      7782    3    0    1
 -2      1322       403      1489      2709
 -1      7783    3    0    1
 -2       381      1248      1737      2710
 -1      7784    3    0    1
 -2       243       381      2649      2710
 -1      7785    3    0    1
 -2      2454       243      2649      2710
 -1      7786    3    0    1
 -2       831      2190      2681      2710
 -1      7787    3    0    1
 -2       831       380      2190      2710
 -1      7788    3    0    1
 -2      1248       243      2454      2710
 -1      7789    3    0    1
 -2       808       831      2681      2710
 -1      7790    3    0    1
 -2       381       380       808      2710
 -1      7791    3    0    1
 -2       381       243      1248      2710
 -1      7792    3    0    1
 -2       808       380       831      2710
 -1      7793    3    0    1
 -2       354       173      2691      2712
 -1      7794    3    0    1
 -2      1202       354      2691      2712
 -1      7795    3    0    1
 -2       699      1794      1013       682
 -1      7796    3    0    1
 -2       173      1202      1013      2712
 -1      7797    3    0    1
 -2      1013      1794      2712      1202
 -1      7798    3    0    1
 -2      1202       173       354      2712
 -1      7799    3    0    1
 -2       186      2561      2750      2774
 -1      7800    3    0    1
 -2       359       360       994      2759
 -1      7801    3    0    1
 -2       447      2723      2725      2760
 -1      7802    3    0    1
 -2      2672       360      2713      2714
 -1      7803    3    0    1
 -2      1199      2715      1366      1367
 -1      7804    3    0    1
 -2      2500      1199      1347      1367
 -1      7805    3    0    1
 -2      1199      2500      2715      1367
 -1      7806    3    0    1
 -2      1191       658       651      2714
 -1      7807    3    0    1
 -2       658      2358      2663      2714
 -1      7808    3    0    1
 -2       651       658      2663      2714
 -1      7809    3    0    1
 -2       449       447      2360      2740
 -1      7810    3    0    1
 -2       447      1719      2360      2740
 -1      7811    3    0    1
 -2      2513      2295      2729      2757
 -1      7812    3    0    1
 -2       243       381       808      2716
 -1      7813    3    0    1
 -2      2175      2449      1348      2741
 -1      7814    3    0    1
 -2        49      2295      2344      1358
 -1      7815    3    0    1
 -2      1885      2333      2706      2725
 -1      7816    3    0    1
 -2      2061      1524      2655      2717
 -1      7817    3    0    1
 -2      1524      1416      2655      2717
 -1      7818    3    0    1
 -2      2655      1416      2682      2717
 -1      7819    3    0    1
 -2      1719       447      2723      2725
 -1      7820    3    0    1
 -2        49       521      1354      1358
 -1      7821    3    0    1
 -2      2119      1421      2695      2718
 -1      7822    3    0    1
 -2      1421      2551      2688      2718
 -1      7823    3    0    1
 -2      1421      2119      2551      2718
 -1      7824    3    0    1
 -2      2585      1400      2695      2718
 -1      7825    3    0    1
 -2      2688      2585      2695      2718
 -1      7826    3    0    1
 -2      1400      2585      2688      2718
 -1      7827    3    0    1
 -2      2217      2174      2575      2720
 -1      7828    3    0    1
 -2      1441      1705      2705      2720
 -1      7829    3    0    1
 -2      1705      1728      2174      2720
 -1      7830    3    0    1
 -2      1705      1441      1728      2720
 -1      7831    3    0    1
 -2      1705      2174      2217      2720
 -1      7832    3    0    1
 -2      1705      2217      2705      2720
 -1      7833    3    0    1
 -2      2688      1400      2718      2721
 -1      7834    3    0    1
 -2      2627      2688      2718      2721
 -1      7835    3    0    1
 -2      1400      1377      2718      2721
 -1      7836    3    0    1
 -2      1377      2627      2718      2721
 -1      7837    3    0    1
 -2      1885      2337      2707      2722
 -1      7838    3    0    1
 -2      2722      1885      2627      2707
 -1      7839    3    0    1
 -2      1885      2333      2337      2722
 -1      7840    3    0    1
 -2       395      2336      2767      2773
 -1      7841    3    0    1
 -2      2754      2713      2755      2758
 -1      7842    3    0    1
 -2      1939       359      2713      2758
 -1      7843    3    0    1
 -2      1146      1904      2320      1354
 -1      7844    3    0    1
 -2       360       122      2713      2758
 -1      7845    3    0    1
 -2      2584      2754      2755      2758
 -1      7846    3    0    1
 -2      2717      2280      2724      2726
 -1      7847    3    0    1
 -2       389       454      2311      2728
 -1      7848    3    0    1
 -2       249       273      2456      2766
 -1      7849    3    0    1
 -2      1470      2503      2576      2726
 -1      7850    3    0    1
 -2      2586        71      2744      2768
 -1      7851    3    0    1
 -2      2576      2682      2724      2726
 -1      7852    3    0    1
 -2      2576      2503      2682      2726
 -1      7853    3    0    1
 -2      2713       122      2755      2758
 -1      7854    3    0    1
 -2      2005      1720      2726      2727
 -1      7855    3    0    1
 -2      1572      2005      2726      2727
 -1      7856    3    0    1
 -2      1720      2280      2726      2727
 -1      7857    3    0    1
 -2      2032      2321      2513      2729
 -1      7858    3    0    1
 -2      2295      2032      2513      2729
 -1      7859    3    0    1
 -2      2584      1951      2733      2758
 -1      7860    3    0    1
 -2       359       360      2713      2758
 -1      7861    3    0    1
 -2      2032      2295      2321      2729
 -1      7862    3    0    1
 -2      1458      2198      2754      2755
 -1      7863    3    0    1
 -2      2706      1420      2723      2757
 -1      7864    3    0    1
 -2       762       761      1036      1370
 -1      7865    3    0    1
 -2      2336       395      2760      2773
 -1      7866    3    0    1
 -2      2755      2754      2756      2771
 -1      7867    3    0    1
 -2       409       214      2422      1370
 -1      7868    3    0    1
 -2      2471       256      2481      1365
 -1      7869    3    0    1
 -2       361       367      2348      2762
 -1      7870    3    0    1
 -2      1036      2018      1362      2371
 -1      7871    3    0    1
 -2       359       994      1939      2759
 -1      7872    3    0    1
 -2      2584      2119      2732      2733
 -1      7873    3    0    1
 -2      1939       994      2324      2759
 -1      7874    3    0    1
 -2      1886      1245      2423      2736
 -1      7875    3    0    1
 -2      1245      1043      2423      2736
 -1      7876    3    0    1
 -2      1245      1886      2371      2736
 -1      7877    3    0    1
 -2      1036      1245      2371      2736
 -1      7878    3    0    1
 -2       256       241      2481      1365
 -1      7879    3    0    1
 -2      1256      2471      2481      1365
 -1      7880    3    0    1
 -2      2665      1826      2734      2735
 -1      7881    3    0    1
 -2      1990      2665      2734      2735
 -1      7882    3    0    1
 -2       241      2027      1364      1371
 -1      7883    3    0    1
 -2      1245      2736      1370      1371
 -1      7884    3    0    1
 -2      1364       786       241      1371
 -1      7885    3    0    1
 -2      1826      2730      2734      2737
 -1      7886    3    0    1
 -2      2730      2422      2734      2737
 -1      7887    3    0    1
 -2      2471      1049      2738      1373
 -1      7888    3    0    1
 -2      1500       379      2323      2739
 -1      7889    3    0    1
 -2      2295        36      2757      2764
 -1      7890    3    0    1
 -2      2645      2175      1348      2741
 -1      7891    3    0    1
 -2      1989      2456      2742      2766
 -1      7892    3    0    1
 -2       353      2601      1347      2756
 -1      7893    3    0    1
 -2       689       690      1016      1346
 -1      7894    3    0    1
 -2      2205       374      1349      2741
 -1      7895    3    0    1
 -2       372       374      2645      2741
 -1      7896    3    0    1
 -2      1199      1009      2500      1347
 -1      7897    3    0    1
 -2      2100      2129      2753      2770
 -1      7898    3    0    1
 -2      2129      1458      2198      2754
 -1      7899    3    0    1
 -2       373       353      1367      2756
 -1      7900    3    0    1
 -2       186      2561      2645      2750
 -1      7901    3    0    1
 -2       241      2748      2749      2765
 -1      7902    3    0    1
 -2      2746      2745      2767      2773
 -1      7903    3    0    1
 -2      1826      2440      2665      2750
 -1      7904    3    0    1
 -2       186       372      2645      1348
 -1      7905    3    0    1
 -2      1226      2026      1368      1369
 -1      7906    3    0    1
 -2       713       714      1217      1348
 -1      7907    3    0    1
 -2       372       186       713      1348
 -1      7908    3    0    1
 -2       273       389      2456      2742
 -1      7909    3    0    1
 -2       713       186       714      1348
 -1      7910    3    0    1
 -2      2026      2561      1368      1369
 -1      7911    3    0    1
 -2       690      1346       157      1349
 -1      7912    3    0    1
 -2       372      1348      1349      2741
 -1      7913    3    0    1
 -2      1348      1016      1349      2741
 -1      7914    3    0    1
 -2       374       372      1349      2741
 -1      7915    3    0    1
 -2      2456       389      2728      2742
 -1      7916    3    0    1
 -2      2311      2456      2728      2742
 -1      7917    3    0    1
 -2      2375      2311      2728      2742
 -1      7918    3    0    1
 -2      2337      2311      2375      2742
 -1      7919    3    0    1
 -2      1588      2171      2337      2742
 -1      7920    3    0    1
 -2      1588      2337      2375      2742
 -1      7921    3    0    1
 -2      2171      1989      2456      2742
 -1      7922    3    0    1
 -2      2311      2171      2456      2742
 -1      7923    3    0    1
 -2      2171      2311      2337      2742
 -1      7924    3    0    1
 -2       857       396      1066      1350
 -1      7925    3    0    1
 -2       389       273      2456      1351
 -1      7926    3    0    1
 -2       249      2471      2738      1373
 -1      7927    3    0    1
 -2      2738      1049      1372      1373
 -1      7928    3    0    1
 -2       273       389       833      1351
 -1      7929    3    0    1
 -2       273       833       834      1351
 -1      7930    3    0    1
 -2      2332      2359      2456      1351
 -1      7931    3    0    1
 -2      2323       410      2326      2744
 -1      7932    3    0    1
 -2      1719      2360      2362      1352
 -1      7933    3    0    1
 -2       379      2199      2586      2744
 -1      7934    3    0    1
 -2        71       410      2323      2744
 -1      7935    3    0    1
 -2       474       473      1128      1353
 -1      7936    3    0    1
 -2       395       449       473      1353
 -1      7937    3    0    1
 -2       395       473       474      1353
 -1      7938    3    0    1
 -2       395       474      1128      1353
 -1      7939    3    0    1
 -2      2152      1884      2734      2765
 -1      7940    3    0    1
 -2       194      2464      2561      2769
 -1      7941    3    0    1
 -2       960      1146      2320      1354
 -1      7942    3    0    1
 -2      1157      2344      1358      1359
 -1      7943    3    0    1
 -2      2199       379      2739      2744
 -1      7944    3    0    1
 -2        36        49       521      1354
 -1      7945    3    0    1
 -2        36       521       522      1354
 -1      7946    3    0    1
 -2      1904      2295      2320      1354
 -1      7947    3    0    1
 -2      2320      2295      2743      1354
 -1      7948    3    0    1
 -2      2295      1904      2344      1354
 -1      7949    3    0    1
 -2       497      1352       447      1355
 -1      7950    3    0    1
 -2        71       379      2586      2744
 -1      7951    3    0    1
 -2       194       193      2464      2769
 -1      7952    3    0    1
 -2      2371      2422      1362      1370
 -1      7953    3    0    1
 -2       361       594       410      1356
 -1      7954    3    0    1
 -2      2323      2296      2348      1356
 -1      7955    3    0    1
 -2      2326      2323      2348      1356
 -1      7956    3    0    1
 -2       594       361       593      1356
 -1      7957    3    0    1
 -2       994       359      1939      1361
 -1      7958    3    0    1
 -2       379       570      1166      1357
 -1      7959    3    0    1
 -2       396      1066      2290      2747
 -1      7960    3    0    1
 -2       249      1989      2451      2766
 -1      7961    3    0    1
 -2      1175      2296      1356      1360
 -1      7962    3    0    1
 -2       967      1157      2344      1358
 -1      7963    3    0    1
 -2       521       967      1146      1358
 -1      7964    3    0    1
 -2      2344      2295      1354      1358
 -1      7965    3    0    1
 -2      2311      2375      2728      2746
 -1      7966    3    0    1
 -2       410      2326      2744      2768
 -1      7967    3    0    1
 -2      2199      2551      2586      2768
 -1      7968    3    0    1
 -2      2199      2586      2744      2768
 -1      7969    3    0    1
 -2      2728      2375      2745      2746
 -1      7970    3    0    1
 -2      1146      1904      1354      1358
 -1      7971    3    0    1
 -2      1146       967      1904      1358
 -1      7972    3    0    1
 -2      1157       971      2647      1359
 -1      7973    3    0    1
 -2       971        53      1500      1359
 -1      7974    3    0    1
 -2        53       392      2321      1359
 -1      7975    3    0    1
 -2      1500        53      2321      1359
 -1      7976    3    0    1
 -2       546       545       971      1359
 -1      7977    3    0    1
 -2        53       546       392      1359
 -1      7978    3    0    1
 -2      2321      2344      2647      1359
 -1      7979    3    0    1
 -2      1500      2321      2647      1359
 -1      7980    3    0    1
 -2       546        53       545      1359
 -1      7981    3    0    1
 -2       545        53       971      1359
 -1      7982    3    0    1
 -2       367       361      2348      1361
 -1      7983    3    0    1
 -2      2348       361      1360      1361
 -1      7984    3    0    1
 -2      1183       617       994      1361
 -1      7985    3    0    1
 -2       359       618       367      1361
 -1      7986    3    0    1
 -2      2324      1939      2348      1361
 -1      7987    3    0    1
 -2       618       359       617      1361
 -1      7988    3    0    1
 -2       617       359       994      1361
 -1      7989    3    0    1
 -2      1128       395      2336      2747
 -1      7990    3    0    1
 -2      1066      1128      2363      2747
 -1      7991    3    0    1
 -2       396       395      1128      2747
 -1      7992    3    0    1
 -2      1066       396      1128      2747
 -1      7993    3    0    1
 -2      1043      1256      2481      1364
 -1      7994    3    0    1
 -2      2750      2645      2751      2770
 -1      7995    3    0    1
 -2       785      1043      1245      1364
 -1      7996    3    0    1
 -2      2348       367      1361      2762
 -1      7997    3    0    1
 -2      2326      2732      2752      2762
 -1      7998    3    0    1
 -2       367      1939      1361      2762
 -1      7999    3    0    1
 -2       256      2471      2481      2749
 -1      8000    3    0    1
 -2       214      2464      2730      1362
 -1      8001    3    0    1
 -2      2422       214      2730      1362
 -1      8002    3    0    1
 -2      2018      2422      2464      1362
 -1      8003    3    0    1
 -2      2018      2371      2422      1362
 -1      8004    3    0    1
 -2       241       786       365      1371
 -1      8005    3    0    1
 -2      2464      2422      2730      1362
 -1      8006    3    0    1
 -2      2027       241      2481      2749
 -1      8007    3    0    1
 -2      2451      1989      2742      2766
 -1      8008    3    0    1
 -2       256       241      2748      2749
 -1      8009    3    0    1
 -2      2451       256      2748      2749
 -1      8010    3    0    1
 -2      1049      1263      2738      1372
 -1      8011    3    0    1
 -2       786       785      1245      1364
 -1      8012    3    0    1
 -2       273      2332      1351      1372
 -1      8013    3    0    1
 -2       834       273      1351      1372
 -1      8014    3    0    1
 -2      2332       273      2738      1372
 -1      8015    3    0    1
 -2      2481      2027      2736      1364
 -1      8016    3    0    1
 -2      2423      2481      2736      1364
 -1      8017    3    0    1
 -2      2321      2032      2513      2763
 -1      8018    3    0    1
 -2       249       810       256      1365
 -1      8019    3    0    1
 -2       810       249       809      1365
 -1      8020    3    0    1
 -2      2321      2513      2729      2763
 -1      8021    3    0    1
 -2      2672       360      2714      1366
 -1      8022    3    0    1
 -2      1191      1001      2714      1366
 -1      8023    3    0    1
 -2       360      1191      2714      1366
 -1      8024    3    0    1
 -2       641      1001      1191      1366
 -1      8025    3    0    1
 -2       641       122       642      1366
 -1      8026    3    0    1
 -2       360       122       641      1366
 -1      8027    3    0    1
 -2      2672      2714      2715      1366
 -1      8028    3    0    1
 -2       360       641      1191      1366
 -1      8029    3    0    1
 -2      2672       122      1366      1367
 -1      8030    3    0    1
 -2       373       353       665      1367
 -1      8031    3    0    1
 -2       666       353      1347      1367
 -1      8032    3    0    1
 -2       665       353       666      1367
 -1      8033    3    0    1
 -2       410       361      2326      2752
 -1      8034    3    0    1
 -2      1023      1226      2026      1368
 -1      8035    3    0    1
 -2      1023      2026      2175      1368
 -1      8036    3    0    1
 -2      2645       186      1348      1368
 -1      8037    3    0    1
 -2      2175      2645      1348      1368
 -1      8038    3    0    1
 -2      1217      2175      1348      1368
 -1      8039    3    0    1
 -2      1217      1023      2175      1368
 -1      8040    3    0    1
 -2       714      1217      1348      1368
 -1      8041    3    0    1
 -2      1217       714      1023      1368
 -1      8042    3    0    1
 -2      2175      2561      2645      1368
 -1      8043    3    0    1
 -2      2175      2026      2561      1368
 -1      8044    3    0    1
 -2      2464      1030      1363      1369
 -1      8045    3    0    1
 -2      1030       738      1363      1369
 -1      8046    3    0    1
 -2       738      1030      1226      1369
 -1      8047    3    0    1
 -2      2026      2464      2561      1369
 -1      8048    3    0    1
 -2      2371      1036      2736      1370
 -1      8049    3    0    1
 -2      2027       409      2422      1370
 -1      8050    3    0    1
 -2       373      2755      2756      2771
 -1      8051    3    0    1
 -2      2672       373      2756      2771
 -1      8052    3    0    1
 -2       157      2205      2601      2753
 -1      8053    3    0    1
 -2      2100       157      2601      2753
 -1      8054    3    0    1
 -2       122      2713      2755      2771
 -1      8055    3    0    1
 -2       373       122      2755      2771
 -1      8056    3    0    1
 -2      2100      2129      2731      2753
 -1      8057    3    0    1
 -2      2205       374       157      1349
 -1      8058    3    0    1
 -2       374      2205       157      2753
 -1      8059    3    0    1
 -2       157      2100      2731      2753
 -1      8060    3    0    1
 -2       374       157      2731      2753
 -1      8061    3    0    1
 -2      2672       373      1367      2756
 -1      8062    3    0    1
 -2      1347      2715      1367      2756
 -1      8063    3    0    1
 -2      2748      2152      2749      2765
 -1      8064    3    0    1
 -2       359      1939      2713      2759
 -1      8065    3    0    1
 -2      2500      2715      1347      2756
 -1      8066    3    0    1
 -2      2601      2500      1347      2756
 -1      8067    3    0    1
 -2      2027       365      2765      2772
 -1      8068    3    0    1
 -2       409       365      2027      2772
 -1      8069    3    0    1
 -2       365      2748      2765      2772
 -1      8070    3    0    1
 -2      2100      2129      2754      2756
 -1      8071    3    0    1
 -2      2129      2100      2731      2756
 -1      8072    3    0    1
 -2      2754      2129      2755      2756
 -1      8073    3    0    1
 -2       353       373      2731      2756
 -1      8074    3    0    1
 -2      2731       373      2755      2756
 -1      8075    3    0    1
 -2      2129      2731      2755      2756
 -1      8076    3    0    1
 -2      2732      2584      2733      2758
 -1      8077    3    0    1
 -2      1939      2732      2733      2758
 -1      8078    3    0    1
 -2      2584      1939      2713      2758
 -1      8079    3    0    1
 -2      2584      2713      2754      2758
 -1      8080    3    0    1
 -2      1939      2584      2732      2758
 -1      8081    3    0    1
 -2       994       360      1191      2759
 -1      8082    3    0    1
 -2      2745      2336      2746      2760
 -1      8083    3    0    1
 -2      1885      2745      2746      2760
 -1      8084    3    0    1
 -2      2561       194      2769      2774
 -1      8085    3    0    1
 -2       395       449      2336      2760
 -1      8086    3    0    1
 -2      2333      1885      2746      2760
 -1      8087    3    0    1
 -2      1885      2333      2725      2760
 -1      8088    3    0    1
 -2      2725      2336      2740      2760
 -1      8089    3    0    1
 -2      2336      2725      2746      2760
 -1      8090    3    0    1
 -2      2725      2333      2746      2760
 -1      8091    3    0    1
 -2      2456       273      2742      2766
 -1      8092    3    0    1
 -2       361      2326      2752      2762
 -1      8093    3    0    1
 -2      2326       361      2348      2762
 -1      8094    3    0    1
 -2       367       361      2752      2762
 -1      8095    3    0    1
 -2      2733       367      2752      2762
 -1      8096    3    0    1
 -2      2332      1058      1351      1372
 -1      8097    3    0    1
 -2      1263      1058      2332      1372
 -1      8098    3    0    1
 -2      1263      2332      2738      1372
 -1      8099    3    0    1
 -2      2371      2027      2422      1370
 -1      8100    3    0    1
 -2       214       409       761      1370
 -1      8101    3    0    1
 -2      2027      2371      2736      1370
 -1      8102    3    0    1
 -2       214       762      1362      1370
 -1      8103    3    0    1
 -2       214       761       762      1370
 -1      8104    3    0    1
 -2       786      1364       241       785
 -1      8105    3    0    1
 -2       392      2321      2729      2763
 -1      8106    3    0    1
 -2      1446      2032      2199      2763
 -1      8107    3    0    1
 -2      2032      1446      2513      2763
 -1      8108    3    0    1
 -2      1351       834      1058       833
 -1      8109    3    0    1
 -2       834      1351      1058      1372
 -1      8110    3    0    1
 -2       273       249      2738      1373
 -1      8111    3    0    1
 -2      1256      2471      1365      1373
 -1      8112    3    0    1
 -2      1256      1049      2471      1373
 -1      8113    3    0    1
 -2       809      1049      1256      1373
 -1      8114    3    0    1
 -2       809      1256      1365      1373
 -1      8115    3    0    1
 -2      1446      2199      2586      2763
 -1      8116    3    0    1
 -2        53       379      2739      2763
 -1      8117    3    0    1
 -2       379      2199      2739      2763
 -1      8118    3    0    1
 -2      2199       379      2586      2763
 -1      8119    3    0    1
 -2      2199      2321      2739      2763
 -1      8120    3    0    1
 -2      2199      2032      2321      2763
 -1      8121    3    0    1
 -2      2295      2706      2743      2764
 -1      8122    3    0    1
 -2      2706      2725      2743      2764
 -1      8123    3    0    1
 -2      2027       241      2749      2765
 -1      8124    3    0    1
 -2       365       241      2027      2765
 -1      8125    3    0    1
 -2      2336      2745      2746      2773
 -1      8126    3    0    1
 -2       241       365      2748      2765
 -1      8127    3    0    1
 -2       395      2336      2747      2767
 -1      8128    3    0    1
 -2       396       395      2747      2767
 -1      8129    3    0    1
 -2      2750      2440      2751      2774
 -1      8130    3    0    1
 -2       186       194      2561      2774
 -1      8131    3    0    1
 -2      2745      2728      2746      2767
 -1      8132    3    0    1
 -2      2311       454      2359      2767
 -1      8133    3    0    1
 -2       454      2290      2359      2767
 -1      8134    3    0    1
 -2       454      2311      2728      2767
 -1      8135    3    0    1
 -2      2728      2311      2746      2767
 -1      8136    3    0    1
 -2       194      2440      2769      2774
 -1      8137    3    0    1
 -2      2326      2199      2744      2768
 -1      8138    3    0    1
 -2      2199      2119      2551      2768
 -1      8139    3    0    1
 -2      2119      2199      2326      2768
 -1      8140    3    0    1
 -2      2129      2753      2770      2775
 -1      8141    3    0    1
 -2       193       194      2440      2769
 -1      8142    3    0    1
 -2      2129      2100      2574      2770
 -1      8143    3    0    1
 -2      1537      2129      2574      2770
 -1      8144    3    0    1
 -2      2735      2734      2761      2772
 -1      8145    3    0    1
 -2      2734      2735      2737      2772
 -1      8146    3    0    1
 -2      2422      2734      2737      2772
 -1      8147    3    0    1
 -2       409      2422      2737      2772
 -1      8148    3    0    1
 -2       409      2027      2422      2772
 -1      8149    3    0    1
 -2      2734      2027      2765      2772
 -1      8150    3    0    1
 -2      2422      2027      2734      2772
 -1      8151    3    0    1
 -2       454       396      2767      2773
 -1      8152    3    0    1
 -2      2728       454      2767      2773
 -1      8153    3    0    1
 -2      2336      2746      2767      2773
 -1      8154    3    0    1
 -2      2645      2750      2751      2774
 -1      8155    3    0    1
 -2       186      2645      2751      2774
 -1      8156    3    0    1
 -2      2645       186      2750      2774
 -1      8157    3    0    1
 -2      2750      2561      2769      2774
 -1      8158    3    0    1
 -2      2645      2751      2770      2775
 -1      8159    3    0    1
 -2      2645       372      2751      2775
 -1      8160    3    0    1
 -2       374       372      2645      2775
 -1      8161    3    0    1
 -2       374      2645      2753      2775
 -1      8162    3    0    1
 -2      2731       374      2753      2775
 -1      8163    3    0    1
 -2      2129      2731      2753      2775
 -1      8164    3    0    1
 -2      2753      2645      2770      2775
 -3
    1PSTEP                         1           1           1          
  100CL  101 1.000000000        2775                     0    1           1
 -4  DISP        4    1
 -5  D1          1    2    1    0
 -5  D2          1    2    2    0
 -5  D3          1    2    3    0
 -5  ALL         1    2    0    0    1ALL
 -1         1-2.58065E-01-8.58137E-03-1.86781E+00
 -1         2-2.69659E-01-3.17634E-03-1.37545E+00
 -1         3-2.70245E-01-3.40737E-03-1.37345E+00
 -1         4-2.75594E-01-2.45053E-03-1.02516E+00
 -1         5-2.78637E-01-3.86008E-03-4.84796E-01
 -1         6-5.25742E-02-1.81606E-03-4.85164E-01
 -1         7-2.57813E-01-7.93289E-03-1.87364E+00
 -1         8-2.79111E-01-3.67170E-03-4.86754E-01
 -1         9-5.17092E-02 1.96967E-03-1.02758E+00
 -1        10-5.07151E-02-1.77176E-03-1.37600E+00
 -1        11-2.71180E-01-3.17551E-03-1.37677E+00
 -1        12-5.06111E-02-5.39174E-03-1.37039E+00
 -1        13-5.28617E-02 3.65152E-03-1.02525E+00
 -1        14-2.74224E-01-3.21438E-03-1.02271E+00
 -1        15-2.75451E-01-2.80551E-03-1.02346E+00
 -1        16-5.23658E-02-3.29027E-03-1.02625E+00
 -1        17-2.74420E-01-2.60641E-03-1.02690E+00
 -1        18-5.16635E-02-5.60277E-03-1.02075E+00
 -1        19-2.71716E-01-3.42683E-03-1.37251E+00
 -1        20-2.42480E-01-9.41134E-02-1.86804E+00
 -1        21-2.58477E-01-1.05119E-01-1.01285E+00
 -1        22-2.57836E-01-1.04914E-01-1.01494E+00
 -1        23-2.55513E-01-1.02933E-01-1.37119E+00
 -1        24-2.53062E-01-1.02772E-01-1.36664E+00
 -1        25-2.42166E-01-9.27621E-02-1.86933E+00
 -1        26-2.59431E-01-1.12164E-01-4.70077E-01
 -1        27-2.53590E-01-1.02702E-01-1.36946E+00
 -1        28-4.90021E-02-1.70758E-02-1.01520E+00
 -1        29-2.58089E-01-1.04994E-01-1.01009E+00
 -1        30-2.57813E-01-1.11641E-01-4.63209E-01
 -1        31-4.77945E-02-2.10580E-02-1.01263E+00
 -1        32-4.62976E-02-2.12298E-02-1.37031E+00
 -1        33-2.54726E-01-1.03473E-01-1.36567E+00
 -1        34-2.57374E-01-1.04566E-01-1.00900E+00
 -1        35-4.97497E-02-1.22717E-02-1.36649E+00
 -1        36-3.86153E-02-2.67212E-02-1.86466E+00
 -1        37-1.87530E-01-1.82282E-01-1.86158E+00
 -1        38-2.01403E-01-1.96640E-01-4.55361E-01
 -1        39-2.02503E-01-1.97569E-01-4.61183E-01
 -1        40-2.02314E-01-1.92617E-01-1.00140E+00
 -1        41-1.99096E-01-1.88780E-01-1.35836E+00
 -1        42-2.02554E-01-1.92654E-01-1.00501E+00
 -1        43-2.01956E-01-1.92131E-01-1.00699E+00
 -1        44-2.00962E-01-1.89421E-01-1.36285E+00
 -1        45-1.99124E-01-1.88565E-01-1.36146E+00
 -1        46-2.00079E-01-1.89598E-01-1.35742E+00
 -1        47-1.87398E-01-1.82388E-01-1.86848E+00
 -1        48-3.69689E-02-3.70528E-02-1.00396E+00
 -1        49-2.88159E-02-3.59848E-02-1.85986E+00
 -1        50-3.87499E-02-3.48414E-02-1.00698E+00
 -1        51-2.01732E-01-1.91871E-01-1.00040E+00
 -1        52-1.17330E-01-2.33138E-01-1.86131E+00
 -1        53-1.63462E-02-4.28960E-02-1.85985E+00
 -1        54-1.23746E-01-2.45538E-01-1.35974E+00
 -1        55-1.27113E-01-2.47139E-01-1.00439E+00
 -1        56-1.23411E-01-2.43273E-01-1.35912E+00
 -1        57-1.18135E-01-2.32272E-01-1.86088E+00
 -1        58-1.23711E-01-2.43447E-01-1.35800E+00
 -1        59-1.24407E-01-2.44597E-01-1.35740E+00
 -1        60-1.28305E-01-2.48504E-01-4.64972E-01
 -1        61-1.27056E-01-2.47103E-01-1.00223E+00
 -1        62-1.28724E-01-2.48758E-01-4.62094E-01
 -1        63-2.11384E-02-4.61301E-02-1.36194E+00
 -1        64-2.53479E-02-4.33006E-02-1.36160E+00
 -1        65-1.27018E-01-2.46750E-01-1.00569E+00
 -1        66-2.33256E-02-4.69675E-02-1.00559E+00
 -1        67-1.26492E-01-2.46356E-01-1.00210E+00
 -1        68-2.73646E-02-4.45952E-02-1.00031E+00
 -1        69-2.70973E-02-4.26526E-02-1.35426E+00
 -1        70-1.71260E-02-4.84435E-02-1.35854E+00
 -1        71 8.74377E-04-4.54224E-02-1.86259E+00
 -1        72-3.13788E-02-2.56784E-01-1.86539E+00
 -1        73-2.82756E-02-2.69662E-01-1.36558E+00
 -1        74-2.92196E-02-2.77496E-01-4.71868E-01
 -1        75-2.80739E-02-2.74970E-01-1.01138E+00
 -1        76-3.12821E-02-2.56365E-01-1.86013E+00
 -1        77-2.92291E-02-2.69941E-01-1.36389E+00
 -1        78-2.91270E-02-2.76549E-01-4.70737E-01
 -1        79-2.86526E-02-2.74972E-01-1.01031E+00
 -1        80-4.45223E-03-5.12530E-02-1.01388E+00
 -1        81-9.49992E-03-4.95850E-02-1.36729E+00
 -1        82-2.83330E-02-2.71290E-01-1.36630E+00
 -1        83-2.99165E-03-5.00256E-02-1.37039E+00
 -1        84-2.85052E-02-2.74397E-01-1.01007E+00
 -1        85-2.80997E-02-2.74196E-01-1.01260E+00
 -1        86-2.94731E-02-2.71612E-01-1.36366E+00
 -1        87 7.52501E-02-2.66619E-01-4.76507E-01
 -1        88 7.25564E-02-2.63629E-01-1.36754E+00
 -1        89 7.52126E-02-2.65242E-01-1.01428E+00
 -1        90 7.23297E-02-2.60329E-01-1.36783E+00
 -1        91 6.87309E-02-2.49232E-01-1.86846E+00
 -1        92 9.65933E-03-4.83925E-02-1.37088E+00
 -1        93 6.84822E-02-2.48939E-01-1.86918E+00
 -1        94 1.16776E-02-4.94603E-02-1.01602E+00
 -1        95 7.54208E-02-2.66609E-01-4.76298E-01
 -1        96 7.50635E-02-2.64573E-01-1.01434E+00
 -1        97 7.25374E-02-2.61349E-01-1.36804E+00
 -1        98 5.27228E-03-4.96355E-02-1.36529E+00
 -1        99 7.28193E-02-2.61531E-01-1.36836E+00
 -1       100 7.51212E-02-2.64868E-01-1.01466E+00
 -1       101 7.93018E-03-4.92761E-02-1.01258E+00
 -1       102 7.46379E-02-2.63778E-01-1.01490E+00
 -1       103 1.61967E-02-4.80162E-02-1.01296E+00
 -1       104 1.64484E-01-2.23128E-01-4.81095E-01
 -1       105 1.59420E-01-2.21214E-01-1.01831E+00
 -1       106 1.60470E-01-2.22272E-01-1.01953E+00
 -1       107 1.58206E-01-2.18067E-01-1.37453E+00
 -1       108 1.58967E-01-2.19229E-01-1.37663E+00
 -1       109 1.60595E-01-2.21173E-01-1.02486E+00
 -1       110 1.54566E-01-2.04541E-01-1.86960E+00
 -1       111 1.57691E-01-2.17982E-01-1.37165E+00
 -1       112 1.64099E-01-2.22493E-01-4.83145E-01
 -1       113 1.53801E-01-2.04709E-01-1.87070E+00
 -1       114 2.78814E-02-4.16877E-02-1.02259E+00
 -1       115 1.58448E-01-2.19049E-01-1.37059E+00
 -1       116 2.71308E-02-4.08750E-02-1.37434E+00
 -1       117 2.39457E-02-4.21973E-02-1.36960E+00
 -1       118 3.26005E-02-3.60530E-02-1.37274E+00
 -1       119 3.00681E-02-3.87081E-02-1.37805E+00
 -1       120 1.60952E-01-2.22100E-01-1.02308E+00
 -1       121 2.13367E-01-1.40126E-01-1.87575E+00
 -1       122 3.89515E-02-1.95187E-02-1.86993E+00
 -1       123 2.35650E-01-1.46732E-01-4.87487E-01
 -1       124 2.26808E-01-1.44444E-01-1.37634E+00
 -1       125 2.31592E-01-1.46810E-01-1.02578E+00
 -1       126 2.31091E-01-1.46666E-01-1.02715E+00
 -1       127 2.27476E-01-1.44334E-01-1.37799E+00
 -1       128 2.13555E-01-1.40022E-01-1.86954E+00
 -1       129 3.97652E-02-2.86236E-02-1.37984E+00
 -1       130 2.35133E-01-1.46310E-01-4.87823E-01
 -1       131 4.33935E-02-2.33864E-02-1.38114E+00
 -1       132 2.28780E-01-1.44992E-01-1.37916E+00
 -1       133 2.30539E-01-1.46545E-01-1.02408E+00
 -1       134 4.13720E-02-2.88335E-02-1.02676E+00
 -1       135 2.31713E-01-1.47055E-01-1.02464E+00
 -1       136 4.41324E-02-2.49085E-02-1.02483E+00
 -1       137 4.40634E-02-2.47324E-02-1.02841E+00
 -1       138 2.28297E-01-1.45397E-01-1.37563E+00
 -1       139 3.78225E-02-3.14343E-02-1.37254E+00
 -1       140 4.47301E-02-1.96239E-02-1.37816E+00
 -1       141 2.51462E-01-5.34636E-02-1.88046E+00
 -1       142 2.69184E-01-5.62483E-02-1.03343E+00
 -1       143 2.68997E-01-5.63405E-02-1.03034E+00
 -1       144 2.65241E-01-5.65950E-02-1.37914E+00
 -1       145 2.63356E-01-5.56684E-02-1.38404E+00
 -1       146 2.73565E-01-5.79792E-02-4.90162E-01
 -1       147 2.73998E-01-5.78453E-02-4.93045E-01
 -1       148 2.51746E-01-5.39505E-02-1.87659E+00
 -1       149 4.80390E-02-1.23290E-02-1.38393E+00
 -1       150 4.98334E-02-1.19898E-02-1.03267E+00
 -1       151 5.03016E-02-9.53175E-03-1.03624E+00
 -1       152 2.63339E-01-5.57378E-02-1.38109E+00
 -1       153 2.64869E-01-5.58681E-02-1.38629E+00
 -1       154 4.88572E-02-7.58338E-03-1.38769E+00
 -1       155 2.67992E-01-5.60798E-02-1.02908E+00
 -1       156 2.68226E-01-5.61650E-02-1.03611E+00
 -1       157 4.42839E-02-2.02894E-04-1.88062E+00
 -1       158 2.64286E-01 3.68160E-02-1.39948E+00
 -1       159 2.51877E-01 3.12074E-02-1.87971E+00
 -1       160 2.68742E-01 3.86341E-02-1.05526E+00
 -1       161 2.66816E-01 3.71684E-02-1.39024E+00
 -1       162 2.75720E-01 4.29125E-02-5.11089E-01
 -1       163 2.70375E-01 3.88545E-02-1.05128E+00
 -1       164 2.76309E-01 4.30791E-02-5.06448E-01
 -1       165 2.64777E-01 3.71353E-02-1.39309E+00
 -1       166 5.05844E-02 5.23933E-03-1.04726E+00
 -1       167 5.16936E-02 6.48310E-03-5.05868E-01
 -1       168 4.98656E-02 8.18464E-03-1.05383E+00
 -1       169 2.52281E-01 3.17842E-02-1.88963E+00
 -1       170 2.65935E-01 3.71021E-02-1.40403E+00
 -1       171 2.70743E-01 3.86863E-02-1.04486E+00
 -1       172 2.69822E-01 3.85652E-02-1.04180E+00
 -1       173 4.94366E-02 1.25869E-03-1.38714E+00
 -1       174 4.97013E-02 9.32215E-03-1.05398E+00
 -1       175 2.13607E-01 1.33276E-01-1.89263E+00
 -1       176 2.14625E-01 1.33159E-01-1.89365E+00
 -1       177 2.29988E-01 1.42427E-01-1.06018E+00
 -1       178 2.36333E-01 1.42172E-01-5.23325E-01
 -1       179 4.41029E-02 2.41445E-02-1.06175E+00
 -1       180 2.30916E-01 1.43571E-01-1.05974E+00
 -1       181 2.31204E-01 1.43804E-01-1.05978E+00
 -1       182 2.37078E-01 1.42975E-01-5.24810E-01
 -1       183 4.19567E-02 2.79972E-02-1.06215E+00
 -1       184 2.25238E-01 1.40730E-01-1.40683E+00
 -1       185 4.02643E-02 2.82866E-02-1.41060E+00
 -1       186 3.33537E-02 2.72965E-02-1.89277E+00
 -1       187 2.25714E-01 1.40769E-01-1.40735E+00
 -1       188 2.26982E-01 1.41822E-01-1.40694E+00
 -1       189 4.55355E-02 2.25769E-02-1.05789E+00
 -1       190 2.30285E-01 1.43118E-01-1.06009E+00
 -1       191 2.27090E-01 1.41518E-01-1.40820E+00
 -1       192 3.77598E-02 3.09483E-02-1.40483E+00
 -1       193 1.99762E-02 3.76811E-02-1.88940E+00
 -1       194 3.00394E-02 3.26686E-02-1.89144E+00
 -1       195 1.54959E-01 2.17337E-01-1.39814E+00
 -1       196 1.49763E-01 2.04841E-01-1.89061E+00
 -1       197 1.49448E-01 2.04721E-01-1.89173E+00
 -1       198 1.58747E-01 2.21987E-01-1.05044E+00
 -1       199 1.55938E-01 2.18807E-01-1.39647E+00
 -1       200 1.55187E-01 2.17753E-01-1.40287E+00
 -1       201 1.56079E-01 2.18919E-01-1.40538E+00
 -1       202 1.58238E-01 2.21089E-01-1.04905E+00
 -1       203 1.58768E-01 2.21970E-01-1.05548E+00
 -1       204 1.64244E-01 2.24599E-01-5.15508E-01
 -1       205 3.15600E-02 4.09508E-02-5.17465E-01
 -1       206 3.02450E-02 4.31743E-02-5.16168E-01
 -1       207 3.05944E-02 3.81592E-02-1.40501E+00
 -1       208 1.63975E-01 2.24003E-01-5.17828E-01
 -1       209 2.60463E-02 4.21144E-02-1.40177E+00
 -1       210 1.58061E-01 2.21197E-01-1.05833E+00
 -1       211 2.51823E-02 4.49996E-02-1.04739E+00
 -1       212 6.12364E-02 2.48235E-01-1.88888E+00
 -1       213 6.09452E-02 2.48627E-01-1.88406E+00
 -1       214 1.57770E-02 4.03815E-02-1.88712E+00
 -1       215 6.88888E-02 2.65835E-01-1.03924E+00
 -1       216 6.87121E-02 2.65337E-01-1.04321E+00
 -1       217 7.12843E-02 2.69156E-01-5.01525E-01
 -1       218 6.67673E-02 2.59785E-01-1.39319E+00
 -1       219 1.50630E-02 4.85910E-02-5.01928E-01
 -1       220 1.14008E-02 4.91158E-02-1.04119E+00
 -1       221 7.12306E-02 2.69792E-01-4.97847E-01
 -1       222 9.25337E-03 4.83453E-02-1.39293E+00
 -1       223 6.73456E-02 2.61307E-01-1.39574E+00
 -1       224 6.67728E-02 2.60540E-01-1.38981E+00
 -1       225 6.72182E-02 2.62153E-01-1.38813E+00
 -1       226 5.47929E-03 4.88588E-02-1.38561E+00
 -1       227 6.83211E-02 2.64320E-01-1.04579E+00
 -1       228 1.47124E-02 4.88050E-02-1.04605E+00
 -1       229 6.86747E-02 2.64902E-01-1.03782E+00
 -1       230 1.68472E-02 4.81520E-02-1.04489E+00
 -1       231 8.20770E-03 5.03541E-02-1.03672E+00
 -1       232-2.78915E-02 2.55903E-01-1.87872E+00
 -1       233-3.51597E-02 2.76466E-01-4.79756E-01
 -1       234-3.07549E-02 2.69474E-01-1.38271E+00
 -1       235-2.76399E-02 2.56313E-01-1.88038E+00
 -1       236-3.29675E-02 2.74885E-01-1.02717E+00
 -1       237-2.97623E-03 5.02322E-02-4.85161E-01
 -1       238-3.49655E-02 2.76961E-01-4.85630E-01
 -1       239-8.62620E-03 4.96156E-02-1.02605E+00
 -1       240-3.12006E-02 2.69116E-01-1.37941E+00
 -1       241-1.10547E-02 4.41146E-02-1.87817E+00
 -1       242-3.15032E-02 2.70479E-01-1.37811E+00
 -1       243-8.48363E-03 4.81395E-02-1.38267E+00
 -1       244-4.55707E-03 4.99343E-02-1.02967E+00
 -1       245-3.32427E-02 2.74222E-01-1.02341E+00
 -1       246-3.30355E-02 2.73178E-01-1.02152E+00
 -1       247-3.09201E-02 2.71633E-01-1.38505E+00
 -1       248-3.29550E-02 2.74383E-01-1.02947E+00
 -1       249-2.64141E-02 3.77443E-02-1.87609E+00
 -1       250-1.22597E-01 2.31049E-01-1.87862E+00
 -1       251-1.23842E-01 2.46356E-01-1.01888E+00
 -1       252-1.23131E-01 2.49514E-01-4.75318E-01
 -1       253-1.24115E-01 2.46954E-01-1.01811E+00
 -1       254-1.23494E-01 2.41410E-01-1.37369E+00
 -1       255-1.24077E-01 2.42420E-01-1.37323E+00
 -1       256-1.63468E-02 4.27378E-02-1.87817E+00
 -1       257-1.23344E-01 2.48910E-01-4.77133E-01
 -1       258-1.23021E-01 2.29861E-01-1.87482E+00
 -1       259-2.51961E-02 4.27356E-02-1.37515E+00
 -1       260-1.23847E-01 2.42319E-01-1.37445E+00
 -1       261-2.10854E-02 4.44895E-02-1.37808E+00
 -1       262-2.37597E-02 4.39924E-02-1.02008E+00
 -1       263-1.23529E-01 2.45459E-01-1.01974E+00
 -1       264-2.89426E-02 4.14385E-02-1.36923E+00
 -1       265-1.24790E-01 2.43861E-01-1.37296E+00
 -1       266-1.23882E-01 2.46753E-01-1.01848E+00
 -1       267-1.88802E-01 1.78824E-01-1.87622E+00
 -1       268-1.96557E-01 1.84992E-01-1.37648E+00
 -1       269-1.96630E-01 1.85230E-01-1.37341E+00
 -1       270-1.99393E-01 1.88493E-01-1.02600E+00
 -1       271-1.99180E-01 1.88508E-01-1.02253E+00
 -1       272-1.99762E-01 1.93540E-01-4.91693E-01
 -1       273-3.03800E-02 3.47666E-02-1.87380E+00
 -1       274-1.87821E-01 1.78808E-01-1.87292E+00
 -1       275-1.98417E-01 1.92637E-01-4.86604E-01
 -1       276-3.89691E-02 3.31469E-02-1.02786E+00
 -1       277-3.94917E-02 3.14291E-02-1.37954E+00
 -1       278-1.98621E-01 1.87871E-01-1.02136E+00
 -1       279-3.61272E-02 3.66715E-02-1.02467E+00
 -1       280-1.97397E-01 1.85874E-01-1.37209E+00
 -1       281-1.97630E-01 1.85922E-01-1.37856E+00
 -1       282-1.98937E-01 1.88193E-01-1.02831E+00
 -1       283-4.15080E-02 2.81747E-02-1.37664E+00
 -1       284-2.42215E-01 8.71633E-02-1.87743E+00
 -1       285-2.52328E-01 9.80788E-02-1.37853E+00
 -1       286-2.52131E-01 9.82004E-02-1.37855E+00
 -1       287-2.60048E-01 1.04397E-01-4.87806E-01
 -1       288-2.60245E-01 1.04196E-01-4.90767E-01
 -1       289-2.57334E-01 9.94743E-02-1.02779E+00
 -1       290-2.57082E-01 9.92190E-02-1.02782E+00
 -1       291-4.87369E-02 1.65219E-02-4.90075E-01
 -1       292-4.97199E-02 1.67438E-02-1.03039E+00
 -1       293-4.85973E-02 1.55607E-02-1.38135E+00
 -1       294-2.42621E-01 8.63996E-02-1.87178E+00
 -1       295-4.56072E-02 2.15839E-02-1.38191E+00
 -1       296-2.53600E-01 9.85151E-02-1.37927E+00
 -1       297-2.56424E-01 9.91674E-02-1.02846E+00
 -1       298-2.53646E-01 9.88048E-02-1.37879E+00
 -1       299-2.56449E-01 9.88189E-02-1.02840E+00
 -1       300-5.01014E-02 1.37515E-02-1.02632E+00
 -1       301 0.00000E+00 0.00000E+00 0.00000E+00
 -1       302 0.00000E+00 0.00000E+00 0.00000E+00
 -1       303 0.00000E+00 0.00000E+00 0.00000E+00
 -1       304 0.00000E+00 0.00000E+00 0.00000E+00
 -1       305 0.00000E+00 0.00000E+00 0.00000E+00
 -1       306 0.00000E+00 0.00000E+00 0.00000E+00
 -1       307 0.00000E+00 0.00000E+00 0.00000E+00
 -1       308 0.00000E+00 0.00000E+00 0.00000E+00
 -1       309 0.00000E+00 0.00000E+00 0.00000E+00
 -1       310 0.00000E+00 0.00000E+00 0.00000E+00
 -1       311 0.00000E+00 0.00000E+00 0.00000E+00
 -1       312 0.00000E+00 0.00000E+00 0.00000E+00
 -1       313 0.00000E+00 0.00000E+00 0.00000E+00
 -1       314 0.00000E+00 0.00000E+00 0.00000E+00
 -1       315 0.00000E+00 0.00000E+00 0.00000E+00
 -1       316 0.00000E+00 0.00000E+00 0.00000E+00
 -1       317 0.00000E+00 0.00000E+00 0.00000E+00
 -1       318 0.00000E+00 0.00000E+00 0.00000E+00
 -1       319 0.00000E+00 0.00000E+00 0.00000E+00
 -1       320 0.00000E+00 0.00000E+00 0.00000E+00
 -1       321 0.00000E+00 0.00000E+00 0.00000E+00
 -1       322 0.00000E+00 0.00000E+00 0.00000E+00
 -1       323 0.00000E+00 0.00000E+00 0.00000E+00
 -1       324 0.00000E+00 0.00000E+00 0.00000E+00
 -1       325 0.00000E+00 0.00000E+00 0.00000E+00
 -1       326 0.00000E+00 0.00000E+00 0.00000E+00
 -1       327 0.00000E+00 0.00000E+00 0.00000E+00
 -1       328 0.00000E+00 0.00000E+00 0.00000E+00
 -1       329 0.00000E+00 0.00000E+00 0.00000E+00
 -1       330 5.08443E-02 3.04966E-03-1.03921E+00
 -1       331 4.93153E-02-1.49748E-02-1.02783E+00
 -1       332 4.52812E-02 2.42327E-02-5.23879E-01
 -1       333 5.11863E-02 8.93123E-03-5.11005E-01
 -1       334 3.06144E-02-3.91000E-02-1.02497E+00
 -1       335 3.00898E-02-3.88303E-02-4.83011E-01
 -1       336 4.08754E-02-3.03434E-02-1.02203E+00
 -1       337 0.00000E+00 0.00000E+00 0.00000E+00
 -1       338 4.22008E-02-2.77527E-02-4.87443E-01
 -1       339 0.00000E+00 0.00000E+00 0.00000E+00
 -1       340 0.00000E+00 0.00000E+00 0.00000E+00
 -1       341 4.34849E-02-2.57384E-02-4.88343E-01
 -1       342 3.21650E-02-3.89299E-02-1.02170E+00
 -1       343 3.31931E-02 3.80496E-02-1.05552E+00
 -1       344 4.05904E-02 2.94940E-02-1.05753E+00
 -1       345 3.10016E-02 4.00085E-02-1.05755E+00
 -1       346 4.23374E-02 2.75810E-02-5.25437E-01
 -1       347 0.00000E+00 0.00000E+00 0.00000E+00
 -1       348 5.13460E-02-1.28974E-02-4.90570E-01
 -1       349 5.08679E-02-8.33808E-03-4.92625E-01
 -1       350 0.00000E+00 0.00000E+00 0.00000E+00
 -1       351 4.71908E-02 1.30178E-02-1.40217E+00
 -1       352 1.53422E-02-4.80192E-02-1.01665E+00
 -1       353 4.45247E-02-4.25142E-03-1.87910E+00
 -1       354 4.95204E-02-3.43297E-03-1.38411E+00
 -1       355 4.93726E-02 3.36300E-03-1.39553E+00
 -1       356 5.02464E-02-8.87251E-03-1.03503E+00
 -1       357 2.51999E-02-4.31691E-02-1.01668E+00
 -1       358 4.63403E-02-1.61691E-02-1.37733E+00
 -1       359 3.08053E-02-3.02160E-02-1.87063E+00
 -1       360 3.49522E-02-2.73897E-02-1.87064E+00
 -1       361 1.50517E-02-4.14195E-02-1.86725E+00
 -1       362 1.47570E-02-4.67463E-02-1.37115E+00
 -1       363 1.87940E-02-4.61516E-02-1.36591E+00
 -1       364 1.21153E-03-4.96828E-02-1.36252E+00
 -1       365 7.49911E-04 4.40936E-02-1.87811E+00
 -1       366-2.77276E-03 4.86945E-02-1.38713E+00
 -1       367 2.02301E-02-3.91825E-02-1.86670E+00
 -1       368 1.52007E-02 4.72542E-02-1.39731E+00
 -1       369 1.77163E-02 4.59913E-02-1.39234E+00
 -1       370 3.40651E-02 3.56382E-02-1.40363E+00
 -1       371 2.34583E-02 4.39893E-02-1.39417E+00
 -1       372 4.22538E-02 1.64523E-02-1.88790E+00
 -1       373 4.19479E-02-1.55394E-02-1.87215E+00
 -1       374 4.30154E-02 1.13558E-02-1.88875E+00
 -1       375 4.62841E-02 1.83187E-02-1.40494E+00
 -1       376 4.30200E-02 2.37056E-02-1.41072E+00
 -1       377 4.87964E-02 8.19738E-03-1.40305E+00
 -1       378-1.22113E-02-4.91080E-02-1.36181E+00
 -1       379-1.12408E-02-4.33162E-02-1.86214E+00
 -1       380-1.79485E-02 4.48032E-02-1.37263E+00
 -1       381-1.04256E-02 4.76990E-02-1.37611E+00
 -1       382-7.65893E-03-5.12003E-02-1.01309E+00
 -1       383-3.27770E-02 3.72931E-02-1.36795E+00
 -1       384-3.50306E-02 3.56656E-02-4.87082E-01
 -1       385-3.52947E-02 3.72624E-02-1.01890E+00
 -1       386-2.48376E-02 4.08369E-02-4.77452E-01
 -1       387-2.60457E-02 4.40845E-02-1.01732E+00
 -1       388-4.46037E-02 2.45707E-02-1.37599E+00
 -1       389-3.80061E-02 2.48662E-02-1.87476E+00
 -1       390-2.49013E-02-4.57654E-02-1.00430E+00
 -1       391-3.33395E-02-3.80534E-02-1.35459E+00
 -1       392-2.61202E-02-3.88078E-02-1.85776E+00
 -1       393-3.52128E-02-3.65380E-02-1.36083E+00
 -1       394-5.09044E-02 1.38372E-03-1.37846E+00
 -1       395-4.59365E-02 4.75069E-03-1.87304E+00
 -1       396-4.50788E-02 1.09524E-02-1.87214E+00
 -1       397-4.93311E-02 1.25093E-02-1.37713E+00
 -1       398-4.95907E-02 5.96713E-03-1.37439E+00
 -1       399-4.85755E-02-1.92165E-02-4.70569E-01
 -1       400-3.61757E-02-3.83208E-02-9.98424E-01
 -1       401-2.62612E-02-4.42417E-02-4.60488E-01
 -1       402-2.10566E-02-4.69246E-02-4.66277E-01
 -1       403 0.00000E+00 0.00000E+00 0.00000E+00
 -1       404-6.90601E-03-4.94178E-02-4.70512E-01
 -1       405-2.16541E-02-4.80535E-02-1.00449E+00
 -1       406-9.63854E-03-5.15459E-02-1.00797E+00
 -1       407 1.05032E-02-4.82453E-02-4.76112E-01
 -1       408-5.88111E-03-5.12015E-02-4.73059E-01
 -1       409 5.73484E-03 4.35722E-02-1.87941E+00
 -1       410 6.10370E-03-4.46377E-02-1.86585E+00
 -1       411-2.10823E-03-5.10745E-02-1.01050E+00
 -1       412 0.00000E+00 0.00000E+00 0.00000E+00
 -1       413 2.88012E-02-4.12705E-02-4.83114E-01
 -1       414 1.38454E-02-4.86058E-02-4.77258E-01
 -1       415 0.00000E+00 0.00000E+00 0.00000E+00
 -1       416-5.11625E-02 1.01120E-03-4.86770E-01
 -1       417 0.00000E+00 0.00000E+00 0.00000E+00
 -1       418 0.00000E+00 0.00000E+00 0.00000E+00
 -1       419 0.00000E+00 0.00000E+00 0.00000E+00
 -1       420-3.69730E-02-3.44683E-02-4.55160E-01
 -1       421-4.61990E-02-2.09347E-02-4.63514E-01
 -1       422-4.67035E-02-2.28183E-02-1.00563E+00
 -1       423-3.99679E-02-3.43786E-02-4.60819E-01
 -1       424 0.00000E+00 0.00000E+00 0.00000E+00
 -1       425-4.95286E-02 2.16986E-02-4.88358E-01
 -1       426 0.00000E+00 0.00000E+00 0.00000E+00
 -1       427-4.75618E-02 2.21700E-02-1.02647E+00
 -1       428-4.83984E-02 2.00809E-02-1.03075E+00
 -1       429-4.15663E-02 3.14069E-02-1.02682E+00
 -1       430-3.75503E-02 3.40910E-02-4.91187E-01
 -1       431 0.00000E+00 0.00000E+00 0.00000E+00
 -1       432 0.00000E+00 0.00000E+00 0.00000E+00
 -1       433-1.70199E-02 4.70183E-02-1.01597E+00
 -1       434-2.23238E-02 4.45099E-02-4.76351E-01
 -1       435-2.03559E-02 4.60551E-02-1.02112E+00
 -1       436-1.22518E-02 4.81986E-02-1.01794E+00
 -1       437-6.51923E-03 4.87681E-02-4.80888E-01
 -1       438 0.00000E+00 0.00000E+00 0.00000E+00
 -1       439 0.00000E+00 0.00000E+00 0.00000E+00
 -1       440-1.20666E-03 5.04111E-02-1.02676E+00
 -1       441 3.08589E-04 4.90659E-02-1.38402E+00
 -1       442 1.13851E-02 4.86591E-02-4.98064E-01
 -1       443 2.87489E-02 4.24050E-02-1.05310E+00
 -1       444 0.00000E+00 0.00000E+00 0.00000E+00
 -1       445 0.00000E+00 0.00000E+00 0.00000E+00
 -1       446-5.00330E-02-1.49920E-02-1.01249E+00
 -1       447-4.34506E-02-9.14584E-03-1.86991E+00
 -1       448-4.76710E-02-1.75466E-02-1.37308E+00
 -1       449-4.41548E-02-5.38426E-03-1.86760E+00
 -1       450-4.04609E-02-3.31638E-02-1.00549E+00
 -1       451-4.43072E-02-2.43132E-02-1.36346E+00
 -1       452-3.88541E-02-3.30452E-02-1.36454E+00
 -1       453-4.03348E-02-2.16514E-02-1.86499E+00
 -1       454-3.99059E-02 2.10786E-02-1.87638E+00
 -1       455-4.10882E-02-3.03968E-02-1.36128E+00
 -1       456-3.48438E-02 3.53054E-02-1.37638E+00
 -1       457 0.00000E+00 0.00000E+00 0.00000E+00
 -1       458 0.00000E+00 0.00000E+00 0.00000E+00
 -1       459 0.00000E+00 0.00000E+00 0.00000E+00
 -1       460 0.00000E+00 0.00000E+00 0.00000E+00
 -1       461 0.00000E+00 0.00000E+00 0.00000E+00
 -1       462 0.00000E+00 0.00000E+00 0.00000E+00
 -1       463 0.00000E+00 0.00000E+00 0.00000E+00
 -1       464 0.00000E+00 0.00000E+00 0.00000E+00
 -1       465 0.00000E+00 0.00000E+00 0.00000E+00
 -1       466 0.00000E+00 0.00000E+00 0.00000E+00
 -1       467 0.00000E+00 0.00000E+00 0.00000E+00
 -1       468 0.00000E+00 0.00000E+00 0.00000E+00
 -1       469 0.00000E+00 0.00000E+00 0.00000E+00
 -1       470 0.00000E+00 0.00000E+00 0.00000E+00
 -1       471 0.00000E+00 0.00000E+00 0.00000E+00
 -1       472 0.00000E+00 0.00000E+00 0.00000E+00
 -1       473-1.52982E-01-4.97053E-03-1.86794E+00
 -1       474-1.53553E-01-2.25968E-03-1.87313E+00
 -1       475-2.61923E-01-6.09868E-03-1.62492E+00
 -1       476-2.61227E-01-6.65795E-03-1.63131E+00
 -1       477-2.73281E-01-2.88377E-03-1.19810E+00
 -1       478-2.72885E-01-3.75937E-03-1.20285E+00
 -1       479-2.78669E-01-3.15092E-03-7.53371E-01
 -1       480-2.79034E-01-3.26000E-03-7.55938E-01
 -1       481-1.65182E-01-2.76504E-03-4.84857E-01
 -1       482-1.65620E-01-2.21301E-03-4.86781E-01
 -1       483-4.94161E-02 3.13450E-03-1.63226E+00
 -1       484-1.60502E-01-1.00681E-03-1.37686E+00
 -1       485-1.63489E-01-6.78248E-04-1.02616E+00
 -1       486-5.28373E-02 8.79706E-04-7.55538E-01
 -1       487-5.29835E-02-8.54273E-04-7.54315E-01
 -1       488-1.63568E-01-2.15464E-03-1.02435E+00
 -1       489-1.60831E-01-2.24531E-03-1.37497E+00
 -1       490-4.99732E-02-2.47735E-03-1.62993E+00
 -1       491-1.60616E-01-4.08304E-04-1.37684E+00
 -1       492-1.61125E-01-2.76892E-03-1.37275E+00
 -1       493-1.63240E-01-2.88690E-04-1.02713E+00
 -1       494-1.63495E-01-2.66911E-03-1.02308E+00
 -1       495-5.08716E-02 4.23428E-03-1.20482E+00
 -1       496-5.13679E-02-3.88107E-03-1.20006E+00
 -1       497-1.43411E-01-5.61895E-02-1.86709E+00
 -1       498-1.43935E-01-5.40388E-02-1.86972E+00
 -1       499-2.60798E-01-1.09050E-01-7.40951E-01
 -1       500-2.59478E-01-1.08821E-01-7.36214E-01
 -1       501-2.56723E-01-1.04075E-01-1.19317E+00
 -1       502-2.56597E-01-1.03297E-01-1.18840E+00
 -1       503-2.46632E-01-9.72991E-02-1.62395E+00
 -1       504-2.44182E-01-9.67170E-02-1.62318E+00
 -1       505-1.52181E-01-6.59135E-02-4.63190E-01
 -1       506-1.53833E-01-6.61037E-02-4.70385E-01
 -1       507-4.71319E-02-1.61284E-02-1.62729E+00
 -1       508-1.50906E-01-6.00357E-02-1.37093E+00
 -1       509-1.53522E-01-6.13602E-02-1.01401E+00
 -1       510-4.99037E-02-1.92616E-02-7.41935E-01
 -1       511-4.80509E-02-2.15931E-02-7.36830E-01
 -1       512-1.52571E-01-6.24371E-02-1.01068E+00
 -1       513-1.50191E-01-6.16444E-02-1.36835E+00
 -1       514-4.47450E-02-1.98840E-02-1.62632E+00
 -1       515-1.50858E-01-6.02422E-02-1.37171E+00
 -1       516-1.50294E-01-6.23811E-02-1.36596E+00
 -1       517-1.53673E-01-6.09258E-02-1.01503E+00
 -1       518-1.52265E-01-6.28503E-02-1.00886E+00
 -1       519-4.91311E-02-1.49333E-02-1.19490E+00
 -1       520-4.57646E-02-2.28558E-02-1.18984E+00
 -1       521-1.09770E-01-1.07776E-01-1.86120E+00
 -1       522-1.10841E-01-1.07170E-01-1.86861E+00
 -1       523-2.03629E-01-1.96376E-01-7.32276E-01
 -1       524-2.03049E-01-1.96120E-01-7.27251E-01
 -1       525-2.01157E-01-1.91011E-01-1.18541E+00
 -1       526-2.01653E-01-1.90178E-01-1.17958E+00
 -1       527-1.90443E-01-1.82822E-01-1.61983E+00
 -1       528-1.92135E-01-1.83835E-01-1.61718E+00
 -1       529-1.19457E-01-1.16160E-01-4.55492E-01
 -1       530-1.20868E-01-1.17293E-01-4.61046E-01
 -1       531-3.87771E-02-3.11604E-02-1.62442E+00
 -1       532-1.18268E-01-1.11609E-01-1.36282E+00
 -1       533-1.20375E-01-1.13761E-01-1.00580E+00
 -1       534-3.85504E-02-3.67894E-02-7.33151E-01
 -1       535-3.76042E-02-3.83692E-02-7.27799E-01
 -1       536-1.19418E-01-1.14423E-01-1.00230E+00
 -1       537-1.17567E-01-1.12530E-01-1.35950E+00
 -1       538-3.47944E-02-3.52229E-02-1.62016E+00
 -1       539-1.18905E-01-1.11439E-01-1.36342E+00
 -1       540-1.17753E-01-1.12449E-01-1.35794E+00
 -1       541-1.20502E-01-1.13382E-01-1.00707E+00
 -1       542-1.19068E-01-1.14614E-01-1.00053E+00
 -1       543-3.91427E-02-3.32297E-02-1.18705E+00
 -1       544-3.40555E-02-3.85897E-02-1.18088E+00
 -1       545-6.79742E-02-1.38067E-01-1.86046E+00
 -1       546-7.03460E-02-1.37545E-01-1.86129E+00
 -1       547-1.25948E-01-2.45855E-01-1.18329E+00
 -1       548-1.29482E-01-2.48658E-01-7.31216E-01
 -1       549-1.28881E-01-2.48952E-01-7.33815E-01
 -1       550-1.18768E-01-2.36823E-01-1.61400E+00
 -1       551-1.17802E-01-2.35858E-01-1.61395E+00
 -1       552-1.24885E-01-2.45799E-01-1.18033E+00
 -1       553-7.65768E-02-1.47540E-01-4.62060E-01
 -1       554-7.59116E-02-1.47418E-01-4.65123E-01
 -1       555-7.40519E-02-1.43980E-01-1.35907E+00
 -1       556-2.48878E-02-4.33715E-02-1.61785E+00
 -1       557-7.57628E-02-1.46219E-01-1.00288E+00
 -1       558-2.65833E-02-4.56677E-02-7.32106E-01
 -1       559-2.35409E-02-4.80120E-02-7.34374E-01
 -1       560-7.52239E-02-1.46812E-01-1.00501E+00
 -1       561-7.29688E-02-1.44691E-01-1.36093E+00
 -1       562-2.04438E-02-4.49636E-02-1.61606E+00
 -1       563-7.47916E-02-1.44100E-01-1.35744E+00
 -1       564-7.27286E-02-1.45319E-01-1.36041E+00
 -1       565-7.54834E-02-1.45779E-01-1.00249E+00
 -1       566-7.50654E-02-1.47017E-01-1.00580E+00
 -1       567-2.63034E-02-4.39778E-02-1.18121E+00
 -1       568-2.05026E-02-4.72664E-02-1.18509E+00
 -1       569-1.88336E-02-1.50706E-01-1.86524E+00
 -1       570-1.97135E-02-1.51939E-01-1.85987E+00
 -1       571-2.85850E-02-2.73044E-01-1.19013E+00
 -1       572-2.83753E-02-2.77582E-01-7.39708E-01
 -1       573-2.80383E-02-2.78044E-01-7.41192E-01
 -1       574-2.95215E-02-2.61031E-01-1.61838E+00
 -1       575-2.94956E-02-2.59288E-01-1.62180E+00
 -1       576-2.86495E-02-2.72982E-01-1.18712E+00
 -1       577-1.80712E-02-1.63171E-01-4.70714E-01
 -1       578-1.79080E-02-1.64503E-01-4.72152E-01
 -1       579-1.87390E-02-1.60056E-01-1.36556E+00
 -1       580-1.02713E-02-4.76936E-02-1.62369E+00
 -1       581-1.79211E-02-1.62787E-01-1.01101E+00
 -1       582-6.79186E-03-5.21203E-02-7.40196E-01
 -1       583-3.97375E-03-5.18195E-02-7.41523E-01
 -1       584-1.62044E-02-1.62834E-01-1.01240E+00
 -1       585-1.65129E-02-1.59987E-01-1.36725E+00
 -1       586-3.24390E-03-4.88785E-02-1.62443E+00
 -1       587-1.93846E-02-1.60545E-01-1.36398E+00
 -1       588-1.56214E-02-1.60361E-01-1.36633E+00
 -1       589-1.83878E-02-1.62902E-01-1.01010E+00
 -1       590-1.57510E-02-1.62603E-01-1.01261E+00
 -1       591-1.03806E-02-5.03479E-02-1.18878E+00
 -1       592-2.19826E-03-4.99680E-02-1.19189E+00
 -1       593 4.12192E-02-1.46366E-01-1.86824E+00
 -1       594 3.92354E-02-1.47011E-01-1.86927E+00
 -1       595 7.62114E-02-2.66624E-01-7.43942E-01
 -1       596 7.45058E-02-2.64154E-01-1.19181E+00
 -1       597 6.92705E-02-2.51624E-01-1.62454E+00
 -1       598 7.60325E-02-2.67033E-01-7.44954E-01
 -1       599 7.33308E-02-2.62683E-01-1.19205E+00
 -1       600 6.99054E-02-2.53710E-01-1.62427E+00
 -1       601 4.37542E-02-1.57605E-01-4.76742E-01
 -1       602 4.42815E-02-1.57520E-01-4.76328E-01
 -1       603 4.18489E-02-1.55115E-01-1.36909E+00
 -1       604 9.80522E-03-4.77956E-02-1.62738E+00
 -1       605 4.37812E-02-1.56943E-01-1.01516E+00
 -1       606 1.20534E-02-4.96745E-02-7.45118E-01
 -1       607 1.46410E-02-4.90500E-02-7.44654E-01
 -1       608 4.46709E-02-1.56082E-01-1.01481E+00
 -1       609 4.32630E-02-1.54170E-01-1.36959E+00
 -1       610 1.53356E-02-4.62965E-02-1.62966E+00
 -1       611 4.14653E-02-1.55738E-01-1.36779E+00
 -1       612 4.39447E-02-1.54078E-01-1.36857E+00
 -1       613 4.33310E-02-1.57074E-01-1.01463E+00
 -1       614 4.44412E-02-1.56090E-01-1.01518E+00
 -1       615 9.73409E-03-4.93538E-02-1.19305E+00
 -1       616 1.64821E-02-4.65030E-02-1.19362E+00
 -1       617 9.14061E-02-1.20502E-01-1.86966E+00
 -1       618 8.94039E-02-1.22901E-01-1.87038E+00
 -1       619 1.63268E-01-2.23716E-01-7.49842E-01
 -1       620 1.63796E-01-2.23895E-01-7.52654E-01
 -1       621 1.59692E-01-2.19548E-01-1.19494E+00
 -1       622 1.59504E-01-2.21095E-01-1.20120E+00
 -1       623 1.52512E-01-2.09879E-01-1.62569E+00
 -1       624 1.54193E-01-2.11678E-01-1.62892E+00
 -1       625 9.73152E-02-1.31498E-01-4.81515E-01
 -1       626 9.71156E-02-1.30403E-01-4.83045E-01
 -1       627 9.27393E-02-1.29277E-01-1.37309E+00
 -1       628 2.53433E-02-4.13090E-02-1.63008E+00
 -1       629 9.39310E-02-1.31470E-01-1.02039E+00
 -1       630 2.96148E-02-4.06212E-02-7.50011E-01
 -1       631 3.04699E-02-4.03822E-02-7.53075E-01
 -1       632 9.54066E-02-1.30681E-01-1.02386E+00
 -1       633 9.40676E-02-1.28693E-01-1.37571E+00
 -1       634 2.97127E-02-3.84218E-02-1.63203E+00
 -1       635 9.24232E-02-1.29615E-01-1.37092E+00
 -1       636 9.38564E-02-1.28748E-01-1.37718E+00
 -1       637 9.36562E-02-1.31917E-01-1.01873E+00
 -1       638 9.59558E-02-1.30776E-01-1.02504E+00
 -1       639 2.45014E-02-4.35622E-02-1.19636E+00
 -1       640 3.28909E-02-3.66436E-02-1.20322E+00
 -1       641 1.26899E-01-8.19466E-02-1.86952E+00
 -1       642 1.25435E-01-8.16486E-02-1.87473E+00
 -1       643 2.35007E-01-1.47932E-01-7.55565E-01
 -1       644 2.34795E-01-1.47401E-01-7.56355E-01
 -1       645 2.30226E-01-1.45211E-01-1.20092E+00
 -1       646 2.29995E-01-1.45733E-01-1.20329E+00
 -1       647 2.19926E-01-1.39940E-01-1.62953E+00
 -1       648 2.18263E-01-1.39080E-01-1.63247E+00
 -1       649 1.39198E-01-8.69222E-02-4.87637E-01
 -1       650 1.38847E-01-8.63747E-02-4.87828E-01
 -1       651 3.89232E-02-2.89828E-02-1.63420E+00
 -1       652 1.34077E-01-8.60490E-02-1.37791E+00
 -1       653 1.36445E-01-8.73863E-02-1.02524E+00
 -1       654 4.29106E-02-2.87540E-02-7.56268E-01
 -1       655 4.38307E-02-2.66615E-02-7.56675E-01
 -1       656 1.37172E-01-8.63677E-02-1.02677E+00
 -1       657 1.34947E-01-8.48250E-02-1.37942E+00
 -1       658 4.12741E-02-2.46962E-02-1.63537E+00
 -1       659 1.34167E-01-8.68953E-02-1.37580E+00
 -1       660 1.35693E-01-8.45525E-02-1.37945E+00
 -1       661 1.36240E-01-8.76301E-02-1.02427E+00
 -1       662 1.37192E-01-8.65848E-02-1.02746E+00
 -1       663 3.95791E-02-2.97797E-02-1.20191E+00
 -1       664 4.32244E-02-2.41165E-02-1.20486E+00
 -1       665 1.48318E-01-3.26601E-02-1.87644E+00
 -1       666 1.48187E-01-3.01143E-02-1.88047E+00
 -1       667 2.72761E-01-5.72936E-02-7.59971E-01
 -1       668 2.73992E-01-5.74593E-02-7.63655E-01
 -1       669 2.66761E-01-5.52605E-02-1.20515E+00
 -1       670 2.66654E-01-5.60783E-02-1.21145E+00
 -1       671 2.53711E-01-5.38860E-02-1.63202E+00
 -1       672 2.55628E-01-5.39411E-02-1.63776E+00
 -1       673 1.61959E-01-3.51824E-02-4.90267E-01
 -1       674 1.62495E-01-3.45786E-02-4.92954E-01
 -1       675 4.75244E-02-1.10669E-02-1.63606E+00
 -1       676 1.55952E-01-3.35980E-02-1.38229E+00
 -1       677 1.58986E-01-3.41248E-02-1.03110E+00
 -1       678 5.08606E-02-1.18861E-02-7.60613E-01
 -1       679 5.20131E-02-1.02476E-02-7.64167E-01
 -1       680 1.59552E-01-3.27172E-02-1.03480E+00
 -1       681 1.56370E-01-3.22150E-02-1.38586E+00
 -1       682 4.85830E-02-6.05436E-03-1.64073E+00
 -1       683 1.56032E-01-3.41102E-02-1.37952E+00
 -1       684 1.56901E-01-3.16238E-02-1.38654E+00
 -1       685 1.58636E-01-3.44381E-02-1.02914E+00
 -1       686 1.59464E-01-3.23484E-02-1.03654E+00
 -1       687 4.80673E-02-1.41381E-02-1.20665E+00
 -1       688 4.99087E-02-6.65507E-03-1.21339E+00
 -1       689 1.48769E-01 1.70203E-02-1.87965E+00
 -1       690 1.49273E-01 2.02726E-02-1.88937E+00
 -1       691 2.54901E-01 3.29167E-02-1.65013E+00
 -1       692 2.56440E-01 3.35341E-02-1.64316E+00
 -1       693 2.67857E-01 3.66723E-02-1.23037E+00
 -1       694 2.68373E-01 3.83209E-02-1.21645E+00
 -1       695 2.74942E-01 4.16941E-02-7.82349E-01
 -1       696 2.75921E-01 4.18411E-02-7.77000E-01
 -1       697 1.63957E-01 2.53907E-02-5.06457E-01
 -1       698 1.63347E-01 2.55383E-02-5.11010E-01
 -1       699 4.83072E-02 2.73057E-03-1.64600E+00
 -1       700 1.57271E-01 2.09308E-02-1.39449E+00
 -1       701 1.60368E-01 2.21928E-02-1.04594E+00
 -1       702 5.15590E-02 6.17548E-03-7.77732E-01
 -1       703 5.09483E-02 9.38976E-03-7.83909E-01
 -1       704 1.59688E-01 2.32212E-02-1.05216E+00
 -1       705 1.56877E-01 2.20980E-02-1.40097E+00
 -1       706 4.78493E-02 9.68096E-03-1.65504E+00
 -1       707 1.57266E-01 2.11510E-02-1.39086E+00
 -1       708 1.57250E-01 2.21846E-02-1.40496E+00
 -1       709 1.60335E-01 2.17399E-02-1.04191E+00
 -1       710 1.59577E-01 2.35433E-02-1.05580E+00
 -1       711 5.00474E-02 2.30330E-03-1.21811E+00
 -1       712 4.84542E-02 1.10564E-02-1.23173E+00
 -1       713 1.28938E-01 7.74188E-02-1.89320E+00
 -1       714 1.26227E-01 7.89051E-02-1.89277E+00
 -1       715 2.18887E-01 1.34557E-01-1.65531E+00
 -1       716 2.17799E-01 1.33621E-01-1.65596E+00
 -1       717 2.29295E-01 1.41726E-01-1.23457E+00
 -1       718 2.28554E-01 1.42407E-01-1.23455E+00
 -1       719 2.36068E-01 1.44736E-01-7.92132E-01
 -1       720 2.34996E-01 1.43937E-01-7.91859E-01
 -1       721 1.40234E-01 8.31055E-02-5.23395E-01
 -1       722 1.40573E-01 8.44831E-02-5.24907E-01
 -1       723 4.24650E-02 2.26873E-02-1.65913E+00
 -1       724 1.34107E-01 8.27752E-02-1.40881E+00
 -1       725 1.36791E-01 8.46059E-02-1.06112E+00
 -1       726 4.42901E-02 2.49063E-02-7.92445E-01
 -1       727 4.30287E-02 2.87884E-02-7.93642E-01
 -1       728 1.36408E-01 8.56063E-02-1.06057E+00
 -1       729 1.33412E-01 8.40401E-02-1.40855E+00
 -1       730 3.92154E-02 2.75983E-02-1.66046E+00
 -1       731 1.34740E-01 8.30484E-02-1.40892E+00
 -1       732 1.33684E-01 8.49437E-02-1.40728E+00
 -1       733 1.36862E-01 8.42052E-02-1.06062E+00
 -1       734 1.35980E-01 8.58396E-02-1.06016E+00
 -1       735 4.34752E-02 2.38978E-02-1.23655E+00
 -1       736 4.02735E-02 2.98761E-02-1.23577E+00
 -1       737 8.76699E-02 1.19467E-01-1.89033E+00
 -1       738 8.92821E-02 1.20547E-01-1.89141E+00
 -1       739 1.49638E-01 2.08536E-01-1.64954E+00
 -1       740 1.50715E-01 2.10012E-01-1.65509E+00
 -1       741 1.57411E-01 2.19511E-01-1.22310E+00
 -1       742 1.56665E-01 2.20531E-01-1.23226E+00
 -1       743 1.62393E-01 2.24733E-01-7.83352E-01
 -1       744 1.62745E-01 2.24906E-01-7.86988E-01
 -1       745 9.73385E-02 1.32633E-01-5.17825E-01
 -1       746 9.75941E-02 1.33386E-01-5.15520E-01
 -1       747 3.15115E-02 3.60592E-02-1.65795E+00
 -1       748 9.24935E-02 1.28604E-01-1.40392E+00
 -1       749 9.46185E-02 1.31082E-01-1.05642E+00
 -1       750 3.17156E-02 4.14509E-02-7.87750E-01
 -1       751 9.38616E-02 1.31637E-01-1.05132E+00
 -1       752 2.95728E-02 4.34263E-02-7.84864E-01
 -1       753 9.13889E-02 1.29658E-01-1.39996E+00
 -1       754 2.69271E-02 4.00862E-02-1.65400E+00
 -1       755 9.31849E-02 1.28678E-01-1.40554E+00
 -1       756 9.11999E-02 1.30520E-01-1.39676E+00
 -1       757 9.43822E-02 1.30982E-01-1.05874E+00
 -1       758 9.36702E-02 1.31397E-01-1.04969E+00
 -1       759 3.20027E-02 3.79825E-02-1.23390E+00
 -1       760 2.64680E-02 4.28598E-02-1.22483E+00
 -1       761 3.50002E-02 1.47100E-01-1.88398E+00
 -1       762 3.71725E-02 1.45704E-01-1.88881E+00
 -1       763 6.33456E-02 2.52652E-01-1.64147E+00
 -1       764 6.85154E-02 2.63524E-01-1.21361E+00
 -1       765 6.25637E-02 2.50671E-01-1.64709E+00
 -1       766 6.99929E-02 2.70189E-01-7.68463E-01
 -1       767 6.75551E-02 2.62780E-01-1.22110E+00
 -1       768 6.99811E-02 2.69460E-01-7.72590E-01
 -1       769 4.28304E-02 1.58626E-01-5.01592E-01
 -1       770 4.22507E-02 1.59387E-01-4.97884E-01
 -1       771 1.31617E-02 4.59854E-02-1.64936E+00
 -1       772 4.07921E-02 1.53880E-01-1.39518E+00
 -1       773 4.09842E-02 1.56776E-01-1.04403E+00
 -1       774 1.39698E-02 4.94375E-02-7.73154E-01
 -1       775 4.00908E-02 1.57149E-01-1.04048E+00
 -1       776 1.05225E-02 5.00238E-02-7.69019E-01
 -1       777 3.85657E-02 1.54539E-01-1.39104E+00
 -1       778 9.38483E-03 4.75453E-02-1.64567E+00
 -1       779 4.15786E-02 1.53992E-01-1.39590E+00
 -1       780 3.81137E-02 1.55168E-01-1.38821E+00
 -1       781 4.13774E-02 1.56460E-01-1.04611E+00
 -1       782 3.97314E-02 1.57137E-01-1.03804E+00
 -1       783 1.63159E-02 4.74878E-02-1.22307E+00
 -1       784 8.17728E-03 4.89997E-02-1.21508E+00
 -1       785-1.78900E-02 1.50417E-01-1.87874E+00
 -1       786-1.53816E-02 1.51108E-01-1.87984E+00
 -1       787-3.20818E-02 2.71836E-01-1.20027E+00
 -1       788-2.93052E-02 2.60199E-01-1.63487E+00
 -1       789-3.45695E-02 2.76745E-01-7.50547E-01
 -1       790-3.45253E-02 2.77708E-01-7.56576E-01
 -1       791-2.91524E-02 2.59135E-01-1.63747E+00
 -1       792-3.25090E-02 2.73346E-01-1.20794E+00
 -1       793-2.02720E-02 1.63357E-01-4.85674E-01
 -1       794-2.07137E-02 1.62731E-01-4.79892E-01
 -1       795-4.65020E-03 4.79836E-02-1.64070E+00
 -1       796-1.78708E-02 1.59570E-01-1.38454E+00
 -1       797-1.91679E-02 1.62143E-01-1.02818E+00
 -1       798-4.84149E-03 5.09248E-02-7.56864E-01
 -1       799-2.04421E-02 1.61478E-01-1.02414E+00
 -1       800-8.73302E-03 5.12531E-02-7.51871E-01
 -1       801-1.99533E-02 1.58823E-01-1.38098E+00
 -1       802-9.71171E-03 4.73854E-02-1.63847E+00
 -1       803-1.72567E-02 1.60495E-01-1.38561E+00
 -1       804-2.04598E-02 1.58985E-01-1.37837E+00
 -1       805-1.86292E-02 1.62212E-01-1.02936E+00
 -1       806-2.10258E-02 1.61079E-01-1.02133E+00
 -1       807-2.95309E-03 4.95351E-02-1.20927E+00
 -1       808-1.03096E-02 4.85742E-02-1.20182E+00
 -1       809-7.50593E-02 1.35128E-01-1.87467E+00
 -1       810-7.19300E-02 1.36572E-01-1.87916E+00
 -1       811-1.23666E-01 2.45638E-01-1.19646E+00
 -1       812-1.23931E-01 2.50008E-01-7.46961E-01
 -1       813-1.23720E-01 2.49618E-01-7.46338E-01
 -1       814-1.23821E-01 2.34026E-01-1.62847E+00
 -1       815-1.22294E-01 2.32491E-01-1.63168E+00
 -1       816-1.23773E-01 2.43960E-01-1.19739E+00
 -1       817-7.29146E-02 1.46598E-01-4.75486E-01
 -1       818-7.33781E-02 1.45664E-01-4.77340E-01
 -1       819-2.05971E-02 4.39838E-02-1.63558E+00
 -1       820-7.31450E-02 1.42629E-01-1.37540E+00
 -1       821-7.24413E-02 1.45735E-01-1.01945E+00
 -1       822-2.19506E-02 4.47813E-02-7.46332E-01
 -1       823-7.36284E-02 1.45491E-01-1.01884E+00
 -1       824-2.38774E-02 4.52980E-02-7.47076E-01
 -1       825-7.46477E-02 1.42669E-01-1.37414E+00
 -1       826-2.55742E-02 4.19275E-02-1.63197E+00
 -1       827-7.24724E-02 1.42907E-01-1.37475E+00
 -1       828-7.53501E-02 1.42834E-01-1.37276E+00
 -1       829-7.23857E-02 1.45357E-01-1.01993E+00
 -1       830-7.41330E-02 1.45746E-01-1.01863E+00
 -1       831-1.96838E-02 4.53583E-02-1.19889E+00
 -1       832-2.72203E-02 4.19074E-02-1.19818E+00
 -1       833-1.11971E-01 1.04739E-01-1.87673E+00
 -1       834-1.10264E-01 1.07277E-01-1.87274E+00
 -1       835-1.89857E-01 1.79433E-01-1.63009E+00
 -1       836-1.91108E-01 1.80808E-01-1.62795E+00
 -1       837-1.98138E-01 1.87328E-01-1.20376E+00
 -1       838-1.98596E-01 1.86511E-01-1.19716E+00
 -1       839-2.01063E-01 1.91648E-01-7.59202E-01
 -1       840-1.99958E-01 1.91392E-01-7.54618E-01
 -1       841-1.18992E-01 1.14496E-01-4.91673E-01
 -1       842-1.17145E-01 1.13603E-01-4.86743E-01
 -1       843-3.50213E-02 3.50281E-02-1.63023E+00
 -1       844-1.16142E-01 1.09996E-01-1.37418E+00
 -1       845-1.17773E-01 1.11896E-01-1.02298E+00
 -1       846-3.71953E-02 3.63360E-02-7.55728E-01
 -1       847-3.94382E-02 3.45507E-02-7.60878E-01
 -1       848-1.18847E-01 1.11155E-01-1.02702E+00
 -1       849-1.17195E-01 1.08990E-01-1.37809E+00
 -1       850-3.78459E-02 3.11979E-02-1.63381E+00
 -1       851-1.16302E-01 1.09820E-01-1.37234E+00
 -1       852-1.18026E-01 1.08860E-01-1.37880E+00
 -1       853-1.17333E-01 1.12036E-01-1.02135E+00
 -1       854-1.19139E-01 1.10855E-01-1.02841E+00
 -1       855-3.42070E-02 3.69818E-02-1.19859E+00
 -1       856-3.98675E-02 3.16624E-02-1.20552E+00
 -1       857-1.44251E-01 5.14314E-02-1.87181E+00
 -1       858-1.43046E-01 5.32543E-02-1.87709E+00
 -1       859-2.45587E-01 9.24569E-02-1.63136E+00
 -1       860-2.43343E-01 9.21486E-02-1.63329E+00
 -1       861-2.55120E-01 9.90590E-02-1.20412E+00
 -1       862-2.55325E-01 9.79610E-02-1.20421E+00
 -1       863-2.60699E-01 1.03220E-01-7.59156E-01
 -1       864-2.59996E-01 1.02915E-01-7.57800E-01
 -1       865-1.54979E-01 6.11884E-02-4.90859E-01
 -1       866-1.54790E-01 6.17582E-02-4.87888E-01
 -1       867-4.48119E-02 2.07012E-02-1.63608E+00
 -1       868-1.49620E-01 5.88266E-02-1.37967E+00
 -1       869-1.52398E-01 5.91289E-02-1.02836E+00
 -1       870-4.93744E-02 2.04594E-02-7.58380E-01
 -1       871-5.03307E-02 1.91950E-02-7.60112E-01
 -1       872-1.53101E-01 5.82025E-02-1.02898E+00
 -1       873-1.50486E-01 5.74645E-02-1.38022E+00
 -1       874-4.75810E-02 1.40746E-02-1.63600E+00
 -1       875-1.49931E-01 5.97063E-02-1.37889E+00
 -1       876-1.50837E-01 5.70288E-02-1.37960E+00
 -1       877-1.52515E-01 5.89862E-02-1.02877E+00
 -1       878-1.53014E-01 5.76695E-02-1.02857E+00
 -1       879-4.61343E-02 2.18699E-02-1.20558E+00
 -1       880-4.93849E-02 1.38460E-02-1.20536E+00
 -1       881 0.00000E+00 0.00000E+00 0.00000E+00
 -1       882 0.00000E+00 0.00000E+00 0.00000E+00
 -1       883 0.00000E+00 0.00000E+00 0.00000E+00
 -1       884 0.00000E+00 0.00000E+00 0.00000E+00
 -1       885 0.00000E+00 0.00000E+00 0.00000E+00
 -1       886 0.00000E+00 0.00000E+00 0.00000E+00
 -1       887 0.00000E+00 0.00000E+00 0.00000E+00
 -1       888 0.00000E+00 0.00000E+00 0.00000E+00
 -1       889 0.00000E+00 0.00000E+00 0.00000E+00
 -1       890 0.00000E+00 0.00000E+00 0.00000E+00
 -1       891 0.00000E+00 0.00000E+00 0.00000E+00
 -1       892 0.00000E+00 0.00000E+00 0.00000E+00
 -1       893 0.00000E+00 0.00000E+00 0.00000E+00
 -1       894 0.00000E+00 0.00000E+00 0.00000E+00
 -1       895 0.00000E+00 0.00000E+00 0.00000E+00
 -1       896 0.00000E+00 0.00000E+00 0.00000E+00
 -1       897 0.00000E+00 0.00000E+00 0.00000E+00
 -1       898 0.00000E+00 0.00000E+00 0.00000E+00
 -1       899 0.00000E+00 0.00000E+00 0.00000E+00
 -1       900 0.00000E+00 0.00000E+00 0.00000E+00
 -1       901 0.00000E+00 0.00000E+00 0.00000E+00
 -1       902 0.00000E+00 0.00000E+00 0.00000E+00
 -1       903 0.00000E+00 0.00000E+00 0.00000E+00
 -1       904 0.00000E+00 0.00000E+00 0.00000E+00
 -1       905 0.00000E+00 0.00000E+00 0.00000E+00
 -1       906 0.00000E+00 0.00000E+00 0.00000E+00
 -1       907 0.00000E+00 0.00000E+00 0.00000E+00
 -1       908 0.00000E+00 0.00000E+00 0.00000E+00
 -1       909 0.00000E+00 0.00000E+00 0.00000E+00
 -1       910 0.00000E+00 0.00000E+00 0.00000E+00
 -1       911 0.00000E+00 0.00000E+00 0.00000E+00
 -1       912 0.00000E+00 0.00000E+00 0.00000E+00
 -1       913 0.00000E+00 0.00000E+00 0.00000E+00
 -1       914 0.00000E+00 0.00000E+00 0.00000E+00
 -1       915 0.00000E+00 0.00000E+00 0.00000E+00
 -1       916 0.00000E+00 0.00000E+00 0.00000E+00
 -1       917 0.00000E+00 0.00000E+00 0.00000E+00
 -1       918 0.00000E+00 0.00000E+00 0.00000E+00
 -1       919 0.00000E+00 0.00000E+00 0.00000E+00
 -1       920 0.00000E+00 0.00000E+00 0.00000E+00
 -1       921 0.00000E+00 0.00000E+00 0.00000E+00
 -1       922 0.00000E+00 0.00000E+00 0.00000E+00
 -1       923 0.00000E+00 0.00000E+00 0.00000E+00
 -1       924 0.00000E+00 0.00000E+00 0.00000E+00
 -1       925 0.00000E+00 0.00000E+00 0.00000E+00
 -1       926 0.00000E+00 0.00000E+00 0.00000E+00
 -1       927 0.00000E+00 0.00000E+00 0.00000E+00
 -1       928 0.00000E+00 0.00000E+00 0.00000E+00
 -1       929 0.00000E+00 0.00000E+00 0.00000E+00
 -1       930 0.00000E+00 0.00000E+00 0.00000E+00
 -1       931 0.00000E+00 0.00000E+00 0.00000E+00
 -1       932 0.00000E+00 0.00000E+00 0.00000E+00
 -1       933 0.00000E+00 0.00000E+00 0.00000E+00
 -1       934 0.00000E+00 0.00000E+00 0.00000E+00
 -1       935 0.00000E+00 0.00000E+00 0.00000E+00
 -1       936 0.00000E+00 0.00000E+00 0.00000E+00
 -1       937 0.00000E+00 0.00000E+00 0.00000E+00
 -1       938 0.00000E+00 0.00000E+00 0.00000E+00
 -1       939 0.00000E+00 0.00000E+00 0.00000E+00
 -1       940 0.00000E+00 0.00000E+00 0.00000E+00
 -1       941 0.00000E+00 0.00000E+00 0.00000E+00
 -1       942 0.00000E+00 0.00000E+00 0.00000E+00
 -1       943 0.00000E+00 0.00000E+00 0.00000E+00
 -1       944 0.00000E+00 0.00000E+00 0.00000E+00
 -1       945-2.65603E-01-5.19782E-03-1.50061E+00
 -1       946-2.59869E-01-7.30703E-03-1.74604E+00
 -1       947-2.64705E-01-6.04297E-03-1.50535E+00
 -1       948-2.77455E-01-2.83367E-03-8.88391E-01
 -1       949-2.79160E-01-3.16325E-03-6.20652E-01
 -1       950-5.28787E-02 7.14978E-04-8.91585E-01
 -1       951-5.29467E-02-3.01767E-04-6.20557E-01
 -1       952-5.24008E-02-1.30027E-03-8.90436E-01
 -1       953-4.76890E-02-6.41140E-03-1.75106E+00
 -1       954-2.44091E-01-9.31942E-02-1.74668E+00
 -1       955-2.49647E-01-9.98392E-02-1.49807E+00
 -1       956-2.42760E-01-9.31420E-02-1.74677E+00
 -1       957-4.92816E-02-1.91284E-02-8.79195E-01
 -1       958-4.95290E-02-1.88319E-02-6.04954E-01
 -1       959-4.79963E-02-2.11754E-02-8.75480E-01
 -1       960-4.50993E-02-1.76755E-02-1.74933E+00
 -1       961-1.89084E-01-1.81914E-01-1.74327E+00
 -1       962-1.94931E-01-1.85325E-01-1.49247E+00
 -1       963-1.88785E-01-1.82020E-01-1.74044E+00
 -1       964-3.90426E-02-3.58181E-02-8.70423E-01
 -1       965-3.95925E-02-3.68408E-02-5.96157E-01
 -1       966-3.79741E-02-3.69459E-02-8.66214E-01
 -1       967-3.17830E-02-3.59075E-02-1.74258E+00
 -1       968-2.52368E-02-4.31104E-02-1.49214E+00
 -1       969-2.54171E-02-4.67464E-02-5.96071E-01
 -1       970-2.47316E-02-4.69807E-02-8.70537E-01
 -1       971-1.90610E-02-4.46225E-02-1.74182E+00
 -1       972-2.78626E-02-2.76757E-01-8.76384E-01
 -1       973-2.90839E-02-2.64624E-01-1.49220E+00
 -1       974-3.00162E-02-2.57423E-01-1.74249E+00
 -1       975-8.92350E-03-4.95063E-02-1.49823E+00
 -1       976-6.64171E-03-5.12167E-02-6.04351E-01
 -1       977-4.88370E-03-5.17737E-02-8.77895E-01
 -1       978-2.52999E-03-4.78054E-02-1.74627E+00
 -1       979 7.61412E-02-2.65868E-01-8.79009E-01
 -1       980 7.53372E-02-2.66701E-01-6.10183E-01
 -1       981 7.07434E-02-2.57005E-01-1.49712E+00
 -1       982 9.85048E-03-4.79968E-02-1.50225E+00
 -1       983 1.14345E-02-4.91698E-02-6.10216E-01
 -1       984 1.48149E-02-4.88931E-02-8.80943E-01
 -1       985 1.44203E-02-4.46536E-02-1.75040E+00
 -1       986 1.63453E-01-2.23869E-01-6.15023E-01
 -1       987 1.62778E-01-2.22926E-01-8.87991E-01
 -1       988 1.54356E-01-2.14445E-01-1.49956E+00
 -1       989 1.54418E-01-2.07031E-01-1.74921E+00
 -1       990 2.62282E-02-4.19517E-02-1.50392E+00
 -1       991 2.86092E-02-4.16558E-02-8.87135E-01
 -1       992 2.90314E-02-4.10102E-02-6.15236E-01
 -1       993 3.02757E-02-4.00411E-02-8.89935E-01
 -1       994 2.98201E-02-3.65253E-02-1.75432E+00
 -1       995 2.15399E-01-1.40195E-01-1.74966E+00
 -1       996 2.22916E-01-1.41258E-01-1.50384E+00
 -1       997 2.14243E-01-1.39732E-01-1.75471E+00
 -1       998 4.02487E-02-2.74656E-02-1.51042E+00
 -1       999 4.27419E-02-2.81547E-02-6.20734E-01
 -1      1000 4.39006E-02-2.64077E-02-8.93681E-01
 -1      1001 4.15184E-02-2.22164E-02-1.75595E+00
 -1      1002 2.71892E-01-5.67097E-02-8.99100E-01
 -1      1003 2.52116E-01-5.44973E-02-1.75347E+00
 -1      1004 2.58039E-01-5.55020E-02-1.50825E+00
 -1      1005 2.52178E-01-5.39497E-02-1.76017E+00
 -1      1006 4.78014E-02-1.27473E-02-1.51332E+00
 -1      1007 5.06430E-02-1.26583E-02-6.25245E-01
 -1      1008 5.13980E-02-9.24112E-03-9.01135E-01
 -1      1009 4.64996E-02-5.77326E-03-1.76260E+00
 -1      1010 2.52935E-01 3.26519E-02-1.77009E+00
 -1      1011 2.60202E-01 3.48638E-02-1.51884E+00
 -1      1012 2.76209E-01 4.22059E-02-6.41122E-01
 -1      1013 4.91143E-02 3.68179E-03-1.52298E+00
 -1      1014 5.18109E-02 6.08154E-03-6.41571E-01
 -1      1015 5.05394E-02 9.62980E-03-9.20862E-01
 -1      1016 4.63187E-02 1.05949E-02-1.77519E+00
 -1      1017 2.21404E-01 1.36624E-01-1.53185E+00
 -1      1018 2.15026E-01 1.34109E-01-1.77401E+00
 -1      1019 2.21842E-01 1.37174E-01-1.53365E+00
 -1      1020 4.32930E-02 2.35109E-02-1.53696E+00
 -1      1021 4.43390E-02 2.47000E-02-6.57269E-01
 -1      1022 4.30036E-02 2.77989E-02-9.28528E-01
 -1      1023 3.80953E-02 2.68208E-02-1.77819E+00
 -1      1024 1.48676E-01 2.06490E-01-1.76989E+00
 -1      1025 1.52163E-01 2.13942E-01-1.53038E+00
 -1      1026 1.63276E-01 2.24410E-01-6.51852E-01
 -1      1027 2.85760E-02 3.98419E-02-1.53574E+00
 -1      1028 3.21618E-02 4.16719E-02-6.51890E-01
 -1      1029 2.99022E-02 4.17161E-02-9.19759E-01
 -1      1030 2.33903E-02 4.03908E-02-1.77458E+00
 -1      1031 6.46213E-02 2.56072E-01-1.51665E+00
 -1      1032 6.01324E-02 2.49652E-01-1.76230E+00
 -1      1033 1.57601E-02 4.67028E-02-1.52753E+00
 -1      1034 1.43321E-02 4.87800E-02-6.36381E-01
 -1      1035 1.11768E-02 4.99709E-02-9.06268E-01
 -1      1036 8.18936E-03 4.61679E-02-1.76581E+00
 -1      1037-3.38279E-02 2.75878E-01-8.86923E-01
 -1      1038-3.46226E-02 2.77190E-01-6.20381E-01
 -1      1039-2.90074E-02 2.64531E-01-1.51155E+00
 -1      1040-4.51034E-03 4.92043E-02-1.51687E+00
 -1      1041-5.14078E-03 5.05907E-02-6.20132E-01
 -1      1042-6.47503E-03 5.03065E-02-8.89028E-01
 -1      1043-7.90993E-03 4.58029E-02-1.76062E+00
 -1      1044-1.22616E-01 2.36914E-01-1.50349E+00
 -1      1045-2.28272E-02 4.40738E-02-1.50870E+00
 -1      1046-2.21942E-02 4.51833E-02-8.84701E-01
 -1      1047-2.24893E-02 4.48455E-02-6.08871E-01
 -1      1048-2.36164E-02 4.43278E-02-8.84813E-01
 -1      1049-2.71782E-02 4.01411E-02-1.75582E+00
 -1      1050-1.93676E-01 1.81750E-01-1.50502E+00
 -1      1051-1.89125E-01 1.78432E-01-1.75260E+00
 -1      1052-1.94392E-01 1.82408E-01-1.50279E+00
 -1      1053-2.00675E-01 1.90026E-01-8.92843E-01
 -1      1054-1.99093E-01 1.92180E-01-6.19910E-01
 -1      1055-3.74215E-02 3.52951E-02-8.90617E-01
 -1      1056-3.73057E-02 3.61779E-02-6.20265E-01
 -1      1057-3.94722E-02 3.34878E-02-8.94964E-01
 -1      1058-3.70692E-02 3.03452E-02-1.75658E+00
 -1      1059-2.43744E-01 8.85084E-02-1.75177E+00
 -1      1060-2.47305E-01 9.55422E-02-1.50689E+00
 -1      1061-2.59451E-01 1.01389E-01-8.93968E-01
 -1      1062-2.60173E-01 1.04063E-01-6.21997E-01
 -1      1063-4.92376E-02 1.96658E-02-8.95601E-01
 -1      1064-5.05371E-02 2.02230E-02-6.21945E-01
 -1      1065-5.00607E-02 1.85248E-02-8.96355E-01
 -1      1066-4.63344E-02 1.42323E-02-1.75642E+00
 -1      1067 0.00000E+00 0.00000E+00 0.00000E+00
 -1      1068 0.00000E+00 0.00000E+00 0.00000E+00
 -1      1069 0.00000E+00 0.00000E+00 0.00000E+00
 -1      1070 0.00000E+00 0.00000E+00 0.00000E+00
 -1      1071 0.00000E+00 0.00000E+00 0.00000E+00
 -1      1072 0.00000E+00 0.00000E+00 0.00000E+00
 -1      1073 0.00000E+00 0.00000E+00 0.00000E+00
 -1      1074 0.00000E+00 0.00000E+00 0.00000E+00
 -1      1075 0.00000E+00 0.00000E+00 0.00000E+00
 -1      1076 0.00000E+00 0.00000E+00 0.00000E+00
 -1      1077 0.00000E+00 0.00000E+00 0.00000E+00
 -1      1078 0.00000E+00 0.00000E+00 0.00000E+00
 -1      1079 0.00000E+00 0.00000E+00 0.00000E+00
 -1      1080 0.00000E+00 0.00000E+00 0.00000E+00
 -1      1081 0.00000E+00 0.00000E+00 0.00000E+00
 -1      1082 0.00000E+00 0.00000E+00 0.00000E+00
 -1      1083 0.00000E+00 0.00000E+00 0.00000E+00
 -1      1084 0.00000E+00 0.00000E+00 0.00000E+00
 -1      1085 0.00000E+00 0.00000E+00 0.00000E+00
 -1      1086 0.00000E+00 0.00000E+00 0.00000E+00
 -1      1087 0.00000E+00 0.00000E+00 0.00000E+00
 -1      1088 0.00000E+00 0.00000E+00 0.00000E+00
 -1      1089 0.00000E+00 0.00000E+00 0.00000E+00
 -1      1090 0.00000E+00 0.00000E+00 0.00000E+00
 -1      1091 0.00000E+00 0.00000E+00 0.00000E+00
 -1      1092 0.00000E+00 0.00000E+00 0.00000E+00
 -1      1093 0.00000E+00 0.00000E+00 0.00000E+00
 -1      1094 0.00000E+00 0.00000E+00 0.00000E+00
 -1      1095 0.00000E+00 0.00000E+00 0.00000E+00
 -1      1096 0.00000E+00 0.00000E+00 0.00000E+00
 -1      1097 0.00000E+00 0.00000E+00 0.00000E+00
 -1      1098 0.00000E+00 0.00000E+00 0.00000E+00
 -1      1099 0.00000E+00 0.00000E+00 0.00000E+00
 -1      1100 0.00000E+00 0.00000E+00 0.00000E+00
 -1      1101 0.00000E+00 0.00000E+00 0.00000E+00
 -1      1102 0.00000E+00 0.00000E+00 0.00000E+00
 -1      1103 0.00000E+00 0.00000E+00 0.00000E+00
 -1      1104 0.00000E+00 0.00000E+00 0.00000E+00
 -1      1105 0.00000E+00 0.00000E+00 0.00000E+00
 -1      1106 0.00000E+00 0.00000E+00 0.00000E+00
 -1      1107 0.00000E+00 0.00000E+00 0.00000E+00
 -1      1108 0.00000E+00 0.00000E+00 0.00000E+00
 -1      1109 0.00000E+00 0.00000E+00 0.00000E+00
 -1      1110 0.00000E+00 0.00000E+00 0.00000E+00
 -1      1111 0.00000E+00 0.00000E+00 0.00000E+00
 -1      1112 0.00000E+00 0.00000E+00 0.00000E+00
 -1      1113 0.00000E+00 0.00000E+00 0.00000E+00
 -1      1114 0.00000E+00 0.00000E+00 0.00000E+00
 -1      1115 0.00000E+00 0.00000E+00 0.00000E+00
 -1      1116 0.00000E+00 0.00000E+00 0.00000E+00
 -1      1117 0.00000E+00 0.00000E+00 0.00000E+00
 -1      1118 0.00000E+00 0.00000E+00 0.00000E+00
 -1      1119 0.00000E+00 0.00000E+00 0.00000E+00
 -1      1120 0.00000E+00 0.00000E+00 0.00000E+00
 -1      1121 0.00000E+00 0.00000E+00 0.00000E+00
 -1      1122 0.00000E+00 0.00000E+00 0.00000E+00
 -1      1123 0.00000E+00 0.00000E+00 0.00000E+00
 -1      1124-2.58203E-01-7.53645E-03-1.75300E+00
 -1      1125-2.78657E-01-3.24791E-03-6.18982E-01
 -1      1126-2.78104E-01-3.29336E-03-8.90916E-01
 -1      1127-5.04777E-02 1.01144E-03-1.50805E+00
 -1      1128-4.83814E-02 1.15543E-03-1.75512E+00
 -1      1129-5.23635E-02-1.79072E-03-6.18358E-01
 -1      1130-4.99950E-02-3.85647E-03-1.50611E+00
 -1      1131-2.60033E-01-1.10869E-01-6.05455E-01
 -1      1132-2.60187E-01-1.07921E-01-8.77922E-01
 -1      1133-2.58916E-01-1.07135E-01-8.73198E-01
 -1      1134-2.58541E-01-1.10602E-01-5.98873E-01
 -1      1135-2.48181E-01-9.86053E-02-1.49756E+00
 -1      1136-4.74962E-02-1.71189E-02-1.50300E+00
 -1      1137-4.72128E-02-1.08002E-02-1.75087E+00
 -1      1138-4.77063E-02-2.15311E-02-5.99033E-01
 -1      1139-4.62591E-02-2.02189E-02-1.50125E+00
 -1      1140-2.03108E-01-1.97086E-01-5.96409E-01
 -1      1141-2.03337E-01-1.95396E-01-8.69377E-01
 -1      1142-2.02919E-01-1.94476E-01-8.64354E-01
 -1      1143-2.01997E-01-1.96468E-01-5.90399E-01
 -1      1144-1.96532E-01-1.85732E-01-1.49000E+00
 -1      1145-3.73942E-02-3.40154E-02-1.49754E+00
 -1      1146-3.77617E-02-3.16250E-02-1.74740E+00
 -1      1147-3.78804E-02-3.79164E-02-5.89747E-01
 -1      1148-3.51750E-02-3.62477E-02-1.49296E+00
 -1      1149-1.29013E-01-2.48792E-01-5.96403E-01
 -1      1150-1.28530E-01-2.47908E-01-8.67055E-01
 -1      1151-1.28745E-01-2.48275E-01-8.69490E-01
 -1      1152-1.28522E-01-2.48464E-01-5.98933E-01
 -1      1153-1.17904E-01-2.32813E-01-1.73906E+00
 -1      1154-1.20244E-01-2.40307E-01-1.48836E+00
 -1      1155-1.19007E-01-2.33594E-01-1.73710E+00
 -1      1156-1.19881E-01-2.39711E-01-1.48742E+00
 -1      1157-2.48347E-02-4.12709E-02-1.74113E+00
 -1      1158-2.58783E-02-4.61353E-02-8.68686E-01
 -1      1159-2.38315E-02-4.70083E-02-5.98830E-01
 -1      1160-2.19721E-02-4.60285E-02-1.49189E+00
 -1      1161-2.85323E-02-2.77105E-01-6.04915E-01
 -1      1162-2.80932E-02-2.76573E-01-8.75504E-01
 -1      1163-2.82011E-02-2.77568E-01-6.05766E-01
 -1      1164-3.02990E-02-2.57637E-01-1.74031E+00
 -1      1165-2.92881E-02-2.64846E-01-1.49584E+00
 -1      1166-9.37149E-03-4.75844E-02-1.74212E+00
 -1      1167-6.31473E-03-5.19990E-02-8.77347E-01
 -1      1168-4.58055E-03-5.17453E-02-6.05340E-01
 -1      1169-4.46138E-03-4.93780E-02-1.49970E+00
 -1      1170 7.57809E-02-2.66778E-01-6.10051E-01
 -1      1171 6.72865E-02-2.50008E-01-1.74813E+00
 -1      1172 7.03000E-02-2.55928E-01-1.49914E+00
 -1      1173 7.63021E-02-2.66425E-01-8.80429E-01
 -1      1174 6.67719E-02-2.50479E-01-1.74582E+00
 -1      1175 8.04994E-03-4.61134E-02-1.74964E+00
 -1      1176 1.23891E-02-4.96307E-02-8.81420E-01
 -1      1177 1.37764E-02-4.88961E-02-6.09916E-01
 -1      1178 1.46460E-02-4.72530E-02-1.50272E+00
 -1      1179 1.62386E-01-2.22949E-01-8.85354E-01
 -1      1180 1.63521E-01-2.23401E-01-6.17873E-01
 -1      1181 1.53304E-01-2.05686E-01-1.74995E+00
 -1      1182 1.54990E-01-2.15783E-01-1.50366E+00
 -1      1183 2.43567E-02-3.96959E-02-1.75208E+00
 -1      1184 3.09469E-02-3.91368E-02-6.16821E-01
 -1      1185 2.96014E-02-3.87939E-02-1.50669E+00
 -1      1186 2.35436E-01-1.47205E-01-6.21219E-01
 -1      1187 2.33330E-01-1.47866E-01-8.90128E-01
 -1      1188 2.33075E-01-1.47632E-01-8.91955E-01
 -1      1189 2.35019E-01-1.46760E-01-6.21606E-01
 -1      1190 2.23363E-01-1.41539E-01-1.50764E+00
 -1      1191 3.75176E-02-2.77487E-02-1.75414E+00
 -1      1192 4.22524E-02-2.84414E-02-8.92417E-01
 -1      1193 4.34463E-02-2.65897E-02-6.21551E-01
 -1      1194 4.32067E-02-2.32942E-02-1.51129E+00
 -1      1195 2.73491E-01-5.77342E-02-6.25051E-01
 -1      1196 2.71317E-01-5.64774E-02-8.95354E-01
 -1      1197 2.74089E-01-5.75924E-02-6.27746E-01
 -1      1198 2.59217E-01-5.61637E-02-1.51309E+00
 -1      1199 4.59108E-02-1.23473E-02-1.75720E+00
 -1      1200 5.08932E-02-1.04935E-02-8.97019E-01
 -1      1201 5.19367E-02-1.14515E-02-6.27780E-01
 -1      1202 4.86025E-02-8.71646E-03-1.51620E+00
 -1      1203 2.59148E-01 3.40962E-02-1.52760E+00
 -1      1204 2.52963E-01 3.25207E-02-1.76235E+00
 -1      1205 2.72765E-01 3.97459E-02-9.18350E-01
 -1      1206 2.75778E-01 4.22729E-02-6.46572E-01
 -1      1207 2.73710E-01 4.00503E-02-9.11171E-01
 -1      1208 4.65930E-02 3.53242E-03-1.76430E+00
 -1      1209 5.10092E-02 6.61421E-03-9.14465E-01
 -1      1210 5.11918E-02 8.09861E-03-6.46780E-01
 -1      1211 4.87415E-02 6.99063E-03-1.53134E+00
 -1      1212 2.14737E-01 1.33675E-01-1.77523E+00
 -1      1213 2.35758E-01 1.43332E-01-6.57460E-01
 -1      1214 2.34414E-01 1.44379E-01-9.26991E-01
 -1      1215 2.36409E-01 1.44045E-01-6.57907E-01
 -1      1216 2.33123E-01 1.44090E-01-9.25971E-01
 -1      1217 4.20136E-02 2.15842E-02-1.77643E+00
 -1      1218 4.32053E-02 2.61079E-02-9.27929E-01
 -1      1219 4.34341E-02 2.79910E-02-6.58781E-01
 -1      1220 4.09676E-02 2.71666E-02-1.53735E+00
 -1      1221 1.51913E-01 2.12592E-01-1.52672E+00
 -1      1222 1.49038E-01 2.06896E-01-1.77460E+00
 -1      1223 1.61197E-01 2.23315E-01-9.17832E-01
 -1      1224 1.63494E-01 2.25104E-01-6.49267E-01
 -1      1225 1.61306E-01 2.23686E-01-9.21631E-01
 -1      1226 2.88370E-02 3.67566E-02-1.77694E+00
 -1      1227 3.09683E-02 4.10868E-02-9.23638E-01
 -1      1228 3.01567E-02 4.27821E-02-6.49446E-01
 -1      1229 2.62103E-02 4.13546E-02-1.53005E+00
 -1      1230 6.40763E-02 2.55024E-01-1.52359E+00
 -1      1231 6.03304E-02 2.49131E-01-1.76890E+00
 -1      1232 6.98162E-02 2.68658E-01-9.04960E-01
 -1      1233 7.04913E-02 2.69978E-01-6.32626E-01
 -1      1234 7.05623E-02 2.69474E-01-6.36767E-01
 -1      1235 6.92791E-02 2.68046E-01-9.08230E-01
 -1      1236 1.36828E-02 4.49014E-02-1.77047E+00
 -1      1237 1.26187E-02 4.95844E-02-9.10641E-01
 -1      1238 1.21856E-02 4.98019E-02-6.33035E-01
 -1      1239 1.07420E-02 4.75368E-02-1.52237E+00
 -1      1240-2.79939E-02 2.56806E-01-1.75807E+00
 -1      1241-2.87598E-02 2.64176E-01-1.51023E+00
 -1      1242-3.49112E-02 2.76749E-01-6.14837E-01
 -1      1243-3.41426E-02 2.76775E-01-8.92499E-01
 -1      1244-2.75169E-02 2.57175E-01-1.75866E+00
 -1      1245-1.23538E-03 4.71578E-02-1.76310E+00
 -1      1246-4.53541E-03 5.07031E-02-8.93250E-01
 -1      1247-7.01415E-03 4.97543E-02-6.14323E-01
 -1      1248-8.64472E-03 4.79384E-02-1.51400E+00
 -1      1249-1.24331E-01 2.48428E-01-8.82865E-01
 -1      1250-1.23358E-01 2.49331E-01-6.11434E-01
 -1      1251-1.23301E-01 2.49550E-01-6.10039E-01
 -1      1252-1.24253E-01 2.48346E-01-8.83535E-01
 -1      1253-1.22832E-01 2.31271E-01-1.75349E+00
 -1      1254-1.23305E-01 2.38556E-01-1.50327E+00
 -1      1255-1.22009E-01 2.31257E-01-1.75460E+00
 -1      1256-1.93209E-02 4.37100E-02-1.75930E+00
 -1      1257-2.34004E-02 4.38461E-02-6.10742E-01
 -1      1258-2.76943E-02 4.10886E-02-1.50625E+00
 -1      1259-1.88974E-01 1.79017E-01-1.75191E+00
 -1      1260-2.00531E-01 1.92756E-01-6.25563E-01
 -1      1261-2.00039E-01 1.89621E-01-8.89160E-01
 -1      1262-3.40596E-02 3.55126E-02-1.50581E+00
 -1      1263-3.26082E-02 3.57998E-02-1.75403E+00
 -1      1264-3.98071E-02 3.37194E-02-6.25550E-01
 -1      1265-3.79246E-02 3.22412E-02-1.51034E+00
 -1      1266-2.48808E-01 9.67030E-02-1.50839E+00
 -1      1267-2.41944E-01 8.78051E-02-1.75676E+00
 -1      1268-2.60461E-01 1.03970E-01-6.24623E-01
 -1      1269-2.58729E-01 1.00862E-01-8.93568E-01
 -1      1270-4.65258E-02 1.95108E-02-1.51273E+00
 -1      1271-4.36100E-02 2.01427E-02-1.75849E+00
 -1      1272-5.08356E-02 1.77473E-02-6.24025E-01
 -1      1273-4.80176E-02 1.53441E-02-1.51253E+00
 -1      1274 0.00000E+00 0.00000E+00 0.00000E+00
 -1      1275 0.00000E+00 0.00000E+00 0.00000E+00
 -1      1276 0.00000E+00 0.00000E+00 0.00000E+00
 -1      1277 0.00000E+00 0.00000E+00 0.00000E+00
 -1      1278 0.00000E+00 0.00000E+00 0.00000E+00
 -1      1279 0.00000E+00 0.00000E+00 0.00000E+00
 -1      1280 0.00000E+00 0.00000E+00 0.00000E+00
 -1      1281 0.00000E+00 0.00000E+00 0.00000E+00
 -1      1282 0.00000E+00 0.00000E+00 0.00000E+00
 -1      1283 0.00000E+00 0.00000E+00 0.00000E+00
 -1      1284 0.00000E+00 0.00000E+00 0.00000E+00
 -1      1285 0.00000E+00 0.00000E+00 0.00000E+00
 -1      1286 0.00000E+00 0.00000E+00 0.00000E+00
 -1      1287 0.00000E+00 0.00000E+00 0.00000E+00
 -1      1288 0.00000E+00 0.00000E+00 0.00000E+00
 -1      1289 0.00000E+00 0.00000E+00 0.00000E+00
 -1      1290 0.00000E+00 0.00000E+00 0.00000E+00
 -1      1291 0.00000E+00 0.00000E+00 0.00000E+00
 -1      1292 0.00000E+00 0.00000E+00 0.00000E+00
 -1      1293 0.00000E+00 0.00000E+00 0.00000E+00
 -1      1294 0.00000E+00 0.00000E+00 0.00000E+00
 -1      1295 0.00000E+00 0.00000E+00 0.00000E+00
 -1      1296 0.00000E+00 0.00000E+00 0.00000E+00
 -1      1297 0.00000E+00 0.00000E+00 0.00000E+00
 -1      1298 0.00000E+00 0.00000E+00 0.00000E+00
 -1      1299 0.00000E+00 0.00000E+00 0.00000E+00
 -1      1300 0.00000E+00 0.00000E+00 0.00000E+00
 -1      1301 0.00000E+00 0.00000E+00 0.00000E+00
 -1      1302 0.00000E+00 0.00000E+00 0.00000E+00
 -1      1303 0.00000E+00 0.00000E+00 0.00000E+00
 -1      1304 0.00000E+00 0.00000E+00 0.00000E+00
 -1      1305 0.00000E+00 0.00000E+00 0.00000E+00
 -1      1306 0.00000E+00 0.00000E+00 0.00000E+00
 -1      1307 0.00000E+00 0.00000E+00 0.00000E+00
 -1      1308 0.00000E+00 0.00000E+00 0.00000E+00
 -1      1309 0.00000E+00 0.00000E+00 0.00000E+00
 -1      1310 0.00000E+00 0.00000E+00 0.00000E+00
 -1      1311 0.00000E+00 0.00000E+00 0.00000E+00
 -1      1312 0.00000E+00 0.00000E+00 0.00000E+00
 -1      1313 0.00000E+00 0.00000E+00 0.00000E+00
 -1      1314 0.00000E+00 0.00000E+00 0.00000E+00
 -1      1315 0.00000E+00 0.00000E+00 0.00000E+00
 -1      1316 0.00000E+00 0.00000E+00 0.00000E+00
 -1      1317 0.00000E+00 0.00000E+00 0.00000E+00
 -1      1318 0.00000E+00 0.00000E+00 0.00000E+00
 -1      1319 0.00000E+00 0.00000E+00 0.00000E+00
 -1      1320 0.00000E+00 0.00000E+00 0.00000E+00
 -1      1321 0.00000E+00 0.00000E+00 0.00000E+00
 -1      1322 0.00000E+00 0.00000E+00 0.00000E+00
 -1      1323 0.00000E+00 0.00000E+00 0.00000E+00
 -1      1324 0.00000E+00 0.00000E+00 0.00000E+00
 -1      1325 0.00000E+00 0.00000E+00 0.00000E+00
 -1      1326 0.00000E+00 0.00000E+00 0.00000E+00
 -1      1327 0.00000E+00 0.00000E+00 0.00000E+00
 -1      1328 0.00000E+00 0.00000E+00 0.00000E+00
 -1      1329 0.00000E+00 0.00000E+00 0.00000E+00
 -1      1330 0.00000E+00 0.00000E+00 0.00000E+00
 -1      1331 0.00000E+00 0.00000E+00 0.00000E+00
 -1      1332 0.00000E+00 0.00000E+00 0.00000E+00
 -1      1333 0.00000E+00 0.00000E+00 0.00000E+00
 -1      1334 0.00000E+00 0.00000E+00 0.00000E+00
 -1      1335 0.00000E+00 0.00000E+00 0.00000E+00
 -1      1336 0.00000E+00 0.00000E+00 0.00000E+00
 -1      1337 0.00000E+00 0.00000E+00 0.00000E+00
 -1      1338 0.00000E+00 0.00000E+00 0.00000E+00
 -1      1339 0.00000E+00 0.00000E+00 0.00000E+00
 -1      1340 0.00000E+00 0.00000E+00 0.00000E+00
 -1      1341 0.00000E+00 0.00000E+00 0.00000E+00
 -1      1342 0.00000E+00 0.00000E+00 0.00000E+00
 -1      1343 0.00000E+00 0.00000E+00 0.00000E+00
 -1      1344 0.00000E+00 0.00000E+00 0.00000E+00
 -1      1345-2.64049E-02-4.47279E-02-1.09118E+00
 -1      1346 4.59411E-02 2.22649E-03-1.82216E+00
 -1      1347 4.54985E-02-6.93864E-03-1.83414E+00
 -1      1348 4.16713E-02 2.02127E-02-1.83515E+00
 -1      1349 4.49014E-02 1.10413E-02-1.84251E+00
 -1      1350-4.22428E-02 2.05599E-02-1.81717E+00
 -1      1351-3.67887E-02 2.83193E-02-1.82809E+00
 -1      1352-4.52845E-02-1.18496E-02-1.81171E+00
 -1      1353-4.60074E-02-3.45217E-03-1.82050E+00
 -1      1354-3.79741E-02-2.94282E-02-1.80939E+00
 -1      1355-4.26003E-02-2.16882E-02-1.82000E+00
 -1      1356 8.31196E-03-4.44706E-02-1.80993E+00
 -1      1357-1.39659E-03-4.66192E-02-1.81573E+00
 -1      1358-3.18066E-02-3.47459E-02-1.80272E+00
 -1      1359-2.30929E-02-4.11655E-02-1.81393E+00
 -1      1360 1.40753E-02-4.43860E-02-1.80956E+00
 -1      1361 2.34990E-02-3.90353E-02-1.82194E+00
 -1      1362 1.41603E-02 4.31289E-02-1.83314E+00
 -1      1363 2.21174E-02 3.91604E-02-1.84146E+00
 -1      1364-8.12714E-03 4.54141E-02-1.82026E+00
 -1      1365-1.79231E-02 4.33813E-02-1.82968E+00
 -1      1366 4.06123E-02-2.01657E-02-1.81504E+00
 -1      1367 4.39568E-02-1.28314E-02-1.82796E+00
 -1      1368 3.50371E-02 2.80211E-02-1.83845E+00
 -1      1369 3.10332E-02 3.37508E-02-1.84610E+00
 -1      1370 7.04624E-03 4.48034E-02-1.82537E+00
 -1      1371 9.78428E-05 4.58033E-02-1.83194E+00
 -1      1372-3.20908E-02 3.53154E-02-1.81388E+00
 -1      1373-2.68526E-02 3.92733E-02-1.82677E+00
 -1      1374-3.56393E-02-3.14693E-03-1.19282E-01
 -1      1375-8.06592E-03-2.95837E-02-1.35392E-01
 -1      1376-1.15705E-02-3.11557E-02-1.25520E-01
 -1      1377-2.14326E-03 1.71809E-03-2.08272E+00
 -1      1378 9.77542E-03-3.52599E-02-1.29711E-01
 -1      1379-3.03585E-02-8.51652E-03-1.20320E-01
 -1      1380-1.99738E-02-4.11381E-03-5.34037E-02
 -1      1381-2.38924E-02 4.96215E-02-3.38551E-01
 -1      1382 5.41601E-02 5.25433E-04-3.47212E-01
 -1      1383-6.58775E-02 4.59388E-03-1.07929E+00
 -1      1384 4.48874E-02 2.99256E-02-3.21679E-01
 -1      1385 1.61615E-02-2.40949E-02-1.20895E-01
 -1      1386 3.35349E-02-6.38697E-03-1.34775E-01
 -1      1387-5.73347E-02-1.16951E-02-3.62528E-01
 -1      1388-2.19442E-02-2.21300E-02-1.25847E-01
 -1      1389 3.36322E-02 4.67763E-02-4.20849E-01
 -1      1390-4.84957E-02 2.98966E-02-3.49444E-01
 -1      1391 3.58359E-02 3.72270E-03-1.32320E-01
 -1      1392 6.56972E-03 6.11752E-02-5.17463E-01
 -1      1393 3.05372E-02 1.70686E-02-1.60755E-01
 -1      1394 2.42175E-02 3.12766E-02-1.44926E-01
 -1      1395-1.33670E-02 2.98236E-02-7.55617E-02
 -1      1396 3.36713E-02 1.01565E-02-1.58558E-01
 -1      1397-1.44350E-02-4.31205E-02-3.19941E-01
 -1      1398-3.30040E-02 4.03109E-02-2.40829E-01
 -1      1399-4.76592E-02-1.77962E-02-1.95845E-01
 -1      1400 4.29670E-03-6.13838E-04-2.08247E+00
 -1      1401-4.52835E-02-2.57189E-02-5.00192E-01
 -1      1402 3.38997E-02-1.03773E-02-1.44087E-01
 -1      1403 2.51955E-02 5.16525E-04-7.50833E-02
 -1      1404-3.37634E-02 1.16792E-02-1.41580E-01
 -1      1405-3.03626E-02 2.07017E-02-1.52650E-01
 -1      1406 4.63766E-02-1.75095E-02-3.86132E-01
 -1      1407 3.95430E-02 8.65966E-03-1.61699E-01
 -1      1408 8.38277E-03 1.14656E-02-2.03741E+00
 -1      1409 1.48085E-02 3.47505E-03-4.00088E-02
 -1      1410-2.01837E-02 2.52266E-02-1.37973E-01
 -1      1411 4.20613E-02-3.11520E-02-3.55391E-01
 -1      1412-2.43714E-02 2.40500E-02-1.12207E-01
 -1      1413-6.03025E-03 3.18608E-02-1.35322E-01
 -1      1414 1.36224E-03 3.39662E-02-1.60053E-01
 -1      1415 1.80725E-02-6.33174E-03-5.58205E-02
 -1      1416 4.35570E-02-2.24114E-03-3.03914E-01
 -1      1417 4.80467E-02-2.00133E-02-6.40300E-01
 -1      1418-1.64495E-02 2.46210E-02-6.11290E-02
 -1      1419 2.65168E-02-2.50241E-02-1.18363E-01
 -1      1420-1.35996E-02-1.52581E-02-2.03067E+00
 -1      1421 4.23348E-03-1.90968E-02-2.02102E+00
 -1      1422-3.53678E-02 1.75185E-02-1.20637E-01
 -1      1423-3.55075E-02-5.45530E-02-1.08926E+00
 -1      1424-8.68848E-04 4.32768E-02-1.81921E-01
 -1      1425-3.45889E-02-4.17247E-02-4.89884E-01
 -1      1426-1.14235E-02 2.00286E-02-3.01190E-02
 -1      1427 2.69160E-02 1.37838E-02-8.64921E-02
 -1      1428-1.06248E-02 3.36693E-02-1.42485E-01
 -1      1429 2.69741E-02 2.49181E-02-1.63449E-01
 -1      1430-3.38768E-02-4.43417E-02-3.85215E-01
 -1      1431 4.81184E-02 3.97093E-02-1.39158E+00
 -1      1432 1.52272E-02-3.55679E-02-2.62825E-01
 -1      1433-3.17763E-02-5.84272E-03-9.85222E-02
 -1      1434-2.73294E-02-6.19294E-03-6.11492E-02
 -1      1435-5.40597E-02 8.25921E-03-3.72706E-01
 -1      1436 2.74170E-02-6.23030E-02-7.75129E-01
 -1      1437 2.18080E-02 1.70776E-02-8.36963E-02
 -1      1438-1.18664E-02-4.37427E-02-2.91481E-01
 -1      1439 1.51210E-02 2.87470E-03-3.96339E-02
 -1      1440 6.76631E-03-1.74167E-02-5.24046E-02
 -1      1441 1.59675E-02 3.65100E-02-1.58024E-01
 -1      1442-1.62264E-02 1.66635E-02-4.42667E-02
 -1      1443 1.38111E-02 3.26983E-04-2.82686E-02
 -1      1444-5.51622E-02 2.22918E-02-4.55096E-01
 -1      1445-2.93882E-03 3.85941E-02-2.11153E-01
 -1      1446-9.49253E-03-3.24758E-02-1.98269E+00
 -1      1447 1.15139E-02-1.50265E-02-3.30274E-02
 -1      1448 1.62085E-03-1.01223E-02-1.94502E-02
 -1      1449 3.77822E-02-1.87595E-02-1.65919E-01
 -1      1450 3.53292E-02 2.80723E-02-2.28712E-01
 -1      1451-2.18246E-02-2.56069E-02-1.14822E-01
 -1      1452 2.82984E-02 2.41035E-02-1.29890E-01
 -1      1453 2.60740E-02 1.17792E-02-8.69903E-02
 -1      1454-1.16917E-02-1.20291E-02-4.46095E-02
 -1      1455 1.59278E-02-4.04466E-02-2.25351E-01
 -1      1456-2.47877E-02-1.57435E-03-5.71410E-02
 -1      1457-2.17371E-02-4.09364E-03-1.35681E-02
 -1      1458 2.28555E-02-7.04002E-03-2.02329E+00
 -1      1459 8.53148E-03-3.13585E-02-9.64680E-02
 -1      1460 2.40846E-02-1.51329E-02-6.54318E-02
 -1      1461 1.60904E-02 2.25672E-02-9.97658E-02
 -1      1462-1.17103E-02-3.11599E-02-4.16891E-02
 -1      1463 2.82918E-02-1.74580E-02-1.34692E-01
 -1      1464 1.98585E-02 8.08331E-03-7.97956E-02
 -1      1465-4.24854E-02 2.35155E-02-3.85619E-01
 -1      1466-4.80970E-02-9.39669E-03-3.40762E-01
 -1      1467-3.54309E-02 1.60931E-02-1.12710E-01
 -1      1468-1.04759E-02 2.68363E-02-1.29394E-01
 -1      1469 3.39543E-02-4.77398E-02-3.95936E-01
 -1      1470 5.12492E-02-3.20789E-03-5.59434E-01
 -1      1471-5.85185E-03 1.42857E-02-3.29723E-02
 -1      1472 1.30694E-02-5.24824E-03-4.62916E-02
 -1      1473-3.10929E-02-7.05176E-03-1.25814E-01
 -1      1474-4.39356E-02-1.43408E-02-2.80830E-01
 -1      1475 2.11932E-02-4.44015E-02-5.23993E-01
 -1      1476-4.93509E-02 9.19279E-03-3.52429E-01
 -1      1477-1.89064E-02 6.03603E-02-1.39720E+00
 -1      1478-1.72109E-02-5.16029E-02-5.66960E-01
 -1      1479-4.99248E-02-1.49148E-02-2.78659E-01
 -1      1480-8.80582E-03 4.44526E-02-2.84416E-01
 -1      1481-2.22565E-02-1.23460E-02-1.14617E-01
 -1      1482-1.87016E-02-2.67140E-02-1.16904E-01
 -1      1483 6.08770E-03-3.07235E-02-9.48018E-02
 -1      1484-1.18349E-03-4.72350E-02-1.82115E-01
 -1      1485 2.20478E-02-2.33070E-02-1.41072E-01
 -1      1486 2.04664E-02 3.09293E-03-3.74927E-02
 -1      1487 1.49294E-02-3.30215E-03-3.85063E-02
 -1      1488 6.53854E-03-7.80586E-03-1.63095E-02
 -1      1489-8.23144E-03-1.62759E-02-2.03103E-02
 -1      1490 7.26212E-03 3.07192E-02-1.49245E-01
 -1      1491 4.09252E-02 1.11647E-03-1.87681E-01
 -1      1492-2.79798E-02 2.42988E-02-1.16550E-01
 -1      1493 3.02831E-02 2.01583E-02-1.71615E-01
 -1      1494-2.98718E-02-2.09615E-02-1.53770E-01
 -1      1495 1.81569E-02 4.81736E-03-2.55643E-02
 -1      1496-1.25074E-02 1.80357E-02-5.25296E-02
 -1      1497-7.60654E-03 1.56349E-02-1.15289E-02
 -1      1498-2.02600E-02 4.09491E-02-2.03489E-01
 -1      1499-4.76343E-02-4.94058E-03-2.91866E-01
 -1      1500 1.62332E-02 4.83767E-02-1.78467E+00
 -1      1501 3.34982E-02 5.51390E-03-1.53408E-01
 -1      1502-5.55740E-02-3.56850E-02-8.15357E-01
 -1      1503-1.99048E-02-8.16728E-03-4.39904E-02
 -1      1504 2.11610E-02 5.16927E-02-3.95794E-01
 -1      1505 1.75044E-02 1.32243E-02-4.94096E-02
 -1      1506 3.30667E-02 4.54290E-03-1.24656E-01
 -1      1507 1.55375E-02 1.83244E-02-4.17206E-02
 -1      1508 4.75887E-02 2.28672E-02-2.57598E-01
 -1      1509 4.80159E-02 1.90151E-02-2.85104E-01
 -1      1510 2.86054E-02 3.66580E-02-3.09216E-01
 -1      1511 4.49745E-02 3.71356E-03-3.03178E-01
 -1      1512-8.49801E-03-1.13112E-03-3.04514E-02
 -1      1513-1.67702E-02-4.27674E-04-3.21947E-02
 -1      1514 0.00000E+00 0.00000E+00 0.00000E+00
 -1      1515-1.32410E-02-1.00657E-02-3.72414E-02
 -1      1516-5.28476E-03-7.78136E-03-2.93452E-02
 -1      1517 4.34114E-02-1.43870E-02-2.97629E-01
 -1      1518-3.81498E-02-2.17805E-02-2.90498E-01
 -1      1519-1.73822E-02 1.69173E-02-5.18415E-02
 -1      1520-3.09337E-02 5.46273E-02-5.18142E-01
 -1      1521 8.10704E-03 2.25444E-03-2.45169E-02
 -1      1522 2.84686E-03-3.83121E-02-1.96411E-01
 -1      1523 7.45258E-03-1.25464E-02-4.09397E-02
 -1      1524 4.54441E-02-7.21049E-03-2.96331E-01
 -1      1525-3.31919E-02 2.92749E-02-2.44103E-01
 -1      1526 2.38309E-03-1.32969E-02-3.94855E-02
 -1      1527-1.18079E-02 2.95187E-03-4.35467E-02
 -1      1528 3.99323E-02-2.59575E-02-2.91083E-01
 -1      1529 4.48564E-03-2.81107E-02-1.40707E-01
 -1      1530-4.14748E-02-1.88054E-02-2.52807E-01
 -1      1531 3.40417E-02-1.83777E-02-1.71294E-01
 -1      1532 8.86301E-03-4.51501E-02-2.74153E-01
 -1      1533 4.80927E-02 4.59785E-02-8.15600E-01
 -1      1534-3.22997E-03 1.60442E-02-5.55371E-02
 -1      1535 1.76517E-02-3.04578E-02-1.50081E-01
 -1      1536 5.66781E-02-2.36100E-02-1.39323E+00
 -1      1537 2.69978E-02 7.13449E-03-1.99654E+00
 -1      1538 5.42058E-02 9.92507E-03-3.06134E-01
 -1      1539 1.90648E-02 1.82055E-02-4.97029E-02
 -1      1540-2.07983E-02-1.75278E-02-5.48252E-02
 -1      1541-3.31758E-03 3.69163E-02-1.77785E-01
 -1      1542 3.82356E-02 4.30180E-02-4.48001E-01
 -1      1543 1.33377E-02-3.32171E-02-1.47510E-01
 -1      1544 1.92554E-03 2.00329E-02-3.39334E-02
 -1      1545 2.51037E-02 1.39840E-02-4.43127E-02
 -1      1546 4.05513E-02 1.73744E-02-2.92116E-01
 -1      1547 4.35254E-03-5.09272E-02-4.41665E-01
 -1      1548-1.15346E-03-4.25563E-02-3.05564E-01
 -1      1549-7.21600E-03 1.52946E-02-9.05540E-03
 -1      1550-4.17000E-02 2.50164E-03-2.02453E-01
 -1      1551-1.34566E-02 1.12254E-02-7.03858E-02
 -1      1552 1.71193E-02-2.13979E-02-5.68368E-02
 -1      1553-3.56386E-02 1.88469E-02-2.17290E-01
 -1      1554-1.62652E-02 1.32197E-02-3.43181E-02
 -1      1555-2.78034E-02 5.26273E-02-3.65487E-01
 -1      1556-6.39511E-03-3.11025E-03-2.44260E-02
 -1      1557 1.91583E-02-5.80668E-03-3.26525E-02
 -1      1558 1.96080E-02-3.00525E-02-1.01088E-01
 -1      1559 3.47121E-03 4.62646E-02-3.99408E-01
 -1      1560 2.53181E-02-4.70890E-02-2.74405E-01
 -1      1561-8.86652E-03 5.50388E-03-2.00100E-02
 -1      1562-8.06591E-03 8.61263E-03-2.16312E-02
 -1      1563 4.03266E-02 1.31268E-02-1.40937E-01
 -1      1564-1.30428E-02-3.93892E-02-1.57290E-01
 -1      1565 3.29822E-02-2.67305E-02-1.86906E-01
 -1      1566 2.21252E-02-3.76581E-02-3.00622E-01
 -1      1567-5.00963E-03-1.89238E-02-1.95725E-02
 -1      1568 9.13605E-03-9.98608E-03-3.75912E-02
 -1      1569 3.64584E-02-7.37727E-03-1.71595E-01
 -1      1570 1.25543E-02 8.86896E-03-3.60072E-02
 -1      1571 2.82482E-02-3.74485E-02-2.32079E-01
 -1      1572-6.55804E-02 2.04869E-03-6.28449E-01
 -1      1573-1.76207E-02-4.72806E-02-4.31822E-01
 -1      1574 4.41948E-02 1.36095E-02-3.67024E-01
 -1      1575-1.21287E-02-8.06471E-04-2.68056E-02
 -1      1576 2.67900E-02 3.22537E-02-1.60031E-01
 -1      1577-4.86942E-02-2.44127E-02-1.66872E+00
 -1      1578 4.20577E-02 2.18361E-02-2.01071E-01
 -1      1579-6.48059E-02-1.80889E-02-8.38954E-01
 -1      1580-1.58749E-02-6.27818E-04-3.66685E-02
 -1      1581-1.79264E-02 7.27743E-03-3.40302E-02
 -1      1582 6.45973E-02 1.22725E-02-1.03870E+00
 -1      1583 3.14915E-02-2.88031E-02-2.89691E-01
 -1      1584 3.91504E-02-1.97135E-02-2.54371E-01
 -1      1585 1.36583E-02 1.46158E-02-4.36486E-02
 -1      1586 1.06381E-02 1.78413E-02-4.55264E-02
 -1      1587 3.91763E-02-4.21473E-02-3.89357E-01
 -1      1588-1.47987E-02 1.14890E-02-2.03867E+00
 -1      1589-1.11833E-02 6.34959E-02-6.88495E-01
 -1      1590-4.01214E-02-3.29706E-02-3.37049E-01
 -1      1591 1.26028E-02 1.36193E-03-1.92081E-02
 -1      1592-2.98348E-02-2.67717E-02-1.60128E-01
 -1      1593 1.09649E-02 3.43483E-03-3.18852E-02
 -1      1594-3.14311E-02 4.97181E-02-3.38020E-01
 -1      1595-3.78162E-03-6.89779E-02-9.14295E-01
 -1      1596-2.87386E-03 5.94343E-02-4.55708E-01
 -1      1597 2.98100E-02 5.58408E-03-1.07555E-01
 -1      1598 3.74263E-02-1.07090E-02-1.76432E-01
 -1      1599-6.40755E-02 1.52624E-02-7.63936E-01
 -1      1600 9.53236E-03 4.68956E-03-2.15236E-02
 -1      1601 2.73961E-02-3.94338E-02-2.34393E-01
 -1      1602 2.63543E-02 5.97437E-02-1.10352E+00
 -1      1603 4.26259E-02 1.82508E-02-2.01894E-01
 -1      1604 7.10607E-03-8.28081E-03-2.18123E-02
 -1      1605-4.58007E-02-4.59796E-02-7.07678E-01
 -1      1606 9.37695E-03-1.63163E-02-8.94311E-03
 -1      1607-7.94736E-04 2.38081E-03-1.11068E-02
 -1      1608-9.71655E-03 1.37595E-02-2.00501E-02
 -1      1609 0.00000E+00 0.00000E+00 0.00000E+00
 -1      1610-1.24747E-02 3.99246E-02-2.67719E-01
 -1      1611-4.02808E-02-1.05565E-02-1.50039E-01
 -1      1612 0.00000E+00 0.00000E+00 0.00000E+00
 -1      1613 1.57415E-02-4.10226E-02-3.04677E-01
 -1      1614-1.85559E-02-4.28040E-02-2.65623E-01
 -1      1615-4.62595E-02 2.83002E-02-6.38458E-01
 -1      1616-3.79080E-02 4.66511E-02-4.80731E-01
 -1      1617-3.42729E-02-4.31127E-02-7.32112E-01
 -1      1618 9.46917E-03-1.18364E-02-7.15128E-03
 -1      1619 4.70982E-02 8.25826E-03-3.17331E-01
 -1      1620-5.85396E-02-2.56033E-02-5.32328E-01
 -1      1621-4.99388E-02-2.28580E-02-3.23074E-01
 -1      1622-5.18000E-02-3.71581E-02-1.26815E+00
 -1      1623-2.18859E-02-1.50048E-02-3.46577E-02
 -1      1624 3.62406E-02 3.40742E-02-3.88720E-01
 -1      1625-6.38228E-02-9.33201E-03-6.29823E-01
 -1      1626 8.03280E-03 4.30843E-03-1.80932E-02
 -1      1627-1.24741E-02-7.04294E-03-3.76607E-02
 -1      1628 3.09955E-02 3.68019E-02-2.68943E-01
 -1      1629 1.37563E-02-5.98238E-02-4.80088E-01
 -1      1630-1.71900E-02-1.62171E-02-7.50941E-02
 -1      1631-3.96510E-02 2.95477E-02-3.61112E-01
 -1      1632-2.96669E-02-2.76945E-02-2.36004E-01
 -1      1633-4.60985E-02-5.95116E-03-2.05887E-01
 -1      1634-9.02503E-03-8.57372E-03-2.92709E-02
 -1      1635-3.64663E-03-1.15861E-02-3.38625E-02
 -1      1636-4.03579E-02-9.38998E-03-2.13946E-01
 -1      1637-1.06932E-02-1.17027E-02-1.53583E-02
 -1      1638-3.16662E-02 6.81763E-03-9.51780E-02
 -1      1639 4.61948E-02-4.66608E-02-1.00404E+00
 -1      1640-2.40884E-02 3.75041E-02-1.81993E-01
 -1      1641-1.15044E-02-1.48937E-03-2.58667E-02
 -1      1642 7.80722E-03-2.08553E-03-1.89625E-02
 -1      1643 4.58896E-02 5.50464E-03-2.39421E-01
 -1      1644-1.11305E-02 9.52142E-03-3.47952E-02
 -1      1645-3.30914E-02 3.44123E-02-2.82208E-01
 -1      1646 2.09557E-02 1.26917E-03-5.86882E-02
 -1      1647-2.76896E-02 2.96755E-02-1.83498E-01
 -1      1648 2.31528E-02 4.26709E-02-3.06678E-01
 -1      1649-1.14513E-02-7.88473E-04-1.94629E-02
 -1      1650-5.02864E-02-4.32460E-02-9.82956E-01
 -1      1651 4.96118E-02 3.00100E-03-2.40387E-01
 -1      1652-1.18032E-02 5.47787E-02-3.89390E-01
 -1      1653 5.41679E-02 1.35456E-02-3.38755E-01
 -1      1654-2.60216E-02-1.90010E-02-8.32205E-02
 -1      1655 2.89165E-02 2.35036E-02-1.50950E-01
 -1      1656 1.01331E-02-1.51126E-02-4.57031E-02
 -1      1657-1.78856E-02-3.35911E-02-1.49391E-01
 -1      1658 4.10826E-02 4.84106E-02-6.88074E-01
 -1      1659 1.54896E-02 6.29728E-03-1.14546E-02
 -1      1660-2.39780E-02 1.17267E-02-7.53561E-02
 -1      1661 3.30689E-02-3.26799E-02-3.54731E-01
 -1      1662-3.23884E-02-3.73289E-03-1.47874E-01
 -1      1663-5.36522E-02-3.51605E-03-3.45459E-01
 -1      1664 5.03580E-02 8.16024E-03-3.99879E-01
 -1      1665-2.87840E-02-5.14766E-02-1.55080E+00
 -1      1666-2.65102E-02-3.06903E-02-2.29118E-01
 -1      1667-4.77304E-02-3.47032E-02-5.20804E-01
 -1      1668 0.00000E+00 0.00000E+00 0.00000E+00
 -1      1669-4.38279E-02 1.28693E-02-2.03597E-01
 -1      1670-9.51082E-03-2.19195E-02-5.65519E-02
 -1      1671 4.84094E-02 1.90535E-02-6.90348E-01
 -1      1672-1.71249E-02 4.42443E-03-3.31261E-02
 -1      1673-9.68362E-04 4.17209E-02-2.87255E-01
 -1      1674 1.61194E-02 4.32899E-02-3.43173E-01
 -1      1675 3.16245E-02 1.28929E-02-1.11354E-01
 -1      1676-8.75146E-03-1.09854E-02-3.28369E-02
 -1      1677 9.39880E-03-2.30783E-02-6.55938E-02
 -1      1678-3.44332E-02 4.87456E-02-4.51537E-01
 -1      1679-1.80000E-02-5.65751E-02-4.83923E-01
 -1      1680 2.98393E-02 5.69819E-02-6.84309E-01
 -1      1681-5.31659E-02 3.87247E-02-1.15651E+00
 -1      1682-6.61433E-02 6.00216E-03-8.18297E-01
 -1      1683-3.53351E-02-2.82947E-02-2.81505E-01
 -1      1684-5.96351E-02 1.52938E-02-5.22775E-01
 -1      1685-2.81215E-02-3.97265E-02-3.00042E-01
 -1      1686-2.96163E-02-3.09878E-03-7.93172E-02
 -1      1687-1.17129E-02 5.92062E-03-4.18968E-02
 -1      1688-8.24094E-03-3.33496E-03-1.86745E-02
 -1      1689 1.87399E-02-9.12787E-03-3.85332E-02
 -1      1690-1.65755E-02-6.26240E-02-1.25320E+00
 -1      1691 6.73666E-03 7.77982E-03-2.45982E-02
 -1      1692-5.26166E-03-1.21233E-02-8.16420E-03
 -1      1693-3.19353E-02-3.65156E-02-2.81379E-01
 -1      1694-4.52960E-02 1.96841E-02-2.59133E-01
 -1      1695-2.02230E-02-2.26469E-02-9.28147E-02
 -1      1696-1.45347E-02 3.97905E-02-1.80236E-01
 -1      1697-7.64880E-03 5.40440E-02-3.24179E-01
 -1      1698-2.83721E-02 3.63608E-02-3.42786E-01
 -1      1699-5.21622E-02-2.70073E-02-4.95637E-01
 -1      1700-3.82138E-02-5.06531E-02-1.31895E+00
 -1      1701 9.12254E-03-1.68869E-02-1.88701E-02
 -1      1702 6.39895E-02 1.05697E-02-6.59725E-01
 -1      1703 2.27323E-03-5.81026E-03-1.59354E-02
 -1      1704 4.31329E-02 6.44096E-04-3.11978E-01
 -1      1705-1.15482E-02-2.72149E-02-7.56387E-02
 -1      1706 3.47644E-02-7.32112E-04-1.12325E-01
 -1      1707-2.68071E-02-3.37624E-02-1.80408E-01
 -1      1708-2.75579E-02-3.62731E-02-2.18046E-01
 -1      1709-4.64823E-02-4.11002E-02-5.35858E-01
 -1      1710 1.08403E-02 2.58437E-02-1.22606E-01
 -1      1711-3.75119E-02 5.22003E-02-6.44821E-01
 -1      1712 2.28565E-02 3.02032E-02-1.94256E-01
 -1      1713 6.10443E-02-1.57754E-02-7.64925E-01
 -1      1714-2.17242E-02 4.78891E-02-2.65142E-01
 -1      1715-4.33259E-03-2.63448E-02-7.25619E-02
 -1      1716-3.41882E-02 2.79429E-02-1.86794E-01
 -1      1717-8.96011E-03-5.31022E-03-2.24630E-02
 -1      1718-2.62096E-02-1.09163E-03-3.47054E-02
 -1      1719 4.20271E-02 1.62748E-02-1.86777E+00
 -1      1720-6.12044E-02 1.06433E-02-5.92201E-01
 -1      1721-6.15996E-02 1.42449E-02-6.30319E-01
 -1      1722 1.54411E-02-8.21261E-03-3.76685E-02
 -1      1723 3.89087E-02 2.32396E-02-3.25416E-01
 -1      1724-3.73855E-02-6.99645E-03-7.20839E-02
 -1      1725-1.93044E-02 2.79354E-02-9.24407E-02
 -1      1726 4.80593E-02-1.07159E-02-3.62630E-01
 -1      1727-2.51211E-02 3.27064E-03-5.60477E-02
 -1      1728 6.78239E-03 1.60891E-02-4.05573E-02
 -1      1729 5.05446E-02-3.87532E-02-7.05121E-01
 -1      1730 1.53855E-02-4.04297E-03-4.73291E-02
 -1      1731 1.86092E-03 5.11613E-02-3.24275E-01
 -1      1732-7.96197E-03-3.92351E-02-3.03519E-01
 -1      1733-5.21850E-02 8.29528E-03-6.05652E-01
 -1      1734-5.27908E-02-1.19997E-02-8.13034E-01
 -1      1735-6.98079E-03 3.30537E-03-1.78106E-02
 -1      1736-4.89557E-02-3.81980E-05-3.29081E-01
 -1      1737 1.94993E-02-5.89242E-02-1.49601E+00
 -1      1738-2.68104E-02-1.47420E-02-1.20235E-01
 -1      1739 3.85481E-02 3.64667E-02-8.55225E-01
 -1      1740 4.74920E-02-3.70153E-02-4.94155E-01
 -1      1741-9.36017E-03 1.58368E-02-9.45648E-02
 -1      1742 4.02935E-02-1.39286E-02-2.32675E-01
 -1      1743 1.01761E-02 1.91516E-02-5.85992E-02
 -1      1744-2.19674E-02 2.22771E-02-1.16757E-01
 -1      1745-8.07342E-03 9.22506E-03-4.37274E-02
 -1      1746 3.70445E-02 2.83610E-02-2.59596E-01
 -1      1747 9.70266E-03-4.53749E-02-2.40870E-01
 -1      1748 3.04555E-02 4.01879E-02-4.26405E-01
 -1      1749-5.13244E-02 4.25890E-02-7.51819E-01
 -1      1750-7.46587E-03 4.07799E-02-3.89729E-01
 -1      1751 3.15994E-02-3.76516E-02-2.20336E-01
 -1      1752 1.44860E-02-6.73839E-02-8.80426E-01
 -1      1753-5.32829E-03 1.11078E-02-3.37783E-02
 -1      1754 6.02813E-02 2.78043E-02-7.37676E-01
 -1      1755 8.19290E-03 1.32348E-02-3.38927E-02
 -1      1756-4.97641E-02 2.66152E-02-3.99773E-01
 -1      1757-9.07418E-03 1.48282E-02-3.18259E-02
 -1      1758 1.67145E-03 3.82973E-02-1.41343E-01
 -1      1759-1.91633E-04 2.34063E-02-4.74101E-02
 -1      1760 7.16754E-03-5.63910E-03-1.47810E-02
 -1      1761-3.44149E-02-2.33688E-02-2.35506E-01
 -1      1762 4.03238E-02 5.29454E-02-1.06706E+00
 -1      1763 4.00139E-02 9.53033E-03-2.54177E-01
 -1      1764-5.39497E-02-2.28741E-02-3.53357E-01
 -1      1765 5.28994E-02 1.33984E-03-6.89812E-01
 -1      1766-2.82435E-02 6.23459E-02-9.45427E-01
 -1      1767 5.28471E-02-4.06980E-03-7.18404E-01
 -1      1768 4.40813E-02-1.40230E-02-2.36550E-01
 -1      1769-1.04802E-02 3.26257E-03-2.00985E-02
 -1      1770-2.48041E-02 3.02842E-02-2.27870E-01
 -1      1771 7.29539E-03-3.86840E-04-1.54500E-02
 -1      1772 6.32808E-02 1.92790E-02-8.21230E-01
 -1      1773-6.12861E-02 2.41139E-02-1.15560E+00
 -1      1774-4.76486E-03 1.94259E-02-4.76973E-02
 -1      1775 6.04112E-02 2.50694E-02-1.13909E+00
 -1      1776 1.13804E-02 1.06000E-02-2.88237E-02
 -1      1777 1.14914E-02-1.45636E-02-2.18754E-02
 -1      1778 3.09127E-02-1.26664E-02-1.39581E-01
 -1      1779 4.53019E-02-2.33103E-02-5.07698E-01
 -1      1780-3.79421E-02 5.24174E-03-1.74692E-01
 -1      1781 4.98545E-02-1.51595E-02-5.43113E-01
 -1      1782 3.64104E-02-5.54227E-02-7.47718E-01
 -1      1783-4.68332E-02-2.52932E-02-7.36103E-01
 -1      1784-5.24185E-02 1.55240E-02-3.35045E-01
 -1      1785 3.50529E-02-1.33763E-03-1.68693E-01
 -1      1786-1.97091E-02 3.68604E-02-2.56154E-01
 -1      1787 4.96661E-03 4.52933E-02-2.55748E-01
 -1      1788 1.15608E-02-5.13295E-03-6.41309E-03
 -1      1789 3.58033E-02 3.45265E-02-2.94627E-01
 -1      1790 5.02725E-02 2.71001E-02-3.32655E-01
 -1      1791-5.92313E-02 3.19856E-02-8.64496E-01
 -1      1792-1.56748E-02 2.55200E-02-1.25552E-01
 -1      1793-5.38377E-02 4.09426E-02-9.36053E-01
 -1      1794-5.81635E-02 5.04836E-03-1.55694E+00
 -1      1795-3.15514E-02 4.25602E-02-7.90952E-01
 -1      1796 5.22498E-02 4.07935E-02-1.08752E+00
 -1      1797-2.24766E-02 3.46702E-02-2.43092E-01
 -1      1798 5.47075E-03 6.71150E-03-2.33489E-02
 -1      1799 3.98801E-02-3.50058E-02-3.15499E-01
 -1      1800 2.47269E-02-3.39363E-02-2.29516E-01
 -1      1801 8.70417E-03-2.27350E-02-6.06002E-02
 -1      1802 3.28355E-02-3.66115E-02-2.23184E-01
 -1      1803-4.25473E-02 3.95318E-02-4.36210E-01
 -1      1804 3.01420E-02-5.91245E-02-1.15024E+00
 -1      1805 1.27968E-02-2.42261E-03-1.76341E-02
 -1      1806-5.56287E-03 6.08809E-02-4.69464E-01
 -1      1807-3.74667E-03 1.47084E-02-3.93365E-02
 -1      1808-5.38857E-02 3.80681E-02-7.41429E-01
 -1      1809-2.41854E-02 1.61166E-03-9.72975E-02
 -1      1810 4.30912E-02-5.03548E-02-7.39788E-01
 -1      1811-1.55463E-02 2.86721E-02-9.71709E-02
 -1      1812 0.00000E+00 0.00000E+00 0.00000E+00
 -1      1813-2.40947E-02 6.00937E-02-6.34169E-01
 -1      1814 3.14593E-03 5.19658E-02-8.24820E-01
 -1      1815 1.54614E-03-9.42145E-03-2.63123E-02
 -1      1816-2.92791E-02-2.74878E-02-2.03915E-01
 -1      1817 1.53591E-02-3.07741E-03-4.61418E-02
 -1      1818-1.80057E-02-2.66368E-02-1.11235E-01
 -1      1819 3.87067E-02-1.31940E-02-1.95984E-01
 -1      1820 5.75456E-02 3.53395E-02-8.06362E-01
 -1      1821-3.28310E-02 3.73714E-02-3.22740E-01
 -1      1822-1.03812E-02-1.09129E-02-7.67519E-03
 -1      1823-5.00161E-03-4.39156E-03-1.17596E-02
 -1      1824 7.64139E-03 1.69955E-02-2.52326E-02
 -1      1825-5.18117E-03-3.99191E-03-1.98601E-02
 -1      1826-1.67406E-02-2.94915E-02-1.95324E+00
 -1      1827-5.12967E-02-1.10609E-02-2.43304E-01
 -1      1828 1.23177E-02 3.74086E-02-1.40933E-01
 -1      1829-4.44315E-02-4.71813E-02-1.14969E+00
 -1      1830-3.47967E-02 2.59517E-02-2.71317E-01
 -1      1831-4.59169E-02 2.93493E-02-5.10974E-01
 -1      1832 1.18581E-02 3.98907E-02-2.40428E-01
 -1      1833 2.97116E-02 3.55548E-02-3.61663E-01
 -1      1834 2.17122E-02-5.64455E-02-4.83811E-01
 -1      1835-3.34900E-04-6.38878E-02-5.08431E-01
 -1      1836-1.59692E-02 4.87670E-02-6.47127E-01
 -1      1837 2.22651E-02 2.55141E-02-1.38581E-01
 -1      1838 3.47013E-02 4.35829E-02-4.22682E-01
 -1      1839-3.33779E-02-1.34289E-02-1.30889E-01
 -1      1840-6.25634E-02-1.72664E-02-5.39139E-01
 -1      1841-6.71894E-02-2.30819E-03-9.00601E-01
 -1      1842 1.49697E-02-6.57348E-02-6.65205E-01
 -1      1843 2.69825E-02-5.74849E-02-5.14897E-01
 -1      1844 4.00616E-02 3.45317E-02-5.68688E-01
 -1      1845 2.94750E-02 3.20319E-02-2.25078E-01
 -1      1846 3.60921E-02 2.73218E-02-2.70155E-01
 -1      1847 9.17334E-03-3.03777E-02-1.16677E-01
 -1      1848-2.81331E-02-1.40949E-02-9.13661E-02
 -1      1849-9.60826E-03-4.23609E-03-1.87468E-02
 -1      1850 5.44064E-03-7.83997E-03-1.40385E-02
 -1      1851 3.84702E-02-3.50383E-02-8.18640E-01
 -1      1852 2.35555E-02 4.14250E-02-2.58776E-01
 -1      1853 1.17580E-02-3.94401E-02-1.99519E-01
 -1      1854 1.79529E-02-4.33482E-02-4.37366E-01
 -1      1855 1.36830E-02 6.35464E-03-2.44482E-02
 -1      1856-7.48975E-03-3.19924E-03-1.64165E-02
 -1      1857 3.72129E-02-4.40754E-02-3.78427E-01
 -1      1858 3.09978E-02-4.02979E-02-2.77179E-01
 -1      1859-4.03232E-02 3.57632E-02-3.17281E-01
 -1      1860 0.00000E+00 0.00000E+00 0.00000E+00
 -1      1861-1.67205E-02 5.65476E-02-4.24329E-01
 -1      1862 2.37098E-02-2.57276E-02-1.11410E-01
 -1      1863-4.98481E-02 3.97500E-02-5.83574E-01
 -1      1864-5.16263E-02 1.70949E-02-3.19876E-01
 -1      1865 1.54114E-02-3.33369E-02-1.06973E-01
 -1      1866-2.83232E-02-2.22896E-02-1.81951E-01
 -1      1867 3.68070E-03 6.61214E-02-9.76531E-01
 -1      1868 3.21185E-02 5.20912E-02-1.44974E+00
 -1      1869 8.08051E-03-6.63358E-02-1.24805E+00
 -1      1870-7.87855E-03-6.51551E-02-6.63475E-01
 -1      1871 2.92934E-02-4.78439E-02-3.51995E-01
 -1      1872-6.52051E-02 1.31092E-02-9.68002E-01
 -1      1873 4.36428E-02 5.06154E-02-8.81442E-01
 -1      1874-1.82518E-02-3.42838E-02-2.09714E-01
 -1      1875 0.00000E+00 0.00000E+00 0.00000E+00
 -1      1876 4.45734E-02 7.49888E-03-1.96356E-01
 -1      1877-5.44292E-02-3.17217E-02-6.46959E-01
 -1      1878-3.14115E-02-3.80211E-02-3.72435E-01
 -1      1879 3.97368E-04 4.76077E-02-4.23536E-01
 -1      1880-3.49104E-02-2.72951E-02-2.44261E-01
 -1      1881 6.00506E-02 1.81568E-02-5.51049E-01
 -1      1882-5.69729E-02 3.48107E-02-1.06050E+00
 -1      1883-4.91639E-02-4.12755E-02-6.93869E-01
 -1      1884-1.03614E-03 2.69963E-02-2.01464E+00
 -1      1885-2.77979E-02-1.82583E-03-2.01250E+00
 -1      1886-3.98004E-03-5.73612E-02-1.62787E+00
 -1      1887 1.98594E-02-3.33090E-02-2.00326E-01
 -1      1888 4.99306E-02-2.37033E-02-4.88778E-01
 -1      1889-1.03415E-02 3.57997E-02-2.59784E-01
 -1      1890 4.27313E-02-1.96570E-02-3.84237E-01
 -1      1891 2.00088E-02-1.69070E-02-7.44458E-02
 -1      1892-4.05463E-02 1.35736E-02-1.60638E-01
 -1      1893-2.27994E-02-2.21857E-03-1.03638E-01
 -1      1894-4.51801E-02 1.79296E-02-2.84282E-01
 -1      1895-4.45065E-02 2.34110E-02-2.42884E-01
 -1      1896 6.20293E-02 2.17566E-02-7.04634E-01
 -1      1897-6.40934E-02 1.16961E-02-7.34140E-01
 -1      1898-5.21258E-02-9.12257E-03-6.66193E-01
 -1      1899-7.19825E-03 4.68990E-03-2.10907E-02
 -1      1900-2.90765E-02 1.02161E-02-6.63590E-02
 -1      1901-5.59268E-02-3.44311E-02-1.06279E+00
 -1      1902 5.20047E-02 4.17972E-02-9.14378E-01
 -1      1903 1.32680E-02-6.55602E-02-6.83247E-01
 -1      1904 3.87104E-02 3.94656E-02-1.70441E+00
 -1      1905 2.99942E-02 2.53322E-02-1.34811E-01
 -1      1906 3.03755E-02-1.23783E-02-1.20265E-01
 -1      1907 4.60609E-02 2.10396E-02-4.78958E-01
 -1      1908 6.33188E-03-6.19269E-02-5.23365E-01
 -1      1909 1.29098E-02 1.43981E-02-3.93549E-02
 -1      1910-3.79454E-02 5.37345E-02-1.22736E+00
 -1      1911 1.94398E-02-2.22371E-02-1.21427E-01
 -1      1912 2.24601E-02 1.19107E-02-9.37410E-02
 -1      1913-2.78036E-02-3.06186E-02-1.42417E-01
 -1      1914 2.36652E-02-7.45459E-03-1.01633E-01
 -1      1915-6.41537E-03-3.89609E-02-2.01555E-01
 -1      1916 1.79244E-03 5.84591E-02-4.74925E-01
 -1      1917-2.11187E-02 4.48920E-02-2.11367E-01
 -1      1918 3.32495E-04-3.07127E-02-1.44386E-01
 -1      1919-5.51288E-03-1.18485E-02-3.91414E-02
 -1      1920 3.51211E-02-2.04270E-02-2.25666E-01
 -1      1921-1.78147E-02 5.01427E-02-2.98912E-01
 -1      1922-4.32192E-02 1.35701E-02-3.02289E-01
 -1      1923 2.20950E-02-6.49875E-02-1.03397E+00
 -1      1924 6.20148E-02 2.42010E-02-8.51075E-01
 -1      1925-3.66603E-02-4.15494E-02-4.33246E-01
 -1      1926-3.20775E-02-3.13041E-02-2.37626E-01
 -1      1927 2.27742E-02-4.17432E-02-3.90361E-01
 -1      1928 1.28791E-03 2.17625E-02-3.62107E-02
 -1      1929 5.28758E-03 2.58655E-02-6.23011E-02
 -1      1930-6.15087E-03 5.11962E-03-1.26439E-02
 -1      1931-8.40127E-03 1.05571E-02-1.27647E-02
 -1      1932 2.02017E-02-1.06060E-02-7.95011E-02
 -1      1933-4.73210E-02 3.20021E-03-3.47580E-01
 -1      1934 5.23150E-02-2.49275E-03-8.84073E-01
 -1      1935 1.13136E-02 4.93609E-02-3.77805E-01
 -1      1936 3.47877E-02 3.80939E-02-4.92207E-01
 -1      1937 1.20860E-02-6.82269E-03-6.84895E-02
 -1      1938-1.17135E-03-6.01155E-03-1.74791E-02
 -1      1939-2.65035E-02 3.62675E-02-1.86789E+00
 -1      1940-5.23647E-02-1.33056E-02-5.21737E-01
 -1      1941 3.92032E-02-2.47048E-02-2.35393E-01
 -1      1942-1.63690E-02-9.10201E-03-5.32157E-02
 -1      1943-4.57172E-02 5.05119E-02-9.82251E-01
 -1      1944-3.15271E-02-5.63494E-02-7.16502E-01
 -1      1945 3.16303E-02 5.84160E-02-9.26824E-01
 -1      1946 1.06498E-02-4.53866E-02-3.73039E-01
 -1      1947-3.08912E-02-1.55696E-02-1.75272E-01
 -1      1948-1.79671E-02 6.43477E-02-8.42483E-01
 -1      1949-3.53322E-04-1.52228E-02-6.25833E-02
 -1      1950 7.26800E-03-1.63156E-02-2.72712E-02
 -1      1951 1.87965E-02-1.78540E-02-1.98807E+00
 -1      1952 3.09778E-02-5.97712E-03-9.68351E-02
 -1      1953 4.03627E-02-4.81654E-02-5.47077E-01
 -1      1954 3.62239E-02-4.25510E-02-3.04560E-01
 -1      1955 1.49062E-02 1.82508E-02-7.31607E-02
 -1      1956 5.49990E-02-7.58046E-03-4.64171E-01
 -1      1957-3.36152E-02 1.30762E-02-1.39701E-01
 -1      1958-2.37464E-02-6.25494E-02-8.53083E-01
 -1      1959-3.25124E-02 5.91504E-02-7.47975E-01
 -1      1960 3.04333E-02 5.79690E-02-1.11226E+00
 -1      1961 6.39639E-03 5.18343E-02-5.44964E-01
 -1      1962 5.94523E-02 6.77917E-03-4.79657E-01
 -1      1963-2.38955E-02 6.23853E-02-7.93901E-01
 -1      1964-1.00394E-02-1.03641E-02-2.56910E-02
 -1      1965 4.04462E-02-4.60508E-02-1.45423E+00
 -1      1966 4.76746E-02-3.20793E-03-2.71559E-01
 -1      1967-6.56334E-03-1.14698E-02-2.18382E-02
 -1      1968 5.62371E-02 2.78174E-02-4.87137E-01
 -1      1969 4.23279E-02 4.89033E-02-6.42491E-01
 -1      1970 5.82866E-02 1.15346E-02-4.88056E-01
 -1      1971-3.50095E-02-4.32254E-02-3.83165E-01
 -1      1972 5.70108E-02 1.66732E-02-1.50576E+00
 -1      1973-1.21120E-02-4.87788E-02-4.40570E-01
 -1      1974-6.20861E-02-1.04801E-02-1.31613E+00
 -1      1975 9.26658E-03 4.10575E-02-1.53385E-01
 -1      1976 5.54899E-02-3.38275E-02-1.04132E+00
 -1      1977-5.37498E-02-2.86600E-02-1.41141E+00
 -1      1978-6.45908E-02-1.17097E-02-1.07230E+00
 -1      1979 1.95000E-02-2.59651E-02-1.07729E-01
 -1      1980 3.55126E-02 5.33085E-02-6.11057E-01
 -1      1981-2.29227E-02-5.83225E-02-6.00269E-01
 -1      1982 5.08871E-02-1.10187E-02-3.28328E-01
 -1      1983-3.43138E-02-1.76377E-02-2.05016E-01
 -1      1984-3.24909E-02 4.18169E-02-5.27425E-01
 -1      1985-2.10171E-02-6.12816E-02-6.62491E-01
 -1      1986-8.82439E-05-1.66983E-02-5.44131E-02
 -1      1987 5.63030E-02 2.85160E-02-1.35977E+00
 -1      1988-5.33875E-02-3.88644E-02-9.40519E-01
 -1      1989 1.87986E-02-3.50431E-02-1.93137E+00
 -1      1990-2.28113E-03-1.88900E-02-2.03677E+00
 -1      1991-6.11292E-02-2.28399E-02-1.18551E+00
 -1      1992 4.78801E-02 1.66467E-02-5.35843E-01
 -1      1993-3.07570E-02-5.83118E-02-8.95352E-01
 -1      1994 4.76339E-02 4.56969E-04-2.19637E-01
 -1      1995-6.86873E-03-5.48908E-02-3.75790E-01
 -1      1996-2.62913E-02-6.10432E-02-1.07455E+00
 -1      1997 2.39938E-02 3.53848E-02-2.37900E-01
 -1      1998 8.64425E-03 4.52686E-02-3.08079E-01
 -1      1999-6.33074E-02 1.33618E-02-1.18680E+00
 -1      2000 5.13916E-02 2.38958E-02-3.43756E-01
 -1      2001-2.88874E-02 8.12206E-03-9.88503E-02
 -1      2002 5.14079E-02-3.30435E-02-5.55872E-01
 -1      2003-6.61024E-02-4.40136E-03-7.29845E-01
 -1      2004 9.40913E-03-1.10582E-02-3.13225E-02
 -1      2005-6.49530E-02 5.32175E-03-6.66192E-01
 -1      2006 1.74015E-02 6.17691E-02-6.75512E-01
 -1      2007 4.94485E-03 3.31654E-03-2.11310E-02
 -1      2008 7.69318E-03 6.11733E-02-1.40608E+00
 -1      2009 1.98129E-02 2.28685E-02-8.63760E-02
 -1      2010 2.75591E-02 1.00252E-02-7.86900E-02
 -1      2011-1.69350E-03 9.28122E-03-1.68942E-02
 -1      2012-1.90629E-03 5.05985E-02-3.08167E-01
 -1      2013-6.37442E-02 1.62979E-02-1.07248E+00
 -1      2014 2.43363E-02-4.42807E-02-6.65204E-01
 -1      2015-3.03685E-02 4.12674E-02-6.24078E-01
 -1      2016 7.38052E-03-4.67544E-02-3.03884E-01
 -1      2017-1.86899E-02 7.78868E-03-2.60797E-02
 -1      2018-1.72012E-02-5.04859E-02-1.75566E+00
 -1      2019 3.45225E-02 5.62022E-02-1.00989E+00
 -1      2020 0.00000E+00 0.00000E+00 0.00000E+00
 -1      2021 2.30475E-02-8.51700E-03-7.89192E-02
 -1      2022 3.16863E-02 3.96342E-02-3.46092E-01
 -1      2023-1.43325E-02 4.22417E-02-4.54410E-01
 -1      2024-2.85028E-02-5.56453E-02-1.30047E+00
 -1      2025-3.27412E-02-2.40401E-02-1.54984E-01
 -1      2026-3.63267E-02-3.78866E-02-1.74841E+00
 -1      2027 1.15617E-03-4.43188E-02-1.88258E+00
 -1      2028-1.62053E-02 1.38850E-02-3.59324E-02
 -1      2029 2.33038E-02 6.11846E-02-8.47060E-01
 -1      2030-1.75180E-02-7.97348E-03-6.71777E-02
 -1      2031 2.88934E-02 5.90890E-02-9.69558E-01
 -1      2032 1.36147E-02 2.33972E-02-2.00427E+00
 -1      2033 5.72017E-02-2.78474E-02-7.79541E-01
 -1      2034-9.99744E-03 2.08094E-02-2.72515E-02
 -1      2035-2.58579E-03-4.73062E-02-4.35066E-01
 -1      2036 1.43261E-03-4.43336E-02-3.11446E-01
 -1      2037 1.36915E-03-5.22274E-02-6.54296E-01
 -1      2038-1.06225E-02 5.45857E-03-2.59262E-02
 -1      2039 4.35726E-02-1.91300E-02-3.05934E-01
 -1      2040-1.54478E-02 6.05080E-02-5.83994E-01
 -1      2041 2.37600E-02-8.26079E-03-4.93009E-02
 -1      2042 3.26761E-02 2.92766E-02-2.52111E-01
 -1      2043 1.56149E-02-4.83703E-02-2.51378E-01
 -1      2044-4.01178E-02-5.19130E-02-9.00438E-01
 -1      2045-3.82962E-02-4.96070E-02-5.98023E-01
 -1      2046-4.76134E-02-4.23878E-03-2.08821E-01
 -1      2047-6.10914E-03 2.68435E-02-9.68395E-02
 -1      2048 1.45390E-02 7.50788E-03-4.35573E-02
 -1      2049 1.04277E-02-2.51273E-02-5.44101E-02
 -1      2050-2.57336E-02-4.71903E-02-3.78766E-01
 -1      2051-5.28534E-03-2.83319E-02-9.60017E-02
 -1      2052 1.91295E-03 1.10405E-02-2.06726E+00
 -1      2053-3.40501E-02-1.36512E-02-1.09600E-01
 -1      2054-1.64516E-02-5.19355E-02-7.99878E-01
 -1      2055 9.16126E-03-5.09068E-02-4.36498E-01
 -1      2056 2.53823E-02-3.63240E-02-1.85366E-01
 -1      2057-6.54344E-02-3.54573E-03-1.09406E+00
 -1      2058 5.53002E-03-6.80824E-02-1.02257E+00
 -1      2059-4.51922E-02 2.80887E-02-6.83701E-01
 -1      2060-1.45276E-02 5.73510E-02-4.57955E-01
 -1      2061-4.05891E-02 3.72586E-03-1.79228E-01
 -1      2062-4.30526E-02-3.99510E-02-1.52125E+00
 -1      2063 2.85111E-02-4.21105E-03-1.07107E-01
 -1      2064 3.78234E-02 5.22810E-02-1.27512E+00
 -1      2065-1.88797E-02-2.25890E-02-7.32793E-02
 -1      2066-4.92761E-02-2.04039E-02-2.49719E-01
 -1      2067-1.07549E-02 1.45201E-02-3.07548E-02
 -1      2068-3.28391E-02-4.50463E-02-6.09892E-01
 -1      2069-2.50101E-02 6.12942E-02-1.19519E+00
 -1      2070 1.48184E-02 1.41775E-02-8.87854E-03
 -1      2071-4.61724E-02 2.31331E-02-3.87331E-01
 -1      2072 0.00000E+00 0.00000E+00 0.00000E+00
 -1      2073 3.78643E-02-4.85003E-02-5.04401E-01
 -1      2074-1.18933E-02-1.91121E-02-3.69749E-02
 -1      2075-2.55586E-02-3.92885E-02-2.40851E-01
 -1      2076-5.60480E-02 2.82801E-02-6.27887E-01
 -1      2077-3.78224E-02 2.33818E-02-2.14563E-01
 -1      2078 3.66559E-02-2.69236E-02-3.48854E-01
 -1      2079 3.14810E-02-3.00016E-02-2.10982E-01
 -1      2080-4.53015E-02 8.45719E-03-2.19729E-01
 -1      2081-2.50502E-02 1.27905E-02-9.40737E-02
 -1      2082 3.39302E-02-5.30942E-02-5.41173E-01
 -1      2083-4.64022E-02-2.07388E-02-3.68318E-01
 -1      2084 5.24164E-02 3.73954E-02-1.25449E+00
 -1      2085-5.02925E-02-4.28837E-02-8.35446E-01
 -1      2086 4.21319E-03 9.00510E-03-2.38089E-02
 -1      2087 6.07525E-02 1.92928E-02-1.28512E+00
 -1      2088-2.54517E-02 2.67274E-02-1.97333E-01
 -1      2089-3.51279E-03-5.23630E-02-3.34809E-01
 -1      2090-2.65918E-02 2.20483E-02-1.38472E-01
 -1      2091-4.50414E-03-6.05828E-02-4.53963E-01
 -1      2092-9.82745E-04-6.67634E-02-7.01749E-01
 -1      2093 3.04332E-02 1.10834E-02-1.64627E-01
 -1      2094-3.02686E-02 5.99134E-02-1.05888E+00
 -1      2095-2.80129E-02 3.97994E-02-4.75098E-01
 -1      2096-6.18015E-02 2.13442E-02-6.77835E-01
 -1      2097-4.89476E-02-4.27694E-02-1.12917E+00
 -1      2098-1.19194E-02 3.30539E-02-9.13316E-02
 -1      2099-3.58971E-02-4.85813E-02-1.46626E+00
 -1      2100-3.54558E-02 1.83813E-03-1.93877E+00
 -1      2101 1.80360E-02-3.61323E-05-2.99094E-02
 -1      2102-1.87944E-02-1.38044E-02-9.08273E-02
 -1      2103-3.92249E-02-2.80201E-02-3.62983E-01
 -1      2104-3.43901E-02 3.59827E-02-3.85411E-01
 -1      2105-5.30153E-03-4.75354E-02-2.03620E-01
 -1      2106-6.08936E-02-2.56859E-02-7.84890E-01
 -1      2107 3.95230E-02 4.50503E-02-1.50951E+00
 -1      2108-4.56239E-02 4.73058E-02-6.59644E-01
 -1      2109-4.37384E-02-9.96310E-04-1.87706E-01
 -1      2110 1.75959E-02-1.37488E-02-6.65546E-02
 -1      2111-3.46600E-02-2.55954E-03-1.11977E-01
 -1      2112-2.47517E-02 3.04430E-02-1.44816E-01
 -1      2113-7.52804E-03 6.51583E-02-1.21489E+00
 -1      2114-2.13480E-02-7.29279E-03-5.70617E-02
 -1      2115-5.57727E-02-6.63410E-03-3.21032E-01
 -1      2116-3.89142E-02-5.21054E-02-7.50027E-01
 -1      2117 3.18393E-02 1.59135E-02-1.20920E-01
 -1      2118 0.00000E+00 0.00000E+00 0.00000E+00
 -1      2119-7.66291E-03 1.93878E-02-2.01837E+00
 -1      2120-5.06732E-02-8.13244E-03-4.27732E-01
 -1      2121 3.17250E-02-5.44792E-02-1.38451E+00
 -1      2122-5.95358E-02 1.18942E-02-4.90108E-01
 -1      2123-3.04484E-02-4.55971E-02-4.69078E-01
 -1      2124 2.19036E-02 4.70370E-02-5.74090E-01
 -1      2125 3.97855E-02 3.78648E-03-2.10627E-01
 -1      2126 6.30731E-02 2.07027E-02-1.08315E+00
 -1      2127-5.63057E-02 2.79374E-02-5.83288E-01
 -1      2128-2.55202E-02 4.29373E-03-7.00957E-02
 -1      2129 2.85122E-02-2.37182E-03-1.97410E+00
 -1      2130-3.23391E-02 5.73782E-02-1.18462E+00
 -1      2131 4.70173E-02-4.33475E-02-1.23113E+00
 -1      2132 6.15611E-02 2.65913E-02-9.99480E-01
 -1      2133 1.08037E-02-1.20453E-02-5.58794E-02
 -1      2134 3.40474E-02-5.91578E-02-9.19754E-01
 -1      2135-5.66025E-02 3.30331E-02-7.36679E-01
 -1      2136 3.79365E-02 3.72666E-02-6.74740E-01
 -1      2137 3.75652E-02-3.66490E-02-5.33797E-01
 -1      2138 3.19035E-03 2.82234E-02-1.60246E-01
 -1      2139-4.67283E-02-7.51904E-03-2.51278E-01
 -1      2140-3.12612E-02-5.24941E-02-1.40812E+00
 -1      2141-6.30160E-02-3.26907E-03-5.13515E-01
 -1      2142-3.40432E-02-4.63453E-02-1.61340E+00
 -1      2143-4.30186E-02-3.45020E-02-1.64877E+00
 -1      2144 1.16321E-02 1.24139E-02-6.58533E-02
 -1      2145 6.39985E-02-2.08862E-03-7.01185E-01
 -1      2146 3.83040E-02 1.86306E-03-1.52933E-01
 -1      2147 7.27862E-03-5.41259E-02-3.45668E-01
 -1      2148 4.95408E-02 1.51919E-02-8.39917E-01
 -1      2149-8.92964E-03 4.92006E-02-5.29910E-01
 -1      2150-3.64794E-03 2.93126E-02-1.27406E-01
 -1      2151-1.88949E-02 5.09531E-03-3.82993E-02
 -1      2152 6.05672E-03-3.40603E-02-1.96797E+00
 -1      2153-1.64095E-02-5.64490E-02-1.55611E+00
 -1      2154 6.76627E-03-2.90204E-03-1.28970E-02
 -1      2155 2.45837E-02-1.07507E-02-8.86973E-02
 -1      2156 1.63641E-02-9.27388E-03-4.41371E-02
 -1      2157-4.31410E-03-6.70711E-02-1.16308E+00
 -1      2158-4.54257E-02-4.35700E-02-1.28621E+00
 -1      2159 3.66231E-02 4.91419E-02-5.36418E-01
 -1      2160 3.16618E-03 1.94935E-02-4.45674E-02
 -1      2161 4.01753E-02-3.30804E-02-6.71471E-01
 -1      2162 6.12254E-02-8.82714E-03-6.65809E-01
 -1      2163 5.07923E-02 1.11664E-03-4.58697E-01
 -1      2164-6.35725E-02-1.99644E-02-6.99718E-01
 -1      2165 5.93619E-02 2.53517E-02-5.89405E-01
 -1      2166-5.57081E-02 3.24666E-02-1.31098E+00
 -1      2167-5.15441E-02 7.89724E-03-4.71289E-01
 -1      2168 8.28018E-03-2.13758E-03-2.40599E-02
 -1      2169-5.23252E-03 6.16179E-02-1.43205E+00
 -1      2170 3.58074E-02 5.50776E-02-7.73636E-01
 -1      2171 9.06722E-03-2.00509E-02-2.02479E+00
 -1      2172 4.23747E-02-5.18801E-02-8.74842E-01
 -1      2173-2.40866E-02-5.15786E-02-1.63830E+00
 -1      2174 4.80748E-03 1.75409E-02-4.21224E-02
 -1      2175-4.33343E-02-2.74705E-02-1.77562E+00
 -1      2176 1.17949E-02-4.50373E-03-2.67934E-02
 -1      2177-1.38388E-02-6.58594E-02-9.76434E-01
 -1      2178-5.38367E-02 4.69348E-03-6.75085E-01
 -1      2179-1.64376E-02 6.35969E-02-7.17911E-01
 -1      2180 5.71089E-02-2.41883E-03-4.17594E-01
 -1      2181 6.58691E-03 1.11779E-02-2.98073E-02
 -1      2182-7.52408E-03 6.74519E-02-9.47590E-01
 -1      2183-5.35808E-02 3.34754E-02-5.99885E-01
 -1      2184-2.34329E-02 5.68793E-02-4.80872E-01
 -1      2185 5.64432E-02 1.52688E-02-4.64361E-01
 -1      2186 6.26467E-02 2.97464E-03-6.31846E-01
 -1      2187 6.30148E-03-4.53701E-03-1.75327E-02
 -1      2188-2.26500E-02-3.59122E-02-2.07019E-01
 -1      2189-6.31712E-02-2.31382E-02-8.26797E-01
 -1      2190 2.73151E-02-5.95054E-02-1.28567E+00
 -1      2191 1.50596E-02-1.70025E-02-7.31682E-02
 -1      2192 1.45557E-02 4.68225E-02-3.19762E-01
 -1      2193 1.19982E-02 4.18343E-02-2.61350E-01
 -1      2194 6.84734E-03 5.23859E-02-3.79904E-01
 -1      2195 4.74689E-02 4.68206E-02-1.01540E+00
 -1      2196-1.40047E-02 2.51932E-02-1.44033E-01
 -1      2197-2.30212E-02 5.31722E-03-7.87186E-02
 -1      2198-1.41739E-02 5.81538E-03-2.03661E+00
 -1      2199 4.07375E-03 3.21072E-02-1.94180E+00
 -1      2200 2.71602E-02 5.15069E-02-4.60862E-01
 -1      2201-1.87329E-02 3.63025E-02-7.50347E-02
 -1      2202-4.42379E-02-3.03521E-02-8.65024E-01
 -1      2203 2.03607E-02-3.40244E-02-1.48950E-01
 -1      2204 2.07679E-02-4.23735E-02-2.06673E-01
 -1      2205-4.74686E-02-8.36432E-03-1.81713E+00
 -1      2206-1.54758E-02-6.24281E-02-6.13172E-01
 -1      2207-1.23278E-03-1.13235E-02-3.62740E-02
 -1      2208 7.17934E-03 5.87025E-03-1.90933E-02
 -1      2209 5.39421E-03 6.50695E-02-1.19410E+00
 -1      2210-3.69677E-02 3.93069E-02-3.12173E-01
 -1      2211 6.11333E-03-3.62031E-03-1.83137E-02
 -1      2212-3.29745E-02 2.05312E-02-1.48159E-01
 -1      2213 5.03107E-03-6.08307E-03-2.06882E+00
 -1      2214 3.61806E-03 9.97690E-03-2.67183E-02
 -1      2215 1.86342E-02 9.44540E-04-4.02978E-02
 -1      2216-5.75319E-02-1.39597E-02-3.52384E-01
 -1      2217-8.01643E-03-2.93007E-02-9.39436E-02
 -1      2218-8.58695E-03-6.20690E-02-5.14779E-01
 -1      2219-4.58171E-02 2.54452E-02-5.09259E-01
 -1      2220 2.50378E-02-6.03094E-02-6.01175E-01
 -1      2221 3.17783E-02-5.84135E-02-6.96786E-01
 -1      2222-3.57783E-02-5.60039E-02-9.39926E-01
 -1      2223 5.84004E-02-2.19630E-02-6.45227E-01
 -1      2224-2.90535E-02-5.77666E-02-1.16691E+00
 -1      2225-1.14582E-02 5.02731E-02-8.01053E-01
 -1      2226 6.59970E-02 6.55177E-03-8.51164E-01
 -1      2227-4.37134E-02 4.97468E-02-1.18223E+00
 -1      2228-3.28720E-02 4.05397E-02-4.18773E-01
 -1      2229 3.79374E-02 4.97188E-02-1.40406E+00
 -1      2230-6.00522E-02-2.13211E-02-4.41402E-01
 -1      2231 2.41429E-02-4.50346E-02-8.05269E-01
 -1      2232-6.69746E-02-5.73364E-04-9.26823E-01
 -1      2233 1.67447E-02-5.97834E-02-5.00987E-01
 -1      2234-5.71984E-02-7.12603E-03-1.58638E+00
 -1      2235 2.13362E-02-5.46298E-02-3.86826E-01
 -1      2236 6.48392E-02-8.84837E-03-9.48914E-01
 -1      2237 3.92458E-02 3.51455E-02-7.11842E-01
 -1      2238 2.63966E-02-1.97359E-02-1.72661E-01
 -1      2239 2.63589E-02 3.34654E-02-2.48807E-01
 -1      2240 2.62456E-02-1.26124E-02-9.85088E-02
 -1      2241-5.30936E-03-2.53472E-02-1.01126E-01
 -1      2242 6.56971E-02-1.87952E-03-8.67089E-01
 -1      2243 1.43937E-02-3.05694E-02-1.41743E-01
 -1      2244 1.30705E-02-2.02835E-02-6.24338E-02
 -1      2245-2.96433E-02-5.33333E-02-5.53179E-01
 -1      2246-2.21000E-02-5.49609E-02-3.76364E-01
 -1      2247 6.12181E-02-2.05184E-02-1.04162E+00
 -1      2248-3.89857E-02 5.50367E-02-8.70918E-01
 -1      2249-4.52947E-03 1.10793E-02-3.92498E-02
 -1      2250-1.57458E-02-3.08417E-02-1.39561E-01
 -1      2251-2.45454E-02-4.44159E-02-3.43054E-01
 -1      2252 4.61443E-02 3.63255E-02-1.57589E+00
 -1      2253 2.68465E-02-2.49342E-02-1.47134E-01
 -1      2254 5.59607E-03-4.70655E-03-2.07471E-02
 -1      2255 3.69676E-02-3.15406E-02-4.56223E-01
 -1      2256 2.21972E-02 6.44561E-03-8.02729E-02
 -1      2257 2.08028E-02-6.58122E-02-8.42354E-01
 -1      2258 3.02466E-02-1.84243E-02-1.33693E-01
 -1      2259 3.28462E-02-4.80552E-02-1.62546E+00
 -1      2260 4.13010E-02-4.98284E-02-1.22012E+00
 -1      2261 4.37704E-03 1.98147E-02-3.94656E-02
 -1      2262 1.09093E-02 3.79516E-02-2.31721E-01
 -1      2263 3.10272E-03 6.48245E-02-7.22453E-01
 -1      2264-2.71385E-03-3.42601E-02-1.62156E-01
 -1      2265-6.41030E-03-8.03179E-03-2.35588E-02
 -1      2266-1.36501E-02 4.36262E-02-2.38278E-01
 -1      2267-2.13116E-02 2.10249E-02-1.02573E-01
 -1      2268 3.08062E-04 3.43700E-02-9.46319E-02
 -1      2269-2.40719E-04 4.17599E-02-1.67749E-01
 -1      2270 6.81141E-03-6.77998E-02-8.37954E-01
 -1      2271-3.62533E-02 5.58604E-02-7.50060E-01
 -1      2272-3.51194E-02 4.90245E-02-1.55702E+00
 -1      2273 1.27178E-02-4.09861E-02-2.86040E-01
 -1      2274-4.62370E-03-2.51278E-02-3.39545E-02
 -1      2275 3.93102E-03-1.06219E-02-2.93105E-02
 -1      2276 1.80473E-02-3.04382E-03-5.76583E-02
 -1      2277 1.72017E-03 5.14862E-02-5.45400E-01
 -1      2278 4.42430E-03 5.21727E-02-6.86872E-01
 -1      2279 4.04902E-03 5.22432E-02-6.82175E-01
 -1      2280-5.85072E-02 6.06362E-03-4.67096E-01
 -1      2281 3.12027E-02 4.77628E-02-1.62358E+00
 -1      2282-2.30646E-02-4.21177E-02-2.51233E-01
 -1      2283-5.89982E-02 1.80864E-02-1.40085E+00
 -1      2284 5.70042E-02 3.09067E-02-6.17373E-01
 -1      2285 5.09188E-02 3.95758E-02-5.60979E-01
 -1      2286 5.70122E-02 9.26976E-03-4.15047E-01
 -1      2287-2.23249E-02-6.06717E-02-1.21287E+00
 -1      2288 4.90886E-02-7.72691E-03-3.27491E-01
 -1      2289-6.32507E-02-1.46900E-02-1.19205E+00
 -1      2290 4.76243E-02-1.76342E-02-1.78924E+00
 -1      2291 3.93204E-02-4.99429E-02-1.35425E+00
 -1      2292 1.55683E-02 5.47747E-02-5.00353E-01
 -1      2293-3.87160E-02-5.32346E-02-1.03763E+00
 -1      2294 2.28366E-02 5.79012E-02-1.34534E+00
 -1      2295 2.96296E-02 3.06399E-02-1.88915E+00
 -1      2296-1.57081E-02 5.36203E-02-1.69395E+00
 -1      2297 5.39295E-02-2.94470E-02-6.24785E-01
 -1      2298 5.53134E-02-3.29329E-02-8.37541E-01
 -1      2299 2.96144E-03-5.24195E-02-8.40401E-01
 -1      2300 2.05524E-02 5.43507E-02-1.57249E+00
 -1      2301-1.86159E-02-5.20418E-02-6.76758E-01
 -1      2302 2.06022E-02-4.71280E-02-7.97853E-01
 -1      2303-6.64888E-02 1.04916E-03-7.74193E-01
 -1      2304 1.33203E-02-5.36219E-02-3.53848E-01
 -1      2305 6.19079E-02-4.20790E-04-1.31519E+00
 -1      2306 1.31515E-02-3.62451E-02-1.29756E-01
 -1      2307-4.60365E-02 5.01018E-02-8.20013E-01
 -1      2308 1.16439E-02-2.46232E-02-5.47920E-02
 -1      2309-5.66052E-03-1.80257E-02-2.84689E-02
 -1      2310 1.25866E-02 6.49845E-02-8.26889E-01
 -1      2311 3.08168E-02-2.00783E-02-1.94134E+00
 -1      2312 4.85872E-02-3.18555E-02-1.59030E+00
 -1      2313 3.64104E-02-5.32231E-02-1.25968E+00
 -1      2314 4.48151E-02-4.46843E-02-1.30927E+00
 -1      2315 2.06003E-02 5.73349E-02-5.98356E-01
 -1      2316 1.17599E-02 5.95770E-02-5.19920E-01
 -1      2317-4.49325E-02-4.81309E-02-9.99722E-01
 -1      2318 1.09452E-02 6.29616E-02-1.27090E+00
 -1      2319 2.95734E-02 5.66980E-02-1.27927E+00
 -1      2320 4.50928E-02 2.89481E-02-1.75844E+00
 -1      2321 1.96015E-02 3.62819E-02-1.88996E+00
 -1      2322-1.37007E-02 5.86696E-02-1.54036E+00
 -1      2323 1.20001E-03 5.12024E-02-1.80284E+00
 -1      2324-2.71676E-02 4.73369E-02-1.72175E+00
 -1      2325-2.68776E-03 5.72269E-02-1.64245E+00
 -1      2326-1.20145E-02 3.74513E-02-1.91631E+00
 -1      2327 5.05478E-02-4.13502E-02-9.72776E-01
 -1      2328 5.43242E-02-3.37389E-02-6.95303E-01
 -1      2329 5.68888E-03-5.24315E-02-7.38625E-01
 -1      2330 5.73963E-02-7.49805E-03-1.56782E+00
 -1      2331-4.70875E-02 4.88322E-02-8.64164E-01
 -1      2332 3.59249E-02-3.83904E-02-1.79056E+00
 -1      2333 2.51545E-02 2.16193E-03-2.01195E+00
 -1      2334 4.98638E-02-3.53338E-02-1.40392E+00
 -1      2335 4.08249E-02-4.08808E-02-1.62020E+00
 -1      2336 4.25942E-02-9.31372E-04-1.89434E+00
 -1      2337 2.06898E-02-9.78204E-03-2.03170E+00
 -1      2338 4.39844E-02-3.99541E-02-1.52232E+00
 -1      2339 2.09900E-02 5.28948E-02-4.81801E-01
 -1      2340 2.51371E-02 5.89710E-02-7.22097E-01
 -1      2341 1.03669E-02 6.36557E-02-6.62049E-01
 -1      2342-4.58792E-02-4.65613E-02-8.59637E-01
 -1      2343 5.17769E-02 2.38749E-02-1.60410E+00
 -1      2344 3.07947E-02 3.84117E-02-1.81376E+00
 -1      2345-2.56115E-02 5.44094E-02-1.57014E+00
 -1      2346 6.75786E-03 5.86214E-02-1.57465E+00
 -1      2347 4.76358E-02-4.40990E-02-1.09295E+00
 -1      2348-1.90604E-02 4.40196E-02-1.83246E+00
 -1      2349-4.01382E-02 3.85871E-02-1.69205E+00
 -1      2350-1.58750E-03 6.01298E-02-1.52567E+00
 -1      2351-4.54944E-02 4.16663E-02-1.44237E+00
 -1      2352 4.69608E-02-4.59079E-02-8.65377E-01
 -1      2353 2.05900E-02 4.71395E-02-3.43242E-01
 -1      2354 4.27544E-02-3.47715E-02-1.72278E+00
 -1      2355 5.40595E-02 6.52451E-03-1.68728E+00
 -1      2356-2.96186E-02 5.56884E-02-1.38991E+00
 -1      2357 8.66004E-03 5.38020E-02-1.70925E+00
 -1      2358-5.23851E-02 2.12441E-02-1.64946E+00
 -1      2359 4.05994E-02-2.70580E-02-1.83754E+00
 -1      2360 4.83434E-02 4.41894E-03-1.81423E+00
 -1      2361 5.92457E-02 3.74311E-03-1.48416E+00
 -1      2362 5.04332E-02 1.64489E-02-1.71987E+00
 -1      2363 5.40931E-02-5.92472E-03-1.72623E+00
 -1      2364 5.51152E-02 1.29538E-02-1.61570E+00
 -1      2365-9.77144E-03-6.43109E-03-1.98499E-02
 -1      2366 4.47517E-02 1.36924E-02-2.31481E-01
 -1      2367-8.54367E-03 4.47882E-02-2.57592E-01
 -1      2368 5.25098E-02 4.04287E-02-7.46555E-01
 -1      2369 2.36731E-02 8.31704E-03-6.54810E-02
 -1      2370 2.58844E-02 3.80284E-02-2.63109E-01
 -1      2371-7.87153E-03-5.26963E-02-1.76702E+00
 -1      2372-3.55845E-02 3.45507E-02-3.72862E-01
 -1      2373 6.31952E-02 1.51232E-02-1.17776E+00
 -1      2374-1.48935E-02-4.12175E-02-2.39837E-01
 -1      2375-3.03022E-02 1.74822E-02-1.97251E+00
 -1      2376-5.17902E-02-1.48839E-02-1.69284E+00
 -1      2377 4.57672E-02 4.70214E-02-1.18064E+00
 -1      2378 1.40105E-02 2.74034E-02-1.19658E-01
 -1      2379-3.25184E-02-4.25056E-02-8.88531E-01
 -1      2380-1.90840E-02 6.45078E-02-1.06087E+00
 -1      2381 5.74672E-02 3.55945E-02-9.76136E-01
 -1      2382 3.03599E-03 6.03426E-03-2.09278E-02
 -1      2383 0.00000E+00 0.00000E+00 0.00000E+00
 -1      2384-3.98253E-03 4.76827E-02-3.43015E-01
 -1      2385-1.41509E-02 1.97276E-02-7.31124E-02
 -1      2386-1.98770E-02 2.30066E-02-1.04897E-01
 -1      2387 2.75774E-02-5.46724E-02-1.51073E+00
 -1      2388-8.30968E-03-1.77890E-02-8.26551E-03
 -1      2389-1.13552E-02 6.56777E-02-8.36492E-01
 -1      2390-1.82025E-03-2.04741E-02-7.45847E-02
 -1      2391-1.19298E-02-5.53789E-02-4.19477E-01
 -1      2392-4.23129E-02 4.42552E-02-5.03535E-01
 -1      2393-1.36449E-02-2.41215E-02-1.05878E-01
 -1      2394-3.44886E-03-6.77000E-02-1.02107E+00
 -1      2395 2.70954E-02 4.66129E-02-5.68570E-01
 -1      2396-5.86424E-04-1.17445E-02-2.30543E-02
 -1      2397-6.42003E-02 1.89839E-02-9.11628E-01
 -1      2398-6.39500E-02-1.61769E-02-6.67425E-01
 -1      2399-1.13442E-02-4.57841E-02-2.67352E-01
 -1      2400-6.68172E-03-6.73060E-02-8.37370E-01
 -1      2401-6.13094E-02 2.69902E-02-9.69717E-01
 -1      2402-1.00072E-02-9.46587E-03-5.68562E-02
 -1      2403-1.26022E-02 2.08350E-04-4.90469E-03
 -1      2404 5.85016E-02 2.06048E-02-1.38435E+00
 -1      2405 5.98876E-02 1.38312E-02-1.40085E+00
 -1      2406 2.01397E-02 6.30182E-02-9.83690E-01
 -1      2407-4.08166E-02 5.33414E-02-1.08376E+00
 -1      2408-1.04797E-02-8.94614E-04-2.28471E-02
 -1      2409 7.05060E-03 6.76862E-03-1.70641E-02
 -1      2410-5.04214E-03 6.22482E-02-6.30442E-01
 -1      2411 4.35419E-02 5.02505E-02-1.00692E+00
 -1      2412-5.05148E-02-1.77065E-02-8.04430E-01
 -1      2413 4.74061E-02-3.32476E-02-4.71607E-01
 -1      2414 3.72018E-02 3.58288E-02-9.84293E-01
 -1      2415-6.57225E-02-1.04579E-02-8.00921E-01
 -1      2416-1.46223E-02 3.34691E-02-1.72963E-01
 -1      2417-4.31686E-03 6.62436E-02-1.06482E+00
 -1      2418-1.33852E-02-5.47069E-02-1.66117E+00
 -1      2419 1.63094E-02 3.07349E-02-1.53401E-01
 -1      2420-2.23310E-03 8.27121E-03-2.18955E-02
 -1      2421 0.00000E+00 0.00000E+00 0.00000E+00
 -1      2422-1.02921E-02-4.27665E-02-1.88522E+00
 -1      2423 4.85763E-03-5.48958E-02-1.72550E+00
 -1      2424 7.12593E-04 9.24751E-03-1.87205E-02
 -1      2425-1.38053E-02-6.48024E-02-1.12620E+00
 -1      2426-1.81457E-02-1.78135E-02-3.12794E-02
 -1      2427-6.05385E-02-2.70057E-02-9.87560E-01
 -1      2428-4.29004E-02-3.09024E-02-6.12813E-01
 -1      2429 4.86581E-02-1.94576E-02-8.42717E-01
 -1      2430-3.37273E-02 3.99287E-02-8.91271E-01
 -1      2431 2.26150E-02 4.52405E-02-4.44116E-01
 -1      2432 6.14789E-02 1.36327E-02-6.19336E-01
 -1      2433 0.00000E+00 0.00000E+00 0.00000E+00
 -1      2434-3.27543E-02-2.81187E-02-2.43384E-01
 -1      2435 6.40584E-03 5.15491E-02-8.26450E-01
 -1      2436-5.81268E-02-2.97475E-02-1.09637E+00
 -1      2437-1.38863E-02-5.28152E-02-6.79516E-01
 -1      2438 5.43752E-02 3.39554E-02-6.47758E-01
 -1      2439-6.00437E-02-2.98019E-02-8.78825E-01
 -1      2440 1.71369E-02 2.28738E-02-1.97335E+00
 -1      2441-6.19641E-02-1.15919E-02-5.11310E-01
 -1      2442 1.51901E-02 4.54051E-03-5.76406E-02
 -1      2443 7.51190E-03 4.87315E-02-4.15814E-01
 -1      2444-5.61913E-02 1.72729E-02-1.55083E+00
 -1      2445-4.85670E-02 3.64855E-02-4.43711E-01
 -1      2446-3.93055E-02 1.45781E-02-2.01493E-01
 -1      2447-5.07581E-02 1.18077E-02-4.25999E-01
 -1      2448-3.01284E-04 7.35836E-03-1.51068E-02
 -1      2449-4.65938E-02-2.03315E-02-1.77023E+00
 -1      2450-2.74911E-02-3.27091E-02-2.94286E-01
 -1      2451-1.48701E-02 3.07094E-02-1.97552E+00
 -1      2452-6.15242E-02-8.33366E-03-5.02168E-01
 -1      2453-4.47347E-02-2.71436E-02-3.52238E-01
 -1      2454 7.04835E-03-6.19704E-02-1.48203E+00
 -1      2455-4.98052E-02 2.40736E-02-6.79558E-01
 -1      2456 3.09305E-02-3.20094E-02-1.90539E+00
 -1      2457 2.52888E-02-6.44851E-02-9.06715E-01
 -1      2458-4.28338E-02 1.64027E-02-1.93367E-01
 -1      2459-5.84469E-02-1.97203E-02-1.32469E+00
 -1      2460-2.09115E-02-2.26424E-02-6.69574E-02
 -1      2461-5.31321E-02-1.30596E-02-6.70427E-01
 -1      2462-3.47377E-02 2.55102E-02-2.14516E-01
 -1      2463 4.72438E-02 2.04411E-02-9.11710E-01
 -1      2464-2.48353E-02-4.05728E-02-1.85212E+00
 -1      2465-4.40858E-02 1.02717E-02-2.46150E-01
 -1      2466 3.85716E-03 2.40666E-02-6.61810E-02
 -1      2467-1.53569E-03 1.61967E-02-6.16355E-02
 -1      2468 2.26419E-02-4.32292E-02-5.10456E-01
 -1      2469-1.60620E-02 6.22624E-02-1.31461E+00
 -1      2470-3.69885E-02 5.26432E-03-2.35782E-01
 -1      2471 2.52453E-02-4.78706E-02-1.78032E+00
 -1      2472-5.10954E-02 4.44136E-02-1.02759E+00
 -1      2473 5.14738E-02-1.77966E-02-3.65417E-01
 -1      2474 2.33714E-02 4.79733E-02-8.42393E-01
 -1      2475-9.61892E-03-2.22453E-02-7.89202E-02
 -1      2476 4.59643E-02-4.40902E-02-6.08776E-01
 -1      2477 4.48692E-02-1.23311E-02-2.19157E-01
 -1      2478 1.59616E-02 5.78337E-02-1.47880E+00
 -1      2479-5.86913E-02 2.15036E-02-5.46242E-01
 -1      2480-4.26731E-02 4.20082E-02-1.55869E+00
 -1      2481 1.22276E-02-4.74029E-02-1.84178E+00
 -1      2482-6.22710E-02 1.11083E-03-1.33374E+00
 -1      2483 1.53596E-02-1.61851E-02-8.01058E-02
 -1      2484-4.59398E-02-4.05788E-02-1.39392E+00
 -1      2485-1.51958E-02 3.87104E-02-2.48189E-01
 -1      2486 6.49940E-02 1.23522E-03-1.09686E+00
 -1      2487 5.69366E-02 3.41168E-02-1.12122E+00
 -1      2488 5.26284E-02-2.04296E-02-1.63025E+00
 -1      2489 1.90862E-02 3.17989E-02-1.71158E-01
 -1      2490 2.05181E-02 6.06536E-02-1.21405E+00
 -1      2491-5.51007E-02-1.82560E-02-1.55257E+00
 -1      2492 1.70438E-02-5.38436E-02-1.70692E+00
 -1      2493-3.73647E-02-1.38493E-02-1.01038E-01
 -1      2494 6.06909E-03-4.45416E-02-1.99504E-01
 -1      2495-2.76667E-02-5.88775E-02-7.61574E-01
 -1      2496-1.43813E-02-6.56150E-02-7.75574E-01
 -1      2497-5.71588E-02 3.23276E-02-1.17342E+00
 -1      2498-1.73649E-03 6.57805E-02-8.53980E-01
 -1      2499 4.40540E-03 6.20577E-02-5.94378E-01
 -1      2500-5.38553E-02 1.39043E-02-1.69847E+00
 -1      2501 5.46084E-02 1.84713E-02-4.20161E-01
 -1      2502 6.58331E-02 4.39216E-03-9.94274E-01
 -1      2503-6.06273E-02 1.54869E-04-4.67400E-01
 -1      2504 5.04282E-02 3.62872E-02-4.81265E-01
 -1      2505-3.73717E-02 5.58188E-02-9.95183E-01
 -1      2506-7.62554E-03-6.18444E-02-1.42734E+00
 -1      2507-2.94656E-02 2.50418E-02-9.75640E-02
 -1      2508 1.26932E-02 2.19836E-02-9.86639E-02
 -1      2509-1.39829E-02 5.27715E-03-7.23130E-03
 -1      2510 1.80248E-02 5.00168E-02-7.00453E-01
 -1      2511 6.30153E-02-1.05465E-02-1.15997E+00
 -1      2512 6.32068E-02 1.75125E-03-1.23217E+00
 -1      2513-2.43409E-02-3.09907E-02-1.95919E+00
 -1      2514 2.40352E-02 5.50275E-02-1.45513E+00
 -1      2515 5.04399E-02-2.66767E-02-4.38597E-01
 -1      2516-3.19474E-02 5.95619E-02-9.03190E-01
 -1      2517 1.46502E-03-3.83849E-02-1.76890E-01
 -1      2518-4.24140E-02-4.58406E-02-5.68345E-01
 -1      2519 6.02128E-02-2.23000E-02-7.90279E-01
 -1      2520-2.06538E-02-5.27420E-02-4.64085E-01
 -1      2521 6.26840E-02-1.36899E-02-9.29058E-01
 -1      2522-2.14086E-03-6.79774E-02-1.04515E+00
 -1      2523 4.32948E-02 4.53850E-02-1.38034E+00
 -1      2524 4.30599E-03 2.30738E-02-9.33778E-02
 -1      2525-5.16080E-02-8.37219E-03-5.35377E-01
 -1      2526 3.22574E-02 1.56068E-02-1.84074E-01
 -1      2527 5.87917E-02-1.30925E-02-1.39126E+00
 -1      2528 1.69198E-02-6.66885E-02-1.08514E+00
 -1      2529-3.81277E-02-2.01056E-02-1.91180E-01
 -1      2530-4.35437E-02 9.86288E-04-1.91633E-01
 -1      2531-4.49655E-02 2.85073E-02-8.53034E-01
 -1      2532-3.54445E-02 2.39490E-03-1.02617E-01
 -1      2533 2.33425E-02 2.26551E-02-6.33641E-02
 -1      2534 0.00000E+00 0.00000E+00 0.00000E+00
 -1      2535-5.17487E-02-3.52563E-02-1.36052E+00
 -1      2536-4.89150E-03-9.86016E-03-2.72187E-02
 -1      2537-2.40587E-02 1.36287E-02-8.05934E-02
 -1      2538-4.63987E-02 7.66666E-03-2.58186E-01
 -1      2539-2.68364E-02 5.30366E-02-4.40392E-01
 -1      2540-6.17807E-02 1.75944E-02-1.26243E+00
 -1      2541 1.74611E-02 3.47490E-02-1.95251E-01
 -1      2542-2.97895E-02-4.43860E-02-1.72982E+00
 -1      2543 1.32810E-02-4.22585E-02-1.55446E-01
 -1      2544 2.32320E-04-6.55348E-02-6.46381E-01
 -1      2545-3.55362E-03-6.48720E-02-5.78032E-01
 -1      2546-4.08599E-02 4.90103E-02-1.34438E+00
 -1      2547-5.89456E-02-2.60174E-02-6.63415E-01
 -1      2548 5.99106E-02 3.09182E-02-9.97621E-01
 -1      2549-5.26488E-02 3.04550E-02-5.10485E-01
 -1      2550 5.92328E-02-6.68179E-03-1.45196E+00
 -1      2551 1.46970E-03 2.30880E-02-2.01912E+00
 -1      2552 4.76797E-02-1.27027E-02-2.96271E-01
 -1      2553-1.75996E-02 4.80301E-02-7.80735E-01
 -1      2554 2.97709E-02-6.11380E-02-1.03017E+00
 -1      2555-3.55498E-02 3.54108E-02-2.11414E-01
 -1      2556-8.82842E-03-5.06086E-02-2.96194E-01
 -1      2557 6.39022E-02 1.66349E-02-9.64652E-01
 -1      2558-6.18005E-02 1.14564E-02-1.33709E+00
 -1      2559-5.33406E-02 9.44994E-03-8.07003E-01
 -1      2560-1.89644E-02-6.47980E-02-9.87748E-01
 -1      2561-2.96008E-02-2.85211E-02-1.88243E+00
 -1      2562-1.16041E-02-5.56795E-04-1.81092E-02
 -1      2563 3.91802E-02-5.44701E-02-1.03960E+00
 -1      2564-5.40146E-02-3.35391E-03-1.71806E+00
 -1      2565 3.72450E-02 5.49132E-02-8.75226E-01
 -1      2566-4.95616E-02-3.04956E-02-1.53802E+00
 -1      2567 0.00000E+00 0.00000E+00 0.00000E+00
 -1      2568 3.56357E-02-3.89336E-02-6.91043E-01
 -1      2569 1.64017E-03-5.69595E-02-3.80777E-01
 -1      2570-2.44244E-02-5.60699E-02-1.43076E+00
 -1      2571-1.82012E-04 2.87749E-02-1.39607E-01
 -1      2572-7.51931E-03 4.13866E-02-2.11003E-01
 -1      2573-6.47511E-02 1.18028E-03-1.19479E+00
 -1      2574-1.64127E-02-5.46941E-03-2.02260E+00
 -1      2575 6.89180E-03 3.13771E-02-1.17276E-01
 -1      2576 4.88668E-02-1.24026E-03-4.23157E-01
 -1      2577 3.87948E-03 6.57186E-02-8.49309E-01
 -1      2578 3.09157E-02 5.40404E-02-5.76985E-01
 -1      2579 1.60745E-02-5.77566E-02-1.58187E+00
 -1      2580-5.85680E-02 2.41488E-02-1.31755E+00
 -1      2581 5.84688E-02 4.66431E-04-4.96421E-01
 -1      2582 8.74417E-03 2.06155E-02-8.04402E-02
 -1      2583-1.82572E-02-3.85584E-02-2.29923E-01
 -1      2584-2.19054E-02 1.83127E-02-1.97496E+00
 -1      2585 8.87549E-03-8.38321E-03-2.05464E+00
 -1      2586-4.60269E-03-3.66954E-02-1.92977E+00
 -1      2587 6.33957E-02-8.89199E-03-8.16482E-01
 -1      2588 3.30036E-02-3.23300E-02-2.47097E-01
 -1      2589 6.38494E-05 6.35007E-02-1.31731E+00
 -1      2590 5.09825E-02-3.03440E-02-1.48829E+00
 -1      2591 5.52273E-02-2.99694E-02-1.23859E+00
 -1      2592 0.00000E+00 0.00000E+00 0.00000E+00
 -1      2593-1.65665E-02 6.51165E-02-9.75735E-01
 -1      2594 1.67943E-02 6.31525E-02-8.32247E-01
 -1      2595-3.90956E-03-9.67705E-03-2.63617E-02
 -1      2596 5.94893E-02-1.61036E-02-5.57164E-01
 -1      2597 6.42586E-02 1.10767E-02-8.15888E-01
 -1      2598-3.07464E-02 6.06574E-02-8.20241E-01
 -1      2599-5.56760E-02 2.46653E-02-1.47269E+00
 -1      2600 1.18713E-02 4.40872E-02-3.49979E-01
 -1      2601-4.80745E-02-1.40496E-03-1.83707E+00
 -1      2602 5.99514E-02-2.53090E-02-9.53555E-01
 -1      2603-3.26685E-02-4.92780E-02-5.09890E-01
 -1      2604 2.77567E-02-3.19146E-02-2.33621E-01
 -1      2605-4.32383E-03 1.82743E-02-2.98800E-02
 -1      2606-1.09653E-02 1.87685E-02-7.11087E-02
 -1      2607-1.54469E-02-4.20802E-02-3.46959E-01
 -1      2608 4.02323E-02-3.02205E-02-5.60674E-01
 -1      2609 5.07748E-02 3.30413E-02-1.47221E+00
 -1      2610 1.65808E-02-6.55911E-02-7.89445E-01
 -1      2611 2.09509E-02-6.33825E-02-6.94426E-01
 -1      2612 2.16117E-02-9.89314E-03-6.85845E-02
 -1      2613 3.57004E-03 1.89955E-02-1.05588E-02
 -1      2614 4.34740E-02 3.53219E-02-3.89662E-01
 -1      2615 4.43336E-02 4.39253E-02-5.34200E-01
 -1      2616-3.73871E-03-3.53803E-02-1.21229E-01
 -1      2617 5.95214E-02 2.93178E-02-6.13626E-01
 -1      2618-3.33277E-03-3.29629E-02-9.60962E-02
 -1      2619-3.75519E-03-1.92849E-02-4.75188E-03
 -1      2620-1.71722E-02-3.81082E-02-1.85832E-01
 -1      2621-2.89117E-02 5.80396E-02-5.87617E-01
 -1      2622-4.77181E-02-2.47659E-02-6.53063E-01
 -1      2623 2.23899E-02 5.07963E-02-1.67834E+00
 -1      2624-1.86762E-03-6.11478E-02-1.50047E+00
 -1      2625-1.03478E-02-6.43124E-02-1.23779E+00
 -1      2626 8.45491E-03-3.17742E-02-1.95175E+00
 -1      2627 8.92469E-03 8.77869E-03-2.06146E+00
 -1      2628-7.49693E-04-4.31870E-02-2.41612E-01
 -1      2629 3.03057E-03-6.39571E-02-1.37350E+00
 -1      2630-4.83274E-02 4.16328E-02-1.29306E+00
 -1      2631-2.46156E-02 5.92689E-02-1.32250E+00
 -1      2632 5.63442E-02 1.02363E-03-1.62643E+00
 -1      2633-4.83091E-02 3.21704E-02-4.72064E-01
 -1      2634-6.39068E-02 8.65362E-03-1.19274E+00
 -1      2635-6.52083E-03-1.48059E-02-6.59812E-03
 -1      2636-1.20102E-02-4.15908E-02-1.60549E-01
 -1      2637-1.39010E-02-5.42566E-02-3.69436E-01
 -1      2638-6.14439E-02 2.69371E-02-8.01512E-01
 -1      2639 1.10849E-02 6.50235E-02-1.06237E+00
 -1      2640-9.99522E-03 6.71461E-02-1.08779E+00
 -1      2641-9.29495E-03-5.88879E-02-1.53889E+00
 -1      2642 1.85421E-02 2.82311E-02-1.22009E-01
 -1      2643-6.55453E-02-1.22769E-02-9.33951E-01
 -1      2644 1.80981E-02 3.94087E-02-2.45167E-01
 -1      2645-3.47288E-02-1.68502E-02-1.90576E+00
 -1      2646-6.30383E-02-2.13592E-02-1.05973E+00
 -1      2647 2.70394E-02 4.66205E-02-1.73453E+00
 -1      2648 2.75497E-02 4.32913E-02-3.90888E-01
 -1      2649 1.02812E-02-6.38904E-02-1.35714E+00
 -1      2650-5.11700E-02 1.44485E-02-5.47988E-01
 -1      2651 0.00000E+00 0.00000E+00 0.00000E+00
 -1      2652-3.92360E-02-3.36536E-04-1.29875E-01
 -1      2653 3.98706E-02 2.99937E-02-3.76463E-01
 -1      2654 5.17872E-03-5.85945E-02-1.60451E+00
 -1      2655-4.41179E-02 4.20484E-03-1.68725E-01
 -1      2656-3.01574E-02 3.34906E-02-1.99541E-01
 -1      2657 4.71568E-02 2.24505E-02-7.76230E-01
 -1      2658 1.48392E-03-1.67269E-02-5.15457E-02
 -1      2659 4.38081E-02-1.92321E-02-2.85449E-01
 -1      2660 5.49534E-02-2.08808E-02-4.99182E-01
 -1      2661-4.54097E-02 1.74668E-02-3.77663E-01
 -1      2662 4.64941E-02-4.49913E-02-7.39390E-01
 -1      2663-4.88166E-02 3.34101E-02-1.56957E+00
 -1      2664-6.04956E-02-6.02535E-03-1.42935E+00
 -1      2665-1.01041E-02-1.79406E-02-2.02890E+00
 -1      2666-1.75968E-02 3.90746E-02-3.47399E-01
 -1      2667 5.61030E-02-1.84023E-02-1.50217E+00
 -1      2668-5.91214E-02-1.44355E-02-1.43317E+00
 -1      2669 2.48083E-02-5.40534E-02-1.60884E+00
 -1      2670-7.34247E-03 6.56703E-02-7.68624E-01
 -1      2671-1.86030E-02-6.33063E-02-7.74441E-01
 -1      2672-3.87826E-02 2.11691E-02-1.86074E+00
 -1      2673-3.09021E-02 1.57771E-02-5.97685E-02
 -1      2674 6.16095E-02 4.40552E-03-1.35938E+00
 -1      2675 3.85005E-03-4.83977E-02-2.66455E-01
 -1      2676 6.33942E-02-1.31581E-02-1.05908E+00
 -1      2677 6.14346E-02-2.08257E-02-9.13913E-01
 -1      2678-8.65624E-03 1.97462E-02-6.85525E-02
 -1      2679 3.82659E-02 1.92501E-02-2.21564E-01
 -1      2680 5.89817E-02-2.23380E-02-1.23395E+00
 -1      2681 1.96295E-02-6.50708E-02-1.18404E+00
 -1      2682-5.34124E-02 1.33864E-03-3.24853E-01
 -1      2683 3.72376E-02 3.15383E-04-2.13303E-01
 -1      2684 2.75979E-02-2.84687E-03-8.18320E-02
 -1      2685 6.12587E-02-5.64539E-03-5.62303E-01
 -1      2686-1.39930E-03-6.71734E-02-7.86956E-01
 -1      2687 6.12731E-02 2.84716E-02-8.94374E-01
 -1      2688-6.02639E-03-1.67251E-02-2.04825E+00
 -1      2689-1.98467E-02 4.85242E-02-6.49131E-01
 -1      2690-5.35080E-02 4.85509E-03-8.88036E-01
 -1      2691-6.04430E-02 7.76608E-03-1.43398E+00
 -1      2692 5.85833E-02-2.54208E-02-1.11258E+00
 -1      2693-1.63206E-02-6.07940E-02-1.39365E+00
 -1      2694-6.34580E-02-8.59892E-03-1.23777E+00
 -1      2695-5.14093E-03 1.10102E-02-2.05861E+00
 -1      2696 5.39019E-02-3.52359E-02-1.15109E+00
 -1      2697 0.00000E+00 0.00000E+00 0.00000E+00
 -1      2698 5.48240E-02-1.60481E-02-4.28429E-01
 -1      2699-5.27375E-02 3.35503E-02-1.42425E+00
 -1      2700-3.12177E-02-4.65901E-02-3.77178E-01
 -1      2701 6.10551E-03-1.07330E-02-9.32121E-03
 -1      2702-3.54269E-02-2.94057E-02-3.29394E-01
 -1      2703-2.25479E-02-4.67310E-02-2.95345E-01
 -1      2704 3.45167E-03 2.73814E-02-1.05680E-01
 -1      2705-1.27929E-02-3.64413E-02-1.50964E-01
 -1      2706 2.13271E-02 1.30884E-02-2.00873E+00
 -1      2707-1.14037E-02 1.47517E-03-2.06669E+00
 -1      2708-3.18678E-03-6.43870E-02-1.32334E+00
 -1      2709 0.00000E+00 0.00000E+00 0.00000E+00
 -1      2710 1.85952E-02-6.16329E-02-1.37466E+00
 -1      2711 2.64491E-02 3.30103E-03-9.98841E-02
 -1      2712-5.90021E-02 2.85081E-03-1.53332E+00
 -1      2713-3.34156E-02 2.18477E-02-1.89763E+00
 -1      2714-4.54815E-02 2.88791E-02-1.74437E+00
 -1      2715-4.88660E-02 1.71460E-02-1.76125E+00
 -1      2716 1.28052E-02-6.55555E-02-1.23281E+00
 -1      2717-5.36702E-02 3.44658E-03-3.50040E-01
 -1      2718-9.79273E-04 1.12896E-02-2.06248E+00
 -1      2719 0.00000E+00 0.00000E+00 0.00000E+00
 -1      2720 1.18234E-02 3.30038E-02-1.49173E-01
 -1      2721-6.96982E-03-6.42200E-03-2.06406E+00
 -1      2722 1.50981E-02-3.31138E-03-2.06086E+00
 -1      2723-3.47480E-02-1.43232E-02-1.96239E+00
 -1      2724 4.73833E-02-4.88444E-03-3.93323E-01
 -1      2725 3.25447E-02 1.01906E-02-1.95581E+00
 -1      2726-6.05520E-02 4.56113E-03-4.78185E-01
 -1      2727 5.14649E-02-5.20065E-03-5.51252E-01
 -1      2728-3.48123E-02 2.10132E-02-1.92794E+00
 -1      2729-2.48451E-02-3.22650E-02-1.91104E+00
 -1      2730-1.62937E-02-3.81136E-02-1.90755E+00
 -1      2731 3.67091E-02-2.22499E-03-1.92629E+00
 -1      2732-1.77947E-02 2.84258E-02-1.94177E+00
 -1      2733 1.71640E-02-2.73647E-02-1.94991E+00
 -1      2734-3.21810E-03-3.40689E-02-1.97178E+00
 -1      2735 9.46492E-03 2.49245E-02-1.99781E+00
 -1      2736-6.32173E-04-5.15796E-02-1.79204E+00
 -1      2737 1.25214E-02 3.13517E-02-1.95413E+00
 -1      2738 2.97033E-02-4.02661E-02-1.83701E+00
 -1      2739 1.21713E-02 3.87320E-02-1.88002E+00
 -1      2740 4.02309E-02 7.36032E-03-1.89218E+00
 -1      2741-4.32007E-02-1.45819E-02-1.84338E+00
 -1      2742-2.40643E-02 2.32287E-02-1.96412E+00
 -1      2743 3.81061E-02 2.42818E-02-1.85637E+00
 -1      2744 1.27203E-04 4.08294E-02-1.89617E+00
 -1      2745-3.54652E-02 7.06383E-03-1.96122E+00
 -1      2746 3.22024E-02-8.18133E-03-1.96889E+00
 -1      2747 4.71327E-02-9.45018E-03-1.82253E+00
 -1      2748-7.61410E-03 3.56206E-02-1.95219E+00
 -1      2749 1.18145E-02-3.78098E-02-1.91815E+00
 -1      2750-2.28474E-02-1.62365E-02-1.97025E+00
 -1      2751 2.60336E-02 1.84793E-02-1.97033E+00
 -1      2752 1.37163E-02-3.41466E-02-1.92204E+00
 -1      2753-3.63768E-02-7.04616E-03-1.91715E+00
 -1      2754-2.47461E-02 1.22316E-02-1.96679E+00
 -1      2755 2.64853E-02-1.53629E-02-1.96635E+00
 -1      2756-3.65897E-02 1.15102E-02-1.91023E+00
 -1      2757-2.76376E-02-2.20842E-02-1.94726E+00
 -1      2758 2.29098E-02-2.28768E-02-1.93701E+00
 -1      2759-3.66692E-02 3.33268E-02-1.80362E+00
 -1      2760-3.30765E-02-2.16608E-03-1.95186E+00
 -1      2761 1.20981E-03 3.37886E-02-1.95751E+00
 -1      2762-2.09291E-02 3.58172E-02-1.88878E+00
 -1      2763-1.38121E-02-3.65586E-02-1.92911E+00
 -1      2764-3.39674E-02-1.90264E-02-1.92616E+00
 -1      2765 3.41224E-03-3.73999E-02-1.94602E+00
 -1      2766-2.50337E-02 3.07714E-02-1.92382E+00
 -1      2767 3.90274E-02-9.50562E-03-1.90235E+00
 -1      2768 2.37199E-03-3.45405E-02-1.93014E+00
 -1      2769-2.24624E-02-2.79362E-02-1.94382E+00
 -1      2770-2.70044E-02-9.37999E-03-1.96640E+00
 -1      2771-3.35241E-02 1.52276E-02-1.91975E+00
 -1      2772 3.37550E-03 4.01817E-02-1.92215E+00
 -1      2773-3.85147E-02 7.28375E-03-1.91872E+00
 -1      2774 3.01494E-02 2.63970E-02-1.94096E+00
 -1      2775 3.43052E-02 1.01604E-02-1.94970E+00
 -3
    1PSTEP                         2           1           1          
  100CL  101 1.000000000        2775                     0    1           1
 -4  STRESS      6    1
 -5  SXX         1    4    1    1
 -5  SYY         1    4    2    2
 -5  SZZ         1    4    3    3
 -5  SXY         1    4    1    2
 -5  SYZ         1    4    2    3
 -5  SZX         1    4    3    1
 -1         1-1.66658E+00-1.90201E+00-1.19579E+00-1.71906E-01-1.45614E-01-1.41169E+00
 -1         2-4.29039E+00-1.60970E+00 1.14205E-01 3.74591E-01-2.94568E-01 1.68068E-01
 -1         3-3.38759E+00-1.28910E+00 3.80746E-01-3.41586E-02 4.02498E-01 6.03650E-02
 -1         4-2.57789E+00-1.12134E+00 1.87010E-01-2.34949E-03-5.58438E-02 4.44419E-01
 -1         5-2.96598E-02-2.90305E-01-2.12816E-02-2.22821E-02 1.88744E-02 2.51239E-02
 -1         6 1.92282E-01-3.95841E-01 1.95444E-01-1.03475E-01 4.31128E-01 1.09174E+00
 -1         7-1.46766E+00-1.58957E+00-1.66931E+00 9.44383E-02-9.92962E-01-1.17945E+00
 -1         8-2.98381E-03-1.94855E-01-1.85903E-02-6.32521E-02-7.79482E-02-4.01677E-02
 -1         9-1.15685E+00-1.70271E+00-3.95268E-01-1.69727E-01-3.10273E-01 8.37833E-01
 -1        10-8.70863E-01-3.64630E+00-2.10523E-01-1.40574E-01-2.61554E-01 7.74300E-01
 -1        11-2.10003E+00-8.66741E-01-7.83540E-01 9.58242E-01-5.61336E-01-4.05116E-02
 -1        12-1.49160E+00-2.72120E+00-2.43045E+00 8.79872E-01 7.02389E-01 1.04873E-01
 -1        13-2.32494E+00-4.36676E+00-2.35804E+00-5.35882E-01-7.46242E-02 1.81946E+00
 -1        14-1.18766E+00-1.21455E+00 2.16944E-01 3.80378E-01 4.34331E-01 6.83245E-02
 -1        15-1.94403E+00-9.56658E-01 4.52611E-01 2.94794E-01 2.58109E-01 3.19574E-01
 -1        16-1.04492E+00-3.09175E+00-1.13697E+00-4.27141E-01-3.69569E-01 2.21681E-01
 -1        17-1.56928E+00-2.18336E-01-1.97683E-01-4.85977E-01 1.39851E-02 3.40885E-01
 -1        18-1.35274E+00-2.99714E+00-1.10017E+00-3.43262E-01 6.20441E-01 1.19389E+00
 -1        19-1.79970E+00-6.96673E-01-3.92797E-01-9.34676E-01 3.46714E-01 1.18476E-01
 -1        20-1.42207E+00-2.05785E+00-1.46270E+00 6.69432E-01 9.67463E-03-1.90311E+00
 -1        21-2.07277E+00-1.40912E+00 2.06247E-01-5.58501E-01-4.60562E-02 4.35403E-01
 -1        22-1.00409E+00-1.12384E+00-5.12548E-01-8.31800E-01-2.58417E-01 2.28273E-01
 -1        23-1.47785E+00-1.24750E-01 9.95892E-01 6.80756E-02-1.36552E-01 6.67003E-01
 -1        24-4.15617E+00-2.42885E+00 2.02419E-01-1.11501E+00 1.97764E-01 1.44719E-01
 -1        25-1.93377E+00-1.17217E+00-3.61842E-01 2.01958E-01-5.84177E-01-1.16673E+00
 -1        26 1.29263E-01-1.54235E-01 2.05733E-01 5.92207E-02-2.16988E-02-2.29762E-01
 -1        27-3.57541E+00-1.49859E+00 6.51926E-01-5.52144E-01-2.43944E-01 3.86419E-01
 -1        28-6.48623E-01-1.36747E+00-5.46944E-01-3.36889E-01 3.24147E-01 5.47473E-01
 -1        29-1.70405E+00-1.03617E+00-1.61752E-01-5.78331E-01 3.83218E-01 3.31953E-01
 -1        30 1.81530E-01-1.08569E-01-6.55356E-03 9.38009E-02-1.21145E-02-1.31773E-01
 -1        31-2.43191E-02 6.76514E-02 2.24336E-01 1.65406E-01 1.64770E-01 1.01067E+00
 -1        32 1.76854E-01-1.31434E+00 3.22761E-01 2.59500E-01 8.51862E-01 6.01550E-01
 -1        33-1.06824E+00-1.69006E+00-4.04246E-01-1.18398E+00 4.60865E-01 6.49395E-02
 -1        34-1.51469E+00-3.09310E-01-7.44194E-01-1.36120E-01 4.74607E-01 3.61211E-01
 -1        35-5.86709E+00-1.29246E+01-3.49127E+00 3.13987E+00-1.37284E+00 9.54383E-02
 -1        36-1.38774E+01-1.87148E+01-9.11873E+00-2.21803E-02-3.19723E-01-7.48913E-01
 -1        37-1.98272E+00-9.60986E-01-1.19162E+00-1.42372E-01-6.37517E-01-1.32241E+00
 -1        38-2.75032E-01 2.12359E-01 4.27198E-02 1.13845E-01-1.92450E-01 1.07198E-01
 -1        39-1.99596E-01 1.53267E-01-2.17312E-01 9.67354E-02-1.15554E-01 2.08760E-01
 -1        40-1.50266E+00-1.61657E+00 1.78862E-01-6.14599E-01 2.80081E-01 2.74355E-01
 -1        41-2.21460E+00-2.57786E+00 2.14519E-01-1.17483E+00 3.71688E-01 1.69236E-01
 -1        42-1.32036E+00-1.80126E+00 1.75427E-02-7.82690E-01 1.11943E-02 4.24713E-01
 -1        43-4.48386E-01-1.78063E+00-5.45518E-01-5.63287E-01-2.37621E-01 2.97428E-01
 -1        44-1.89047E+00-8.88976E-01 6.00318E-01 5.31638E-02-3.07271E-01 5.39381E-01
 -1        45-2.99636E+00-2.62242E+00 3.36382E-01-1.42729E+00-4.04536E-02 3.52433E-01
 -1        46-1.52089E-01-1.54077E+00 2.69814E-01-6.74066E-01-5.18087E-02 1.74261E-01
 -1        47-1.60083E+00-9.76872E-02-3.21387E-01-4.44215E-01-1.80544E-01-7.49214E-01
 -1        48-1.78711E+00-1.15033E+00 4.62830E-02 4.02919E-01 2.94956E-01 1.19721E+00
 -1        49-1.18784E+01-1.22975E+01-6.67607E+00 2.47615E+00 5.22050E-01-6.03262E-01
 -1        50-1.04805E+00-1.26497E+00-6.05640E-01 1.33323E-01 4.61692E-01 2.87320E-01
 -1        51-1.00421E+00-3.35529E-01-2.13730E-01-5.28184E-01 2.45948E-01 3.11152E-01
 -1        52-2.50622E+00-1.12264E+00-1.42348E+00 3.33293E-01-1.22044E+00-1.44496E+00
 -1        53-1.13434E+01-6.69901E+00-7.24075E+00 9.43790E-01-3.76795E-01 5.17353E-01
 -1        54-9.63377E-01-1.51588E+00 1.09774E+00 2.14859E-01 5.20773E-01-3.97978E-01
 -1        55-1.07599E+00-1.38610E+00-2.72715E-03-6.59659E-01 3.46500E-01-6.71059E-02
 -1        56-2.92148E+00-3.54334E+00 3.80133E-01-1.34372E+00 1.50611E-01-1.61262E-02
 -1        57-1.68024E+00-1.15769E+00-2.50558E-01-2.41426E-01-1.03137E+00-3.53098E-01
 -1        58-2.14638E+00-2.56182E+00-1.35240E-01-1.13088E+00-2.63485E-02 6.77982E-01
 -1        59-1.91076E+00-7.88585E-01-7.60993E-01-9.02702E-01-8.77231E-02 7.11467E-01
 -1        60-3.23835E-01 8.53175E-02 6.00750E-02 9.98652E-02-1.02397E-01 4.65368E-02
 -1        61-9.34797E-01-1.50413E+00 1.13259E-01-5.82669E-01 3.28528E-01 1.10683E-01
 -1        62-2.28028E-01 5.18490E-02-1.03950E-01 1.16913E-01-1.38499E-01 1.70401E-01
 -1        63-3.28228E+00-1.67166E+00-8.62104E-02 1.50608E+00 6.64837E-01 4.71671E-01
 -1        64 7.39575E-01-3.83919E-01-1.98422E-01 8.66620E-01 9.90496E-01-4.61992E-01
 -1        65-9.72300E-01-8.08991E-01-3.67268E-01-7.26429E-01 2.74712E-01-4.94272E-02
 -1        66-1.30208E+00-1.22353E+00-2.44959E-01 2.44151E-01 4.40033E-01 2.48336E-01
 -1        67 1.35579E-01-9.95701E-01 3.29085E-01-2.89079E-01 3.98293E-01-2.11792E-01
 -1        68-2.78457E+00-1.14911E+00-1.20026E+00-5.22960E-02 1.05059E+00 1.10069E+00
 -1        69-6.60315E+00-6.59950E+00-4.84013E+00 3.45597E+00 7.69587E-01-1.17182E+00
 -1        70-8.02335E+00-3.09489E+00-2.65879E+00 1.78587E+00-1.90231E-01-4.20372E-01
 -1        71-1.96018E+01-1.19474E+01-6.32686E+00-1.17609E+00 1.57856E-01 1.11128E+00
 -1        72-9.25045E-01-1.33171E+00-9.77876E-01 4.84358E-01-1.09697E+00 6.39585E-01
 -1        73-2.35163E+00-4.34079E+00 1.19130E-01 3.48866E-01 4.67284E-01-2.92715E-01
 -1        74-1.02497E-01 4.40676E-03 1.64212E-01-4.86246E-02-1.87727E-01 8.45249E-02
 -1        75-1.32458E+00-2.13570E+00 1.26273E-01 2.25592E-01 5.33858E-01-1.72590E-01
 -1        76-8.55196E-01-1.81396E+00-1.18031E+00 5.63621E-01-1.31141E+00 2.37617E-01
 -1        77-1.78866E+00-4.17795E+00 2.80461E-01-1.60564E-01 6.93130E-02 7.11943E-01
 -1        78-1.16655E-01 2.98521E-01 1.99248E-02-9.93320E-02-2.19834E-01 5.09799E-02
 -1        79-1.02454E+00-2.15137E+00-1.19659E-01 1.08079E-01 2.93796E-01 3.57388E-01
 -1        80-2.00822E+00-1.13765E+00-9.45007E-02 3.03323E-01 9.57768E-01 4.11183E-01
 -1        81-3.00514E+00-2.77993E-01-1.11923E-01-3.50239E-01 9.19738E-01 7.65384E-02
 -1        82-9.73620E-01-2.54073E+00-1.01315E+00 1.09352E+00 2.43310E-01-8.10315E-01
 -1        83-3.04395E-01 9.82687E-01 1.03212E+00 3.83486E-01 1.16714E+00-4.78649E-01
 -1        84-3.94323E-01-1.73146E+00-6.03316E-01 4.34679E-01 2.69833E-01 3.32349E-01
 -1        85-4.03874E-01-1.19620E+00-4.61695E-01-4.57970E-01 3.16921E-01-1.72478E-01
 -1        86-8.48941E-01-1.28085E+00-1.67836E-01-1.01170E+00 3.30860E-01 3.25406E-01
 -1        87-2.47989E-01 5.41421E-02 1.38391E-01-1.05437E-01-1.14713E-01 7.09006E-02
 -1        88-1.32273E+00-1.64289E+00 7.64141E-02-3.81326E-01 3.68979E-01 8.57200E-01
 -1        89-9.71908E-01-1.68526E+00 1.42048E-01 1.83835E-01 3.96609E-01 4.27771E-03
 -1        90-2.07668E+00-4.14104E+00 1.20765E-01 5.40826E-01 2.48493E-01-4.11561E-01
 -1        91-1.52435E+00-2.08374E+00-1.25592E+00-5.53660E-01-1.56933E+00-9.77238E-02
 -1        92-1.97805E+00-7.15238E-01-4.23797E-01-6.68200E-01 9.13329E-01-7.05674E-01
 -1        93-4.83594E-01-2.11982E+00-6.52419E-01-5.08346E-01-8.87613E-01 1.05809E-01
 -1        94-2.70768E+00-1.46281E+00-5.82447E-01-3.49977E-01 1.91143E-01-5.69155E-01
 -1        95-1.75901E-01 1.16019E-01 2.66075E-02-1.40468E-01-1.02798E-01 1.65588E-02
 -1        96-4.25842E-01-1.71570E+00-1.55663E-03 3.78567E-01 3.02666E-01-1.85142E-01
 -1        97-1.18098E+00-3.42949E+00 1.87122E-01 2.56461E-01 3.87211E-01 2.20711E-01
 -1        98-6.53358E+00-2.91541E+00-4.99825E+00-9.71682E-01 2.34804E-01 1.25261E-01
 -1        99-1.48809E+00-9.57922E-01-4.23892E-01 1.07878E+00 2.73962E-01-6.15782E-01
 -1       100-7.25262E-01-8.07241E-01-4.95724E-01 5.43048E-01 1.80770E-01 2.83190E-01
 -1       101-3.54561E+00-2.04693E+00-1.21434E+00-4.62185E-01 1.42609E+00 3.18337E-01
 -1       102 6.18668E-02-1.40628E+00 5.69417E-03 6.51289E-02 4.35645E-01 7.53533E-02
 -1       103-3.51495E+00-1.95603E+00-2.44417E+00-6.22197E-01 1.22081E+00-4.43535E-01
 -1       104-4.70385E-01 1.19697E-01 1.31798E-01-1.65845E-02-3.42231E-01-1.85716E-01
 -1       105-1.18031E+00-1.16494E+00 2.39744E-01 1.65876E-01 3.82287E-01 4.63111E-02
 -1       106-2.11860E+00-1.31970E+00 2.00478E-01 5.72371E-01 1.38982E-01 3.51859E-02
 -1       107-2.52042E+00-2.16200E+00 3.24825E-01 1.16378E+00 1.60280E-01-3.41584E-01
 -1       108-1.57940E+00-4.12246E-01 2.11281E-01 9.22442E-01 9.62238E-02 1.21266E-01
 -1       109-9.54607E-01-7.91481E-01 1.83584E-01 3.23619E-02-1.72546E-01-4.67125E-01
 -1       110-2.04503E+00-1.98968E+00-1.30541E+00-1.97975E-01-1.24391E+00 9.10089E-01
 -1       111-2.40116E+00-2.43761E+00 3.54046E-01 1.20882E+00 2.88174E-01 2.54507E-01
 -1       112-4.47975E-01 3.02112E-01-1.91372E-01-6.28305E-02-1.66316E-01-1.52510E-01
 -1       113-1.21016E+00-1.86027E+00-1.39014E+00-1.35697E-01-3.58406E-01 1.23309E+00
 -1       114-6.39922E-01-4.94971E-01 4.55933E-01-5.04396E-01-1.98772E-01-1.18259E+00
 -1       115-1.35582E-03-1.66457E+00-1.23883E-02 1.64139E-01 2.70650E-01-4.83417E-02
 -1       116-1.39161E+00-9.78390E-01-5.63286E-01-9.53020E-01 4.36454E-01-6.49388E-01
 -1       117-4.39289E+00-1.66919E+00-3.93662E+00-6.75054E-01 1.58416E-01 1.18713E-01
 -1       118-5.77223E+00-4.47017E+00-3.10585E+00-2.36433E+00-2.52018E-03 2.34407E-02
 -1       119-2.71835E+00-7.04446E-01-2.78287E-01-1.04239E+00 4.38115E-01-1.77537E-01
 -1       120-1.51035E+00-1.25523E+00 3.20568E-01 5.17126E-01 7.88797E-02-4.45498E-01
 -1       121-1.01848E+00-4.96744E-01-1.23012E+00 3.11398E-01-5.85027E-01 1.22692E+00
 -1       122-1.11390E+01-1.33833E+01-7.04676E+00-2.36233E+00-4.13344E-01-4.61093E-01
 -1       123 9.05796E-03-6.79800E-02 9.67501E-02-9.59401E-02-5.08201E-02 8.50729E-02
 -1       124-3.67882E+00-2.62954E+00 1.26510E-01 1.13181E+00 3.54245E-01-1.22963E-01
 -1       125-1.69346E+00-1.27075E+00 2.17539E-01 5.33497E-01 3.54541E-02-3.22412E-01
 -1       126-6.18974E-01-8.94027E-01-3.04803E-03 7.65122E-01 2.29870E-01-1.51911E-01
 -1       127-3.32672E+00-1.76968E+00 1.71865E-01 6.75430E-01-2.74984E-01-6.90143E-01
 -1       128-1.54738E+00-7.64157E-01-7.34691E-01 4.83503E-01-6.44037E-01 1.08384E+00
 -1       129 6.24608E-01-1.15347E+00 6.55837E-01-2.53224E-01 1.38976E-01-1.19921E+00
 -1       130 6.30205E-02-4.12474E-02 1.35571E-02-8.28201E-02-4.77939E-02 4.70241E-02
 -1       131-1.23858E+00-3.45841E+00-6.42807E-01-1.29031E+00 5.79929E-01-7.83252E-01
 -1       132-2.47586E+00-9.30579E-02-3.40819E-01-1.27297E-01-1.59643E-01-6.10929E-01
 -1       133-1.22874E+00-8.12772E-01-2.84757E-02 7.33522E-02 4.12359E-01-1.07980E-01
 -1       134-1.48829E+00-1.28564E+00 4.05121E-01-3.42102E-01 1.85580E-01-5.23137E-01
 -1       135-1.65053E+00-9.81620E-01 1.05060E-01 5.76259E-01 2.80504E-01-1.43210E-01
 -1       136-2.00118E-01-3.94946E-01-6.87268E-01 3.43279E-01-1.05714E-01-1.47011E+00
 -1       137-6.84122E-01-1.02521E+00-1.03117E+00 4.77522E-01 3.43368E-01-6.95456E-01
 -1       138-7.02549E-01-1.89788E+00-5.27564E-01 8.97978E-01 4.20422E-01 1.48396E-01
 -1       139-8.01039E+00-9.28852E+00-2.27644E+00-4.32447E+00 6.68134E-02-2.64704E-01
 -1       140-2.82408E+00-6.02039E+00-5.03977E+00-1.18372E+00 5.08406E-01 1.68146E-01
 -1       141-1.55046E+00-1.93266E+00-1.10407E+00-6.81363E-02-2.44081E-01 1.28037E+00
 -1       142-2.88839E+00-1.25254E+00 3.25133E-01 8.53486E-02 2.73097E-03-4.38886E-01
 -1       143-2.43877E+00-8.45923E-01-6.78357E-02 1.61789E-01 3.81737E-01-1.97365E-01
 -1       144-1.36682E+00-1.42354E+00 3.39617E-01 2.78851E-01 6.44889E-01 1.32355E-01
 -1       145-3.98002E+00-1.75414E+00 2.84668E-01-2.71147E-02-4.61316E-01-3.63491E-01
 -1       146-2.71585E-01-4.37372E-01-1.53815E-01-1.73836E-01-7.66480E-02-1.99066E-01
 -1       147-1.43254E-01-3.14314E-01-2.71531E-01-6.11064E-02-2.18071E-01-1.68076E-01
 -1       148-1.02305E+00-1.17724E+00-8.85276E-01 3.64993E-01 2.48700E-01 7.93350E-01
 -1       149-6.05185E-01-2.08848E+00 6.19358E-03-7.37693E-01 4.29618E-01-5.82044E-01
 -1       150-1.21344E+00-2.04425E+00 6.80420E-02-6.84434E-01-1.13172E-01-8.75576E-01
 -1       151 2.34422E-03-1.58042E-01-2.78646E-01 9.95145E-02 4.54209E-01-5.19615E-01
 -1       152-4.07588E+00-1.26978E+00 1.82281E-01 3.58030E-01 2.24392E-01-4.80960E-02
 -1       153-2.54752E+00-5.75170E-01-5.57648E-01-9.22069E-01-4.83320E-01-3.72311E-01
 -1       154-9.04425E-01-3.48487E+00-4.81077E-01-4.86928E-01 1.12851E+00-1.14312E+00
 -1       155-1.76686E+00-3.21227E-01-5.39856E-01-3.49667E-01 3.32149E-01-1.60243E-01
 -1       156-1.22231E+00-5.12528E-01 1.09815E-01 8.48057E-01 1.19660E-01-4.01219E-02
 -1       157-7.01147E+00-1.06587E+01-6.46090E+00-1.01621E-01 4.11793E-01-1.14982E+00
 -1       158-4.36522E+00-1.57849E+00 2.86829E-01-8.41118E-01-3.19880E-02-2.52871E-01
 -1       159-2.07170E+00-2.40745E+00-1.53206E+00-1.44549E-01 4.95069E-01 1.74747E+00
 -1       160-1.17641E+00-6.38082E-01 5.13650E-01-9.03573E-02-1.24009E-02-2.14400E-01
 -1       161-1.55010E+00-1.16546E-01 9.95781E-01 2.37774E-01 7.00872E-02-4.58534E-01
 -1       162-3.68821E-01-3.74906E-01-2.97446E-01-1.25984E-01-1.63265E-01-3.26708E-01
 -1       163-2.77932E+00-1.10264E+00 2.36909E-01-1.20547E-01-8.69811E-02 8.17636E-04
 -1       164-3.25606E-01-1.76478E-01-1.37157E-01-2.12374E-01-1.13552E-01-2.03647E-01
 -1       165-3.82972E+00-1.03359E+00 6.15225E-01-2.40387E-01 1.47807E-01-2.51974E-01
 -1       166-4.03531E-01-8.47012E-01-4.24088E-01-4.53321E-01-1.44255E-01-3.37790E-01
 -1       167-7.57246E-01-5.80778E-01 3.40165E-02 4.10297E-01-1.44067E-01-1.83512E+00
 -1       168-1.00486E+00-2.10482E+00-5.93155E-02 3.56147E-01 1.99248E-02-2.59957E-01
 -1       169-1.64648E+00-1.67291E+00-1.37300E+00-5.81818E-01-2.92999E-01 1.27965E+00
 -1       170-1.06254E+00-5.36658E-01 9.00803E-01-1.18172E+00 3.81601E-01-5.03092E-01
 -1       171-2.79404E+00-1.15133E+00 1.26825E-01-4.25007E-01 3.07586E-01-3.56970E-01
 -1       172-1.41534E+00-8.59737E-01-5.15852E-01-8.62204E-01 2.88217E-01-1.91428E-01
 -1       173-1.52997E+00-4.13873E+00-3.14662E+00 2.21937E-01-5.04888E-01 1.11751E-01
 -1       174-1.30088E+00-2.33166E+00-9.54115E-01 3.71264E-01-4.69546E-01-1.13993E+00
 -1       175-1.58138E+00-2.12280E+00-1.19463E+00 7.42433E-02 8.93124E-01 1.10578E+00
 -1       176-1.51917E+00-1.35381E+00-1.52380E+00 1.16104E-01 1.33827E+00 4.35854E-01
 -1       177-9.24667E-01-1.40640E+00 6.47382E-01-2.46723E-01 1.77365E-01-3.31007E-01
 -1       178-3.70628E-01-3.61979E-01-1.02916E-01 2.51129E-01 1.94512E-02-1.54943E-01
 -1       179-1.52245E+00-2.67524E+00-2.13844E+00 7.98192E-02-7.44198E-01-7.83733E-01
 -1       180-2.03585E+00-1.54150E+00 6.20857E-01-5.68869E-01-2.56917E-01-3.34189E-01
 -1       181-2.34271E+00-1.33708E+00-1.11723E-01-8.53056E-01-3.75108E-01-1.63651E-01
 -1       182-3.35640E-01-7.02443E-02 2.20753E-02 1.87877E-01-3.09028E-03 6.91441E-02
 -1       183-7.20809E-01-6.87845E-01-5.08966E-01 2.02437E-01 1.43970E-01-1.00783E+00
 -1       184-3.74893E+00-2.87019E+00 2.11203E-01-1.41119E+00-2.50986E-01 1.88689E-02
 -1       185 7.11052E-02-1.43782E+00 1.60999E-01 6.53052E-01 3.28814E-01-1.02381E+00
 -1       186-1.17972E+01-1.15182E+01-8.27866E+00 1.00757E+00-1.54055E+00-1.24057E+00
 -1       187-3.22771E+00-1.44316E+00 4.90534E-01-9.12512E-01 9.38871E-02-4.84171E-01
 -1       188-7.73542E-01-2.15537E+00-3.78234E-01-1.10967E+00-3.65054E-01 6.50133E-02
 -1       189-1.97412E+00-2.96757E+00-2.18661E+00 4.63175E-01-1.44014E+00-1.35518E+00
 -1       190-2.03283E+00-3.12013E-01-5.96003E-01-2.93957E-01-4.12342E-01-8.90253E-02
 -1       191-2.43031E+00 2.26832E-01 4.05426E-01 4.39893E-02-3.28716E-01-4.79680E-01
 -1       192-5.17462E+00-6.19029E+00-2.84192E+00 2.83910E+00-3.92179E-01-2.42700E-01
 -1       193-1.02177E+01-8.17577E+00-5.85682E+00 8.38593E-01-1.36788E+00-5.53714E-01
 -1       194-1.29381E+01-1.31287E+01-8.22624E+00 1.54954E+00-1.34170E+00-1.63739E+00
 -1       195-3.03267E+00-3.48542E+00 8.94231E-02-1.34376E+00-4.33674E-01 2.04124E-02
 -1       196-6.36083E-01-1.91752E+00-1.21528E+00-5.79417E-02 1.55026E+00 5.55990E-02
 -1       197-5.98014E-01-2.42563E+00-1.39233E+00-3.06044E-01 1.47826E+00 5.87914E-01
 -1       198-1.97190E+00-1.63905E+00 1.96704E-01-9.82771E-01-7.44992E-02-6.12009E-03
 -1       199-9.43543E-02-2.42228E+00-3.12143E-01-1.30346E-01-5.52292E-01 9.78121E-02
 -1       200-2.39565E+00-2.45432E+00-1.59633E-01-1.26449E+00 1.48669E-01-4.47883E-01
 -1       201-2.11925E+00-6.18638E-01-5.90991E-01-8.23209E-01 2.45237E-01-3.84682E-01
 -1       202-1.23804E+00-3.30855E-01 4.74519E-01-8.98819E-01 1.87298E-01-3.27138E-01
 -1       203-1.49740E+00-1.65764E+00 2.90694E-01-1.01593E+00-1.34561E-01-3.18011E-01
 -1       204-4.20731E-01-6.90238E-02-1.40012E-01 4.17129E-03-3.76153E-02-2.22528E-01
 -1       205-9.61076E-01-5.00433E-01-4.79400E-01-2.10476E-01-1.43110E+00-1.86005E+00
 -1       206-2.46579E+00-1.69335E+00-8.94369E-01 2.41108E-01-7.37529E-01-1.26567E+00
 -1       207-4.37922E+00-2.88421E+00 2.86112E-01 2.01452E+00-3.02829E-01-1.22434E+00
 -1       208-4.39587E-01-1.15048E-01-1.70919E-01-5.27498E-03-7.61824E-02-2.21794E-01
 -1       209-1.87304E+00-7.11431E-01-6.14747E-02 5.63127E-01-9.96196E-01-4.50344E-01
 -1       210-2.15852E-02-1.38337E+00 1.83965E-01-4.02106E-01-1.63031E-01 9.17590E-02
 -1       211-3.01168E+00-1.92273E+00-1.76071E+00 6.65405E-01-1.49938E+00-4.64593E-01
 -1       212-1.68329E+00-1.84701E+00-1.16786E+00 3.93386E-01 1.41361E+00 6.96990E-02
 -1       213-8.47471E-01-1.88088E+00-9.40792E-01 4.17585E-01 8.17044E-01 4.83579E-01
 -1       214-1.12977E+01-1.47048E+01-9.28664E+00 2.08997E+00-9.08735E-01 1.46024E+00
 -1       215-1.10956E+00-2.79985E+00 2.68198E-01-3.15274E-01-4.10336E-01 2.41309E-02
 -1       216-8.89797E-01-2.72272E+00-1.08041E-02-2.73031E-01-1.83536E-01-2.40755E-01
 -1       217-4.82549E-01-1.20289E-01-9.64108E-02 2.48001E-02-9.22524E-02-9.16676E-02
 -1       218-2.47171E+00-4.49404E+00 1.51545E-01-6.30781E-01-6.44300E-02-4.48612E-01
 -1       219-3.91593E-01 1.00278E+00 3.66619E-01-4.34877E-02-1.75058E+00-3.21557E-01
 -1       220-2.56895E+00-1.04668E+00-6.52315E-03 1.88775E-01-4.69673E-01-5.33265E-01
 -1       221-3.51247E-01-7.81035E-02-7.43351E-02-7.77554E-02-4.56054E-02 6.88942E-02
 -1       222-1.96332E+00-7.40139E-01-6.05613E-01 5.92678E-01-5.09584E-01-4.30295E-01
 -1       223-1.71988E+00-1.20729E+00-6.38052E-01-1.22330E+00-1.91990E-01-7.34747E-01
 -1       224-1.47523E+00-3.67875E+00-5.90991E-02-4.55754E-01-1.41071E-01 4.78674E-01
 -1       225-4.48867E-01-2.48447E+00-7.53537E-01 5.12354E-01-1.54104E-01 5.37091E-01
 -1       226-7.28999E+00-3.24671E+00-4.64237E+00 1.16052E+00-1.90316E-01 3.83549E-01
 -1       227-1.09012E-01-2.03672E+00-1.76639E-01 2.50981E-01-1.22541E-01-9.98647E-02
 -1       228-1.51600E+00-2.69301E-01-7.32786E-01 1.86457E-01-6.66941E-01 4.85402E-01
 -1       229-8.48025E-01-1.06644E+00-2.50549E-01-8.37613E-01-1.03635E-01 1.32432E-01
 -1       230-3.01352E+00-1.31453E+00-1.63100E+00 7.50321E-02-1.21550E+00-1.86883E-01
 -1       231-1.51773E+00-1.09110E+00-6.85205E-01 4.45409E-01-1.51323E+00 2.60700E-02
 -1       232-2.28788E+00-2.18519E+00-1.58794E+00 1.47309E-01 1.85460E+00-3.03045E-01
 -1       233-2.39371E-01 1.75423E-01 1.37747E-01-1.09291E-01 1.56504E-01-7.34664E-02
 -1       234-2.11620E+00-4.34797E+00 3.93223E-01 7.33856E-02-3.11941E-01 5.40892E-02
 -1       235-1.42832E+00-2.10422E+00-1.86912E+00-1.86769E-01 1.50361E+00-9.25731E-01
 -1       236-1.17475E+00-2.12702E+00 1.49249E-01 1.53639E-02-4.83715E-01-1.96940E-01
 -1       237 4.94623E-01 2.21911E-01 6.35086E-01-5.95921E-01-1.07921E+00-5.14266E-01
 -1       238-1.37491E-01 2.26309E-01 9.20943E-02-4.18768E-02 1.80102E-01-1.19589E-01
 -1       239-1.09916E+00-5.88357E-01-7.75732E-02-5.59924E-01-9.67802E-01-7.29325E-01
 -1       240-1.79831E+00-4.20964E+00 1.33423E-01 7.87959E-01-2.06697E-01 6.85427E-01
 -1       241-1.11718E+01-6.10876E+00-6.18245E+00-1.39763E+00-6.08869E-01-2.09576E-01
 -1       242-1.25020E+00-1.53206E+00-4.59057E-01 1.27674E+00-4.81397E-01 6.40586E-01
 -1       243-2.03353E+00 6.01062E-01-5.34924E-01 7.86799E-01-6.98569E-01-6.45862E-01
 -1       244-2.57781E+00-1.41798E+00-4.74361E-01-1.00157E-01-7.52254E-01 2.92956E-01
 -1       245-1.01098E+00-2.20725E+00-1.58212E-01 2.44814E-02-4.25244E-01 3.84232E-01
 -1       246-5.52675E-01-1.92221E+00-1.01915E+00-3.96109E-01-4.20844E-01 5.74087E-01
 -1       247-4.21083E-01-2.10963E+00 6.93008E-02-1.01200E+00-3.47945E-01-7.66028E-02
 -1       248-6.84765E-01-1.31247E+00-7.57782E-01 5.78591E-01-2.49880E-01-4.42268E-01
 -1       249-7.84031E+00-6.80185E+00-3.60168E+00-1.14686E+00-1.77954E+00 3.85866E-01
 -1       250-2.00396E+00-1.66517E+00-8.11084E-01-9.67070E-01 1.03314E+00 9.53454E-03
 -1       251-7.85247E-01-1.56257E+00-9.78023E-03 6.21282E-01-4.20729E-01-7.49773E-02
 -1       252-4.30286E-02 2.79979E-01 3.39357E-01-3.22262E-01 3.33965E-01-2.28115E-01
 -1       253-1.03107E+00-1.94122E+00 1.74267E-02 3.81077E-01-3.18312E-01 1.27064E-01
 -1       254-2.07042E+00-3.41518E+00 2.42810E-01 8.19316E-01-2.13934E-01-1.46343E-01
 -1       255-1.47516E+00-2.63398E+00-2.15748E-01 7.27630E-01 2.19433E-01 5.02062E-01
 -1       256-8.71084E+00-5.47512E+00-5.53560E+00-7.38551E-01-1.45653E+00 8.25593E-02
 -1       257 4.90017E-02 3.45597E-01 4.25471E-01-3.40646E-01 4.92514E-01-2.03916E-01
 -1       258-1.26546E+00-1.90393E+00-1.17873E+00-3.02784E-01 1.39682E+00-9.23079E-02
 -1       259-1.45598E+00-3.65035E-01 1.90130E-01-7.36415E-01-1.34516E+00-4.94227E-01
 -1       260-1.15645E-01-2.31352E+00-2.85849E-01-2.63929E-01-4.70139E-01-1.81220E-01
 -1       261-7.99349E-01 3.56212E-02 1.83339E-01-1.06640E+00-1.44469E+00 4.18395E-01
 -1       262-1.92739E+00-9.64557E-01 5.94189E-01-6.29618E-01-6.71520E-01 2.17601E-01
 -1       263-7.27709E-01-7.30900E-01-1.65804E-01 6.73369E-01-2.32407E-01 1.14789E-01
 -1       264-6.48494E+00-4.34233E+00-4.83136E+00-2.13385E+00 5.58268E-01 3.30237E-01
 -1       265-1.38039E+00-9.24446E-01-9.95909E-01 6.70529E-01 4.61570E-01 4.92458E-01
 -1       266-7.92138E-02-1.19045E+00-1.58666E-01 1.91529E-01-2.46345E-01 1.11828E-01
 -1       267-1.82597E+00-1.36104E+00-7.07185E-01-7.43402E-01 2.52963E-01-8.36377E-01
 -1       268-2.53517E+00-2.88653E+00 1.10949E-01 1.00630E+00 6.50791E-02 1.90878E-01
 -1       269-1.60023E+00-1.88893E+00-6.02589E-02 1.06014E+00-4.01076E-01-1.61317E-01
 -1       270-1.72274E+00-1.42139E+00 1.29301E-01 4.63713E-01-1.72832E-01 2.95999E-01
 -1       271-1.18398E+00-1.21296E+00-1.83207E-01 5.35362E-01-3.64734E-01 6.17582E-03
 -1       272-4.35939E-01-1.56829E-01-8.97034E-02-1.91480E-01 8.23220E-02 2.85691E-01
 -1       273-1.27638E+01-1.08189E+01-5.74493E+00-1.98132E+00-1.62914E+00 1.94563E+00
 -1       274-1.65983E+00-9.42492E-01-1.03652E+00-2.72825E-02 4.18362E-01-1.08244E+00
 -1       275-2.28287E-01-5.69694E-03 1.35291E-01-2.17635E-01 6.83363E-02-5.17150E-02
 -1       276-1.69795E+00-1.24242E+00 4.90549E-02-6.70867E-01-4.90965E-01 2.61246E-01
 -1       277-8.99841E-01-3.82527E-01-1.01308E-01-5.08393E-01-6.81262E-01 8.49584E-01
 -1       278-1.00075E+00-3.46987E-01-4.19177E-01 3.82459E-01-3.26403E-01 1.04919E-01
 -1       279-1.75469E+00-7.40962E-01 1.75567E-01-5.84402E-01-4.95378E-01 4.35410E-01
 -1       280-3.00010E-01-1.49669E+00-1.68532E-01 5.64989E-01-7.34958E-02-9.18547E-02
 -1       281-1.93824E+00-1.82475E-01-2.79702E-01 3.71780E-01 9.65622E-02 3.22805E-01
 -1       282-4.13055E-01-1.22141E+00-3.49956E-01 5.29483E-01-3.43407E-02 2.67963E-01
 -1       283-5.68460E+00-5.86619E+00-5.62177E+00-2.10184E+00-7.25728E-02 2.61437E-01
 -1       284-9.60576E-01-2.13173E+00-1.15549E+00-2.26952E-01 5.43925E-01-1.20889E+00
 -1       285-3.50490E+00-1.90350E+00 2.69957E-01 4.80043E-01 1.51671E-01 4.76117E-01
 -1       286-3.55579E+00-1.59511E+00-1.34962E-01 7.98167E-01-4.30651E-01-9.02905E-03
 -1       287 6.96876E-02-2.92403E-01 5.99786E-02-9.07874E-02-1.77777E-02-8.28256E-02
 -1       288 1.56269E-01-2.06055E-01 1.22348E-01-3.45156E-02 1.02310E-01-1.50369E-01
 -1       289-2.39923E+00-1.29009E+00 1.53417E-01 5.01369E-01 6.45717E-02 3.70729E-01
 -1       290-1.90544E+00-5.54368E-01 1.38371E-02 5.85486E-01-1.44514E-01 1.39104E-01
 -1       291 1.45984E+00-1.23497E+00 3.87054E-01-9.14874E-01-8.85181E-02 8.33372E-01
 -1       292-6.91287E-01-1.34196E+00-5.53475E-01 7.40471E-02-6.69051E-01 3.46498E-01
 -1       293-6.46442E-01-1.33590E+00-2.23560E-01-7.61768E-01-6.27133E-01 1.11524E+00
 -1       294-1.55400E+00-1.36490E+00-8.23565E-01 2.93523E-01 8.52325E-01-1.15032E+00
 -1       295-3.81323E-01-3.11030E+00 7.19501E-01-5.47801E-01-6.15453E-01 9.69804E-01
 -1       296-2.38368E+00-1.66871E-01-2.68302E-01-4.08993E-01 2.05534E-01 3.59114E-01
 -1       297-9.10247E-01-1.00346E+00-4.03944E-01 7.74046E-01 1.96879E-01 1.86367E-01
 -1       298-9.06195E-01-1.26110E+00-4.96199E-01 8.53200E-01-3.76577E-01-1.00525E-01
 -1       299-1.37082E+00 8.96549E-02 1.54297E-01 9.38827E-02 1.23604E-01 2.83282E-01
 -1       300-2.33827E+00-3.32539E+00-9.64774E-01-6.29525E-01-3.29266E-01 1.30087E+00
 -1       301 4.90766E+00 7.28174E-02-5.25439E+00 3.43219E-01 1.23994E+00-4.28172E-01
 -1       302 1.32070E+00-1.95922E-02 7.29565E-01 3.45194E+00 3.90470E-01-5.86849E+00
 -1       303 5.19344E+00 2.54056E+00 2.71672E+00-2.16795E+00 3.13869E-01-4.19957E+00
 -1       304 4.15098E+00 6.13285E+00 1.94355E+00 4.04051E+00 2.93079E+00 1.11820E+00
 -1       305 9.87333E-01-7.27545E-01 3.66012E+00 4.88024E-01 3.73208E+00 2.08336E-01
 -1       306 2.06088E+00 2.86424E+00 1.74461E+00 1.47686E+00-2.63230E+00-3.99648E+00
 -1       307 4.03894E+00 8.79922E+00 2.02402E+00 2.87416E+00 8.88870E-01-7.25462E-01
 -1       308 4.56495E+00 2.22777E+00-4.07545E-01 8.74355E-01 4.97666E-01 5.35805E+00
 -1       309-3.70929E+00-6.34311E-01 5.01600E+00-1.48563E+00-4.79036E-01-3.28490E-01
 -1       310 4.28023E+00 9.46869E-01 1.50258E+00-6.13389E+00 7.65229E+00-1.22221E+00
 -1       311 2.05301E+00 3.72580E-02-4.13721E+00-1.19431E+00-4.22383E-01 2.03769E+00
 -1       312-4.03184E+00-6.30681E-01 6.69879E-01-4.40615E-01 7.72569E-01 6.02651E+00
 -1       313 6.46162E+00 6.88083E+00 2.28099E+00-4.87843E+00-1.76091E+00-5.41945E-01
 -1       314-5.91891E+00-2.25135E+00-9.19880E-01-1.44482E+00 3.66904E+00 6.04019E+00
 -1       315-1.31972E+00 5.87428E-01 3.31124E+00 1.09929E+00-1.06336E+00-1.26389E+00
 -1       316-1.10592E+00-1.51507E-01 3.54875E+00 1.72541E+00-3.15415E+00-8.97355E-01
 -1       317-2.74903E+00-1.77245E+01-6.43094E+00 1.02431E-01-7.53632E+00-2.95173E+00
 -1       318-1.89353E+00-4.68601E+00 1.34386E+00 1.54666E+00-1.12572E+00 5.86855E-01
 -1       319-2.12104E+00-8.45360E-01 1.77304E+00 1.48133E+00 8.63786E-02 1.12463E+00
 -1       320-7.99348E+00-4.43364E+00-1.56921E-01-2.62817E+00-2.12929E+00-2.13027E+00
 -1       321-8.65702E+00 9.59129E-01-1.60149E+00 2.02625E-01 4.09820E+00-6.25647E+00
 -1       322-2.94928E+00-2.26481E+00-1.30250E+00 1.70937E+00 2.51640E+00-4.81150E+00
 -1       323-4.93986E+00 6.46946E-01-6.22591E-01-1.94343E+00 4.43376E-01-1.59060E+00
 -1       324 0.00000E+00 0.00000E+00 0.00000E+00 0.00000E+00 0.00000E+00 0.00000E+00
 -1       325-6.79306E+00-1.44124E+00-2.09157E+00-3.31703E+00 4.14112E+00 3.14677E+00
 -1       326 0.00000E+00 0.00000E+00 0.00000E+00 0.00000E+00 0.00000E+00 0.00000E+00
 -1       327 8.08601E+00 1.31507E+01 6.97846E+00 5.84694E+00 1.38336E+00 1.42216E+00
 -1       328-5.98136E+00 5.53316E+00 7.22534E-01-2.94443E+00 4.04160E+00 3.02206E+00
 -1       329 1.88307E+00-1.72047E+00-1.09910E+00-2.19036E-01 3.59175E+00-3.72288E+00
 -1       330-1.29729E+00-2.79750E+00-1.24754E+00-7.75333E-02-6.88940E-02-1.46320E+00
 -1       331-2.32371E+00-3.55229E+00-1.15774E+00-6.98055E-01 4.72242E-01-1.55956E+00
 -1       332-5.17662E-01-3.39631E-01 1.19890E+00 3.72960E-01-9.80505E-01-1.40135E+00
 -1       333-8.94423E-01-2.43595E-01-2.34101E-01 1.31358E-01-9.01756E-01-1.57214E+00
 -1       334-4.01678E-01-1.02282E+00-9.89211E-01-5.70550E-02 7.30251E-01-5.18061E-01
 -1       335-7.15573E-01 2.73317E-01 6.11466E-01-1.25300E-01 1.30118E+00-1.19688E+00
 -1       336-2.75517E+00-2.95051E+00-1.06097E+00-8.56154E-01 1.36794E+00-5.45841E-01
 -1       337 9.35280E+00 9.67690E+00 5.70891E+00-3.80658E+00 7.46848E+00-7.49658E+00
 -1       338-1.91952E+00-4.91849E-01 4.25025E-01-3.04268E-01 1.61262E+00-9.02982E-01
 -1       339-2.93238E+00 6.62318E+00 8.32269E-01-2.79103E+00 4.26067E+00-5.97454E+00
 -1       340 6.59888E+00 1.87719E+00 2.46963E+00-3.25715E-01 8.98867E-01-4.79866E+00
 -1       341-1.76046E+00-3.53594E-01-7.43499E-02-3.66442E-02 8.50088E-01-2.15005E+00
 -1       342-2.33498E+00-1.80024E+00-2.79420E+00-1.99454E-01 7.11414E-01-1.29912E+00
 -1       343-3.35566E+00-1.49834E+00-1.70395E+00 3.26859E-01-1.51476E+00-4.69792E-01
 -1       344-3.68817E+00-4.48262E+00-7.06365E-01 1.78031E+00-1.65341E+00-1.01978E+00
 -1       345-3.49994E-01-1.15632E+00-7.06555E-01 3.03948E-01-1.05686E+00 2.25330E-01
 -1       346 7.34227E-01 3.65447E-01 1.39224E+00-6.31823E-01-1.97297E+00-1.67040E+00
 -1       347 8.29941E+00-1.31303E+00 1.94984E+00 3.38924E+00-6.22647E+00-4.72436E+00
 -1       348-1.89653E-01-2.13114E-01 7.96332E-01-2.81575E-01-2.32873E-01-1.71203E+00
 -1       349 4.06307E-01-1.01846E+00-6.14471E-01 2.69827E-01 7.19166E-02-2.01008E+00
 -1       350 1.07666E+01 3.74109E+00 5.21614E+00 5.49651E+00 2.69689E-01-4.99309E+00
 -1       351-2.76906E+00-7.71759E+00-2.29099E+00 9.75844E-01-1.27955E+00-2.05732E-02
 -1       352-6.66453E-01-1.14787E+00-5.42874E-01-1.60187E-01 7.63244E-01-1.53298E-01
 -1       353-9.80853E+00-1.07970E+01-8.92076E+00 1.69517E+00 4.75004E-01-1.56241E-01
 -1       354-3.60662E+00-1.08515E+01-3.35908E+00-4.33735E-03-9.12761E-01-6.32389E-03
 -1       355-4.79219E-02-2.66224E+00-5.36037E-02 2.71881E-01-3.85258E-01-6.33200E-01
 -1       356-1.33901E+00-1.84473E+00-1.49710E+00 2.80371E-01 6.79927E-01-8.60449E-01
 -1       357-2.94573E+00-2.53209E+00-1.54328E+00-1.05442E+00 1.31816E+00-8.14889E-01
 -1       358-3.46077E+00-6.98300E+00-5.97536E+00-9.96594E-01 9.40830E-02 2.53341E-01
 -1       359-1.21809E+01-1.20918E+01-6.64055E+00-3.11370E-01 7.11079E-01 6.54814E-01
 -1       360-7.87168E+00-8.69990E+00-5.59446E+00-2.49665E+00 1.91521E+00-1.13350E+00
 -1       361-1.35073E+01-9.47345E+00-6.84057E+00-2.28072E+00 2.41954E-01 6.77886E-01
 -1       362-3.89079E+00-1.11581E+00 1.23313E-01-1.15638E+00 8.36189E-01-1.06595E+00
 -1       363-9.26726E+00-3.43855E+00-4.95425E+00-2.04503E+00-6.89714E-01-2.00015E-01
 -1       364-9.88708E+00-3.84464E+00-4.29414E+00-3.01818E-01 2.53497E-02-1.29572E+00
 -1       365-1.94749E+01-1.19495E+01-6.89093E+00 3.93949E+00-4.47578E-01 3.82670E-01
 -1       366-8.55264E-01 5.28009E-01-9.73822E-01 6.03319E-02-1.09692E+00 2.89217E-01
 -1       367-1.74542E+01-1.19163E+01-6.63182E+00 2.75284E-01 3.97809E-01-4.09509E-01
 -1       368-1.94790E+00-5.48607E-01-5.30320E-01 3.61191E-01-7.90895E-01 2.97188E-02
 -1       369-7.27151E+00-4.62649E+00-4.29248E+00 1.88172E+00 1.31180E-01-5.05988E-01
 -1       370-3.70849E+00-2.93044E+00-3.63075E+00 1.67269E+00-6.59872E-01-4.21235E-01
 -1       371-7.85394E+00-5.15210E+00-5.67606E+00 2.01780E+00 3.26761E-01-7.56299E-02
 -1       372-1.25758E+01-2.33056E+01-6.94747E+00 1.22848E-01 7.73301E-01-5.40493E-01
 -1       373-1.25296E+01-9.99536E+00-4.79970E+00-3.32390E+00-4.24522E-01-6.43665E-01
 -1       374-4.84604E+00-8.33849E+00-3.04402E+00-3.11413E-01 4.10693E-01-1.02208E+00
 -1       375-3.37781E+00-6.96542E+00-5.05355E+00 1.23671E+00-2.43620E-01-7.48871E-02
 -1       376-1.36284E+00-3.70318E+00-5.02925E-01 1.35136E+00 1.17773E-01-1.10871E+00
 -1       377-5.12550E-01-4.08933E+00 6.64399E-01 1.61172E-01-3.67956E-01-7.77038E-01
 -1       378-3.17803E+00-7.87412E-01-3.90402E+00 9.44836E-02 1.50492E-01 4.25278E-02
 -1       379-9.14511E+00-4.52936E+00-5.77406E+00 9.62453E-01 1.79280E+00 9.70872E-01
 -1       380-1.02604E+01-4.75488E+00-3.95352E+00-2.08389E+00-8.30343E-01-2.05571E-02
 -1       381-6.63199E+00-1.27744E+00-3.82805E+00 1.37321E+00 6.22889E-02-8.40565E-01
 -1       382-9.42465E-01-8.88096E-01-3.60604E-01 2.75127E-01 7.04888E-01 1.02261E-01
 -1       383-4.77138E+00-2.92786E+00-2.76678E+00-1.31768E+00-3.87453E-01-7.03857E-01
 -1       384-1.09600E-01-4.80221E-02 1.05000E+00-6.08301E-02-1.29604E+00 1.08355E+00
 -1       385-2.04229E+00-1.63989E+00-1.24563E+00-4.90665E-01-9.70896E-01 4.88728E-01
 -1       386-5.40858E-01 7.11930E-01-1.17351E-01-4.52802E-02-1.40316E+00 8.04229E-01
 -1       387-3.01963E+00-2.19338E+00-1.13142E+00-5.97612E-01-7.07816E-01 1.33128E+00
 -1       388-4.32150E+00-6.97810E+00-5.68737E+00-1.93355E+00-9.10282E-01 4.34724E-01
 -1       389-9.27816E+00-1.30421E+01-8.70873E+00-6.39501E-01-1.17329E+00 1.83118E+00
 -1       390-1.99540E+00-1.28426E+00-7.37125E-02 4.49174E-01 5.74785E-01 2.31604E-01
 -1       391-3.24749E+00-4.85398E+00-2.37625E+00 1.98919E+00 1.67426E-01-1.17321E-01
 -1       392-1.10062E+01-1.74545E+01-8.40552E+00 4.33372E+00-2.34868E-01-6.26521E-01
 -1       393-4.48487E-01-3.12867E+00 6.27752E-01 1.34892E+00 9.11636E-02 7.15863E-01
 -1       394 4.58738E-01-1.70371E+00 4.80807E-01-8.30237E-02-2.38353E-01 1.01063E+00
 -1       395-8.14695E+00-1.01845E+01-4.45216E+00-1.07682E-01 5.15816E-01 1.38454E+00
 -1       396-7.71854E+00-1.41787E+01-4.79651E+00-1.14749E+00-3.87420E-01 1.25572E+00
 -1       397-4.46489E+00-6.38130E+00-5.17255E+00-3.00800E+00 5.81640E-01 5.83344E-01
 -1       398-5.33552E+00-1.02986E+01-6.62677E+00-1.85210E+00-1.10231E-01 1.15752E+00
 -1       399-8.33125E-01 6.44155E-02-1.38286E-01-9.73003E-02 3.49119E-01 1.37962E+00
 -1       400-3.69628E+00-2.85471E+00-9.61084E-01 1.03126E+00 1.11175E+00 1.02170E+00
 -1       401-1.15058E+00-6.34109E-01 6.88767E-01 3.35923E-01 9.39735E-01 1.18250E+00
 -1       402-4.98248E-01 1.40091E+00 1.26658E+00 7.77831E-01 2.13896E+00 1.05877E+00
 -1       403 1.94101E+00 6.67772E+00-4.95205E+00 2.32066E+00-1.83939E+00 7.41176E-02
 -1       404-1.78735E-01-1.44780E-01 1.63713E-01-6.07840E-01 1.32848E+00 6.44143E-01
 -1       405-1.93121E+00-1.58108E+00-1.10916E+00 4.93888E-04 1.10243E+00-1.05859E-01
 -1       406-3.70075E+00-2.14619E+00-1.22651E+00-1.75391E-01 1.31250E+00 3.10879E-01
 -1       407-1.84666E-01 2.85425E-01-5.33648E-02-9.50252E-01 1.85492E+00 9.37752E-02
 -1       408-3.20391E-01-1.54219E-01 3.23893E-01-1.18716E-01 2.48087E+00 1.96785E-01
 -1       409-1.63706E+01-1.52143E+01-9.76259E+00-4.73911E-01-6.21634E-01-3.57380E-01
 -1       410-1.11113E+01-8.96315E+00-6.47606E+00 3.14816E-01 2.55293E+00-8.12655E-01
 -1       411-3.86334E+00-2.60536E+00-2.20520E+00 2.71739E-01 1.46863E+00-2.34760E-01
 -1       412 1.00434E+01 8.60693E+00 6.01732E+00-1.02499E+01 6.40818E+00-1.32179E+00
 -1       413-5.32393E-01-1.58089E-01-1.63045E-01-4.68074E-01 1.20390E+00-1.17442E+00
 -1       414 5.92774E-02 6.65106E-01 1.28122E+00-1.22432E-01 1.52386E+00-3.11555E-01
 -1       415 2.12921E+00 5.75758E+00 2.36604E+00-1.27909E+00 3.54313E+00 2.95363E-01
 -1       416 3.47719E-01-6.45148E-01 5.85509E-01 2.74189E-01-7.60619E-01 1.95342E+00
 -1       417 1.46887E-01 8.41725E-01-6.88497E-01 6.69748E-01 1.51933E+00 3.07905E+00
 -1       418 6.35081E+00 1.40310E+01 4.21905E+00 4.32755E+00 1.90113E+00-7.37033E-01
 -1       419-1.44403E+00-1.69115E+00-3.75964E+00 3.09646E-01-1.16198E+00 3.77772E+00
 -1       420 2.86843E-01 7.56696E-01 3.20122E-01 1.00250E+00 1.55144E+00 1.18328E+00
 -1       421-1.31546E+00-2.12321E+00 6.19122E-02-1.32285E-01 8.05608E-01 1.65980E+00
 -1       422-2.56670E+00-4.01334E+00-4.61412E-01 1.39178E+00 7.67695E-01 2.20712E+00
 -1       423-9.82291E-02-2.87640E-01-1.51471E-02 5.91214E-01 1.17257E+00 9.05283E-01
 -1       424-8.67959E-01-1.39592E+00-3.40506E+00-2.40193E-01-1.84401E+00 3.04745E+00
 -1       425 1.20919E+00-8.79235E-01-5.97632E-01-2.93303E-01-7.78921E-01 1.68163E+00
 -1       426 5.34094E+00 3.73382E+00-3.24192E+00-2.22706E+00 3.72408E-01 2.98673E+00
 -1       427-2.70867E+00-3.43162E+00-1.79720E+00-8.27513E-01-6.72350E-01 1.35767E+00
 -1       428-1.68172E+00-2.27110E+00-6.13318E-01-8.80765E-01-1.11976E-01 7.49475E-01
 -1       429-3.05177E+00-3.34103E+00-1.97202E+00-9.46169E-01-7.07934E-01 1.18354E+00
 -1       430-8.15191E-01-4.04008E-01 1.25671E+00-6.85241E-02-1.10674E+00 1.46074E+00
 -1       431 2.50429E+00 6.32997E+00 2.65028E+00-1.64511E+00-4.62089E+00-1.95754E-01
 -1       432 3.49143E+00 1.56689E+01 2.55143E+00-5.20080E-01-6.99583E+00 4.09497E-01
 -1       433-3.34395E+00-2.67946E+00-1.71100E+00-1.45122E+00-1.78149E+00 6.89599E-02
 -1       434-1.02259E+00 4.87264E-01 6.21300E-01-1.02254E+00-1.53859E+00 2.88016E-03
 -1       435-2.03310E+00-6.24655E-01-7.11437E-01-3.30227E-01-4.17044E-01 8.56070E-01
 -1       436-4.24922E+00-2.65097E+00-2.11120E+00-9.68863E-01-1.85366E+00 4.08849E-01
 -1       437-1.78005E-01 8.93637E-01 4.01937E-01-7.38324E-01-6.37397E-01 1.13383E+00
 -1       438 2.63113E-01 3.21221E+00-1.78041E+00-3.79483E-01-5.22641E+00-9.02751E-01
 -1       439 2.03400E+00 1.11728E+00 1.08960E+00-2.06673E+00-6.43811E+00 5.81199E-01
 -1       440-5.79128E+00-2.18649E+00-6.48047E-01 5.35707E-01-1.59382E+00 5.08627E-01
 -1       441-8.62523E+00-2.82333E+00-5.02511E+00 1.54462E+00-3.39690E-01 3.73713E-01
 -1       442 2.59889E-01 9.79938E-02 5.50316E-01 2.56756E-01-2.26763E+00 2.67043E-01
 -1       443-2.55850E+00-2.25372E+00 1.16048E-01 1.31051E+00-5.43941E-01-2.16811E-01
 -1       444 7.36004E-01-9.96059E+00-5.26863E+00 1.93574E+00-4.40324E+00-1.02053E+00
 -1       445-3.31309E+00-5.33009E+00-6.16543E+00 6.54188E-02-4.03673E+00-1.08489E+00
 -1       446-2.58167E+00-4.31598E+00-2.06569E+00 7.12221E-01 7.85967E-01 8.03443E-01
 -1       447-8.20772E+00-1.16517E+01-6.09194E+00-4.27119E-01 1.19111E+00 8.22367E-02
 -1       448 5.09273E-01-8.93296E-02 2.58342E+00 1.30451E+00 1.26858E+00 3.49512E-01
 -1       449-9.51359E+00-1.00523E+01-5.32453E+00 9.73721E-01 6.12891E-01 2.02710E+00
 -1       450-3.47278E+00-3.02690E+00-1.66555E+00 1.07289E+00 7.22599E-01 9.58596E-01
 -1       451-4.44911E+00-7.71387E+00-4.02893E+00 2.42633E+00-5.12062E-01 8.54742E-01
 -1       452-8.81233E-01-1.47633E+00-3.19462E-01 5.45188E-01 3.40469E-01 1.25650E+00
 -1       453-1.66402E+01-1.52943E+01-8.29639E+00-3.90185E-01 1.00386E+00-9.09676E-01
 -1       454-7.74949E+00-8.57026E+00-7.63137E+00-1.80024E+00-1.06927E+00 1.80890E+00
 -1       455-5.45754E+00-7.82971E+00-3.66878E+00 3.00688E+00 1.74939E-01-6.15399E-02
 -1       456-1.01808E+00-1.03748E+00 1.11050E+00-1.08425E+00-3.73405E-01 8.35274E-01
 -1       457 0.00000E+00 0.00000E+00 0.00000E+00 0.00000E+00 0.00000E+00 0.00000E+00
 -1       458 4.48865E+00 1.06100E+01 4.52958E+00 5.94746E-01 9.43030E+00 6.93123E-01
 -1       459 0.00000E+00 0.00000E+00 0.00000E+00 0.00000E+00 0.00000E+00 0.00000E+00
 -1       460 0.00000E+00 0.00000E+00 0.00000E+00 0.00000E+00 0.00000E+00 0.00000E+00
 -1       461 8.10836E+00 7.88564E+00-1.76451E-01 4.34612E+00 1.72904E+00 1.85782E+00
 -1       462 8.09373E+00-8.53355E+00-8.47409E-01 3.26482E+00-4.95564E+00-3.60200E+00
 -1       463-1.17529E+01-5.27987E+00-5.10983E+00-1.08674E+00-1.47660E+00-7.46819E+00
 -1       464 4.29943E+00 4.22577E+00 9.95067E+00 2.33346E-01-1.33599E+00 8.26381E-01
 -1       465-2.37027E+00-8.42062E+00-1.54227E+00-5.55255E-01-6.08267E+00-1.42237E+00
 -1       466 9.91344E+00 1.08696E+01 4.22234E+00-7.53743E+00-2.92881E+00-4.25524E-01
 -1       467-1.48018E+01-6.50044E+00-6.39067E+00 2.00963E+00-2.90013E+00 1.12283E+01
 -1       468-1.09589E+01-7.98179E+00-5.68221E+00 3.61520E+00-4.28503E+00 5.89904E+00
 -1       469-6.34867E+00-1.45357E+01-6.26531E+00-1.04117E+00-8.11736E+00-1.63850E+00
 -1       470 2.53004E-02 4.88572E-01 2.12849E+00-2.51869E-01-1.71706E+00-4.62525E+00
 -1       471 1.08819E+01 5.64721E+00 4.95873E+00 2.06146E+00-3.74356E+00-8.95628E+00
 -1       472-2.36774E-01-6.99859E+00-2.18931E+00-2.17246E+00-7.53184E+00 7.47772E-01
 -1       473-4.65805E+00-6.00218E+00-2.14435E+00-5.37328E-01 3.68646E-01-3.38162E+00
 -1       474-3.38967E+00-4.63826E+00-1.94619E+00-1.09916E+00-6.64298E-01-3.21746E+00
 -1       475-3.56926E+00-3.70238E+00 3.33975E-01 1.89125E-01 1.45605E-01-1.10217E+00
 -1       476-2.58963E+00-8.44353E-02 4.43948E-01-1.04957E-01-6.23083E-02-6.82020E-01
 -1       477-2.09364E+00-1.28853E+00 3.14424E-01-1.36664E-02 3.90730E-01 2.20332E-01
 -1       478-2.16072E+00-1.03209E+00 2.16671E-01 5.57758E-02-7.43033E-01 1.94014E-01
 -1       479-7.89050E-01-1.12875E+00-2.88706E-01-4.37508E-02-5.44541E-02 9.52866E-01
 -1       480-4.35967E-01-8.07706E-02-1.96870E-01 3.34192E-02-9.17630E-02 9.39653E-01
 -1       481-1.43629E-01-7.92571E-01-2.10982E-01 5.26286E-02 1.17297E-01 1.08993E-01
 -1       482 2.90323E-01-8.69461E-01-7.40368E-02-4.66187E-02-2.11522E-01-5.77791E-02
 -1       483-1.96869E+00-4.09627E+00-3.68603E-01-6.53060E-01-7.41449E-01 1.02829E+00
 -1       484-2.43952E+00-2.24448E+00 6.05669E-01 2.31833E-01-2.43011E-01 3.67804E-01
 -1       485-2.06396E+00-1.81733E+00 4.24266E-01-3.31877E-02-3.42101E-01 5.60121E-01
 -1       486-1.38760E+00-1.76324E+00-1.35506E+00 3.46069E-01-3.23656E-01 1.19582E+00
 -1       487-1.00470E+00-2.80772E-01-7.26615E-01 2.16555E-01 2.11965E-01 1.20206E+00
 -1       488-1.76722E+00-2.05238E+00 5.39103E-01 5.11188E-02 5.19892E-01 4.66433E-01
 -1       489-2.62252E+00-1.71746E+00 6.51022E-01 1.03239E-01 5.90948E-01 1.47634E-01
 -1       490-4.84480E-01-2.10372E+00 4.87651E-01-3.38063E-01-4.28858E-01 1.15498E+00
 -1       491-3.02386E+00-3.94228E+00-1.61072E+00 4.07800E-02-2.44957E+00-3.73401E-01
 -1       492-2.63919E+00-3.28358E+00-1.35904E+00-2.80561E-01 2.12767E+00-2.17393E-01
 -1       493-2.33302E+00-2.01305E+00-7.84273E-01-1.27830E-01-1.31923E+00 6.74491E-01
 -1       494-1.97212E+00-2.85168E+00-1.10698E+00 6.32191E-02 2.36137E+00 5.20493E-01
 -1       495-1.37826E+00-2.58119E+00-1.06904E+00-2.11627E-02-4.80509E-01 4.91546E-01
 -1       496-4.90183E-01-8.82664E-01-1.76254E-01-2.59985E-01 4.50840E-01 1.92674E-01
 -1       497-8.05726E+00-9.92697E+00-4.88102E+00 2.24704E-01-4.05006E-01-4.95172E+00
 -1       498-3.71870E+00-4.20725E+00-8.53909E-01 4.64497E-02-1.44557E+00-2.44710E+00
 -1       499-8.84664E-01-1.57090E+00-3.02264E-01 4.43591E-01 3.80209E-01 8.42391E-01
 -1       500-8.83165E-01-1.15423E+00 1.12350E-01-9.98456E-02 5.63309E-01 1.10798E+00
 -1       501-2.01256E+00-1.26618E+00 3.26646E-01-2.92629E-01-3.08146E-01 5.16263E-01
 -1       502-1.81139E+00-1.30463E+00 7.69975E-02-3.69917E-01 8.72776E-01 1.11347E-01
 -1       503-3.63063E+00-3.35547E+00 6.06149E-01-7.99490E-01-6.69134E-01-1.02442E+00
 -1       504-3.70580E+00-3.72479E+00 3.15952E-01-4.53760E-01-4.75951E-01-1.09515E+00
 -1       505 1.73887E-01-8.58483E-01-9.33372E-02 5.55743E-01-3.09395E-02-2.36609E-01
 -1       506 4.26349E-01-7.01897E-02 2.25633E-01 2.71681E-01-2.97106E-01-3.44921E-01
 -1       507-3.05476E-01-2.02701E+00 8.76346E-01-1.13484E-01 2.32341E-01 1.33217E+00
 -1       508-2.61850E+00-2.73881E+00 4.31987E-02 1.12138E-02-8.56059E-01 3.98959E-01
 -1       509-1.85618E+00-1.95267E+00 4.13779E-01-2.60431E-01-4.02390E-01 6.27428E-01
 -1       510-1.34686E+00-1.01275E+00-2.45066E-01 5.05897E-01-8.58190E-02 9.71085E-01
 -1       511-1.00331E+00-1.21891E+00-4.66391E-01 1.97477E-01 8.44430E-01 8.49784E-01
 -1       512-1.81656E+00-2.07528E+00 4.13301E-01 2.45989E-02 2.17618E-01 5.11252E-01
 -1       513-2.53066E+00-2.26920E+00 8.84712E-01-1.76457E-01 5.32908E-01 2.92805E-01
 -1       514-4.71066E-01-9.25035E-01 8.12398E-01 1.99682E-02 1.10144E+00 1.10133E+00
 -1       515-2.07180E+00-1.47059E+00-2.95596E+00-5.52303E-01-2.13616E+00 3.11857E-01
 -1       516-2.56884E+00-3.32624E+00-1.12402E+00 1.70053E-01 2.31182E+00-8.66567E-01
 -1       517-2.09892E+00-2.64515E+00-1.20039E+00-1.14981E-01-1.53652E+00 1.08379E+00
 -1       518-2.51795E+00-2.27235E+00-1.46768E+00 2.67672E-01 2.09464E+00 2.22156E-01
 -1       519-1.93209E+00-4.22306E+00-3.98593E-01 4.33854E-01-5.44637E-01 9.02253E-01
 -1       520-1.91454E+00-2.89742E+00-9.25283E-01 8.15615E-01 6.91948E-01 7.35698E-01
 -1       521-5.58500E+00-6.41929E+00-2.82797E+00 8.28924E-01-2.29903E+00-2.79182E+00
 -1       522-2.49743E+00-3.08888E+00-1.48921E+00-4.96300E-01-2.23923E+00-1.18785E+00
 -1       523-9.85611E-01-1.07703E+00-3.54386E-01 2.58762E-01 8.19037E-01 5.28204E-01
 -1       524-6.74535E-01-1.26709E+00-5.93571E-02-1.50769E-01 9.43499E-01 8.21610E-01
 -1       525-1.65553E+00-1.60277E+00 1.91878E-01-4.27031E-01-1.32213E-01 3.82829E-01
 -1       526-1.05262E+00-1.22062E+00 2.84180E-01-6.02681E-01 5.88562E-01-1.30775E-01
 -1       527-3.98818E+00-3.40820E+00 5.13281E-01 8.44215E-03-1.23844E+00-7.03972E-01
 -1       528-2.91613E+00-2.77990E+00 8.49365E-01-1.29528E+00-6.20666E-01-8.73252E-01
 -1       529-7.17198E-02 8.15165E-01 1.56835E-02 7.70022E-01-3.08873E-01-1.34303E-01
 -1       530-4.99409E-01 8.16057E-01-1.09834E-01 5.54717E-01-5.99063E-01 2.40257E-01
 -1       531-4.63216E+00-6.57995E+00-1.31831E+00 2.73172E+00 9.32212E-01 1.02204E+00
 -1       532-2.46377E+00-2.30027E+00 5.41215E-01-2.58090E-01 3.17342E-02 5.69227E-01
 -1       533-1.64164E+00-1.77345E+00 4.06070E-01-1.90968E-01 1.07313E-01 6.54441E-01
 -1       534-8.83666E-01-8.20243E-01 1.81551E-01-1.05427E-01 5.16096E-01 1.21603E+00
 -1       535-6.92269E-01-1.91143E+00 1.61522E-01 1.39131E-01 6.90038E-01 1.32564E+00
 -1       536-1.76525E+00-1.64185E+00 5.06436E-01-6.26146E-02 5.36887E-01 1.37154E-01
 -1       537-2.13559E+00-2.13477E+00-1.32236E-01-1.52740E-01 6.53297E-01-2.96622E-01
 -1       538-5.28638E-01-1.02682E+00 6.73274E-01 1.35331E-03 1.18469E+00 2.06025E-01
 -1       539-2.64647E+00-3.24945E+00-1.41103E+00 6.85549E-01-2.19178E+00 1.84527E+00
 -1       540-1.17639E+00-1.65418E+00-1.23537E+00-7.37532E-01 6.26005E-01-7.82890E-01
 -1       541-1.94019E+00-2.45984E+00-9.38022E-01 7.63198E-02-8.49520E-01 1.24862E+00
 -1       542-2.24843E+00-1.60878E+00-7.92942E-01-7.50874E-02 1.37786E+00-3.36839E-01
 -1       543-1.56536E+00-2.54793E+00-3.20508E-01 5.73468E-01 8.08423E-02 9.19167E-01
 -1       544-2.22880E+00-1.52047E+00-5.51613E-01 3.39184E-01 6.64359E-01 9.62198E-02
 -1       545-5.95047E+00-3.87339E+00-2.57636E+00-3.54859E-01-2.83581E+00-3.05678E+00
 -1       546-5.14753E+00-3.90555E+00-1.89864E+00 4.67260E-01-2.86087E+00-1.48371E+00
 -1       547-1.31380E+00-1.73206E+00 2.82846E-01-3.93012E-01 4.10430E-01-1.63426E-01
 -1       548-1.50522E+00-8.60024E-01-3.08079E-01 5.01755E-01 6.50593E-01 4.71472E-01
 -1       549-7.41817E-01-8.23647E-01 1.52912E-01 2.09484E-01 8.86926E-01 3.00954E-01
 -1       550-3.24202E+00-3.38309E+00 6.91133E-01-2.80087E-01-9.93906E-01-6.00070E-01
 -1       551-3.61870E+00-3.60332E+00 1.24274E-01-3.15746E-01-6.65423E-01-5.59723E-01
 -1       552-9.79440E-01-1.38464E+00-4.61957E-02-4.53092E-01 4.68910E-02 7.99118E-01
 -1       553-5.34665E-01 5.54245E-01-5.94778E-01 2.21726E-01-2.68498E-01 5.64913E-01
 -1       554-9.53234E-01 3.91108E-01-4.73745E-02 6.58487E-01-1.94565E-01 5.58617E-03
 -1       555-2.21720E+00-2.19155E+00 6.83004E-01-1.59864E-01 1.78514E-01 6.46618E-01
 -1       556 4.31487E-01-6.45085E-01 1.73145E+00 6.34464E-01 1.07126E+00 1.06980E+00
 -1       557-1.91257E+00-1.63899E+00-1.58129E-02-9.92551E-02 4.63958E-01 6.03123E-01
 -1       558-1.25875E+00-1.02066E+00 2.62747E-01 1.53197E-01 8.61281E-01 2.71644E-01
 -1       559-7.64184E-01-8.13520E-01 3.49029E-01 6.50028E-01 1.29347E+00-1.60068E-01
 -1       560-1.42763E+00-1.43344E+00 1.32943E-01-4.37153E-01 5.81477E-01-6.15181E-02
 -1       561-2.00738E+00-2.43579E+00 5.92659E-01-1.30533E-01 4.91799E-01-4.86368E-01
 -1       562-6.78877E+00-2.84009E+00 9.50286E-01 8.00352E-01 7.55038E-01-1.86251E-01
 -1       563-2.72890E+00-2.04353E+00-1.16795E+00-6.98725E-02-1.06760E+00 2.30098E+00
 -1       564-4.14834E+00-2.92422E+00-1.85714E+00 6.31902E-01 1.06950E+00-2.59804E+00
 -1       565-6.55350E-01-1.37135E+00-1.08694E+00-2.60035E-01 4.44369E-01 6.75154E-01
 -1       566-2.27848E+00-1.79981E+00-9.56078E-01-2.80715E-01 9.53179E-01-6.57259E-01
 -1       567-2.53318E+00-2.12034E+00-6.63134E-01 6.20966E-01 3.59149E-01 8.10964E-01
 -1       568-2.19725E+00-9.89096E-01 1.97190E-01 2.30017E-01 7.72670E-01 1.84823E-01
 -1       569-3.10977E+00-4.06704E+00-3.03616E+00-9.50777E-01-2.99678E+00-1.79271E+00
 -1       570-5.84556E+00-4.77335E+00-2.62191E+00-4.34840E-01-3.20861E+00-5.12386E-01
 -1       571-1.44758E+00-2.09924E+00 1.18567E-01 8.55892E-02 3.32427E-01-6.57555E-01
 -1       572-1.33776E+00-6.51882E-01-6.81052E-02 4.50274E-02 1.04687E+00 9.34696E-02
 -1       573-1.10630E+00-4.28736E-01-3.59970E-01 3.12495E-02 7.59137E-01-9.79159E-02
 -1       574-3.30177E+00-3.73717E+00 9.12543E-01 1.02568E-01-1.24214E+00 7.81869E-02
 -1       575-3.11663E+00-3.96205E+00-9.70724E-02 1.77436E-02-1.37598E+00-2.64815E-01
 -1       576-1.49514E+00-2.17062E+00 2.36809E-01-9.89790E-03 4.01267E-01 6.46313E-01
 -1       577-6.33528E-01 5.47975E-01-1.87665E-01-1.54038E-02-2.69611E-01-3.57414E-02
 -1       578-3.34208E-01 4.11210E-01 3.10337E-01-1.34190E-01-5.49130E-01-4.52032E-03
 -1       579-2.71458E+00-2.92479E+00 8.11314E-01-2.36993E-02 3.90286E-01 7.91003E-01
 -1       580-2.06775E+00-5.39258E-01 7.29166E-02 4.49360E-01 6.13715E-01 2.98411E-02
 -1       581-2.15209E+00-1.77551E+00 7.86385E-01 1.81402E-01 4.62566E-01 3.76705E-01
 -1       582-1.32366E+00-5.90836E-01-4.69158E-01-3.20504E-01 1.27795E+00 7.37159E-01
 -1       583-1.10834E+00-6.66956E-01-4.94433E-02-8.83574E-02 1.51454E+00 6.75420E-01
 -1       584-1.88919E+00-1.77548E+00 7.17739E-01-3.79193E-02 6.94326E-01-3.87945E-01
 -1       585-2.92593E+00-1.97414E+00 1.22236E+00 1.06801E-01 6.14876E-01-3.75604E-01
 -1       586-4.34042E+00-8.20421E-01 5.91325E-01-3.32137E-01 4.25615E-01-8.63695E-01
 -1       587-2.78765E+00-2.20560E+00-7.94893E-01-1.28591E-01-2.86603E-02 2.20853E+00
 -1       588-4.11540E+00-2.86159E+00-1.52772E+00 8.61723E-02 1.68518E-01-3.43428E+00
 -1       589-2.13214E+00-2.18755E+00-8.47848E-01 2.55307E-01 4.64041E-01 1.60297E+00
 -1       590-2.39264E+00-2.09085E+00-9.64945E-01-2.85001E-01 8.11967E-01-1.42192E+00
 -1       591-2.31718E+00-1.49323E+00-8.20086E-01 2.55337E-01 6.79226E-01 4.03064E-01
 -1       592-3.47833E+00-1.66300E+00-1.20966E+00-4.12743E-01 9.68495E-01-2.14864E-01
 -1       593-4.86485E+00-4.92344E+00-2.11167E+00-9.01813E-01-3.31794E+00 6.82246E-02
 -1       594-4.67704E+00-4.89175E+00-3.28582E+00-1.09972E+00-3.26842E+00 7.13152E-01
 -1       595-1.42913E+00-9.01238E-01-1.85265E-01-3.34059E-01 7.90205E-01-3.20647E-01
 -1       596-1.08479E+00-1.54813E+00 5.37236E-02 8.77989E-02 3.07173E-01 5.41235E-01
 -1       597-3.80669E+00-4.01115E+00 5.40776E-01 1.49766E-02-1.22885E+00 1.83509E-01
 -1       598-8.80505E-01-2.85972E-01-2.18318E-01-3.12606E-01 6.00418E-01-1.14659E-02
 -1       599-1.04552E+00-1.81843E+00 2.62737E-01 2.75013E-01 2.87933E-01-6.13443E-01
 -1       600-2.52743E+00-3.99004E+00 7.36654E-01 5.25159E-01-9.55997E-01 4.66727E-01
 -1       601-3.93015E-01 3.36333E-01-2.04004E-01-2.46103E-01-9.00916E-02 5.45104E-01
 -1       602-9.45178E-01 1.46672E-01 5.72798E-03-3.86126E-01-7.86795E-02 2.04194E-01
 -1       603-1.80691E+00-2.19317E+00 5.15891E-01 3.14422E-02 4.57768E-01 3.84827E-01
 -1       604-4.04700E+00-1.57552E+00-5.59392E-01 2.82702E-01 1.12052E+00-7.37157E-01
 -1       605-1.58174E+00-1.53702E+00 2.35489E-01 5.38227E-02 5.83752E-01 3.64769E-01
 -1       606-7.09230E-01-5.72345E-01 1.41685E-01-3.66284E-01 1.03119E+00-2.59549E-01
 -1       607-1.18018E+00-1.04393E+00-4.86001E-01-1.56202E-01 1.12793E+00-6.90160E-01
 -1       608-1.73929E+00-1.81283E+00 9.61990E-02-4.31883E-02 4.78060E-01-5.08935E-01
 -1       609-2.62099E+00-2.41470E+00 8.34285E-01-1.23426E-01 4.39428E-01-6.61476E-01
 -1       610-3.17072E+00-9.45981E-01 8.20268E-03-5.13950E-01 1.24384E+00-7.45209E-01
 -1       611-4.66041E+00-2.84461E+00-2.19769E+00-1.72120E-01 4.32444E-01 3.21111E+00
 -1       612-3.58712E+00-2.19421E+00-1.24503E+00-1.05690E-01-5.55364E-01-2.53786E+00
 -1       613-3.00510E+00-1.72128E+00-1.33605E+00-2.27733E-02 8.44321E-01 1.61961E+00
 -1       614-4.49387E-01-1.88606E+00-9.56671E-01 2.43978E-01 5.45227E-01-6.40300E-01
 -1       615-3.73601E+00-1.44742E+00-9.48891E-01-2.41913E-01 6.06494E-01 6.27402E-01
 -1       616-2.53617E+00-1.78535E+00-8.40302E-01-6.97951E-01 7.12305E-01-9.26080E-01
 -1       617-3.80376E+00-6.23025E+00-1.45548E+00-9.19747E-01-2.84049E+00 1.41226E+00
 -1       618-5.72469E+00-7.61731E+00-4.50730E+00-1.17893E+00-2.65100E+00 2.50176E+00
 -1       619-1.26484E+00-8.00866E-01-2.46243E-02-5.82393E-02 8.30092E-01-5.95860E-01
 -1       620-1.15442E+00-5.20650E-01-2.29281E-01-2.84721E-01 5.61681E-01-6.71067E-01
 -1       621-1.51821E+00-1.65705E+00 2.22678E-01 3.55527E-01 7.04258E-01 1.79886E-01
 -1       622-1.45510E+00-1.31794E+00 2.73689E-01 4.57442E-01-2.39901E-01-4.76744E-01
 -1       623-3.75522E+00-3.88318E+00 6.81273E-01 1.41740E-01-4.73052E-01 8.26313E-01
 -1       624-2.72089E+00-3.26909E+00 9.74781E-01 6.99512E-01-6.78710E-01 6.09257E-01
 -1       625-6.70810E-01-2.90411E-01 4.86213E-01-3.60181E-01-3.50603E-01 6.31211E-03
 -1       626-7.51512E-01-2.52648E-01-3.30875E-01-4.83584E-01-2.26345E-01-2.01943E-01
 -1       627-2.56602E+00-2.53524E+00 3.17104E-01 3.16731E-01 6.25937E-01 2.20406E-01
 -1       628-5.84698E+00-3.50988E+00-7.44322E-01-1.83057E+00 1.48271E+00-1.28619E+00
 -1       629-2.11097E+00-1.68919E+00 5.17172E-01-1.25427E-01 5.44778E-01 1.19410E-01
 -1       630-1.73603E+00-9.52727E-01 4.27168E-01-5.06610E-01 1.33383E+00-7.63190E-01
 -1       631-5.20208E-01-6.81612E-01-3.70539E-01 3.88884E-01 1.15162E+00-8.59243E-01
 -1       632-1.94487E+00-1.80492E+00 4.03886E-01-9.06884E-02 1.13778E-01-6.84515E-01
 -1       633-2.47387E+00-2.29330E+00 1.16634E-01-1.96303E-01-3.15716E-01-6.54297E-01
 -1       634-2.16792E+00-2.79936E+00-2.56231E-01-1.49907E+00 4.57339E-01-1.14218E+00
 -1       635-2.37727E+00-2.90288E+00-8.69725E-01-3.23260E-01 1.29992E+00 1.26664E+00
 -1       636-1.69358E+00-1.63875E+00-1.62641E+00 8.29343E-01-1.03935E+00-7.35268E-01
 -1       637-3.09468E+00-2.14744E+00-1.09853E+00-4.60430E-01 1.75727E+00 1.18141E+00
 -1       638-2.35301E+00-2.50528E+00-1.84246E+00-9.68574E-02-6.83584E-01-2.24828E+00
 -1       639-3.30411E+00-2.37405E+00-1.52007E+00-8.74106E-01 5.38165E-01-3.78009E-01
 -1       640-1.29113E+00-1.52538E+00-1.47849E+00-3.84203E-01 5.04149E-01-5.68005E-01
 -1       641-4.70319E+00-5.08411E+00-2.66169E+00 1.39101E-01-2.14526E+00 2.89467E+00
 -1       642-3.79909E+00-3.40139E+00-4.31236E+00 1.39933E+00-3.14237E+00 2.36178E+00
 -1       643-8.76826E-01-1.07248E+00-2.19206E-01-3.23449E-01 4.53225E-01-7.40782E-01
 -1       644-1.19481E+00-1.08640E+00 7.84812E-02-1.32740E-01 4.95257E-01-1.02683E+00
 -1       645-1.61811E+00-1.33639E+00 3.99226E-02 3.79844E-01 7.54535E-01 1.48632E-01
 -1       646-1.79478E+00-1.25216E+00 3.19765E-01 3.94853E-01-1.46693E-01-5.24764E-01
 -1       647-4.01799E+00-2.73429E+00 1.11745E+00 1.47960E-01-3.79339E-01 1.04820E+00
 -1       648-3.98099E+00-3.42033E+00 1.66352E-01 5.54838E-01-8.14864E-01 1.06232E+00
 -1       649 2.10373E-01-7.30000E-02-1.00507E-01-2.37888E-01 6.64395E-02 3.15413E-01
 -1       650-1.11403E-01-4.61690E-01-9.23314E-02-4.36337E-01-6.34237E-02 8.18157E-02
 -1       651-2.49732E+00-1.84684E+00-1.70702E-01-1.60148E+00 3.43447E-01-1.31185E+00
 -1       652-2.32610E+00-2.50028E+00 7.46703E-01 2.13365E-01 6.82450E-01-1.15551E-01
 -1       653-1.88863E+00-1.60415E+00 2.42781E-01 5.83561E-02 3.65103E-01-2.91083E-01
 -1       654-6.49105E-01-1.08514E+00-1.04421E+00 2.21076E-01 9.11197E-01-5.60671E-01
 -1       655-1.30815E+00-6.94839E-01 1.97196E-02-1.36396E-01 7.58721E-01-1.19921E+00
 -1       656-1.88925E+00-1.82959E+00 1.87671E-01-1.41805E-02-3.96650E-01-1.00569E+00
 -1       657-2.29206E+00-2.51196E+00 5.63055E-01 2.37127E-02-3.23638E-01-8.28940E-01
 -1       658-2.17693E+00-3.27882E+00 4.67372E-01-7.27049E-01 2.09472E-01-1.11584E+00
 -1       659-2.68680E+00-3.30864E+00-1.53079E+00-3.12082E-01 2.22601E+00 1.56167E+00
 -1       660-2.44371E+00-3.12774E+00-8.01179E-01-3.89700E-01-1.85694E+00-1.44100E+00
 -1       661-2.26875E+00-2.20578E+00-1.35863E+00-8.97841E-02 1.95951E+00 2.86856E-01
 -1       662-1.30130E+00-1.02397E+00-8.98739E-01 6.83828E-01-2.48484E-01-8.67321E-01
 -1       663-2.36490E+00-2.31534E+00-8.71463E-01-9.24350E-01 1.07647E+00-8.06838E-02
 -1       664-1.48070E+00-2.33436E+00-1.08827E-01-4.04266E-01 1.80267E-01-8.91571E-01
 -1       665-5.04287E+00-6.69823E+00-4.38192E+00 3.12167E-01 2.17112E-02 3.56414E+00
 -1       666-3.85378E+00-5.50605E+00-1.56288E+00 3.79147E-01-5.34964E-01 3.00528E+00
 -1       667-1.44509E+00-1.19277E+00-6.04918E-02 8.18856E-02 2.72127E-01-1.01875E+00
 -1       668-1.12677E+00-8.61631E-01-1.73779E-01 9.42330E-03 1.96566E-02-9.53947E-01
 -1       669-1.88116E+00-1.03710E+00 1.01890E-01 1.45743E-01 7.22601E-01 2.25608E-02
 -1       670-2.37301E+00-1.30155E+00 3.13675E-01 7.05193E-02-4.31529E-01-2.94840E-01
 -1       671-3.74834E+00-3.79430E+00 3.47668E-01-4.20324E-02 7.93705E-02 1.38407E+00
 -1       672-3.88659E+00-2.31588E+00 7.41193E-01 3.37810E-01-4.39905E-01 1.01343E+00
 -1       673-5.34446E-01-8.80648E-01-2.24082E-01-2.91170E-01 2.89049E-02-4.38820E-01
 -1       674-1.84523E-01-1.37340E+00-4.65912E-01-4.47231E-01-4.65846E-01-3.67286E-01
 -1       675-1.65177E+00-3.91565E+00 7.04198E-01-9.96809E-01 4.05981E-01-1.37963E+00
 -1       676-2.66308E+00-1.98730E+00 5.11648E-01-5.68626E-03 1.74322E-01-1.76246E-01
 -1       677-2.17574E+00-1.84533E+00 6.08783E-01-1.43992E-01 3.33433E-01-3.51121E-01
 -1       678-7.24611E-01-1.68362E+00-6.73882E-01 5.37345E-01 2.51953E-01-1.02620E+00
 -1       679-8.86018E-01-1.47723E+00-8.08754E-01 8.54483E-01 5.83154E-03-1.19156E+00
 -1       680-1.97809E+00-1.78477E+00 7.83390E-01-2.51516E-02-2.21518E-01-6.50536E-01
 -1       681-2.19491E+00-2.28039E+00 9.00930E-01-2.43301E-01-7.98885E-01-4.15531E-01
 -1       682-1.39298E+00-2.98887E+00-6.29802E-01 1.04822E-01 1.30319E-01-1.09201E+00
 -1       683-2.96700E+00-4.03343E+00-1.88221E+00-5.21014E-01 2.62321E+00 1.02897E+00
 -1       684-3.03352E+00-3.67999E+00-1.28827E+00-3.67343E-01-2.61405E+00-4.10821E-01
 -1       685-2.53724E+00-2.52840E+00-9.78568E-01-3.31514E-01 1.49638E+00-2.39193E-01
 -1       686-1.39754E+00-1.34723E+00-2.48851E-02 6.16947E-01-7.93962E-01-3.92953E-01
 -1       687-1.73132E+00-2.50582E+00-9.95822E-01-4.47009E-01 1.44937E-01-3.57491E-01
 -1       688-1.02914E+00-2.35925E+00-3.81005E-01-3.21608E-02 5.90876E-02-6.52188E-01
 -1       689-3.25333E+00-5.23860E+00-1.34424E+00-9.33397E-01 1.66418E+00 2.83491E+00
 -1       690-6.23040E+00-8.94592E+00-4.10713E+00-8.82394E-01 6.41987E-01 3.57641E+00
 -1       691-3.88307E+00-3.91463E+00 3.90371E-01 2.04834E-01 3.98481E-02 1.38598E+00
 -1       692-4.07715E+00-1.85591E+00 5.57809E-01-4.56043E-01 4.86852E-01 1.15835E+00
 -1       693-1.75116E+00-6.94872E-01 4.41532E-01-3.87368E-01-4.88228E-01-3.02987E-01
 -1       694-2.29532E+00-1.05277E+00 2.83820E-01-2.07379E-01 2.75605E-01-2.85192E-01
 -1       695-1.94042E+00-1.87408E+00 1.27535E-01 1.56725E-01-3.38403E-01-1.27903E+00
 -1       696-1.37654E+00-1.07831E+00-6.41333E-02-4.10215E-02-6.93013E-02-9.51869E-01
 -1       697-4.05704E-01-4.96885E-01-4.32068E-01-1.33016E-01 1.77804E-02-3.67120E-01
 -1       698-6.37725E-01-1.35975E+00-6.37260E-01 5.05899E-02-1.39856E-01-6.40307E-01
 -1       699-9.15250E-01-2.64548E+00 1.87160E-01-2.17963E-01 1.36370E-01-1.03559E+00
 -1       700-2.84723E+00-1.92718E+00-1.88297E-01-2.30131E-01 9.63075E-01-7.95481E-02
 -1       701-2.43635E+00-1.94599E+00 2.83057E-01-3.55062E-01 4.21174E-01-3.18732E-01
 -1       702-8.21961E-01-2.12066E-01 1.18712E-01 2.39374E-01 1.05388E-01-1.27379E+00
 -1       703-3.92248E-01 3.60441E-01 2.31247E-01 3.16168E-01-2.99655E-01-1.46633E+00
 -1       704-2.00604E+00-1.97052E+00 3.80212E-01-8.72732E-02-3.10533E-01-1.64934E-01
 -1       705-2.75582E+00-2.72043E+00 1.62110E-01-5.80383E-02-3.55980E-01-2.26168E-01
 -1       706-1.91304E+00-4.46617E+00-8.83900E-02 1.74898E+00-1.20089E+00-1.12679E+00
 -1       707-2.14510E+00-8.98343E-01-2.03157E+00-2.86778E-01 1.53632E+00 2.57333E-01
 -1       708-1.99175E+00-1.06549E+00-8.01267E-01-5.41331E-01-1.02397E+00 2.76799E-02
 -1       709-2.29051E+00-2.68744E+00-1.30314E+00-4.36476E-01 1.72192E+00-7.54184E-01
 -1       710-1.87365E+00-1.68237E+00-6.68827E-01 3.23005E-01-1.44277E+00-3.99061E-01
 -1       711-1.15436E+00-2.25912E+00-3.32584E-01-3.34268E-01 1.77290E-01-6.52344E-01
 -1       712-1.08046E+00-1.73574E+00-6.19974E-01 7.22818E-01-5.17363E-01-6.15733E-01
 -1       713-6.64221E+00-6.03578E+00-4.87419E+00 1.21849E+00 2.81486E+00 2.56173E+00
 -1       714-5.93882E+00-4.68837E+00-1.02698E+00 1.20305E+00 1.16486E+00 2.91813E+00
 -1       715-3.82029E+00-3.27254E+00 1.00762E+00-2.43049E-01 3.49678E-01 9.74277E-01
 -1       716-3.78462E+00-3.56621E+00 1.64226E-01-4.63246E-01 1.11583E+00 1.12264E+00
 -1       717-1.95735E+00-1.57694E+00 9.95101E-03-5.96382E-01-8.08902E-01 1.70403E-01
 -1       718-1.92035E+00-1.26331E+00 5.22652E-01-4.79270E-01 4.49836E-02-4.74767E-01
 -1       719-1.35308E+00-1.93803E+00-3.25075E-01 3.99511E-01-5.68562E-01-8.11086E-01
 -1       720-1.31437E+00-8.28867E-01 5.52563E-02-1.55926E-01-4.55245E-01-1.04729E+00
 -1       721-1.07502E+00-1.26814E+00-3.03955E-01 5.59553E-01-6.11042E-02-4.45626E-01
 -1       722-1.02248E+00-9.73067E-01-1.19337E-01 7.60141E-01-1.61570E-01-3.49407E-02
 -1       723-7.49082E-01-5.82016E-01 3.96664E-01 5.75025E-01-5.85279E-01-1.04385E+00
 -1       724-2.55089E+00-3.23359E+00 2.02337E-02-9.92593E-02 7.33723E-01-6.19045E-01
 -1       725-1.41939E+00-1.50144E+00 5.40258E-01-1.70633E-01 3.21567E-01-8.27871E-01
 -1       726-8.58490E-01-9.30986E-01-1.64846E-01-2.75382E-01-4.39609E-01-1.17756E+00
 -1       727-4.93666E-01-1.44960E+00 3.00945E-01-6.36644E-02-1.94050E-01-7.95601E-01
 -1       728-1.98976E+00-1.87962E+00 3.33906E-01-1.39414E-01-3.06447E-01-4.22164E-01
 -1       729-2.28836E+00-2.57109E+00 8.42988E-01-4.09579E-01-6.42520E-01 3.00802E-02
 -1       730-1.03370E+00-1.34374E+00 2.19982E-01 1.03929E+00-1.23446E+00-6.77413E-01
 -1       731-2.08897E+00-1.34008E+00-1.32444E+00-3.35552E-01 1.27099E+00-8.54791E-01
 -1       732-2.92804E+00-3.50098E+00-1.25881E+00 1.27390E-01-2.11933E+00 1.36129E+00
 -1       733-2.73076E+00-2.48902E+00-1.80760E+00 3.40296E-01 1.49951E+00-1.99430E+00
 -1       734-2.46533E+00-1.76795E+00-1.14910E+00 2.83779E-01-1.63057E+00 4.24076E-01
 -1       735-1.07345E+00-1.90709E+00-5.89397E-01 4.67786E-01 1.77045E-02-8.76620E-01
 -1       736-2.86393E+00-2.83664E+00-9.96910E-01 1.10001E+00-6.10123E-01-3.33919E-01
 -1       737-4.49745E+00-4.50882E+00-3.25231E+00-1.23047E+00 1.77173E+00 3.08579E+00
 -1       738-6.60891E+00-6.30220E+00-3.27091E+00 2.81370E-01 2.97539E+00 1.87012E+00
 -1       739-4.03137E+00-3.68095E+00 3.03228E-01-4.49549E-02 8.85391E-01 9.46251E-01
 -1       740-2.21158E+00-3.65971E+00 6.68618E-01-1.04206E+00 8.93160E-01 8.01148E-01
 -1       741-1.47445E+00-1.66745E+00 3.71783E-01-6.00116E-01-4.84500E-01 1.26411E-01
 -1       742-1.39642E+00-1.50775E+00 1.73223E-01-6.31128E-01 2.66242E-01-3.49444E-01
 -1       743-1.68777E+00-1.52025E+00 3.97881E-02-1.46742E-01-8.77905E-01-6.20962E-01
 -1       744-1.36548E+00-1.05457E+00-2.30124E-01-3.94121E-02-6.39614E-01-8.25122E-01
 -1       745-8.87566E-01-2.87245E-01-4.48216E-01 2.85141E-01-1.17363E-01-4.68782E-01
 -1       746-1.03272E+00-6.56809E-01-3.62756E-01 1.88359E-01-1.17066E-01-3.29303E-01
 -1       747-1.47981E+00-2.73551E+00-9.17054E-01 1.34214E+00-8.81271E-01-6.20301E-01
 -1       748-2.29573E+00-2.14807E+00 3.50003E-01-3.59896E-01 4.87959E-02-6.04195E-01
 -1       749-2.05983E+00-2.04033E+00-1.56506E-01-4.08933E-01 3.31917E-02-7.74818E-01
 -1       750-1.41642E+00-9.85368E-01-6.98636E-02 1.29567E-01-9.73937E-01-6.37226E-01
 -1       751-2.27528E+00-2.16158E+00 2.82248E-02 4.84287E-02-5.89071E-01 1.88256E-01
 -1       752-1.72410E-01-8.71750E-01 2.44664E-01-2.44119E-01-8.21202E-01-2.92128E-01
 -1       753-2.79820E+00-2.33162E+00 8.29845E-01-1.59384E-01-8.73711E-01 1.03006E-01
 -1       754-3.78774E+00-1.78618E+00-9.04587E-02 1.02729E+00-1.31328E+00-6.99303E-01
 -1       755-3.50160E+00-2.83597E+00-1.54180E+00 3.63028E-01 1.50007E+00-1.59196E+00
 -1       756-2.80271E+00-2.79421E+00-1.02808E+00 3.77418E-01-1.54061E+00 1.99449E+00
 -1       757-9.19985E-01-1.66090E+00-1.16223E+00-5.31956E-01 2.67609E-01-9.26511E-01
 -1       758-1.41115E+00-1.33052E+00-7.90845E-01-6.33603E-01-7.47297E-01 3.06255E-01
 -1       759-2.07789E+00-2.56366E+00-6.09402E-01 7.88461E-01-5.59989E-01-5.70943E-01
 -1       760-2.52928E+00-1.83726E+00-1.20294E-01 6.71270E-01-8.23637E-01 4.71507E-03
 -1       761-5.71889E+00-6.10873E+00-4.46680E+00 1.29085E+00 3.65510E+00 1.24655E+00
 -1       762-4.75702E+00-5.05288E+00-1.07682E+00 1.01488E+00 3.20152E+00 2.42692E-01
 -1       763-3.13986E+00-3.64662E+00 7.81451E-01-6.19308E-01 1.21608E+00 4.09060E-01
 -1       764-1.18175E+00-2.10673E+00 1.10951E-01-2.35876E-01-1.97224E-01 5.98027E-01
 -1       765-2.80275E+00-3.79904E+00 6.49083E-02-3.55270E-01 1.33037E+00 9.70719E-02
 -1       766-1.82455E+00-8.56306E-01-4.31292E-01 8.18507E-02-1.06919E+00-1.45474E-01
 -1       767-1.50237E+00-2.30129E+00 2.59978E-01-2.07887E-01-1.66298E-01-7.01440E-01
 -1       768-9.51279E-01-1.08477E+00 5.94404E-02-2.52016E-01-1.23030E+00-3.08990E-01
 -1       769-1.21638E+00-2.50246E-01-2.23447E-01 1.12067E-01-1.73225E-01-2.44587E-01
 -1       770-1.35473E+00-5.85994E-02-1.79529E-01 8.58953E-02-1.18405E-01 1.14622E-01
 -1       771-1.09775E+00-9.56186E-01 8.01819E-01 1.48343E-01-6.85704E-01-5.60423E-01
 -1       772-3.07338E+00-2.58905E+00 1.18174E+00 2.53384E-01-4.53895E-01-7.16032E-01
 -1       773-1.85357E+00-2.05768E+00 4.91188E-01 5.58234E-02-3.46820E-01-3.39789E-01
 -1       774-5.55103E-01-2.38555E-01-4.31945E-02-3.47118E-01-1.33199E+00-9.23103E-01
 -1       775-1.51524E+00-2.15295E+00 2.59691E-01-1.90198E-01-5.62433E-01 4.12393E-01
 -1       776-4.86419E+00-2.10805E+00-1.51525E+00 2.92955E-01-1.08347E+00-6.90272E-01
 -1       777-2.46551E+00-2.43472E+00 7.66323E-01-1.18083E-02-3.91303E-01 3.74634E-01
 -1       778 4.73218E-01 5.55920E-01 9.15671E-01-4.93115E-01-1.04606E+00-1.57453E-01
 -1       779-3.20423E+00-2.55146E+00-1.22254E+00 3.58106E-02 7.68598E-01-2.73679E+00
 -1       780-3.37384E+00-2.78993E+00-1.45252E+00 2.88660E-01-4.18860E-01 2.43111E+00
 -1       781-1.96064E+00-2.21655E+00-3.84815E-01 3.01312E-01-3.80365E-02-1.36706E+00
 -1       782-3.00741E+00-2.36372E+00-1.14404E+00-2.00389E-01-7.15224E-01 1.33097E+00
 -1       783-1.66383E+00-1.23347E+00-5.44221E-01 2.37454E-01-3.66479E-01-5.05012E-01
 -1       784-2.03115E+00-1.06478E+00-6.55373E-01-4.20017E-02-3.44350E-01 1.96928E-01
 -1       785-4.09585E+00-3.05698E+00-1.01037E+00-9.90556E-01 2.97842E+00 2.42065E-01
 -1       786-7.88223E+00-6.32930E+00-4.57245E+00-1.22988E+00 3.97818E+00-1.02054E+00
 -1       787-1.47005E+00-2.23236E+00 1.88155E-01 1.21236E-01-5.53784E-01 7.78335E-01
 -1       788-3.09320E+00-4.00383E+00 6.87390E-01 1.46784E-01 1.18770E+00 2.23687E-01
 -1       789-1.66631E+00-9.21455E-01-1.47530E-01 5.11973E-02-9.93874E-01 1.70669E-01
 -1       790-8.69535E-01-3.65296E-01-3.34543E-01-9.97722E-02-6.74010E-01 2.65174E-02
 -1       791-3.21205E+00-4.03343E+00 4.26051E-01 4.21765E-01 1.28863E+00-3.48182E-01
 -1       792-1.23173E+00-1.99787E+00 2.01234E-01-2.84973E-02-3.30009E-01-5.41882E-01
 -1       793-3.66402E-01 1.45643E-01-2.35261E-01-4.14609E-01 6.70360E-02-4.86774E-01
 -1       794-1.02937E+00 1.54352E-01-3.15976E-02-6.65454E-01 2.04972E-01-2.85395E-01
 -1       795-4.72282E+00-2.17335E+00 1.77971E-01 3.62070E-01-7.31433E-01 5.20957E-02
 -1       796-2.60827E+00-1.93557E+00 1.13865E+00-7.50501E-02-5.46926E-01-3.78305E-01
 -1       797-1.82203E+00-1.73968E+00 5.83592E-01-2.01761E-01-6.71487E-01-4.86028E-01
 -1       798-1.18165E+00-9.28858E-01-6.13035E-01-2.69849E-01-1.51528E+00-2.81703E-01
 -1       799-1.81653E+00-1.84358E+00 4.24165E-01-1.43522E-01-5.60124E-01 4.03838E-01
 -1       800-1.94324E+00-9.30627E-01-2.03868E-02-1.24143E-01-1.55715E+00 2.37016E-01
 -1       801-2.60753E+00-2.91052E+00 8.22864E-01 7.18165E-02-5.06751E-01 6.18430E-01
 -1       802-2.83737E+00-8.64657E-01-6.28731E-01-4.97091E-01-1.16115E+00 3.54765E-01
 -1       803-2.81819E+00-2.26117E+00-3.24180E-01-2.28723E-01-3.89800E-01-2.15528E+00
 -1       804-2.38689E+00-2.06066E+00-7.30823E-01 4.12883E-01-2.27594E-01 2.07843E+00
 -1       805-3.12495E+00-2.28350E+00-1.48894E+00-2.49499E-02-7.98816E-01-2.09060E+00
 -1       806-3.43948E+00-2.55879E+00-1.84757E+00-3.61161E-01-7.04480E-01 2.42219E+00
 -1       807-2.30505E+00-1.07405E+00-5.57071E-01 1.14335E-02-7.75347E-01-9.18158E-02
 -1       808-2.93104E+00-1.58424E+00-1.15112E+00-3.16978E-01-1.02205E+00 3.23283E-01
 -1       809-5.70401E+00-5.08562E+00-1.87831E+00-1.31803E+00 2.37052E+00-1.05215E+00
 -1       810-6.00039E+00-6.71585E+00-3.07041E+00-1.69087E+00 2.00395E+00-2.20820E+00
 -1       811-1.03570E+00-1.51845E+00 6.77860E-02 2.48460E-01 2.67266E-01 7.06224E-01
 -1       812-7.38152E-01-4.04930E-01-4.04485E-01-2.18260E-01-8.91767E-01 3.74944E-01
 -1       813-5.67140E-01-7.51564E-01 1.47175E-02-8.91518E-02-1.04836E+00 5.07043E-01
 -1       814-3.66782E+00-3.25898E+00 7.21546E-01 5.09084E-02 7.95071E-01-1.05393E-01
 -1       815-3.79004E+00-3.48938E+00 5.98490E-01-1.09282E-01 6.79110E-01-5.83982E-01
 -1       816-1.07537E+00-1.82670E+00 2.10592E-01 2.45319E-01-4.38962E-01-1.65045E-01
 -1       817-5.92904E-01 7.45190E-01 2.12635E-01-5.93219E-01 5.49441E-01-3.34466E-01
 -1       818-1.56788E-01 1.10846E+00 3.37884E-01-4.56975E-01 7.67147E-01-1.34905E-01
 -1       819-2.44412E+00 8.81617E-02 6.86508E-01-3.25018E-03-1.60925E+00 2.77638E-02
 -1       820-1.99506E+00-2.50435E+00 9.61844E-01-3.43759E-01-6.36766E-01-2.05210E-01
 -1       821-1.86209E+00-1.98693E+00-2.02366E-01-1.24737E-01-9.72605E-01-3.29113E-01
 -1       822-9.87054E-01-1.71622E+00-7.61575E-01-2.41471E-01-1.98805E+00 1.05118E-01
 -1       823-1.53194E+00-1.67996E+00 3.70821E-01-1.96501E-01-2.41943E-01 3.32546E-01
 -1       824-8.73720E-01-1.46769E-01-1.34454E-01 5.65558E-02-1.16174E+00 8.07643E-01
 -1       825-1.80390E+00-2.21602E+00 3.17583E-01-1.36626E-03 4.01132E-02 5.51721E-01
 -1       826-1.41655E+00-4.16719E-01 1.07538E+00-7.10271E-01-7.16375E-01 1.12597E+00
 -1       827-2.75123E+00-2.52034E+00-6.01683E-01-3.18909E-01-1.32324E+00-2.13155E+00
 -1       828-3.48371E+00-2.43116E+00-2.05570E+00-3.57978E-01 1.50107E+00 1.94058E+00
 -1       829-9.51571E-01-1.57038E+00-1.66708E+00 3.64310E-01-1.12552E+00-5.97467E-01
 -1       830-1.77542E+00-2.16810E+00-6.86550E-01-1.35167E-01 7.65982E-02 1.19891E+00
 -1       831-1.72174E+00-1.13667E+00-2.70478E-01-4.82753E-01-9.26330E-01 9.26036E-02
 -1       832-2.37012E+00-3.05761E+00-1.60353E+00-1.22891E+00-4.65949E-01 3.07759E-01
 -1       833-6.68430E+00-6.17946E+00-3.15071E+00-1.06968E+00 2.97525E+00-1.44193E+00
 -1       834-4.93901E+00-4.37902E+00-1.35200E+00-9.45046E-01 1.47892E+00-1.76573E+00
 -1       835-3.42351E+00-3.41861E+00 3.57993E-01-1.93325E-01 1.01466E+00-5.92361E-01
 -1       836-2.63960E+00-2.90558E+00 7.33721E-01 4.96300E-01 4.70173E-01-9.33048E-01
 -1       837-1.57823E+00-1.48475E+00 1.96998E-01 3.51129E-01 8.10027E-02 3.93192E-01
 -1       838-9.80356E-01-1.12045E+00 5.12095E-02 5.13355E-01-5.87491E-01-2.44272E-01
 -1       839-1.49228E+00-1.46369E+00-5.81589E-02-5.39509E-01-5.66672E-01 6.14531E-01
 -1       840-1.19307E+00-1.46266E+00 1.96611E-01-8.24714E-02-6.89459E-01 6.52690E-01
 -1       841-1.61644E-01-1.08650E+00-4.38913E-01-6.12799E-01 2.56473E-01 2.89109E-01
 -1       842-1.76785E-01-7.21209E-01-6.57501E-02-7.20900E-01-2.58972E-02 3.55408E-02
 -1       843-3.23726E+00-1.58678E+00-5.66287E-01-8.41573E-01-4.46367E-01 5.10686E-01
 -1       844-2.41728E+00-2.30876E+00 3.45340E-02-5.41703E-02-5.51046E-01-2.62837E-01
 -1       845-1.84371E+00-1.72020E+00 3.12838E-01-1.65255E-01-4.67493E-01 8.84903E-02
 -1       846-9.00855E-01-1.44221E+00 8.54748E-01-3.86212E-01-8.60987E-01 4.98880E-01
 -1       847-1.68195E+00-9.92790E-01 1.31544E-01-5.46943E-01-7.18411E-01 4.57819E-01
 -1       848-1.75563E+00-1.72000E+00 2.85071E-01-3.83993E-03 1.54228E-01 6.54099E-01
 -1       849-2.67102E+00-2.24847E+00 6.41465E-01 1.03124E-01 2.09060E-01 7.58766E-01
 -1       850-2.38934E+00-3.45860E+00-8.71653E-02-1.42326E+00-5.81290E-01 1.19071E+00
 -1       851-1.42805E+00-1.63021E+00-1.90113E+00 6.86374E-01-6.98585E-01-1.14796E+00
 -1       852-2.78057E+00-3.04099E+00-1.14794E+00-4.62049E-01 1.84568E+00 1.60587E+00
 -1       853-1.95227E+00-1.46264E+00-9.07690E-01 4.04586E-02-1.46814E+00-5.02007E-01
 -1       854-2.34768E+00-2.40015E+00-1.05652E+00-2.58499E-01 7.53527E-01 1.44667E+00
 -1       855-1.13312E+00-2.13690E+00-7.45961E-01-5.91320E-01-8.58083E-01-2.39132E-01
 -1       856-2.23888E+00-2.61174E+00-7.34670E-01-9.23161E-01-1.87829E-01 3.87279E-01
 -1       857-3.25336E+00-5.07004E+00-1.73082E+00 1.83327E-01 1.25864E+00-2.53903E+00
 -1       858-4.95637E+00-7.30050E+00-3.99986E+00 2.80408E-01 6.98649E-01-2.91130E+00
 -1       859-3.90229E+00-3.65878E+00 1.02360E+00 9.74016E-02 5.25615E-01-1.21321E+00
 -1       860-3.89019E+00-3.34138E+00 5.00323E-01 3.00865E-01 9.02028E-02-9.98058E-01
 -1       861-2.11153E+00-1.28697E+00 1.59775E-01 1.96047E-01 4.15088E-01 4.00592E-01
 -1       862-1.67449E+00-8.30746E-01 8.89129E-02 3.20218E-01-5.44742E-01-9.45586E-02
 -1       863-1.21462E+00-1.25966E+00-2.72197E-01-8.83153E-02-4.40546E-01 1.01887E+00
 -1       864-1.39888E+00-9.66010E-01 1.89491E-01 3.85938E-01-5.61379E-01 1.24743E+00
 -1       865 7.73210E-01-1.67567E-01-1.54748E-01-3.65990E-01 3.11424E-01-2.59288E-01
 -1       866 5.51627E-01-1.32006E+00-2.86874E-01-4.13476E-01-1.51928E-01-5.56353E-02
 -1       867-1.79995E+00-2.41366E+00 1.21699E-01-6.39289E-01-2.84333E-01 3.50267E-01
 -1       868-2.70448E+00-2.64119E+00 5.51765E-01-1.12537E-02-4.72795E-01 2.89394E-01
 -1       869-2.15755E+00-1.98278E+00 1.57623E-01 1.25883E-02-3.47145E-01 3.18855E-01
 -1       870-1.30111E+00-6.79387E-01-2.69635E-01 2.64740E-01-7.96443E-01 1.19081E+00
 -1       871-1.08749E+00-9.58551E-01 3.74878E-01-2.54162E-01-6.06480E-01 1.17628E+00
 -1       872-1.96218E+00-1.81047E+00 4.58079E-01 3.79564E-01 4.46383E-01 6.03202E-01
 -1       873-2.22888E+00-1.90387E+00 3.82553E-01-1.01361E-01 9.10275E-01 8.07110E-01
 -1       874-1.14861E+00-2.14226E+00-6.48393E-01-1.96210E-01-1.73279E-02 5.62310E-01
 -1       875-2.32784E+00-3.05238E+00-1.24476E+00-2.94041E-01-2.32589E+00-1.11656E+00
 -1       876-2.65887E+00-2.72749E+00-1.22941E+00-4.05978E-01 2.04806E+00 8.74163E-01
 -1       877-1.89721E+00-6.00631E-01-1.01135E+00 3.23668E-01-7.44879E-01 2.20139E-01
 -1       878-2.07091E+00-3.04961E+00-1.21605E+00 2.10617E-01 1.58857E+00 9.71223E-01
 -1       879-2.17475E+00-1.69980E+00-2.05008E-01-8.64062E-01-9.86218E-01 3.77265E-01
 -1       880-1.43095E+00-2.76997E+00-6.60352E-01-1.05769E-01 1.09663E-01 7.93043E-01
 -1       881-2.67558E+00-2.02708E+00-4.01973E+00 7.14595E-01 5.52089E-02 2.90654E+00
 -1       882-1.44984E+01-5.62032E+00-6.03562E+00 7.74373E-02 1.44770E-01 7.23022E+00
 -1       883-6.41306E+00-3.07031E+00-3.65155E+00 3.26445E-01 1.30902E+00-5.03013E+00
 -1       884 8.03099E+00 4.06559E+00 3.75856E+00-2.44094E+00 1.76139E+00-3.84477E+00
 -1       885 6.65437E-01 2.65918E+00-1.75926E-01 1.09962E+00 4.70081E+00-2.41368E-01
 -1       886-1.46166E+00-7.46636E+00 1.37091E+00 3.81637E-01 4.26384E+00 1.01063E+00
 -1       887 1.36723E+00 3.83314E-03 2.99640E+00-2.99887E-01-1.26008E+00-1.76062E+00
 -1       888 6.97738E+00 7.22192E+00-1.34879E+00 4.30465E+00-4.81485E+00-5.46272E+00
 -1       889 5.45791E-01 2.76766E+00 1.01095E+00 7.36231E-01 3.43816E+00 4.42689E+00
 -1       890-6.36450E+00-2.29492E+00-3.18725E+00-1.88145E+00 3.30432E+00 3.82459E+00
 -1       891-1.63909E+00-5.96212E-01-2.03168E+00 3.70712E-01 1.63872E+00 1.28913E+00
 -1       892-1.28494E+01-5.52261E+00-5.51160E+00-1.98308E+00 4.22928E+00 7.88349E+00
 -1       893 8.30197E+00 1.77979E+01 6.60633E+00-4.57162E+00 2.31754E+00 3.38294E-01
 -1       894 4.82925E+00 1.77693E+01 4.22552E+00-3.78110E+00 1.87203E+00 1.81461E+00
 -1       895 3.03516E+00 6.79812E+00-1.23387E-01-2.00072E+00-9.07661E-01 8.60578E-01
 -1       896 0.00000E+00 0.00000E+00 0.00000E+00 0.00000E+00 0.00000E+00 0.00000E+00
 -1       897-4.13987E-02 2.63386E-01-3.37884E+00-9.43060E-01-1.26173E+00 1.25503E+00
 -1       898-9.51192E+00-8.89948E+00-5.52342E+00 3.95055E+00-4.43319E+00 5.47010E+00
 -1       899 3.31731E+00 1.69011E+00 2.52471E+00 1.66229E-01-1.09218E+00 4.80033E+00
 -1       900-1.45407E+01-8.01203E+00-6.76582E+00 2.71638E+00-3.01014E+00 1.05624E+01
 -1       901-3.04967E+00-2.03306E+00 7.82800E-01 1.85501E+00-4.72362E-01 2.64321E+00
 -1       902-5.91153E+00-1.32093E+00-2.10867E+00-6.74829E-02 2.78413E+00 5.12772E+00
 -1       903-2.20889E+00-4.94787E+00-1.19948E+00 1.73577E+00-3.42077E+00 1.62418E+00
 -1       904 2.52950E+00 2.41024E+00 4.05305E+00 2.98307E-01 2.37342E-01 2.35824E+00
 -1       905-9.20434E+00-1.33427E+01-6.76410E+00 4.04083E+00-5.88991E+00 3.14829E+00
 -1       906 2.03461E+00 1.95673E+00 3.84008E+00-7.28383E-02 2.93719E+00-1.86997E+00
 -1       907 4.71695E-01-1.32311E+00 3.36958E+00 3.62948E-01-9.61078E-01 2.17675E+00
 -1       908 2.39677E+00 3.45565E+00 3.65107E+00 6.04196E-01-1.25869E+00-2.67003E+00
 -1       909-5.88503E+00-1.38700E+01-5.92652E+00 1.05085E+00-1.17038E+01 1.99093E+00
 -1       910-2.28028E+00-8.80619E+00 2.60546E-01 7.13350E-01-4.81646E-02-2.26101E+00
 -1       911 1.12218E+00-1.51971E+00 1.23515E+00-4.09827E+00 6.65005E+00-4.60013E-01
 -1       912-2.99510E+00-7.53279E+00-3.15837E+00-6.81574E-01-5.95829E+00 5.50458E-01
 -1       913-2.13809E+00-4.62616E+00 7.40153E-01-1.14568E+00-6.11279E+00-3.05501E+00
 -1       914-5.54137E-01-6.78080E-01 2.58986E+00 1.43021E+00 2.06836E+00-1.05531E+00
 -1       915-6.14718E+00-5.57078E+00-3.95510E+00-2.27608E+00-5.50226E+00-4.46737E+00
 -1       916 1.14131E+00 1.13439E+00 3.02081E+00 8.67635E-02 3.20816E+00-4.02777E+00
 -1       917-1.52548E+01-9.20325E+00-7.33743E+00-3.86133E+00-4.12859E+00-7.72389E+00
 -1       918-5.15291E+00-2.33266E+00-8.07596E-01 1.50985E+00 3.69279E+00-5.26195E+00
 -1       919-9.46421E+00-3.25877E+00-3.54656E-01-2.27804E+00 4.00871E-01-2.37837E+00
 -1       920 4.48744E+00 3.45362E-01 7.92107E-01 4.23563E-01-1.85668E+00-4.25622E+00
 -1       921-1.46419E+01-6.41888E+00-6.36317E+00-9.18032E-01-8.31046E-01-8.52505E+00
 -1       922 5.44216E-02 2.47335E+00 7.55039E-01 1.72344E+00 1.50331E+00 2.88992E+00
 -1       923 6.58964E+00 1.05583E+01 2.17067E+00 3.18656E+00 3.44691E+00-2.02002E+00
 -1       924 2.42469E+00 1.10307E+01-5.04660E+00 2.70778E+00 2.39002E+00-1.10329E+00
 -1       925 4.13485E+00 4.41275E+00-3.09824E+00 2.73911E+00 4.01315E-01 1.71398E+00
 -1       926 3.18195E+00 1.71155E+00-9.59020E-01-2.00186E+00 2.24405E+00-5.63372E+00
 -1       927 8.13204E+00 7.02122E+00 4.54598E+00-2.97955E+00 5.45562E+00-6.64756E+00
 -1       928 1.31071E+01 3.65876E+00 8.35868E-01-1.13635E+00-2.91660E+00-2.48510E+00
 -1       929 1.40523E+00 2.55841E+00-1.24653E+00 1.83110E+00-1.61298E+00-2.22249E+00
 -1       930 2.48468E+00-7.52026E-01-5.81050E+00 1.35214E+00-1.05532E+00-2.01173E+00
 -1       931 9.07705E-01-1.42434E-01-9.04637E-01 1.67201E-01 2.96938E+00-1.91450E+00
 -1       932 9.09821E-01-9.04358E-01-4.18931E+00 4.02721E-01-6.50893E-04-1.54090E+00
 -1       933 6.13812E+00 9.06370E+00 4.63637E+00-8.99491E+00 9.17508E+00-3.01699E-01
 -1       934 4.56685E+00 7.80329E+00 3.71104E+00-1.89423E+00 5.61176E+00-2.99961E+00
 -1       935 1.47041E+01 6.20044E+00 6.27135E+00-5.54039E-02-9.05491E-01 9.19219E+00
 -1       936 2.65632E+00 1.72330E+00 1.43125E+00-1.86855E+00 6.45269E-03 1.34106E+00
 -1       937 6.69161E+00 2.19304E+00-3.92820E-01-1.60381E+00-1.19788E+00 2.65928E+00
 -1       938 4.60381E+00 1.95274E+00-1.31107E+00-2.16754E+00-4.77831E-01-2.07080E+00
 -1       939-2.81107E+00-7.06114E-01-7.44994E+00-5.27645E-01-2.26787E+00 9.50903E-01
 -1       940 3.89331E+00 6.83281E+00 3.21784E+00-2.18078E+00-3.29009E+00 3.36925E+00
 -1       941-3.36930E-01 2.46209E+00-2.58572E+00 3.53444E-01-3.47304E+00 1.22280E+00
 -1       942 2.30517E+00 5.74348E+00 2.41459E+00 1.26812E+00-3.41713E+00-2.74339E+00
 -1       943 2.64462E+00 4.66552E+00-1.95241E+00 3.14970E+00-2.53540E+00 3.63751E+00
 -1       944 5.14423E+00 3.67105E+00 4.66023E+00 2.31040E+00-6.20129E+00-3.07724E+00
 -1       945-5.30970E+00-2.70236E+00 4.30346E-01 4.41509E-01 1.09530E-01-1.32883E-01
 -1       946-3.35877E+00-3.90436E+00-2.54919E-02 9.01260E-02 7.25382E-01-1.73922E+00
 -1       947-4.72951E+00-5.09148E-01 4.53411E-01 3.85088E-01 1.63188E-01 2.14909E-01
 -1       948-2.67840E+00-1.56203E+00-4.53483E-02 1.20156E-01-1.73378E-02 1.12100E+00
 -1       949-1.24438E-01-6.28399E-01-3.34948E-01 2.46881E-02 7.43002E-02 2.50706E-01
 -1       950-1.80274E+00-1.85700E+00-1.02254E+00 3.38054E-01 1.47836E-02 1.13754E+00
 -1       951-4.62542E-01-7.17544E-01 2.10888E-02-2.55242E-01-5.00028E-01 1.15437E+00
 -1       952-1.47447E+00-1.99504E+00-4.62956E-01 1.69056E-01-1.21117E-01 1.31167E+00
 -1       953-3.04726E+00-8.18429E+00-2.60180E+00 1.89201E-01-6.10875E-02 1.79986E+00
 -1       954-3.82075E+00-3.45250E+00 9.58749E-02 3.05021E-01-1.04890E+00-1.19819E+00
 -1       955-5.12909E+00-3.04056E+00 5.07210E-01-1.06792E+00-2.59337E-01-1.57336E-01
 -1       956-1.98115E+00-1.71389E+00-2.03108E-01 3.98228E-02-1.30317E-01-1.64298E+00
 -1       957-1.12334E+00-8.37880E-01-2.46134E-01-2.28660E-01 3.80115E-01 7.84535E-01
 -1       958-6.61115E-02-8.40332E-01-1.56969E-02 5.14142E-01 1.49003E-01 6.92474E-01
 -1       959-5.19527E-01-5.01238E-01-3.37322E-02-3.95213E-01 4.16289E-01 1.22484E+00
 -1       960-3.91194E+00-5.25322E+00-1.37889E+00 1.72594E+00 1.34908E+00 7.38042E-01
 -1       961-2.80006E+00-2.36802E+00-1.21943E-01 3.30772E-01-1.08144E+00-1.36012E+00
 -1       962-3.74450E+00-3.75889E+00 6.95337E-01-1.73172E+00 2.24316E-02-1.34816E-02
 -1       963-1.82331E+00-1.55349E+00 3.58749E-02-8.22143E-01-1.41313E+00-1.87241E+00
 -1       964-9.38904E-01-1.56185E+00 6.77487E-02-6.16522E-02 8.06665E-01 4.78692E-01
 -1       965-5.25393E-01-5.21984E-02-6.93979E-01 3.51243E-01 4.00949E-01 7.94562E-01
 -1       966-1.03123E+00-1.20626E+00 2.04533E-01-4.41922E-02 9.44928E-01 1.02365E+00
 -1       967-4.35695E+00-3.30119E+00-1.39865E+00 1.33273E+00 3.31615E-01 1.21935E+00
 -1       968-1.11935E+00-1.54739E+00-6.30467E-01 7.84592E-01 5.42418E-01-6.55906E-02
 -1       969-9.72512E-01-4.55498E-01 5.40522E-01 5.68461E-01 9.61509E-01 6.64467E-01
 -1       970-3.81126E-01-6.85923E-01 3.90072E-01-3.48053E-01 8.99437E-01-1.05609E-02
 -1       971-7.30244E+00-3.09942E+00-2.50117E+00 5.27973E-01 1.26679E+00 3.73905E-01
 -1       972-1.08136E+00-1.82908E+00 3.94120E-01-1.97609E-02 1.02244E+00-1.04493E-01
 -1       973-2.98109E+00-5.28160E+00 9.44969E-01-1.79212E-01-2.81429E-01 4.29442E-01
 -1       974-2.73606E+00-2.32688E+00-2.57056E-01 1.39887E-01-1.88312E+00-1.14560E-01
 -1       975-1.92353E+00-8.21590E-01 1.03777E+00-1.83026E-01 8.43763E-01 2.64621E-01
 -1       976-7.17652E-01 6.28503E-02-1.27146E-01-8.66072E-02 1.28199E+00 5.76150E-01
 -1       977-1.33807E+00-9.74452E-01-2.18760E-02 1.26867E-02 1.32512E+00 1.48669E-01
 -1       978-8.38667E+00-3.35881E+00-6.75332E-01-6.10712E-01 8.72653E-01-6.32616E-01
 -1       979-1.38503E+00-1.92556E+00 1.40633E-01-1.23660E-02 7.01361E-01-3.23245E-01
 -1       980-8.01358E-01-5.31901E-02-2.17308E-01-3.50814E-01 7.74372E-02 1.38275E-01
 -1       981-2.94275E+00-5.09102E+00 5.27644E-01 3.12276E-01 3.95138E-01 3.41615E-02
 -1       982-1.96879E+00-9.16529E-01 2.57010E-01-7.51155E-01 9.14814E-01-2.75166E-01
 -1       983-9.97608E-01-7.88380E-01 4.21500E-01-7.06388E-01 1.40914E+00-1.00448E-02
 -1       984-1.78634E+00-1.35840E+00-4.11621E-01 8.48134E-03 9.51107E-01-1.65664E-02
 -1       985-5.64914E+00-3.29617E+00-8.34302E-01-1.29300E+00 1.30147E+00-2.10927E-01
 -1       986-8.23114E-01-1.41371E-01-3.56149E-01-4.03899E-01-2.86839E-04-2.80954E-01
 -1       987-1.97188E+00-1.50263E+00 3.08983E-01 3.26887E-01 7.52229E-01-6.83924E-01
 -1       988-4.08480E+00-3.88521E+00 3.27820E-01 1.19872E+00-3.96859E-02 4.39419E-01
 -1       989-3.28098E+00-3.55989E+00 3.84149E-01 2.30158E-01-1.37631E+00 1.20132E+00
 -1       990-4.64875E+00-2.93595E+00-9.23351E-01-1.04960E+00 2.22440E-01-3.42828E-01
 -1       991-1.42388E+00-1.21497E+00 1.17890E-01-2.67084E-01 9.44063E-01-9.00613E-01
 -1       992-2.43342E-01-5.41646E-01 5.21168E-01-2.79194E-01 1.09969E+00-8.52043E-01
 -1       993-6.92713E-01-3.57107E-01-2.06181E-01 1.46303E-01 8.22960E-01-8.66743E-01
 -1       994-4.41087E+00-4.94712E+00-1.08625E+00-1.74721E+00 1.05902E+00-1.68316E+00
 -1       995-3.25065E+00-3.45049E+00-5.42110E-02 2.13560E-01-1.10019E+00 1.58918E+00
 -1       996-4.52656E+00-3.84749E+00 9.84098E-01 8.50431E-01 7.31180E-02 2.60405E-01
 -1       997-2.03064E+00-8.03562E-01-6.59004E-01 6.44186E-01-9.81152E-01 1.04876E+00
 -1       998-1.15862E+00-1.93023E+00 5.53245E-01-9.77081E-01 2.90256E-01-5.86668E-01
 -1       999-3.85028E-01-1.23989E-01-4.53767E-02-2.48306E-01 7.05094E-01-6.04064E-01
 -1      1000-1.04482E+00-1.50155E+00 2.39895E-01 1.20681E-02 7.90304E-01-7.35450E-01
 -1      1001-3.48286E+00-5.93904E+00-7.23608E-01-6.51206E-01-5.22056E-02-2.92609E-01
 -1      1002-2.78867E+00-1.10622E+00 3.33497E-01 1.12771E-01 6.49195E-02-1.00012E+00
 -1      1003-2.22347E+00-3.07960E+00-1.27472E-01-3.93630E-01-9.61438E-03 1.65777E+00
 -1      1004-5.50276E+00-2.59409E+00 5.15384E-01 4.87921E-02 1.48569E-01 4.99175E-01
 -1      1005-2.42944E+00-9.98461E-01 3.27624E-01-1.19399E-01-4.64719E-01 1.79907E+00
 -1      1006-1.07188E+00-2.60689E+00-5.88085E-02-2.22892E-01 8.72729E-02-8.23565E-01
 -1      1007-1.18475E+00-1.89400E-01-3.70621E-01 2.67515E-01 3.58977E-01-9.93132E-01
 -1      1008-1.17737E+00 1.43039E-01-5.82581E-01 2.93088E-01 6.84030E-01-1.03627E+00
 -1      1009-4.04403E+00-6.14476E+00-2.51949E+00-7.43985E-01 8.05537E-01-1.15754E+00
 -1      1010-2.34592E+00-3.38446E+00-1.19546E-02 9.78124E-03 2.76894E-01 1.97170E+00
 -1      1011-5.46102E+00-2.67450E+00 2.11340E-01-6.91975E-01 2.45681E-01-4.62923E-02
 -1      1012-5.33116E-01-8.92824E-01-2.92551E-01 1.39557E-02-6.14034E-02-5.80845E-01
 -1      1013-1.35445E+00-2.87696E+00-7.34777E-01 1.18652E+00-3.95257E-01-5.20641E-01
 -1      1014-7.43151E-01-6.95255E-01 6.21797E-03 1.95566E-01-6.94153E-02-1.48274E+00
 -1      1015-1.39454E+00-1.06477E+00-2.67482E-01-2.67245E-01 3.32507E-01-9.09635E-01
 -1      1016-1.71527E+00-6.00394E+00-2.05286E+00 4.70795E-01 1.87372E-01-1.44924E+00
 -1      1017-4.27098E+00-3.98409E+00 6.43432E-01-1.21068E+00-6.98060E-02 4.33801E-01
 -1      1018-3.45939E+00-3.65166E+00-2.51055E-01-1.30311E-01 1.08047E+00 1.53071E+00
 -1      1019-4.48731E+00-3.66755E+00-6.55341E-03-1.92660E+00 3.58555E-01 3.78280E-01
 -1      1020-1.52430E+00-1.99880E+00 8.08043E-01 1.56039E-01-2.55655E-01-2.61559E-01
 -1      1021-6.25821E-02-4.22597E-01 1.09152E+00-2.33834E-02-8.36607E-01-1.29135E+00
 -1      1022-1.33029E+00-1.03851E+00 3.10356E-01-5.49443E-02-2.32527E-01-1.02281E+00
 -1      1023-5.49938E+00-3.61609E+00-1.13752E+00 8.03457E-01-6.87634E-01-6.62532E-01
 -1      1024-2.23163E+00-2.70946E+00 8.13934E-02 9.48018E-02 1.56387E+00 1.25634E+00
 -1      1025-3.77298E+00-4.04888E+00 6.28288E-01-1.62898E+00-4.27256E-01-1.94136E-02
 -1      1026-1.13369E+00-5.01521E-01-4.27261E-01 3.97710E-01-3.73201E-01-6.11931E-01
 -1      1027-2.03569E+00-1.65884E+00 1.34835E+00 9.15277E-01-2.09463E-01-1.04195E+00
 -1      1028-1.48981E+00-9.45757E-01-6.29838E-01 1.27979E-01-9.81222E-01-8.83797E-01
 -1      1029-1.35898E+00-1.23755E+00-2.26201E-01-2.81770E-01-7.63778E-01-2.37581E-01
 -1      1030-6.74476E+00-4.04070E+00-2.31855E+00 1.47772E+00-9.73767E-01-1.20645E+00
 -1      1031-3.26825E+00-5.40177E+00 6.81952E-01-4.08834E-01-1.62824E-01-7.41577E-04
 -1      1032-2.66924E+00-2.74315E+00-2.47604E-01 2.22044E-01 1.55680E+00 3.18149E-01
 -1      1033-1.63775E+00-1.01967E+00 3.54066E-01 1.03051E-01-7.44839E-01 1.16620E-01
 -1      1034 6.52557E-02-2.09039E-01-6.06129E-01-2.82486E-01-1.38986E+00-6.23434E-01
 -1      1035-1.92692E+00-1.91517E+00-9.05976E-01 3.12014E-01-1.10889E+00-7.32283E-01
 -1      1036-4.72486E+00-3.49879E+00-7.89602E-01 1.74637E+00-1.03408E+00 1.73679E-01
 -1      1037-1.36020E+00-2.21875E+00 1.58559E-01-1.18428E-01-8.79656E-01-8.17400E-02
 -1      1038-7.72964E-01 9.28136E-02-3.09579E-01-2.70162E-01-6.13354E-02-3.52888E-02
 -1      1039-3.07850E+00-5.80308E+00 5.24162E-01 5.03919E-01 2.16423E-01 7.33368E-02
 -1      1040-1.95625E+00-5.16103E-01 9.05087E-01-4.50642E-01-5.49461E-01 1.39021E-01
 -1      1041-9.03876E-01-4.19452E-01-3.49163E-01-2.15217E-01-1.13871E+00-4.41713E-01
 -1      1042-1.69420E+00-1.59386E+00 1.13996E-01-3.60893E-01-1.05199E+00 3.42621E-01
 -1      1043-4.94701E+00-2.57165E+00-1.52618E+00-7.48953E-01-9.68340E-01 5.48259E-01
 -1      1044-3.42010E+00-4.51076E+00 7.03618E-01 5.85667E-01 3.42632E-01 6.70574E-02
 -1      1045-3.47070E+00-1.55382E+00 3.31371E-01-8.93665E-01-7.65866E-01 2.50577E-01
 -1      1046-1.12285E+00-8.90279E-01-7.13889E-01 5.24131E-02-1.12091E+00 3.57393E-01
 -1      1047-7.43757E-01-8.65621E-01-1.07932E+00-1.54017E-01-1.24432E+00-8.26447E-02
 -1      1048-1.36116E+00-1.32650E+00 1.56841E-01-3.78731E-01-1.13785E+00 5.29279E-01
 -1      1049-3.46128E+00-3.42152E+00-1.50629E+00-1.53580E+00-1.01765E+00 6.13582E-01
 -1      1050-3.56704E+00-4.01653E+00 8.39773E-01 9.48977E-01 2.00339E-01-2.88161E-01
 -1      1051-2.36743E+00-2.74848E+00-6.11138E-03-7.61466E-01 1.16698E+00-9.89775E-01
 -1      1052-3.26997E+00-3.28908E+00 1.34449E-01 1.41365E+00-1.56528E-01-4.29041E-01
 -1      1053-1.94600E+00-1.71552E+00 2.97894E-01 2.27401E-01-3.04675E-01 5.57522E-01
 -1      1054-8.83730E-01-8.44754E-01-3.56081E-01-7.99897E-01-1.62611E-01 2.71744E-01
 -1      1055-1.18337E+00-8.13698E-01 4.65175E-01-1.83519E-01-2.33080E-01 5.84603E-01
 -1      1056-4.32657E-01-4.79947E-01 1.56635E-01-4.90731E-01-9.84184E-01 7.39960E-01
 -1      1057-1.44914E+00-1.59402E+00 1.56693E-01-1.88474E-01-4.78848E-01 3.33589E-01
 -1      1058-5.72856E+00-8.54277E+00-2.31264E+00-2.81135E+00 9.61762E-02 1.33790E+00
 -1      1059-3.20062E+00-3.20546E+00 2.36432E-01 7.51124E-02 6.24496E-01-1.70251E+00
 -1      1060-5.24626E+00-3.08441E+00 9.65005E-01 9.98608E-01 2.82900E-02-3.12112E-01
 -1      1061-2.32216E+00-1.38322E+00 5.68026E-01 7.79481E-01-2.78720E-01 8.64671E-01
 -1      1062-3.39642E-01-1.11983E+00-5.84767E-01-2.11765E-01-8.77247E-02 4.93995E-01
 -1      1063-1.21173E+00-1.31173E+00-2.06169E-01 5.53674E-01-7.44447E-01 1.09056E+00
 -1      1064-1.16357E+00-4.85112E-01-7.14339E-01 5.02500E-01-8.62869E-01 1.65639E+00
 -1      1065-7.09962E-01-1.05399E+00 2.49697E-01 7.73658E-01-6.37952E-01 9.40847E-01
 -1      1066-2.91007E+00-6.37160E+00-1.41793E+00-5.05604E-01-2.81835E-01 6.95609E-01
 -1      1067 8.58545E+00 2.46143E+00 2.91115E-01 9.64892E-01-2.72455E+00 5.32897E-01
 -1      1068-8.96729E+00-3.03629E+00-2.37398E+00-1.19849E+00-2.34713E-01-4.78833E+00
 -1      1069 3.59631E+00 1.05191E+01 2.47833E+00-1.26838E-01 3.06325E+00 9.70606E-01
 -1      1070 6.45197E-01-3.73955E+00-2.91880E+00-6.35030E-01 3.65348E+00 4.03875E+00
 -1      1071 1.63287E+00 5.20836E+00 2.39423E+00 6.59118E+00 1.68181E+00 6.05085E+00
 -1      1072-1.50011E+01-1.15683E+01-5.69607E+00-6.60581E+00 3.26831E+00 1.61044E+00
 -1      1073 5.97921E+00 7.27080E+00 1.59439E+00-3.08039E+00 2.72520E-01-1.90482E+00
 -1      1074-9.66785E+00-3.62023E+00-3.17808E+00 2.34562E-01-6.88070E-01 6.59855E+00
 -1      1075 4.32261E+00-2.96380E+00-1.16393E+00 3.66278E+00-4.75831E+00 1.97801E+00
 -1      1076-5.97826E+00 1.64653E+00-1.96559E+00-1.15627E+00-3.03907E+00 5.04417E+00
 -1      1077 2.59685E+00-1.84290E+00 3.27547E+00-2.42012E+00 9.02664E-01 3.44049E+00
 -1      1078-4.83019E+00-4.21869E+00 1.57350E-01-4.11468E+00 2.97448E-01 2.09368E+00
 -1      1079-8.20753E+00-4.93094E+00-5.80733E+00 1.92880E+00-2.82915E-01 1.59475E+00
 -1      1080-2.39538E+00-5.10633E+00-1.43645E+00 1.45572E+00 1.83006E+00-1.14107E+00
 -1      1081 0.00000E+00 0.00000E+00 0.00000E+00 0.00000E+00 0.00000E+00 0.00000E+00
 -1      1082-1.30160E+00-4.85401E+00 1.68189E+00 1.57751E+00-1.97205E+00 3.11325E+00
 -1      1083-1.26244E+00-5.66122E+00 1.25225E+00-8.77967E-01 2.34421E+00 2.67875E+00
 -1      1084-1.69659E+00-2.00737E+00-3.27131E-01 2.48874E+00-3.59617E+00 1.33591E+00
 -1      1085 4.60437E+00 6.68645E+00 2.40378E+00 1.34554E+00 4.76100E-01 3.36561E+00
 -1      1086 1.60077E+00 1.39636E+00 2.79176E+00 1.79834E-01-2.65204E+00 1.32494E+00
 -1      1087-9.26973E-01-3.96997E+00-1.95769E+00 5.36876E-01-1.07872E+01 1.97351E+00
 -1      1088-1.00767E+01-2.12476E+01-9.39729E+00-2.18696E+00-5.69690E+00 4.74354E-01
 -1      1089-3.55927E+00-6.52746E+00-2.56960E+00 2.25602E+00 5.43527E+00-1.15188E+00
 -1      1090 9.77985E-02-2.56494E+00 3.06634E+00 3.38605E-01 2.66791E+00-1.41757E+00
 -1      1091-4.86647E+00-6.59388E+00-4.19042E+00-2.44287E+00-5.61095E+00-1.11289E+00
 -1      1092-3.73413E+00-1.57796E+00-1.87715E+00-2.34056E+00-5.14162E+00-3.37665E+00
 -1      1093-9.53519E-01-5.63833E+00 5.87412E+00 1.41275E+00-1.06830E-01-1.90954E+00
 -1      1094-2.87269E+00-5.32633E+00 2.93379E+00 2.98113E+00-1.12054E-01 2.08446E+00
 -1      1095 1.31283E+00-1.15515E+01-3.38747E+00-2.72476E+00-3.20592E+00-4.26415E+00
 -1      1096-2.35406E+00-1.80902E+00 2.25823E+00 1.61992E+00 2.08443E+00-2.71787E+00
 -1      1097-6.96656E+00-4.85999E+00-6.09768E-01 2.90781E+00 2.84850E+00-3.78601E+00
 -1      1098-6.07824E+00-2.22543E+00 1.06694E+00-1.48769E+00-3.72897E+00-4.25660E+00
 -1      1099-1.21375E+01-8.20425E+00-6.10252E+00 3.57890E+00 4.72580E+00-8.84115E+00
 -1      1100-1.10298E+01-3.26188E+00 6.31015E-01-1.43913E+00-2.21149E+00-5.30610E-01
 -1      1101-1.08387E+01-5.84222E+00-5.00428E+00 2.26613E+00 2.25756E+00-7.44293E+00
 -1      1102-1.80414E+01-7.83165E+00-7.76193E+00-8.60196E-01-8.60521E-01-8.73567E+00
 -1      1103 1.55520E+00-1.43323E+00 6.65211E-01-2.14411E+00 1.76439E-01 3.31124E+00
 -1      1104 2.10781E+00 1.06065E+00 1.59681E+00 1.42161E+00 4.40329E+00 2.50567E+00
 -1      1105 2.69719E+00 3.47410E+00-3.02640E+00 2.36183E+00-5.11487E-01-3.28803E-01
 -1      1106 2.49997E+00-4.51672E-02-2.07379E-01-8.28924E-01 2.86083E+00-4.77582E+00
 -1      1107-1.83542E+00-1.77092E+00-3.07999E+00 4.20069E-01 1.11270E+00-4.38405E+00
 -1      1108 9.48189E-01 1.09925E+00-1.13811E+00 1.02488E+00-2.36867E+00-1.67101E+00
 -1      1109 2.70165E+00 1.54156E-01-4.22688E+00 1.01051E+00-3.08747E+00-3.28171E+00
 -1      1110 1.24261E+01 8.81904E-01 3.58598E+00-1.64577E+00-1.43010E+00-7.37235E+00
 -1      1111 5.67343E+00 3.13742E+00 5.68225E-01 5.61006E+00-8.67579E-01-3.33248E+00
 -1      1112 5.19745E-01 2.83971E+00 1.57034E+00 1.02563E+00 6.87770E+00-1.59629E+00
 -1      1113 2.36642E+00 3.39480E+00 1.72837E+00-1.14141E+00 2.28520E+00-2.23638E+00
 -1      1114 8.81264E+00 1.09675E+00-5.46901E+00-1.76804E-01 3.96253E-01 4.03361E+00
 -1      1115-2.87469E+00-2.45674E+00-4.28895E+00 4.89388E-01-1.39648E+00 4.89623E+00
 -1      1116 3.16221E+00 1.65589E+00-2.37994E+00-1.90581E+00 1.10651E+00 9.51323E-01
 -1      1117-2.99674E-01 2.13072E+00 2.33905E+00-2.78783E-01-3.47925E+00 2.98735E+00
 -1      1118-2.81677E+00-3.64719E+00-5.78804E+00 1.58610E-01 4.92380E-01 2.93802E+00
 -1      1119-1.49169E+00-5.49172E+00-4.48194E+00 8.45618E-01-2.80474E+00-3.63851E+00
 -1      1120-7.73721E-01 5.42096E-01 2.57523E-01 1.62850E+00-8.00074E+00 6.56520E-01
 -1      1121 5.34023E+00 1.25572E+01 5.36922E+00 2.06877E-01-7.37849E+00-7.26830E-01
 -1      1122 1.11303E+00 6.62823E+00-2.95826E+00-5.13591E-01 9.56709E-01-3.53305E+00
 -1      1123 2.92917E-01 4.09356E+00-1.38373E-01 1.38674E-01-5.78671E+00-3.85828E+00
 -1      1124-1.97530E+00-1.32541E+00-1.46239E-01-4.53487E-02-7.73399E-02-1.48033E+00
 -1      1125-6.14524E-03-1.87069E-01-3.35225E-01 3.95976E-02 1.57735E-01 2.08963E-01
 -1      1126-2.16833E+00-2.76080E-01 7.94230E-03 1.25366E-02-1.33691E-01 9.63098E-01
 -1      1127-1.72119E+00-2.95297E+00 3.21492E-01-2.58019E-01-5.93914E-01 6.96432E-01
 -1      1128-1.25374E+00-3.36171E+00-9.15248E-01-1.47023E-01 1.89770E-02 1.32421E+00
 -1      1129-7.73131E-01-7.81697E-01-2.18628E-01-5.43769E-02 5.64211E-02 1.27775E+00
 -1      1130-1.57624E+00-3.62936E+00-6.90249E-01 3.37001E-01-4.43874E-01 7.28409E-01
 -1      1131 2.19553E-01-3.21101E-01-1.49704E-01 5.82381E-02-1.15355E-01-1.07484E-01
 -1      1132-1.74186E+00-6.78098E-01 4.11192E-01-6.83609E-01 2.17596E-01 5.73347E-01
 -1      1133-2.06899E+00-1.76916E+00 2.57523E-01-5.09354E-01 3.72733E-01 7.52011E-01
 -1      1134-1.10209E-01-1.20380E+00-4.63487E-01 4.58361E-01 1.10595E-01 2.99602E-01
 -1      1135-5.26890E+00-1.62367E+00 6.18174E-01-1.40112E+00-1.90598E-02-1.06133E-01
 -1      1136-9.63862E-01-3.18672E+00 1.17470E+00 3.58936E-01 1.84705E-01 2.12905E-01
 -1      1137-2.91084E+00-6.30524E+00-2.00650E+00-1.49406E-01 2.10278E-01 1.31747E+00
 -1      1138 4.65361E-02 7.05254E-01 2.70348E-01 3.57148E-01 9.38552E-01 9.69803E-01
 -1      1139-5.89670E-01-1.16383E+00 3.29603E-01-1.61498E-01 1.54126E-01 5.14015E-01
 -1      1140-2.69407E-01 2.07473E-01-8.09616E-02 1.72591E-01-9.41858E-02 1.30840E-01
 -1      1141-1.10093E+00-1.24782E+00 1.66726E-01-8.72434E-01 4.55263E-01 5.50475E-01
 -1      1142-1.64993E+00-1.99384E+00 7.31011E-02-6.01478E-01 6.39471E-01 6.99813E-01
 -1      1143-4.91602E-01-1.55045E-01-4.65094E-01 5.88611E-01 2.90056E-01 6.78677E-02
 -1      1144-3.70683E+00-3.49254E+00-1.07888E-01-1.89256E+00 1.79613E-01-1.84182E-01
 -1      1145-2.03032E+00-2.02151E+00 3.56577E-01 7.46843E-01 3.62090E-01 1.41655E+00
 -1      1146-6.58519E+00-7.99784E+00-2.63306E+00 1.75902E+00 3.30707E-01 5.70366E-01
 -1      1147-6.26857E-01-7.39094E-01-3.11481E-02 6.47108E-01 9.99067E-01 1.36665E+00
 -1      1148-2.55251E+00-1.37300E+00 4.86172E-01 8.34927E-01 7.75483E-01 8.57954E-01
 -1      1149-2.76656E-01 4.09254E-02-1.27933E-01 1.94910E-01-7.10850E-02 1.68344E-01
 -1      1150-1.46266E+00-1.46626E+00 7.56896E-02-4.20214E-01 6.32692E-01 4.56393E-01
 -1      1151-8.82903E-01-1.33144E+00 8.23432E-02-6.30454E-01 6.97911E-01 2.75490E-01
 -1      1152-7.86540E-01-1.22304E-01-3.55773E-01 2.87951E-01 1.13644E-01 7.69182E-02
 -1      1153-2.06864E+00-1.81840E+00-1.55739E-01-1.18389E-01-9.46812E-01-1.17930E+00
 -1      1154-3.02575E+00-4.17213E+00 4.00504E-01-1.63825E+00-5.12124E-01 7.23883E-02
 -1      1155-3.65441E+00-2.81096E+00 3.35684E-01-7.83586E-02-1.12453E+00-3.63721E-01
 -1      1156-3.63128E+00-4.15431E+00 7.00675E-01-1.17610E+00-5.74763E-01-5.64727E-01
 -1      1157-6.77320E+00-3.53452E+00-8.81094E-01 1.37708E+00 1.26591E+00 1.30254E+00
 -1      1158-1.48137E+00-1.21404E+00 2.55161E-01 9.39035E-02 9.29473E-01 5.04805E-01
 -1      1159-1.01483E-01-5.45066E-01 9.10127E-02-2.32090E-01 1.44716E+00 5.66134E-01
 -1      1160-4.71248E+00-2.42872E+00 4.78963E-01 7.87051E-01 5.21270E-01 2.09319E-01
 -1      1161-2.60575E-01 5.92792E-01-2.22351E-01 4.90171E-02 2.25219E-01 1.29075E-01
 -1      1162-1.31992E+00-2.23001E+00 2.95155E-01 1.71769E-01 8.80751E-01 4.90043E-02
 -1      1163-7.90800E-01 1.69595E-01-3.65212E-01 5.97192E-02 6.80600E-02-7.40354E-02
 -1      1164-9.49891E-01-2.51910E+00-1.29916E-01-4.13776E-02-2.04360E+00 1.89537E-01
 -1      1165-2.44507E+00-6.05168E+00 1.41351E-01-1.92999E-01-1.99724E-01 8.20265E-02
 -1      1166-7.18172E+00-3.15309E+00-7.70176E-01 2.09633E-01 6.11143E-02 7.66597E-01
 -1      1167-1.46312E+00-1.15140E+00 4.41885E-01 5.31201E-03 1.11483E+00 4.24643E-01
 -1      1168-2.60862E-01-2.32694E-01 1.24244E-01 1.54269E-01 1.49905E+00 4.53203E-01
 -1      1169-3.40142E+00-2.01193E+00 1.06527E+00-4.19564E-01 5.01437E-01-4.65562E-01
 -1      1170-1.88288E-01 1.04278E-01-8.91028E-02-3.08480E-01 8.23517E-02-1.49036E-01
 -1      1171-9.63137E-01-1.70513E+00 2.10833E-01-5.39099E-02-2.14194E+00 1.43647E-01
 -1      1172-1.12857E+00-4.84635E+00 8.50845E-01 5.85529E-01 2.49759E-01-3.95300E-01
 -1      1173-2.78297E-01-1.19067E+00 4.35556E-01 1.04305E-01 6.21302E-01-1.40422E-01
 -1      1174-2.72806E+00-2.82768E+00-9.37818E-02-3.99636E-01-1.81615E+00 2.95368E-01
 -1      1175-6.32040E+00-4.37364E+00-1.71025E+00-6.02589E-01 2.30788E-01-4.70872E-01
 -1      1176-1.66452E+00-1.00349E+00 2.96953E-01-5.68462E-02 1.07721E+00-1.58671E-01
 -1      1177-1.25553E+00-5.83620E-01-8.24777E-02-3.40680E-01 7.00900E-01-8.06514E-01
 -1      1178-2.32795E+00-1.63993E+00-6.58924E-02-3.89355E-01 5.33413E-01-5.47944E-01
 -1      1179-2.18244E+00-1.70878E+00 8.74719E-02 5.40980E-01 7.73091E-01-4.07624E-01
 -1      1180-1.89031E-01 2.53710E-01-5.48854E-01-3.55599E-01 1.65532E-02-3.74251E-01
 -1      1181-1.55207E+00-2.30840E+00-4.17289E-01-6.47146E-02-1.04851E+00 1.11272E+00
 -1      1182-3.41943E+00-3.54809E+00 3.61652E-02 1.63614E+00-4.00066E-01 6.03605E-02
 -1      1183-6.30710E+00-4.48984E+00-3.50691E-01-2.12047E+00 1.06707E+00-5.62979E-01
 -1      1184-1.18242E+00-1.93503E-01-3.20623E-01-9.60589E-02 1.43013E+00-1.16416E+00
 -1      1185-2.11976E+00-2.34477E+00 6.02831E-01-9.11012E-01 3.55585E-01-3.18283E-01
 -1      1186-8.51904E-02-7.48178E-02-1.88469E-01-1.64393E-01 6.19333E-02 7.58495E-02
 -1      1187-2.09587E+00-1.59941E+00 3.14540E-01 2.48634E-01 5.02256E-01-7.28720E-01
 -1      1188-2.17713E+00-1.34035E+00 1.26718E-01 4.75930E-01 3.16698E-01-7.86569E-01
 -1      1189-2.85716E-01-6.33988E-01-4.15192E-01-3.48211E-01 1.66290E-01-1.99362E-01
 -1      1190-4.69104E+00-3.36744E+00 9.60824E-02 1.71533E+00-2.16806E-01 2.49870E-02
 -1      1191-5.26687E+00-6.26361E+00-1.01949E+00-1.49968E+00 2.60079E-01-3.83569E-01
 -1      1192-1.11668E+00-6.34638E-01-2.78884E-01 1.05175E-01 8.58238E-01-7.22565E-01
 -1      1193 2.54574E-01 6.41471E-01 7.68120E-01-6.62130E-03 1.97657E-01-1.25161E+00
 -1      1194-1.90990E+00-2.36148E+00-3.58770E-01-8.00089E-01 4.84340E-01-5.59624E-01
 -1      1195-4.95874E-01-2.85226E-01-8.74866E-02-1.77514E-01 2.21894E-01-3.96955E-01
 -1      1196-3.20872E+00-1.31101E+00 1.22415E-01 2.75865E-02 1.95219E-01-1.03438E+00
 -1      1197-3.99701E-01-7.14895E-01-2.66890E-01-3.14654E-01-4.65942E-02-4.69529E-01
 -1      1198-5.38506E+00-1.86591E+00 2.20185E-02 2.93180E-01-3.15602E-01 2.59594E-01
 -1      1199-5.45481E+00-7.66534E+00-8.24501E-01-1.79978E+00 1.21823E+00-6.24151E-01
 -1      1200-1.68252E+00-1.28284E+00 2.71305E-02-2.64820E-01 4.99469E-01-1.05511E+00
 -1      1201-1.19772E+00-1.63499E+00-5.41108E-01-2.02398E-01-7.87723E-01-1.21816E+00
 -1      1202-1.09809E+00-3.13356E+00 3.26872E-01 9.59383E-01-6.98111E-02-2.57497E-01
 -1      1203-5.26231E+00-1.03060E+00 7.38335E-01-7.68365E-01-1.31711E-01-4.32062E-02
 -1      1204-2.70513E+00-9.77001E-01-4.35356E-02-4.44526E-01 5.85310E-01 2.16770E+00
 -1      1205-3.45799E+00-1.55970E+00 1.74699E-01-6.46047E-01-3.97304E-01-7.30161E-01
 -1      1206-5.47878E-01-3.43671E-01-1.81416E-01-3.45556E-02-2.09297E-01-7.69195E-01
 -1      1207-3.29517E+00-1.93664E+00 5.37115E-01-4.44800E-01-2.20903E-01-8.68048E-01
 -1      1208-2.46220E+00-6.54595E+00-9.23386E-02-4.74138E-02 1.02150E+00-5.11082E-01
 -1      1209-1.23108E+00-1.22063E+00 3.28417E-01 3.81541E-01 2.86230E-01-9.39843E-01
 -1      1210-5.49706E-01-9.45503E-02 3.31599E-02 2.98561E-02-3.78892E-01-1.06712E+00
 -1      1211-1.60135E+00-2.69259E+00 7.89061E-01 2.32846E-01-3.98112E-01-5.18530E-01
 -1      1212-2.11660E+00-1.76686E+00-7.61352E-01 7.06478E-02 1.23287E+00 9.88904E-01
 -1      1213-2.18662E-01-1.94695E-01-2.04324E-01 1.28330E-01-1.98468E-01-5.54635E-01
 -1      1214-2.03240E+00-1.11193E+00 2.02877E-01-1.02354E+00-4.83561E-01-6.07788E-01
 -1      1215-6.11662E-01-1.05289E+00-2.48034E-01 4.86032E-01-1.79039E-01-2.76611E-01
 -1      1216-2.48353E+00-1.68264E+00 1.26572E-01-6.63207E-01-4.08485E-01-7.61799E-01
 -1      1217-3.69601E+00-5.42883E+00-1.60510E+00 3.78485E-01-1.36588E-03-7.22501E-01
 -1      1218-9.16581E-01-8.53647E-01-1.20594E+00-6.40758E-02-3.50216E-01-9.68048E-01
 -1      1219-8.25883E-01-1.61573E+00 4.72933E-01 2.45259E-01-9.66679E-01-1.08222E+00
 -1      1220-1.86369E+00-1.64341E+00 4.14753E-01 3.78003E-01-4.64576E-01-1.16446E+00
 -1      1221-3.09432E+00-3.81945E+00 4.52680E-01-2.31504E+00-4.62489E-01 4.95293E-01
 -1      1222-1.39196E+00-2.13376E+00 1.18253E-01-8.89368E-01 1.69384E+00 1.39938E+00
 -1      1223-2.27234E+00-2.06904E+00 9.38778E-02-1.06771E+00-6.66024E-01-3.64539E-01
 -1      1224-5.39813E-01-1.58612E-01-1.32510E-01-4.06214E-02-2.76672E-01-2.21096E-01
 -1      1225-2.09993E+00-1.86382E+00 2.62401E-01-9.09519E-01-6.67534E-01-7.29821E-01
 -1      1226-4.89110E+00-4.95819E+00-1.02942E+00 1.61624E+00-4.38699E-03-1.04371E+00
 -1      1227-1.20707E+00-1.47586E+00-1.28472E-01-1.85336E-01-1.12399E+00-5.59095E-01
 -1      1228-8.13724E-01-9.78407E-01-2.36652E-01-1.27797E-01-8.88756E-01-9.56454E-01
 -1      1229-2.75835E+00-2.67209E+00-6.29840E-01 5.70866E-01-6.24083E-01-5.19472E-01
 -1      1230-1.17327E+00-5.07990E+00 1.05011E+00-8.40420E-01-1.80873E-01-3.41676E-01
 -1      1231-9.61481E-01-1.98251E+00-1.44603E-01-1.31070E-01 1.71930E+00-1.74473E-02
 -1      1232-5.29613E-01-2.66021E+00 2.26735E-01-3.24123E-01-9.76480E-01 4.60749E-02
 -1      1233-9.92770E-01-2.45578E-01-2.97694E-01 1.84094E-01-2.76606E-01-1.01578E-01
 -1      1234-3.38405E-01-3.87676E-02-3.02621E-01-7.47176E-03-4.23378E-01-2.96436E-01
 -1      1235-1.28766E+00-3.04658E+00 2.21746E-01-1.94571E-01-9.29890E-01-1.54691E-01
 -1      1236-6.66569E+00-4.51356E+00-7.45146E-01 1.64810E+00-1.04692E+00-1.07168E+00
 -1      1237-1.65308E-01-7.64957E-01 8.60650E-02-2.18403E-01-1.02995E+00-7.34200E-01
 -1      1238-1.37835E+00-9.75499E-01-5.73632E-01 9.24478E-02-1.36589E+00-4.86968E-01
 -1      1239-1.80702E+00-5.59818E-01-4.42569E-01 3.14863E-01-6.51606E-01-1.38669E-01
 -1      1240-1.11726E+00-2.46226E+00 3.52372E-01 4.35066E-01 1.94669E+00 9.58088E-02
 -1      1241-1.13901E+00-5.00365E+00 7.89922E-01 5.50492E-01 1.33044E-01 2.85288E-01
 -1      1242-2.50467E-01 2.09461E-01-2.47118E-01-1.88933E-01-1.76248E-01 1.82973E-01
 -1      1243-3.39696E-01-1.79228E+00 1.51453E-01 1.36359E-02-5.86310E-01-7.51443E-02
 -1      1244-3.38973E+00-2.46953E+00-1.44971E-01 1.47064E-01 2.08435E+00-6.59790E-01
 -1      1245-7.91483E+00-3.31583E+00-2.54152E+00 1.66345E+00-9.19926E-01 8.59953E-01
 -1      1246-5.25826E-01-1.06192E+00-2.00865E-01 2.10056E-02-9.87505E-01 5.79650E-01
 -1      1247-1.30009E+00-4.26966E-01-3.48925E-01-1.99224E-01-1.36802E+00 3.25100E-01
 -1      1248-1.76940E+00-1.10738E+00-2.38926E-01-1.07905E+00-5.54556E-01-5.24151E-01
 -1      1249-1.15564E+00-1.64381E+00 2.93067E-01 1.49999E-01-6.31318E-01 4.03231E-01
 -1      1250-3.44122E-01 2.20454E-01-3.45153E-01-4.58266E-01 1.59072E-01-2.21911E-01
 -1      1251-3.24868E-02 1.86263E-01-5.40990E-01-2.37195E-01-1.89097E-01-3.79807E-02
 -1      1252-6.84375E-01-1.67598E+00 1.81908E-01 4.55650E-01-8.63183E-01 2.40850E-01
 -1      1253-1.55024E+00-1.90730E+00 2.02131E-01 3.97444E-01 1.76559E+00-3.94066E-01
 -1      1254-2.15862E+00-4.46736E+00 1.80507E-01 1.03333E+00 5.82418E-01 1.59352E-01
 -1      1255-3.57295E+00-2.33270E+00 1.18644E-02-8.17934E-01 1.51584E+00-9.14456E-01
 -1      1256-9.37727E+00-4.57921E+00-3.36283E+00-1.60310E+00-8.91186E-01 1.91802E-01
 -1      1257-1.64294E+00-3.33416E-01-1.04502E+00-4.07215E-01-1.00536E+00 4.88675E-01
 -1      1258-1.30158E+00-1.51185E+00-7.10141E-01-6.13057E-01-4.42458E-01 2.12236E-02
 -1      1259-1.31079E+00-1.55746E+00 2.54556E-01 5.02638E-01 8.82253E-01-1.28326E+00
 -1      1260-3.53000E-01-3.59864E-01-1.55291E-01-2.34021E-01 2.11725E-01 2.80911E-01
 -1      1261-1.66820E+00-1.46770E+00 2.13035E-01 4.90947E-01-4.99388E-01 4.13233E-01
 -1      1262-2.35604E+00-1.24890E+00 3.68450E-01-8.74789E-01-5.36964E-01 1.18017E-01
 -1      1263-1.98079E+00-3.36917E+00-5.82504E-01-1.35853E+00-1.12027E+00 3.70665E-01
 -1      1264-1.11391E+00-9.46136E-01-1.09931E-02-8.33458E-01-9.69914E-01 5.89235E-01
 -1      1265-1.67110E+00-1.56475E+00 2.99575E-01-6.04765E-01-4.02945E-01 3.54924E-01
 -1      1266-4.89148E+00-2.41149E+00 3.16210E-01 1.33716E+00 1.98755E-01-7.37609E-02
 -1      1267-1.58606E+00-1.85476E+00-4.58213E-01 3.92526E-01 3.41354E-01-1.36438E+00
 -1      1268 8.30612E-02-4.84186E-01-2.78465E-01-9.99626E-03 1.04496E-01 4.61957E-02
 -1      1269-2.59752E+00-1.44362E+00 2.61651E-01 8.05659E-01-3.30903E-01 7.63657E-01
 -1      1270-9.34722E-01-1.91130E+00 9.57324E-01-4.43010E-01-7.08923E-01 4.39583E-01
 -1      1271-3.36986E+00-3.65769E+00-1.80904E+00-1.42622E+00 1.47972E-02 1.09453E+00
 -1      1272-5.07414E-01-1.14749E+00-4.43067E-01-3.73216E-01-6.33877E-01 1.31858E+00
 -1      1273-1.07776E+00-2.03041E+00 3.78466E-01 7.02930E-02-5.61304E-01 5.75741E-01
 -1      1274 1.02672E+01-5.95765E-01 2.85065E+00-6.44951E+00 7.86825E-02 5.17813E+00
 -1      1275 1.23931E-01-2.22684E+00 8.03423E-01-4.48018E+00-4.46233E-01 5.78856E+00
 -1      1276 3.69956E-01 1.54038E-01 6.45783E-01 1.13061E+00-2.30659E+00 2.41980E+00
 -1      1277-3.16213E+00-2.34307E+00-1.26925E+00 5.53853E+00 8.11578E-01-4.30079E+00
 -1      1278-3.17216E+00-2.35310E+00-1.29266E+00 5.53853E+00 8.20772E-01-4.42553E+00
 -1      1279 3.00202E+00 1.05877E+00 8.41917E-01 3.18393E-01-2.65073E-01-5.14612E+00
 -1      1280 4.24776E+00 9.56461E+00 4.14371E+00 7.95129E-01 7.88089E+00 7.76319E-01
 -1      1281 7.40546E-01-1.23809E+00 3.56738E+00 6.71661E-02 4.56480E+00 4.46952E-01
 -1      1282-3.17150E+00-4.16652E+00-3.35660E+00-1.81098E+00 2.27922E+00 7.01916E-01
 -1      1283 0.00000E+00 0.00000E+00 0.00000E+00 0.00000E+00 0.00000E+00 0.00000E+00
 -1      1284 2.73620E-02-9.25724E+00-2.65187E+00-3.01734E+00-4.07585E+00-4.72902E+00
 -1      1285 1.05771E+01-3.47210E-01 3.20198E+00 7.84033E-01-3.83954E+00-4.43351E+00
 -1      1286 4.87292E+00 3.44703E+00-4.01539E+00 3.05095E+00-3.32957E-01 4.82901E-01
 -1      1287 6.92562E+00 2.45570E+00 3.80346E+00 1.96511E+00 3.10536E+00 1.46938E+00
 -1      1288-1.93356E+00-5.47884E+00-3.29460E+00-9.10351E-01 2.94495E+00 1.31978E+00
 -1      1289-6.64980E-01-6.28108E+00-2.38445E+00-1.99240E+00 4.11778E+00 5.30917E+00
 -1      1290-7.08751E+00-7.14622E+00-9.97378E-01-5.19228E+00 2.61064E+00-3.81166E-01
 -1      1291-3.57137E+00 1.03646E+00 2.59979E-01 2.87233E+00 1.95955E+00 5.70624E+00
 -1      1292 5.70965E+00 3.79841E+00 3.21058E+00-2.65510E+00 6.52737E+00-3.74183E+00
 -1      1293 8.47816E-01-1.20241E+00-1.93712E+00-5.46637E-01 3.48357E+00-2.49786E-01
 -1      1294-2.14483E+00-1.87641E+00 1.02295E+00 1.87987E+00-4.50386E+00 4.35491E-01
 -1      1295-5.13110E-01 1.70138E+00-2.73366E-01 2.02941E-01 1.71989E+00-2.14067E+00
 -1      1296 4.98658E+00 7.40205E+00 1.20172E+00-2.20055E+00 7.79247E-01 6.71353E-01
 -1      1297-1.55255E-01-1.80369E+00-9.25092E-01-4.31693E-01-7.23750E-01 2.14559E-01
 -1      1298-3.56397E+00-6.54271E+00-3.03200E+00 1.49132E+00 4.69457E+00-2.79258E+00
 -1      1299 6.18235E+00 3.01083E+00 2.14899E+00-2.30840E+00-1.95075E+00-3.14275E-01
 -1      1300-2.75681E-01-5.84162E-01-5.06719E+00-9.25549E-01-1.54371E+00 1.77246E+00
 -1      1301-1.15474E+01-9.71621E+00-6.37909E+00 4.15392E+00-4.37358E+00 5.32912E+00
 -1      1302 1.22242E+00-3.85596E+00-1.34636E+00-3.78713E-02-4.82616E+00 5.58505E-02
 -1      1303-1.24909E+00-1.60720E-02 9.35643E-01-6.71038E-02 1.43789E+00 1.02330E+00
 -1      1304-1.64767E+01-8.54554E+00-7.50666E+00 3.07291E+00-3.09022E+00 1.01882E+01
 -1      1305-6.35974E+00-2.60225E+00-2.68860E+00 6.86611E-01 1.91868E-01 3.49872E+00
 -1      1306-5.53484E+00-3.04712E+00-6.85084E-01-1.69235E+00 3.09845E+00 4.52607E+00
 -1      1307-4.32784E+00-6.75653E+00 3.87664E+00 3.29135E+00-6.27240E-01 2.17794E+00
 -1      1308 3.83302E+00 1.04430E+01 2.39762E+00 1.43560E+00-1.57479E-01-7.24037E-01
 -1      1309-2.71251E+00-1.69010E+01-3.50753E+00 9.83909E-01-3.96958E+00-2.60105E+00
 -1      1310-1.35383E+00-1.59853E+00-8.46605E-01 1.71416E+00-7.03159E+00 2.48557E-01
 -1      1311 3.51011E-01-1.14686E+00 2.85849E+00-7.14322E-01-3.48153E+00-2.83020E-01
 -1      1312-3.98214E+00-8.69183E+00-3.80219E+00-1.92402E+00-4.79916E+00-3.53721E+00
 -1      1313-3.82532E+00-5.23910E+00 1.18909E+00-3.42485E+00-4.48604E+00-1.67691E+00
 -1      1314-9.75341E+00-1.16887E+01-6.43264E+00-4.17565E+00-7.80346E+00-6.11187E+00
 -1      1315-2.81159E+00-2.18901E+00 1.02712E+00-2.46465E+00-1.33841E+00-4.13191E+00
 -1      1316-3.04835E+00-1.56954E+00 8.96927E-01 1.25016E+00 2.75297E+00-3.02553E+00
 -1      1317 6.44195E+00-2.90897E+00-3.86987E-01-3.17515E+00-2.21936E-01-4.71297E+00
 -1      1318-9.37486E-01-1.48223E+00-7.29053E-01 1.33861E+00 3.31796E+00-9.42565E-01
 -1      1319 4.98132E+00 4.20372E+00 2.60709E+00 9.27411E+00-1.30559E+00-5.30815E+00
 -1      1320 6.35786E+00 5.58165E-01 2.05815E+00-2.43046E-01 2.70101E+00 5.08880E+00
 -1      1321 5.40466E+00 1.25460E+01 2.52896E+00 2.54947E+00-6.16627E-01-7.54542E-01
 -1      1322 5.97309E+00 9.82942E+00 1.58677E+00 3.40875E+00 2.65703E+00 1.92664E+00
 -1      1323 5.03858E+00 8.41731E+00 3.34451E+00 1.91894E+00 8.18937E-01 1.57179E+00
 -1      1324 1.23433E-03 3.07813E+00 2.13026E+00 9.47774E-01 3.85110E+00 5.50832E+00
 -1      1325-3.53952E+00-2.96133E+00-3.77817E+00 8.63202E-01 3.15809E+00-6.18753E+00
 -1      1326 1.10595E+01 5.91605E+00 5.09268E+00-2.36491E+00 4.63379E+00-8.66901E+00
 -1      1327 8.13204E+00 7.02122E+00 4.54598E+00-2.97955E+00 5.45562E+00-6.64756E+00
 -1      1328 5.93117E+00 2.93500E+00 1.41881E-01-1.47387E+00 2.60524E+00-5.65802E-01
 -1      1329 5.22397E+00 4.65911E-01 2.76857E-01 1.05784E+00-9.25501E-01-2.66187E+00
 -1      1330 6.06690E-02 2.21983E-01-5.85392E-01 5.37434E-01-4.04741E+00-6.86779E+00
 -1      1331-8.44933E-01 1.36414E+00 6.31452E+00-9.78931E-01-1.71217E+00-1.66926E+00
 -1      1332-2.00190E+00-1.85333E+00-2.53184E+00-1.89972E-01-2.25177E-01-3.10279E+00
 -1      1333 4.85745E+00 1.15715E+01 4.92869E+00 3.44186E-02 1.06399E+01-1.04810E+00
 -1      1334 2.01124E+00 4.07755E+00 1.82664E+00-6.76246E-01 3.08671E+00-6.47034E-01
 -1      1335 6.32912E+00 1.78514E+00 3.82569E-01-7.49913E-01 7.65354E-01 4.60052E+00
 -1      1336 9.41626E+00 5.61321E-01 3.82038E+00 2.51679E+00-3.45545E+00 5.25660E+00
 -1      1337 3.29406E+00 7.80489E+00 2.83475E+00-3.78010E+00-3.51572E+00 5.86442E+00
 -1      1338 8.00487E+00 8.53900E+00 4.96316E+00-3.57182E+00-4.43656E+00 3.89880E+00
 -1      1339 3.76838E-01 4.40977E-01-1.95865E+00-7.43852E-01-6.90805E+00 4.15774E+00
 -1      1340 3.61551E+00 1.37932E+01 5.18808E+00 8.27834E-01-6.77198E+00 2.25616E+00
 -1      1341 8.35766E-01 1.45914E+00-1.76572E-01 4.50128E-01-8.83578E+00 1.47635E+00
 -1      1342-5.01786E+00-8.55024E+00-6.66799E+00-5.95558E-01 1.80948E+00 2.87684E+00
 -1      1343-8.18711E-01 2.16382E+00-2.29677E+00 3.81282E-01-5.96637E+00-2.35568E+00
 -1      1344-1.18876E+00 3.11887E+00-2.35350E+00-3.71309E-02-4.07118E+00-3.07731E+00
 -1      1345-1.86073E+00-1.92559E+00-1.33674E+00 1.66948E-01 6.45333E-01 1.20605E+00
 -1      1346-8.12906E+00-1.24564E+01-5.57293E+00-1.47549E+00 1.29087E+00-1.64346E+00
 -1      1347-3.02475E+00-7.28109E+00-5.91786E+00 1.98766E-01 1.40969E-01-3.05713E+00
 -1      1348-4.61958E+00-8.31635E+00-3.84820E+00 2.26604E+00-4.05983E-01-1.61061E+00
 -1      1349-1.02874E+01-1.40168E+01-6.76634E+00 1.87824E-01-3.36839E-01-1.16210E+00
 -1      1350-9.52395E+00-1.11526E+01-6.29937E+00-1.05374E+00-2.12063E-01 1.13177E+00
 -1      1351-7.24663E+00-9.96233E+00-5.42855E+00-1.76767E+00-8.75179E-01 1.88494E+00
 -1      1352-6.05710E+00-7.55191E+00-3.15443E+00-8.87804E-02 1.84808E+00 1.92970E+00
 -1      1353-7.77518E+00-1.32749E+01-3.96434E+00 1.10004E+00 8.23039E-01 7.65407E-01
 -1      1354-3.42015E+00-5.99673E+00-3.56967E+00 2.60320E+00 1.26843E+00 1.14824E+00
 -1      1355-9.47192E+00-1.15084E+01-5.37569E+00 3.25192E+00 2.08733E+00 1.24258E+00
 -1      1356-5.59981E+00-3.91853E+00-5.04340E+00-2.23205E-01 1.42102E+00-1.01402E+00
 -1      1357-1.57208E+01-9.11920E+00-3.69193E+00-1.26771E+00-9.62441E-01-6.94283E-02
 -1      1358-9.67747E+00-7.72364E+00-3.36923E+00 3.28434E+00 1.44265E+00 1.87109E+00
 -1      1359-5.38472E+00-4.57085E+00-4.29340E+00 1.85286E+00 9.11877E-01 2.91913E-01
 -1      1360-1.26716E+01-8.08981E+00-4.35929E+00-1.46924E+00 1.57758E+00-1.12457E+00
 -1      1361-5.81365E+00-4.52305E+00-1.54626E+00-4.75654E-01 1.41214E+00-1.22483E+00
 -1      1362-2.49525E+00-2.45814E+00-2.28939E+00 1.44037E+00-2.78050E+00-1.31938E+00
 -1      1363-1.73286E+01-1.36550E+01-7.54601E+00 2.04500E+00-3.82859E-01 4.08628E-01
 -1      1364-6.14730E+00-3.27588E+00-4.37258E+00-1.51018E+00-1.41956E+00 9.99881E-01
 -1      1365-1.26036E+01-9.92478E+00-6.89213E+00-1.52772E+00-9.59568E-01 1.76915E-01
 -1      1366-6.24040E+00-9.64919E+00-4.71913E+00-1.34853E+00 6.87639E-01-1.93170E-01
 -1      1367-5.21323E+00-9.25994E+00-5.64288E+00-1.18369E+00-1.74989E-01-1.77490E+00
 -1      1368-5.96462E+00-5.27161E+00-4.33936E+00 2.84365E+00-1.80702E+00-2.66394E+00
 -1      1369-8.54349E+00-9.78537E+00-6.25496E+00 2.76913E+00-1.35071E+00-2.19498E+00
 -1      1370-7.57688E+00-4.38775E+00-4.87248E+00 8.07967E-01-9.76867E-01-9.03231E-02
 -1      1371-1.76991E+01-8.78775E+00-8.04757E+00 2.04639E-01-1.69620E+00-3.18082E-01
 -1      1372-8.12463E+00-9.05948E+00-4.61152E+00-1.22045E+00-1.15942E+00 1.79226E+00
 -1      1373-1.05181E+01-7.80716E+00-4.60804E+00-7.14872E-01-9.68877E-01 1.88594E+00
 -1      1374 2.45656E-01 8.37284E-01 1.79496E+00 9.52221E-01-7.35445E-01 1.72536E+00
 -1      1375 2.34927E-01 6.29806E+00-3.38885E-01 1.48353E-01 3.81608E+00 1.78743E+00
 -1      1376 3.66598E+00 4.90377E+00 3.12336E+00 2.94686E+00 2.81445E+00 8.20752E-01
 -1      1377 6.23125E+00 7.22386E+00 2.10855E+00-1.17470E-01 1.04359E-01-1.32563E+00
 -1      1378-3.75627E-01 1.58491E+00-7.21607E-01-6.01082E-02 2.71517E+00 1.95998E-01
 -1      1379 4.00623E+00-2.85315E-01-4.19368E-01 8.25611E-01 1.43859E+00 1.29032E+00
 -1      1380 6.93069E+00 3.88540E+00 6.69442E-01 1.76669E+00 7.20275E-01 2.21265E+00
 -1      1381-1.48745E-01-4.36580E+00-3.52038E-01 1.70977E+00 2.71646E+00-1.93055E+00
 -1      1382-3.16742E+00-9.50241E-02-5.12453E-01 6.07764E-01 7.27050E-02 1.59714E+00
 -1      1383 1.32313E+00 2.12484E+00-4.48240E-01 5.09710E-01 6.55207E-01-1.01909E+00
 -1      1384-2.30293E+00-1.76173E+00-5.46517E-01-3.64521E+00 1.12966E+00 2.39773E+00
 -1      1385 4.04009E+00 8.67534E+00 2.14909E+00-3.44064E+00 4.54088E+00-4.17233E+00
 -1      1386 5.32874E+00 1.55627E+00 1.71633E+00-8.72443E-01 5.20944E-01-1.89692E+00
 -1      1387-3.21926E+00 1.07894E+00-1.39016E+00-8.12860E-01-8.55114E-01-1.64543E+00
 -1      1388 6.85655E+00 3.56514E+00-1.85227E+00 3.09880E+00-2.72261E-01 1.75965E-01
 -1      1389-1.23835E+00-2.70245E+00 2.03149E-01-1.82021E+00 1.32925E+00 7.62661E-01
 -1      1390-4.58751E+00-8.22685E-01-1.10573E+00 2.40767E+00 1.09969E+00-3.75739E-01
 -1      1391 4.94189E+00 1.51909E+00-1.39362E-01-4.35897E-01-1.04187E+00-2.01153E-01
 -1      1392 2.62516E+00-2.68690E+00 5.93532E-01-1.44264E+00 2.14548E+00 1.46047E+00
 -1      1393 6.90717E-02-9.87465E-01 5.80304E-01 6.68140E-01-1.30914E+00-1.11494E+00
 -1      1394-2.03552E+00 2.32152E-01-1.04362E+00 1.48559E-01 4.68818E-01 9.97368E-01
 -1      1395-1.63161E+00-9.35619E+00 1.67332E-01 1.99165E+00-2.24515E-01-4.74302E-01
 -1      1396 1.12568E+00 1.34619E+00 9.68194E-01 6.58248E-01-1.05198E+00-2.37500E+00
 -1      1397 3.35645E-01 8.72772E-01 1.36623E+00-3.81371E-01 2.71432E+00 6.58465E-01
 -1      1398-3.10882E+00-4.41341E+00-6.96607E-02 4.10703E+00 3.97725E-02-1.05504E+00
 -1      1399-3.98073E+00-1.85694E+00-3.75715E-01-1.08433E+00-8.91125E-01-1.92413E+00
 -1      1400-5.95269E+00-4.97179E+00-5.45984E-02-2.10320E-01-8.66813E-01 7.61486E-01
 -1      1401-3.35175E-01-1.51995E+00-2.40819E-01 3.27855E-01 9.02467E-01 9.79944E-01
 -1      1402 4.01810E+00 1.50803E+00-1.31960E+00-1.15628E+00 1.66533E+00-1.47144E+00
 -1      1403 3.06623E+00 1.43144E-01 1.63380E+00 5.36389E-01-8.83472E-01-2.90861E+00
 -1      1404 2.27763E+00 5.92027E-01 1.11469E+00-1.85038E-01-7.78318E-01 1.90661E+00
 -1      1405 1.91981E+00-6.77323E-02-2.05237E-01-5.12611E-01-1.24628E+00 5.97339E-01
 -1      1406 1.05116E+00-1.87425E-01-9.78166E-01-8.57897E-01 1.03183E+00-3.01094E+00
 -1      1407-5.16085E+00-6.59420E-01 6.56638E-02-6.08564E-01 2.06263E+00 3.84667E+00
 -1      1408-6.57948E+00-8.18419E+00-1.79031E+00-9.39568E-01-4.72458E-01 2.13001E-01
 -1      1409-3.08337E+00 4.49511E-01-2.82364E-01 1.01800E-01 2.87332E-01 3.54109E+00
 -1      1410 2.61200E+00 4.18752E+00 5.04552E-01-2.63591E+00-8.90145E-01-2.60888E-01
 -1      1411-3.07854E+00-1.33506E-01 7.16270E-02 2.36842E+00-3.98046E-01 1.68619E+00
 -1      1412-1.66684E+00-9.20384E-01-3.05204E-01 1.15355E+00-2.15255E+00 1.34683E+00
 -1      1413 9.64768E-01 5.05311E+00-2.80827E-02-6.70333E-01-1.68302E+00 3.97356E-02
 -1      1414 6.22260E-01 9.57600E-01 2.38858E+00 6.70105E-01-2.75032E+00-3.98036E-01
 -1      1415 7.41120E+00 1.50763E+00 4.00576E+00-4.99227E-01 2.04716E+00-3.72126E+00
 -1      1416 2.87531E+00 1.97349E-01 1.68869E+00-5.61493E-01-2.53270E-01-2.84281E+00
 -1      1417-1.20668E+00-1.07126E+00 1.31287E+00 1.60248E-01-8.94260E-02-1.78757E+00
 -1      1418-1.26892E+00-2.27222E+00-1.13734E+00 7.03679E-01 2.52055E+00-2.38234E+00
 -1      1419-4.32839E+00-5.25773E+00 1.68693E+00 3.91193E+00-2.18701E+00 1.98470E+00
 -1      1420-9.26315E+00-7.33450E+00-4.39877E-01-1.14510E+00 4.76970E-02 2.41017E+00
 -1      1421-8.73318E+00-7.66356E+00 1.16495E+00-1.02330E+00 2.02366E+00-2.28022E+00
 -1      1422-2.62084E+00-1.52253E+00-7.75264E-01 1.63047E+00-1.12645E+00-2.74359E-01
 -1      1423 3.11149E+00 1.33875E+00-1.58438E-01-3.04494E-01-4.65073E-01-9.05543E-01
 -1      1424 3.94995E-02-1.29749E+00 1.51216E+00 3.62274E-01 4.69337E-01-1.54191E+00
 -1      1425-1.35290E+00-1.56691E+00-2.71084E-01 3.29730E-01 1.58703E+00 1.48815E+00
 -1      1426-3.96055E+00-6.09880E+00 5.19733E-01 3.22018E+00-8.31355E-01 1.67928E+00
 -1      1427-2.68823E+00-4.67779E-01-8.91858E-01-9.33676E-01 1.07484E-01 1.99720E+00
 -1      1428-2.32808E+00-5.38806E+00-2.51576E+00 1.12460E+00 4.39190E+00-2.96369E-01
 -1      1429-4.12390E-01-3.50524E+00-9.66742E-01-1.68588E+00 1.36969E+00 1.25247E+00
 -1      1430 1.24015E+00 1.44274E-01 8.89988E-02-1.59890E+00-2.42926E+00-1.40680E+00
 -1      1431 4.63060E+00 5.61150E+00-1.62590E-01-1.61024E+00 1.98857E+00 4.53866E-01
 -1      1432-4.22389E-01-1.29036E-01 1.81697E+00-4.42597E-01 1.32984E+00-1.10652E+00
 -1      1433-7.31725E+00-1.06494E+00-1.44679E+00-1.68629E-01-1.09052E+00-4.74108E+00
 -1      1434-5.34863E+00-1.61151E+00-1.17647E+00-3.21786E+00-6.33311E-01-1.65884E+00
 -1      1435-6.33798E+00 4.21839E-02-1.30032E+00 1.50997E+00 1.15331E+00-2.13627E+00
 -1      1436 2.35672E+00 8.66604E-02-7.98396E-02 9.89363E-01-1.85010E+00 2.16405E-01
 -1      1437-2.92672E+00-1.57477E+00-2.45920E-01-1.27881E+00 2.61399E+00 1.87308E+00
 -1      1438-1.04450E+00-9.88835E-01 2.04608E-01-5.37823E-01 1.91305E+00 3.47702E-01
 -1      1439 6.26568E+00 7.39099E-01 1.21678E+00 8.93803E-01-1.05396E+00-3.65719E+00
 -1      1440 6.16486E-01 1.12876E+00-7.92127E-01-9.45026E-01 5.17398E-01-3.39773E-01
 -1      1441-2.34656E-01 3.02758E+00-2.54413E-01 1.32596E+00-1.62842E+00-7.41891E-01
 -1      1442 4.20742E+00 6.16260E+00-1.93346E-01-3.28100E+00-1.87553E+00 2.70861E-01
 -1      1443 6.18042E+00 3.20913E+00 2.03500E+00 3.80477E+00-1.88231E+00-3.25260E+00
 -1      1444-1.89353E+00 5.03489E-02 2.64718E-01 8.96822E-01 1.52613E-01-2.12642E+00
 -1      1445-1.55108E+00 3.55624E+00-2.07058E+00-6.56480E-01-3.17535E+00-1.21142E+00
 -1      1446-9.94833E+00-1.09544E+01-3.57621E-01-7.58684E-01 2.33119E-01-1.56777E+00
 -1      1447-5.23908E+00-5.28194E+00-3.44197E+00 2.60438E+00-1.81438E+00 1.37224E+00
 -1      1448 3.72175E+00 2.51270E+00 5.61231E-01-1.40728E+00 1.49137E+00-6.42467E-01
 -1      1449-4.55180E+00-2.61220E+00 1.12540E+00 2.05835E+00-1.49667E+00 2.44643E+00
 -1      1450 1.27656E-01-8.47200E-01 2.88370E+00-2.00385E+00 2.06944E+00 1.44115E+00
 -1      1451-6.97657E+00-4.39459E+00-8.95815E-01-3.30070E+00-1.38617E+00-1.40035E+00
 -1      1452 4.27628E+00 1.99104E+00 1.35143E+00 2.15716E+00-2.53496E+00-2.80512E+00
 -1      1453-4.59791E+00-2.65710E+00-3.51434E-01-8.36572E-01 1.02775E+00 3.33424E+00
 -1      1454-6.19107E+00-5.98580E+00-1.31586E+00-3.88943E+00-2.59785E+00-3.04423E+00
 -1      1455-2.77699E+00-5.08924E+00-1.03383E+00 1.38567E+00-2.80062E+00 9.54256E-01
 -1      1456-7.40502E+00-2.94082E+00 4.07784E-01-9.35017E-01 2.63178E-01-2.36121E+00
 -1      1457-7.25111E+00-1.94820E+00 2.85439E+00-2.16738E+00 5.36745E-01-1.34341E+00
 -1      1458-9.94948E+00-1.18901E+01-1.25139E+00-6.39137E-01-7.31428E-01 5.57819E-01
 -1      1459-2.45509E+00-1.01821E+01-1.23401E+00 2.65690E-01-2.77332E+00 5.60193E-01
 -1      1460-3.49451E+00-2.70992E+00 8.70669E-01 2.78187E+00-4.14611E-01 2.18125E-01
 -1      1461-2.19188E+00-5.04338E+00-2.00666E+00-2.04714E+00 3.31770E+00 5.85438E-01
 -1      1462 1.48082E-01 1.54131E+00-2.19047E-01-1.28767E+00-3.20635E-01-1.99901E-01
 -1      1463 2.18400E+00 2.38651E+00-9.38028E-01-2.20673E+00-7.54572E-02-2.24117E-01
 -1      1464 3.78580E+00-4.74805E-01 3.01864E+00-5.07508E-01-4.32108E-02-3.13527E+00
 -1      1465-8.10619E-01-1.02848E+00-1.31769E+00-4.29700E-01-1.44655E-01 1.45569E+00
 -1      1466 9.37816E-01 1.74567E-03-3.31031E-01 8.95643E-01 1.17574E+00 1.04024E+00
 -1      1467 1.71848E-01-3.45597E-01 1.45992E+00-4.70638E-01-1.74191E+00 2.15104E+00
 -1      1468 2.28618E+00 4.67251E+00 9.68158E-01-1.47071E+00-1.81161E+00-1.08886E+00
 -1      1469 6.48733E-01-4.08670E-01 5.47205E-01 1.43763E+00-7.54167E-01 7.35722E-01
 -1      1470-5.54851E-01-7.50259E-01-7.51920E-01 2.85771E-01-2.07756E-01-2.03512E+00
 -1      1471 1.40550E-02-9.71261E+00-2.64531E-01 9.93365E-01 9.42871E-01-2.45751E+00
 -1      1472 2.23370E+00 1.57618E+00 2.28616E+00-9.25899E-01 9.26396E-01-3.41798E+00
 -1      1473-6.91453E+00-2.50460E+00-2.69425E+00-3.19807E-01-1.43525E+00-6.63639E+00
 -1      1474 7.02775E-01-1.11608E+00-4.75228E-01 3.54859E-01 9.03369E-01 1.92760E+00
 -1      1475-1.14298E+00-1.98057E+00-1.16606E+00-1.36791E-01 2.24702E+00-4.85926E-01
 -1      1476 2.64902E+00-9.65378E-01-1.07494E-01-8.64998E-01-2.21375E-01 1.18944E+00
 -1      1477 4.09332E+00 3.17678E+00 7.96464E-01-2.35176E-01 1.03304E+00-5.67960E-01
 -1      1478-5.38777E-01-8.10688E-01-1.63374E+00-1.29130E-01 1.40110E+00 1.08346E+00
 -1      1479-5.20837E+00 1.08924E-01 8.41922E-02-1.22291E+00 1.97227E-01-2.58161E+00
 -1      1480-6.28580E-01-1.49987E+00 1.50013E-01 2.31631E-01-7.67969E-01 6.15852E-01
 -1      1481 7.89445E+00 3.53341E+00-2.22215E+00 2.13318E+00 4.93781E-01 4.35824E+00
 -1      1482 1.30900E+00 1.33381E+00-1.90421E-02 1.66400E+00 2.36740E+00 2.02076E+00
 -1      1483-8.17523E-01-8.78131E+00-7.13368E-01 7.23543E-02-9.85216E-01-1.37343E+00
 -1      1484-6.14867E-01-7.94147E+00 6.50741E-01 1.94126E+00-2.62086E+00-4.39964E-01
 -1      1485 3.09191E+00 2.73416E+00 1.74077E+00-1.36008E+00 1.87314E+00-8.96975E-01
 -1      1486 6.82773E+00 1.64618E+00-5.04713E-01 4.40628E-01 6.90702E-02 3.42723E-01
 -1      1487 7.01357E+00 2.52199E+00 2.25440E+00 1.28804E-01 4.89679E-01-2.95623E+00
 -1      1488 7.14124E-02 3.88278E+00 2.47860E+00 6.63350E-01-1.37397E+00-1.00567E+00
 -1      1489 2.13431E-02-1.57374E+00-2.16247E+00 1.05227E+00 1.25412E+00 5.82889E-01
 -1      1490-1.33088E+00-1.70312E+00-1.81831E+00-1.16162E+00 2.64297E+00 1.20951E+00
 -1      1491 3.70198E+00 8.81843E-01-7.79657E-01 4.85889E-01-1.44342E+00-1.36150E+00
 -1      1492-2.09307E+00-2.27434E+00 2.00463E+00 2.01683E+00 1.00793E+00-7.62301E-01
 -1      1493-1.61412E+00-1.36845E+00-9.24731E-01-1.60129E+00 9.77023E-01 2.18910E+00
 -1      1494-3.19093E+00-2.59318E+00 8.03015E-01-2.52602E+00-3.78419E-02-9.27984E-01
 -1      1495-3.34601E+00-2.76241E+00-2.28503E+00-2.13671E+00-2.14617E-01 2.80982E+00
 -1      1496-6.92059E+00-5.89986E+00-5.01597E-01 4.77881E+00 2.72723E+00-1.07300E+00
 -1      1497-2.57817E+00-3.14878E+00 3.11662E+00 1.14385E+00-9.82087E-01 9.42601E-02
 -1      1498-1.72348E+00-2.65670E+00 1.33115E+00 2.50465E+00 9.16071E-01-6.52472E-01
 -1      1499-1.34460E+00-1.31866E+00-4.58721E-01-1.01845E-01-1.85872E-01 1.11145E+00
 -1      1500 6.62530E-01 5.59172E+00-1.51079E+00 3.07736E-01 3.39007E+00 1.39546E+00
 -1      1501 4.15887E+00 8.32132E-01 8.44643E-01 9.56798E-01-5.52810E-01-2.56409E+00
 -1      1502 1.33110E+00 2.43885E+00-9.40434E-01-2.10484E+00-4.82809E-01-5.46516E-01
 -1      1503-7.64353E+00-2.38372E+00 2.77892E+00-2.61855E+00 1.33789E-02-1.57058E+00
 -1      1504 1.15195E+00-2.56855E+00 4.74240E-01-1.03877E+00 2.33295E+00 1.06631E+00
 -1      1505 5.22990E+00 3.41478E+00 6.47375E-01 3.06859E+00-1.89575E+00-1.62346E+00
 -1      1506-1.48374E+01-2.69571E+00 1.43266E+00-3.27398E-01-1.24525E+00 9.87363E-01
 -1      1507 2.56840E+00 3.39333E+00 2.11943E-01 1.72885E+00-4.49233E-01-9.28177E-01
 -1      1508-1.05206E+00-2.42931E-01 3.94408E-01-5.77056E-01 9.10292E-01 1.72765E+00
 -1      1509-3.65104E+00-1.22765E-01-1.61114E+00-6.94291E-01-6.02097E-01 2.48474E+00
 -1      1510 5.35885E-01 4.66559E-01 5.46022E-01 2.44740E-01-2.22404E+00-1.76894E+00
 -1      1511-8.31943E-01-2.11719E+00-1.57207E+00-1.94506E-01-8.60863E-01-3.04069E+00
 -1      1512 3.20186E+00 8.75609E-01 9.42907E-03 1.32901E+00 1.86307E+00 4.25410E+00
 -1      1513 3.56382E+00-6.96328E-01-2.74003E+00 1.47918E+00-1.63262E+00 1.06189E+00
 -1      1514 1.43962E+00 5.87800E+00 5.41726E+00-1.32262E+00 2.05339E+00-1.18335E+00
 -1      1515 2.40757E+00 2.14890E+00 1.97052E+00 6.71316E-01 1.82600E-01 7.38031E-01
 -1      1516 6.17680E-01 2.01518E+00-1.04075E-01 5.41187E-01 2.71804E+00 1.56300E+00
 -1      1517-5.34740E-01-5.56748E-01-9.11649E-01-3.70917E-01 8.38546E-01-2.79156E+00
 -1      1518 3.14904E+00 6.24261E-01 7.05113E-01 2.30307E+00 7.67775E-01 3.50622E+00
 -1      1519 7.44603E-01 1.39063E-01 1.33937E+00-1.25269E-01-1.43657E+00 1.16105E+00
 -1      1520 1.00822E+00-5.37861E-01 5.37853E-01 7.85713E-01 1.45598E+00-4.27766E-01
 -1      1521 2.73844E+00 1.54695E+00 1.22509E+00 7.40879E-01-8.53428E-01-2.81511E+00
 -1      1522 3.80690E-01 2.03963E+00 1.41014E-01 9.06715E-03 8.17308E-01-1.95877E+00
 -1      1523 3.87046E+00 1.43735E+00 2.26923E+00-8.06576E-01 5.67892E+00-2.07824E+00
 -1      1524-1.33768E-01-8.03527E-01-3.79292E-01 2.25094E-01 1.02432E+00-2.33568E+00
 -1      1525 9.68594E-01 9.45146E-01-1.05626E+00-2.24332E+00-1.49169E+00 1.79283E+00
 -1      1526 1.92899E+00 4.82162E+00 3.02496E+00-1.71049E+00 2.97819E+00-1.94542E+00
 -1      1527-7.79594E+00-2.12724E+00 1.26464E+00 1.48648E+00 1.89634E+00-3.11861E+00
 -1      1528-6.38429E-01-1.45109E+00-4.38722E-01-7.42590E-01 1.65740E+00-1.64528E+00
 -1      1529 1.09169E-01 4.20364E+00-1.11533E+00 4.51636E-01 3.18701E+00-1.45452E+00
 -1      1530 4.38100E+00 1.80646E+00 9.56121E-01 1.41243E+00 7.47811E-01 1.22534E+00
 -1      1531-3.80434E+00-1.29167E+00 3.85243E-01 1.24090E+00-1.39424E+00 4.06871E+00
 -1      1532-1.06107E-01 8.63589E-02 4.19759E-01-1.97070E-01 2.93093E+00 3.99970E-01
 -1      1533 1.94858E+00 2.27884E+00 1.63583E-01-1.74514E+00 1.11026E+00 3.95466E-01
 -1      1534-4.35130E-01-4.19506E+00-8.87622E-01-1.83690E+00 6.04711E+00-1.63070E+00
 -1      1535 2.13925E+00 4.63313E+00 3.08386E-01-1.70831E+00 4.24444E+00-2.11927E+00
 -1      1536 4.06627E+00 4.36241E+00 1.07417E+00 6.48158E-01-4.18406E-01 1.83484E+00
 -1      1537-9.92729E+00-1.57539E+01 4.75014E-01 1.04665E+00 2.06136E+00 5.52451E-01
 -1      1538-5.57261E+00-8.92506E-01-1.27485E+00-5.28350E-01-2.05425E-01 1.44829E+00
 -1      1539-1.08623E-01 3.60733E+00-9.67341E-01 1.89333E+00-2.94662E+00-3.62797E+00
 -1      1540-9.63858E-01-2.03797E+00 1.09030E+00-1.27945E+00-1.45865E+00-7.90539E-01
 -1      1541-6.45837E-01-6.22305E+00-1.25027E+00 1.18065E+00 4.30073E+00-2.43063E+00
 -1      1542-5.62331E-01-1.73328E+00-1.08822E+00-1.28267E+00 2.17955E+00 2.17797E+00
 -1      1543 1.11780E+00 1.47359E+00 2.44157E-01-8.56815E-01 1.09515E+00-1.32378E+00
 -1      1544-4.14773E+00-8.35829E+00-1.10173E+00-3.51807E+00-4.58250E-01 1.08895E+00
 -1      1545 4.52334E+00 2.50760E+00-9.25875E-01 1.91676E+00 8.18520E-01 8.34935E-01
 -1      1546 2.91681E+00-7.38783E-02 6.96813E-01 1.27185E+00-9.37068E-01-2.01608E+00
 -1      1547-1.33017E+00 1.21850E+00 1.18597E+00 5.17002E-01 1.70793E+00-1.09752E+00
 -1      1548-9.00720E-01 2.83095E+00 6.97258E-01 1.36994E-01 2.03383E+00-1.82208E+00
 -1      1549-1.75530E+00-5.17897E+00 4.71368E-01 1.06450E+00-1.26006E+00 1.99399E+00
 -1      1550 3.62850E+00-8.14652E-01 5.58585E-01-9.26412E-01 1.12564E+00 2.30772E+00
 -1      1551-7.24481E+00-3.30808E-02-1.80712E+00 1.23849E+00 3.10553E+00-4.79916E+00
 -1      1552 1.95999E+00 4.53782E+00 1.39565E+00-1.09524E+00 2.25153E+00-2.36861E+00
 -1      1553 1.08311E+00-2.84757E-01-1.05360E+00-1.69990E+00-1.32929E+00 2.22922E+00
 -1      1554 2.47376E+00 8.09437E-01 2.61901E-01-9.24376E-01-7.48916E-01 3.09780E-01
 -1      1555 1.32260E+00 7.17156E-01 1.33190E+00 9.25460E-01 2.39423E+00 1.14192E-01
 -1      1556 5.42179E+00 1.95822E+00-1.72240E-01 1.09791E-01 1.32380E+00 4.23057E+00
 -1      1557 4.62230E+00 2.96141E+00 3.31526E+00-5.63470E-01-1.10717E+00-7.92192E-01
 -1      1558-2.29138E+00-4.15500E+00 1.04351E+00 2.03441E+00-2.06259E+00 1.57433E+00
 -1      1559-1.81338E+00 1.59335E+00 1.22850E+00 2.57491E-01-2.98983E+00 6.58808E-01
 -1      1560-9.30945E-01-4.31461E+00-4.22696E-01 2.85933E+00-1.68992E+00 1.47504E+00
 -1      1561 2.01344E+00 2.52909E+00-2.69823E+00-1.48137E+00-1.05027E+00 2.17204E+00
 -1      1562 1.74980E+00 3.70331E+00 2.91177E+00-9.08772E-01-1.56286E+00 4.64327E-01
 -1      1563-6.71697E+00-1.56651E+00-5.65093E-01-1.76312E+00 8.40027E-01 1.31533E+00
 -1      1564 9.35623E-01 6.30888E-01 2.30477E+00 1.79077E-01 1.02332E+00 4.27897E-01
 -1      1565-2.08531E+00-1.27288E+00 5.23660E-01 3.04334E+00-2.33302E+00 3.87563E-01
 -1      1566-8.42597E-01 8.92038E-01 1.20343E+00-3.89325E-01 1.72111E+00-1.09512E+00
 -1      1567 1.28349E+00 3.11853E+00 3.38164E+00 5.00351E-01 1.13550E+00 1.59575E+00
 -1      1568 4.50999E+00 4.21318E+00 3.41240E-01-2.16819E+00 3.02690E+00-2.40914E+00
 -1      1569-5.17016E+00-1.28620E+00-1.20906E-01 2.17306E-01-5.90854E-01 2.69597E+00
 -1      1570-7.89824E+00-4.08849E+00-1.67384E+00-2.84499E+00 7.41239E-01 3.59900E+00
 -1      1571 1.10138E+00 1.80976E-02 1.06354E+00-5.60640E-01 1.11581E+00-2.13248E+00
 -1      1572-1.29812E+00 1.23876E+00 3.24500E-01 6.48336E-01-2.83721E-01-1.33398E+00
 -1      1573-5.99165E-01-3.58020E-01-6.39400E-01 4.77866E-01 2.19777E+00 7.60747E-01
 -1      1574 1.12894E+00 9.78650E-03 1.20057E+00 6.25072E-01 2.17267E-02-2.34891E+00
 -1      1575-4.72470E+00-1.16690E+00-1.76468E+00-2.30355E-01-7.94644E-01-2.88312E+00
 -1      1576-3.50058E-01 5.29889E+00 2.22174E+00 9.30949E-01-1.86919E+00-4.03071E-01
 -1      1577 7.34939E+00 1.19237E+01 2.14616E+00-1.82575E+00-3.48392E-01-1.98486E+00
 -1      1578-4.06696E+00-2.41506E+00 6.95076E-01-2.39630E+00 8.39609E-02 1.54176E+00
 -1      1579 3.89383E-01 1.88660E+00-7.91117E-01-4.74183E-01 2.70887E-02-1.49303E+00
 -1      1580-5.84414E+00-2.19920E+00-1.05789E+00 1.20349E+00 6.64378E-02-2.46277E+00
 -1      1581-7.49430E+00-3.10848E+00 4.81513E-01 2.75903E+00-3.69888E-01-1.73336E-01
 -1      1582 2.28123E+00 5.32855E+00 1.72137E-01-9.06113E-01-2.49718E-01 5.93523E-01
 -1      1583 3.37804E-01 3.88150E-01-8.53206E-01-1.93758E+00 1.61869E-01-1.79451E+00
 -1      1584 3.10027E+00 2.41946E-01 2.09304E+00-1.52878E-01-6.42160E-01-1.77896E+00
 -1      1585-1.93101E+00-5.76076E+00 1.77387E+00-1.86093E+00 1.83298E+00 1.12940E+00
 -1      1586-4.96133E-01-1.02211E+01-1.32933E+00-1.34702E+00 2.13994E+00 4.21603E-01
 -1      1587-5.82307E-01 5.50243E-01 1.45001E+00 2.12725E+00-1.14801E+00 1.34803E+00
 -1      1588-8.07896E+00-9.30724E+00 9.72134E-01 4.46580E-01-1.00651E+00 1.11484E+00
 -1      1589 1.18853E+00-1.02955E+00 1.05494E+00 9.84171E-03 1.29395E+00-5.43693E-02
 -1      1590-2.08602E+00-1.80826E+00-9.23075E-01-2.72142E+00-2.09826E+00-1.62510E+00
 -1      1591-1.33125E+00-2.18109E+00-2.20431E+00-1.40868E+00-5.85070E-01 3.17918E+00
 -1      1592-3.20585E+00-3.98416E+00-2.10606E-01-2.25710E+00-1.66911E+00-1.81524E+00
 -1      1593-5.15559E+00-4.94165E-01-4.62048E-01 4.81974E-01 1.07411E+00 4.98850E+00
 -1      1594-2.27416E-01-1.62751E+00 1.48695E-01 1.47223E+00 1.19862E+00-4.79099E-01
 -1      1595 1.09203E+00-1.09731E-01 7.14579E-01-2.00319E-01-1.35227E+00 7.53321E-01
 -1      1596-8.21569E-01-1.91372E+00 2.42161E-02-2.62567E-01 1.82059E+00 7.79576E-02
 -1      1597-7.87082E+00-1.35085E+00-1.25683E-01-9.68980E-01 9.39143E-01 2.19423E+00
 -1      1598 5.83126E+00 4.90076E-01 8.48377E-03-4.30765E-01 4.19854E-01-1.38340E+00
 -1      1599 2.56000E-01 2.39647E+00-2.31587E-01 1.35596E+00 8.45327E-01-1.01785E+00
 -1      1600-3.69134E+00-1.57378E+00-9.14813E-01-1.25846E+00 6.82901E-01 3.12764E+00
 -1      1601-1.05595E+00-2.10476E+00-8.77857E-01 1.27960E+00-2.40978E+00 1.40307E+00
 -1      1602 4.68208E+00 2.34858E+00-6.30967E-02-1.12750E+00 7.29332E-02 1.82903E+00
 -1      1603-6.32335E+00-2.71160E+00 9.64016E-02-2.39587E+00 1.22582E+00 2.58963E+00
 -1      1604-2.44530E+00-6.07925E+00-1.43794E+00 2.15535E+00-1.75244E+00 1.01925E+00
 -1      1605 6.47825E-01-1.02907E-01 2.63644E-01-1.35575E+00-7.58107E-01-1.20713E+00
 -1      1606 1.91491E+00 8.03436E-01-7.37078E-01 8.31489E-02-6.38823E-01-1.11532E+00
 -1      1607-9.20269E-01-4.00220E+00 1.16536E+00 5.60208E-01 5.61148E-02 1.63838E+00
 -1      1608-5.20539E+00-1.02770E+00 1.69831E+00 3.29543E+00-4.98330E-01-3.10644E-01
 -1      1609 1.61351E+00 2.86271E+00 2.87630E+00-6.85495E-01 1.86694E+00-2.10568E-01
 -1      1610-1.29443E+00 2.65564E+00 8.25159E-01-3.80979E-01-2.47456E+00 1.12784E-01
 -1      1611-5.70684E+00-1.97774E+00-4.88763E-01-1.98980E+00-3.41949E-01-1.94003E+00
 -1      1612 3.70570E+00 2.75455E+00 6.75145E+00-3.02601E-01 3.25287E-01 1.16130E-02
 -1      1613-2.59090E-01-8.61188E-01 5.42823E-01-3.85458E-01 8.43377E-01-7.87548E-01
 -1      1614 1.38441E+00 1.33463E+00 2.05036E+00 4.20071E-01 1.46903E+00 9.27942E-01
 -1      1615-2.11218E+00-1.57549E+00-1.31209E+00 1.48360E-01-4.46478E-02 1.51350E+00
 -1      1616 5.57214E-01 8.91744E-01-1.22701E-01 2.34555E+00 1.20835E+00-1.99837E+00
 -1      1617-9.38032E-02-1.17028E+00 9.06251E-01-3.01008E-01 1.02435E+00 6.76547E-01
 -1      1618 2.02693E+00 6.45052E+00 1.87580E+00-7.79416E-01 2.66788E+00 7.00257E-01
 -1      1619 2.38200E+00-3.91854E-01-5.23154E-02 1.52838E+00-9.97369E-01-8.94683E-01
 -1      1620-1.45993E+00-5.07105E-01 1.76361E-01-1.03207E+00 6.34261E-03-1.16880E+00
 -1      1621-1.93013E+00-1.76360E+00-8.02702E-01-1.90417E+00-3.08966E-01-1.77053E+00
 -1      1622 3.96400E+00 4.39105E+00 2.11886E+00-1.01671E+00 3.66883E-01-8.68008E-01
 -1      1623-5.31063E+00-3.77019E+00-1.29739E+00-2.26647E+00 7.34244E-01 1.13555E+00
 -1      1624-3.88529E-02 9.86549E-03 4.95437E-01-3.39544E-01-1.41334E+00-1.41153E+00
 -1      1625-7.90649E-01 2.77431E+00-2.43434E-01-1.23615E-01-4.90575E-02-1.79887E+00
 -1      1626 3.56096E+00 3.19108E+00 1.20268E+00 1.75300E+00-6.81007E-01-5.94382E-01
 -1      1627 4.47048E+00 4.98961E-01-1.15499E-01 2.04593E+00 1.17467E+00 1.55043E+00
 -1      1628-2.91479E+00-4.78905E+00-2.62856E-02-2.69645E+00 1.68472E+00 8.74412E-01
 -1      1629 1.31996E+00-1.76074E+00-1.02163E+00-1.85620E-02-1.84292E+00 1.56531E+00
 -1      1630 5.71924E+00 2.52500E+00 2.46567E-01 2.65980E+00 1.85933E+00 5.70588E-01
 -1      1631 5.02772E-01-5.15055E-01 8.29212E-01-1.42299E+00-3.72475E-01 1.00175E+00
 -1      1632-1.27143E+00-8.42598E-01 1.25404E+00 5.56372E-01 9.30636E-01 1.51034E+00
 -1      1633-5.46465E+00-1.02198E+00-1.18742E+00-6.83473E-01-1.89732E+00-3.02482E+00
 -1      1634 6.72659E+00 4.87758E+00 3.86700E+00 2.77128E+00 2.41242E+00-7.82377E-01
 -1      1635 4.28053E+00-1.21592E-01 1.59487E+00 2.08292E+00 3.35614E+00 4.30046E-01
 -1      1636 4.76512E+00 1.09419E+00 1.31274E+00 1.23805E+00 1.39788E+00 2.35531E+00
 -1      1637-4.40564E-01 1.33836E+00-3.23120E+00 9.18609E-01 1.20500E+00 2.88976E+00
 -1      1638-4.99048E+00-2.56319E+00-9.02891E-01 1.50755E+00 1.32955E+00-2.33932E+00
 -1      1639 1.38569E+00 2.38630E+00 5.24245E-01 5.05162E-01-6.10386E-01-7.38636E-02
 -1      1640-1.33756E+00-3.14360E+00-5.73001E-01 1.45874E+00 1.32466E+00-2.34087E+00
 -1      1641-1.89453E+00 1.18731E+00 3.70982E+00 2.95365E+00-2.27258E+00-4.04287E+00
 -1      1642 6.26663E+00 1.62823E+00 3.01441E+00 9.46577E-01-1.50140E-02-2.00112E+00
 -1      1643 1.22965E+00 2.57694E-01-1.08537E+00 7.21753E-01-1.11315E+00-1.57980E+00
 -1      1644-1.83295E+00-4.04646E+00-3.76828E-01 1.93546E+00 1.55318E+00-1.21514E+00
 -1      1645 2.42480E+00 2.07739E+00 1.03694E+00-8.94879E-01-1.37304E+00 8.46203E-01
 -1      1646-7.10230E+00-3.05309E+00-3.00232E+00 5.06475E-01-6.85762E-01 9.45918E-01
 -1      1647-7.31625E-01 2.70337E+00 7.82070E-01 2.09319E-02-3.04233E-02 7.93602E-01
 -1      1648-1.32064E+00 1.54522E+00-2.80431E-01 1.75562E+00-1.84968E+00-2.33355E-01
 -1      1649-4.96076E+00-3.02715E+00-1.73174E+00 1.05652E+00-2.50679E-01-2.78025E+00
 -1      1650 1.50633E+00 3.12113E+00 1.68295E+00-1.13921E+00-1.06771E+00-1.02345E+00
 -1      1651-5.47790E+00-4.42590E-01-2.49743E-01-1.05010E-01 5.73737E-01 2.15012E+00
 -1      1652 3.71062E-01-4.39075E+00-4.44113E-01 5.56982E-01 2.23621E+00 1.44244E+00
 -1      1653-4.04192E+00 1.13948E-01-3.22565E-01-9.54779E-01 1.47183E+00 2.97391E+00
 -1      1654-4.74889E+00-4.23045E+00-7.78857E-01-1.84851E+00-1.22078E+00 7.87946E-01
 -1      1655-3.10508E+00-2.69385E+00-9.78501E-01-2.56919E+00 8.52766E-01 1.66265E+00
 -1      1656-1.73147E-01 4.85144E+00-3.21079E-01-2.10021E+00 3.86723E+00-5.22805E-01
 -1      1657-4.72153E+00-1.15175E+01 3.74110E+00-5.47340E+00-1.65432E+00-9.43937E-01
 -1      1658 1.97542E+00-1.70051E-01 8.79053E-01-1.02331E+00 1.49369E+00 8.18506E-01
 -1      1659-5.23550E+00-4.63155E+00-3.55774E-01-2.05650E+00 2.72324E+00 2.34499E+00
 -1      1660-7.35464E+00-3.68564E+00-1.98443E+00 3.45900E+00 9.31001E-01-5.42624E-01
 -1      1661 1.70648E+00 2.06220E+00 2.89832E+00-1.00810E+00 1.90108E+00-1.07681E+00
 -1      1662 2.58944E+00 1.36444E+00 1.30602E+00 1.48421E+00 6.82866E-01 1.21882E+00
 -1      1663-1.87844E+00 1.34277E+00-4.40135E-01-1.06179E-01-2.91844E-01-2.07380E+00
 -1      1664 7.05682E-01 6.90861E-01-1.06707E+00-9.89092E-02-5.00621E-01-1.72845E+00
 -1      1665 5.33321E+00 5.57551E+00 2.92711E+00-3.34263E-01-9.48447E-01-1.25180E+00
 -1      1666-1.52308E+00-1.85801E+00-1.79272E+00-8.17321E-01 2.39162E+00 1.08338E+00
 -1      1667-7.35599E-01 6.33051E-01 3.92107E-01-1.76366E+00-1.76965E+00-1.90692E+00
 -1      1668-2.06562E+00-7.31829E-01-2.62491E+00-4.19568E-01 7.40586E-02 2.07406E+00
 -1      1669-5.69426E+00-8.83159E-01-6.67375E-01 1.45422E+00 1.75571E+00-1.20231E+00
 -1      1670 5.52729E-01 5.34783E-01 6.21276E-02-1.13361E-01 4.34134E+00 1.75080E+00
 -1      1671-8.20849E-01-1.84834E+00 1.81847E-01 3.74637E-01 2.05810E-01-1.14853E+00
 -1      1672-7.72179E+00-2.35598E+00 4.83831E-01 1.91162E+00-2.96480E-02-3.86371E+00
 -1      1673 7.75641E-01 7.23524E-01-7.91124E-02 9.81123E-01-3.19299E+00 7.45697E-01
 -1      1674-1.03743E+00-6.73896E-01 8.74696E-01-6.99688E-01-1.11523E+00-1.57904E+00
 -1      1675-3.97127E+00-1.75184E+00-1.48923E-01-1.38462E+00 1.95791E-01 2.24087E+00
 -1      1676-3.41317E+00-3.95673E+00-2.88594E+00-1.44989E+00-3.19752E+00-2.63379E+00
 -1      1677 3.14393E+00 4.89817E+00 1.40584E+00-1.69165E+00 3.60240E+00-7.20114E-01
 -1      1678 2.11476E+00 2.22406E+00-5.63470E-01 2.05773E+00 1.78935E+00-7.72770E-01
 -1      1679 2.39811E+00 1.66536E-01 5.27251E-01-1.01553E+00-2.73383E+00-8.72158E-01
 -1      1680 3.12404E+00 1.65029E-01 2.21176E-01-1.52694E+00 1.30256E+00 2.26732E-01
 -1      1681 2.58649E+00 3.66023E+00-1.04187E+00 1.05776E+00-3.94185E-01-1.62576E+00
 -1      1682-2.55363E-02 2.32678E+00-2.02564E-02 1.99412E-01 6.31775E-01-1.43778E+00
 -1      1683 2.74643E+00 1.32499E-02 3.49580E-01 1.03775E+00 2.59210E-01 2.27232E+00
 -1      1684-3.83276E+00 3.13894E-01-6.71994E-01 6.05549E-01 1.12543E+00-7.67799E-02
 -1      1685 2.66556E-01 1.06834E+00-2.23155E-01 9.84814E-01 1.51200E+00 7.29803E-01
 -1      1686 2.09552E+00 7.19369E-01 9.00559E-01 2.01498E+00-4.61313E-01-1.69228E+00
 -1      1687 4.72920E+00 5.86800E-02-1.50451E-01 5.53921E-01-3.28209E+00 2.73346E+00
 -1      1688 6.59457E+00 8.78702E-01 5.29433E-01-4.48795E-01-1.08271E+00 2.49099E+00
 -1      1689-3.24658E+00 2.34651E-01 2.33381E+00 2.81757E-01-1.88512E-01 1.12848E+00
 -1      1690 1.24815E+00 1.46670E+00 1.72431E+00-3.58933E-01-6.60233E-01-1.85511E-01
 -1      1691-7.49805E+00-5.31737E+00-9.08613E-01-3.22496E+00 1.54272E+00 4.26177E+00
 -1      1692 1.07954E+00 6.14890E+00 1.40537E-01-1.14305E+00-1.18654E+00 1.68217E-01
 -1      1693-4.59954E+00 2.46204E-01 1.86154E+00-2.85905E+00-1.42117E+00-6.48088E-01
 -1      1694-3.44070E+00-2.94311E-01-1.34071E+00 9.26698E-01 1.03327E-01-2.45420E+00
 -1      1695 2.32830E+00 5.39826E+00 8.06625E-02 2.12058E+00 1.69965E+00-1.51388E-01
 -1      1696 6.88542E-01-6.70167E+00 1.83513E+00 9.74283E-01 9.59334E-01 6.56733E-01
 -1      1697-1.83958E-01-2.80906E+00-9.37942E-01 7.03728E-01 1.93237E+00-7.77123E-01
 -1      1698-7.08044E-01 7.39734E-01-1.37320E-01-4.09396E-01-2.00492E+00 1.13370E+00
 -1      1699-2.37623E-01 1.11784E+00 1.23412E+00-1.81959E+00-1.15982E+00-1.80431E+00
 -1      1700 3.76048E+00 3.01639E+00 1.06162E+00-5.88186E-01-7.08142E-01-1.15399E-01
 -1      1701-5.36202E-01-3.40487E+00 4.54897E+00 1.05878E+00-4.20180E-01 1.85850E+00
 -1      1702-1.13142E+00 7.20882E-01 8.16878E-01 2.54852E-01 9.12373E-01 1.76063E+00
 -1      1703 1.22470E+00 9.13296E-01 3.62240E+00 1.68366E-01 7.62604E-01-3.61784E-01
 -1      1704 1.73191E+00-7.42504E-01-1.13890E+00-5.03099E-01-6.07212E-01-3.00289E+00
 -1      1705-2.44294E+00-5.42690E+00-1.22971E+00-1.10670E+00-9.71658E-01 2.91251E-01
 -1      1706-3.19261E+00-6.36411E-01 1.63288E+00-5.83259E-01 1.79496E+00 2.33694E+00
 -1      1707 3.19983E+00-2.00472E+00 9.54881E-01 3.88387E-01 9.12708E-01 1.02222E+00
 -1      1708-2.29121E+00-3.83112E+00 7.70978E-01-2.56448E+00-1.97036E+00-4.94219E-01
 -1      1709-1.82901E-01 1.28610E-02 7.20807E-02-1.68580E+00-7.95276E-01-1.02203E+00
 -1      1710 3.65517E-01-6.26319E-01-6.91142E-01 7.08897E-01 4.91624E+00 1.55066E+00
 -1      1711 2.12759E+00 5.28041E-02-1.40160E-01 1.69523E+00 1.94916E+00-1.46495E+00
 -1      1712-1.15115E+00-2.88710E-01-1.49424E+00 1.16100E-01-1.04475E+00-5.43294E-01
 -1      1713-1.17448E-01 1.79368E+00 4.78164E-01 1.57908E-01-3.63131E-01 1.81131E+00
 -1      1714-5.50294E-01-3.69674E+00 2.33892E+00 1.33112E+00 6.57971E-01-1.84041E+00
 -1      1715-4.43298E-01 4.10043E+00 1.93201E-01-4.47145E-01 1.25270E+00 6.28789E-02
 -1      1716-5.24553E+00-8.49277E-01-1.56587E+00 1.30831E+00 2.16979E-02-2.52797E+00
 -1      1717 2.79445E+00 1.40652E+00 2.09226E+00 7.24877E-01 2.27847E-01 2.63800E+00
 -1      1718 2.26326E+00 1.86019E-01-1.66296E+00-5.90931E-01 2.02374E+00 7.21822E-01
 -1      1719 3.61128E+00 4.26925E+00 1.62174E+00 3.17597E-01 4.14410E-01 2.61455E+00
 -1      1720-1.55348E+00 5.78433E-01 4.32068E-01 7.06579E-01-5.54802E-01-2.49897E+00
 -1      1721-1.81750E+00 1.99124E+00 1.75917E-01 9.95315E-01 4.76316E-01-1.17072E+00
 -1      1722 3.34657E+00 1.84529E+00-2.42378E-01-1.32027E+00 5.47476E-01-1.28948E+00
 -1      1723-2.75553E-01-4.14433E-01 2.46825E-01 8.20664E-01-8.35195E-01-1.61010E+00
 -1      1724-1.44650E+00-1.56414E+00-1.17505E+00-2.93945E-01-7.37972E-01-2.22634E+00
 -1      1725-3.63406E+00-1.55880E+00-3.60459E-01 2.28316E+00 2.43339E+00-2.75675E+00
 -1      1726-1.11859E+00-1.16835E+00-1.35914E-01 5.60919E-01 1.94904E-01-2.53847E+00
 -1      1727 2.21002E+00-3.44180E-01-2.92352E-01-1.10586E+00 5.92029E-01-1.70347E-01
 -1      1728 1.10360E+00 3.17105E+00-1.40675E+00 1.63644E+00-2.68560E+00 6.51950E-02
 -1      1729 2.86120E-01 1.94686E+00 4.80333E-01 1.58819E+00-6.28445E-01 1.02778E+00
 -1      1730-4.82596E+00-4.19913E+00-3.66137E+00 2.02049E+00-3.77023E+00 3.89419E+00
 -1      1731 8.82643E-01-1.85765E+00 1.77759E-01 1.34913E-01 3.45722E-01-3.10051E-01
 -1      1732 4.60657E-01 1.78733E+00 1.83061E+00 5.29127E-02 1.60852E+00-6.13772E-01
 -1      1733-6.52741E-01-5.49151E-01-3.72895E-01 1.70941E-01 2.07074E-01 1.91382E+00
 -1      1734-2.21549E+00-4.67067E+00-1.53217E-01 1.45615E-01-1.01903E+00 1.56837E+00
 -1      1735-3.16593E+00-4.77536E-01-3.18209E-01-6.07102E-02-1.45962E+00-2.80695E+00
 -1      1736 2.79045E-01-1.95196E+00 3.65870E-01 4.10756E-01 4.14271E-01 1.78716E+00
 -1      1737 7.65602E-01 2.55985E+00 1.08530E+00-8.54604E-02-4.32739E-01 1.31476E-01
 -1      1738 2.70067E+00 9.54050E-01 3.31962E-01 1.85573E+00 2.99602E-02 7.29443E-01
 -1      1739-8.86707E-01-1.05528E+00 1.86007E+00 1.43052E-01-4.46734E-01-1.04504E+00
 -1      1740-1.63132E+00-3.44185E-01 3.78478E-01 9.91209E-01-1.15951E+00 9.93794E-01
 -1      1741 1.26064E+00 4.49234E-02 7.13801E-02-4.18040E-01-4.13340E+00 5.28719E-01
 -1      1742 4.30699E-01 5.28632E-01-8.93937E-01-1.00534E+00 1.02417E+00-2.17150E+00
 -1      1743-9.65317E-01 5.56035E+00-2.20870E+00 1.67834E-01-3.89517E+00-5.93262E+00
 -1      1744-4.60211E+00-7.70164E+00 1.47118E+00 4.79542E+00 3.06358E+00-9.04595E-01
 -1      1745-1.24859E+00-3.50996E+00-1.49142E+00 1.09954E+00 5.06940E+00-1.88205E+00
 -1      1746-2.39766E+00-2.29906E+00 1.87473E+00-2.09743E+00 9.80530E-01 2.54100E+00
 -1      1747-1.01556E+00-4.79677E+00-7.03558E-01 7.54290E-01-1.56815E+00 4.13697E-02
 -1      1748 1.46727E+00 2.06596E+00-4.88570E-01 1.20249E+00-2.20230E+00-2.36416E+00
 -1      1749 2.46458E-01-3.30692E-01 3.90829E-01 1.04261E+00 1.12637E+00-7.57297E-01
 -1      1750-5.71729E-01 1.54570E+00 3.93205E+00-1.39623E-01-1.88076E+00 6.12054E-01
 -1      1751 5.46744E-02-1.77607E+00 7.85948E-01 1.47761E+00-6.87069E-01 1.35541E+00
 -1      1752 2.26276E+00-3.27498E-01-1.07840E-01 2.05418E-01-9.77959E-01 3.94349E-01
 -1      1753 1.58256E+00 3.98284E+00 2.86689E+00-2.30466E-01-2.35281E+00-4.38777E-01
 -1      1754 4.33765E-01 2.78963E+00-1.86522E-01-9.10160E-01 1.23570E+00 5.89553E-01
 -1      1755-3.65908E+00-3.32172E+00-3.12613E+00-1.53043E+00 2.77473E+00 2.59160E+00
 -1      1756-2.21696E-02 2.25231E-01 4.10580E-01 1.65317E+00 2.84072E-01-1.59622E+00
 -1      1757 4.46514E+00 4.05587E+00 9.49533E-01-3.49111E+00-1.34325E+00 3.24188E+00
 -1      1758 7.50681E-02-2.38274E+00-1.26981E+00-3.05089E-01 1.26372E+00 9.27295E-01
 -1      1759-1.26884E+00-5.76912E+00 3.16781E-01 1.09504E+00 1.60542E+00-6.88710E-02
 -1      1760-5.01159E+00-4.13731E+00-3.93469E+00 1.74607E+00-1.30643E+00 1.35732E+00
 -1      1761 7.89631E-01 2.89612E-01 8.17950E-01 3.67487E-01 2.08339E-01 2.08368E+00
 -1      1762 1.16137E+00 5.98782E-01-5.85685E-01-7.24084E-01 9.17780E-01 8.96886E-01
 -1      1763 4.14562E-01 4.74644E-01 3.28743E+00 8.16079E-01 1.10613E-02-2.78585E+00
 -1      1764-2.30122E+00-1.32737E+00 4.41556E-02-1.35922E+00 6.36074E-01-1.06506E+00
 -1      1765-1.32498E+00-2.63101E+00 2.67548E-02 3.22896E-01 4.37969E-01-1.08038E+00
 -1      1766 1.65713E+00 4.66135E-01-2.42688E-01 2.46102E-01 1.15088E+00 1.31234E-01
 -1      1767-9.12666E-01-2.65368E+00-2.56115E-01 5.08104E-02-1.29100E-01-1.35492E+00
 -1      1768-4.96522E-01 4.56075E-01-1.70584E-01-8.14272E-01 1.27182E+00-2.75412E-01
 -1      1769-6.99535E+00-3.56607E+00-1.59974E+00 1.31869E+00 2.40273E+00-3.68239E+00
 -1      1770 1.10172E+00 4.47875E+00-9.50020E-02-2.40984E+00-1.53703E+00 5.10821E-01
 -1      1771-6.02007E+00-2.41593E+00-2.38732E+00 1.75413E+00-2.51367E+00 2.83749E+00
 -1      1772-7.65434E-01 2.58135E+00 4.01909E-01 4.21548E-01-7.94775E-02 1.30804E+00
 -1      1773 1.79642E+00 3.14799E+00 4.67619E-01 3.33078E-01-6.44426E-01-1.51377E+00
 -1      1774 2.01673E+00 4.19553E+00 6.99014E-01-7.16482E-01-2.14289E+00-7.64122E-01
 -1      1775 3.34273E+00 5.03028E+00 2.38687E+00-3.20600E-01 4.89128E-01 9.34122E-01
 -1      1776-2.77712E+00-2.66949E+00 3.51220E-01-2.05895E+00 3.18814E+00 1.99285E+00
 -1      1777-1.91448E+00-1.98975E+00 1.92439E+00 1.96862E+00-1.97673E-01-4.63562E-01
 -1      1778 6.95576E+00 2.28256E+00 1.51679E+00-2.20102E+00 2.30827E-01-1.77871E+00
 -1      1779-9.86383E-01-3.92398E-01 4.79724E-01-5.43224E-01-5.10349E-01-2.63306E+00
 -1      1780 4.67680E+00-2.91611E-01 3.02059E-01-1.05533E+00-9.25604E-01 1.72073E+00
 -1      1781-2.15838E+00-1.58119E+00 1.70405E-01 1.16696E-01 6.67009E-01-1.59652E+00
 -1      1782-1.46836E-01-2.18622E-01 3.71783E-01 7.90691E-01-7.16826E-01 1.48434E+00
 -1      1783-1.57330E+00-1.87124E+00 8.61536E-01-1.06199E-03 1.30825E+00 1.40071E+00
 -1      1784-3.10721E+00 6.38291E-01 7.28462E-01 9.88761E-01 5.24817E-01-1.71609E+00
 -1      1785 7.65615E+00 1.91764E+00 1.44760E+00 1.24831E-02 1.18635E+00-2.62427E+00
 -1      1786 9.06897E-02 9.23182E-01 3.70041E-01-1.27788E+00-2.43785E+00 1.44885E+00
 -1      1787 1.13761E+00-4.44835E+00 9.65551E-01-2.55349E+00-6.97138E-02 5.61718E-01
 -1      1788 4.19256E+00 3.12599E-01-8.12727E-01 6.50371E-01-8.66522E-01-3.49210E+00
 -1      1789 4.90976E-01-2.45454E+00 2.12779E+00-1.37052E+00 1.34127E+00 3.67374E+00
 -1      1790-1.61066E+00-5.69603E-01-5.46337E-01-1.18212E+00 1.53063E-01 2.30472E+00
 -1      1791 1.33273E+00 2.68587E+00-8.21635E-01 1.72925E+00 1.84953E-01-7.69263E-01
 -1      1792 8.99096E-01 2.89565E+00 1.04028E+00-6.00726E-01-5.96829E-01 2.65818E-01
 -1      1793 1.41842E+00 2.50845E+00-2.37126E-01 1.09652E+00 1.30927E-01-1.16000E+00
 -1      1794 3.78338E+00 3.29217E+00 1.19496E+00 1.73814E+00 8.18924E-01-1.10646E+00
 -1      1795-2.30856E+00-2.07047E+00-8.57028E-01-5.77566E-01-1.52709E+00 7.40050E-01
 -1      1796 3.27216E+00 3.86237E+00-1.07867E+00-1.69886E+00 7.28520E-01 1.73112E-01
 -1      1797-9.90235E-01-4.01497E-02-1.21332E+00-3.76766E-01-2.59578E+00 1.36001E+00
 -1      1798-2.79963E+00-2.47201E+00-3.47318E-01-1.31007E+00 3.61325E+00 2.28616E+00
 -1      1799-1.19219E+00-7.38257E-01-1.74308E-01 1.62163E+00-1.89087E+00 1.34431E+00
 -1      1800-1.05900E+00 5.87200E-01-5.45851E-01 2.27657E-01 1.14870E+00-1.98625E+00
 -1      1801 1.26122E+00-5.30131E-01 3.55277E-01-3.88484E-01 3.10241E+00-2.46581E+00
 -1      1802-3.53075E+00-9.30370E-01-7.28360E-01 2.63846E+00-2.25926E+00 1.42192E+00
 -1      1803-8.57997E-01-4.52711E-01-1.40892E+00 1.44483E+00 1.08908E+00-1.59108E+00
 -1      1804 2.83076E+00 2.74886E+00 1.07409E+00 7.72901E-01-1.22086E+00-8.14384E-01
 -1      1805 1.88283E+00 1.98161E+00 2.83898E+00 4.23822E-03 4.58483E-01-1.80242E+00
 -1      1806 2.07739E+00-2.71769E+00 5.85220E-01 8.56056E-01 1.27548E+00-1.11629E+00
 -1      1807-1.86635E+00-5.61377E+00-3.41992E-01-5.11936E-01 3.89607E+00-2.33548E+00
 -1      1808 1.41601E+00 2.60541E+00-2.43994E-01 2.15654E+00 9.49247E-01-5.90967E-01
 -1      1809 3.13350E+00 4.99018E-01 1.01325E+00-6.19551E-01 6.98884E-01 3.93746E+00
 -1      1810 1.53163E+00 1.56128E+00 1.26272E+00 1.49935E+00-3.91451E-01 1.54777E+00
 -1      1811-3.14161E+00-3.56997E+00-1.16404E+00 2.94151E+00 4.04336E+00-1.08843E+00
 -1      1812-1.76537E+00-2.71091E+00-5.42421E+00-1.03051E+00-1.91712E+00-9.54199E-01
 -1      1813 1.78990E+00-5.68784E-01 4.32465E-01 8.82158E-01 1.46536E+00-3.82206E-01
 -1      1814-1.79001E+00-1.43346E+00 6.03621E-01-1.44994E-01-1.57865E+00 6.65685E-01
 -1      1815-1.27282E+00-3.20419E+00-1.82785E+00 1.38766E+00-5.19468E+00 3.42592E-01
 -1      1816 3.17067E+00 6.42099E-01-1.40747E+00 1.47717E+00 3.06853E-01 9.48399E-01
 -1      1817-3.68922E+00-1.58517E+00-1.59571E+00 3.90203E-01-3.67901E-01 3.85370E+00
 -1      1818-4.56950E+00-6.35941E+00-1.23996E+00-2.92952E+00-2.57816E+00-1.58355E+00
 -1      1819-9.98600E+00-1.55830E+00 3.59893E-01 2.93259E+00-2.48195E-01 3.58974E+00
 -1      1820-1.38296E-01-1.48227E-01-4.76560E-01-1.11736E+00 1.68310E+00 8.86743E-01
 -1      1821-2.22257E-02 2.26899E+00 6.32132E-01-6.34616E-01-9.49910E-01 4.99017E-01
 -1      1822 3.83005E+00 2.81870E+00 2.93664E+00 1.09398E+00 5.90361E-01-4.99755E-01
 -1      1823-2.51465E+00 3.22680E+00-6.20859E-01 3.31905E-01 1.23495E+00 4.31078E+00
 -1      1824-4.98392E+00-1.31896E+01-2.37504E+00-2.47193E+00 4.02934E-01-6.70745E-01
 -1      1825 2.21430E+00 1.66218E+00 3.29101E-01 6.53291E-01 3.63595E+00 3.51635E+00
 -1      1826 6.98929E+00 7.43264E+00 2.01844E-01-1.28602E+00 6.17304E-01-2.63656E-01
 -1      1827-5.46850E+00-9.06649E-01-6.86315E-01-7.17323E-01-8.28714E-01-3.17256E+00
 -1      1828 2.68547E-01-4.04365E+00 1.12373E+00-2.94796E-01 7.02353E-01-1.58363E-01
 -1      1829 4.41677E+00 4.03748E+00-8.04075E-01-1.71309E+00-1.38525E+00-2.71595E-01
 -1      1830 2.73649E+00 1.12141E+00-4.08969E-02-8.14100E-01-1.00738E+00 1.21754E+00
 -1      1831-6.21560E-01-1.29294E+00 2.83118E-01-9.22045E-01-5.48362E-01 9.47659E-01
 -1      1832-9.36350E-01-4.02988E+00 6.63362E-01-2.08324E+00 2.76937E+00 1.61870E+00
 -1      1833 1.32586E+00 2.74607E+00 1.48565E+00 1.10948E+00-1.98932E+00-2.14430E+00
 -1      1834 4.80955E-01-1.29094E+00-1.45455E-01 3.17617E-01-1.91447E+00-1.48572E-01
 -1      1835 1.00980E+00-2.63683E+00 2.44099E-01-1.31642E-01-1.37228E+00-5.84383E-01
 -1      1836-2.68961E+00-1.36530E+00-4.21253E-01-5.36645E-01-2.19681E+00 6.38390E-01
 -1      1837-1.61053E+00-1.56516E+00-7.80904E-01-1.72008E+00 8.97580E-01-4.04649E-01
 -1      1838-1.22566E+00-2.08936E+00 1.21587E-01-2.03458E+00 7.76581E-01 2.55941E+00
 -1      1839 4.59554E+00 1.52929E+00 1.16118E+00 1.50805E+00 7.71586E-01 1.33237E+00
 -1      1840-9.22449E-01 5.33601E-01-7.09896E-01-3.72892E-01-1.01531E+00-1.60490E+00
 -1      1841 4.78800E-01 2.33882E+00 5.14767E-01 2.92633E-01 2.02876E-03-8.32756E-01
 -1      1842-1.10742E-01-1.46456E+00 4.61693E-01 2.12955E-02-1.67715E+00 1.31042E+00
 -1      1843 7.12545E-01-9.39477E-01-2.81795E-01 1.86518E+00-5.82277E-01 9.77011E-01
 -1      1844-1.05148E+00-2.46779E+00 1.06586E-01 1.01399E+00-1.86490E+00-4.41649E-01
 -1      1845-4.36852E-01-5.22145E-01 8.63972E-01 6.33734E-01-1.90727E+00-2.52236E+00
 -1      1846-1.04104E-01 8.63255E-01 1.21805E+00 6.13203E-01-1.31588E+00-9.27021E-01
 -1      1847-2.05949E+00-4.88321E+00-1.84738E+00 1.45550E+00-3.31231E+00 2.57755E-01
 -1      1848-5.07501E+00-1.79104E+00 2.73155E-01-2.64232E+00 6.53408E-01-1.51914E+00
 -1      1849-3.66112E+00-1.84932E+00-2.31179E+00-8.99890E-01-1.60216E+00-1.58119E+00
 -1      1850-1.61168E+00-4.03059E+00-1.29552E+00 5.06112E-01-9.77015E-01 2.76424E+00
 -1      1851-2.67341E+00-2.33508E+00-3.57533E-01-5.06742E-01 7.34185E-01-7.04697E-01
 -1      1852-1.12117E+00-2.82765E+00 4.32369E-01-1.62190E+00 1.91368E+00 1.42803E+00
 -1      1853-3.44147E-01-6.59090E-01-1.11979E+00-7.58683E-01 1.05748E+00 5.84145E-01
 -1      1854-4.21531E-01 7.49828E-01 2.79844E-02-1.07271E+00 1.78173E+00-1.08551E+00
 -1      1855 8.21577E+00 1.70306E+00 3.19194E+00-9.81624E-01 1.74381E+00-2.50294E+00
 -1      1856-3.04861E+00-2.49418E+00 1.13073E+00-3.30028E+00 2.03978E+00-2.53593E+00
 -1      1857-1.20719E+00-1.62178E+00 1.10814E+00 1.86983E+00-1.13492E+00 6.69017E-01
 -1      1858-1.83129E+00-1.60718E+00-1.13645E+00 1.48056E+00-1.31757E+00 1.55584E+00
 -1      1859-3.45005E+00-7.34357E-01-1.34715E+00 1.79976E+00 5.52401E-01-1.58639E+00
 -1      1860-5.03557E+00-4.62293E-01-1.05730E+00 2.40232E+00 2.37021E-01 6.66957E-01
 -1      1861 2.10456E+00-1.67600E+00 9.84041E-01 1.31635E+00 1.30936E+00-7.38159E-01
 -1      1862-8.41939E+00-7.04726E+00 1.91985E+00 6.06974E+00-1.88389E+00-8.09081E-01
 -1      1863-1.26876E+00-3.82507E-01 4.81446E-01 8.42181E-01 1.80193E+00-1.27857E+00
 -1      1864-1.19410E+00 1.02427E+00-5.17371E-02 1.16024E+00 1.19024E+00-1.65488E+00
 -1      1865-1.49611E+00-4.39524E+00 2.20874E+00 2.56630E+00-9.55623E-01 7.76124E-01
 -1      1866 3.65957E+00 9.89070E-01-5.71148E-02 2.58028E+00-7.46233E-01 1.93069E+00
 -1      1867 3.30609E+00 8.97161E-01 4.22046E-01 3.46314E-01 9.42359E-01 1.80264E-01
 -1      1868 8.05899E+00 3.84215E+00-1.25334E+00-5.59823E-01 1.42938E+00-1.09072E+00
 -1      1869 2.79350E+00 2.04046E+00 1.10172E+00 1.03778E-01-9.20016E-01-2.55847E-01
 -1      1870-1.06685E-02-1.79286E+00-6.55420E-01-3.28907E-02-1.21105E+00-3.52946E-01
 -1      1871-5.13295E-01-1.51329E+00-1.85399E-02 1.83229E+00-1.38423E+00 1.94528E+00
 -1      1872 1.02208E+00 4.00244E+00 2.45942E-01 2.83946E-01 7.10674E-01-6.45108E-01
 -1      1873 3.84443E-03-4.15655E-01-2.02602E-01-5.84236E-01 1.06044E+00 1.02530E+00
 -1      1874-3.51876E-01 3.58977E-01-9.68184E-02 7.22398E-01 2.58259E+00 1.78355E+00
 -1      1875-1.97413E+00-3.19432E+00-2.90383E+00 1.88128E+00 1.06220E+00-1.88272E+00
 -1      1876-5.48986E+00-1.15587E+00 4.05189E-01-6.67197E-01 9.61395E-01 2.63411E+00
 -1      1877 1.07551E+00 2.67760E+00 9.29418E-01-2.25773E+00-1.88542E+00-1.33776E+00
 -1      1878 1.40707E+00-4.75147E-01-2.50461E-01 1.69353E+00 1.44017E+00 1.58502E+00
 -1      1879 2.25907E-01 7.77813E-01 1.70893E+00 1.24330E-01-2.05037E+00-1.90649E-01
 -1      1880-4.38459E+00-5.48069E-02-5.63087E-01-1.43938E+00-1.34867E+00-8.40875E-01
 -1      1881-1.70531E+00 1.41464E+00 9.21141E-02-1.12553E+00 6.95888E-01 1.72023E+00
 -1      1882 1.54898E+00 1.92454E+00 4.75324E-01 9.87799E-01 1.93335E-01-6.02911E-01
 -1      1883-1.30236E-02-9.27794E-01 3.72253E-01-1.37357E+00-7.59836E-01-1.12615E+00
 -1      1884-4.82123E+00-6.00144E+00 6.63839E-02 7.95514E-01 1.26793E+00 4.14109E-01
 -1      1885-4.84310E+00-1.67333E+00-2.88652E+00 1.44222E-01-1.18775E-01 8.58421E-01
 -1      1886 2.34826E+00 3.35422E+00 1.19517E+00-6.09529E-01-2.07930E+00 1.95143E-01
 -1      1887 3.99125E+00 6.99304E+00-1.00647E+00-3.44777E+00 2.24609E+00-3.51260E+00
 -1      1888-1.88847E+00 3.87050E-01-1.53454E+00 1.75720E+00-1.36465E+00 2.13617E+00
 -1      1889-5.06655E-01-1.06866E+00 1.46702E+00-3.56226E-01-4.47813E+00 4.51293E-01
 -1      1890 1.51352E+00-4.46373E-01 8.11972E-01-6.13561E-01 1.00470E+00-2.01384E+00
 -1      1891 1.32462E+00 2.62033E+00 2.10217E+00-1.87715E+00 5.25613E-01-2.11471E+00
 -1      1892 8.59610E-01-7.06775E-01-2.67848E+00 1.62605E-01 8.50695E-01 2.25309E+00
 -1      1893 5.65277E+00 2.57326E+00 3.75193E+00 1.47400E+00 2.39580E+00 4.22644E+00
 -1      1894 8.28698E-01 5.38728E-01 3.22455E+00-1.09354E+00-2.21872E+00 3.32669E-01
 -1      1895-3.46457E+00-2.67912E+00-4.23513E-01 2.56197E+00 1.02453E-01 2.27922E-01
 -1      1896-1.21030E+00 1.52584E+00-1.02113E-01-1.57121E-01 5.26745E-01 1.10143E+00
 -1      1897 5.80306E-03 3.47803E+00-1.59457E-01 1.32861E+00-4.32198E-01-1.07449E+00
 -1      1898-1.65062E+00-5.03395E+00-3.29981E-01 1.12239E+00-5.10098E-01 1.69533E+00
 -1      1899-4.02691E+00-3.27538E+00-2.07601E+00 1.95764E+00 1.60679E+00-4.16170E+00
 -1      1900-8.64878E+00-2.28977E+00-2.65793E-01 1.48131E+00 1.00325E+00-4.17393E+00
 -1      1901 2.71788E+00 3.94247E+00 2.42258E-01-1.33721E+00-8.61736E-01-4.03530E-01
 -1      1902 1.02380E+00 1.79904E+00-6.50730E-01-1.17505E+00 9.86246E-01 9.58460E-02
 -1      1903 9.75287E-01-1.41998E+00-6.53468E-01 3.27961E-01-1.85570E+00 8.22382E-01
 -1      1904 7.01947E+00 4.89259E+00 1.46568E+00-9.72320E-01 2.39104E+00 1.71725E+00
 -1      1905 8.25579E-01 1.55026E+00 5.59772E-01 9.78810E-01-1.71348E+00-1.42458E+00
 -1      1906-5.11716E+00-1.66170E+00-1.90444E+00 1.56595E+00-1.24117E+00 4.96107E+00
 -1      1907-1.33761E+00-3.13273E+00-3.23249E-01 1.21113E-01 9.86889E-01-1.74873E+00
 -1      1908 2.22188E+00-2.01373E+00-1.11208E+00 6.64541E-01-1.55006E+00 3.12163E-01
 -1      1909 6.87658E+00 2.97845E+00 8.36454E-01 2.50211E+00-2.24968E+00-1.81727E+00
 -1      1910 2.21490E+00 2.17897E+00 9.04038E-01 2.55394E-01 2.54786E-01-5.26614E-01
 -1      1911 1.76419E+00 1.22161E+00 3.10952E+00-9.93661E-02 4.45032E+00-2.75743E+00
 -1      1912-2.37411E-01-7.93777E-01-7.56291E-01-8.58739E-01 1.08128E+00 1.85110E+00
 -1      1913 2.12038E+00 6.31535E+00-2.03873E+00 1.75023E+00 5.57296E-01-4.89045E-01
 -1      1914-9.26726E+00-3.28408E+00-4.37551E-01 2.01805E+00-5.13907E-01 2.62301E+00
 -1      1915 8.30130E-01 3.24852E+00-1.21389E+00-7.85478E-03 2.59941E+00 1.36683E+00
 -1      1916 2.22368E+00-3.83316E+00 4.07957E-01-8.22613E-01 7.59233E-01 6.86231E-02
 -1      1917 1.11560E+00-2.87180E+00 1.75100E+00 5.21559E-01-6.88549E-01-2.44072E-01
 -1      1918 4.28545E-01 3.36849E+00 9.54154E-01 2.04011E-01 1.96580E+00-3.74575E-01
 -1      1919-1.47553E+00-1.60990E+00 4.96324E-01-1.42916E+00-3.73556E+00-2.88741E+00
 -1      1920 3.16105E+00 2.21498E+00 1.49997E+00-1.77311E+00 1.62976E+00-2.32493E+00
 -1      1921 7.32798E-01-3.82908E+00-1.34564E-01 3.14514E-02 1.09727E+00 5.02343E-01
 -1      1922-1.16146E+00-1.38891E+00-2.03258E+00 2.89557E-01 6.27555E-02 2.21247E+00
 -1      1923 2.93893E+00 2.60015E-01-6.50640E-01-6.23991E-01-9.13109E-01 1.04261E+00
 -1      1924 1.30682E+00 3.59380E+00 1.26250E+00-1.16161E+00-3.70946E-01 8.13860E-01
 -1      1925-8.09711E-01-4.79482E-01 5.70857E-01-3.01503E+00-1.40630E+00-1.34871E+00
 -1      1926-2.07971E+00-2.85825E+00-5.75691E-01-3.11146E+00-1.33583E+00-8.11690E-01
 -1      1927 2.74642E+00 5.25674E+00 3.44228E-01-1.06538E+00 2.74260E+00 4.81758E-01
 -1      1928-1.51930E+00-4.65050E+00 3.43071E-01-7.99066E-01 9.45817E-01-3.25810E-01
 -1      1929-1.70589E+00-8.52446E+00 7.55087E-01-1.34866E+00 3.08560E+00 1.20532E+00
 -1      1930 2.54307E+00 1.40477E+00-1.57259E+00-1.46549E+00-6.69319E-01-1.94769E+00
 -1      1931 2.88594E+00 1.06743E+00-2.99106E+00-1.40675E+00-3.30667E+00 1.02021E+00
 -1      1932 3.82310E+00 8.62640E-01 1.21666E+00-5.41562E-01-1.10179E+00-9.74401E-01
 -1      1933 8.43067E-01-2.15254E-01-4.04251E-01 1.80409E-01-8.90808E-01 2.15142E+00
 -1      1934-1.95176E+00-2.93013E+00 3.14562E-01 3.23636E-01 6.62913E-01-1.38829E+00
 -1      1935 5.40608E-01-4.39440E+00 1.51807E-01-1.41251E+00 3.47975E+00 1.34493E+00
 -1      1936-8.72292E-01-4.95147E-01-2.75813E-01 4.61649E-01-1.27775E+00-1.90388E+00
 -1      1937-1.51183E+00 4.46144E+00 4.39384E-01-1.51303E+00 3.61900E+00-4.14275E+00
 -1      1938 1.04368E+00 3.94121E+00 1.78926E+00 8.13837E-02 3.37390E+00 3.02335E-01
 -1      1939 5.02041E+00 5.39105E+00 2.25336E+00 1.04156E+00 2.17906E+00-1.67341E+00
 -1      1940-8.19343E-01-2.24011E+00-3.70141E-01 1.71819E-01 1.08908E+00 1.34663E+00
 -1      1941-2.25138E+00-7.19393E-01-1.83931E+00 1.57936E+00-9.01946E-01 2.37983E+00
 -1      1942 3.15562E+00 1.03641E-01-2.10191E-01 8.94351E-01 6.32025E-01 3.50789E+00
 -1      1943 3.87916E+00 2.77916E+00-9.43773E-01 1.62299E+00 4.93826E-01-6.27117E-01
 -1      1944 7.83330E-01-4.85805E-01 2.67238E-01-1.40073E+00-7.06350E-01-1.07728E+00
 -1      1945 2.26490E+00 6.09259E-01-5.16815E-02-7.05245E-01 4.37661E-01 4.03523E-01
 -1      1946 2.14591E-01 6.16389E-01 2.73841E+00 1.68778E-01 2.58799E+00-7.83836E-01
 -1      1947 3.21299E+00 2.39982E+00 1.55735E+00 1.32008E+00 3.29016E-01 2.29457E+00
 -1      1948 3.05010E+00 4.99827E-01 1.20662E-01 6.81099E-01 7.96467E-01-4.59938E-01
 -1      1949-1.31260E+00-4.25538E+00-2.70835E+00 1.59051E+00-4.81468E+00-3.63072E-01
 -1      1950-1.35315E+00-5.69613E+00 1.04240E+00 1.52299E+00-1.53470E+00 7.38020E-01
 -1      1951-7.34621E+00-3.56657E+00-3.96641E+00 3.86494E-01 1.53299E+00-9.96534E-01
 -1      1952 4.30125E+00 1.53737E+00 3.41659E+00-7.83713E-01-3.56157E-01-1.82660E-01
 -1      1953-8.65120E-02 4.35554E-01 1.30076E+00 1.64951E+00-1.45916E+00 1.37944E+00
 -1      1954-5.34101E-01 1.21406E+00 2.32219E+00 2.07388E+00-8.29390E-01 8.31989E-01
 -1      1955 9.39420E-01 3.91757E+00 1.57221E+00 1.47294E+00-2.99869E+00-3.95842E+00
 -1      1956-3.62672E+00 4.29714E-01-1.25377E+00 7.92050E-01-2.41138E-01 2.44812E+00
 -1      1957-5.06953E+00-1.32004E+00-2.94045E+00 6.18864E-01 1.03985E+00-3.50173E+00
 -1      1958 2.40316E+00 5.03852E-01 5.50580E-01-1.08099E+00-1.52031E+00-5.88396E-01
 -1      1959 1.82000E+00 1.60085E-01 6.87654E-01 1.03064E+00 1.14515E+00 1.97715E-01
 -1      1960 3.68099E+00 2.32087E+00 7.71786E-01-1.02655E+00 6.31499E-01 2.71938E-01
 -1      1961-2.24715E+00-4.84769E-01 2.49781E-01 1.45552E-01-1.74674E+00-1.57234E-01
 -1      1962-1.15806E+00 1.92437E+00 2.46049E-01-3.19248E-01-3.94420E-02 9.98528E-01
 -1      1963 2.37176E+00-1.52392E-01-6.97612E-03 1.22936E+00 1.32442E+00-1.24120E-01
 -1      1964-3.80984E+00-6.12283E+00-2.84490E+00-2.14214E+00-1.49658E+00-3.66280E+00
 -1      1965 3.09017E+00 4.61691E+00 1.00828E+00 3.82958E-01-5.32748E-01 1.32271E+00
 -1      1966-4.35309E+00 1.01014E+00-4.75201E-02 6.07136E-01-7.26664E-01 2.17792E+00
 -1      1967-8.59665E-01-1.03183E+01-1.77843E+00-8.56430E-02-3.47378E+00-1.78826E-01
 -1      1968-2.63632E+00-3.26701E-01 8.40294E-01-1.96997E+00 9.14751E-01 1.06523E+00
 -1      1969 3.96622E-02-5.91262E-01 4.84729E-01-1.47182E+00 9.36027E-01 1.84898E+00
 -1      1970-2.43727E-01 2.39581E+00 8.46231E-01-2.18417E-01 8.21989E-01 1.65293E+00
 -1      1971 2.31521E-01 1.01320E+00 6.78276E-01-1.15459E+00-1.88036E+00-2.00771E+00
 -1      1972 5.27772E+00 6.93938E+00 1.60416E+00-6.97594E-01 8.19354E-01 8.11997E-01
 -1      1973-1.50036E+00-1.44658E-01-1.80951E-01-2.06533E-02 1.96473E+00 1.46600E+00
 -1      1974 3.66966E+00 3.06847E+00 1.68339E+00-5.13606E-01 1.14377E+00-1.45751E+00
 -1      1975 1.19027E+00 2.66260E+00 1.09095E+00 4.33630E-01-2.00715E+00 1.30649E-01
 -1      1976 9.93141E-01 2.35512E+00-4.39169E-01 5.22848E-01-1.37740E-02 1.44132E+00
 -1      1977 3.75358E+00 6.06497E+00-1.38031E+00-1.12328E+00-8.79530E-01 1.25886E-01
 -1      1978 2.66310E+00 4.12436E+00 4.04274E-01-1.81037E-01 1.90310E-01-2.73016E-01
 -1      1979-6.53700E+00-5.94071E+00 4.82891E-01 4.34380E+00-7.90894E-01 9.20787E-01
 -1      1980 1.00183E+00-5.28338E-01 1.77904E-01-1.63457E+00 8.51727E-01 6.09409E-02
 -1      1981-2.86279E-01-1.03902E+00 1.97810E-01-1.47681E+00-1.39715E+00-1.53942E+00
 -1      1982-2.39912E+00 8.27433E-01-7.43225E-01-1.13699E-01 4.33940E-01 2.24205E+00
 -1      1983 2.92578E+00 2.33360E+00 1.97927E+00 1.75327E+00 1.63215E+00 2.58169E+00
 -1      1984-7.96176E-01-2.23157E-01 8.46039E-02-1.24445E-01-9.90387E-01 9.46959E-01
 -1      1985 2.54619E+00-4.88273E-01-7.04866E-01-1.16978E+00-1.84396E+00-1.75509E+00
 -1      1986 2.67831E+00 5.22073E+00 2.45953E+00-3.06325E+00 3.78560E+00-1.46718E+00
 -1      1987 4.73941E+00 5.81391E+00-1.27128E+00-2.16321E+00-1.29319E+00 1.49997E+00
 -1      1988 2.36918E+00 4.00007E+00-4.91334E-01-1.67298E+00-7.65917E-01-5.52021E-01
 -1      1989 6.29210E+00 2.17291E+00 2.20817E-01-4.49871E-01-1.75718E+00-2.37612E-01
 -1      1990 5.77779E+00 5.46035E+00 5.97653E-01-8.86088E-01 6.40962E-02 1.59014E+00
 -1      1991 2.93097E+00 3.57839E+00 7.52436E-01-3.97606E-01-1.54768E+00-6.27040E-01
 -1      1992 4.98988E-01-1.86115E+00-3.75256E-01 1.75905E-01 5.56088E-01-1.64801E+00
 -1      1993 6.91746E-01 1.10760E-01 5.29805E-01-7.29831E-01-1.19753E+00-2.25712E-01
 -1      1994-3.45305E+00-7.35049E-01-3.41235E-01 3.24536E-01 6.69643E-01 1.47244E+00
 -1      1995 5.94804E-01-4.07882E+00 1.55288E+00-5.48689E-01-1.77124E+00 1.42469E+00
 -1      1996 3.55275E+00 2.79447E+00-1.00306E+00-1.28462E+00-9.84898E-01-2.40183E-01
 -1      1997-7.68862E-01-1.47050E+00 8.65999E-01-1.54933E+00 3.31632E+00 7.28073E-01
 -1      1998-6.98054E-01 1.79452E+00 1.00648E+00-2.39278E-01-2.15065E+00 4.34738E-02
 -1      1999 1.36010E+00 1.76982E+00 1.65689E+00 1.09463E-02 8.87983E-02-5.39887E-01
 -1      2000-3.74989E+00-1.42012E+00-1.62085E+00-2.34896E+00 9.91349E-02 1.48624E+00
 -1      2001-5.83665E+00-1.67151E+00 4.67951E-01 1.98055E+00 7.94878E-01-2.14692E+00
 -1      2002-1.11986E+00 6.85123E-02-5.62703E-01 1.48728E+00 2.51382E-01 1.83874E+00
 -1      2003-3.31474E-01 3.14450E+00 3.49149E-01-1.89505E-01 8.17712E-01-9.53374E-01
 -1      2004-1.93786E+00-1.52501E+00-1.80031E+00 4.84966E-01-1.17963E+00-7.31743E-02
 -1      2005-6.33028E-01 1.28104E+00-8.27197E-02 6.61903E-01-3.49200E-01-1.63689E+00
 -1      2006 1.02000E+00-1.70710E+00-8.33203E-01-1.29614E+00 7.10342E-01 9.08306E-01
 -1      2007 4.32307E+00 3.22658E+00-9.75394E-01 2.12985E+00-1.81222E+00-2.90308E+00
 -1      2008 6.03825E+00 4.88387E+00 2.86288E+00-7.36830E-01 1.57263E+00 2.26506E-01
 -1      2009-1.09721E+00-2.20503E+00-2.21303E+00-8.59264E-01 1.46184E+00 7.57668E-01
 -1      2010 8.26837E+00 3.13526E+00 1.23599E+00 5.38053E-01-1.14039E+00-1.25589E+00
 -1      2011 2.67627E+00 1.40454E+00 2.10250E+00-6.04735E-01-2.03504E+00 2.20539E+00
 -1      2012 2.18378E-01-3.63507E+00-6.37564E-02-5.89826E-02 1.51457E+00-6.74324E-01
 -1      2013 2.26447E+00 4.17678E+00 6.58610E-01 4.02611E-01-8.88611E-01-1.08235E+00
 -1      2014-1.53279E+00-4.56657E-01 4.03864E-01-3.63815E-01 1.86751E+00 1.84670E-02
 -1      2015-2.93650E+00-1.09070E+00-1.08974E+00-1.05167E-01-1.72754E+00 7.40950E-01
 -1      2016-8.67163E-01 3.17730E+00-5.44401E-01-2.12077E-01 1.15649E+00-3.04534E-01
 -1      2017 1.78555E+00 2.02672E+00-4.17918E-01-1.94636E+00 1.24338E+00 1.05052E+00
 -1      2018 6.38209E+00 5.34768E+00 1.34728E+00 3.68286E-01-3.77276E+00-1.79759E+00
 -1      2019 3.19039E+00 2.42401E+00-1.26335E+00-1.68383E+00 8.70789E-01 3.19279E-01
 -1      2020-1.62985E+00-5.30589E+00-4.37864E+00 9.29439E-01 6.43312E-02 4.66923E-02
 -1      2021-1.05672E+00 1.77656E+00 1.11407E+00-1.50866E+00 1.77561E+00-4.11726E+00
 -1      2022-2.30804E+00-5.11485E+00-4.11298E+00-2.25202E+00 1.91920E+00 2.97212E+00
 -1      2023-4.40442E-01 2.13153E+00 1.48329E+00-4.82146E-01-2.52507E+00 4.65024E-01
 -1      2024-4.87186E-01 5.98852E-01-1.68224E+00 2.17140E-01 1.81325E-01-7.63379E-01
 -1      2025-4.74865E+00 1.83352E-01-3.09880E-01-1.81899E+00-4.73630E-02-1.52004E-01
 -1      2026 1.87745E+00 1.13734E+00-1.58197E+00 1.02207E+00-3.13619E+00-1.62183E+00
 -1      2027 8.89118E-02 3.92868E+00-2.10707E+00 1.13750E+00-2.22533E+00-1.05261E+00
 -1      2028-4.53218E+00-3.53006E+00 5.11150E-01 2.04335E+00-3.97881E-01-2.58362E-01
 -1      2029 2.15364E+00 5.43310E-02-1.59543E-02-1.01364E+00 1.25913E+00 6.29985E-01
 -1      2030 3.54077E+00 2.57495E+00-2.57459E+00 1.47364E+00 4.98829E-02 2.12603E+00
 -1      2031 2.70001E+00 1.06516E+00-1.66463E-02-5.27005E-01 2.27433E-01 4.69851E-01
 -1      2032 4.17882E+00 3.64154E+00 2.18992E+00 2.69825E-02 6.77991E-01 9.59347E-01
 -1      2033-3.46014E-03 2.99157E+00-5.12415E-01 1.48274E+00-9.51013E-01 1.04920E+00
 -1      2034-2.25787E+00-9.83981E+00-1.06084E-01 2.29351E+00 1.28528E+00-1.15498E+00
 -1      2035-2.18640E+00 1.00787E+00 1.01318E+00-1.37365E-01 2.90810E+00-1.51446E-01
 -1      2036-5.54106E-01 3.68090E+00 8.26463E-01 2.09424E-01 1.19129E+00-1.37272E+00
 -1      2037-9.84607E-01-4.51225E-01 1.05938E+00 7.43433E-02 1.40280E+00-2.17154E-02
 -1      2038 2.77678E+00 3.37137E+00 2.42589E+00-2.07997E+00-6.21582E-01 2.00417E+00
 -1      2039-2.48509E+00-5.09206E-01 5.01915E-01 1.17597E-01-1.68035E+00 1.32667E+00
 -1      2040 2.21969E+00-1.78443E+00 5.34890E-01 3.99699E-01 2.68755E+00-3.38358E-01
 -1      2041 6.90283E+00 2.87069E+00 7.79749E-01-9.32932E-01 4.76992E-01-1.47846E+00
 -1      2042 3.95269E-01-1.48803E+00-2.53704E-01-9.72594E-04-2.10633E+00-1.76968E+00
 -1      2043-1.23244E+00-4.95372E+00-3.87288E-01 1.07720E+00-2.27124E+00 5.38981E-01
 -1      2044 2.69032E+00 1.79978E+00-7.52387E-02-1.72061E+00-2.27990E-01-1.03747E+00
 -1      2045 1.12064E+00-4.37875E-02-2.66250E-01-2.36145E+00-8.70494E-01-1.90665E+00
 -1      2046-1.57946E+00-1.40378E-01-1.16019E+00-6.42530E-01-1.11860E+00-2.08232E+00
 -1      2047-1.56986E+00-4.44804E+00 1.49987E+00 2.02811E+00 2.69549E+00-1.76031E+00
 -1      2048-3.45768E+00-1.07889E+00-2.79504E+00 6.69299E-01 3.82221E+00 2.36327E+00
 -1      2049-6.90581E-01-4.32610E+00 7.53055E-01 6.20426E-01-1.12937E+00-1.52824E+00
 -1      2050 1.47441E-01-2.45268E+00-1.13242E+00-1.04790E+00-2.08971E+00-7.07944E-01
 -1      2051-1.07367E+00-5.93138E+00-6.52345E-01-3.46957E-01-1.48353E+00-4.29049E-01
 -1      2052-2.04656E+00-3.09143E+00-1.14115E+00-1.97524E+00-5.85254E-01 1.07861E+00
 -1      2053-8.54845E-01-8.95844E-01 3.22751E+00-2.42033E+00 2.78849E-01-3.06183E+00
 -1      2054-2.66493E+00-1.87151E+00 3.03554E-01-4.11129E-02 1.64451E+00 6.79763E-01
 -1      2055-1.96842E+00-2.30814E+00-1.24074E+00 1.26969E-01 1.68478E+00-2.87371E-02
 -1      2056-5.90342E+00-2.63327E+00 2.72976E-01 3.78694E+00-8.12066E-01 1.72206E+00
 -1      2057 2.44450E+00 5.30877E+00-8.94742E-01-6.77131E-01-5.41124E-01-8.99693E-01
 -1      2058 4.89558E+00 1.64779E+00 2.95025E-02 4.30681E-01-6.60924E-01 2.56468E-01
 -1      2059-2.67849E+00-1.45134E+00-7.13506E-01-1.57251E-01-1.07053E+00 1.09167E+00
 -1      2060 3.83666E-01-3.02238E+00-2.00156E-01 5.28291E-01 2.57431E+00 3.88881E-01
 -1      2061-3.96091E+00-2.12579E-01 6.45394E-02 3.61104E-01 1.37544E+00-2.93504E+00
 -1      2062 4.32599E-01 6.77285E-01-6.42183E-01 6.32177E-01-2.60656E-01-1.21925E+00
 -1      2063-6.37776E+00-7.41675E-01-1.14606E+00 4.84498E-01 1.57963E-01 3.02135E+00
 -1      2064 1.10674E+00 1.48942E+00-9.99515E-01-1.56072E-01 5.33818E-01-6.66314E-02
 -1      2065-4.75856E+00-2.69432E+00-9.78505E-01-1.84477E+00-1.97365E+00-2.55699E+00
 -1      2066-2.11078E+00-6.69800E-01 1.18463E+00-2.42380E+00-2.35438E-01-1.70922E+00
 -1      2067-4.49372E+00-4.14353E+00 7.76688E-01 1.41662E+00 1.47816E+00 5.84184E-01
 -1      2068-1.98324E+00-1.86432E+00 3.25706E-01 4.35317E-01 8.88490E-01-1.35349E-01
 -1      2069 3.66492E+00 1.89553E+00-9.67091E-01 4.51696E-01 1.09386E+00-9.71878E-02
 -1      2070 4.16744E+00 6.09997E+00-1.28773E+00 2.68507E+00-5.12515E-01-7.47900E-01
 -1      2071 8.06890E-01-9.26794E-01 2.99582E-01-6.50161E-01-1.00549E+00 2.84300E-01
 -1      2072-4.90962E+00-4.05365E+00-7.77050E+00 1.63593E+00-4.89713E-01 7.92445E-01
 -1      2073 1.26451E+00-1.06127E-01 1.34612E+00 9.47981E-01-1.31718E+00 1.13431E+00
 -1      2074-6.12634E+00-1.10084E+01-2.30692E-01-4.56706E+00-2.68331E+00-1.86833E+00
 -1      2075-1.00551E+00-1.74598E+00 4.51995E-01-1.78517E+00-2.44662E+00-1.23306E+00
 -1      2076-4.59609E-01 1.82349E+00 9.53329E-01 8.41138E-01-3.34480E-01-2.30027E+00
 -1      2077-4.27080E+00-2.08687E+00-2.05860E+00 1.47190E+00 1.10131E+00-2.23787E+00
 -1      2078-1.61151E+00 2.88585E-01-5.69558E-01 2.18957E-01 1.04944E+00-1.52218E+00
 -1      2079-7.71061E-01-1.75061E+00-2.13945E-01 6.60169E-01-2.56045E+00 2.34535E+00
 -1      2080-2.82058E+00-7.51012E-01-6.67673E-01 1.27995E+00 4.67188E-01-1.65584E+00
 -1      2081-2.86962E+00-1.04520E+00-6.36498E-01-3.32802E-01-7.57667E-01 3.87776E+00
 -1      2082-6.61815E-01-4.32824E-01 2.34113E-01 1.20463E+00-1.67512E+00 7.82032E-01
 -1      2083-2.09099E-01-1.16012E+00-9.03912E-01-4.43404E-01 7.15254E-01 2.56259E+00
 -1      2084 1.86096E+00 4.03142E-01-1.16453E+00 5.76739E-03 2.97646E-03 5.33311E-01
 -1      2085 6.67813E-01 3.04460E-01 1.38364E+00-7.89465E-01-4.53567E-01-1.09267E+00
 -1      2086-6.14507E-01 8.35382E-01-4.67581E-01-4.55967E-01-3.39645E+00-1.95557E+00
 -1      2087 1.07961E+00-3.73035E-01 6.38740E-01 1.09719E+00 1.28632E+00 3.87570E-01
 -1      2088 1.95542E+00 2.07014E+00 2.90681E-01-3.66053E-01-3.33319E+00 2.14098E+00
 -1      2089 4.35429E-02-4.19913E+00-1.17507E-01 5.09200E-01-2.44170E+00-2.27440E-02
 -1      2090 1.48512E+00 1.81018E+00 1.40001E+00-1.01523E+00-2.71870E+00 7.32486E-01
 -1      2091 6.02218E-02-2.58600E+00 1.47168E+00-4.12883E-02-2.46729E+00 6.99772E-01
 -1      2092 9.66310E-01-1.12592E+00 4.00389E-01 3.99847E-01-1.30152E+00 4.92123E-01
 -1      2093 4.68385E+00 3.61430E-01 1.11566E+00 1.59790E+00-1.26756E+00-3.49499E+00
 -1      2094 1.98033E+00 1.27016E+00 2.87492E-01-2.37617E-02 1.51625E-01-1.76045E+00
 -1      2095-2.65259E+00-3.08820E-01 1.15106E-01-9.93547E-01-1.73157E+00 8.31578E-01
 -1      2096-9.12950E-01 1.52641E+00-2.99784E-01 9.59814E-01 9.07093E-01-1.16027E+00
 -1      2097 3.08807E-01 6.64761E-02 3.87047E-02 5.18715E-01-7.68393E-01-1.15473E+00
 -1      2098 5.74278E-02-4.67400E+00-2.09419E-01 4.80561E-01 2.61183E+00-9.58810E-01
 -1      2099 4.18968E+00 4.11447E+00 1.09902E+00-3.27344E-01-1.07744E+00-1.76999E+00
 -1      2100 3.48873E+00 8.24937E+00-3.52275E+00 3.76532E-01-2.72996E-01 1.65973E-01
 -1      2101-9.12468E+00-2.32250E+00-4.75839E-01-7.16123E-01 1.84273E+00-1.27722E+00
 -1      2102 3.94317E+00 2.76083E+00 3.29907E-01 3.44420E+00 1.90197E-01 1.46415E+00
 -1      2103 1.83570E+00-4.43482E-01-1.11790E+00 5.88217E-01 6.60279E-01 1.74537E+00
 -1      2104 4.99489E-01 2.02645E-01 3.20854E+00 4.37824E-02-1.63234E+00 6.91395E-01
 -1      2105-1.28650E+00-4.73654E+00 4.92890E-01-1.27503E+00-2.29452E+00-9.27716E-01
 -1      2106 1.64551E-01 9.99265E-01-4.14292E-01-1.30573E+00-5.46289E-01-1.63003E+00
 -1      2107 5.01826E+00 6.37033E+00 7.58799E-01-4.64263E-01 1.32528E+00 7.47960E-01
 -1      2108-5.35955E-01-1.77900E-01-6.46540E-01 1.60189E+00 1.38418E+00-9.42419E-01
 -1      2109 3.65815E+00 1.43140E+00 2.72685E+00-3.20845E-01 7.91665E-01 7.43857E-01
 -1      2110-6.08488E+00-4.60389E+00 1.40098E+00 4.52784E+00-2.63393E+00 6.37542E-01
 -1      2111 3.98160E+00 1.66868E+00 4.62545E+00-2.04767E+00 8.46498E-01 2.13975E+00
 -1      2112-4.69322E+00-4.23569E+00-5.88122E-01 3.01845E+00 8.58912E-01-2.40277E+00
 -1      2113 9.06919E-01 8.73490E-01-3.43846E+00-1.08544E+00 3.62995E-01 5.02615E-01
 -1      2114 1.05390E+00 1.93167E-02 5.64958E-02 4.58192E-01 9.58632E-01 3.53816E-01
 -1      2115-4.16759E+00-4.25465E-01-7.49259E-01 2.08890E-01 1.95200E-02-1.97472E+00
 -1      2116 2.68947E+00 1.76010E+00-3.08088E-01-2.05378E+00-2.75599E-01-1.63763E+00
 -1      2117 6.75222E+00 1.60599E+00 2.21915E+00 8.07939E-01 6.40626E-01-2.75760E+00
 -1      2118-3.45459E+00-1.85468E+00-1.22231E+00-1.22058E+00 1.63383E+00 2.89390E-01
 -1      2119 1.94855E+00 3.26331E+00 7.94092E-01-2.17991E+00 2.66945E-01 5.75335E-01
 -1      2120 1.50508E+00-2.44702E-01 1.09500E+00 3.26195E-01 7.57249E-02 4.81507E-01
 -1      2121 3.54023E+00 2.81771E+00-3.56457E-01 3.02224E-01-3.43413E-01 5.82730E-01
 -1      2122-1.66964E+00 2.85148E+00 9.00586E-01 5.38636E-01 2.04454E-01-1.80629E+00
 -1      2123-2.62324E+00-1.07011E+00 6.61414E-02 2.97885E-01 1.26532E+00 3.83978E-01
 -1      2124-1.66545E+00-6.52002E-01 2.35924E-01 5.86784E-02-1.60102E+00-8.79550E-01
 -1      2125 8.42284E+00 8.08010E-01-9.22145E-01-3.77123E-01-1.15486E+00-1.33552E+00
 -1      2126 2.14780E+00 4.26817E+00-3.79662E-01-9.40183E-01 8.54730E-01 7.58683E-01
 -1      2127-8.98187E-01 1.84181E+00 3.43784E-01 1.67067E+00-4.92061E-01-1.36489E+00
 -1      2128-5.06748E+00-7.46859E-01-3.26599E-01-1.87462E-01-4.37003E-03-2.80365E+00
 -1      2129 3.35402E-01-5.37407E-01-1.38728E+00-1.08481E+00-1.19522E-01-4.25497E-01
 -1      2130 7.67412E+00 6.52968E+00 8.64968E-01 2.97920E+00 1.50276E-01-6.43986E-01
 -1      2131 3.65866E+00 3.82328E+00 3.53552E-01 1.05602E+00-5.57054E-01-3.68453E-01
 -1      2132 1.48135E+00 3.10584E+00 6.09685E-01-4.45732E-01-2.61611E-01 5.51076E-01
 -1      2133 1.73570E+00 4.42866E+00 1.48243E+00-1.73379E+00 2.41785E+00-2.03832E+00
 -1      2134 2.06913E+00 1.24808E+00 1.22241E-01 8.93129E-01-1.06949E+00 5.28439E-01
 -1      2135 6.78263E-02 2.99800E+00-7.22790E-02 1.64375E+00 3.81882E-01-1.50450E+00
 -1      2136-1.82021E+00-2.30239E+00 5.35356E-01 4.41188E-01-1.33424E+00-5.03084E-01
 -1      2137-1.67674E+00-3.76606E-01-1.02982E-01-3.17195E-01 1.63029E+00-7.12327E-01
 -1      2138 3.97624E-01 4.29814E+00 4.85302E+00-1.85168E+00-5.67243E+00-1.96140E+00
 -1      2139 2.35215E+00-2.25442E-01 1.09216E-01 1.46915E+00 5.16190E-01 1.93805E+00
 -1      2140 5.45786E+00 3.41622E+00-2.28751E-01-1.39825E+00-1.57134E-01-1.56951E+00
 -1      2141-2.12269E+00 1.06862E+00 9.10968E-01-8.26090E-02 1.68389E-01-1.63001E+00
 -1      2142 6.79465E+00 7.21155E+00 2.29645E+00-1.52764E+00 1.39406E-01-1.91269E+00
 -1      2143 7.00391E+00 9.14883E+00 1.03263E+00-1.95905E+00-1.17559E+00-1.36994E+00
 -1      2144-3.92314E+00-2.70827E+00-3.94372E+00-1.55098E+00 3.98568E+00 2.63682E+00
 -1      2145-1.46405E+00 2.42657E+00-1.77799E-01 6.18182E-01-9.05664E-01 9.89946E-01
 -1      2146-9.98033E+00-1.15556E+00 1.41822E+00-8.46002E-01-4.23212E-01 2.39892E+00
 -1      2147-3.24405E-01-5.01108E+00-1.48333E+00 1.09577E+00-8.73499E-01 3.00945E-01
 -1      2148-1.32305E+00-3.61191E+00 5.38121E-01 2.83682E-01-4.43125E-01-1.42078E+00
 -1      2149-1.41233E+00 3.59044E-01 2.70595E-01-1.03660E+00-2.07174E+00 1.22933E+00
 -1      2150 1.68324E+00 4.68076E+00 2.28159E+00-2.52590E-01-7.87248E-01-1.14125E+00
 -1      2151 6.35207E+00 1.18719E+00-1.66200E+00-2.32694E+00-1.30310E+00 3.99048E-01
 -1      2152 5.48891E+00 7.30704E+00 3.65127E+00 7.69861E-01-4.15918E-02 1.29053E-01
 -1      2153 6.53592E+00 4.95979E+00 9.87459E-01-1.28956E+00-1.12949E+00-2.12317E-01
 -1      2154-4.94684E+00-1.35867E+00 5.40021E-01 5.68566E-01 1.04590E+00 1.64157E+00
 -1      2155-3.19125E+00 2.58632E-01 2.81547E+00-8.16610E-02 4.06539E-01 2.87963E+00
 -1      2156-6.60328E+00-3.59066E+00-1.77193E-01 2.80302E+00-5.90466E-01 5.46067E+00
 -1      2157 2.33251E+00 1.71413E+00-2.20508E-01-1.00529E+00-1.13973E+00 4.08155E-01
 -1      2158 1.94934E+00 1.82708E+00-1.14751E+00-2.80994E-01-1.82656E+00 8.74136E-01
 -1      2159-1.82244E+00-1.42145E+00 7.57697E-01-1.58300E+00 1.11925E+00 1.95443E+00
 -1      2160 3.04850E+00 1.04155E+01 2.26842E+00 1.37576E+00-2.71827E+00-1.10303E-01
 -1      2161-1.84978E+00-3.26954E+00-1.21656E-01-1.19408E+00 1.67489E+00-9.85275E-02
 -1      2162-9.92830E-01 2.49544E+00-2.46835E-01 7.14186E-01-8.54541E-02 1.87896E+00
 -1      2163-6.15187E-01-2.24065E+00-3.63383E-01-9.15291E-02 4.21760E-01-3.04888E+00
 -1      2164 2.53416E-02 7.68822E-01 2.47597E-01-6.55533E-01-7.78951E-01-8.59749E-01
 -1      2165 3.65915E-02 3.13642E+00 6.99272E-01-8.66797E-01 5.99619E-01 1.47351E+00
 -1      2166 3.47935E+00 3.66664E+00 1.66008E+00 3.95286E-01 9.13637E-01-8.53829E-01
 -1      2167-7.07197E-01-1.86894E+00 8.75013E-01 2.32630E-01-3.98359E-01 1.99111E+00
 -1      2168 7.79431E-01 9.62177E-01 2.71545E-01-6.64676E-01 2.03928E+00-2.39800E+00
 -1      2169 3.45996E-02 8.66578E-01-2.97856E-01-3.29188E-01 7.98152E-01-6.96709E-01
 -1      2170-4.87158E-01-5.25360E-01 5.42705E-01-6.97036E-01 1.00614E+00-1.60628E-01
 -1      2171 5.14855E+00 7.78431E+00 2.03959E+00-1.14210E-01-7.52653E-01 7.94898E-01
 -1      2172 5.91377E-01-7.33113E-02-1.56405E-01 4.60306E-01-1.24021E+00 3.10515E-01
 -1      2173 2.58275E+00 1.58354E+00 8.60337E-01 7.16887E-01-2.10772E+00-1.13670E+00
 -1      2174 1.30643E+00 4.15838E+00-2.65697E-01 1.74918E+00-1.73702E+00 4.06672E-01
 -1      2175 6.92579E+00 8.40705E+00 2.14694E+00-4.62238E-01-2.59711E+00-2.47695E+00
 -1      2176-2.82646E+00-1.04839E+00-1.60883E+00-5.70087E-01-1.14672E+00 3.72519E+00
 -1      2177 3.60890E+00 1.53636E+00 2.09255E-01-9.53243E-01-6.26306E-01-9.82041E-01
 -1      2178-1.78068E+00-3.59604E+00-8.87113E-01 4.76060E-01-1.13074E+00 1.25127E+00
 -1      2179 3.55545E+00-2.56832E-01 1.57657E-01 7.69536E-01 1.45282E+00 1.54156E-01
 -1      2180-2.16271E+00 1.28581E+00 3.45911E-01 6.56552E-01-1.13155E+00 2.01203E+00
 -1      2181 4.45536E+00 2.10999E+00 1.09355E+00 2.24575E+00-3.41169E+00-2.65283E+00
 -1      2182 3.56743E+00 3.38531E-01 7.65271E-01-1.14332E-01 1.41337E+00-2.46173E-01
 -1      2183-3.19505E-01 2.00114E+00 4.41792E-01 1.97990E+00 1.86334E+00-1.50352E+00
 -1      2184-5.19582E-02-2.35032E+00-8.32185E-01 8.44919E-01 1.21565E+00-6.97888E-01
 -1      2185-1.24855E+00 4.22993E-01-3.46117E-01-1.37715E-01 1.11004E+00 2.28092E+00
 -1      2186-1.05892E+00 3.61177E+00-7.28993E-01 3.04040E-01 7.89453E-01 1.42081E+00
 -1      2187-6.88836E+00-1.95940E+00-7.74368E-01 1.40524E+00-8.87288E-01 2.12169E+00
 -1      2188 1.05499E+00 3.23876E+00-8.23477E-01 2.29925E+00 1.64567E+00 9.75338E-01
 -1      2189 9.32823E-01 1.69434E+00 8.77200E-01-7.74737E-01 3.62111E-01-1.63706E+00
 -1      2190 5.28367E+00 4.16438E+00 1.96625E+00 5.34419E-01-1.05378E+00 6.29730E-01
 -1      2191 6.26800E+00 4.21149E+00 5.13378E+00-1.81357E+00 6.21491E+00-2.90383E+00
 -1      2192 2.23528E-01-2.73430E+00 1.26775E-01-5.67128E-01 2.97571E+00 4.10698E-01
 -1      2193 1.69872E+00-4.89092E+00 2.13500E+00-1.01310E+00 2.23043E+00 1.13686E-01
 -1      2194 1.56605E+00-2.87788E+00 1.13497E+00-1.44531E+00 1.41224E+00 4.60121E-01
 -1      2195 2.88551E+00 2.86294E+00 5.41976E-01-1.42974E+00 8.07496E-01 2.08602E-01
 -1      2196 1.96162E+00 1.54214E+00 3.36695E+00-1.73719E+00-1.06351E+00 1.35463E+00
 -1      2197-4.65383E-02-6.34102E-01 2.10005E+00-3.87575E-01 1.81701E-01 2.88330E+00
 -1      2198 4.54149E+00 9.99825E-01 7.28871E-02-2.87689E-01-1.24790E+00-5.18997E-01
 -1      2199 4.21038E+00 7.65732E+00-9.21685E-01 1.76733E-01-1.21416E+00 7.08165E-01
 -1      2200 8.69072E-01-2.36890E+00-9.59187E-02-1.29189E+00 8.38503E-01 1.54320E+00
 -1      2201-1.97135E+00-3.71211E+00-3.47770E-01 1.52345E+00 4.25616E-01-8.90527E-01
 -1      2202-2.63403E+00-2.33816E+00 4.06097E-01 1.16137E+00 3.32696E-01 1.74849E+00
 -1      2203-6.91222E-01-3.41232E+00 7.22634E-01 1.77183E+00-7.50102E-01 2.68587E-01
 -1      2204-6.37483E-01-3.62256E+00 9.11808E-02 1.45488E+00-2.24497E+00 9.08770E-01
 -1      2205 6.84268E+00 6.83301E+00 2.99282E+00-1.27020E+00-8.91949E-01-3.45673E+00
 -1      2206 2.95903E+00-1.23679E+00 8.38537E-02-1.22300E+00-2.67757E+00 2.75467E-01
 -1      2207 1.60849E+00 4.04550E+00 2.11028E+00 3.68854E-01 5.18532E+00-2.01091E-01
 -1      2208-2.98201E+00-4.72743E+00-2.29002E+00-2.13079E+00 2.58706E+00 2.61331E+00
 -1      2209 1.64357E+00 1.33927E+00 1.50402E+00-2.60252E-01 9.72301E-01 2.61824E-01
 -1      2210-1.08335E+00-5.79803E-01 1.61689E+00 1.23680E+00 2.62355E+00-2.42870E+00
 -1      2211 4.36782E+00-9.40767E-02 1.24433E-01 1.65435E-01 3.36340E+00-1.95020E+00
 -1      2212-4.27710E+00-2.15979E+00-1.83490E+00 2.36842E+00 1.57187E+00-2.69200E+00
 -1      2213 6.52181E+00 6.41907E+00 1.94564E+00-1.65776E+00-1.31063E+00 8.40686E-02
 -1      2214-5.78901E+00-1.10185E+01-2.35229E+00-3.43641E+00 5.37346E+00 1.15905E+00
 -1      2215-7.89468E+00-1.76204E+00 1.06888E-01-1.22707E-01-9.83602E-01 2.09485E+00
 -1      2216-1.62216E+00 9.50327E-01 6.54232E-01-2.30052E-01-7.85855E-01-2.08019E+00
 -1      2217-1.51964E+00-4.35499E+00 4.91069E-02-1.07543E+00-2.99931E+00-9.60293E-01
 -1      2218 1.47789E+00-2.52380E+00 1.77424E-01-2.80603E-01-2.04541E+00 1.05036E+00
 -1      2219-3.61873E-01-3.98095E-01-3.00524E-01-7.22784E-01-7.25915E-01 1.61917E+00
 -1      2220 1.42715E+00-1.69016E+00 7.26930E-01 8.43128E-01-1.79657E+00-5.41761E-01
 -1      2221 3.34918E-01 1.64080E-02-2.54613E-01 1.10361E+00-1.44035E+00 1.26679E+00
 -1      2222 2.32283E+00 2.13745E+00-2.81478E-01-1.56175E+00-3.39305E-01-6.40652E-01
 -1      2223-1.07587E+00 2.72023E+00-3.86441E-01 1.59767E+00-5.87256E-01 1.51527E+00
 -1      2224 1.20707E+00 1.87144E+00-1.01326E+00-6.13781E-01-6.90164E-01-1.69880E+00
 -1      2225-4.22464E+00-2.01076E+00 1.69127E-01 3.33383E-01-1.37862E+00 8.48047E-01
 -1      2226 5.62227E-01 5.82833E+00-9.12107E-01 1.33998E-01 8.26689E-02 1.27782E+00
 -1      2227 5.86180E+00 4.92487E+00-1.87767E+00 2.35173E+00 9.61010E-01-5.49317E-01
 -1      2228 6.65495E-01 1.08464E+00 1.10372E+00-7.98619E-01-1.04953E+00 4.76658E-01
 -1      2229 1.20096E+00-1.37311E+00-1.13150E+00 1.67163E+00 7.14943E-01-1.08157E+00
 -1      2230-1.33306E+00 1.52165E+00 3.54222E-01-1.61878E+00 3.26971E-01-2.05423E+00
 -1      2231-2.28789E+00-1.94913E+00-4.29738E-01-9.99993E-01 1.81795E+00-3.60762E-02
 -1      2232 3.61073E-01 1.02801E+00 1.47349E+00 7.24785E-01 2.85430E-01-1.53278E+00
 -1      2233-3.19159E-02-4.88424E-01 3.37245E-01 5.14166E-01-2.56787E+00 6.08901E-01
 -1      2234 5.69899E+00 8.46092E+00 2.19203E+00-5.02313E-01-5.87122E-01-1.63598E+00
 -1      2235-1.99545E+00-2.96283E+00 1.11743E+00 1.13791E+00-1.97041E+00 8.44674E-01
 -1      2236 4.64757E-01 1.42670E+00 3.00187E-01 7.22326E-01-2.05944E-01 1.50229E+00
 -1      2237-1.24359E+00-3.45607E+00 6.29417E-01 5.78815E-01-4.55786E-01-1.39424E+00
 -1      2238-7.39843E-01 5.37036E-01-1.25248E+00-1.26572E+00 2.08202E+00-5.07630E+00
 -1      2239-1.24517E+00 3.65212E+00 4.31095E+00-9.47003E-01-1.60801E+00-1.31619E+00
 -1      2240-1.54951E+01-7.74541E+00-1.43706E+00 4.95132E+00-2.46140E+00 5.51427E+00
 -1      2241 7.71165E-01 3.76076E+00 8.11662E-01 5.14003E-01 2.17113E+00 1.27523E+00
 -1      2242 5.23976E-01 3.48480E+00 6.89662E-02 4.08758E-01-5.61959E-01 1.22495E+00
 -1      2243-9.83412E-01-6.73087E+00-2.32875E-01 2.65136E-01-1.67840E+00 8.44676E-01
 -1      2244-3.43846E+00-7.82426E+00 2.29091E-01 2.53800E+00-8.79541E-02 3.09149E-01
 -1      2245-1.09028E-01-1.69532E+00 3.03265E-01-1.00973E+00-1.34582E+00-4.41141E-01
 -1      2246-5.23845E-01-2.00901E+00 8.18179E-01-2.20112E+00 2.50310E-01-6.36141E-01
 -1      2247 3.84730E+00 4.80395E+00 1.17544E+00 1.69183E+00-1.39256E+00 2.11133E-01
 -1      2248 3.92329E+00 2.40918E+00 4.01940E-01 1.67200E+00 1.37116E+00-2.70867E-01
 -1      2249 3.25220E+00 4.99600E+00 3.90927E+00-1.59821E+00-1.57066E+00 1.24658E+00
 -1      2250 2.94704E+00 3.63405E+00 9.99213E-01 2.13371E+00 3.71752E+00 2.12832E+00
 -1      2251-1.79892E+00 2.08912E+00-1.48434E-01 1.18722E+00 1.87533E+00 1.11501E+00
 -1      2252 3.26566E+00 3.26517E+00 3.24255E+00 1.72686E-01 1.18365E+00 1.32614E+00
 -1      2253 3.65939E+00 3.15737E+00 1.95884E+00-1.53704E+00 7.27265E-01-4.50654E-01
 -1      2254 2.58107E+00 1.64793E+00 1.56804E+00-9.51449E-01 2.48962E+00-2.52172E+00
 -1      2255-3.76992E-01-4.40622E-01 2.35743E-01-9.42671E-01 1.55053E+00-1.16704E+00
 -1      2256-1.74691E+00 3.36403E-01 3.29772E+00 4.14833E-01 1.86311E+00 4.79295E+00
 -1      2257 8.97668E-01-2.46698E-01 4.82335E-01 1.10750E+00-1.26044E+00 6.47968E-01
 -1      2258-5.89935E+00-3.22269E+00-2.31480E-01 4.39802E+00-1.86945E+00 2.68567E+00
 -1      2259 2.72064E+00 3.02349E+00-2.53019E-01 2.61398E-01-1.74358E+00 1.24255E+00
 -1      2260 3.07999E+00 1.04872E+00-1.01638E+00 6.13560E-01-2.60691E-01 3.61438E-01
 -1      2261 2.48255E+00 8.19911E+00-1.99763E+00 1.67250E+00-8.41969E-02 3.10949E-01
 -1      2262 3.02660E-01 2.83357E+00 4.19824E+00 2.62421E-01-4.55581E+00-1.18124E+00
 -1      2263 2.96899E+00-7.13261E-01-8.45797E-01-1.97987E-01 1.85016E+00-1.71353E-01
 -1      2264-5.12648E-01 4.66796E+00-4.09149E-01 2.42749E-01 1.87771E+00 5.79323E-01
 -1      2265 3.11193E-01-6.50491E+00-6.86750E-01-3.87413E-01-3.18517E+00-2.76878E+00
 -1      2266 1.67660E-01-4.02922E+00 2.36152E+00 6.53345E-01 2.75240E+00 8.70966E-01
 -1      2267 2.57797E+00 6.57065E-01 2.79315E+00-4.26741E-01-3.30100E+00 2.41049E+00
 -1      2268-2.65168E+00-5.56044E+00-9.84468E-01 1.11477E-01 7.48837E-01 1.63599E-01
 -1      2269-7.26483E-01-2.35842E+00 9.60938E-01-1.14325E-01 4.53479E-01-1.68465E-01
 -1      2270 4.90596E+00 2.15575E-01-2.40556E-01 1.16363E-01-7.76589E-01-2.28815E-02
 -1      2271 1.21761E+00 4.80096E-01 1.02898E+00 1.02425E+00 1.63230E+00-2.74799E-01
 -1      2272 5.90830E+00 4.76458E+00 1.35993E+00 9.98254E-01 1.45514E+00-1.76907E-01
 -1      2273 4.28981E-01 1.08232E+00 2.57412E+00-1.62289E+00 2.59810E+00 9.20611E-01
 -1      2274-1.58813E+00-6.16917E+00-8.96036E-01 6.52409E-01 1.29969E+00 7.16758E-02
 -1      2275-7.66680E-01-5.28668E+00 6.14808E-01 2.66173E-01-3.68088E+00 3.55316E-03
 -1      2276 6.20825E+00 2.82946E+00 1.47604E+00-1.13124E+00-3.09226E-01-3.57360E+00
 -1      2277-1.01690E+00 3.13731E-01 1.06369E+00 1.54597E-01-1.53519E+00 2.47789E-01
 -1      2278-3.38223E+00-2.32631E+00-1.38917E+00 3.78359E-01-1.10908E+00-7.19311E-01
 -1      2279-2.12323E+00-1.46644E+00-6.36339E-01 1.45936E-01-1.12972E+00-1.11331E-01
 -1      2280-1.61308E+00 9.99851E-01-1.29731E+00 1.78290E+00 6.55628E-01-2.65720E+00
 -1      2281 3.95837E+00 8.54894E-01 9.07985E-03 6.34964E-01 2.41904E+00 8.15636E-01
 -1      2282-3.36506E-01-1.78437E+00-2.38262E-01-6.54420E-01-2.75399E+00-4.58901E-01
 -1      2283 3.18719E+00 2.46669E+00-1.11845E+00 5.05774E-01 1.75019E-03-6.72630E-01
 -1      2284-6.00673E-01 1.06014E+00-3.84262E-01-1.17009E+00 1.57281E+00 7.39053E-01
 -1      2285-2.06208E-01 7.33308E-01-2.85745E-01-1.86599E+00 7.61543E-01 1.49554E+00
 -1      2286-9.05551E-01 2.11543E+00 7.82056E-02-2.32531E-01-1.88091E-01 1.04958E+00
 -1      2287 5.61963E+00 3.14622E+00-5.52067E-01-1.00701E+00-1.00499E+00 1.56496E+00
 -1      2288-3.45927E+00-1.71694E+00-2.77628E+00 4.44185E-01-7.48445E-01 2.85153E+00
 -1      2289 3.33782E+00 6.84142E+00-2.38159E-01-3.44537E-01 9.44953E-01-8.09655E-01
 -1      2290 6.80660E+00 8.94712E+00 1.75720E+00 4.04877E-01-1.76934E+00 3.40404E+00
 -1      2291 6.14007E-01 2.14397E+00-1.45318E+00 3.10629E-01-1.88178E-01-3.09069E-01
 -1      2292 1.00204E+00-2.53159E+00-9.85412E-01-1.01117E+00 2.67376E+00 1.47902E+00
 -1      2293 4.29053E+00 2.50085E+00 5.30209E-01-1.26388E+00-4.38706E-01-3.87803E-02
 -1      2294 1.45893E+00 2.46622E+00-1.14641E+00 5.47734E-03-2.97283E-01 9.34208E-01
 -1      2295 2.54044E+00 1.56499E+00-6.38326E-01 2.27972E-01 5.77202E-01 1.24024E+00
 -1      2296 6.87808E+00 5.04290E+00 9.82063E-01 1.23340E+00 2.59115E+00-3.32203E-01
 -1      2297-1.98031E+00-6.79970E-01-7.82088E-01 5.31505E-01-3.38216E-01 2.01141E+00
 -1      2298 7.24508E-01 1.58401E+00 2.69941E-01 9.42707E-01-1.01878E+00 1.42771E+00
 -1      2299-2.20772E+00-1.85025E+00-8.84880E-02 2.18114E-02 1.48125E+00-2.35556E-02
 -1      2300 3.12363E+00 3.83792E+00 3.08361E+00-5.30730E-01 1.22665E+00 6.76282E-01
 -1      2301-1.97064E+00-1.83994E+00-5.53739E-01 3.24537E-01 1.06562E+00 6.95850E-02
 -1      2302-2.07871E+00-1.58741E+00-6.40160E-01-1.53477E-01 1.42217E+00-5.28256E-01
 -1      2303 2.55023E-01 2.77966E+00 9.66165E-01-8.31100E-02-5.23461E-02-1.32121E+00
 -1      2304-9.65869E-01-4.23390E+00 1.43339E+00 1.63116E+00-2.92344E+00 8.50613E-03
 -1      2305 3.26296E+00 4.47336E+00 2.40980E-01 1.13330E-01 6.79212E-01 1.06907E+00
 -1      2306-1.24160E+00-2.85830E+00-3.29319E+00 2.32347E+00-2.99966E+00-5.32856E-01
 -1      2307 1.37871E+00 7.22375E-01 1.18569E+00 1.43439E+00 1.16661E+00 1.00136E-01
 -1      2308-1.48281E+00-4.70977E+00 3.87784E-01 1.13025E+00 1.35175E+00 7.96693E-01
 -1      2309 1.18430E+00 4.68508E+00 7.71828E-01-4.23784E-01 1.76663E-01 2.84011E-01
 -1      2310 1.83587E+00-1.24623E-01-3.39878E-01-6.86380E-01 1.18788E+00 8.07259E-02
 -1      2311 2.62548E+00 7.15484E+00-3.94401E+00-4.32997E-01 3.29369E-01 5.22823E-01
 -1      2312 4.59712E+00 3.80737E+00 1.80681E+00 7.93970E-01-8.53587E-01 8.71032E-01
 -1      2313 1.79302E+00 3.43608E-02-1.29996E+00-5.96696E-01-1.48551E+00-1.18711E+00
 -1      2314 5.14725E+00 3.94650E+00 3.02792E+00 9.42613E-01-5.39815E-01 9.19210E-01
 -1      2315-1.57293E-01-1.85705E+00-1.35812E+00-9.17576E-01 2.38075E+00 8.69556E-01
 -1      2316 5.40770E-02-2.59869E+00 3.77105E-01-1.23360E+00 1.34614E+00 1.70414E+00
 -1      2317 1.53432E+00 2.89272E+00 1.22339E-01-1.58019E+00-1.42303E+00-3.03037E-01
 -1      2318 6.79751E+00 3.33954E+00-1.79615E+00-8.93630E-01 8.62322E-01-9.89066E-01
 -1      2319 5.60874E+00 4.01476E+00 2.04418E+00-6.03051E-01 9.50631E-01 6.78208E-01
 -1      2320 2.61444E+00 1.46922E+00-1.45615E+00 1.50558E+00 1.86954E+00 2.45232E+00
 -1      2321 2.45888E+00 2.08391E+00-1.35143E+00 1.03835E+00 8.10386E-01 5.42296E-01
 -1      2322 8.36150E+00 4.63718E+00 7.19947E-01 4.16945E-01 1.68713E+00 5.23396E-01
 -1      2323-5.96060E-01 3.84568E+00-1.07572E+00 9.35284E-02 3.06530E+00-1.00550E+00
 -1      2324 4.97058E+00 5.01335E+00 2.01346E+00-4.78247E-01 2.74382E+00-1.30321E+00
 -1      2325 4.19011E+00 3.85868E+00 4.08555E-01-1.53020E-01 2.58299E+00 7.31146E-01
 -1      2326 6.30603E+00 5.02899E+00-1.13059E+00 1.22533E+00 7.55392E-01-3.38994E-01
 -1      2327 1.77910E+00 2.83803E+00 1.78127E-01 1.17856E+00-1.07266E+00 2.28529E-01
 -1      2328-1.72629E+00 9.73306E-01 2.24916E-04 7.91121E-01 3.77154E-02 1.84799E+00
 -1      2329-4.11169E+00-2.05132E+00 2.80495E-01-7.82098E-01 6.79903E-01 1.61738E-02
 -1      2330 3.87451E+00 5.58832E+00 1.68874E+00 6.25192E-02-1.58997E-01 1.27713E+00
 -1      2331 1.45160E+00 1.96633E+00 2.81995E-01 1.60502E+00 4.18841E-01-1.08240E+00
 -1      2332 6.91371E+00 4.87462E+00 2.20950E+00-2.15242E-01-3.17555E+00 1.99833E+00
 -1      2333 9.94630E+00 1.70263E+01-3.74209E+00 5.22088E-01-1.37048E+00-1.05509E+00
 -1      2334 2.67156E+00 4.92470E+00-1.45966E+00 6.50385E-01-1.94496E-01 1.08877E+00
 -1      2335 5.47736E+00 6.40026E+00 2.01544E+00 1.26011E+00-1.30700E+00 6.46286E-01
 -1      2336 1.44482E+00 5.32359E+00 8.20909E-01 1.99898E+00 4.46293E-01 2.10397E+00
 -1      2337 4.23243E+00 2.12498E-01 1.14707E+00-6.18790E-01-7.91390E-01-5.93437E-01
 -1      2338 5.71014E+00 8.45654E+00 1.51363E+00 2.28979E+00-5.90180E-01 3.89729E-01
 -1      2339 1.90637E+00-7.22754E-02 6.61571E-01-1.60677E+00 2.56734E+00 1.79266E+00
 -1      2340 2.16194E+00-5.59166E-01-5.55403E-01-1.28601E+00 1.42876E+00 2.11265E-02
 -1      2341 1.29315E+00-1.34306E+00-1.89023E-01-9.20614E-01 8.43667E-01 9.22956E-01
 -1      2342 1.03900E+00 1.25011E+00 1.13400E+00-9.87263E-01-1.07087E+00-7.63148E-01
 -1      2343 6.08106E+00 8.45706E+00 1.55700E+00-1.82265E+00 1.44491E+00 1.38220E+00
 -1      2344-8.13166E-01-1.32602E-01-2.10212E+00 3.14722E+00 2.56975E+00 2.65118E+00
 -1      2345 4.72418E+00 4.33184E+00 8.94946E-01 2.22373E-01 1.79436E+00-1.47204E-01
 -1      2346 8.71782E+00 5.52307E+00 2.59415E+00-6.24480E-01 1.01959E+00 3.21099E-01
 -1      2347 2.59802E+00 3.43980E+00 1.99352E+00 8.37366E-01-5.78308E-01 6.28068E-01
 -1      2348-1.30005E+00 2.91035E+00-1.46563E+00-1.42133E+00 3.94903E+00-1.18793E+00
 -1      2349 3.56242E+00 3.56238E+00-1.07562E-01-8.60673E-01 1.82433E+00-1.44390E+00
 -1      2350 4.46865E+00 3.63273E+00 2.20667E+00-4.34879E-01 1.24036E+00 3.34772E-01
 -1      2351 7.34544E-01 1.24374E+00 8.16966E-01-6.71571E-01 3.17158E-01-5.58071E-01
 -1      2352 2.81662E+00 3.76263E+00 1.29722E+00 1.88047E+00-3.47941E-01 8.32144E-02
 -1      2353 1.23263E+00-2.39624E-01 2.24054E+00-9.42617E-01 2.81301E+00 2.02793E+00
 -1      2354 2.70560E+00 2.39437E+00 1.36185E+00-1.18725E+00-1.03570E+00 2.16908E+00
 -1      2355 5.53607E+00 3.95599E+00 1.26673E+00-1.58631E+00-4.42152E-01 2.52310E+00
 -1      2356 1.16464E+00 3.17195E+00-9.39211E-01 3.90301E-01-1.02285E-01-2.87897E-01
 -1      2357 3.64487E+00 5.66064E+00 2.12514E+00-3.92452E-01 2.16872E+00 1.09923E+00
 -1      2358 2.44397E+00 7.82699E-01 1.06515E+00-4.59829E-01 1.89178E+00-1.82389E+00
 -1      2359 1.57759E+00 7.64866E-01-4.81349E+00-1.36696E+00-1.76787E+00 2.46571E+00
 -1      2360 3.68163E+00 1.47791E+00 1.59185E-01 1.08738E+00 7.32264E-01 4.46070E+00
 -1      2361 4.35313E+00 6.76591E+00 1.82725E+00-1.25320E-01 6.26887E-01 1.08717E+00
 -1      2362 6.06433E+00 5.32228E+00 1.96380E+00-1.35946E+00 5.24652E-01 3.56251E+00
 -1      2363 5.41481E+00 4.64071E+00-1.62501E-01 8.40606E-01-5.10514E-01 2.27135E+00
 -1      2364 1.60448E+00 1.28055E+00 1.98380E-02 7.01210E-01 8.42352E-01 1.88195E+00
 -1      2365-3.21193E+00-5.52976E+00-1.58545E+00-2.27659E+00-1.81791E+00-2.14955E+00
 -1      2366-3.46431E+00-9.17419E-01-3.14662E+00-1.47411E+00 9.87394E-01 2.78943E+00
 -1      2367-9.04912E-01-4.64785E+00-2.11459E+00 1.46928E+00 3.84894E+00-5.33800E-01
 -1      2368 6.11753E-01 5.48264E-01 6.65218E-01-9.95421E-01 1.34664E+00 7.98587E-01
 -1      2369-9.96817E+00-6.66513E+00 1.38773E+00-3.56662E+00 1.33902E+00 3.57335E+00
 -1      2370 8.81190E-01 2.17431E+00 1.60154E-01 1.40672E+00-4.62453E-01-4.33186E-01
 -1      2371 7.57505E+00 6.03358E+00 1.48501E+00 2.73985E+00-3.33882E+00-2.04357E-01
 -1      2372 4.91322E-01 8.53931E-01 6.47880E-01-1.16167E+00-2.14286E+00 2.43505E+00
 -1      2373 1.68952E+00 3.60205E+00-1.27784E+00-8.56633E-01 1.42589E+00 7.61251E-01
 -1      2374 1.19102E+00 6.21599E-01 2.50509E+00 3.61872E-01 3.57438E+00 3.83887E-01
 -1      2375-8.38385E+00-9.51447E+00-3.15934E+00-4.69161E-01-7.72325E-01-4.65856E-01
 -1      2376 4.77113E+00 2.68958E+00 2.59326E-01-1.94376E-01 5.24042E-01-2.80991E+00
 -1      2377 2.11174E+00 2.34492E+00 3.33690E-01-6.32138E-01 4.36022E-01 5.56821E-01
 -1      2378-4.80054E-01-4.00094E+00-3.66373E-01-1.27808E+00 2.51278E+00 2.55481E+00
 -1      2379-2.68175E+00-1.85682E+00 6.64291E-02 2.60714E-01 1.38091E+00 7.93989E-01
 -1      2380 3.80216E+00 1.87857E+00 8.09040E-01 5.70715E-01 5.91586E-01 7.77002E-02
 -1      2381 1.00490E+00 2.35061E+00 8.80005E-02-5.48972E-01 9.66675E-01 1.60847E+00
 -1      2382 2.74527E+00 5.75969E-01-2.27678E+00 2.16909E+00-3.18290E+00-2.45799E-01
 -1      2383 1.68478E+00-9.60624E-02 1.66396E+00-2.16812E-01 1.35890E+00 9.84509E-02
 -1      2384-1.87619E-01 1.32992E+00 1.85942E+00 2.28060E-01-6.43267E-01-6.22707E-01
 -1      2385 3.67803E+00 2.11280E+00 3.08892E+00-2.57814E+00-9.91211E-01 2.32709E+00
 -1      2386-8.07273E-01 3.03906E+00 3.37255E+00 2.19292E-01-1.66048E+00 9.77513E-01
 -1      2387 6.83902E+00 4.89405E+00 2.28278E+00 9.01379E-01-1.26904E+00 6.09464E-01
 -1      2388-2.69819E-02-1.31313E+00-2.57017E+00 9.82708E-02 2.26487E+00-8.54331E-01
 -1      2389 1.95586E+00-2.33368E-01 1.26482E+00 5.20320E-01 1.64451E+00 5.22394E-02
 -1      2390 2.96740E-01 7.45671E+00-9.18860E-01-2.02409E-01 4.72511E+00-1.42899E-01
 -1      2391 1.64479E+00-1.42627E+00 1.01532E+00-1.19639E+00-2.61198E+00 4.98391E-02
 -1      2392-1.22799E+00-6.24600E-01-1.06127E-01 1.33487E+00 1.00684E+00-2.01154E+00
 -1      2393 4.30223E+00 5.23524E-01 3.87902E-02 2.74642E+00 2.96679E+00 2.08102E+00
 -1      2394 3.90383E+00 1.64260E+00 1.34595E+00 8.37847E-01-1.60825E+00 4.51662E-01
 -1      2395-4.55458E+00-2.69617E+00-6.99760E-01 1.40376E+00-1.96939E-01-2.40786E-01
 -1      2396-2.69030E+00-5.57919E+00-3.60863E+00-8.64802E-01-2.49103E+00-1.06826E+00
 -1      2397 4.31613E-01 1.83771E+00-1.80543E-01 4.33781E-01 5.93969E-01-1.23992E+00
 -1      2398 5.53436E-01 5.80141E+00-7.06198E-01-8.53993E-01-1.81441E+00-9.12222E-01
 -1      2399-3.94710E-01-4.62414E+00 1.83147E+00-5.64250E-01-9.39229E-01-8.58446E-03
 -1      2400 2.48731E+00-1.39684E-01-3.65334E-01-1.89791E-01-1.41444E+00-6.36504E-01
 -1      2401 1.50644E+00 1.98700E+00-3.68572E-01 9.48817E-01 4.13811E-01-1.24110E+00
 -1      2402 1.81575E+00 3.25607E+00 4.03922E+00 1.27901E+00 3.58736E+00 3.10595E+00
 -1      2403 2.26016E+00 4.70917E-01-1.07498E+00 2.68407E+00-2.55866E+00 1.61245E+00
 -1      2404 4.82325E+00 7.15908E+00 1.76093E+00-5.47910E-01 6.68464E-01 1.04295E+00
 -1      2405 1.18896E+00 5.80207E-01 1.46512E-01 7.53242E-01 4.13751E-01 1.50856E-01
 -1      2406 1.10349E+00 1.77961E-01-9.91546E-01-7.38665E-01 1.22842E+00 7.23390E-01
 -1      2407 5.73108E+00 3.97111E+00 1.28412E+00 1.63639E+00 9.32518E-01 4.28226E-01
 -1      2408 3.90293E+00 1.12058E+00-2.01783E-01-9.63101E-01 1.00079E+00 2.75517E+00
 -1      2409 7.77042E+00 2.23748E+00 4.48664E+00 1.75073E+00-8.31477E-01-2.26349E+00
 -1      2410 2.77584E+00-1.03606E+00 6.39127E-01 2.31232E-01 1.55710E+00-4.90582E-01
 -1      2411 1.92698E+00 2.35873E+00-4.72488E-01-1.18653E+00 1.06814E+00 1.03837E+00
 -1      2412-3.55606E+00-3.47488E+00-9.24396E-01 1.79462E+00-4.97162E-01 1.42550E+00
 -1      2413-1.03358E+00 1.18394E-01-1.13138E-01 9.49326E-01-2.96329E-01 1.93876E+00
 -1      2414-2.74004E+00-2.25975E+00 1.72741E+00 6.60430E-01-1.13322E+00-7.07919E-01
 -1      2415 5.19691E-01 4.24451E+00-2.05826E-01-3.99793E-01 2.61235E-01-1.22200E+00
 -1      2416-6.05610E-01 3.03169E+00-1.34965E+00 6.54376E-01-8.57439E-01 8.29049E-01
 -1      2417 3.30502E+00 1.36049E+00 7.55050E-01 3.49382E-01 1.38985E+00 7.92804E-01
 -1      2418 8.36075E+00 5.94421E+00 3.01750E+00-7.56364E-01-2.05979E+00-8.73336E-01
 -1      2419 1.40589E-01 1.49608E+00 5.20613E-01 1.36998E+00-1.14726E+00-1.36537E+00
 -1      2420 3.28603E+00 5.93978E+00 1.90503E+00-1.50159E+00-4.25953E+00-3.21154E-02
 -1      2421 2.22151E+00 2.72462E+00 3.84721E+00-1.33518E+00-7.74279E-01 2.56601E+00
 -1      2422 5.91742E+00 3.51813E+00 3.68191E-01-9.59050E-01-2.03927E+00-9.84885E-02
 -1      2423 9.50711E+00 6.47556E+00 2.54448E+00-4.88514E-02-2.46010E+00-9.96010E-02
 -1      2424-2.42478E+00-5.74709E+00 7.82313E-02-1.85748E+00 1.49380E+00 6.58964E-01
 -1      2425 4.74424E+00 2.76954E+00 3.00269E-02-8.11148E-01-2.11355E-01-1.01244E+00
 -1      2426 3.76762E+00 2.16032E+00-3.67479E-02 1.12150E+00 1.76121E+00 1.65413E+00
 -1      2427 8.72715E-01 2.05443E+00-9.92189E-01-3.69527E-01-6.44394E-01-1.59774E+00
 -1      2428-2.23268E+00-3.11328E+00 3.61133E-01 9.28562E-01 5.06108E-01 1.37744E+00
 -1      2429-1.21062E+00-1.97579E+00 8.88796E-01-5.90293E-01 9.68234E-01-1.09508E+00
 -1      2430-3.37289E+00-4.93738E+00 1.26109E+00-1.93801E+00-6.76921E-01 6.86296E-01
 -1      2431-2.31405E+00-1.06132E+00-1.17050E-01-3.44532E-01-1.83982E+00-8.98177E-01
 -1      2432-1.17551E+00 1.88672E+00 4.65304E-01-2.85783E-01 1.27582E+00 1.54438E+00
 -1      2433-4.36300E-01-2.71995E+00-1.44242E+00-1.85702E-01 1.20401E+00-2.38210E+00
 -1      2434-1.87117E+00-2.07015E+00-2.24558E+00-2.09984E+00-2.85357E+00-2.49449E+00
 -1      2435-2.63530E+00-2.30561E+00-1.37395E+00 9.92025E-01-1.26763E+00-5.98485E-01
 -1      2436 3.73309E+00 5.27918E+00-3.15575E-01-1.99661E+00-2.34599E+00-8.94985E-02
 -1      2437-2.93897E+00-1.33209E+00 1.61360E-01-1.47065E-01 7.32100E-01 8.87543E-01
 -1      2438 1.70539E-01 1.58398E+00 5.10995E-01-1.30629E+00 1.86127E+00 5.19909E-01
 -1      2439 1.20520E+00 2.25214E+00-2.70497E-01-1.15988E+00-6.99517E-01-9.57624E-01
 -1      2440-1.12241E+01-1.01608E+01-5.30008E+00-1.31257E+00-1.46643E+00 6.79061E-01
 -1      2441-1.71808E+00 2.74912E+00-5.87623E-01-9.33981E-01-7.50588E-01-1.10338E+00
 -1      2442 1.25237E+00 2.24759E+00 2.64430E+00 8.25664E-02-8.73542E-01-2.84836E+00
 -1      2443-4.25112E-01-2.85407E-01 5.56469E-01 7.14516E-02-2.27024E+00 1.78566E+00
 -1      2444 4.51280E+00 5.00289E+00 3.12671E+00 2.77544E-01 1.20684E+00-1.15473E+00
 -1      2445-4.37580E-01 6.01969E-02 1.24175E+00 1.41614E+00 2.09249E+00-8.64316E-01
 -1      2446-6.89086E-01 1.75584E-01-3.79199E-01 8.33770E-01 1.60200E-02 2.47570E+00
 -1      2447 3.07457E-01-8.33396E-01 4.80734E-01-5.26081E-01-1.60570E-01 1.42745E+00
 -1      2448 4.98348E-01 1.60649E+00-8.86278E-01 6.68701E-01-1.47025E+00-2.73861E+00
 -1      2449 6.02165E+00 7.05294E+00 3.24417E-01-1.34253E-01-1.32562E+00-3.40372E+00
 -1      2450 2.19852E+00-1.28250E+00 1.57218E+00-2.66642E-01 1.87951E+00 3.09651E+00
 -1      2451-9.05767E+00-8.78012E+00-8.26537E-01-7.12450E-01-1.08982E-01 7.40096E-02
 -1      2452-2.01506E+00 3.64698E+00-6.05780E-01 2.63269E-02-1.05354E-01-1.50478E+00
 -1      2453-1.25986E+00 5.78489E-01-6.37726E-01-1.97744E+00-2.00545E+00-1.91333E+00
 -1      2454 7.52689E+00 5.23345E+00 1.54003E+00-1.46654E-01-1.32856E+00 4.60583E-01
 -1      2455-2.64258E+00-4.12636E+00-9.54532E-01-7.10347E-01-1.58377E-01 1.20634E+00
 -1      2456 7.75808E-03 4.60710E-01-2.10370E+00 4.32325E-02-2.81739E+00 1.19031E+00
 -1      2457 3.04078E+00 1.91341E+00-4.45031E-01 1.27249E+00-7.15984E-01 1.07122E+00
 -1      2458 4.48298E+00 1.48546E+00 3.09396E+00-2.04388E+00-1.15970E+00-1.44017E+00
 -1      2459 2.04456E+00 2.36983E+00-1.30830E+00 2.60005E-01 1.53505E-01-3.61991E-01
 -1      2460 3.35456E+00 3.21064E+00 4.80298E-01 2.51908E+00-2.91528E-01 3.87607E-02
 -1      2461-1.60709E+00-1.14047E+00-6.78421E-01 5.53176E-01 9.13714E-02 1.80779E+00
 -1      2462 1.51038E+00 9.54599E-01 1.08751E+00-4.09789E-01-2.26085E+00 7.71323E-01
 -1      2463-1.61513E+00-1.98172E+00-3.40998E-01 4.49265E-01-7.88238E-01-1.92140E+00
 -1      2464 2.25126E+00 3.05813E+00-6.06914E-01 1.80121E+00-3.48677E+00-1.48942E+00
 -1      2465-8.66554E-01-2.19538E+00-1.85560E+00-4.05175E-01-2.75785E-01 1.44504E+00
 -1      2466 1.05430E+00 3.79233E+00 9.03430E-03 4.25791E-01-7.30489E-01 3.82205E-01
 -1      2467 1.80287E+00 5.54460E+00 3.01177E+00-8.92423E-01-4.72290E+00 6.40535E-01
 -1      2468-1.28280E+00-1.50394E+00-6.19918E-01-1.69997E+00 1.99451E+00-3.88402E-01
 -1      2469 4.37982E+00 3.31089E+00 1.00329E+00 6.50870E-02 9.95320E-01 4.70298E-01
 -1      2470 2.02751E-01-1.02502E-01-5.58821E-01-1.33912E-01-2.45046E-01 4.40220E+00
 -1      2471 7.17072E+00 6.47532E+00 2.07533E+00 9.44406E-01-2.60798E+00 1.50535E+00
 -1      2472-5.05159E-01 1.09406E+00-2.36270E+00 4.83330E-01 6.50904E-01-1.08883E+00
 -1      2473-3.57249E+00 1.36712E-01-1.55936E+00 2.00230E+00-1.05588E+00 1.89658E+00
 -1      2474-3.51009E+00-2.26763E+00 2.84354E-01 6.22242E-01-1.20736E+00-2.12859E-01
 -1      2475-3.07233E+00-2.51817E+00 2.59584E-01-2.28754E+00-2.34854E+00-2.68418E+00
 -1      2476 2.36518E+00 3.14449E+00 1.23428E+00 2.19321E+00-9.43356E-01 1.61370E+00
 -1      2477-5.20114E+00-1.21926E+00 5.29281E-01 6.37207E-01 1.58012E+00 1.71099E+00
 -1      2478 4.61380E+00 3.18140E+00 5.97097E-01-9.21381E-01 6.39907E-01 2.07842E-01
 -1      2479-3.05924E+00 1.82053E+00-4.71422E-02 1.90386E+00 7.27220E-02-4.46017E-01
 -1      2480 2.92870E+00 3.05212E+00 1.15451E+00-4.43017E-01 1.36831E+00-3.79124E-01
 -1      2481-8.86969E-01 2.59697E+00-5.16656E+00-1.01025E+00-3.47834E+00 7.93222E-01
 -1      2482 1.70679E+00 7.61372E-01-8.27142E-01 8.44931E-01 2.29554E-01-6.77995E-01
 -1      2483 4.92714E+00 4.12432E+00 3.03256E+00-2.11618E+00 1.03951E+00-1.44743E+00
 -1      2484 4.58115E+00 3.14680E+00-1.18838E+00-9.09062E-02-4.50901E-01-1.49178E-01
 -1      2485-8.47381E-01 1.11531E+00 1.20961E+00 3.30843E-01-1.50553E+00 1.38247E+00
 -1      2486 1.58027E+00 2.64033E+00 2.52536E-01-9.70527E-03 5.13313E-01 7.53162E-01
 -1      2487 1.66742E+00 1.03650E+00 4.25334E-01 5.38851E-02 9.92620E-02 2.01008E+00
 -1      2488 4.28316E+00 6.90425E+00 2.91573E-01 1.22077E+00-4.29538E-01 1.17809E+00
 -1      2489-3.15636E+00-5.04071E+00-6.29559E-01-2.03606E+00 3.12981E+00 2.79821E+00
 -1      2490 1.49395E+00 1.55338E+00-2.00685E+00-6.67336E-01 4.67705E-01 7.29541E-01
 -1      2491 2.10660E+00 1.12598E+00-4.21732E-01 2.93316E-02-7.89962E-01-7.95709E-01
 -1      2492 2.86930E+00 4.26428E+00-6.21730E-02-3.97022E-01-2.41668E+00 5.30483E-01
 -1      2493-4.85500E+00 7.04059E-01-5.93006E-03-3.66329E-01-1.57879E+00-2.06550E+00
 -1      2494-1.71538E-01-2.83118E+00-9.70900E-01 2.05592E-01-2.14170E+00-8.50854E-01
 -1      2495 7.27681E-01-4.16295E-01 6.33302E-01-8.52286E-01-1.60014E+00-3.51312E-02
 -1      2496 3.06485E+00 2.34103E-01 2.26457E-01-4.95675E-01-1.24697E+00-4.97783E-01
 -1      2497 3.19234E+00 5.79537E+00 1.08425E+00 1.15835E+00-1.48261E-01-1.36995E+00
 -1      2498 2.96342E+00-1.01987E-01 3.32296E-01-1.27990E-01 1.65009E+00 4.60882E-02
 -1      2499 2.21244E+00-1.44147E+00 1.27265E-02 4.65925E-01 2.44124E+00 3.77685E-01
 -1      2500 4.60211E+00 6.27350E+00 3.32965E-01 4.54640E-01 5.79573E-02-2.69761E+00
 -1      2501-3.53873E+00 1.21889E+00-2.04443E+00-1.64174E+00 6.91341E-01 3.59036E+00
 -1      2502 1.53989E+00 2.91841E+00 2.17407E-01-4.11330E-01-8.61824E-01 6.92991E-01
 -1      2503-3.49197E+00 1.82486E+00 4.06971E-01-1.06092E-01-7.06895E-01-1.96859E+00
 -1      2504-1.49986E+00-5.19063E-01-3.56873E-01-1.40605E+00 1.00525E+00 1.63295E+00
 -1      2505 3.19747E+00 1.32741E+00 4.54590E-01 6.45455E-01 4.90473E-01-9.98104E-01
 -1      2506 2.59264E+00 2.18376E+00-1.22713E+00 8.88336E-01-2.59706E-01-1.15683E-01
 -1      2507-1.14925E+01-2.86336E+00-2.25962E+00 2.08239E+00-1.49424E-01-1.53208E+00
 -1      2508-9.40539E-01-8.09124E+00-2.80429E+00-9.05943E-01 2.32605E+00 2.37041E+00
 -1      2509 7.41744E+00 5.20128E+00 1.87213E+00-2.85812E+00-2.09864E+00 1.54618E+00
 -1      2510-2.15485E+00-1.29817E+00 1.74396E-01 1.78226E-01-1.84515E+00-5.12563E-01
 -1      2511 1.51902E+00 3.27811E+00-4.63131E-01-1.44298E-01 4.90568E-01 1.11654E+00
 -1      2512 3.08274E+00 4.32116E+00 1.18359E+00 1.46488E-01-1.47734E-01 7.02357E-01
 -1      2513-9.44004E+00-9.29092E+00-1.90156E+00 1.18877E+00 1.74497E+00-2.07089E-01
 -1      2514 5.19021E+00 3.51119E+00 1.78326E+00 2.54811E-02 1.47309E+00-6.71250E-01
 -1      2515-1.78379E+00 5.03173E-01-2.96607E-01 2.12038E+00-7.47785E-01 1.98963E+00
 -1      2516 2.65120E+00 1.33185E+00 8.53629E-01 8.62032E-01 1.63064E+00-6.06508E-01
 -1      2517-3.67551E-01-5.33508E+00-2.11948E+00 1.54553E-02-3.72196E+00 5.82925E-01
 -1      2518-1.36126E+00-5.00086E-01 1.71253E-01-1.72897E+00-8.30436E-01-1.89633E+00
 -1      2519 4.57593E-01 3.77963E+00 2.65113E-01 1.16015E+00-1.78958E-01 1.16195E+00
 -1      2520-1.24433E-01-7.22433E-01-8.07404E-01-2.15040E+00-1.58969E+00-2.35958E+00
 -1      2521 5.83109E-01 3.14206E+00 2.58766E+00 7.76245E-01-7.27997E-01 1.14100E+00
 -1      2522 1.55241E+00 5.29395E-01-3.71590E-01 1.09681E+00-1.44224E+00 1.23520E+00
 -1      2523 5.82632E+00 2.48738E+00 1.42398E+00-3.14273E-01 9.38379E-01 1.30859E+00
 -1      2524 1.59394E+00 2.45076E+00 4.03083E+00 8.82332E-02-4.07190E+00 2.07859E-01
 -1      2525-2.43621E-01-8.66237E-01 8.67090E-01 1.43806E-02 3.50698E-01 1.09695E+00
 -1      2526 1.88550E+00-1.39620E-02 1.57309E+00-8.16411E-01 7.66596E-01-2.68778E+00
 -1      2527 1.39669E+00 3.81615E+00-1.60556E+00-8.91350E-01 3.45558E-01 1.15174E+00
 -1      2528 2.71289E+00 7.66416E-01-7.98805E-01-7.42025E-01-1.69389E+00-1.15857E+00
 -1      2529-4.62587E+00-2.42825E+00-6.97681E-01-2.70490E+00 4.87021E-02-1.98377E+00
 -1      2530-1.57693E+00 8.35880E-01-2.02821E+00 5.91475E-01-1.11640E+00-1.89323E+00
 -1      2531-2.37357E+00-2.54924E+00-3.27543E-01-7.64068E-01-3.57724E-01 1.35990E+00
 -1      2532-1.15760E+01-2.66843E+00 2.18841E-01-6.28088E-03 4.38161E-01-2.82620E+00
 -1      2533 1.98368E+00 1.45487E+00 5.88277E-01 4.52400E-01-2.66233E+00-3.67553E+00
 -1      2534-1.06918E+00 6.30713E-01-2.32448E+00 1.91769E-01-4.72376E-01-4.66961E-01
 -1      2535 4.42095E+00 5.54596E+00 1.87926E+00-7.48579E-01-7.61384E-01-8.65051E-01
 -1      2536-2.50515E+00-3.31605E+00-1.57386E+00-1.50162E+00-3.40650E+00-7.62740E-01
 -1      2537 4.69105E-01 1.09543E-02-3.15008E-01-6.95062E-01-2.13219E+00 2.69130E+00
 -1      2538-2.63917E+00-6.80844E-01-2.80204E+00-6.91360E-02 6.79552E-01-2.58523E+00
 -1      2539 1.30704E+00-2.33794E-01 1.00956E-02 3.17253E-01 3.32986E+00-7.28065E-01
 -1      2540 3.41272E+00 5.84881E+00 1.03662E-02 7.13211E-01-1.70343E+00-9.21718E-01
 -1      2541-5.00042E-01-7.18843E+00 4.05699E-01-2.20640E+00 2.08096E+00 1.46267E+00
 -1      2542 7.85953E+00 8.34195E+00 3.59946E+00-1.05563E+00-2.95501E+00-5.44501E-01
 -1      2543-2.83492E+00-4.68933E+00-4.31613E+00 2.65166E-01-2.86535E+00 8.05669E-01
 -1      2544 2.90493E+00-4.50980E-01 1.59161E-02 4.66554E-02-1.59662E+00 1.03663E-01
 -1      2545 1.08587E+00-1.85240E+00 5.75647E-02-5.37418E-01-1.20451E+00 8.51266E-01
 -1      2546 4.39767E+00 5.97503E+00 3.71787E-01 1.42650E+00 8.92631E-01 2.55491E-01
 -1      2547-1.33859E-01 5.09214E-01-4.41844E-02-1.16105E+00-4.26535E-01-1.51550E+00
 -1      2548 2.61196E+00 4.47339E+00-4.45000E-01-9.97817E-01 8.61374E-01 1.25839E+00
 -1      2549-3.70197E+00 4.16091E-01 1.70639E-01 1.78719E+00 9.60104E-01-2.20451E+00
 -1      2550 1.58508E+00 7.58927E-01 9.24467E-01-1.20369E+00 1.13685E+00 1.18157E+00
 -1      2551 2.31788E+00 2.97023E+00 4.55726E+00 1.28262E+00 5.76438E-01 9.61508E-02
 -1      2552-6.45516E+00-1.19592E+00-1.51358E+00 2.03106E+00-2.62488E-01 3.86542E+00
 -1      2553-2.63974E+00-1.75551E+00-8.99435E-01 5.52313E-01-1.69592E+00 9.45561E-01
 -1      2554 4.11703E+00 3.15479E+00 6.77404E-01 1.21489E+00-2.33426E-01 9.66785E-01
 -1      2555-2.62090E-01-2.08419E-01 5.51913E-01 8.35303E-01 2.14343E+00-1.09869E+00
 -1      2556 2.47976E-01-4.26511E+00-8.76286E-02-1.46770E+00-1.48497E+00 2.75160E-01
 -1      2557-4.14552E-01 4.34815E-01 1.67030E-01 1.31006E-01 6.21875E-01 5.58527E-01
 -1      2558 4.22476E+00 7.31684E+00 1.85775E+00-4.39576E-01 5.96567E-01-1.32129E+00
 -1      2559-1.71894E+00-3.43443E+00 5.06666E-01-4.04859E-01-6.34020E-01 1.76249E+00
 -1      2560 3.60840E+00 2.02814E+00-6.17474E-02-9.79674E-01-5.64948E-01 2.81618E-01
 -1      2561 2.37530E+00 2.70671E+00-5.70622E+00 1.27217E+00-2.56246E+00-2.82456E+00
 -1      2562-1.01660E+01-3.26017E+00-3.14325E+00 1.89694E+00 1.08911E+00-2.62307E+00
 -1      2563 4.09007E-01 4.80960E-01-1.38139E+00 4.84368E-01-1.24607E+00 3.11558E-01
 -1      2564 4.53836E+00 2.87376E+00 1.96162E+00-4.93158E-01 1.39242E+00-2.59831E+00
 -1      2565 2.22004E+00 1.45951E+00-1.34974E-01-1.73132E+00 1.30824E+00 9.87981E-01
 -1      2566 4.87417E+00 6.67177E+00 1.69920E+00-1.02339E+00-5.69766E-01-1.19227E+00
 -1      2567-5.20345E+00-5.03423E-01-2.92043E+00-6.17653E-01-1.08142E+00 7.34449E-01
 -1      2568-7.35175E-01-1.33768E+00 1.06509E+00-6.23546E-02 1.18336E+00 4.53057E-02
 -1      2569 7.92849E-01-4.52505E+00-5.98432E-01 1.55666E-01-2.03030E+00-2.78362E-01
 -1      2570 2.32812E+00 2.25748E+00-3.62840E-01-1.48608E-01-7.24655E-01-2.33398E-01
 -1      2571 7.47630E-01 2.23096E+00 1.96237E-01-2.25818E-01-3.78063E+00 9.30551E-01
 -1      2572 3.36596E-01 4.98349E+00-4.44162E-02-7.93591E-01-4.93760E-01-1.22290E+00
 -1      2573 2.56984E+00 4.74814E+00-1.67764E+00-8.54025E-01 2.90625E-01-1.49816E+00
 -1      2574 3.92868E+00 3.33040E+00 3.54646E+00 9.33339E-01-1.86571E-01-4.95346E-01
 -1      2575 1.04029E-01 4.08515E+00-2.14759E+00 1.71910E+00-8.19481E-01-6.17833E-02
 -1      2576 9.80430E-01-2.75394E-01-1.97116E-01-2.96259E-01-3.61487E-01-2.75391E+00
 -1      2577 3.91134E+00 6.62329E-01 1.43862E-01-2.19335E-01 1.37871E+00-1.32656E-01
 -1      2578 1.93408E+00-1.35697E+00 1.90998E-01-1.48883E+00 1.66840E+00 1.33378E+00
 -1      2579 4.97373E+00 4.04786E+00 9.87706E-01-6.45131E-01-1.68777E+00-8.08270E-01
 -1      2580 1.55208E+00 3.62336E+00-1.74055E+00-1.79677E-01 1.10011E-01-2.77681E-01
 -1      2581-2.17504E+00 1.54227E+00-6.32458E-01 2.48797E-01-1.58574E-01 1.88561E+00
 -1      2582-4.88483E+00-9.96506E+00-3.02125E+00-3.74374E+00 5.94753E+00 3.04078E+00
 -1      2583 9.62241E-01 1.83903E-01 8.23441E-01 3.33720E-01 2.59367E+00 1.97274E+00
 -1      2584 3.72094E+00 7.61245E+00-2.87403E+00 1.25615E-01 2.53663E-01 1.09705E+00
 -1      2585-4.89932E+00-3.73922E+00 1.62460E+00-9.35213E-01 8.31957E-01-2.40813E+00
 -1      2586-1.58330E+01-9.36877E+00-3.25804E+00-1.45075E+00 8.92870E-01 5.69361E-01
 -1      2587-2.26129E-01 1.86886E+00 7.66880E-01 1.16318E+00-1.40009E+00 1.74421E+00
 -1      2588 1.09557E+00 2.35055E+00 3.92345E-01-1.75313E+00 1.51513E+00-1.20190E+00
 -1      2589 3.80891E+00 2.66880E+00-1.83648E+00 4.58701E-02 1.05161E+00 4.16212E-01
 -1      2590 2.03614E+00 2.91467E+00 1.71924E-01 4.54212E-01 3.40501E-02 1.24798E+00
 -1      2591 7.66738E-01 1.67760E+00-1.65766E+00-2.09981E-01 6.42109E-01 7.46752E-01
 -1      2592-1.50241E+00-1.21288E+00-3.56718E+00-9.92767E-02 8.23869E-01-1.34852E-01
 -1      2593 2.29295E+00 7.06117E-01 5.64194E-01 5.66849E-01 5.92583E-01-4.12066E-01
 -1      2594 1.65263E+00-3.23159E-01-1.46113E+00-1.39940E+00 1.27080E+00 8.35850E-01
 -1      2595-1.76889E+00-5.03584E+00-2.34036E+00-2.68674E-01-4.99466E+00 6.54695E-01
 -1      2596-2.32102E+00 6.23144E-01-6.20529E-01 7.74752E-01-4.77091E-01 1.76697E+00
 -1      2597-1.54570E-01 6.10608E-01 2.88142E-01-7.50877E-01 3.15704E-01 1.65438E+00
 -1      2598 2.74509E+00 5.41934E-01 6.07178E-01 1.07052E+00 1.23217E+00-3.57137E-01
 -1      2599 2.49009E+00 2.86190E+00-9.06149E-01-2.37473E-01 1.78465E+00 4.05034E-01
 -1      2600 5.22848E-01 4.57956E-01 2.39331E+00 2.98842E-01-2.45737E+00-1.13433E+00
 -1      2601 2.89759E+00-8.60197E-01-5.17916E+00 3.25110E-01 1.71675E-01-3.27750E+00
 -1      2602 1.32982E+00 1.78771E+00-3.88781E-01 1.33074E+00-9.63611E-01 4.49258E-01
 -1      2603-2.10101E-01-1.19653E+00-8.70118E-01-1.82474E+00-1.43319E+00-1.11284E+00
 -1      2604 2.98840E+00 1.93791E+00 1.30129E+00-2.60162E+00 2.55305E+00-1.40136E+00
 -1      2605 1.73782E+00 3.69002E+00 1.85962E+00-7.25325E-02-2.75820E+00-1.17297E+00
 -1      2606 2.00709E+00 5.39850E-01 2.87155E+00-7.79497E-01-1.11367E+00 6.02690E-01
 -1      2607 1.85627E+00 3.65130E+00 3.75991E+00 8.02446E-01 2.56625E+00 1.75732E+00
 -1      2608-2.36145E+00-3.07297E+00 2.43945E+00-2.17547E+00 1.13428E+00-1.95522E+00
 -1      2609 3.03713E+00 2.98679E+00-1.92739E-01-5.00339E-01 3.46027E-01 7.67783E-01
 -1      2610-2.91853E+00-1.41214E+00-2.74901E-01 1.38503E+00-1.63006E+00 8.41512E-01
 -1      2611 2.14159E+00-1.06185E+00 1.21835E+00 1.27089E+00-1.86313E+00 3.37345E-01
 -1      2612-5.86917E+00-1.60731E+00 2.37093E+00 2.02834E+00-1.65805E+00 2.12223E+00
 -1      2613 2.93038E-01-1.88857E-01-1.44167E+00 9.11082E-02-1.18584E+00-9.41974E-01
 -1      2614-2.00473E+00-2.46617E+00-6.12064E-01-2.51604E+00 1.47154E+00 1.41575E+00
 -1      2615 1.76257E+00 8.87163E-01-7.16994E-01-2.43454E+00 1.81638E+00 1.01302E+00
 -1      2616-1.93039E+00-9.36213E+00-6.97171E-01 1.83757E+00-2.13235E+00 6.94758E-01
 -1      2617-1.83618E+00 1.15415E+00-1.76473E+00-2.12164E-01 2.19631E+00 2.03361E-01
 -1      2618-1.28142E+00-5.56546E+00 1.63757E+00-8.25786E-01-2.05831E+00-4.28075E-01
 -1      2619-1.60088E+00-2.80773E+00 3.44731E-02-4.22480E-01-1.42300E+00 7.47142E-02
 -1      2620-1.09702E+00-5.56658E+00 1.04908E+00-1.93592E+00 5.75432E-01-1.45343E+00
 -1      2621 1.11554E+00-1.71364E+00-4.37346E-01 9.53681E-01 1.88518E+00 2.82663E-02
 -1      2622-1.37866E+00-1.77981E+00-1.62165E+00 2.11390E-01 1.56631E+00 4.49961E-01
 -1      2623 3.63764E+00 5.20285E+00 3.56946E+00-2.47758E-01 2.63368E+00-2.24651E-02
 -1      2624 1.95758E+00 2.58656E+00-7.47126E-01 2.65759E-01-6.51729E-01 1.37566E+00
 -1      2625 7.97224E+00 3.88212E+00-1.92443E-01-5.89118E-01-7.11462E-02-1.71984E+00
 -1      2626-1.26530E+01-9.33742E+00-5.27113E+00-4.98112E-01 1.46615E+00 1.16444E+00
 -1      2627 5.61161E+00 4.13875E+00 2.17914E+00-1.00998E+00 3.83560E-01 6.71139E-01
 -1      2628 1.65552E+00-3.00813E+00-5.73074E-02 1.08350E+00-3.82363E+00 1.17256E+00
 -1      2629 7.67837E+00 4.36228E+00-8.19592E-03 9.81668E-02-1.22952E+00 2.11597E+00
 -1      2630 1.82681E+00 5.74729E-01-1.09376E+00-1.35857E-01 2.68627E-01-1.33563E+00
 -1      2631-6.76645E-01 1.27441E+00-1.24355E+00-5.73184E-01 7.97799E-01 9.57968E-01
 -1      2632 4.69494E+00 8.03220E+00 2.74576E+00-5.16669E-01-2.70662E-01 1.23078E+00
 -1      2633-3.67679E+00 8.37985E-01-1.24305E+00 1.21852E+00 2.07259E+00-1.23735E+00
 -1      2634 3.27754E+00 6.12638E+00-8.53595E-01 1.28819E+00 2.19314E+00-1.40631E-01
 -1      2635-1.22130E+00-5.76197E-01-1.72564E+00-5.05640E-01 1.67107E+00-2.59362E-01
 -1      2636-8.62239E-01-5.33864E+00-1.63582E-01-6.23728E-01-2.56732E+00 1.16453E+00
 -1      2637 1.05014E+00-3.72848E+00 1.64715E+00-2.04722E+00-2.04542E+00-3.62718E-01
 -1      2638 3.76687E-01 2.92419E+00 1.38628E+00 9.81701E-01 6.53428E-01-1.27529E+00
 -1      2639 5.39452E+00 1.59569E+00-1.61654E+00-4.46949E-01 8.46473E-01-3.44347E-01
 -1      2640 2.27120E+00 1.52329E+00 2.47951E-01-3.41737E-02 9.87755E-01-3.69721E-01
 -1      2641 1.20000E+01 6.93773E+00 3.43580E-01-1.25258E+00-1.32383E+00-2.28438E-01
 -1      2642 3.29437E-01 1.77843E-01 3.27482E+00-2.78495E-01-2.50068E+00-1.10564E+00
 -1      2643 1.63102E+00 5.28097E+00-3.90314E-02-6.03121E-01 1.89494E-01-4.05300E-01
 -1      2644-4.97911E-01 3.07193E-01-1.40515E+00 1.55105E+00-1.50171E+00-1.27383E+00
 -1      2645 4.16022E+00-3.66285E-01 1.92464E+00-4.59683E-01-1.35373E+00-3.01381E+00
 -1      2646 1.56179E+00 3.62251E+00 6.42697E-01-2.31707E-01-2.71990E-01-1.29024E+00
 -1      2647 7.32688E+00 7.85464E+00 2.73236E+00-2.31786E-01 2.39485E+00 1.89941E+00
 -1      2648-1.86152E+00-5.37502E-01-5.48084E-01 8.55709E-01-5.86786E-01-6.11709E-01
 -1      2649 4.07060E+00 5.85072E+00 8.58222E-01 2.26441E+00-8.94300E-01-4.82255E-01
 -1      2650-1.31392E+00-3.60152E+00 4.47201E-01-4.45165E-01-4.80422E-01 1.56214E+00
 -1      2651 1.87741E+00 7.14979E+00 4.07897E-01 1.86669E+00 3.65991E-01 3.92196E-01
 -1      2652-6.91582E+00-1.64540E+00-1.78078E+00-6.34238E-01-1.71206E+00-2.12891E+00
 -1      2653 8.95432E-01 6.52224E-02-1.66140E-01 1.18380E+00-1.81009E+00-6.88533E-01
 -1      2654 8.41959E+00 5.75574E+00 2.65989E+00-2.91012E-01-8.68860E-01-8.98248E-01
 -1      2655 1.71977E+00 2.04012E+00 2.81269E+00-6.93058E-02 6.55381E-01-1.77575E+00
 -1      2656-1.78335E+00-3.38631E+00 8.57802E-01 2.08013E+00 2.93414E+00-2.30995E+00
 -1      2657-2.28646E+00-3.35175E+00-2.79794E-01 7.30525E-01-1.64058E-01-1.73133E+00
 -1      2658-1.37502E+00-5.11070E+00-2.69131E+00-1.28917E+00-5.57770E+00 2.91432E-01
 -1      2659-2.09080E+00-5.18563E-02 2.81049E-01 1.96409E+00-1.30761E+00 1.82310E+00
 -1      2660-8.18550E-01 2.63643E-01-9.31795E-01 8.09574E-01-7.35242E-01 1.36867E+00
 -1      2661-6.95794E-01-7.86542E-01-6.81513E-01 3.75593E-02-1.30707E+00 8.42630E-01
 -1      2662 2.52402E+00 3.83130E+00 1.67695E+00 1.76022E+00-2.77857E-01 1.22285E+00
 -1      2663 5.97252E+00 7.68288E+00 1.10296E+00 1.16649E+00 1.61138E+00-3.88427E-01
 -1      2664 3.62223E+00 4.92371E+00 8.70038E-01 1.45459E-01-5.27734E-01-9.62670E-01
 -1      2665 7.97646E+00 8.86561E+00-3.64372E-01-1.28214E+00 3.98561E-01-5.83076E-01
 -1      2666-4.73532E+00-1.83039E+00 1.58099E+00-5.24099E-01-2.81607E+00 1.80194E+00
 -1      2667 5.73446E+00 9.89339E+00 1.07556E+00 1.64609E+00-2.46853E-01 1.38078E+00
 -1      2668 3.20501E+00 2.39403E+00-1.24638E+00-8.76351E-01-2.35543E-01-5.32569E-01
 -1      2669 7.27741E+00 6.85911E+00 3.50967E+00 1.27377E+00-1.60574E+00-3.67475E-01
 -1      2670 3.95453E+00-2.69614E-01 7.71743E-01-2.65255E-02 9.23931E-01-1.23733E+00
 -1      2671 5.41489E+00 1.21369E+00-3.21332E-02-1.52512E+00-1.84004E+00-6.07034E-01
 -1      2672 4.79932E+00-2.62149E-01-1.77800E+00-3.83330E+00 1.50990E+00-2.91831E+00
 -1      2673 9.21402E+00 2.20058E+00 5.62440E-01-1.12252E+00 9.43766E-01 1.45851E+00
 -1      2674 3.56936E+00 5.31307E+00 2.16520E-01-1.06900E+00-1.80457E-01 7.05445E-01
 -1      2675-1.80337E+00-6.25422E+00-1.87815E+00-5.18138E-01-3.10565E+00-1.27932E+00
 -1      2676 2.10483E+00 3.83266E+00 8.81246E-01 7.72593E-01-1.09647E+00 9.94230E-01
 -1      2677 1.51016E+00 3.58537E+00 1.38003E-01 1.57025E+00-1.11462E+00 1.68717E-01
 -1      2678 4.75311E+00 9.06654E+00 4.40604E+00-3.60767E+00-2.39731E+00 1.20117E+00
 -1      2679 2.58480E+00-1.23411E+00 7.73949E-01-4.54352E-02 8.96381E-01-1.54839E+00
 -1      2680 2.21355E+00 3.38143E+00 1.50890E+00 1.37201E-01-2.26761E-01 8.73861E-01
 -1      2681 1.77227E+00 1.69224E+00-1.31968E+00 4.30396E-01-1.40021E+00 1.06883E+00
 -1      2682-2.58815E+00 9.73016E-01 7.41151E-01-3.65811E-01-6.54516E-02-1.60696E+00
 -1      2683 7.83431E+00 2.22164E+00-7.68692E-01-2.00928E-01-1.87782E+00-2.97944E+00
 -1      2684 2.66148E+00 1.30911E+00 4.70628E+00-9.35013E-01 4.57456E-01-3.29724E+00
 -1      2685-5.79264E-01 1.06363E+00 1.25223E+00 4.18873E-01-3.68537E-01 1.69326E+00
 -1      2686 4.78690E-01-7.10021E-01 8.71869E-01 2.04392E-01-1.39359E+00 2.48184E-01
 -1      2687 1.96816E+00 3.41518E+00 2.10849E-01-1.72791E+00 8.58610E-01 4.66375E-01
 -1      2688-4.75001E+00-8.97507E+00-8.70387E-02-1.76289E+00 1.12073E+00-1.67255E-01
 -1      2689-3.72708E+00-3.12291E+00-1.06498E+00-1.03341E+00-2.74712E+00 2.15613E-02
 -1      2690-2.19357E+00-3.07002E+00-1.05935E+00 6.19976E-01-7.23415E-01 1.49265E+00
 -1      2691 2.96326E+00 1.77894E+00 1.05979E+00 1.88986E-01-4.60387E-01-7.89419E-01
 -1      2692 1.43930E+00 3.82097E+00 6.13753E-03 1.05498E-01 1.06189E+00 1.62139E+00
 -1      2693 6.74459E+00 4.66132E+00 1.59307E+00-5.98268E-01-1.55042E+00-2.67646E-01
 -1      2694 2.32380E+00 3.15208E+00 1.30793E+00 2.35468E-02-4.25238E-01-6.65120E-01
 -1      2695 4.82284E+00 8.06032E+00 5.06958E+00-5.27175E-01 1.23731E+00-1.30555E+00
 -1      2696 1.31052E+00 2.20226E+00 2.48254E-01 2.86042E-01-1.32520E+00 2.52988E-01
 -1      2697 6.44852E-01 1.02499E-01-2.02998E+00-9.51476E-02-2.45607E+00-2.34700E-01
 -1      2698-1.65270E+00 7.00721E-01-1.29991E-01 1.17691E+00 1.42060E-01 1.45713E+00
 -1      2699 5.89327E+00 6.00990E+00 2.39984E+00 1.21206E+00 1.39677E+00-1.14127E+00
 -1      2700-1.57486E+00-2.50320E+00-2.24129E+00-1.28076E+00-1.99865E+00-1.01147E+00
 -1      2701-7.71676E-01-4.49323E+00-4.08212E-01 1.11803E+00-2.17991E+00-9.62287E-01
 -1      2702 8.88744E-01 5.49467E-01 1.91875E+00 5.66366E-01 3.47192E+00 2.80334E+00
 -1      2703-3.01248E-01-2.87376E+00 8.31168E-01-1.27721E+00-8.35561E-01-8.57213E-01
 -1      2704 1.09121E+00 1.32997E+00 4.83731E+00 2.57456E-01-1.88995E+00 6.10018E-02
 -1      2705-6.37362E-01-3.76698E+00 3.06050E-01-1.32387E+00-3.96699E-01-3.20514E-01
 -1      2706 5.01700E+00 4.12549E+00 1.81166E-01-1.51817E-01-4.68643E-02 6.92546E-01
 -1      2707-6.16410E+00-5.06371E+00-2.08311E+00-1.82510E+00 1.24131E-01 2.08094E+00
 -1      2708 9.11917E-01 1.49973E+00-2.03102E+00 3.35453E-01-4.34455E-01 6.67052E-01
 -1      2709-2.33149E+00-2.75835E+00-3.41678E+00-8.20993E-01-4.95457E-01 5.16457E-01
 -1      2710 1.80873E+00 2.76715E+00-5.65828E-01 1.17643E+00-2.58866E-01 6.53712E-01
 -1      2711 4.76211E-01 1.06039E+00 1.95814E+00-2.94537E-02 1.40179E-01-2.77579E+00
 -1      2712 2.54859E+00 2.78672E+00-5.23009E-02 6.27267E-01-6.97239E-01-4.72221E-01
 -1      2713 3.21066E+00 3.98621E+00-8.58222E-01-1.23790E+00 1.85458E+00-1.12255E+00
 -1      2714 6.91999E+00 7.86738E+00 2.90620E+00 8.67289E-01 1.45405E+00-2.58589E+00
 -1      2715 5.26820E+00 1.85169E+00 4.07409E-01-5.70519E-01 1.48795E+00-3.58696E+00
 -1      2716 6.01790E+00 2.84552E+00-6.20626E-01 1.48681E-01-9.84543E-01-1.87914E+00
 -1      2717-4.42371E+00 6.77691E-01 1.26947E+00 5.28560E-01 1.44231E+00-2.03376E+00
 -1      2718 4.92306E+00 5.02558E+00 4.59372E+00-9.37933E-01 8.65462E-01 8.42315E-01
 -1      2719 3.54729E+00 1.34383E+00 3.15097E+00-1.10922E+00-3.34134E+00-1.06942E+00
 -1      2720 5.80806E-02 5.35360E+00-8.02959E-01 1.84919E+00-3.35642E+00-3.45394E-01
 -1      2721-8.96963E+00-1.11092E+01-1.73640E+00-1.80142E-01 8.76215E-01 3.30711E+00
 -1      2722 1.25025E+01 9.98504E+00 2.32551E+00-2.58078E+00 8.46038E-02-2.53139E+00
 -1      2723-9.26700E+00-1.52820E+01-3.30096E+00 1.08539E+00 1.37965E+00 2.85075E-01
 -1      2724 8.35852E-01-8.99912E-01 4.37470E-01-2.69865E-01 6.93855E-01-2.65674E+00
 -1      2725 6.76722E+00 4.55456E+00-2.55608E+00 2.80662E-02-1.74480E-01 1.17057E+00
 -1      2726-1.34199E+00 8.20040E-01 5.44378E-01 7.82764E-01 3.29648E-01-2.38599E+00
 -1      2727-7.53721E-01-1.85519E+00-8.82827E-01 8.22870E-01-2.99956E-01-2.39793E+00
 -1      2728-1.13282E+01-7.23422E+00-5.31298E+00 1.44041E+00-1.11377E+00 1.30556E+00
 -1      2729-6.61434E+00-7.86245E+00-3.53281E+00-1.04134E+00 1.60145E-01-1.23214E-01
 -1      2730 7.78174E+00 4.11053E+00-1.89620E+00-5.78355E-01-1.56760E+00 3.97403E-01
 -1      2731-2.18226E+01-1.04556E+01-2.64843E+00-3.23934E-01 2.09327E-01 7.32484E-02
 -1      2732 5.13100E+00 1.06561E+01 2.68877E-02-3.11795E+00 6.22154E-02 3.72683E-01
 -1      2733-8.03860E+00-8.62192E+00-4.86285E+00-2.35212E+00 4.83095E-01 2.34588E-01
 -1      2734 6.21514E+00 5.82113E+00 5.81936E-01-1.04122E+00-3.51005E-02-2.56510E-01
 -1      2735-8.92433E+00-9.90978E+00-6.11545E+00-2.34438E-02 4.67479E-02 5.49865E-01
 -1      2736 7.22564E-01 3.92004E+00 1.55257E-01 2.12226E+00-3.22444E+00 9.23096E-01
 -1      2737-8.70003E+00-1.05626E+01-6.07666E+00-1.68768E+00 8.26576E-02 1.00256E+00
 -1      2738 1.70995E+00 1.57199E+00-3.11785E+00-4.82229E-01-4.29062E+00 2.49596E+00
 -1      2739 4.82027E+00 6.12472E+00-5.24636E+00 1.71658E+00 9.54828E-01 2.85843E-01
 -1      2740 6.27817E+00 4.79570E+00-1.25806E+00-3.18589E+00-8.99488E-01 2.18346E+00
 -1      2741 6.36563E+00 1.32976E+00-6.80094E-01 8.44877E-02-2.23710E+00-4.03309E+00
 -1      2742-7.40616E+00-6.89255E+00-5.43080E+00-5.70763E-01-8.54217E-01 1.06017E+00
 -1      2743 2.65921E+00 4.70218E-01-3.74357E+00-6.22452E-01-2.64961E-01 1.58260E+00
 -1      2744-2.72214E+00 1.76032E+00-3.59910E+00-6.87881E-01 1.83076E+00 6.14115E-01
 -1      2745-6.56802E+00-1.11995E+01-3.37122E-01 1.67864E+00 1.02458E-01 2.89382E-01
 -1      2746 6.76570E+00 5.56222E+00 1.07937E+00 9.03230E-01 5.48169E-02 7.62842E-02
 -1      2747 6.31630E+00 4.08988E-01-1.18202E+00-7.34873E-01-1.16657E+00 3.80679E+00
 -1      2748-1.30486E+01-1.25990E+01-1.45048E+00 8.50387E-01 3.03427E-01-4.29341E-02
 -1      2749 4.40767E+00 4.74465E+00 2.82343E-01-6.50682E-01-5.77893E-01-9.18859E-01
 -1      2750 6.26786E+00 1.07594E+01 2.99253E+00-1.78188E+00 1.63793E-01-1.80118E+00
 -1      2751-7.99032E+00-9.71282E+00 1.06149E-01 7.10532E-01-5.95135E-01 5.93596E-01
 -1      2752-1.12909E+01-1.28063E+01-5.54746E+00-4.27709E-01 3.36096E-01 1.70501E+00
 -1      2753 3.48144E+00 5.14049E+00 1.74909E+00-7.98277E-01-1.65357E-01-1.06356E+00
 -1      2754 8.94905E+00 4.60604E+00-2.49068E-01-2.42324E+00-2.84593E-01-1.19620E+00
 -1      2755-6.57436E+00-7.04758E+00-2.40711E+00-5.03066E-01-3.19549E-01-9.88388E-01
 -1      2756 1.77246E+00 4.48453E+00 6.91239E-01 9.62370E-02 2.94053E-01-2.79274E+00
 -1      2757-1.17040E+01-1.11152E+01-3.40887E+00 1.12423E+00 4.36524E-01 8.10131E-01
 -1      2758-6.93253E+00-4.82703E+00-6.77518E+00-2.27220E-01 6.02304E-01-2.18308E-01
 -1      2759 3.60642E+00 3.89193E+00-1.58897E+00-1.91224E+00 3.24490E+00-2.86719E+00
 -1      2760-9.52776E+00-6.62659E+00-8.29243E+00-4.29971E-01 4.06629E-01 1.42061E+00
 -1      2761-9.61398E+00-1.53491E+01-1.40133E+00 7.34743E-01 1.81801E+00 8.40965E-01
 -1      2762 9.72729E-01 3.26422E+00 6.37496E-01-1.35587E-01 1.14736E+00-5.46043E-01
 -1      2763-9.16608E+00-8.92094E+00-5.51089E+00 8.34876E-01-2.09799E-02-1.36382E-01
 -1      2764-3.18928E+00-5.89308E+00-5.10089E+00-4.92130E-02-5.47576E-01 4.21126E-02
 -1      2765 1.91609E+00-1.24573E-01 3.35581E+00 2.15899E+00 7.92294E-01 5.10807E-01
 -1      2766-1.48588E+01-2.44040E+01-7.08625E+00 1.38127E+00-1.33221E+00-7.67210E-01
 -1      2767 2.19553E+00 1.35030E+00 1.14218E-01-1.23159E+00-5.47281E-01 1.57569E+00
 -1      2768-6.45557E+00-5.24686E+00-3.10707E+00-3.36430E-01 6.49986E-01 1.12424E+00
 -1      2769 3.79705E+00 5.67409E+00 1.65267E+00 1.22485E-01-8.80612E-01-1.51063E+00
 -1      2770 1.10972E+01 4.76028E+00 4.77886E+00 1.71112E+00 7.23677E-01-6.77709E-01
 -1      2771 4.80974E+00 6.19796E+00 3.41980E+00-2.13982E+00 7.12180E-01-8.47640E-01
 -1      2772-7.85013E+00-9.87211E+00-3.38452E+00 2.03308E+00 1.03939E-02-6.48832E-01
 -1      2773-1.31663E+01-7.29107E+00-2.08952E+00 6.07573E-01-2.03811E-01-1.01025E+00
 -1      2774-8.31748E+00-8.98788E+00-5.54050E+00-2.12125E+00-1.23129E+00-2.39650E+00
 -1      2775-1.15364E+01-1.17038E+01-1.81089E+00-6.62386E-02 2.11750E+00 1.73886E+00
 -3
 9999
