    1C
    1U meshsolid_t.inp                                                  
    1UUSER                                                              
    1UDATE              03.july.2016                                    
    1UTIME              10:44:07                                        
    1UHOST                                                              
    1UPGM               CalculiX                                        
    1UVERSION           Version 2.10                             
    1UCOMPILETIME       Sa 5. MÃ¤r 12:23:33 CET 2016                    
    1UDIR                                                               
    1UDBN                                                               
    1UMAT    1PDMS                                                      
    2C                          3132                                     1
 -1         1 2.63013E+00-4.74999E-01 3.49999E-01
 -1         2 2.63013E+00 4.74999E-01 1.70000E+00
 -1         3 2.63013E+00-4.74999E-01 1.70000E+00
 -1         4 9.21869E+00 9.50000E-01 1.70000E+00
 -1         5 9.21869E+00-4.74999E-01 1.70000E+00
 -1         6 5.98657E+00 4.74999E-01 1.70000E+00
 -1         7 9.21869E+00-9.50000E-01 1.70000E+00
 -1         8 1.25751E+01 4.74999E-01 1.70000E+00
 -1         9 9.21869E+00 4.74999E-01 1.70000E+00
 -1        10 1.25751E+01 4.74999E-01 3.49999E-01
 -1        11 1.25751E+01-4.74999E-01 1.70000E+00
 -1        12 5.98657E+00 4.74999E-01 3.49999E-01
 -1        13 5.98657E+00-4.74999E-01 1.70000E+00
 -1        14 5.98657E+00-4.74999E-01 3.49999E-01
 -1        15 5.98657E+00-9.50000E-01 1.70000E+00
 -1        16 5.98657E+00 9.50000E-01 1.70000E+00
 -1        17 9.21869E+00-4.74999E-01 3.49999E-01
 -1        18 9.21869E+00 4.74999E-01 3.49999E-01
 -1        19 8.69874E+00 3.08900E+00 1.70000E+00
 -1        20 1.14361E+01 5.25114E+00 1.70000E+00
 -1        21 5.89442E+00 1.41328E+00 1.70000E+00
 -1        22 8.33519E+00 3.96668E+00 1.70000E+00
 -1        23 8.15341E+00 4.40553E+00 1.70000E+00
 -1        24 1.14361E+01 5.25114E+00 3.49999E-01
 -1        25 1.17997E+01 4.37345E+00 1.70000E+00
 -1        26 5.34909E+00 2.72980E+00 1.70000E+00
 -1        27 2.24815E+00 1.44535E+00 1.70000E+00
 -1        28 2.61170E+00 5.67665E-01 1.70000E+00
 -1        29 5.71264E+00 1.85212E+00 1.70000E+00
 -1        30 5.71264E+00 1.85212E+00 3.49999E-01
 -1        31 5.89442E+00 1.41328E+00 3.49999E-01
 -1        32 5.34909E+00 2.72980E+00 3.49999E-01
 -1        33 5.16732E+00 3.16865E+00 1.70000E+00
 -1        34 8.69874E+00 3.08900E+00 3.49999E-01
 -1        35 8.88051E+00 2.65016E+00 1.70000E+00
 -1        36 8.15341E+00 4.40553E+00 3.49999E-01
 -1        37 8.33519E+00 3.96668E+00 3.49999E-01
 -1        38 6.18273E+00 6.85448E+00 1.70000E+00
 -1        39 6.85448E+00 6.18273E+00 1.70000E+00
 -1        40 8.55608E+00 9.22784E+00 1.70000E+00
 -1        41 3.89727E+00 4.56902E+00 3.49999E-01
 -1        42 1.52391E+00 2.19566E+00 1.70000E+00
 -1        43 2.19566E+00 1.52391E+00 1.70000E+00
 -1        44 9.22784E+00 8.55608E+00 1.70000E+00
 -1        45 4.56902E+00 3.89727E+00 1.70000E+00
 -1        46 3.56139E+00 4.90489E+00 1.70000E+00
 -1        47 3.89727E+00 4.56902E+00 1.70000E+00
 -1        48 7.19035E+00 5.84685E+00 1.70000E+00
 -1        49 5.84685E+00 7.19035E+00 1.70000E+00
 -1        50 6.18273E+00 6.85448E+00 3.49999E-01
 -1        51 4.90489E+00 3.56139E+00 1.70000E+00
 -1        52 4.90489E+00 3.56139E+00 3.49999E-01
 -1        53 5.84685E+00 7.19035E+00 3.49999E-01
 -1        54 1.44535E+00 2.24815E+00 1.70000E+00
 -1        55 2.65016E+00 8.88051E+00 1.70000E+00
 -1        56 3.96668E+00 8.33519E+00 1.70000E+00
 -1        57 3.08900E+00 8.69874E+00 1.70000E+00
 -1        58 2.72980E+00 5.34909E+00 1.70000E+00
 -1        59 5.67665E-01 2.61170E+00 1.70000E+00
 -1        60 4.37345E+00 1.17997E+01 1.70000E+00
 -1        61 5.25114E+00 1.14361E+01 1.70000E+00
 -1        62 4.37345E+00 1.17997E+01 3.49999E-01
 -1        63 1.85212E+00 5.71264E+00 1.70000E+00
 -1        64 1.44535E+00 2.24815E+00 3.49999E-01
 -1        65 3.96668E+00 8.33519E+00 3.49999E-01
 -1        66 3.16865E+00 5.16732E+00 3.49999E-01
 -1        67 1.85212E+00 5.71264E+00 3.49999E-01
 -1        68 3.08900E+00 8.69874E+00 3.49999E-01
 -1        69 4.40553E+00 8.15341E+00 1.70000E+00
 -1        70 3.16865E+00 5.16732E+00 1.70000E+00
 -1        71 1.41328E+00 5.89442E+00 1.70000E+00
 -1        72-4.74999E-01 9.21869E+00 1.70000E+00
 -1        73 4.74999E-01 1.25751E+01 1.70000E+00
 -1        74 9.50000E-01 9.21869E+00 1.70000E+00
 -1        75 4.74999E-01 5.98657E+00 1.70000E+00
 -1        76-4.74999E-01 1.25751E+01 1.70000E+00
 -1        77-4.74999E-01 1.25751E+01 3.49999E-01
 -1        78-4.74999E-01 2.63013E+00 3.49999E-01
 -1        79-4.74999E-01 5.98657E+00 3.49999E-01
 -1        80-4.74999E-01 2.63013E+00 1.70000E+00
 -1        81 4.74999E-01 2.63013E+00 1.70000E+00
 -1        82 4.74999E-01 9.21869E+00 1.70000E+00
 -1        83 4.74999E-01 9.21869E+00 3.49999E-01
 -1        84 4.74999E-01 5.98657E+00 3.49999E-01
 -1        85 9.50000E-01 5.98657E+00 3.49999E-01
 -1        86-9.50000E-01 5.98657E+00 3.49999E-01
 -1        87-9.50000E-01 5.98657E+00 1.70000E+00
 -1        88-4.74999E-01 5.98657E+00 1.70000E+00
 -1        89 9.50000E-01 9.21869E+00 3.49999E-01
 -1        90 9.50000E-01 5.98657E+00 1.70000E+00
 -1        91-9.50000E-01 9.21869E+00 1.70000E+00
 -1        92-1.44535E+00 2.24815E+00 1.70000E+00
 -1        93-5.67665E-01 2.61170E+00 1.70000E+00
 -1        94-1.85212E+00 5.71264E+00 1.70000E+00
 -1        95-2.65016E+00 8.88051E+00 1.70000E+00
 -1        96-2.72980E+00 5.34909E+00 1.70000E+00
 -1        97-3.96668E+00 8.33519E+00 1.70000E+00
 -1        98-5.25114E+00 1.14361E+01 1.70000E+00
 -1        99-4.40553E+00 8.15341E+00 1.70000E+00
 -1       100-4.37345E+00 1.17997E+01 1.70000E+00
 -1       101-1.44535E+00 2.24815E+00 3.49999E-01
 -1       102-1.85212E+00 5.71264E+00 3.49999E-01
 -1       103-3.08900E+00 8.69874E+00 1.70000E+00
 -1       104-3.08900E+00 8.69874E+00 3.49999E-01
 -1       105-1.41328E+00 5.89442E+00 1.70000E+00
 -1       106-2.72980E+00 5.34909E+00 3.49999E-01
 -1       107-3.96668E+00 8.33519E+00 3.49999E-01
 -1       108-2.65016E+00 8.88051E+00 3.49999E-01
 -1       109-3.16865E+00 5.16732E+00 1.70000E+00
 -1       110-6.85448E+00 6.18273E+00 1.70000E+00
 -1       111-9.22784E+00 8.55608E+00 1.70000E+00
 -1       112-3.56139E+00 4.90489E+00 1.70000E+00
 -1       113-6.18273E+00 6.85448E+00 1.70000E+00
 -1       114-4.56902E+00 3.89727E+00 1.70000E+00
 -1       115-7.19035E+00 5.84685E+00 1.70000E+00
 -1       116-1.52391E+00 2.19566E+00 1.70000E+00
 -1       117-8.55608E+00 9.22784E+00 1.70000E+00
 -1       118-9.22784E+00 8.55608E+00 3.49999E-01
 -1       119-2.19566E+00 1.52391E+00 1.70000E+00
 -1       120-3.89727E+00 4.56902E+00 1.70000E+00
 -1       121-3.89727E+00 4.56902E+00 3.49999E-01
 -1       122-4.90489E+00 3.56139E+00 1.70000E+00
 -1       123-4.56902E+00 3.89727E+00 3.49999E-01
 -1       124-6.18273E+00 6.85448E+00 3.49999E-01
 -1       125-5.84685E+00 7.19035E+00 1.70000E+00
 -1       126-5.84685E+00 7.19035E+00 3.49999E-01
 -1       127-6.85448E+00 6.18273E+00 3.49999E-01
 -1       128-7.19035E+00 5.84685E+00 3.49999E-01
 -1       129-2.61170E+00 5.67665E-01 1.70000E+00
 -1       130-1.14361E+01 5.25114E+00 1.70000E+00
 -1       131-1.17997E+01 4.37345E+00 1.70000E+00
 -1       132-8.33519E+00 3.96668E+00 1.70000E+00
 -1       133-5.16732E+00 3.16865E+00 1.70000E+00
 -1       134-5.34909E+00 2.72980E+00 1.70000E+00
 -1       135-2.24815E+00 1.44535E+00 1.70000E+00
 -1       136-1.14361E+01 5.25114E+00 3.49999E-01
 -1       137-1.17997E+01 4.37345E+00 3.49999E-01
 -1       138-5.34909E+00 2.72980E+00 3.49999E-01
 -1       139-8.33519E+00 3.96668E+00 3.49999E-01
 -1       140-5.71264E+00 1.85212E+00 1.70000E+00
 -1       141-5.71264E+00 1.85212E+00 3.49999E-01
 -1       142-8.88051E+00 2.65016E+00 3.49999E-01
 -1       143-8.69874E+00 3.08900E+00 1.70000E+00
 -1       144-8.15341E+00 4.40553E+00 1.70000E+00
 -1       145-8.15341E+00 4.40553E+00 3.49999E-01
 -1       146-8.88051E+00 2.65016E+00 1.70000E+00
 -1       147-5.89442E+00 1.41328E+00 1.70000E+00
 -1       148-2.63013E+00-4.74999E-01 1.70000E+00
 -1       149-2.63013E+00 4.74999E-01 1.70000E+00
 -1       150-5.98657E+00 4.74999E-01 1.70000E+00
 -1       151-5.98657E+00 9.50000E-01 1.70000E+00
 -1       152-9.21869E+00 4.74999E-01 1.70000E+00
 -1       153-9.21869E+00-4.74999E-01 1.70000E+00
 -1       154-5.98657E+00-4.74999E-01 1.70000E+00
 -1       155-1.25751E+01 4.74999E-01 1.70000E+00
 -1       156-1.25751E+01-4.74999E-01 3.49999E-01
 -1       157-1.25751E+01-4.74999E-01 1.70000E+00
 -1       158-2.63013E+00-4.74999E-01 3.49999E-01
 -1       159-9.21869E+00 4.74999E-01 3.49999E-01
 -1       160-9.21869E+00 9.50000E-01 1.70000E+00
 -1       161-9.21869E+00-4.74999E-01 3.49999E-01
 -1       162-5.98657E+00-9.50000E-01 1.70000E+00
 -1       163-9.21869E+00-9.50000E-01 1.70000E+00
 -1       164-5.98657E+00-9.50000E-01 3.49999E-01
 -1       165-2.61170E+00-5.67665E-01 1.70000E+00
 -1       166-2.24815E+00-1.44535E+00 1.70000E+00
 -1       167-5.89442E+00-1.41328E+00 1.70000E+00
 -1       168-5.71264E+00-1.85212E+00 1.70000E+00
 -1       169-8.33519E+00-3.96668E+00 1.70000E+00
 -1       170-8.88051E+00-2.65016E+00 1.70000E+00
 -1       171-1.17997E+01-4.37345E+00 1.70000E+00
 -1       172-1.14361E+01-5.25114E+00 1.70000E+00
 -1       173-8.33519E+00-3.96668E+00 3.49999E-01
 -1       174-5.34909E+00-2.72980E+00 3.49999E-01
 -1       175-5.34909E+00-2.72980E+00 1.70000E+00
 -1       176-2.24815E+00-1.44535E+00 3.49999E-01
 -1       177-5.71264E+00-1.85212E+00 3.49999E-01
 -1       178-8.69874E+00-3.08900E+00 3.49999E-01
 -1       179-5.16732E+00-3.16865E+00 3.49999E-01
 -1       180-8.69874E+00-3.08900E+00 1.70000E+00
 -1       181-5.89442E+00-1.41328E+00 3.49999E-01
 -1       182-8.15341E+00-4.40553E+00 1.70000E+00
 -1       183-5.16732E+00-3.16865E+00 1.70000E+00
 -1       184-4.90489E+00-3.56139E+00 1.70000E+00
 -1       185-3.89727E+00-4.56902E+00 1.70000E+00
 -1       186-3.56139E+00-4.90489E+00 1.70000E+00
 -1       187-5.84685E+00-7.19035E+00 1.70000E+00
 -1       188-6.85448E+00-6.18273E+00 1.70000E+00
 -1       189-7.19035E+00-5.84685E+00 1.70000E+00
 -1       190-6.18273E+00-6.85448E+00 1.70000E+00
 -1       191-8.55608E+00-9.22784E+00 3.49999E-01
 -1       192-8.55608E+00-9.22784E+00 1.70000E+00
 -1       193-1.52391E+00-2.19566E+00 3.49999E-01
 -1       194-1.52391E+00-2.19566E+00 1.70000E+00
 -1       195-2.19566E+00-1.52391E+00 1.70000E+00
 -1       196-9.22784E+00-8.55608E+00 1.70000E+00
 -1       197-6.85448E+00-6.18273E+00 3.49999E-01
 -1       198-9.22784E+00-8.55608E+00 3.49999E-01
 -1       199-4.90489E+00-3.56139E+00 3.49999E-01
 -1       200-4.56902E+00-3.89727E+00 1.70000E+00
 -1       201-3.89727E+00-4.56902E+00 3.49999E-01
 -1       202-3.56139E+00-4.90489E+00 3.49999E-01
 -1       203-7.19035E+00-5.84685E+00 3.49999E-01
 -1       204-5.67665E-01-2.61170E+00 1.70000E+00
 -1       205-1.85212E+00-5.71264E+00 1.70000E+00
 -1       206-2.72980E+00-5.34909E+00 1.70000E+00
 -1       207-3.08900E+00-8.69874E+00 1.70000E+00
 -1       208-4.37345E+00-1.17997E+01 1.70000E+00
 -1       209-5.25114E+00-1.14361E+01 1.70000E+00
 -1       210-5.67665E-01-2.61170E+00 3.49999E-01
 -1       211-1.44535E+00-2.24815E+00 1.70000E+00
 -1       212-2.72980E+00-5.34909E+00 3.49999E-01
 -1       213-5.25114E+00-1.14361E+01 3.49999E-01
 -1       214-3.16865E+00-5.16732E+00 1.70000E+00
 -1       215-1.41328E+00-5.89442E+00 3.49999E-01
 -1       216-1.41328E+00-5.89442E+00 1.70000E+00
 -1       217-1.85212E+00-5.71264E+00 3.49999E-01
 -1       218-3.96668E+00-8.33519E+00 1.70000E+00
 -1       219-2.65016E+00-8.88051E+00 1.70000E+00
 -1       220-2.65016E+00-8.88051E+00 3.49999E-01
 -1       221-3.16865E+00-5.16732E+00 3.49999E-01
 -1       222-4.40553E+00-8.15341E+00 1.70000E+00
 -1       223-4.74999E-01-2.63013E+00 1.70000E+00
 -1       224-4.74999E-01-5.98657E+00 1.70000E+00
 -1       225-9.50000E-01-9.21869E+00 1.70000E+00
 -1       226 4.74999E-01-2.63013E+00 1.70000E+00
 -1       227 4.74999E-01-9.21869E+00 1.70000E+00
 -1       228 4.74999E-01-1.25751E+01 1.70000E+00
 -1       229 4.74999E-01-5.98657E+00 1.70000E+00
 -1       230-4.74999E-01-1.25751E+01 1.70000E+00
 -1       231-9.50000E-01-5.98657E+00 1.70000E+00
 -1       232-9.50000E-01-5.98657E+00 3.49999E-01
 -1       233 9.50000E-01-5.98657E+00 1.70000E+00
 -1       234 9.50000E-01-5.98657E+00 3.49999E-01
 -1       235-4.74999E-01-9.21869E+00 1.70000E+00
 -1       236 9.50000E-01-9.21869E+00 1.70000E+00
 -1       237 5.67665E-01-2.61170E+00 1.70000E+00
 -1       238 5.25114E+00-1.14361E+01 1.70000E+00
 -1       239 3.08900E+00-8.69874E+00 1.70000E+00
 -1       240 1.85212E+00-5.71264E+00 1.70000E+00
 -1       241 1.44535E+00-2.24815E+00 1.70000E+00
 -1       242 2.65016E+00-8.88051E+00 1.70000E+00
 -1       243 3.96668E+00-8.33519E+00 1.70000E+00
 -1       244 3.96668E+00-8.33519E+00 3.49999E-01
 -1       245 2.72980E+00-5.34909E+00 1.70000E+00
 -1       246 4.37345E+00-1.17997E+01 3.49999E-01
 -1       247 4.37345E+00-1.17997E+01 1.70000E+00
 -1       248 1.85212E+00-5.71264E+00 3.49999E-01
 -1       249 1.41328E+00-5.89442E+00 1.70000E+00
 -1       250 1.41328E+00-5.89442E+00 3.49999E-01
 -1       251 3.16865E+00-5.16732E+00 1.70000E+00
 -1       252 2.72980E+00-5.34909E+00 3.49999E-01
 -1       253 2.65016E+00-8.88051E+00 3.49999E-01
 -1       254 4.40553E+00-8.15341E+00 1.70000E+00
 -1       255 3.16865E+00-5.16732E+00 3.49999E-01
 -1       256 2.19566E+00-1.52391E+00 1.70000E+00
 -1       257 7.19035E+00-5.84685E+00 1.70000E+00
 -1       258 6.85448E+00-6.18273E+00 1.70000E+00
 -1       259 4.56902E+00-3.89727E+00 1.70000E+00
 -1       260 8.55608E+00-9.22784E+00 1.70000E+00
 -1       261 9.22784E+00-8.55608E+00 3.49999E-01
 -1       262 9.22784E+00-8.55608E+00 1.70000E+00
 -1       263 1.52391E+00-2.19566E+00 1.70000E+00
 -1       264 3.89727E+00-4.56902E+00 1.70000E+00
 -1       265 8.55608E+00-9.22784E+00 3.49999E-01
 -1       266 6.18273E+00-6.85448E+00 1.70000E+00
 -1       267 3.89727E+00-4.56902E+00 3.49999E-01
 -1       268 3.56139E+00-4.90489E+00 3.49999E-01
 -1       269 4.90489E+00-3.56139E+00 3.49999E-01
 -1       270 4.90489E+00-3.56139E+00 1.70000E+00
 -1       271 5.84685E+00-7.19035E+00 1.70000E+00
 -1       272 7.19035E+00-5.84685E+00 3.49999E-01
 -1       273 6.85448E+00-6.18273E+00 3.49999E-01
 -1       274 3.56139E+00-4.90489E+00 1.70000E+00
 -1       275 2.61170E+00-5.67665E-01 1.70000E+00
 -1       276 2.24815E+00-1.44535E+00 1.70000E+00
 -1       277 5.71264E+00-1.85212E+00 1.70000E+00
 -1       278 5.16732E+00-3.16865E+00 1.70000E+00
 -1       279 1.17997E+01-4.37345E+00 1.70000E+00
 -1       280 1.14361E+01-5.25114E+00 1.70000E+00
 -1       281 1.14361E+01-5.25114E+00 3.49999E-01
 -1       282 1.17997E+01-4.37345E+00 3.49999E-01
 -1       283 8.69874E+00-3.08900E+00 1.70000E+00
 -1       284 5.71264E+00-1.85212E+00 3.49999E-01
 -1       285 5.34909E+00-2.72980E+00 1.70000E+00
 -1       286 8.33519E+00-3.96668E+00 1.70000E+00
 -1       287 8.33519E+00-3.96668E+00 3.49999E-01
 -1       288 8.15341E+00-4.40553E+00 1.70000E+00
 -1       289 8.88051E+00-2.65016E+00 1.70000E+00
 -1       290 8.69874E+00-3.08900E+00 3.49999E-01
 -1       291 5.16732E+00-3.16865E+00 3.49999E-01
 -1       292 8.88051E+00-2.65016E+00 3.49999E-01
 -1       293 5.89442E+00-1.41328E+00 1.70000E+00
 -1       294 1.66733E+01 3.31653E+00-3.49999E-01
 -1       295 1.70000E+01 0.00000E+00-3.49999E-01
 -1       296-1.66733E+01 3.31653E+00 3.49999E-01
 -1       297 3.31653E+00 1.66733E+01-3.49999E-01
 -1       298 1.41350E+01 9.44469E+00 3.49999E-01
 -1       299 1.41350E+01 9.44469E+00-3.49999E-01
 -1       300-9.44469E+00 1.41350E+01-3.49999E-01
 -1       301 1.57060E+01 6.50562E+00-3.49999E-01
 -1       302 1.20208E+01-1.20208E+01-3.49999E-01
 -1       303 9.44469E+00-1.41350E+01-3.49999E-01
 -1       304 1.20208E+01 1.20208E+01-3.49999E-01
 -1       305 9.44469E+00 1.41350E+01-3.49999E-01
 -1       306 6.50562E+00 1.57060E+01-3.49999E-01
 -1       307-3.31653E+00-1.66733E+01-3.49999E-01
 -1       308-6.50562E+00 1.57060E+01-3.49999E-01
 -1       309-1.20208E+01-1.20208E+01-3.49999E-01
 -1       310-9.44469E+00-1.41350E+01-3.49999E-01
 -1       311-1.20208E+01 1.20208E+01-3.49999E-01
 -1       312-1.41350E+01 9.44469E+00-3.49999E-01
 -1       313-1.41350E+01-9.44469E+00-3.49999E-01
 -1       314-1.57060E+01 6.50562E+00-3.49999E-01
 -1       315-1.66733E+01-3.31653E+00-3.49999E-01
 -1       316-1.66733E+01 3.31653E+00-3.49999E-01
 -1       317 1.57060E+01 6.50562E+00 3.49999E-01
 -1       318 3.31653E+00 1.66733E+01 3.49999E-01
 -1       319-1.41350E+01 9.44469E+00 3.49999E-01
 -1       320-8.69874E+00 3.08900E+00 3.49999E-01
 -1       321-9.21869E+00 9.50000E-01 3.49999E-01
 -1       322-1.57060E+01 6.50562E+00 3.49999E-01
 -1       323-8.88051E+00-2.65016E+00 3.49999E-01
 -1       324-9.21869E+00-9.50000E-01 3.49999E-01
 -1       325-1.66733E+01-3.31653E+00 3.49999E-01
 -1       326-1.41350E+01-9.44469E+00 3.49999E-01
 -1       327-1.20208E+01-1.20208E+01 3.49999E-01
 -1       328-1.17997E+01-4.37345E+00 3.49999E-01
 -1       329-1.25751E+01 4.74999E-01 3.49999E-01
 -1       330-1.70000E+01 0.00000E+00 3.49999E-01
 -1       331-1.20208E+01 1.20208E+01 3.49999E-01
 -1       332-8.15341E+00-4.40553E+00 3.49999E-01
 -1       333-1.14361E+01-5.25114E+00 3.49999E-01
 -1       334-3.96668E+00-8.33519E+00 3.49999E-01
 -1       335-5.25114E+00 1.14361E+01 3.49999E-01
 -1       336-4.40553E+00 8.15341E+00 3.49999E-01
 -1       337-3.56139E+00 4.90489E+00 3.49999E-01
 -1       338-2.61170E+00-5.67665E-01 3.49999E-01
 -1       339-2.61170E+00 5.67665E-01 3.49999E-01
 -1       340-5.89442E+00 1.41328E+00 3.49999E-01
 -1       341-5.98657E+00 9.50000E-01 3.49999E-01
 -1       342-5.98657E+00 4.74999E-01 3.49999E-01
 -1       343-2.19566E+00 1.52391E+00 3.49999E-01
 -1       344-4.90489E+00 3.56139E+00 3.49999E-01
 -1       345-2.24815E+00 1.44535E+00 3.49999E-01
 -1       346-5.16732E+00 3.16865E+00 3.49999E-01
 -1       347-3.16865E+00 5.16732E+00 3.49999E-01
 -1       348-1.52391E+00 2.19566E+00 3.49999E-01
 -1       349-4.74999E-01-2.63013E+00 3.49999E-01
 -1       350-4.74999E-01-5.98657E+00 3.49999E-01
 -1       351-1.44535E+00-2.24815E+00 3.49999E-01
 -1       352-2.19566E+00-1.52391E+00 3.49999E-01
 -1       353-4.56902E+00-3.89727E+00 3.49999E-01
 -1       354-2.63013E+00 4.74999E-01 3.49999E-01
 -1       355-5.98657E+00-4.74999E-01 3.49999E-01
 -1       356-4.40553E+00-8.15341E+00 3.49999E-01
 -1       357-5.84685E+00-7.19035E+00 3.49999E-01
 -1       358-4.74999E-01-9.21869E+00 3.49999E-01
 -1       359-5.67665E-01 2.61170E+00 3.49999E-01
 -1       360-1.41328E+00 5.89442E+00 3.49999E-01
 -1       361 5.67665E-01 2.61170E+00 3.49999E-01
 -1       362 4.74999E-01-2.63013E+00 3.49999E-01
 -1       363 4.74999E-01 2.63013E+00 3.49999E-01
 -1       364 5.67665E-01-2.61170E+00 3.49999E-01
 -1       365 4.74999E-01-5.98657E+00 3.49999E-01
 -1       366 1.41328E+00 5.89442E+00 3.49999E-01
 -1       367 5.34909E+00-2.72980E+00 3.49999E-01
 -1       368 2.19566E+00-1.52391E+00 3.49999E-01
 -1       369 4.56902E+00-3.89727E+00 3.49999E-01
 -1       370 1.52391E+00 2.19566E+00 3.49999E-01
 -1       371 4.40553E+00-8.15341E+00 3.49999E-01
 -1       372 2.72980E+00 5.34909E+00 3.49999E-01
 -1       373 5.84685E+00-7.19035E+00 3.49999E-01
 -1       374 5.89442E+00-1.41328E+00 3.49999E-01
 -1       375 2.61170E+00-5.67665E-01 3.49999E-01
 -1       376 2.24815E+00-1.44535E+00 3.49999E-01
 -1       377 5.98657E+00-9.50000E-01 3.49999E-01
 -1       378 8.55608E+00 9.22784E+00 3.49999E-01
 -1       379 9.44469E+00 1.41350E+01 3.49999E-01
 -1       380 5.25114E+00 1.14361E+01 3.49999E-01
 -1       381 6.50562E+00 1.57060E+01 3.49999E-01
 -1       382 4.74999E-01 1.25751E+01 3.49999E-01
 -1       383 2.65016E+00 8.88051E+00 3.49999E-01
 -1       384-4.74999E-01 9.21869E+00 3.49999E-01
 -1       385-9.50000E-01 9.21869E+00 3.49999E-01
 -1       386-6.50562E+00 1.57060E+01 3.49999E-01
 -1       387-4.37345E+00 1.17997E+01 3.49999E-01
 -1       388-3.31653E+00 1.66733E+01 3.49999E-01
 -1       389-8.55608E+00 9.22784E+00 3.49999E-01
 -1       390-9.44469E+00 1.41350E+01 3.49999E-01
 -1       391 1.20208E+01 1.20208E+01 3.49999E-01
 -1       392 9.22784E+00 8.55608E+00 3.49999E-01
 -1       393 7.19035E+00 5.84685E+00 3.49999E-01
 -1       394 6.85448E+00 6.18273E+00 3.49999E-01
 -1       395 1.66733E+01 3.31653E+00 3.49999E-01
 -1       396 1.17997E+01 4.37345E+00 3.49999E-01
 -1       397 1.70000E+01 0.00000E+00 3.49999E-01
 -1       398 1.25751E+01-4.74999E-01 3.49999E-01
 -1       399 1.57060E+01-6.50562E+00 3.49999E-01
 -1       400 9.21869E+00-9.50000E-01 3.49999E-01
 -1       401 1.20208E+01-1.20208E+01 3.49999E-01
 -1       402 8.15341E+00-4.40553E+00 3.49999E-01
 -1       403 9.44469E+00-1.41350E+01 3.49999E-01
 -1       404 6.18273E+00-6.85448E+00 3.49999E-01
 -1       405 5.25114E+00-1.14361E+01 3.49999E-01
 -1       406 6.50562E+00-1.57060E+01 3.49999E-01
 -1       407 3.08900E+00-8.69874E+00 3.49999E-01
 -1       408 4.74999E-01-1.25751E+01 3.49999E-01
 -1       409 9.50000E-01-9.21869E+00 3.49999E-01
 -1       410 4.74999E-01-9.21869E+00 3.49999E-01
 -1       411 3.31653E+00-1.66733E+01 3.49999E-01
 -1       412-9.50000E-01-9.21869E+00 3.49999E-01
 -1       413-4.37345E+00-1.17997E+01 3.49999E-01
 -1       414-3.08900E+00-8.69874E+00 3.49999E-01
 -1       415-4.74999E-01-1.25751E+01 3.49999E-01
 -1       416-3.31653E+00-1.66733E+01 3.49999E-01
 -1       417-6.18273E+00-6.85448E+00 3.49999E-01
 -1       418 9.21869E+00 9.50000E-01 3.49999E-01
 -1       419 8.88051E+00 2.65016E+00 3.49999E-01
 -1       420 5.98657E+00 9.50000E-01 3.49999E-01
 -1       421 2.61170E+00 5.67665E-01 3.49999E-01
 -1       422 2.63013E+00 4.74999E-01 3.49999E-01
 -1       423 5.16732E+00 3.16865E+00 3.49999E-01
 -1       424 3.56139E+00 4.90489E+00 3.49999E-01
 -1       425 4.40553E+00 8.15341E+00 3.49999E-01
 -1       426 2.19566E+00 1.52391E+00 3.49999E-01
 -1       427 4.56902E+00 3.89727E+00 3.49999E-01
 -1       428 2.24815E+00 1.44535E+00 3.49999E-01
 -1       429 1.52391E+00-2.19566E+00 3.49999E-01
 -1       430 1.44535E+00-2.24815E+00 3.49999E-01
 -1       431 0.00000E+00 1.70000E+01-3.49999E-01
 -1       432 0.00000E+00 1.70000E+01 3.49999E-01
 -1       433-3.31653E+00 1.66733E+01-3.49999E-01
 -1       434 1.66733E+01-3.31653E+00 3.49999E-01
 -1       435-1.70000E+01 0.00000E+00-3.49999E-01
 -1       436 0.00000E+00-1.70000E+01-3.49999E-01
 -1       437 6.50562E+00-1.57060E+01-3.49999E-01
 -1       438 1.66733E+01-3.31653E+00-3.49999E-01
 -1       439 1.57060E+01-6.50562E+00-3.49999E-01
 -1       440 1.41350E+01-9.44469E+00 3.49999E-01
 -1       441 1.41350E+01-9.44469E+00-3.49999E-01
 -1       442-6.50562E+00-1.57060E+01 3.49999E-01
 -1       443-9.44469E+00-1.41350E+01 3.49999E-01
 -1       444-6.50562E+00-1.57060E+01-3.49999E-01
 -1       445 0.00000E+00-1.70000E+01 3.49999E-01
 -1       446-1.57060E+01-6.50562E+00-3.49999E-01
 -1       447-1.57060E+01-6.50562E+00 3.49999E-01
 -1       448 3.31653E+00-1.66733E+01-3.49999E-01
 -1       449 2.63013E+00 4.74999E-01 1.02500E+00
 -1       450 2.63013E+00-4.74999E-01 1.02500E+00
 -1       451 4.30835E+00 4.74999E-01 1.70000E+00
 -1       452 4.30835E+00-4.74999E-01 1.70000E+00
 -1       453 7.60263E+00 9.50000E-01 1.70000E+00
 -1       454 7.60263E+00-9.50000E-01 1.70000E+00
 -1       455 1.08969E+01 4.74999E-01 1.70000E+00
 -1       456 1.08969E+01-4.74999E-01 1.70000E+00
 -1       457 1.25751E+01 4.74999E-01 1.02500E+00
 -1       458 1.25751E+01-4.74999E-01 1.02500E+00
 -1       459 1.08969E+01 4.74999E-01 3.49999E-01
 -1       460 9.21869E+00 4.74999E-01 1.02500E+00
 -1       461 5.98657E+00 4.74999E-01 1.02500E+00
 -1       462 4.30835E+00 4.74999E-01 3.49999E-01
 -1       463 4.30835E+00-4.74999E-01 3.49999E-01
 -1       464 5.98657E+00-4.74999E-01 1.02500E+00
 -1       465 9.21869E+00-4.74999E-01 1.02500E+00
 -1       466 1.08969E+01-4.74999E-01 3.49999E-01
 -1       467 5.98657E+00-9.50000E-01 1.02500E+00
 -1       468 5.98657E+00 9.50000E-01 1.02500E+00
 -1       469 9.21869E+00-9.50000E-01 1.02500E+00
 -1       470 9.21869E+00 9.50000E-01 1.02500E+00
 -1       471 7.60263E+00-9.50000E-01 3.49999E-01
 -1       472 7.60263E+00 9.50000E-01 3.49999E-01
 -1       473 2.24815E+00 1.44535E+00 1.02500E+00
 -1       474 2.61170E+00 5.67665E-01 1.02500E+00
 -1       475 1.02492E+01 3.73123E+00 1.70000E+00
 -1       476 9.88564E+00 4.60891E+00 1.70000E+00
 -1       477 7.38747E+00 2.03172E+00 1.70000E+00
 -1       478 6.66037E+00 3.78709E+00 1.70000E+00
 -1       479 4.16217E+00 1.20989E+00 1.70000E+00
 -1       480 3.79862E+00 2.08757E+00 1.70000E+00
 -1       481 1.14361E+01 5.25114E+00 1.02500E+00
 -1       482 1.17997E+01 4.37345E+00 1.02500E+00
 -1       483 9.88564E+00 4.60891E+00 3.49999E-01
 -1       484 8.33519E+00 3.96668E+00 1.02500E+00
 -1       485 5.34909E+00 2.72980E+00 1.02500E+00
 -1       486 3.79862E+00 2.08757E+00 3.49999E-01
 -1       487 4.16217E+00 1.20989E+00 3.49999E-01
 -1       488 5.71264E+00 1.85212E+00 1.02500E+00
 -1       489 8.69874E+00 3.08900E+00 1.02500E+00
 -1       490 1.02492E+01 3.73123E+00 3.49999E-01
 -1       491 5.89442E+00 1.41328E+00 1.02500E+00
 -1       492 5.16732E+00 3.16865E+00 1.02500E+00
 -1       493 8.88051E+00 2.65016E+00 1.02500E+00
 -1       494 8.15341E+00 4.40553E+00 1.02500E+00
 -1       495 7.38747E+00 2.03172E+00 3.49999E-01
 -1       496 6.66037E+00 3.78709E+00 3.49999E-01
 -1       497 1.52391E+00 2.19566E+00 1.02500E+00
 -1       498 2.19566E+00 1.52391E+00 1.02500E+00
 -1       499 8.04116E+00 7.36940E+00 1.70000E+00
 -1       500 7.36940E+00 8.04116E+00 1.70000E+00
 -1       501 6.04762E+00 4.70412E+00 1.70000E+00
 -1       502 4.70412E+00 6.04762E+00 1.70000E+00
 -1       503 3.38234E+00 2.71059E+00 1.70000E+00
 -1       504 2.71059E+00 3.38234E+00 1.70000E+00
 -1       505 8.55608E+00 9.22784E+00 1.02500E+00
 -1       506 9.22784E+00 8.55608E+00 1.02500E+00
 -1       507 7.36940E+00 8.04116E+00 3.49999E-01
 -1       508 6.18273E+00 6.85448E+00 1.02500E+00
 -1       509 3.89727E+00 4.56902E+00 1.02500E+00
 -1       510 2.71059E+00 3.38234E+00 3.49999E-01
 -1       511 4.56902E+00 3.89727E+00 1.02500E+00
 -1       512 3.38234E+00 2.71059E+00 3.49999E-01
 -1       513 6.85448E+00 6.18273E+00 1.02500E+00
 -1       514 8.04116E+00 7.36940E+00 3.49999E-01
 -1       515 4.90489E+00 3.56139E+00 1.02500E+00
 -1       516 3.56139E+00 4.90489E+00 1.02500E+00
 -1       517 7.19035E+00 5.84685E+00 1.02500E+00
 -1       518 5.84685E+00 7.19035E+00 1.02500E+00
 -1       519 6.04762E+00 4.70412E+00 3.49999E-01
 -1       520 4.70412E+00 6.04762E+00 3.49999E-01
 -1       521 5.67665E-01 2.61170E+00 1.02500E+00
 -1       522 1.44535E+00 2.24815E+00 1.02500E+00
 -1       523 2.03172E+00 7.38747E+00 1.70000E+00
 -1       524 4.60891E+00 9.88564E+00 1.70000E+00
 -1       525 3.73123E+00 1.02492E+01 1.70000E+00
 -1       526 2.08757E+00 3.79862E+00 1.70000E+00
 -1       527 1.20989E+00 4.16217E+00 1.70000E+00
 -1       528 3.78709E+00 6.66037E+00 1.70000E+00
 -1       529 5.25114E+00 1.14361E+01 1.02500E+00
 -1       530 4.37345E+00 1.17997E+01 1.02500E+00
 -1       531 3.73123E+00 1.02492E+01 3.49999E-01
 -1       532 3.08900E+00 8.69874E+00 1.02500E+00
 -1       533 1.85212E+00 5.71264E+00 1.02500E+00
 -1       534 1.20989E+00 4.16217E+00 3.49999E-01
 -1       535 2.72980E+00 5.34909E+00 1.02500E+00
 -1       536 2.08757E+00 3.79862E+00 3.49999E-01
 -1       537 3.96668E+00 8.33519E+00 1.02500E+00
 -1       538 4.60891E+00 9.88564E+00 3.49999E-01
 -1       539 3.16865E+00 5.16732E+00 1.02500E+00
 -1       540 1.41328E+00 5.89442E+00 1.02500E+00
 -1       541 4.40553E+00 8.15341E+00 1.02500E+00
 -1       542 2.65016E+00 8.88051E+00 1.02500E+00
 -1       543 3.78709E+00 6.66037E+00 3.49999E-01
 -1       544 2.03172E+00 7.38747E+00 3.49999E-01
 -1       545-4.74999E-01 2.63013E+00 1.02500E+00
 -1       546 4.74999E-01 2.63013E+00 1.02500E+00
 -1       547-9.50000E-01 7.60263E+00 1.70000E+00
 -1       548 4.74999E-01 1.08969E+01 1.70000E+00
 -1       549-4.74999E-01 1.08969E+01 1.70000E+00
 -1       550 4.74999E-01 4.30835E+00 1.70000E+00
 -1       551-4.74999E-01 4.30835E+00 1.70000E+00
 -1       552 9.50000E-01 7.60263E+00 1.70000E+00
 -1       553 4.74999E-01 1.25751E+01 1.02500E+00
 -1       554-4.74999E-01 1.25751E+01 1.02500E+00
 -1       555-4.74999E-01 1.08969E+01 3.49999E-01
 -1       556-4.74999E-01 9.21869E+00 1.02500E+00
 -1       557-4.74999E-01 5.98657E+00 1.02500E+00
 -1       558-4.74999E-01 4.30835E+00 3.49999E-01
 -1       559 4.74999E-01 5.98657E+00 1.02500E+00
 -1       560 4.74999E-01 4.30835E+00 3.49999E-01
 -1       561 4.74999E-01 9.21869E+00 1.02500E+00
 -1       562 4.74999E-01 1.08969E+01 3.49999E-01
 -1       563 9.50000E-01 5.98657E+00 1.02500E+00
 -1       564-9.50000E-01 5.98657E+00 1.02500E+00
 -1       565 9.50000E-01 9.21869E+00 1.02500E+00
 -1       566-9.50000E-01 9.21869E+00 1.02500E+00
 -1       567 9.50000E-01 7.60263E+00 3.49999E-01
 -1       568-9.50000E-01 7.60263E+00 3.49999E-01
 -1       569-1.44535E+00 2.24815E+00 1.02500E+00
 -1       570-5.67665E-01 2.61170E+00 1.02500E+00
 -1       571-2.03172E+00 7.38747E+00 1.70000E+00
 -1       572-1.20989E+00 4.16217E+00 1.70000E+00
 -1       573-2.08757E+00 3.79862E+00 1.70000E+00
 -1       574-3.73123E+00 1.02492E+01 1.70000E+00
 -1       575-4.60891E+00 9.88564E+00 1.70000E+00
 -1       576-3.78709E+00 6.66037E+00 1.70000E+00
 -1       577-4.37345E+00 1.17997E+01 1.02500E+00
 -1       578-5.25114E+00 1.14361E+01 1.02500E+00
 -1       579-4.60891E+00 9.88564E+00 3.49999E-01
 -1       580-3.96668E+00 8.33519E+00 1.02500E+00
 -1       581-2.72980E+00 5.34909E+00 1.02500E+00
 -1       582-2.08757E+00 3.79862E+00 3.49999E-01
 -1       583-1.85212E+00 5.71264E+00 1.02500E+00
 -1       584-1.20989E+00 4.16217E+00 3.49999E-01
 -1       585-3.08900E+00 8.69874E+00 1.02500E+00
 -1       586-3.73123E+00 1.02492E+01 3.49999E-01
 -1       587-1.41328E+00 5.89442E+00 1.02500E+00
 -1       588-3.16865E+00 5.16732E+00 1.02500E+00
 -1       589-2.65016E+00 8.88051E+00 1.02500E+00
 -1       590-4.40553E+00 8.15341E+00 1.02500E+00
 -1       591-2.03172E+00 7.38747E+00 3.49999E-01
 -1       592-3.78709E+00 6.66037E+00 3.49999E-01
 -1       593-1.52391E+00 2.19566E+00 1.02500E+00
 -1       594-2.19566E+00 1.52391E+00 1.02500E+00
 -1       595-7.36940E+00 8.04116E+00 1.70000E+00
 -1       596-8.04116E+00 7.36940E+00 1.70000E+00
 -1       597-4.70412E+00 6.04762E+00 1.70000E+00
 -1       598-6.04762E+00 4.70412E+00 1.70000E+00
 -1       599-2.71059E+00 3.38234E+00 1.70000E+00
 -1       600-3.38234E+00 2.71059E+00 1.70000E+00
 -1       601-8.55608E+00 9.22784E+00 1.02500E+00
 -1       602-9.22784E+00 8.55608E+00 1.02500E+00
 -1       603-8.04116E+00 7.36940E+00 3.49999E-01
 -1       604-6.85448E+00 6.18273E+00 1.02500E+00
 -1       605-4.56902E+00 3.89727E+00 1.02500E+00
 -1       606-3.38234E+00 2.71059E+00 3.49999E-01
 -1       607-3.89727E+00 4.56902E+00 1.02500E+00
 -1       608-2.71059E+00 3.38234E+00 3.49999E-01
 -1       609-6.18273E+00 6.85448E+00 1.02500E+00
 -1       610-7.36940E+00 8.04116E+00 3.49999E-01
 -1       611-3.56139E+00 4.90489E+00 1.02500E+00
 -1       612-4.90489E+00 3.56139E+00 1.02500E+00
 -1       613-5.84685E+00 7.19035E+00 1.02500E+00
 -1       614-7.19035E+00 5.84685E+00 1.02500E+00
 -1       615-4.70412E+00 6.04762E+00 3.49999E-01
 -1       616-6.04762E+00 4.70412E+00 3.49999E-01
 -1       617-2.24815E+00 1.44535E+00 1.02500E+00
 -1       618-2.61170E+00 5.67665E-01 1.02500E+00
 -1       619-9.88564E+00 4.60891E+00 1.70000E+00
 -1       620-1.02492E+01 3.73123E+00 1.70000E+00
 -1       621-6.66037E+00 3.78709E+00 1.70000E+00
 -1       622-7.38747E+00 2.03172E+00 1.70000E+00
 -1       623-3.79862E+00 2.08757E+00 1.70000E+00
 -1       624-4.16217E+00 1.20989E+00 1.70000E+00
 -1       625-1.14361E+01 5.25114E+00 1.02500E+00
 -1       626-1.17997E+01 4.37345E+00 1.02500E+00
 -1       627-1.02492E+01 3.73123E+00 3.49999E-01
 -1       628-8.69874E+00 3.08900E+00 1.02500E+00
 -1       629-5.71264E+00 1.85212E+00 1.02500E+00
 -1       630-4.16217E+00 1.20989E+00 3.49999E-01
 -1       631-3.79862E+00 2.08757E+00 3.49999E-01
 -1       632-5.34909E+00 2.72980E+00 1.02500E+00
 -1       633-8.33519E+00 3.96668E+00 1.02500E+00
 -1       634-9.88564E+00 4.60891E+00 3.49999E-01
 -1       635-5.16732E+00 3.16865E+00 1.02500E+00
 -1       636-5.89442E+00 1.41328E+00 1.02500E+00
 -1       637-8.15341E+00 4.40553E+00 1.02500E+00
 -1       638-8.88051E+00 2.65016E+00 1.02500E+00
 -1       639-6.66037E+00 3.78709E+00 3.49999E-01
 -1       640-7.38747E+00 2.03172E+00 3.49999E-01
 -1       641-2.63013E+00 4.74999E-01 1.02500E+00
 -1       642-2.63013E+00-4.74999E-01 1.02500E+00
 -1       643-1.08969E+01 4.74999E-01 1.70000E+00
 -1       644-1.08969E+01-4.74999E-01 1.70000E+00
 -1       645-7.60263E+00 9.50000E-01 1.70000E+00
 -1       646-7.60263E+00-9.50000E-01 1.70000E+00
 -1       647-4.30835E+00 4.74999E-01 1.70000E+00
 -1       648-4.30835E+00-4.74999E-01 1.70000E+00
 -1       649-1.25751E+01 4.74999E-01 1.02500E+00
 -1       650-1.25751E+01-4.74999E-01 1.02500E+00
 -1       651-1.08969E+01-4.74999E-01 3.49999E-01
 -1       652-9.21869E+00-4.74999E-01 1.02500E+00
 -1       653-5.98657E+00-4.74999E-01 1.02500E+00
 -1       654-4.30835E+00-4.74999E-01 3.49999E-01
 -1       655-4.30835E+00 4.74999E-01 3.49999E-01
 -1       656-5.98657E+00 4.74999E-01 1.02500E+00
 -1       657-9.21869E+00 4.74999E-01 1.02500E+00
 -1       658-1.08969E+01 4.74999E-01 3.49999E-01
 -1       659-5.98657E+00 9.50000E-01 1.02500E+00
 -1       660-5.98657E+00-9.50000E-01 1.02500E+00
 -1       661-9.21869E+00 9.50000E-01 1.02500E+00
 -1       662-9.21869E+00-9.50000E-01 1.02500E+00
 -1       663-7.60263E+00 9.50000E-01 3.49999E-01
 -1       664-7.60263E+00-9.50000E-01 3.49999E-01
 -1       665-2.61170E+00-5.67665E-01 1.02500E+00
 -1       666-2.24815E+00-1.44535E+00 1.02500E+00
 -1       667-3.79862E+00-2.08757E+00 1.70000E+00
 -1       668-4.16217E+00-1.20989E+00 1.70000E+00
 -1       669-6.66037E+00-3.78709E+00 1.70000E+00
 -1       670-7.38747E+00-2.03172E+00 1.70000E+00
 -1       671-9.88564E+00-4.60891E+00 1.70000E+00
 -1       672-1.02492E+01-3.73123E+00 1.70000E+00
 -1       673-1.17997E+01-4.37345E+00 1.02500E+00
 -1       674-1.14361E+01-5.25114E+00 1.02500E+00
 -1       675-9.88564E+00-4.60891E+00 3.49999E-01
 -1       676-8.33519E+00-3.96668E+00 1.02500E+00
 -1       677-5.34909E+00-2.72980E+00 1.02500E+00
 -1       678-3.79862E+00-2.08757E+00 3.49999E-01
 -1       679-4.16217E+00-1.20989E+00 3.49999E-01
 -1       680-5.71264E+00-1.85212E+00 1.02500E+00
 -1       681-8.69874E+00-3.08900E+00 1.02500E+00
 -1       682-1.02492E+01-3.73123E+00 3.49999E-01
 -1       683-5.89442E+00-1.41328E+00 1.02500E+00
 -1       684-5.16732E+00-3.16865E+00 1.02500E+00
 -1       685-8.88051E+00-2.65016E+00 1.02500E+00
 -1       686-8.15341E+00-4.40553E+00 1.02500E+00
 -1       687-7.38747E+00-2.03172E+00 3.49999E-01
 -1       688-6.66037E+00-3.78709E+00 3.49999E-01
 -1       689-2.19566E+00-1.52391E+00 1.02500E+00
 -1       690-1.52391E+00-2.19566E+00 1.02500E+00
 -1       691-2.71059E+00-3.38234E+00 1.70000E+00
 -1       692-3.38234E+00-2.71059E+00 1.70000E+00
 -1       693-4.70412E+00-6.04762E+00 1.70000E+00
 -1       694-6.04762E+00-4.70412E+00 1.70000E+00
 -1       695-7.36940E+00-8.04116E+00 1.70000E+00
 -1       696-8.04116E+00-7.36940E+00 1.70000E+00
 -1       697-9.22784E+00-8.55608E+00 1.02500E+00
 -1       698-8.55608E+00-9.22784E+00 1.02500E+00
 -1       699-6.18273E+00-6.85448E+00 1.02500E+00
 -1       700-7.36940E+00-8.04116E+00 3.49999E-01
 -1       701-3.89727E+00-4.56902E+00 1.02500E+00
 -1       702-2.71059E+00-3.38234E+00 3.49999E-01
 -1       703-3.38234E+00-2.71059E+00 3.49999E-01
 -1       704-4.56902E+00-3.89727E+00 1.02500E+00
 -1       705-6.85448E+00-6.18273E+00 1.02500E+00
 -1       706-8.04116E+00-7.36940E+00 3.49999E-01
 -1       707-4.90489E+00-3.56139E+00 1.02500E+00
 -1       708-3.56139E+00-4.90489E+00 1.02500E+00
 -1       709-7.19035E+00-5.84685E+00 1.02500E+00
 -1       710-5.84685E+00-7.19035E+00 1.02500E+00
 -1       711-6.04762E+00-4.70412E+00 3.49999E-01
 -1       712-4.70412E+00-6.04762E+00 3.49999E-01
 -1       713-5.67665E-01-2.61170E+00 1.02500E+00
 -1       714-1.44535E+00-2.24815E+00 1.02500E+00
 -1       715-3.78709E+00-6.66037E+00 1.70000E+00
 -1       716-1.20989E+00-4.16217E+00 1.70000E+00
 -1       717-2.08757E+00-3.79862E+00 1.70000E+00
 -1       718-3.73123E+00-1.02492E+01 1.70000E+00
 -1       719-4.60891E+00-9.88564E+00 1.70000E+00
 -1       720-2.03172E+00-7.38747E+00 1.70000E+00
 -1       721-5.25114E+00-1.14361E+01 1.02500E+00
 -1       722-4.37345E+00-1.17997E+01 1.02500E+00
 -1       723-3.08900E+00-8.69874E+00 1.02500E+00
 -1       724-3.73123E+00-1.02492E+01 3.49999E-01
 -1       725-1.85212E+00-5.71264E+00 1.02500E+00
 -1       726-1.20989E+00-4.16217E+00 3.49999E-01
 -1       727-2.08757E+00-3.79862E+00 3.49999E-01
 -1       728-2.72980E+00-5.34909E+00 1.02500E+00
 -1       729-3.96668E+00-8.33519E+00 1.02500E+00
 -1       730-4.60891E+00-9.88564E+00 3.49999E-01
 -1       731-3.16865E+00-5.16732E+00 1.02500E+00
 -1       732-1.41328E+00-5.89442E+00 1.02500E+00
 -1       733-4.40553E+00-8.15341E+00 1.02500E+00
 -1       734-2.65016E+00-8.88051E+00 1.02500E+00
 -1       735-3.78709E+00-6.66037E+00 3.49999E-01
 -1       736-2.03172E+00-7.38747E+00 3.49999E-01
 -1       737 4.74999E-01-2.63013E+00 1.02500E+00
 -1       738-4.74999E-01-2.63013E+00 1.02500E+00
 -1       739-9.50000E-01-7.60263E+00 1.70000E+00
 -1       740 4.74999E-01-4.30835E+00 1.70000E+00
 -1       741-4.74999E-01-4.30835E+00 1.70000E+00
 -1       742 4.74999E-01-1.08969E+01 1.70000E+00
 -1       743-4.74999E-01-1.08969E+01 1.70000E+00
 -1       744 9.50000E-01-7.60263E+00 1.70000E+00
 -1       745-4.74999E-01-1.25751E+01 1.02500E+00
 -1       746 4.74999E-01-1.25751E+01 1.02500E+00
 -1       747 4.74999E-01-9.21869E+00 1.02500E+00
 -1       748 4.74999E-01-1.08969E+01 3.49999E-01
 -1       749 4.74999E-01-5.98657E+00 1.02500E+00
 -1       750 4.74999E-01-4.30835E+00 3.49999E-01
 -1       751-4.74999E-01-4.30835E+00 3.49999E-01
 -1       752-4.74999E-01-5.98657E+00 1.02500E+00
 -1       753-4.74999E-01-9.21869E+00 1.02500E+00
 -1       754-4.74999E-01-1.08969E+01 3.49999E-01
 -1       755-9.50000E-01-5.98657E+00 1.02500E+00
 -1       756 9.50000E-01-5.98657E+00 1.02500E+00
 -1       757-9.50000E-01-9.21869E+00 1.02500E+00
 -1       758 9.50000E-01-9.21869E+00 1.02500E+00
 -1       759-9.50000E-01-7.60263E+00 3.49999E-01
 -1       760 9.50000E-01-7.60263E+00 3.49999E-01
 -1       761 1.44535E+00-2.24815E+00 1.02500E+00
 -1       762 5.67665E-01-2.61170E+00 1.02500E+00
 -1       763 3.78709E+00-6.66037E+00 1.70000E+00
 -1       764 4.60891E+00-9.88564E+00 1.70000E+00
 -1       765 3.73123E+00-1.02492E+01 1.70000E+00
 -1       766 2.08757E+00-3.79862E+00 1.70000E+00
 -1       767 1.20989E+00-4.16217E+00 1.70000E+00
 -1       768 2.03172E+00-7.38747E+00 1.70000E+00
 -1       769 4.37345E+00-1.17997E+01 1.02500E+00
 -1       770 5.25114E+00-1.14361E+01 1.02500E+00
 -1       771 3.96668E+00-8.33519E+00 1.02500E+00
 -1       772 4.60891E+00-9.88564E+00 3.49999E-01
 -1       773 2.72980E+00-5.34909E+00 1.02500E+00
 -1       774 2.08757E+00-3.79862E+00 3.49999E-01
 -1       775 1.20989E+00-4.16217E+00 3.49999E-01
 -1       776 1.85212E+00-5.71264E+00 1.02500E+00
 -1       777 3.08900E+00-8.69874E+00 1.02500E+00
 -1       778 3.73123E+00-1.02492E+01 3.49999E-01
 -1       779 1.41328E+00-5.89442E+00 1.02500E+00
 -1       780 3.16865E+00-5.16732E+00 1.02500E+00
 -1       781 2.65016E+00-8.88051E+00 1.02500E+00
 -1       782 4.40553E+00-8.15341E+00 1.02500E+00
 -1       783 2.03172E+00-7.38747E+00 3.49999E-01
 -1       784 3.78709E+00-6.66037E+00 3.49999E-01
 -1       785 2.19566E+00-1.52391E+00 1.02500E+00
 -1       786 1.52391E+00-2.19566E+00 1.02500E+00
 -1       787 3.38234E+00-2.71059E+00 1.70000E+00
 -1       788 2.71059E+00-3.38234E+00 1.70000E+00
 -1       789 6.04762E+00-4.70412E+00 1.70000E+00
 -1       790 4.70412E+00-6.04762E+00 1.70000E+00
 -1       791 8.04116E+00-7.36940E+00 1.70000E+00
 -1       792 7.36940E+00-8.04116E+00 1.70000E+00
 -1       793 9.22784E+00-8.55608E+00 1.02500E+00
 -1       794 8.55608E+00-9.22784E+00 1.02500E+00
 -1       795 8.04116E+00-7.36940E+00 3.49999E-01
 -1       796 6.85448E+00-6.18273E+00 1.02500E+00
 -1       797 4.56902E+00-3.89727E+00 1.02500E+00
 -1       798 3.38234E+00-2.71059E+00 3.49999E-01
 -1       799 2.71059E+00-3.38234E+00 3.49999E-01
 -1       800 3.89727E+00-4.56902E+00 1.02500E+00
 -1       801 6.18273E+00-6.85448E+00 1.02500E+00
 -1       802 7.36940E+00-8.04116E+00 3.49999E-01
 -1       803 3.56139E+00-4.90489E+00 1.02500E+00
 -1       804 4.90489E+00-3.56139E+00 1.02500E+00
 -1       805 5.84685E+00-7.19035E+00 1.02500E+00
 -1       806 7.19035E+00-5.84685E+00 1.02500E+00
 -1       807 4.70412E+00-6.04762E+00 3.49999E-01
 -1       808 6.04762E+00-4.70412E+00 3.49999E-01
 -1       809 2.61170E+00-5.67665E-01 1.02500E+00
 -1       810 2.24815E+00-1.44535E+00 1.02500E+00
 -1       811 4.16217E+00-1.20989E+00 1.70000E+00
 -1       812 3.79862E+00-2.08757E+00 1.70000E+00
 -1       813 7.38747E+00-2.03172E+00 1.70000E+00
 -1       814 6.66037E+00-3.78709E+00 1.70000E+00
 -1       815 1.02492E+01-3.73123E+00 1.70000E+00
 -1       816 9.88564E+00-4.60891E+00 1.70000E+00
 -1       817 1.17997E+01-4.37345E+00 1.02500E+00
 -1       818 1.14361E+01-5.25114E+00 1.02500E+00
 -1       819 1.02492E+01-3.73123E+00 3.49999E-01
 -1       820 8.69874E+00-3.08900E+00 1.02500E+00
 -1       821 5.71264E+00-1.85212E+00 1.02500E+00
 -1       822 4.16217E+00-1.20989E+00 3.49999E-01
 -1       823 3.79862E+00-2.08757E+00 3.49999E-01
 -1       824 5.34909E+00-2.72980E+00 1.02500E+00
 -1       825 8.33519E+00-3.96668E+00 1.02500E+00
 -1       826 9.88564E+00-4.60891E+00 3.49999E-01
 -1       827 5.16732E+00-3.16865E+00 1.02500E+00
 -1       828 5.89442E+00-1.41328E+00 1.02500E+00
 -1       829 8.15341E+00-4.40553E+00 1.02500E+00
 -1       830 8.88051E+00-2.65016E+00 1.02500E+00
 -1       831 6.66037E+00-3.78709E+00 3.49999E-01
 -1       832 7.38747E+00-2.03172E+00 3.49999E-01
 -1       833 1.68367E+01 1.65826E+00 3.49999E-01
 -1       834 1.68367E+01 1.65826E+00-3.49999E-01
 -1       835-1.68367E+01 1.65826E+00-3.49999E-01
 -1       836-1.68367E+01 1.65826E+00 3.49999E-01
 -1       837 1.65826E+00 1.68367E+01 3.49999E-01
 -1       838 1.65826E+00 1.68367E+01-3.49999E-01
 -1       839 1.30779E+01 1.07327E+01 3.49999E-01
 -1       840 1.30779E+01 1.07327E+01-3.49999E-01
 -1       841 1.61896E+01 4.91108E+00 3.49999E-01
 -1       842 1.61896E+01 4.91108E+00-3.49999E-01
 -1       843-1.07327E+01 1.30779E+01 3.49999E-01
 -1       844-1.07327E+01 1.30779E+01-3.49999E-01
 -1       845-4.91108E+00 1.61896E+01 3.49999E-01
 -1       846-4.91108E+00 1.61896E+01-3.49999E-01
 -1       847 1.30779E+01-1.07327E+01 3.49999E-01
 -1       848 1.30779E+01-1.07327E+01-3.49999E-01
 -1       849 1.68367E+01-1.65826E+00-3.49999E-01
 -1       850 1.61896E+01-4.91108E+00-3.49999E-01
 -1       851 1.49205E+01-7.97515E+00-3.49999E-01
 -1       852 1.49205E+01 7.97515E+00-3.49999E-01
 -1       853 1.07327E+01-1.30779E+01-3.49999E-01
 -1       854 1.07327E+01 1.30779E+01-3.49999E-01
 -1       855 7.97515E+00-1.49205E+01-3.49999E-01
 -1       856 7.97515E+00 1.49205E+01-3.49999E-01
 -1       857 4.91108E+00-1.61896E+01-3.49999E-01
 -1       858 4.91108E+00 1.61896E+01-3.49999E-01
 -1       859 1.65826E+00-1.68367E+01-3.49999E-01
 -1       860-1.65826E+00-1.68367E+01-3.49999E-01
 -1       861-1.65826E+00 1.68367E+01-3.49999E-01
 -1       862-4.91108E+00-1.61896E+01-3.49999E-01
 -1       863-7.97515E+00-1.49205E+01-3.49999E-01
 -1       864-7.97515E+00 1.49205E+01-3.49999E-01
 -1       865-1.07327E+01-1.30779E+01-3.49999E-01
 -1       866-1.30779E+01-1.07327E+01-3.49999E-01
 -1       867-1.30779E+01 1.07327E+01-3.49999E-01
 -1       868-1.49205E+01-7.97515E+00-3.49999E-01
 -1       869-1.49205E+01 7.97515E+00-3.49999E-01
 -1       870-1.61896E+01-4.91108E+00-3.49999E-01
 -1       871-1.61896E+01 4.91108E+00-3.49999E-01
 -1       872-1.68367E+01-1.65826E+00-3.49999E-01
 -1       873 1.49205E+01 7.97515E+00 3.49999E-01
 -1       874 7.97515E+00 1.49205E+01 3.49999E-01
 -1       875 4.91108E+00 1.61896E+01 3.49999E-01
 -1       876 1.07327E+01 1.30779E+01 3.49999E-01
 -1       877-1.49205E+01 7.97515E+00 3.49999E-01
 -1       878-1.30779E+01 1.07327E+01 3.49999E-01
 -1       879-1.61896E+01 4.91108E+00 3.49999E-01
 -1       880-1.30779E+01-1.07327E+01 3.49999E-01
 -1       881-1.49205E+01-7.97515E+00 3.49999E-01
 -1       882-1.61896E+01-4.91108E+00 3.49999E-01
 -1       883-1.68367E+01-1.65826E+00 3.49999E-01
 -1       884-1.07327E+01-1.30779E+01 3.49999E-01
 -1       885-1.65826E+00 1.68367E+01 3.49999E-01
 -1       886-7.97515E+00 1.49205E+01 3.49999E-01
 -1       887 1.68367E+01-1.65826E+00 3.49999E-01
 -1       888 1.61896E+01-4.91108E+00 3.49999E-01
 -1       889 1.49205E+01-7.97515E+00 3.49999E-01
 -1       890 1.07327E+01-1.30779E+01 3.49999E-01
 -1       891 7.97515E+00-1.49205E+01 3.49999E-01
 -1       892 4.91108E+00-1.61896E+01 3.49999E-01
 -1       893 1.65826E+00-1.68367E+01 3.49999E-01
 -1       894-1.65826E+00-1.68367E+01 3.49999E-01
 -1       895-4.91108E+00-1.61896E+01 3.49999E-01
 -1       896-7.97515E+00-1.49205E+01 3.49999E-01
 -1       897 5.14746E+00 4.74999E-01 1.70000E+00
 -1       898 3.46924E+00 4.74999E-01 1.70000E+00
 -1       899 5.14746E+00-4.74999E-01 1.70000E+00
 -1       900 6.79460E+00 9.50000E-01 1.70000E+00
 -1       901 1.00578E+01 4.74999E-01 1.70000E+00
 -1       902 1.17360E+01-4.74999E-01 1.70000E+00
 -1       903 1.00578E+01 4.74999E-01 3.49999E-01
 -1       904 3.46924E+00 4.74999E-01 3.49999E-01
 -1       905 5.14746E+00-4.74999E-01 3.49999E-01
 -1       906 1.17360E+01-4.74999E-01 3.49999E-01
 -1       907 8.41066E+00-9.50000E-01 3.49999E-01
 -1       908 8.41066E+00 9.50000E-01 3.49999E-01
 -1       909 6.79460E+00 9.50000E-01 3.49999E-01
 -1       910 3.38693E+00 8.88779E-01 1.70000E+00
 -1       911 4.93741E+00 1.53101E+00 1.70000E+00
 -1       912 3.02339E+00 1.76646E+00 1.70000E+00
 -1       913 9.11042E+00 4.28780E+00 3.49999E-01
 -1       914 3.02339E+00 1.76646E+00 3.49999E-01
 -1       915 4.93741E+00 1.53101E+00 3.49999E-01
 -1       916 1.10245E+01 4.05234E+00 3.49999E-01
 -1       917 8.13399E+00 2.34094E+00 3.49999E-01
 -1       918 7.40689E+00 4.09631E+00 3.49999E-01
 -1       919 5.91384E+00 3.47787E+00 3.49999E-01
 -1       920 5.27549E+00 6.61899E+00 1.70000E+00
 -1       921 4.13275E+00 5.47625E+00 1.70000E+00
 -1       922 3.97568E+00 3.30393E+00 1.70000E+00
 -1       923 2.11725E+00 2.78900E+00 1.70000E+00
 -1       924 6.77607E+00 7.44782E+00 3.49999E-01
 -1       925 2.11725E+00 2.78900E+00 3.49999E-01
 -1       926 3.97568E+00 3.30393E+00 3.49999E-01
 -1       927 8.63450E+00 7.96274E+00 3.49999E-01
 -1       928 5.47625E+00 4.13275E+00 3.49999E-01
 -1       929 6.61899E+00 5.27549E+00 3.49999E-01
 -1       930 5.27549E+00 6.61899E+00 3.49999E-01
 -1       931 4.13275E+00 5.47625E+00 3.49999E-01
 -1       932 1.72250E+00 6.64094E+00 1.70000E+00
 -1       933 3.41011E+00 9.47398E+00 1.70000E+00
 -1       934 8.88779E-01 3.38693E+00 1.70000E+00
 -1       935 3.47787E+00 5.91384E+00 1.70000E+00
 -1       936 4.09631E+00 7.40689E+00 1.70000E+00
 -1       937 4.05234E+00 1.10245E+01 3.49999E-01
 -1       938 3.41011E+00 9.47398E+00 3.49999E-01
 -1       939 8.88779E-01 3.38693E+00 3.49999E-01
 -1       940 2.40869E+00 4.57385E+00 3.49999E-01
 -1       941 4.93003E+00 1.06609E+01 3.49999E-01
 -1       942 3.47787E+00 5.91384E+00 3.49999E-01
 -1       943 4.09631E+00 7.40689E+00 3.49999E-01
 -1       944 2.34094E+00 8.13399E+00 3.49999E-01
 -1       945 1.72250E+00 6.64094E+00 3.49999E-01
 -1       946-9.50000E-01 6.79460E+00 1.70000E+00
 -1       947 4.74999E-01 5.14746E+00 1.70000E+00
 -1       948-4.74999E-01 3.46924E+00 1.70000E+00
 -1       949 9.50000E-01 8.41066E+00 1.70000E+00
 -1       950-4.74999E-01 1.00578E+01 3.49999E-01
 -1       951-4.74999E-01 3.46924E+00 3.49999E-01
 -1       952 4.74999E-01 5.14746E+00 3.49999E-01
 -1       953 4.74999E-01 1.17360E+01 3.49999E-01
 -1       954 9.50000E-01 6.79460E+00 3.49999E-01
 -1       955 9.50000E-01 8.41066E+00 3.49999E-01
 -1       956-9.50000E-01 8.41066E+00 3.49999E-01
 -1       957-9.50000E-01 6.79460E+00 3.49999E-01
 -1       958-2.34094E+00 8.13399E+00 1.70000E+00
 -1       959-4.09631E+00 7.40689E+00 1.70000E+00
 -1       960-3.47787E+00 5.91384E+00 1.70000E+00
 -1       961-4.93003E+00 1.06609E+01 3.49999E-01
 -1       962-4.28780E+00 9.11042E+00 3.49999E-01
 -1       963-1.76646E+00 3.02339E+00 3.49999E-01
 -1       964-1.53101E+00 4.93741E+00 3.49999E-01
 -1       965-4.05234E+00 1.10245E+01 3.49999E-01
 -1       966-1.72250E+00 6.64094E+00 3.49999E-01
 -1       967-2.34094E+00 8.13399E+00 3.49999E-01
 -1       968-4.09631E+00 7.40689E+00 3.49999E-01
 -1       969-3.47787E+00 5.91384E+00 3.49999E-01
 -1       970-5.27549E+00 6.61899E+00 1.70000E+00
 -1       971-2.11725E+00 2.78900E+00 1.70000E+00
 -1       972-3.30393E+00 3.97568E+00 1.70000E+00
 -1       973-2.78900E+00 2.11725E+00 1.70000E+00
 -1       974-8.63450E+00 7.96274E+00 3.49999E-01
 -1       975-7.44782E+00 6.77607E+00 3.49999E-01
 -1       976-2.78900E+00 2.11725E+00 3.49999E-01
 -1       977-3.30393E+00 3.97568E+00 3.49999E-01
 -1       978-7.96274E+00 8.63450E+00 3.49999E-01
 -1       979-4.13275E+00 5.47625E+00 3.49999E-01
 -1       980-5.27549E+00 6.61899E+00 3.49999E-01
 -1       981-6.61899E+00 5.27549E+00 3.49999E-01
 -1       982-5.47625E+00 4.13275E+00 3.49999E-01
 -1       983-9.47398E+00 3.41011E+00 1.70000E+00
 -1       984-7.40689E+00 4.09631E+00 1.70000E+00
 -1       985-3.02339E+00 1.76646E+00 1.70000E+00
 -1       986-4.57385E+00 2.40869E+00 1.70000E+00
 -1       987-3.38693E+00 8.88779E-01 1.70000E+00
 -1       988-9.47398E+00 3.41011E+00 3.49999E-01
 -1       989-3.38693E+00 8.88779E-01 3.49999E-01
 -1       990-4.57385E+00 2.40869E+00 3.49999E-01
 -1       991-1.06609E+01 4.93003E+00 3.49999E-01
 -1       992-5.91384E+00 3.47787E+00 3.49999E-01
 -1       993-7.40689E+00 4.09631E+00 3.49999E-01
 -1       994-8.13399E+00 2.34094E+00 3.49999E-01
 -1       995-6.64094E+00 1.72250E+00 3.49999E-01
 -1       996-8.41066E+00 9.50000E-01 1.70000E+00
 -1       997-3.46924E+00 4.74999E-01 1.70000E+00
 -1       998-5.14746E+00 4.74999E-01 1.70000E+00
 -1       999-3.46924E+00-4.74999E-01 1.70000E+00
 -1      1000-1.17360E+01-4.74999E-01 3.49999E-01
 -1      1001-1.00578E+01-4.74999E-01 3.49999E-01
 -1      1002-3.46924E+00-4.74999E-01 3.49999E-01
 -1      1003-5.14746E+00 4.74999E-01 3.49999E-01
 -1      1004-1.17360E+01 4.74999E-01 3.49999E-01
 -1      1005-6.79460E+00 9.50000E-01 3.49999E-01
 -1      1006-8.41066E+00 9.50000E-01 3.49999E-01
 -1      1007-8.41066E+00-9.50000E-01 3.49999E-01
 -1      1008-6.79460E+00-9.50000E-01 3.49999E-01
 -1      1009-3.02339E+00-1.76646E+00 1.70000E+00
 -1      1010-4.93741E+00-1.53101E+00 1.70000E+00
 -1      1011-6.64094E+00-1.72250E+00 1.70000E+00
 -1      1012-8.13399E+00-2.34094E+00 1.70000E+00
 -1      1013-1.10245E+01-4.05234E+00 1.70000E+00
 -1      1014-9.11042E+00-4.28780E+00 3.49999E-01
 -1      1015-3.02339E+00-1.76646E+00 3.49999E-01
 -1      1016-4.93741E+00-1.53101E+00 3.49999E-01
 -1      1017-1.10245E+01-4.05234E+00 3.49999E-01
 -1      1018-6.64094E+00-1.72250E+00 3.49999E-01
 -1      1019-8.13399E+00-2.34094E+00 3.49999E-01
 -1      1020-7.40689E+00-4.09631E+00 3.49999E-01
 -1      1021-5.91384E+00-3.47787E+00 3.49999E-01
 -1      1022-3.30393E+00-3.97568E+00 1.70000E+00
 -1      1023-2.11725E+00-2.78900E+00 1.70000E+00
 -1      1024-3.97568E+00-3.30393E+00 1.70000E+00
 -1      1025-5.47625E+00-4.13275E+00 1.70000E+00
 -1      1026-6.61899E+00-5.27549E+00 1.70000E+00
 -1      1027-8.63450E+00-7.96274E+00 1.70000E+00
 -1      1028-7.96274E+00-8.63450E+00 3.49999E-01
 -1      1029-6.77607E+00-7.44782E+00 3.49999E-01
 -1      1030-2.11725E+00-2.78900E+00 3.49999E-01
 -1      1031-3.97568E+00-3.30393E+00 3.49999E-01
 -1      1032-8.63450E+00-7.96274E+00 3.49999E-01
 -1      1033-5.47625E+00-4.13275E+00 3.49999E-01
 -1      1034-6.61899E+00-5.27549E+00 3.49999E-01
 -1      1035-5.27549E+00-6.61899E+00 3.49999E-01
 -1      1036-4.13275E+00-5.47625E+00 3.49999E-01
 -1      1037-4.09631E+00-7.40689E+00 1.70000E+00
 -1      1038-2.40869E+00-4.57385E+00 1.70000E+00
 -1      1039-1.72250E+00-6.64094E+00 1.70000E+00
 -1      1040-3.41011E+00-9.47398E+00 3.49999E-01
 -1      1041-8.88779E-01-3.38693E+00 3.49999E-01
 -1      1042-2.40869E+00-4.57385E+00 3.49999E-01
 -1      1043-4.93003E+00-1.06609E+01 3.49999E-01
 -1      1044-4.09631E+00-7.40689E+00 3.49999E-01
 -1      1045-2.34094E+00-8.13399E+00 3.49999E-01
 -1      1046-1.72250E+00-6.64094E+00 3.49999E-01
 -1      1047-9.50000E-01-8.41066E+00 1.70000E+00
 -1      1048 4.74999E-01-3.46924E+00 1.70000E+00
 -1      1049-4.74999E-01-5.14746E+00 1.70000E+00
 -1      1050 4.74999E-01-1.00578E+01 1.70000E+00
 -1      1051-4.74999E-01-1.17360E+01 1.70000E+00
 -1      1052 4.74999E-01-1.17360E+01 3.49999E-01
 -1      1053 4.74999E-01-1.00578E+01 3.49999E-01
 -1      1054 4.74999E-01-3.46924E+00 3.49999E-01
 -1      1055-4.74999E-01-5.14746E+00 3.49999E-01
 -1      1056-4.74999E-01-1.17360E+01 3.49999E-01
 -1      1057-9.50000E-01-6.79460E+00 3.49999E-01
 -1      1058-9.50000E-01-8.41066E+00 3.49999E-01
 -1      1059 9.50000E-01-8.41066E+00 3.49999E-01
 -1      1060 9.50000E-01-6.79460E+00 3.49999E-01
 -1      1061 3.47787E+00-5.91384E+00 1.70000E+00
 -1      1062 1.76646E+00-3.02339E+00 1.70000E+00
 -1      1063 1.53101E+00-4.93741E+00 1.70000E+00
 -1      1064 1.72250E+00-6.64094E+00 1.70000E+00
 -1      1065 2.34094E+00-8.13399E+00 1.70000E+00
 -1      1066 4.28780E+00-9.11042E+00 3.49999E-01
 -1      1067 1.76646E+00-3.02339E+00 3.49999E-01
 -1      1068 1.53101E+00-4.93741E+00 3.49999E-01
 -1      1069 4.05234E+00-1.10245E+01 3.49999E-01
 -1      1070 1.72250E+00-6.64094E+00 3.49999E-01
 -1      1071 2.34094E+00-8.13399E+00 3.49999E-01
 -1      1072 4.09631E+00-7.40689E+00 3.49999E-01
 -1      1073 3.47787E+00-5.91384E+00 3.49999E-01
 -1      1074 2.78900E+00-2.11725E+00 1.70000E+00
 -1      1075 3.30393E+00-3.97568E+00 1.70000E+00
 -1      1076 5.47625E+00-4.13275E+00 1.70000E+00
 -1      1077 7.44782E+00-6.77607E+00 1.70000E+00
 -1      1078 7.96274E+00-8.63450E+00 1.70000E+00
 -1      1079 7.44782E+00-6.77607E+00 3.49999E-01
 -1      1080 2.78900E+00-2.11725E+00 3.49999E-01
 -1      1081 3.30393E+00-3.97568E+00 3.49999E-01
 -1      1082 7.96274E+00-8.63450E+00 3.49999E-01
 -1      1083 5.27549E+00-6.61899E+00 3.49999E-01
 -1      1084 6.61899E+00-5.27549E+00 3.49999E-01
 -1      1085 5.47625E+00-4.13275E+00 3.49999E-01
 -1      1086 3.38693E+00-8.88779E-01 1.70000E+00
 -1      1087 4.57385E+00-2.40869E+00 1.70000E+00
 -1      1088 6.64094E+00-1.72250E+00 1.70000E+00
 -1      1089 9.47398E+00-3.41011E+00 1.70000E+00
 -1      1090 1.06609E+01-4.93003E+00 1.70000E+00
 -1      1091 9.47398E+00-3.41011E+00 3.49999E-01
 -1      1092 3.38693E+00-8.88779E-01 3.49999E-01
 -1      1093 4.57385E+00-2.40869E+00 3.49999E-01
 -1      1094 1.06609E+01-4.93003E+00 3.49999E-01
 -1      1095 5.91384E+00-3.47787E+00 3.49999E-01
 -1      1096 7.40689E+00-4.09631E+00 3.49999E-01
 -1      1097 8.13399E+00-2.34094E+00 3.49999E-01
 -1      1098 6.64094E+00-1.72250E+00 3.49999E-01
 -1      1099 1.69183E+01 8.29132E-01 3.49999E-01
 -1      1100-1.69183E+01 8.29132E-01-3.49999E-01
 -1      1101 2.48740E+00 1.67550E+01 3.49999E-01
 -1      1102 1.64315E+01 4.11380E+00 3.49999E-01
 -1      1103 1.59478E+01 5.70835E+00-3.49999E-01
 -1      1104-1.00887E+01 1.36065E+01 3.49999E-01
 -1      1105 1.69183E+01-8.29132E-01-3.49999E-01
 -1      1106 1.67550E+01-2.48740E+00-3.49999E-01
 -1      1107 1.59478E+01-5.70835E+00-3.49999E-01
 -1      1108 1.45278E+01-8.70992E+00-3.49999E-01
 -1      1109 1.53132E+01 7.24039E+00-3.49999E-01
 -1      1110 1.13768E+01-1.25493E+01-3.49999E-01
 -1      1111 1.00887E+01-1.36065E+01-3.49999E-01
 -1      1112 1.13768E+01 1.25493E+01-3.49999E-01
 -1      1113 7.24039E+00-1.53132E+01-3.49999E-01
 -1      1114 8.70992E+00 1.45278E+01-3.49999E-01
 -1      1115 4.11380E+00-1.64315E+01-3.49999E-01
 -1      1116 4.11380E+00 1.64315E+01-3.49999E-01
 -1      1117 5.70835E+00 1.59478E+01-3.49999E-01
 -1      1118 8.29132E-01-1.69183E+01-3.49999E-01
 -1      1119-2.48740E+00-1.67550E+01-3.49999E-01
 -1      1120-2.48740E+00 1.67550E+01-3.49999E-01
 -1      1121-8.29132E-01 1.69183E+01-3.49999E-01
 -1      1122-5.70835E+00-1.59478E+01-3.49999E-01
 -1      1123-8.70992E+00-1.45278E+01-3.49999E-01
 -1      1124-8.70992E+00 1.45278E+01-3.49999E-01
 -1      1125-7.24039E+00 1.53132E+01-3.49999E-01
 -1      1126-1.13768E+01-1.25493E+01-3.49999E-01
 -1      1127-1.36065E+01-1.00887E+01-3.49999E-01
 -1      1128-1.36065E+01 1.00887E+01-3.49999E-01
 -1      1129-1.25493E+01 1.13768E+01-3.49999E-01
 -1      1130-1.53132E+01-7.24039E+00-3.49999E-01
 -1      1131-1.45278E+01 8.70992E+00-3.49999E-01
 -1      1132-1.64315E+01-4.11380E+00-3.49999E-01
 -1      1133-1.59478E+01 5.70835E+00-3.49999E-01
 -1      1134-1.67550E+01-2.48740E+00-3.49999E-01
 -1      1135-1.69183E+01-8.29132E-01-3.49999E-01
 -1      1136 1.53132E+01 7.24039E+00 3.49999E-01
 -1      1137 8.70992E+00 1.45278E+01 3.49999E-01
 -1      1138 1.13768E+01 1.25493E+01 3.49999E-01
 -1      1139-1.25493E+01 1.13768E+01 3.49999E-01
 -1      1140-1.59478E+01 5.70835E+00 3.49999E-01
 -1      1141-1.25493E+01-1.13768E+01 3.49999E-01
 -1      1142-1.45278E+01-8.70992E+00 3.49999E-01
 -1      1143-1.59478E+01-5.70835E+00 3.49999E-01
 -1      1144-1.67550E+01-2.48740E+00 3.49999E-01
 -1      1145-1.00887E+01-1.36065E+01 3.49999E-01
 -1      1146-2.48740E+00 1.67550E+01 3.49999E-01
 -1      1147-8.70992E+00 1.45278E+01 3.49999E-01
 -1      1148 1.69183E+01-8.29132E-01 3.49999E-01
 -1      1149 1.64315E+01-4.11380E+00 3.49999E-01
 -1      1150 1.53132E+01-7.24039E+00 3.49999E-01
 -1      1151 1.13768E+01-1.25493E+01 3.49999E-01
 -1      1152 8.70992E+00-1.45278E+01 3.49999E-01
 -1      1153 5.70835E+00-1.59478E+01 3.49999E-01
 -1      1154 2.48740E+00-1.67550E+01 3.49999E-01
 -1      1155-8.29132E-01-1.69183E+01 3.49999E-01
 -1      1156-4.11380E+00-1.64315E+01 3.49999E-01
 -1      1157-7.24039E+00-1.53132E+01 3.49999E-01
 -1      1158 3.46924E+00-4.74999E-01 1.70000E+00
 -1      1159 8.41066E+00 9.50000E-01 1.70000E+00
 -1      1160 8.41066E+00-9.50000E-01 1.70000E+00
 -1      1161 6.79460E+00-9.50000E-01 1.70000E+00
 -1      1162 1.17360E+01 4.74999E-01 1.70000E+00
 -1      1163 1.00578E+01-4.74999E-01 1.70000E+00
 -1      1164 1.17360E+01 4.74999E-01 3.49999E-01
 -1      1165 5.14746E+00 4.74999E-01 3.49999E-01
 -1      1166 3.46924E+00-4.74999E-01 3.49999E-01
 -1      1167 1.00578E+01-4.74999E-01 3.49999E-01
 -1      1168 6.79460E+00-9.50000E-01 3.49999E-01
 -1      1169 1.10245E+01 4.05234E+00 1.70000E+00
 -1      1170 9.47398E+00 3.41011E+00 1.70000E+00
 -1      1171 9.11042E+00 4.28780E+00 1.70000E+00
 -1      1172 1.06609E+01 4.93003E+00 1.70000E+00
 -1      1173 8.13399E+00 2.34094E+00 1.70000E+00
 -1      1174 6.64094E+00 1.72250E+00 1.70000E+00
 -1      1175 5.91384E+00 3.47787E+00 1.70000E+00
 -1      1176 7.40689E+00 4.09631E+00 1.70000E+00
 -1      1177 4.57385E+00 2.40869E+00 1.70000E+00
 -1      1178 1.06609E+01 4.93003E+00 3.49999E-01
 -1      1179 4.57385E+00 2.40869E+00 3.49999E-01
 -1      1180 3.38693E+00 8.88779E-01 3.49999E-01
 -1      1181 9.47398E+00 3.41011E+00 3.49999E-01
 -1      1182 6.64094E+00 1.72250E+00 3.49999E-01
 -1      1183 8.63450E+00 7.96274E+00 1.70000E+00
 -1      1184 7.44782E+00 6.77607E+00 1.70000E+00
 -1      1185 6.77607E+00 7.44782E+00 1.70000E+00
 -1      1186 7.96274E+00 8.63450E+00 1.70000E+00
 -1      1187 6.61899E+00 5.27549E+00 1.70000E+00
 -1      1188 5.47625E+00 4.13275E+00 1.70000E+00
 -1      1189 2.78900E+00 2.11725E+00 1.70000E+00
 -1      1190 3.30393E+00 3.97568E+00 1.70000E+00
 -1      1191 7.96274E+00 8.63450E+00 3.49999E-01
 -1      1192 3.30393E+00 3.97568E+00 3.49999E-01
 -1      1193 2.78900E+00 2.11725E+00 3.49999E-01
 -1      1194 7.44782E+00 6.77607E+00 3.49999E-01
 -1      1195 2.34094E+00 8.13399E+00 1.70000E+00
 -1      1196 4.93003E+00 1.06609E+01 1.70000E+00
 -1      1197 4.28780E+00 9.11042E+00 1.70000E+00
 -1      1198 4.05234E+00 1.10245E+01 1.70000E+00
 -1      1199 2.40869E+00 4.57385E+00 1.70000E+00
 -1      1200 1.76646E+00 3.02339E+00 1.70000E+00
 -1      1201 1.53101E+00 4.93741E+00 1.70000E+00
 -1      1202 1.53101E+00 4.93741E+00 3.49999E-01
 -1      1203 1.76646E+00 3.02339E+00 3.49999E-01
 -1      1204 4.28780E+00 9.11042E+00 3.49999E-01
 -1      1205-9.50000E-01 8.41066E+00 1.70000E+00
 -1      1206 4.74999E-01 1.17360E+01 1.70000E+00
 -1      1207 4.74999E-01 1.00578E+01 1.70000E+00
 -1      1208-4.74999E-01 1.00578E+01 1.70000E+00
 -1      1209-4.74999E-01 1.17360E+01 1.70000E+00
 -1      1210 4.74999E-01 3.46924E+00 1.70000E+00
 -1      1211-4.74999E-01 5.14746E+00 1.70000E+00
 -1      1212 9.50000E-01 6.79460E+00 1.70000E+00
 -1      1213-4.74999E-01 1.17360E+01 3.49999E-01
 -1      1214-4.74999E-01 5.14746E+00 3.49999E-01
 -1      1215 4.74999E-01 3.46924E+00 3.49999E-01
 -1      1216 4.74999E-01 1.00578E+01 3.49999E-01
 -1      1217-1.72250E+00 6.64094E+00 1.70000E+00
 -1      1218-1.53101E+00 4.93741E+00 1.70000E+00
 -1      1219-8.88779E-01 3.38693E+00 1.70000E+00
 -1      1220-1.76646E+00 3.02339E+00 1.70000E+00
 -1      1221-2.40869E+00 4.57385E+00 1.70000E+00
 -1      1222-4.05234E+00 1.10245E+01 1.70000E+00
 -1      1223-3.41011E+00 9.47398E+00 1.70000E+00
 -1      1224-4.28780E+00 9.11042E+00 1.70000E+00
 -1      1225-4.93003E+00 1.06609E+01 1.70000E+00
 -1      1226-2.40869E+00 4.57385E+00 3.49999E-01
 -1      1227-8.88779E-01 3.38693E+00 3.49999E-01
 -1      1228-3.41011E+00 9.47398E+00 3.49999E-01
 -1      1229-7.96274E+00 8.63450E+00 1.70000E+00
 -1      1230-6.77607E+00 7.44782E+00 1.70000E+00
 -1      1231-7.44782E+00 6.77607E+00 1.70000E+00
 -1      1232-8.63450E+00 7.96274E+00 1.70000E+00
 -1      1233-4.13275E+00 5.47625E+00 1.70000E+00
 -1      1234-5.47625E+00 4.13275E+00 1.70000E+00
 -1      1235-6.61899E+00 5.27549E+00 1.70000E+00
 -1      1236-3.97568E+00 3.30393E+00 1.70000E+00
 -1      1237-3.97568E+00 3.30393E+00 3.49999E-01
 -1      1238-2.11725E+00 2.78900E+00 3.49999E-01
 -1      1239-6.77607E+00 7.44782E+00 3.49999E-01
 -1      1240-1.06609E+01 4.93003E+00 1.70000E+00
 -1      1241-9.11042E+00 4.28780E+00 1.70000E+00
 -1      1242-1.10245E+01 4.05234E+00 1.70000E+00
 -1      1243-5.91384E+00 3.47787E+00 1.70000E+00
 -1      1244-6.64094E+00 1.72250E+00 1.70000E+00
 -1      1245-8.13399E+00 2.34094E+00 1.70000E+00
 -1      1246-4.93741E+00 1.53101E+00 1.70000E+00
 -1      1247-1.10245E+01 4.05234E+00 3.49999E-01
 -1      1248-4.93741E+00 1.53101E+00 3.49999E-01
 -1      1249-3.02339E+00 1.76646E+00 3.49999E-01
 -1      1250-9.11042E+00 4.28780E+00 3.49999E-01
 -1      1251-1.17360E+01 4.74999E-01 1.70000E+00
 -1      1252-1.00578E+01 4.74999E-01 1.70000E+00
 -1      1253-1.00578E+01-4.74999E-01 1.70000E+00
 -1      1254-1.17360E+01-4.74999E-01 1.70000E+00
 -1      1255-6.79460E+00 9.50000E-01 1.70000E+00
 -1      1256-6.79460E+00-9.50000E-01 1.70000E+00
 -1      1257-8.41066E+00-9.50000E-01 1.70000E+00
 -1      1258-5.14746E+00-4.74999E-01 1.70000E+00
 -1      1259-5.14746E+00-4.74999E-01 3.49999E-01
 -1      1260-3.46924E+00 4.74999E-01 3.49999E-01
 -1      1261-1.00578E+01 4.74999E-01 3.49999E-01
 -1      1262-4.57385E+00-2.40869E+00 1.70000E+00
 -1      1263-3.38693E+00-8.88779E-01 1.70000E+00
 -1      1264-5.91384E+00-3.47787E+00 1.70000E+00
 -1      1265-7.40689E+00-4.09631E+00 1.70000E+00
 -1      1266-9.11042E+00-4.28780E+00 1.70000E+00
 -1      1267-1.06609E+01-4.93003E+00 1.70000E+00
 -1      1268-9.47398E+00-3.41011E+00 1.70000E+00
 -1      1269-1.06609E+01-4.93003E+00 3.49999E-01
 -1      1270-4.57385E+00-2.40869E+00 3.49999E-01
 -1      1271-3.38693E+00-8.88779E-01 3.49999E-01
 -1      1272-9.47398E+00-3.41011E+00 3.49999E-01
 -1      1273-2.78900E+00-2.11725E+00 1.70000E+00
 -1      1274-4.13275E+00-5.47625E+00 1.70000E+00
 -1      1275-5.27549E+00-6.61899E+00 1.70000E+00
 -1      1276-6.77607E+00-7.44782E+00 1.70000E+00
 -1      1277-7.96274E+00-8.63450E+00 1.70000E+00
 -1      1278-7.44782E+00-6.77607E+00 1.70000E+00
 -1      1279-3.30393E+00-3.97568E+00 3.49999E-01
 -1      1280-2.78900E+00-2.11725E+00 3.49999E-01
 -1      1281-7.44782E+00-6.77607E+00 3.49999E-01
 -1      1282-3.47787E+00-5.91384E+00 1.70000E+00
 -1      1283-8.88779E-01-3.38693E+00 1.70000E+00
 -1      1284-1.53101E+00-4.93741E+00 1.70000E+00
 -1      1285-1.76646E+00-3.02339E+00 1.70000E+00
 -1      1286-4.93003E+00-1.06609E+01 1.70000E+00
 -1      1287-3.41011E+00-9.47398E+00 1.70000E+00
 -1      1288-4.05234E+00-1.10245E+01 1.70000E+00
 -1      1289-4.28780E+00-9.11042E+00 1.70000E+00
 -1      1290-2.34094E+00-8.13399E+00 1.70000E+00
 -1      1291-4.05234E+00-1.10245E+01 3.49999E-01
 -1      1292-1.53101E+00-4.93741E+00 3.49999E-01
 -1      1293-1.76646E+00-3.02339E+00 3.49999E-01
 -1      1294-4.28780E+00-9.11042E+00 3.49999E-01
 -1      1295-3.47787E+00-5.91384E+00 3.49999E-01
 -1      1296-9.50000E-01-6.79460E+00 1.70000E+00
 -1      1297 4.74999E-01-5.14746E+00 1.70000E+00
 -1      1298-4.74999E-01-3.46924E+00 1.70000E+00
 -1      1299 4.74999E-01-1.17360E+01 1.70000E+00
 -1      1300-4.74999E-01-1.00578E+01 1.70000E+00
 -1      1301 9.50000E-01-6.79460E+00 1.70000E+00
 -1      1302 9.50000E-01-8.41066E+00 1.70000E+00
 -1      1303 4.74999E-01-5.14746E+00 3.49999E-01
 -1      1304-4.74999E-01-3.46924E+00 3.49999E-01
 -1      1305-4.74999E-01-1.00578E+01 3.49999E-01
 -1      1306 4.09631E+00-7.40689E+00 1.70000E+00
 -1      1307 4.28780E+00-9.11042E+00 1.70000E+00
 -1      1308 4.93003E+00-1.06609E+01 1.70000E+00
 -1      1309 4.05234E+00-1.10245E+01 1.70000E+00
 -1      1310 3.41011E+00-9.47398E+00 1.70000E+00
 -1      1311 2.40869E+00-4.57385E+00 1.70000E+00
 -1      1312 8.88779E-01-3.38693E+00 1.70000E+00
 -1      1313 4.93003E+00-1.06609E+01 3.49999E-01
 -1      1314 2.40869E+00-4.57385E+00 3.49999E-01
 -1      1315 8.88779E-01-3.38693E+00 3.49999E-01
 -1      1316 3.41011E+00-9.47398E+00 3.49999E-01
 -1      1317 3.97568E+00-3.30393E+00 1.70000E+00
 -1      1318 2.11725E+00-2.78900E+00 1.70000E+00
 -1      1319 6.61899E+00-5.27549E+00 1.70000E+00
 -1      1320 5.27549E+00-6.61899E+00 1.70000E+00
 -1      1321 4.13275E+00-5.47625E+00 1.70000E+00
 -1      1322 8.63450E+00-7.96274E+00 1.70000E+00
 -1      1323 6.77607E+00-7.44782E+00 1.70000E+00
 -1      1324 8.63450E+00-7.96274E+00 3.49999E-01
 -1      1325 3.97568E+00-3.30393E+00 3.49999E-01
 -1      1326 2.11725E+00-2.78900E+00 3.49999E-01
 -1      1327 6.77607E+00-7.44782E+00 3.49999E-01
 -1      1328 4.13275E+00-5.47625E+00 3.49999E-01
 -1      1329 4.93741E+00-1.53101E+00 1.70000E+00
 -1      1330 3.02339E+00-1.76646E+00 1.70000E+00
 -1      1331 8.13399E+00-2.34094E+00 1.70000E+00
 -1      1332 7.40689E+00-4.09631E+00 1.70000E+00
 -1      1333 5.91384E+00-3.47787E+00 1.70000E+00
 -1      1334 1.10245E+01-4.05234E+00 1.70000E+00
 -1      1335 9.11042E+00-4.28780E+00 1.70000E+00
 -1      1336 1.10245E+01-4.05234E+00 3.49999E-01
 -1      1337 4.93741E+00-1.53101E+00 3.49999E-01
 -1      1338 3.02339E+00-1.76646E+00 3.49999E-01
 -1      1339 9.11042E+00-4.28780E+00 3.49999E-01
 -1      1340 1.67550E+01 2.48740E+00 3.49999E-01
 -1      1341 1.67550E+01 2.48740E+00-3.49999E-01
 -1      1342 1.69183E+01 8.29132E-01-3.49999E-01
 -1      1343-1.67550E+01 2.48740E+00-3.49999E-01
 -1      1344-1.67550E+01 2.48740E+00 3.49999E-01
 -1      1345-1.69183E+01 8.29132E-01 3.49999E-01
 -1      1346 8.29132E-01 1.69183E+01 3.49999E-01
 -1      1347 8.29132E-01 1.69183E+01-3.49999E-01
 -1      1348 2.48740E+00 1.67550E+01-3.49999E-01
 -1      1349 1.36065E+01 1.00887E+01 3.49999E-01
 -1      1350 1.25493E+01 1.13768E+01 3.49999E-01
 -1      1351 1.25493E+01 1.13768E+01-3.49999E-01
 -1      1352 1.36065E+01 1.00887E+01-3.49999E-01
 -1      1353 1.59478E+01 5.70835E+00 3.49999E-01
 -1      1354 1.64315E+01 4.11380E+00-3.49999E-01
 -1      1355-1.13768E+01 1.25493E+01 3.49999E-01
 -1      1356-1.13768E+01 1.25493E+01-3.49999E-01
 -1      1357-1.00887E+01 1.36065E+01-3.49999E-01
 -1      1358-4.11380E+00 1.64315E+01 3.49999E-01
 -1      1359-5.70835E+00 1.59478E+01 3.49999E-01
 -1      1360-5.70835E+00 1.59478E+01-3.49999E-01
 -1      1361-4.11380E+00 1.64315E+01-3.49999E-01
 -1      1362 1.25493E+01-1.13768E+01 3.49999E-01
 -1      1363 1.36065E+01-1.00887E+01 3.49999E-01
 -1      1364 1.36065E+01-1.00887E+01-3.49999E-01
 -1      1365 1.25493E+01-1.13768E+01-3.49999E-01
 -1      1366 1.64315E+01-4.11380E+00-3.49999E-01
 -1      1367 1.53132E+01-7.24039E+00-3.49999E-01
 -1      1368 1.45278E+01 8.70992E+00-3.49999E-01
 -1      1369 1.00887E+01 1.36065E+01-3.49999E-01
 -1      1370 8.70992E+00-1.45278E+01-3.49999E-01
 -1      1371 7.24039E+00 1.53132E+01-3.49999E-01
 -1      1372 5.70835E+00-1.59478E+01-3.49999E-01
 -1      1373 2.48740E+00-1.67550E+01-3.49999E-01
 -1      1374-8.29132E-01-1.69183E+01-3.49999E-01
 -1      1375-4.11380E+00-1.64315E+01-3.49999E-01
 -1      1376-7.24039E+00-1.53132E+01-3.49999E-01
 -1      1377-1.00887E+01-1.36065E+01-3.49999E-01
 -1      1378-1.25493E+01-1.13768E+01-3.49999E-01
 -1      1379-1.45278E+01-8.70992E+00-3.49999E-01
 -1      1380-1.53132E+01 7.24039E+00-3.49999E-01
 -1      1381-1.59478E+01-5.70835E+00-3.49999E-01
 -1      1382-1.64315E+01 4.11380E+00-3.49999E-01
 -1      1383 1.45278E+01 8.70992E+00 3.49999E-01
 -1      1384 7.24039E+00 1.53132E+01 3.49999E-01
 -1      1385 5.70835E+00 1.59478E+01 3.49999E-01
 -1      1386 4.11380E+00 1.64315E+01 3.49999E-01
 -1      1387 1.00887E+01 1.36065E+01 3.49999E-01
 -1      1388-1.45278E+01 8.70992E+00 3.49999E-01
 -1      1389-1.53132E+01 7.24039E+00 3.49999E-01
 -1      1390-1.36065E+01 1.00887E+01 3.49999E-01
 -1      1391-1.64315E+01 4.11380E+00 3.49999E-01
 -1      1392-1.36065E+01-1.00887E+01 3.49999E-01
 -1      1393-1.53132E+01-7.24039E+00 3.49999E-01
 -1      1394-1.64315E+01-4.11380E+00 3.49999E-01
 -1      1395-1.69183E+01-8.29132E-01 3.49999E-01
 -1      1396-1.13768E+01-1.25493E+01 3.49999E-01
 -1      1397-8.29132E-01 1.69183E+01 3.49999E-01
 -1      1398-7.24039E+00 1.53132E+01 3.49999E-01
 -1      1399 1.67550E+01-2.48740E+00 3.49999E-01
 -1      1400 1.59478E+01-5.70835E+00 3.49999E-01
 -1      1401 1.45278E+01-8.70992E+00 3.49999E-01
 -1      1402 1.00887E+01-1.36065E+01 3.49999E-01
 -1      1403 7.24039E+00-1.53132E+01 3.49999E-01
 -1      1404 4.11380E+00-1.64315E+01 3.49999E-01
 -1      1405 8.29132E-01-1.69183E+01 3.49999E-01
 -1      1406-2.48740E+00-1.67550E+01 3.49999E-01
 -1      1407-5.70835E+00-1.59478E+01 3.49999E-01
 -1      1408-8.70992E+00-1.45278E+01 3.49999E-01
 -1      1409 2.49233E+00 1.82058E+00 3.49999E-01
 -1      1410 2.58923E+00 1.58663E+00 3.49999E-01
 -1      1411-4.74999E-01-3.04969E+00 3.49999E-01
 -1      1412-7.08946E-01-2.95278E+00 3.49999E-01
 -1      1413 1.82058E+00-2.49233E+00 3.49999E-01
 -1      1414 1.58663E+00-2.58923E+00 3.49999E-01
 -1      1415-2.49233E+00 1.82058E+00 3.49999E-01
 -1      1416-2.58923E+00 1.58663E+00 3.49999E-01
 -1      1417 7.28222E-01 2.99932E+00 3.49999E-01
 -1      1418 4.74999E-01 2.99932E+00 3.49999E-01
 -1      1419-1.60591E+00-2.63577E+00 3.49999E-01
 -1      1420-1.78496E+00-2.45671E+00 3.49999E-01
 -1      1421 1.82058E+00 2.49233E+00 3.49999E-01
 -1      1422 1.58663E+00 2.58923E+00 3.49999E-01
 -1      1423-2.99932E+00-7.28222E-01 3.49999E-01
 -1      1424-2.99932E+00-4.74999E-01 3.49999E-01
 -1      1425 2.99932E+00 7.28222E-01 3.49999E-01
 -1      1426 2.99932E+00 4.74999E-01 3.49999E-01
 -1      1427 2.63577E+00-1.60591E+00 3.49999E-01
 -1      1428 2.45671E+00-1.78496E+00 3.49999E-01
 -1      1429 2.99932E+00-7.28222E-01 3.49999E-01
 -1      1430 2.99932E+00-4.74999E-01 3.49999E-01
 -1      1431-1.82058E+00 2.49233E+00 3.49999E-01
 -1      1432-1.58663E+00 2.58923E+00 3.49999E-01
 -1      1433-2.99932E+00 7.28222E-01 3.49999E-01
 -1      1434-2.99932E+00 4.74999E-01 3.49999E-01
 -1      1435 0.00000E+00-2.63013E+00 3.49999E-01
 -1      1436 7.28222E-01-2.99932E+00 3.49999E-01
 -1      1437 4.74999E-01-2.99932E+00 3.49999E-01
 -1      1438-2.49233E+00-1.82058E+00 3.49999E-01
 -1      1439-2.58923E+00-1.58663E+00 3.49999E-01
 -1      1440 1.85978E+00-1.85978E+00 3.49999E-01
 -1      1441-2.34400E+00 1.67225E+00 3.49999E-01
 -1      1442-2.41018E+00 1.51246E+00 3.49999E-01
 -1      1443-1.67225E+00 2.34400E+00 3.49999E-01
 -1      1444-1.51246E+00 2.41018E+00 3.49999E-01
 -1      1445-1.85978E+00-1.85978E+00 3.49999E-01
 -1      1446-1.52563E+00-2.44196E+00 3.49999E-01
 -1      1447-1.64792E+00-2.31967E+00 3.49999E-01
 -1      1448-2.42992E+00-1.00651E+00 3.49999E-01
 -1      1449-2.34400E+00-1.67225E+00 3.49999E-01
 -1      1450-2.41018E+00-1.51246E+00 3.49999E-01
 -1      1451-1.00651E+00-2.42992E+00 3.49999E-01
 -1      1452-1.85978E+00 1.85978E+00 3.49999E-01
 -1      1453 1.00651E+00-2.42992E+00 3.49999E-01
 -1      1454 2.42992E+00-1.00651E+00 3.49999E-01
 -1      1455-1.00651E+00 2.42992E+00 3.49999E-01
 -1      1456 2.42992E+00 1.00651E+00 3.49999E-01
 -1      1457 2.63013E+00 0.00000E+00 3.49999E-01
 -1      1458 1.67225E+00-2.34400E+00 3.49999E-01
 -1      1459 1.51246E+00-2.41018E+00 3.49999E-01
 -1      1460 2.80551E+00 6.47943E-01 3.49999E-01
 -1      1461 2.80551E+00 4.74999E-01 3.49999E-01
 -1      1462 6.47943E-01 2.80551E+00 3.49999E-01
 -1      1463 4.74999E-01 2.80551E+00 3.49999E-01
 -1      1464 1.00651E+00 2.42992E+00 3.49999E-01
 -1      1465 0.00000E+00 2.63013E+00 3.49999E-01
 -1      1466-1.52391E+00-2.19566E+00 6.87499E-01
 -1      1467 2.61170E+00 5.67665E-01 6.87499E-01
 -1      1468-1.22593E+00 2.33904E+00 3.49999E-01
 -1      1469 4.74999E-01 2.63013E+00 6.87499E-01
 -1      1470-2.19566E+00-1.52391E+00 6.87499E-01
 -1      1471-2.80551E+00-6.47943E-01 3.49999E-01
 -1      1472-2.80551E+00-4.74999E-01 3.49999E-01
 -1      1473-2.63013E+00 0.00000E+00 3.49999E-01
 -1      1474 1.85978E+00 1.85978E+00 3.49999E-01
 -1      1475-7.28222E-01 2.99932E+00 3.49999E-01
 -1      1476-4.74999E-01 2.99932E+00 3.49999E-01
 -1      1477-2.42992E+00 1.00651E+00 3.49999E-01
 -1      1478-2.24815E+00-1.44535E+00 6.87499E-01
 -1      1479 1.67225E+00 2.34400E+00 3.49999E-01
 -1      1480 1.51246E+00 2.41018E+00 3.49999E-01
 -1      1481 2.44196E+00-1.52563E+00 3.49999E-01
 -1      1482 2.31967E+00-1.64792E+00 3.49999E-01
 -1      1483 6.47943E-01-2.80551E+00 3.49999E-01
 -1      1484 4.74999E-01-2.80551E+00 3.49999E-01
 -1      1485 2.80551E+00-6.47943E-01 3.49999E-01
 -1      1486 2.80551E+00-4.74999E-01 3.49999E-01
 -1      1487 1.44535E+00 2.24815E+00 6.87499E-01
 -1      1488-2.19566E+00 1.52391E+00 6.87499E-01
 -1      1489-4.74999E-01-2.83991E+00 3.49999E-01
 -1      1490-6.34778E-01-2.77372E+00 3.49999E-01
 -1      1491 2.34400E+00 1.67225E+00 3.49999E-01
 -1      1492 2.41018E+00 1.51246E+00 3.49999E-01
 -1      1493 5.67665E-01 2.61170E+00 6.87499E-01
 -1      1494 2.63013E+00 4.74999E-01 6.87499E-01
 -1      1495-2.63013E+00-4.74999E-01 6.87499E-01
 -1      1496-1.44535E+00 2.24815E+00 6.87499E-01
 -1      1497-2.61170E+00-5.67665E-01 6.87499E-01
 -1      1498 1.44535E+00-2.24815E+00 6.87499E-01
 -1      1499 1.52391E+00 2.19566E+00 6.87499E-01
 -1      1500-2.24815E+00 1.44535E+00 6.87499E-01
 -1      1501-6.47943E-01 2.80551E+00 3.49999E-01
 -1      1502-4.74999E-01 2.80551E+00 3.49999E-01
 -1      1503-4.74999E-01 2.63013E+00 6.87499E-01
 -1      1504 5.67665E-01-2.61170E+00 6.87499E-01
 -1      1505-2.80551E+00 6.47943E-01 3.49999E-01
 -1      1506-2.80551E+00 4.74999E-01 3.49999E-01
 -1      1507 2.24815E+00 1.44535E+00 6.87499E-01
 -1      1508-5.67665E-01-2.61170E+00 6.87499E-01
 -1      1509-1.44535E+00-2.24815E+00 6.87499E-01
 -1      1510 4.74999E-01-2.63013E+00 6.87499E-01
 -1      1511 2.19566E+00-1.52391E+00 6.87499E-01
 -1      1512 1.52391E+00-2.19566E+00 6.87499E-01
 -1      1513 2.61170E+00-5.67665E-01 6.87499E-01
 -1      1514 2.63013E+00-4.74999E-01 6.87499E-01
 -1      1515-4.74999E-01-2.63013E+00 6.87499E-01
 -1      1516 2.19566E+00 1.52391E+00 6.87499E-01
 -1      1517-1.52391E+00 2.19566E+00 6.87499E-01
 -1      1518-5.67665E-01 2.61170E+00 6.87499E-01
 -1      1519-2.61170E+00 5.67665E-01 6.87499E-01
 -1      1520 2.24815E+00-1.44535E+00 6.87499E-01
 -1      1521-2.63013E+00 4.74999E-01 6.87499E-01
 -1      1522 1.21556E+01 2.41790E+00 3.49999E-01
 -1      1523-6.88558E+00 1.03050E+01 3.49999E-01
 -1      1524-6.88558E+00-1.03050E+01 3.49999E-01
 -1      1525-2.41790E+00-1.21556E+01 3.49999E-01
 -1      1526-3.78002E+00-1.40896E+01 3.49999E-01
 -1      1527 1.44896E+01 1.84565E+00 3.49999E-01
 -1      1528 4.01956E-04 2.02729E-04-3.49999E-01
 -1      1529-4.87957E+00 1.17803E+01-3.49999E-01
 -1      1530-8.94056E+00 1.15508E+01 3.49999E-01
 -1      1531-5.47244E+00 1.37349E+01 3.49999E-01
 -1      1532 1.11346E+01 9.67677E+00 3.49999E-01
 -1      1533 1.06013E+01-7.08348E+00-3.49999E-01
 -1      1534-7.06700E+00 1.24213E+01 3.49999E-01
 -1      1535-1.39901E+01-4.67924E+00 3.49999E-01
 -1      1536 1.25040E+01 2.48724E+00-3.49999E-01
 -1      1537 8.84466E+00-1.01207E+01-3.49999E-01
 -1      1538-1.03076E+00-1.47158E+01 3.49999E-01
 -1      1539-1.06013E+01 7.08348E+00-3.49999E-01
 -1      1540-7.28996E+00-1.26357E+01 3.49999E-01
 -1      1541-1.36384E+01 5.64931E+00 3.49999E-01
 -1      1542 1.42275E+01 3.88062E+00-3.49999E-01
 -1      1543-1.40069E+01 2.78612E+00 3.49999E-01
 -1      1544-1.25040E+01 2.48724E+00-3.49999E-01
 -1      1545-1.47621E+01 0.00000E+00 3.49999E-01
 -1      1546-5.74810E+00-1.38772E+01 3.49999E-01
 -1      1547-1.18745E+01 7.93427E+00 3.49999E-01
 -1      1548-1.18745E+01-7.93427E+00 3.49999E-01
 -1      1549 6.76749E+00-1.34677E+00-3.49999E-01
 -1      1550-4.67814E+00 1.39865E+01-3.49999E-01
 -1      1551-3.29393E-04 1.33365E-04 3.49999E-01
 -1      1552-9.59363E+00 6.41027E+00 3.49999E-01
 -1      1553-1.10559E+01 6.69064E+00 3.49999E-01
 -1      1554 7.93427E+00 1.18745E+01 3.49999E-01
 -1      1555 5.64931E+00 1.36384E+01 3.49999E-01
 -1      1556 1.26804E+01 7.25009E+00 3.49999E-01
 -1      1557 2.78612E+00 1.40069E+01 3.49999E-01
 -1      1558 0.00000E+00 1.47621E+01 3.49999E-01
 -1      1559 1.11346E+01-9.67677E+00 3.49999E-01
 -1      1560 1.28048E+01-7.31661E+00-3.49999E-01
 -1      1561 1.40069E+01-2.78612E+00 3.49999E-01
 -1      1562-4.02237E+00 1.46948E+01 3.49999E-01
 -1      1563 1.36384E+01-5.64931E+00 3.49999E-01
 -1      1564 1.38642E+01-5.51166E+00-3.49999E-01
 -1      1565 7.93427E+00-1.18745E+01 3.49999E-01
 -1      1566 5.64931E+00-1.36384E+01 3.49999E-01
 -1      1567 2.78612E+00-1.40069E+01 3.49999E-01
 -1      1568-1.29804E+01 6.46580E+00-3.49999E-01
 -1      1569 6.84535E+00 1.02448E+01 3.49999E-01
 -1      1570-1.04384E+01-1.04384E+01 3.49999E-01
 -1      1571-8.49763E+00 5.67794E+00 3.49999E-01
 -1      1572 9.84767E+00 1.12318E+01 3.49999E-01
 -1      1573-1.33151E+01 4.15239E+00 3.49999E-01
 -1      1574-9.09408E+00-3.76695E+00-3.49999E-01
 -1      1575 1.44663E+01 1.00618E+00-3.49999E-01
 -1      1576-4.99148E-01 1.24926E+01-3.49999E-01
 -1      1577-9.11439E+00-1.18956E+01 3.49999E-01
 -1      1578 7.29351E+00-1.34064E+01 3.49999E-01
 -1      1579-1.51769E+01 1.60785E+00 3.49999E-01
 -1      1580 1.51183E+01 2.50748E+00-3.49999E-01
 -1      1581-1.72189E+00 6.18754E+00-3.49999E-01
 -1      1582 1.03050E+01 6.88558E+00 3.49999E-01
 -1      1583 1.25916E+00 1.38905E+01 3.49999E-01
 -1      1584-2.41790E+00 1.21556E+01 3.49999E-01
 -1      1585-1.39590E+01 6.98886E+00 3.49999E-01
 -1      1586-1.13164E+01 2.25097E+00 3.49999E-01
 -1      1587-1.21556E+01-2.41790E+00 3.49999E-01
 -1      1588-3.54666E+00-1.28073E+01 3.49999E-01
 -1      1589-1.38541E+01 1.09171E+00 3.49999E-01
 -1      1590-1.41144E+01 4.71693E+00-3.49999E-01
 -1      1591-1.22711E+01 8.45391E+00-3.49999E-01
 -1      1592 1.03050E+01-6.88556E+00 3.49999E-01
 -1      1593 6.50737E+00-1.21776E+01 3.49999E-01
 -1      1594-1.39962E+01-1.22691E-01-3.49999E-01
 -1      1595-2.01236E+00 1.47991E+01 3.49999E-01
 -1      1596 9.25828E+00-1.19379E+01-3.49999E-01
 -1      1597-4.14428E-01-8.45906E+00-3.49999E-01
 -1      1598 1.33151E+01-4.15239E+00 3.49999E-01
 -1      1599 2.74725E+00 1.33613E+01-3.49999E-01
 -1      1600 8.22172E-01-1.25983E+01-3.49999E-01
 -1      1601-1.48711E+01 4.08196E+00 3.49999E-01
 -1      1602 1.47220E+01-4.03059E+00-3.49999E-01
 -1      1603-1.02708E+00 1.46784E+01-3.49999E-01
 -1      1604-8.30517E+00-1.06726E+01 3.49999E-01
 -1      1605 5.92780E+00 6.40085E+00-3.49999E-01
 -1      1606-7.20073E+00 1.25880E+01-3.49999E-01
 -1      1607 2.40375E+00-1.20845E+01 3.49999E-01
 -1      1608 5.92556E+00 8.86823E+00 3.49999E-01
 -1      1609 3.96966E+00 2.26931E+00-3.49999E-01
 -1      1610 1.14978E+01-9.14009E+00-3.49999E-01
 -1      1611 1.40454E+01-6.83142E+00-3.49999E-01
 -1      1612-1.04223E+01-4.34411E-01-3.49999E-01
 -1      1613 4.32252E+00-1.46369E+01 3.49999E-01
 -1      1614 1.06621E+01-8.29832E+00 3.49999E-01
 -1      1615 9.83010E+00-1.13214E+01 3.49999E-01
 -1      1616 1.52471E+01 2.45920E-01 3.49999E-01
 -1      1617 9.80971E+00-8.65224E+00-3.49999E-01
 -1      1618-1.21373E+01 5.46074E-01-3.49999E-01
 -1      1619-1.95297E+00 1.55790E+01-3.49999E-01
 -1      1620-1.23748E+01-5.19734E+00-3.49999E-01
 -1      1621 9.78741E-01-1.49054E+01 3.49999E-01
 -1      1622-6.18275E+00 1.42183E+01-3.49999E-01
 -1      1623 9.20778E+00 1.24963E+01 3.49999E-01
 -1      1624 1.39590E+01-6.98886E+00 3.49999E-01
 -1      1625 4.95837E+00-1.17641E+01-3.49999E-01
 -1      1626 1.31987E+01 1.62638E+00 3.49999E-01
 -1      1627 1.35711E+00 1.53773E+01 3.49999E-01
 -1      1628 2.13481E+00 1.24770E+01 3.49999E-01
 -1      1629 2.12020E+00 5.67566E+00-3.49999E-01
 -1      1630-1.25357E+01 6.62141E+00 3.49999E-01
 -1      1631-1.32426E+01 8.18010E+00 3.49999E-01
 -1      1632-3.05460E+00 1.54647E+01 3.49999E-01
 -1      1633-1.36223E+01-2.44833E-02 3.49999E-01
 -1      1634-1.44557E+01-2.42674E+00 3.49999E-01
 -1      1635-3.31560E+00-1.23647E+01-3.49999E-01
 -1      1636-5.19037E+00 1.48840E+01 3.49999E-01
 -1      1637 3.37581E+00 9.44160E+00-3.49999E-01
 -1      1638 7.29351E+00 1.34064E+01 3.49999E-01
 -1      1639-5.21884E+00 1.25993E+01 3.49999E-01
 -1      1640 1.37008E+01 5.90615E+00-3.49999E-01
 -1      1641-1.34588E+01 1.30161E+00-3.49999E-01
 -1      1642 1.24100E+01-9.64571E+00 3.49999E-01
 -1      1643 1.06680E+01-1.10291E+01-3.49999E-01
 -1      1644 1.59515E+00 1.11663E+01-3.49999E-01
 -1      1645-6.54825E+00-1.15640E+01 3.49999E-01
 -1      1646-1.15946E+00-1.09360E+01-3.49999E-01
 -1      1647-1.31202E+01 3.60361E-01-3.49999E-01
 -1      1648-5.29750E+00 1.85886E+00-3.49999E-01
 -1      1649-1.40802E+01 7.05367E+00-3.49999E-01
 -1      1650 1.39222E+01 4.89972E-01 3.49999E-01
 -1      1651 2.08407E+00 1.04773E+01 3.49999E-01
 -1      1652-1.42169E+01-1.16389E+00 3.49999E-01
 -1      1653-8.54996E+00-1.31229E+01 3.49999E-01
 -1      1654-1.42176E+01-2.65604E+00-3.49999E-01
 -1      1655 8.17535E+00 1.05348E+01 3.49999E-01
 -1      1656-1.19017E+01 7.20151E+00-3.49999E-01
 -1      1657 9.78705E+00-9.78705E+00 3.49999E-01
 -1      1658 1.39901E+01 4.67924E+00 3.49999E-01
 -1      1659-1.52652E-01 3.29097E+00-3.49999E-01
 -1      1660 1.66834E+00-1.32300E+01 3.49999E-01
 -1      1661-9.27090E+00 1.06400E+01-3.49999E-01
 -1      1662-2.57603E+00-1.51518E+01 3.49999E-01
 -1      1663-1.33963E+01-6.60835E+00 3.49999E-01
 -1      1664-9.97517E-01-1.43784E+01-3.49999E-01
 -1      1665 1.49493E+01-5.15119E+00-3.49999E-01
 -1      1666-1.41222E+01 4.76144E+00 3.49999E-01
 -1      1667 7.20950E+00 1.07548E+01-3.49999E-01
 -1      1668 1.38101E+01 2.63432E+00-3.49999E-01
 -1      1669-9.01529E+00-9.01529E+00-3.49999E-01
 -1      1670 1.16335E+01-7.85722E+00-3.49999E-01
 -1      1671 2.96715E+00-1.40863E+01-3.49999E-01
 -1      1672 1.53668E+01 3.64422E+00-3.49999E-01
 -1      1673 1.48757E+01-4.07722E+00 3.49999E-01
 -1      1674 1.25399E+01 8.86630E+00 3.49999E-01
 -1      1675 7.12381E+00-1.14680E+01-3.49999E-01
 -1      1676-4.22014E+00 1.34184E+01 3.49999E-01
 -1      1677-1.12400E+00-1.56623E+01-3.49999E-01
 -1      1678-2.27120E+00 9.56518E+00-3.49999E-01
 -1      1679-1.55551E+00-1.26796E+01-3.49999E-01
 -1      1680 1.49128E+01 4.95909E+00-3.49999E-01
 -1      1681-2.78117E+00 1.27010E+01-3.49999E-01
 -1      1682 1.15716E+01 6.55352E+00 3.49999E-01
 -1      1683-3.92013E+00-1.43578E+01-3.49999E-01
 -1      1684 7.90457E+00-1.30043E+01-3.49999E-01
 -1      1685 1.09312E+00-1.02630E+01-3.49999E-01
 -1      1686 4.15239E+00 1.33151E+01 3.49999E-01
 -1      1687 1.32601E+01 7.55997E+00-3.49999E-01
 -1      1688-1.41409E+01-5.59558E+00-3.49999E-01
 -1      1689 6.14145E-02-1.38841E+01 3.49999E-01
 -1      1690 1.46944E+01 9.63390E-01 3.49999E-01
 -1      1691 1.56800E+01 1.96291E+00 3.49999E-01
 -1      1692-2.09793E+00 1.58140E+01 3.49999E-01
 -1      1693 1.15940E+00 1.27949E+01-3.49999E-01
 -1      1694-1.03701E+01-1.06660E+01-3.49999E-01
 -1      1695-4.08459E+00 1.28200E+01-3.49999E-01
 -1      1696 1.12828E+01 8.03354E+00 3.49999E-01
 -1      1697 9.09116E+00 1.17343E+01-3.49999E-01
 -1      1698 8.92419E+00 5.96296E+00 3.49999E-01
 -1      1699 9.77741E+00 1.25705E+01-3.49999E-01
 -1      1700 1.19090E+01-1.03123E+01-3.49999E-01
 -1      1701-1.16322E+01-2.72008E+00-3.49999E-01
 -1      1702-1.54443E+01-1.93970E+00-3.49999E-01
 -1      1703-1.02174E+01 1.91404E+00-3.49999E-01
 -1      1704-1.18157E+01 7.08172E+00 3.49999E-01
 -1      1705-1.33448E+01 6.42773E+00 3.49999E-01
 -1      1706-1.03896E+01-1.17241E+01 3.49999E-01
 -1      1707 4.29329E+00-1.32173E+01 3.49999E-01
 -1      1708 8.52755E+00-1.33029E+01 3.49999E-01
 -1      1709-4.87065E+00-6.32831E+00-3.49999E-01
 -1      1710 1.59304E+01 1.98758E+00-3.49999E-01
 -1      1711-3.87554E-01-1.20281E+01-3.49999E-01
 -1      1712 5.54502E-02-1.08961E+01-3.49999E-01
 -1      1713 1.10265E+01-1.51067E+00-3.49999E-01
 -1      1714-1.03982E+00-1.35710E+01 3.49999E-01
 -1      1715 4.00582E+00 1.46403E+01-3.49999E-01
 -1      1716-3.76534E+00-1.52864E+01 3.49999E-01
 -1      1717-6.31331E+00 1.45505E+01 3.49999E-01
 -1      1718 1.01289E+00-1.46134E+01-3.49999E-01
 -1      1719-1.02352E+00 1.38393E+01 3.49999E-01
 -1      1720 2.26052E+00 1.22169E+01-3.49999E-01
 -1      1721 5.09754E+00-1.38982E+01-3.49999E-01
 -1      1722-1.07460E-01-1.56738E+01 3.49999E-01
 -1      1723 2.32537E+00-1.53471E+01 3.49999E-01
 -1      1724 1.23160E+01-6.67401E+00 3.49999E-01
 -1      1725-5.60479E+00-9.73593E+00-3.49999E-01
 -1      1726 8.22929E+00 2.67465E+00-3.49999E-01
 -1      1727 8.92417E+00-5.96294E+00 3.49999E-01
 -1      1728-1.33997E+01 8.57932E+00-3.49999E-01
 -1      1729 1.43070E+01-1.13922E+00 3.49999E-01
 -1      1730-5.80798E+00 1.28513E+01-3.49999E-01
 -1      1731 1.05268E+01 2.09392E+00 3.49999E-01
 -1      1732-1.06843E+01 1.02069E+01 3.49999E-01
 -1      1733 3.11582E+00 1.29629E+01 3.49999E-01
 -1      1734-1.27874E+01-5.29677E+00 3.49999E-01
 -1      1735-1.28953E+01-1.49525E+00-3.49999E-01
 -1      1736-1.14159E+01 5.33051E+00-3.49999E-01
 -1      1737 9.77418E+00 9.86094E+00 3.49999E-01
 -1      1738 1.11591E+01 1.10071E+01 3.49999E-01
 -1      1739-6.18804E+00 1.29790E+01 3.49999E-01
 -1      1740 9.59115E+00-1.09065E+01-3.49999E-01
 -1      1741 9.96548E+00 1.27996E+01 3.49999E-01
 -1      1742 8.88639E+00 1.15395E+01 3.49999E-01
 -1      1743-5.00550E+00 1.50658E+01-3.49999E-01
 -1      1744-1.14930E+01 1.67304E+00-3.49999E-01
 -1      1745 1.00547E+01-1.16255E+01-3.49999E-01
 -1      1746 1.21807E+01-1.05353E+01 3.49999E-01
 -1      1747 1.38653E+01 4.86769E+00-3.49999E-01
 -1      1748-6.10378E+00 7.20840E+00-3.49999E-01
 -1      1749-1.13164E+01 1.31343E+00 3.49999E-01
 -1      1750-7.07393E+00-1.39457E+01 3.49999E-01
 -1      1751 4.63102E+00 1.47262E+01 3.49999E-01
 -1      1752-1.45219E+01-5.89887E+00 3.49999E-01
 -1      1753 7.00900E+00-1.39967E+01-3.49999E-01
 -1      1754-2.55650E-01-1.33166E+01-3.49999E-01
 -1      1755-1.11646E+01 8.09961E+00-3.49999E-01
 -1      1756-1.08062E+01-4.31760E+00-3.49999E-01
 -1      1757 1.05265E+01-1.05341E+01 3.49999E-01
 -1      1758 8.41866E+00 1.30992E+01-3.49999E-01
 -1      1759 1.32999E+00 1.48255E+01-3.49999E-01
 -1      1760 1.06420E+01 1.09975E+01-3.49999E-01
 -1      1761 6.22757E+00 1.12589E+00-3.49999E-01
 -1      1762 3.10650E+00 1.09451E+01-3.49999E-01
 -1      1763 4.94029E-01 1.17442E+01-3.49999E-01
 -1      1764 8.67203E+00-1.35732E+01-3.49999E-01
 -1      1765 3.89525E+00-6.78666E-01-3.49999E-01
 -1      1766 4.82693E+00-6.37552E+00-3.49999E-01
 -1      1767 1.46799E+01-1.86440E+00-3.49999E-01
 -1      1768-1.10606E+01-2.86873E+00 3.49999E-01
 -1      1769-6.94829E+00-7.66359E+00-3.49999E-01
 -1      1770 1.31440E+01-8.44264E+00 3.49999E-01
 -1      1771-1.47421E+01 2.82586E+00-3.49999E-01
 -1      1772-1.51838E+01 1.13883E+00-3.49999E-01
 -1      1773-1.01226E+01 7.60453E+00 3.49999E-01
 -1      1774-1.07125E+01-8.93169E+00 3.49999E-01
 -1      1775-1.21831E+01 9.45952E+00 3.49999E-01
 -1      1776-7.77281E+00 5.17659E-01-3.49999E-01
 -1      1777-1.01757E+01 1.66195E+00 3.49999E-01
 -1      1778 1.29635E+01-5.48880E-01-3.49999E-01
 -1      1779 1.39505E+00-1.21555E+01 3.49999E-01
 -1      1780-1.18382E+01 7.90092E+00-3.49999E-01
 -1      1781 7.78813E+00 1.19404E+01-3.49999E-01
 -1      1782 2.78158E+00-1.16423E+01-3.49999E-01
 -1      1783 7.96330E+00-4.69702E+00-3.49999E-01
 -1      1784 6.60427E+00 1.15845E+01 3.49999E-01
 -1      1785-1.24451E+01 9.67453E+00-3.49999E-01
 -1      1786-5.96296E+00 8.92419E+00 3.49999E-01
 -1      1787 1.47902E+01-5.79253E+00 3.49999E-01
 -1      1788-7.36995E+00 1.38266E+01-3.49999E-01
 -1      1789-1.19957E+01-6.53709E+00 3.49999E-01
 -1      1790 1.95264E-02 9.50232E+00-3.49999E-01
 -1      1791-1.54307E+01 2.89518E+00 3.49999E-01
 -1      1792 1.53916E+01-2.79214E+00 3.49999E-01
 -1      1793-8.79115E+00 1.26820E+01-3.49999E-01
 -1      1794 1.50677E+01 5.00607E+00 3.49999E-01
 -1      1795 6.84535E+00-1.02448E+01 3.49999E-01
 -1      1796-1.10841E+00-4.18522E+00-3.49999E-01
 -1      1797-4.70885E+00 1.41566E+01 3.49999E-01
 -1      1798-1.16761E+00 8.01117E+00-3.49999E-01
 -1      1799 1.13588E+00-1.57830E+01-3.49999E-01
 -1      1800-8.46762E+00 1.29843E+01 3.49999E-01
 -1      1801-6.44103E+00 1.14090E+01 3.49999E-01
 -1      1802 5.28238E+00 1.24294E+01-3.49999E-01
 -1      1803 3.80897E+00-1.27933E+01-3.49999E-01
 -1      1804-1.01035E+01-6.75091E+00 3.49999E-01
 -1      1805 1.20845E+01-2.40375E+00 3.49999E-01
 -1      1806-7.96762E+00 1.31141E+01-3.49999E-01
 -1      1807 1.66956E+00 7.91820E+00-3.49999E-01
 -1      1808-2.94707E-01 1.57424E+01-3.49999E-01
 -1      1809-1.50741E+00-1.26477E+01 3.49999E-01
 -1      1810 1.75034E+00 9.54495E+00-3.49999E-01
 -1      1811-4.22862E+00-1.53749E+01-3.49999E-01
 -1      1812 2.55291E-01 8.09650E+00-3.49999E-01
 -1      1813 1.54529E+00-2.64866E+00-3.49999E-01
 -1      1814-4.69918E+00-2.20020E+00-3.49999E-01
 -1      1815 5.21106E+00 1.25805E+01 3.49999E-01
 -1      1816 1.56080E+01-3.42873E+00-3.49999E-01
 -1      1817 8.45366E+00 3.16694E-01-3.49999E-01
 -1      1818 4.14369E+00 1.32459E+01-3.49999E-01
 -1      1819 1.32795E+01 1.47417E+00-3.49999E-01
 -1      1820 6.01793E+00-1.46336E+01-3.49999E-01
 -1      1821 8.74261E-01-1.59097E+01 3.49999E-01
 -1      1822-1.27559E+01 2.04481E+00 3.49999E-01
 -1      1823 3.10072E+00 1.17602E+01 3.49999E-01
 -1      1824-1.41633E+01-1.38443E+00-3.49999E-01
 -1      1825 2.34174E+00 1.32925E+01 3.49999E-01
 -1      1826-9.69940E+00 1.24754E+01 3.49999E-01
 -1      1827 1.14621E+00 1.58879E+01-3.49999E-01
 -1      1828 1.76763E+00-1.35254E+01-3.49999E-01
 -1      1829-1.18330E+01-9.91382E+00 3.49999E-01
 -1      1830 1.47024E+01-2.06209E+00 3.49999E-01
 -1      1831-6.77777E+00 1.00645E+01-3.49999E-01
 -1      1832 2.10323E+00-1.04694E+01 3.49999E-01
 -1      1833-5.79253E+00-9.84949E+00 3.49999E-01
 -1      1834 1.27665E+01-2.58341E+00-3.49999E-01
 -1      1835 1.47718E+01-6.13894E+00-3.49999E-01
 -1      1836 1.14802E+01-4.73547E+00-3.49999E-01
 -1      1837 1.35405E+01 3.97195E-01-3.49999E-01
 -1      1838 1.58022E-01 1.46467E+01-3.49999E-01
 -1      1839 1.56641E+01-3.64765E+00 3.49999E-01
 -1      1840 7.37059E+00 1.10309E+01 3.49999E-01
 -1      1841-1.29275E+01-2.79212E+00-3.49999E-01
 -1      1842 6.58122E+00-1.27103E+01-3.49999E-01
 -1      1843-2.09392E+00-1.05268E+01 3.49999E-01
 -1      1844-1.17370E+01-1.01712E+01-3.49999E-01
 -1      1845-2.43584E+00 1.53584E+00-3.49999E-01
 -1      1846 2.60028E+00 1.00786E+01-3.49999E-01
 -1      1847-3.35725E+00-1.17665E+01 3.49999E-01
 -1      1848-2.36891E+00-1.05831E+00-3.49999E-01
 -1      1849-1.47556E+01 2.35958E+00 3.49999E-01
 -1      1850 1.56466E+01 2.85274E-01-3.49999E-01
 -1      1851-8.18284E+00 1.04829E+01 3.49999E-01
 -1      1852 3.46339E+00-1.24593E+01 3.49999E-01
 -1      1853 8.88255E+00-1.80438E+00-3.49999E-01
 -1      1854-7.88420E+00 1.38667E+01 3.49999E-01
 -1      1855-7.68353E-01-1.27181E+01-3.49999E-01
 -1      1856-3.66184E-01-1.32949E+01 3.49999E-01
 -1      1857 1.17892E+01 1.02140E+01-3.49999E-01
 -1      1858-4.96734E+00-1.49400E+01 3.49999E-01
 -1      1859 4.29189E+00-3.53841E+00-3.49999E-01
 -1      1860-7.74035E+00 3.41255E+00-3.49999E-01
 -1      1861-1.06618E+01 7.69637E-01-3.49999E-01
 -1      1862 2.31959E+00 1.55438E+01-3.49999E-01
 -1      1863 4.99872E+00 1.05082E+01-3.49999E-01
 -1      1864-4.37036E+00 4.73413E+00-3.49999E-01
 -1      1865 2.54162E-03-9.64250E+00-3.49999E-01
 -1      1866 9.01749E+00 9.57869E+00-3.49999E-01
 -1      1867 1.04608E+01-2.08077E+00 3.49999E-01
 -1      1868 1.22368E+01 9.96441E+00 3.49999E-01
 -1      1869 1.28413E+01 5.76318E+00 3.49999E-01
 -1      1870 1.64719E+00 1.72574E+00-3.49999E-01
 -1      1871 1.78341E+00-1.42570E+01 3.49999E-01
 -1      1872 1.82472E+00 1.03702E+01-3.49999E-01
 -1      1873-5.72381E-01-1.02947E+01-3.49999E-01
 -1      1874-8.57494E-01 1.56699E+01 3.49999E-01
 -1      1875 3.11219E-01 1.58799E+01 3.49999E-01
 -1      1876 3.19741E+00-2.23283E+00-3.49999E-01
 -1      1877 2.97075E+00 1.08189E+01 3.49999E-01
 -1      1878 1.00606E+01 5.82173E+00-3.49999E-01
 -1      1879 5.10924E+00-1.96766E+00-3.49999E-01
 -1      1880 8.72214E-01 1.00401E+01-3.49999E-01
 -1      1881-1.76246E+00 1.12573E+01-3.49999E-01
 -1      1882-2.83176E+00-3.06241E+00-3.49999E-01
 -1      1883-9.23615E+00 4.27357E-01-3.49999E-01
 -1      1884 7.45499E-01-1.36221E+01-3.49999E-01
 -1      1885-1.65694E+00 1.24130E+01-3.49999E-01
 -1      1886-1.21826E+01 3.17003E+00 3.49999E-01
 -1      1887-4.94952E+00 1.26575E+01-3.49999E-01
 -1      1888-1.52114E+01 4.17905E+00-3.49999E-01
 -1      1889 6.36231E+00-1.45542E+01 3.49999E-01
 -1      1890 1.61533E+01 3.35187E-01 3.49999E-01
 -1      1891 7.83959E+00 5.00781E+00-3.49999E-01
 -1      1892 8.62829E-01 1.46632E+01 3.49999E-01
 -1      1893 6.00149E+00 3.50168E+00-3.49999E-01
 -1      1894-2.82116E+00 1.58939E+01-3.49999E-01
 -1      1895 7.99972E-01-1.33976E+01 3.49999E-01
 -1      1896-1.03115E+01-1.19080E+01-3.49999E-01
 -1      1897-5.73964E+00-2.79936E-01-3.49999E-01
 -1      1898 6.06988E+00-1.36249E+01-3.49999E-01
 -1      1899 3.45276E-01 1.62558E+01-3.49999E-01
 -1      1900-7.62362E+00 1.30603E+01 3.49999E-01
 -1      1901 6.85404E+00 2.38415E+00-3.49999E-01
 -1      1902 7.85925E+00-1.27430E+01 3.49999E-01
 -1      1903-3.49679E+00 1.25333E+01 3.49999E-01
 -1      1904-1.13490E+00 9.20326E+00-3.49999E-01
 -1      1905 1.27794E+01 3.90926E+00-3.49999E-01
 -1      1906-9.91805E+00-2.16440E+00-3.49999E-01
 -1      1907 5.61496E+00 1.40954E+01-3.49999E-01
 -1      1908 8.45896E+00 1.33895E+01 3.49999E-01
 -1      1909 2.77208E+00 1.53956E+01 3.49999E-01
 -1      1910-2.27064E+00-1.16004E+01-3.49999E-01
 -1      1911 1.16348E-01 5.31007E+00-3.49999E-01
 -1      1912 7.08490E+00 1.78152E-02-3.49999E-01
 -1      1913 1.39959E+01 7.00860E+00 3.49999E-01
 -1      1914-1.40115E+00 1.21555E+01 3.49999E-01
 -1      1915-4.49068E+00-1.55446E+01 3.49999E-01
 -1      1916 8.30179E+00-1.11999E+01-3.49999E-01
 -1      1917-1.90949E+00 1.31538E+01 3.49999E-01
 -1      1918-1.92431E+00 1.37076E+01-3.49999E-01
 -1      1919-3.33817E-01-1.61394E+01-3.49999E-01
 -1      1920-1.36737E+01-5.54295E+00 3.49999E-01
 -1      1921 6.36231E+00 1.45542E+01 3.49999E-01
 -1      1922-1.11163E+01 3.17561E+00-3.49999E-01
 -1      1923 9.96388E+00-9.80489E+00-3.49999E-01
 -1      1924-1.16514E+01 2.51123E+00-3.49999E-01
 -1      1925 8.17535E+00-1.05348E+01 3.49999E-01
 -1      1926 1.34959E+00 9.99889E+00 3.49999E-01
 -1      1927 6.41241E+00-1.31042E+01 3.49999E-01
 -1      1928 1.30261E+01 3.58649E+00 3.49999E-01
 -1      1929-1.01842E+01-3.31436E+00-3.49999E-01
 -1      1930 1.37513E+01-7.90810E+00-3.49999E-01
 -1      1931-1.57699E+01 5.97411E-01 3.49999E-01
 -1      1932-7.83211E+00 1.11850E+01-3.49999E-01
 -1      1933 1.88967E+00-6.72865E-01-3.49999E-01
 -1      1934-8.56198E+00 1.97414E+00-3.49999E-01
 -1      1935-3.79504E-01 6.77558E+00-3.49999E-01
 -1      1936-5.09054E+00-1.53461E+01-3.49999E-01
 -1      1937-8.33686E-01 1.04182E+01-3.49999E-01
 -1      1938 1.33034E+00 1.29566E+01 3.49999E-01
 -1      1939 7.35268E+00 3.72736E+00-3.49999E-01
 -1      1940 1.13723E+01-7.36730E+00 3.49999E-01
 -1      1941-1.20455E+01-3.94611E+00-3.49999E-01
 -1      1942-1.09736E+01 8.91044E+00 3.49999E-01
 -1      1943 4.81955E+00-1.39166E+01 3.49999E-01
 -1      1944-1.14476E+01-1.10115E+01 3.49999E-01
 -1      1945-9.62868E+00-9.62868E+00 3.49999E-01
 -1      1946-1.04773E+01-1.70615E+00 3.49999E-01
 -1      1947 1.40002E+01-2.96111E+00-3.49999E-01
 -1      1948-1.40585E+00 4.48540E+00-3.49999E-01
 -1      1949 6.46987E+00 1.18498E+01-3.49999E-01
 -1      1950-1.19130E+01-3.38391E+00 3.49999E-01
 -1      1951-9.41385E+00 1.01660E+01 3.49999E-01
 -1      1952-7.56171E+00 1.14157E+01 3.49999E-01
 -1      1953-3.30243E+00 7.66398E+00-3.49999E-01
 -1      1954 1.12312E+01-3.12620E+00-3.49999E-01
 -1      1955-3.83614E+00 1.52762E+01-3.49999E-01
 -1      1956 1.59262E+00 8.00665E+00 3.49999E-01
 -1      1957-6.46627E+00 1.14139E+01-3.49999E-01
 -1      1958 1.15924E+01 1.11575E+01-3.49999E-01
 -1      1959 1.26781E+01 9.86576E+00-3.49999E-01
 -1      1960-1.10858E+01-3.44986E+00-3.49999E-01
 -1      1961-1.20131E+00-1.35043E+01-3.49999E-01
 -1      1962 5.53021E+00 2.25818E+00-3.49999E-01
 -1      1963 7.77148E+00 1.44143E+00-3.49999E-01
 -1      1964-4.33256E+00 1.46806E+01-3.49999E-01
 -1      1965-3.35494E+00 6.02357E+00-3.49999E-01
 -1      1966 1.45672E+01-1.55425E-01-3.49999E-01
 -1      1967 1.56407E+01-1.00428E+00-3.49999E-01
 -1      1968-5.25219E-01-2.13261E+00-3.49999E-01
 -1      1969-2.60229E+00-1.12723E+01 3.49999E-01
 -1      1970-2.39770E+00-9.21302E+00-3.49999E-01
 -1      1971 1.00164E+01 5.82291E+00 3.49999E-01
 -1      1972 8.44561E+00 1.06773E+01-3.49999E-01
 -1      1973 2.54580E+00 9.22165E+00-3.49999E-01
 -1      1974 1.37873E+00-8.49244E+00-3.49999E-01
 -1      1975-8.53976E+00 1.04414E+00-3.49999E-01
 -1      1976-1.46969E+01 3.12689E+00 3.49999E-01
 -1      1977-6.82332E-01 1.61739E+00-3.49999E-01
 -1      1978-1.22241E+01-7.70582E+00-3.49999E-01
 -1      1979-1.16023E+01-1.11384E+01-3.49999E-01
 -1      1980-1.89835E+00-9.54362E+00 3.49999E-01
 -1      1981-4.19997E+00-8.25570E+00-3.49999E-01
 -1      1982-1.42266E+00-1.13164E+01 3.49999E-01
 -1      1983-1.53725E+00 2.61085E-01-3.49999E-01
 -1      1984 1.18091E+01-6.19712E+00-3.49999E-01
 -1      1985 1.94019E+00-1.24038E+01-3.49999E-01
 -1      1986 1.29776E+01-4.18549E+00-3.49999E-01
 -1      1987 8.99618E-01 8.92724E+00-3.49999E-01
 -1      1988 9.71415E+00-5.41287E+00-3.49999E-01
 -1      1989 1.21100E+01 6.20633E-01-3.49999E-01
 -1      1990 2.96452E+00-1.11447E+01 3.49999E-01
 -1      1991 1.35523E+00-1.00021E+01 3.49999E-01
 -1      1992 1.00636E+01-2.45336E+00-3.49999E-01
 -1      1993-8.49302E+00 8.32196E+00-3.49999E-01
 -1      1994 1.56287E+01-1.11913E+00 3.49999E-01
 -1      1995-1.28240E+01-8.94435E+00 3.49999E-01
 -1      1996 1.26689E+01-5.35132E+00-3.49999E-01
 -1      1997 3.95916E+00 1.03220E+01-3.49999E-01
 -1      1998 5.22227E+00 8.40000E+00-3.49999E-01
 -1      1999-1.05822E+01 1.15107E+01 3.49999E-01
 -1      2000 8.69164E+00 3.95100E+00-3.49999E-01
 -1      2001-1.30036E+01 1.22097E+00 3.49999E-01
 -1      2002 4.94028E+00-1.50387E+01-3.49999E-01
 -1      2003 1.40947E+01 1.80271E+00-3.49999E-01
 -1      2004 3.37245E+00 1.24197E+01-3.49999E-01
 -1      2005 9.05352E-01-9.32441E+00-3.49999E-01
 -1      2006-6.46496E+00-4.19447E+00-3.49999E-01
 -1      2007-1.00279E+01 2.69883E-01-3.49999E-01
 -1      2008-9.44316E+00 3.41677E+00-3.49999E-01
 -1      2009 5.49007E+00-3.30425E-01-3.49999E-01
 -1      2010-6.14745E+00-1.41522E+01-3.49999E-01
 -1      2011 8.61698E+00-7.06633E+00-3.49999E-01
 -1      2012 1.08189E+01-5.65212E+00-3.49999E-01
 -1      2013-2.76421E+00-1.53158E+01-3.49999E-01
 -1      2014 5.51055E-02 1.03908E+01-3.49999E-01
 -1      2015 1.08180E+00 1.61439E+01 3.49999E-01
 -1      2016-1.16290E+00 1.60572E+01-3.49999E-01
 -1      2017-2.32023E+00 8.36150E+00-3.49999E-01
 -1      2018-2.38810E+00 1.18971E+01-3.49999E-01
 -1      2019 8.35986E-01 7.00444E+00-3.49999E-01
 -1      2020 6.20476E+00 2.22542E-01-3.49999E-01
 -1      2021-8.18375E+00 1.39023E+01-3.49999E-01
 -1      2022 1.29440E+01-3.10623E+00 3.49999E-01
 -1      2023 1.31214E+01-1.64071E+00 3.49999E-01
 -1      2024-8.78087E+00-5.86720E+00 3.49999E-01
 -1      2025 4.01989E+00-1.38512E+01-3.49999E-01
 -1      2026 4.88662E+00-1.28404E+01-3.49999E-01
 -1      2027 3.57493E+00 1.47093E+01 3.49999E-01
 -1      2028-8.69030E+00-1.25592E+01-3.49999E-01
 -1      2029 4.74085E+00 9.91139E-01-3.49999E-01
 -1      2030 4.65964E+00 9.40628E+00-3.49999E-01
 -1      2031 2.45675E+00-1.53720E+01-3.49999E-01
 -1      2032-8.59292E+00 2.94568E+00-3.49999E-01
 -1      2033-9.44053E+00 1.35964E+00-3.49999E-01
 -1      2034-2.09392E+00 1.05268E+01 3.49999E-01
 -1      2035 5.92556E+00-8.86823E+00 3.49999E-01
 -1      2036 7.06205E+00-1.12786E+01 3.49999E-01
 -1      2037 2.13476E+00 9.59655E+00 3.49999E-01
 -1      2038 1.49963E+01 3.40853E+00 3.49999E-01
 -1      2039-1.30103E+01-6.49428E+00-3.49999E-01
 -1      2040-9.81557E+00 1.26170E+01-3.49999E-01
 -1      2041 4.58928E-01 2.17680E+00-3.49999E-01
 -1      2042-1.07294E+00-9.53394E-01-3.49999E-01
 -1      2043-3.01027E+00-5.22035E+00-3.49999E-01
 -1      2044-3.52187E+00 9.01328E+00-3.49999E-01
 -1      2045-3.92885E+00 1.55705E+01 3.49999E-01
 -1      2046 9.30634E-01 7.75519E+00-3.49999E-01
 -1      2047 1.52401E+01-4.95517E+00 3.49999E-01
 -1      2048-1.07360E+01 9.75614E+00-3.49999E-01
 -1      2049-9.44721E-01 5.45143E+00-3.49999E-01
 -1      2050 3.71926E+00 1.23539E+01 3.49999E-01
 -1      2051 2.14114E+00 1.14764E+01 3.49999E-01
 -1      2052-1.09577E+01 3.11717E+00 3.49999E-01
 -1      2053 1.03044E+01 1.97490E-01-3.49999E-01
 -1      2054-3.13218E+00 1.41848E+01-3.49999E-01
 -1      2055-7.64145E+00 1.53087E+00-3.49999E-01
 -1      2056-1.23085E+00 1.04773E+01 3.49999E-01
 -1      2057 3.86988E+00-1.17049E+01-3.49999E-01
 -1      2058 1.13856E+01-3.52145E-01-3.49999E-01
 -1      2059 9.32308E+00-6.11408E-01-3.49999E-01
 -1      2060-1.24593E+01 8.60979E+00 3.49999E-01
 -1      2061-1.55612E+01-2.76862E-01-3.49999E-01
 -1      2062-1.58283E+01 1.97752E+00-3.49999E-01
 -1      2063-1.43788E+01 1.82943E+00-3.49999E-01
 -1      2064-1.42924E+01 9.14327E-01-3.49999E-01
 -1      2065-8.81587E+00 1.16105E+01-3.49999E-01
 -1      2066-1.10307E+01 7.59841E+00 3.49999E-01
 -1      2067-1.36210E+01 2.67020E+00-3.49999E-01
 -1      2068 7.23916E+00-1.44273E+01 3.49999E-01
 -1      2069 1.28973E+01 4.67174E+00 3.49999E-01
 -1      2070 1.18951E+01-8.50614E+00 3.49999E-01
 -1      2071 1.30246E+01-7.42038E+00 3.49999E-01
 -1      2072 1.39581E+01-7.94367E+00 3.49999E-01
 -1      2073 9.05859E+00 5.11874E+00-3.49999E-01
 -1      2074 1.36284E+01-1.97173E+00-3.49999E-01
 -1      2075-9.24244E+00-6.41168E+00-3.49999E-01
 -1      2076-1.01647E+01-2.83885E+00 3.49999E-01
 -1      2077-1.82262E+00-2.23998E+00-3.49999E-01
 -1      2078 2.43471E-01-3.46017E+00-3.49999E-01
 -1      2079 5.69031E+00-9.05035E+00-3.49999E-01
 -1      2080 1.15552E+01-5.48644E+00-3.49999E-01
 -1      2081 2.05724E+00 1.59554E+01 3.49999E-01
 -1      2082 1.25162E+01-5.56674E+00 3.49999E-01
 -1      2083 1.66520E+00 3.56387E+00-3.49999E-01
 -1      2084-1.49659E+01 8.04838E-01 3.49999E-01
 -1      2085 1.06509E+01-8.09263E+00-3.49999E-01
 -1      2086 1.19983E+00-1.14588E+01-3.49999E-01
 -1      2087 1.19731E+01-7.05381E+00-3.49999E-01
 -1      2088-1.57324E+01 2.97420E+00-3.49999E-01
 -1      2089 1.44727E+01-2.40051E-01 3.49999E-01
 -1      2090-1.32491E+01-8.49881E+00-3.49999E-01
 -1      2091 5.01631E-01-2.42436E+00-3.49999E-01
 -1      2092-7.75707E+00 2.46824E+00-3.49999E-01
 -1      2093-1.43123E+01 3.73290E+00-3.49999E-01
 -1      2094 8.10266E+00 7.37723E+00-3.49999E-01
 -1      2095 9.71286E+00-1.24918E+01 3.49999E-01
 -1      2096-4.39957E+00 1.26188E+01 3.49999E-01
 -1      2097 1.56698E+01-2.33457E+00-3.49999E-01
 -1      2098-1.27813E+01 5.09461E+00-3.49999E-01
 -1      2099 1.23313E+00 4.72321E-01-3.49999E-01
 -1      2100-8.81468E+00 1.75335E+00 3.49999E-01
 -1      2101-1.60806E+01-3.28019E-01 3.49999E-01
 -1      2102 7.15961E+00-1.32323E+01-3.49999E-01
 -1      2103 9.00795E+00-6.99596E+00 3.49999E-01
 -1      2104 9.91059E+00-5.64501E+00 3.49999E-01
 -1      2105-1.25280E+01 5.50126E+00 3.49999E-01
 -1      2106 1.22200E+00-1.13164E+01 3.49999E-01
 -1      2107-1.26591E+01-7.29849E+00 3.49999E-01
 -1      2108-9.90443E+00 1.15290E+01-3.49999E-01
 -1      2109-3.35157E-01 5.97394E+00-3.49999E-01
 -1      2110 2.92199E+00 1.17397E+01-3.49999E-01
 -1      2111 6.29623E+00-3.58335E+00-3.49999E-01
 -1      2112-9.40747E+00 2.43348E+00-3.49999E-01
 -1      2113 7.47272E+00 4.99312E+00 3.49999E-01
 -1      2114-1.40157E+01 1.93123E+00 3.49999E-01
 -1      2115-3.85327E+00 2.01332E-01-3.49999E-01
 -1      2116-1.40864E+01 3.96957E+00 3.49999E-01
 -1      2117 1.17800E+01-2.23596E+00-3.49999E-01
 -1      2118-1.58586E+00-1.57048E+01 3.49999E-01
 -1      2119-3.85834E+00-1.05262E+01-3.49999E-01
 -1      2120-9.62155E+00-5.06389E+00-3.49999E-01
 -1      2121 1.18008E+01-6.00912E+00 3.49999E-01
 -1      2122 8.13697E+00-8.51243E-01-3.49999E-01
 -1      2123 9.56066E+00 1.07219E+01-3.49999E-01
 -1      2124-3.78758E-01 2.44192E+00-3.49999E-01
 -1      2125 9.49915E+00-1.88950E+00 3.49999E-01
 -1      2126 7.42840E+00-1.00845E+01-3.49999E-01
 -1      2127 9.12163E+00 1.06191E+01 3.49999E-01
 -1      2128 5.89693E+00-1.05617E+01-3.49999E-01
 -1      2129 1.03788E+01 8.78030E+00 3.49999E-01
 -1      2130-1.50310E+01-5.86558E+00-3.49999E-01
 -1      2131-3.75223E+00-1.18401E+00-3.49999E-01
 -1      2132 1.50225E+01 2.53645E+00 3.49999E-01
 -1      2133 1.75335E+00-8.81468E+00 3.49999E-01
 -1      2134 1.97637E+00 1.30135E+01-3.49999E-01
 -1      2135 3.42422E-01 1.25763E+01-3.49999E-01
 -1      2136 1.17623E+01-9.25224E+00 3.49999E-01
 -1      2137 3.57107E+00 4.25815E+00-3.49999E-01
 -1      2138 4.07139E+00-1.39320E+01 3.49999E-01
 -1      2139 9.95960E+00-1.25544E+01-3.49999E-01
 -1      2140-2.76109E+00 8.98229E+00-3.49999E-01
 -1      2141 1.97375E+00 1.45901E+01 3.49999E-01
 -1      2142 6.62131E+00-7.27309E+00-3.49999E-01
 -1      2143-9.76427E+00 1.16485E+01 3.49999E-01
 -1      2144 1.18884E+01 5.53140E+00-3.49999E-01
 -1      2145-7.94373E+00-4.99053E+00-3.49999E-01
 -1      2146-1.22134E+01 5.87715E+00-3.49999E-01
 -1      2147 1.31758E+00 2.64812E+00-3.49999E-01
 -1      2148 1.07605E+01-5.78576E+00 3.49999E-01
 -1      2149-1.19172E+01 4.16254E+00-3.49999E-01
 -1      2150-3.25718E+00-1.13481E+01-3.49999E-01
 -1      2151 8.79213E+00-3.36803E+00-3.49999E-01
 -1      2152 5.38085E+00 8.05300E+00 3.49999E-01
 -1      2153 1.07346E+01 3.84194E+00-3.49999E-01
 -1      2154 5.05995E+00-1.52453E+01 3.49999E-01
 -1      2155-5.03139E+00-1.42290E+01-3.49999E-01
 -1      2156-1.24759E+01 1.48732E+00-3.49999E-01
 -1      2157-6.61389E+00 1.32990E+01-3.49999E-01
 -1      2158 8.52748E+00-5.81619E+00-3.49999E-01
 -1      2159-1.31970E+01 4.02052E+00-3.49999E-01
 -1      2160 1.49072E+01-2.84036E+00-3.49999E-01
 -1      2161-7.16527E+00-1.42890E+01-3.49999E-01
 -1      2162-9.90119E+00-4.19443E+00-3.49999E-01
 -1      2163-1.13219E+01 6.36616E+00-3.49999E-01
 -1      2164 7.10108E+00-8.65689E+00-3.49999E-01
 -1      2165-1.59200E+01 2.13004E+00 3.49999E-01
 -1      2166-9.89181E+00-5.69036E+00 3.49999E-01
 -1      2167 6.38131E+00-5.51048E+00-3.49999E-01
 -1      2168-1.54956E+01-1.57613E+00 3.49999E-01
 -1      2169 6.48044E+00 4.79185E+00-3.49999E-01
 -1      2170-5.41027E+00 1.04595E+01-3.49999E-01
 -1      2171 5.30512E+00-3.06762E+00-3.49999E-01
 -1      2172 1.00142E+01 1.16765E+01-3.49999E-01
 -1      2173-4.76278E+00-1.39715E+01 3.49999E-01
 -1      2174-6.46287E+00 5.11250E+00-3.49999E-01
 -1      2175-8.59042E+00 3.95301E+00-3.49999E-01
 -1      2176 1.32095E+01-3.33997E+00-3.49999E-01
 -1      2177 8.97816E+00 1.25267E+01-3.49999E-01
 -1      2178-1.03130E+00 1.17732E+01-3.49999E-01
 -1      2179-9.96210E+00 5.72065E+00-3.49999E-01
 -1      2180-1.17702E+01 6.10936E+00 3.49999E-01
 -1      2181 2.91628E+00 3.09256E+00-3.49999E-01
 -1      2182-7.58372E+00-1.06708E+01-3.49999E-01
 -1      2183-6.37077E+00-1.46906E+01 3.49999E-01
 -1      2184-1.13023E+01 1.63810E-02-3.49999E-01
 -1      2185 2.70309E+00-3.75878E+00-3.49999E-01
 -1      2186-8.17034E+00 9.71980E+00-3.49999E-01
 -1      2187-1.15649E+01 9.17731E+00-3.49999E-01
 -1      2188-9.86513E+00 8.64710E+00-3.49999E-01
 -1      2189-1.50553E+01-3.72502E+00 3.49999E-01
 -1      2190-8.17916E+00-1.22089E+01 3.49999E-01
 -1      2191 5.01141E+00 4.60322E+00-3.49999E-01
 -1      2192-1.07238E+01 8.86927E+00-3.49999E-01
 -1      2193-2.99948E+00 1.44022E+01 3.49999E-01
 -1      2194-7.63792E+00 9.63783E+00 3.49999E-01
 -1      2195 1.03998E+01 1.05148E+01 3.49999E-01
 -1      2196 1.06316E+01 1.18680E+01 3.49999E-01
 -1      2197 6.04501E+00-1.16448E+01-3.49999E-01
 -1      2198 4.25358E+00-1.00166E+01-3.49999E-01
 -1      2199 5.82465E-01 2.96955E+00-3.49999E-01
 -1      2200-9.43571E+00 5.46032E+00 3.49999E-01
 -1      2201-1.04491E+01 5.90216E+00 3.49999E-01
 -1      2202-1.29498E+01-4.13308E+00 3.49999E-01
 -1      2203-8.79946E+00-4.64250E+00-3.49999E-01
 -1      2204 2.85369E+00 1.45153E+01-3.49999E-01
 -1      2205 6.62008E+00 7.76924E+00-3.49999E-01
 -1      2206-5.49682E+00 1.36715E+01-3.49999E-01
 -1      2207-1.02524E+01 1.06108E+01-3.49999E-01
 -1      2208-1.38268E+01-7.41349E+00-3.49999E-01
 -1      2209-1.29442E+01 7.57134E+00-3.49999E-01
 -1      2210 8.09066E+00-5.40601E+00 3.49999E-01
 -1      2211-1.19612E+01 3.30840E+00-3.49999E-01
 -1      2212 8.12799E+00-1.04363E+01-3.49999E-01
 -1      2213 6.49030E+00 9.34583E+00-3.49999E-01
 -1      2214 4.20834E+00-2.49691E+00-3.49999E-01
 -1      2215 8.00665E+00 1.59262E+00 3.49999E-01
 -1      2216 9.60489E+00-7.56481E+00-3.49999E-01
 -1      2217 9.39122E+00 5.27621E+00 3.49999E-01
 -1      2218-1.61745E+00 1.12859E+01 3.49999E-01
 -1      2219 3.48649E+00-1.54491E+01 3.49999E-01
 -1      2220 9.20991E+00-2.60775E+00-3.49999E-01
 -1      2221-4.42351E+00-9.45029E+00-3.49999E-01
 -1      2222-9.58872E+00 4.59437E+00-3.49999E-01
 -1      2223-5.64499E+00 9.91060E+00 3.49999E-01
 -1      2224-9.04264E+00-6.96126E+00 3.49999E-01
 -1      2225 3.52798E+00 7.55394E+00-3.49999E-01
 -1      2226 5.01312E+00 1.50909E+01-3.49999E-01
 -1      2227-1.39789E+00-1.17986E+01-3.49999E-01
 -1      2228-2.42242E+00-1.37643E+01 3.49999E-01
 -1      2229 3.92223E+00 3.29417E+00-3.49999E-01
 -1      2230 1.29627E+01 9.57387E+00 3.49999E-01
 -1      2231-1.14843E+01 1.07437E+01-3.49999E-01
 -1      2232-1.45941E+01 5.89256E+00-3.49999E-01
 -1      2233 7.29418E+00 6.26768E+00-3.49999E-01
 -1      2234-1.25637E+01 7.45845E+00 3.49999E-01
 -1      2235-9.81501E+00 2.53208E+00 3.49999E-01
 -1      2236-7.43045E+00-1.11257E+01 3.49999E-01
 -1      2237-2.71949E+00-1.03240E+01-3.49999E-01
 -1      2238 5.82065E-01 6.11227E+00-3.49999E-01
 -1      2239-3.12231E+00-4.41708E-01-3.49999E-01
 -1      2240-1.47939E+01-4.14185E+00-3.49999E-01
 -1      2241-1.10614E+01-1.55916E+00-3.49999E-01
 -1      2242-3.60073E+00-2.27449E+00-3.49999E-01
 -1      2243-7.19333E+00 8.75810E+00-3.49999E-01
 -1      2244-1.19562E+01-8.89794E-01-3.49999E-01
 -1      2245-3.62473E+00 1.16446E+01-3.49999E-01
 -1      2246-1.30692E+01-1.59842E+00 3.49999E-01
 -1      2247-1.05805E+01-9.11203E+00-3.49999E-01
 -1      2248 6.12783E+00 1.04189E+01-3.49999E-01
 -1      2249-3.22604E+00 1.15769E+01 3.49999E-01
 -1      2250 5.23579E+00-1.25760E+01 3.49999E-01
 -1      2251-1.01960E+01-1.30694E+00-3.49999E-01
 -1      2252 1.35458E+01-5.34150E-01 3.49999E-01
 -1      2253-1.60110E+01-1.15834E+00-3.49999E-01
 -1      2254 1.26514E+01-9.39364E+00-3.49999E-01
 -1      2255 6.87383E+00-4.52329E+00-3.49999E-01
 -1      2256 4.39174E+00 4.01116E+00-3.49999E-01
 -1      2257 1.08710E+01 1.18389E+01-3.49999E-01
 -1      2258-2.61023E+00 6.82078E+00-3.49999E-01
 -1      2259 6.11835E+00 8.52157E+00-3.49999E-01
 -1      2260-1.21570E+01 1.21124E+00 3.49999E-01
 -1      2261 9.07600E-01-3.07562E+00-3.49999E-01
 -1      2262-1.15483E+01-6.40647E+00-3.49999E-01
 -1      2263 4.01713E+00-8.11366E+00-3.49999E-01
 -1      2264-5.73325E+00 9.01295E+00-3.49999E-01
 -1      2265-7.97707E+00 8.93902E+00-3.49999E-01
 -1      2266-7.38660E+00 9.53888E+00-3.49999E-01
 -1      2267 1.42132E+01 6.92834E+00-3.49999E-01
 -1      2268-1.07484E+01-2.62779E+00-3.49999E-01
 -1      2269 7.60490E-01 1.09069E+01-3.49999E-01
 -1      2270 1.04493E+01-4.68855E+00-3.49999E-01
 -1      2271-3.50883E+00-1.50379E+01-3.49999E-01
 -1      2272 7.75893E+00 9.62170E+00-3.49999E-01
 -1      2273-9.46121E+00-5.10026E-01-3.49999E-01
 -1      2274 8.80570E-01 1.38408E+01-3.49999E-01
 -1      2275 2.41149E+00-6.30788E+00-3.49999E-01
 -1      2276-1.18299E+01-8.90874E+00-3.49999E-01
 -1      2277-9.22428E+00-1.46572E+00-3.49999E-01
 -1      2278 6.99017E+00-9.15246E+00 3.49999E-01
 -1      2279 5.10505E+00 1.53940E+01 3.49999E-01
 -1      2280 5.79541E+00 4.31217E+00-3.49999E-01
 -1      2281-1.84352E+00 1.39838E+01 3.49999E-01
 -1      2282-1.99208E+00-1.59761E+01-3.49999E-01
 -1      2283-1.96254E+00 1.46430E+01-3.49999E-01
 -1      2284-7.77433E+00-6.44932E+00-3.49999E-01
 -1      2285-8.69389E+00-5.60899E+00-3.49999E-01
 -1      2286-2.74507E+00 1.29508E+01 3.49999E-01
 -1      2287 2.81953E+00 1.00253E+01 3.49999E-01
 -1      2288 1.34824E+01 8.13399E+00 3.49999E-01
 -1      2289 1.20141E+01 5.84925E+00 3.49999E-01
 -1      2290-1.07608E+01 5.79315E+00-3.49999E-01
 -1      2291 9.84657E+00-2.65576E+00 3.49999E-01
 -1      2292 1.46802E+01 3.19879E+00-3.49999E-01
 -1      2293 8.74813E-02 1.36360E+01 3.49999E-01
 -1      2294-8.18251E+00 5.68557E+00-3.49999E-01
 -1      2295 5.56310E+00 9.25100E+00-3.49999E-01
 -1      2296-4.35071E+00 1.08008E+01-3.49999E-01
 -1      2297-1.02221E+01 2.89620E+00-3.49999E-01
 -1      2298-9.50950E+00-1.89156E+00 3.49999E-01
 -1      2299 2.68601E+00 8.18114E+00-3.49999E-01
 -1      2300-2.36917E+00-1.59444E+01 3.49999E-01
 -1      2301-2.71322E+00-2.17753E+00-3.49999E-01
 -1      2302-1.42774E+01-7.15906E+00 3.49999E-01
 -1      2303 7.66567E+00 9.67736E+00 3.49999E-01
 -1      2304 1.00356E+01-8.93163E+00 3.49999E-01
 -1      2305-9.37179E+00-2.89664E+00-3.49999E-01
 -1      2306 4.19340E+00 4.83905E+00-3.49999E-01
 -1      2307-5.11345E-01 4.65149E+00-3.49999E-01
 -1      2308 6.43636E+00 1.46927E+01-3.49999E-01
 -1      2309-1.83923E+00 5.28534E+00-3.49999E-01
 -1      2310 8.94817E+00-1.18241E+01 3.49999E-01
 -1      2311 6.22174E+00 8.08074E+00 3.49999E-01
 -1      2312 1.96551E+00 6.81112E+00-3.49999E-01
 -1      2313 5.71128E+00-1.24804E+01-3.49999E-01
 -1      2314-1.47925E+01 5.70252E+00 3.49999E-01
 -1      2315-7.02651E+00 6.28778E+00-3.49999E-01
 -1      2316-1.03910E+01 3.92639E+00-3.49999E-01
 -1      2317 2.56512E+00 4.05654E+00-3.49999E-01
 -1      2318 1.64244E+00 4.67369E+00-3.49999E-01
 -1      2319 1.09978E+01-3.98623E+00-3.49999E-01
 -1      2320 3.89899E+00-1.61410E+00-3.49999E-01
 -1      2321 3.41952E+00 1.55777E+01-3.49999E-01
 -1      2322-1.15416E+01 1.10886E+01 3.49999E-01
 -1      2323-3.72646E+00 2.93939E+00-3.49999E-01
 -1      2324 5.52129E+00 1.14126E+01-3.49999E-01
 -1      2325 1.04857E+01 9.53695E+00-3.49999E-01
 -1      2326 1.13164E+01-1.45106E+00 3.49999E-01
 -1      2327 1.11308E+01-2.95558E+00 3.49999E-01
 -1      2328 1.15516E+01 1.03345E+01 3.49999E-01
 -1      2329-1.16026E+01 1.01718E+01 3.49999E-01
 -1      2330 1.34943E+01 3.43313E+00-3.49999E-01
 -1      2331 1.85438E+00 1.39912E+01-3.49999E-01
 -1      2332-3.04494E+00 4.73491E+00-3.49999E-01
 -1      2333 1.40032E+01 5.84390E+00 3.49999E-01
 -1      2334 3.29437E+00-1.22186E+01-3.49999E-01
 -1      2335 8.33011E+00-1.21521E+01-3.49999E-01
 -1      2336-8.06943E-01 1.35749E+01-3.49999E-01
 -1      2337-2.45707E-01-1.51006E+01-3.49999E-01
 -1      2338 5.48307E+00 1.45032E+01 3.49999E-01
 -1      2339-1.30237E+00 7.05607E+00-3.49999E-01
 -1      2340 1.31211E+01 2.60720E+00 3.49999E-01
 -1      2341-1.32141E+01-5.59022E+00-3.49999E-01
 -1      2342 5.00989E+00 3.16644E+00-3.49999E-01
 -1      2343 7.58910E+00-3.54070E+00-3.49999E-01
 -1      2344 5.73868E+00-4.57341E+00-3.49999E-01
 -1      2345 4.79967E+00 7.12679E+00-3.49999E-01
 -1      2346 1.35779E+00 0.00000E+00 3.49999E-01
 -1      2347 2.89627E+00 6.40456E-01-3.49999E-01
 -1      2348 2.19603E+00-1.74417E+00-3.49999E-01
 -1      2349 9.07814E+00-4.46936E+00-3.49999E-01
 -1      2350-6.57212E+00-1.48474E+01-3.49999E-01
 -1      2351 7.04656E+00 1.30948E+01-3.49999E-01
 -1      2352-1.10381E+01-7.98325E+00-3.49999E-01
 -1      2353-6.36733E+00 9.64924E-01-3.49999E-01
 -1      2354 8.41241E+00-1.12690E+01 3.49999E-01
 -1      2355 1.33045E+01 9.30198E+00-3.49999E-01
 -1      2356-2.64716E+00-1.36557E+01-3.49999E-01
 -1      2357 7.61067E+00 2.20272E+00-3.49999E-01
 -1      2358 6.94424E+00 1.55416E+00-3.49999E-01
 -1      2359 7.67218E+00 6.11953E-01-3.49999E-01
 -1      2360-4.90783E+00 6.20192E+00-3.49999E-01
 -1      2361 1.37759E+01-3.95404E-01-3.49999E-01
 -1      2362 1.47716E+01-1.00014E+00-3.49999E-01
 -1      2363 7.07650E+00 5.42545E+00-3.49999E-01
 -1      2364-2.60774E-01-1.31083E+00 3.49999E-01
 -1      2365 4.61676E+00-9.00529E+00-3.49999E-01
 -1      2366 1.05190E+01-7.18494E-01-3.49999E-01
 -1      2367 1.20164E+01-3.80094E+00-3.49999E-01
 -1      2368 1.04197E+01 9.51264E+00 3.49999E-01
 -1      2369 1.25801E+01-1.53856E+00-3.49999E-01
 -1      2370-9.60341E-01 9.60341E-01 3.49999E-01
 -1      2371-7.83379E-01-3.16842E+00-3.49999E-01
 -1      2372 1.27863E+01-6.33055E+00-3.49999E-01
 -1      2373 6.63417E-01-1.12682E+00-3.49999E-01
 -1      2374-5.64544E+00-8.29061E+00-3.49999E-01
 -1      2375 6.19468E+00-2.34179E+00-3.49999E-01
 -1      2376-1.23180E+00-1.04741E+01 3.49999E-01
 -1      2377-1.82213E+00-3.39673E+00-3.49999E-01
 -1      2378-1.54211E+00 1.21174E+00-3.49999E-01
 -1      2379-6.77472E-01 6.66734E-01-3.49999E-01
 -1      2380-3.29387E+00-6.86002E+00-3.49999E-01
 -1      2381 8.41273E+00-4.05436E+00-3.49999E-01
 -1      2382-1.19657E+01-1.83530E+00-3.49999E-01
 -1      2383 2.32022E+00 7.49905E+00-3.49999E-01
 -1      2384 1.55417E+01-1.96010E+00 3.49999E-01
 -1      2385 1.08224E+00-3.74979E-01-3.49999E-01
 -1      2386 1.17399E+01 4.39409E+00-3.49999E-01
 -1      2387-2.15253E+00 3.09152E+00-3.49999E-01
 -1      2388 1.12543E+01 7.43816E+00-3.49999E-01
 -1      2389 1.26317E+01 6.50687E+00-3.49999E-01
 -1      2390 1.73024E+00-3.61459E+00-3.49999E-01
 -1      2391 4.32805E+00 1.23008E+01-3.49999E-01
 -1      2392 1.28209E+01 5.59184E+00-3.49999E-01
 -1      2393-1.20821E+01-1.41701E+00 3.49999E-01
 -1      2394-6.81574E+00-2.10501E+00-3.49999E-01
 -1      2395-7.57204E+00 4.61605E+00-3.49999E-01
 -1      2396 5.79087E+00-1.26331E+00-3.49999E-01
 -1      2397 4.80844E+00-1.03478E+00-3.49999E-01
 -1      2398 7.30880E+00 1.41104E+01-3.49999E-01
 -1      2399 5.51744E+00 6.91852E-01-3.49999E-01
 -1      2400 3.02047E+00-1.32507E+00-3.49999E-01
 -1      2401-1.33043E+01-2.77948E+00 3.49999E-01
 -1      2402 4.61962E+00-1.70060E-01-3.49999E-01
 -1      2403 1.28447E+01-2.35071E+00 3.49999E-01
 -1      2404 1.38806E+01-1.96873E+00 3.49999E-01
 -1      2405-7.98215E+00-6.12774E+00 3.49999E-01
 -1      2406 4.37664E+00 7.97394E+00-3.49999E-01
 -1      2407-9.21422E+00-5.13353E+00 3.49999E-01
 -1      2408 3.66441E+00 1.56267E+01 3.49999E-01
 -1      2409-9.09725E+00-1.12285E+01-3.49999E-01
 -1      2410 3.44299E+00-1.56551E+01-3.49999E-01
 -1      2411 1.99830E+00-1.44912E+01-3.49999E-01
 -1      2412-1.22544E+01-6.86466E+00-3.49999E-01
 -1      2413-4.40598E+00-4.01854E+00-3.49999E-01
 -1      2414-7.80639E+00-9.80558E-01-3.49999E-01
 -1      2415-8.84313E+00 9.13894E+00-3.49999E-01
 -1      2416-3.85216E+00 1.36725E+01-3.49999E-01
 -1      2417-2.99906E+00 1.50434E+01-3.49999E-01
 -1      2418-1.48184E+01 2.03226E-01-3.49999E-01
 -1      2419-5.76547E+00-1.19577E+01-3.49999E-01
 -1      2420-8.41326E+00 1.05475E+01-3.49999E-01
 -1      2421-1.50861E+01-4.83102E+00 3.49999E-01
 -1      2422 2.08039E+00-1.07775E+01-3.49999E-01
 -1      2423 4.40593E-01-1.18395E+01-3.49999E-01
 -1      2424 7.38678E+00-2.36566E+00-3.49999E-01
 -1      2425-6.34099E+00 2.91547E+00-3.49999E-01
 -1      2426-4.94298E+00-7.43386E+00-3.49999E-01
 -1      2427 1.22231E+01-1.50607E+00 3.49999E-01
 -1      2428 8.91477E+00 6.38941E+00-3.49999E-01
 -1      2429 1.05633E+01-1.19859E+01 3.49999E-01
 -1      2430-1.31641E+01 4.96836E+00 3.49999E-01
 -1      2431 8.81468E+00-1.58221E+00 3.49999E-01
 -1      2432 9.00274E+00 9.85683E+00 3.49999E-01
 -1      2433 1.47607E+01 6.01438E+00-3.49999E-01
 -1      2434-4.89779E+00-1.06581E+00-3.49999E-01
 -1      2435-7.99213E+00-3.88349E+00-3.49999E-01
 -1      2436-9.41688E+00 7.48097E+00-3.49999E-01
 -1      2437-1.03175E+01 7.90500E+00-3.49999E-01
 -1      2438-1.69918E+00-1.00174E+01-3.49999E-01
 -1      2439 4.77667E+00 1.42683E+01-3.49999E-01
 -1      2440 3.77254E+00 2.66238E-01-3.49999E-01
 -1      2441 2.11510E+00 1.47846E+01-3.49999E-01
 -1      2442-3.70719E+00 3.95918E+00-3.49999E-01
 -1      2443-2.66891E+00 5.50698E+00-3.49999E-01
 -1      2444-1.36080E+01 5.67459E+00-3.49999E-01
 -1      2445-1.39341E+01-6.49594E+00-3.49999E-01
 -1      2446-9.17197E+00 8.51451E+00-3.49999E-01
 -1      2447 3.51700E+00-3.07647E+00-3.49999E-01
 -1      2448 9.53137E+00-6.48233E+00-3.49999E-01
 -1      2449-5.83130E+00 1.07723E+01 3.49999E-01
 -1      2450-7.32381E+00 7.50850E+00-3.49999E-01
 -1      2451 2.82910E+00-3.50477E-01-3.49999E-01
 -1      2452-9.65012E+00-1.10523E+01 3.49999E-01
 -1      2453-8.08389E+00-1.16461E+01-3.49999E-01
 -1      2454-9.43037E+00-1.20579E+01-3.49999E-01
 -1      2455-9.87408E+00-1.12651E+01-3.49999E-01
 -1      2456-9.36390E+00-1.01105E+01-3.49999E-01
 -1      2457-8.49211E+00-2.46991E-01-3.49999E-01
 -1      2458-9.72149E+00 9.65634E+00-3.49999E-01
 -1      2459-3.80598E+00 1.57111E+00-3.49999E-01
 -1      2460-1.16054E+01-4.73086E+00-3.49999E-01
 -1      2461 1.32086E+01-6.46033E+00 3.49999E-01
 -1      2462 9.61641E+00-6.42149E+00 3.49999E-01
 -1      2463 3.70140E+00-5.11877E+00-3.49999E-01
 -1      2464-1.27537E+01-9.44527E+00-3.49999E-01
 -1      2465-1.31690E+01-5.86977E-01-3.49999E-01
 -1      2466-5.97202E+00-1.37271E+00-3.49999E-01
 -1      2467-2.68508E-01 1.17655E+01-3.49999E-01
 -1      2468-3.10991E+00 9.77277E+00-3.49999E-01
 -1      2469 1.08766E+01-1.18572E+01-3.49999E-01
 -1      2470 4.81435E+00 1.38773E+01 3.49999E-01
 -1      2471 2.78649E+00-9.31045E+00-3.49999E-01
 -1      2472-9.46800E+00-6.32633E+00 3.49999E-01
 -1      2473 1.13531E+01-1.11976E+01 3.49999E-01
 -1      2474-1.53713E+01-5.09817E+00-3.49999E-01
 -1      2475-2.87236E+00 1.01508E+01 3.49999E-01
 -1      2476-9.25593E+00 7.27415E+00 3.49999E-01
 -1      2477-1.10000E+01-6.20563E+00 3.49999E-01
 -1      2478-6.20219E+00-8.61503E+00 3.49999E-01
 -1      2479 6.00720E+00 1.07855E+01 3.49999E-01
 -1      2480 8.32360E+00 5.29075E+00 3.49999E-01
 -1      2481 6.35886E+00 1.27247E+01 3.49999E-01
 -1      2482 1.84586E+00-9.30889E+00-3.49999E-01
 -1      2483 3.67395E+00-8.99189E+00-3.49999E-01
 -1      2484 2.68417E+00-2.90961E+00-3.49999E-01
 -1      2485-6.88775E+00-1.16984E+00-3.49999E-01
 -1      2486 5.98182E+00 9.82622E+00 3.49999E-01
 -1      2487 1.34142E+01-8.80847E+00-3.49999E-01
 -1      2488-2.87236E+00-1.01508E+01 3.49999E-01
 -1      2489 1.16253E+01 6.50273E+00-3.49999E-01
 -1      2490-1.36776E+01-3.72018E+00-3.49999E-01
 -1      2491 3.58649E+00-1.16715E+01 3.49999E-01
 -1      2492 4.74710E+00 1.86665E+00-3.49999E-01
 -1      2493-2.42826E+00-1.24814E+01-3.49999E-01
 -1      2494 9.65879E+00 2.87873E+00-3.49999E-01
 -1      2495 5.13956E+00 9.21172E+00 3.49999E-01
 -1      2496 5.07159E+00 1.33377E+01-3.49999E-01
 -1      2497-9.19245E-01 1.47527E+01 3.49999E-01
 -1      2498 5.19666E-01 1.25459E+00 3.49999E-01
 -1      2499 2.84470E+00 1.84255E+00-3.49999E-01
 -1      2500-9.82237E+00-1.26253E+01 3.49999E-01
 -1      2501-5.60546E+00 1.13049E+01-3.49999E-01
 -1      2502 1.55050E+01 4.18616E+00 3.49999E-01
 -1      2503-8.14416E+00-1.14327E+01 3.49999E-01
 -1      2504-1.18340E+01-8.92363E+00 3.49999E-01
 -1      2505-1.30825E+01 2.91988E+00 3.49999E-01
 -1      2506-2.28618E+00-1.88651E-01-3.49999E-01
 -1      2507 3.16699E+00-1.03971E+01-3.49999E-01
 -1      2508-4.43995E+00 2.29440E+00-3.49999E-01
 -1      2509 2.64491E+00-7.93375E+00-3.49999E-01
 -1      2510 2.41454E+00-5.01700E+00-3.49999E-01
 -1      2511-4.88255E-01 8.58902E+00-3.49999E-01
 -1      2512-6.89521E+00 1.37410E+01 3.49999E-01
 -1      2513-1.33394E+01-8.09222E-01 3.49999E-01
 -1      2514 3.11017E+00 8.76800E+00-3.49999E-01
 -1      2515 1.10444E+01 2.41359E+00-3.49999E-01
 -1      2516 7.67240E+00-7.68374E+00-3.49999E-01
 -1      2517-8.37143E+00-7.74361E+00-3.49999E-01
 -1      2518 1.09360E+01-1.00604E+01-3.49999E-01
 -1      2519 1.05847E+01-9.13522E+00-3.49999E-01
 -1      2520 1.32093E+00 1.08459E+01 3.49999E-01
 -1      2521 8.92740E+00-1.00449E+01 3.49999E-01
 -1      2522 9.90458E+00-3.69780E+00-3.49999E-01
 -1      2523-1.75462E+00 1.03324E+01-3.49999E-01
 -1      2524-6.20398E+00 1.06427E+01-3.49999E-01
 -1      2525 6.83254E+00 1.00592E+01-3.49999E-01
 -1      2526-6.90241E+00-1.16361E+01-3.49999E-01
 -1      2527-6.78205E+00 3.89205E+00-3.49999E-01
 -1      2528-1.01438E+01 8.52093E+00 3.49999E-01
 -1      2529-8.15631E+00-2.29888E+00-3.49999E-01
 -1      2530-7.30368E+00-4.40796E+00-3.49999E-01
 -1      2531-1.11684E+01 3.95172E+00-3.49999E-01
 -1      2532-1.13430E+01-1.99945E+00 3.49999E-01
 -1      2533-7.55081E+00-1.75400E+00-3.49999E-01
 -1      2534 5.67654E+00 7.54248E+00-3.49999E-01
 -1      2535-7.59046E+00-8.93786E+00-3.49999E-01
 -1      2536-1.27352E+01-9.84476E+00 3.49999E-01
 -1      2537-1.36610E+01-8.71897E+00 3.49999E-01
 -1      2538-1.14742E+00-6.38691E+00-3.49999E-01
 -1      2539-8.89282E+00-1.11630E+01 3.49999E-01
 -1      2540 8.43739E-01-4.91531E+00-3.49999E-01
 -1      2541 1.17122E+00-1.84900E+00-3.49999E-01
 -1      2542-4.99312E+00-7.47272E+00 3.49999E-01
 -1      2543 3.56968E+00-4.16906E+00-3.49999E-01
 -1      2544 1.27790E+01 2.12641E-01-3.49999E-01
 -1      2545 2.91247E+00-1.03241E+01 3.49999E-01
 -1      2546 4.03001E+00 1.43399E+00-3.49999E-01
 -1      2547-1.10353E+01-7.27330E+00 3.49999E-01
 -1      2548-1.98173E+00-7.70743E+00-3.49999E-01
 -1      2549-1.35139E+01-7.75911E+00 3.49999E-01
 -1      2550-1.74786E+00-5.27508E+00-3.49999E-01
 -1      2551-4.83096E+00-1.03507E+01-3.49999E-01
 -1      2552 7.95681E+00 4.23043E+00-3.49999E-01
 -1      2553 1.11709E+01 5.63839E-01-3.49999E-01
 -1      2554-7.47272E+00-4.99312E+00 3.49999E-01
 -1      2555 4.81095E-01-8.53236E+00-3.49999E-01
 -1      2556-5.26260E+00-1.27049E+01 3.49999E-01
 -1      2557 8.15146E+00-9.51831E+00-3.49999E-01
 -1      2558-8.32520E+00-8.56586E+00-3.49999E-01
 -1      2559 1.16815E+01-3.56249E+00 3.49999E-01
 -1      2560-4.58843E+00 1.52477E+00-3.49999E-01
 -1      2561-9.77863E+00-9.37540E+00-3.49999E-01
 -1      2562 3.01084E+00-5.66385E+00-3.49999E-01
 -1      2563-8.65638E+00-1.35439E+01-3.49999E-01
 -1      2564 1.40272E+01 3.67493E+00 3.49999E-01
 -1      2565 1.33900E+01 7.41197E+00 3.49999E-01
 -1      2566-1.89835E+00 9.54362E+00 3.49999E-01
 -1      2567 5.67122E+00-9.89974E+00 3.49999E-01
 -1      2568-9.49204E+00-1.29459E+01-3.49999E-01
 -1      2569 6.15505E+00-1.13396E+01 3.49999E-01
 -1      2570 5.30753E+00-7.65714E+00-3.49999E-01
 -1      2571-4.12260E-01-5.29875E+00-3.49999E-01
 -1      2572-3.85448E+00-5.91869E+00-3.49999E-01
 -1      2573 3.42595E+00-9.69645E+00-3.49999E-01
 -1      2574 4.45177E+00 1.25554E+01 3.49999E-01
 -1      2575 9.38280E+00 3.15807E-01-3.49999E-01
 -1      2576-1.32498E+01 9.12217E+00 3.49999E-01
 -1      2577 9.83132E+00-1.47691E+00-3.49999E-01
 -1      2578-5.54376E+00 4.22016E+00-3.49999E-01
 -1      2579-1.61888E+01 3.38681E-01-3.49999E-01
 -1      2580-6.41988E+00-1.05725E+01-3.49999E-01
 -1      2581 5.89948E+00-6.47373E+00-3.49999E-01
 -1      2582-2.73534E+00 1.07866E+01-3.49999E-01
 -1      2583 9.82476E+00-7.75844E+00 3.49999E-01
 -1      2584-3.27151E+00-4.11239E+00-3.49999E-01
 -1      2585 8.08727E-01 1.30762E+00-3.49999E-01
 -1      2586 6.61114E+00 4.00934E+00-3.49999E-01
 -1      2587 1.02928E+01 1.43296E+00-3.49999E-01
 -1      2588-9.05834E+00-8.19466E+00-3.49999E-01
 -1      2589-3.77416E+00-3.28479E+00-3.49999E-01
 -1      2590-3.90332E+00-4.84614E+00-3.49999E-01
 -1      2591 9.94035E+00-1.24618E+00 3.49999E-01
 -1      2592 3.12325E+00 6.39058E+00-3.49999E-01
 -1      2593 6.78910E+00 9.28681E+00 3.49999E-01
 -1      2594 2.24122E+00 1.14931E+01-3.49999E-01
 -1      2595 6.78771E+00-4.53540E+00 3.49999E-01
 -1      2596 7.32890E+00-7.58149E-01-3.49999E-01
 -1      2597-9.71564E+00 9.31541E+00 3.49999E-01
 -1      2598-7.37148E-01 1.77963E+00 3.49999E-01
 -1      2599 1.17415E+01 8.78376E+00-3.49999E-01
 -1      2600 3.96542E+00 6.74967E+00-3.49999E-01
 -1      2601 6.76910E+00-1.06646E+01-3.49999E-01
 -1      2602-5.96769E+00 9.82462E+00-3.49999E-01
 -1      2603-6.05113E+00 3.63427E+00-3.49999E-01
 -1      2604-1.00292E+01 1.08032E+01 3.49999E-01
 -1      2605-5.79593E+00-3.00798E+00-3.49999E-01
 -1      2606 3.60459E+00-6.86374E+00-3.49999E-01
 -1      2607 2.14683E+00-9.59585E+00 3.49999E-01
 -1      2608 6.58347E+00-9.52688E+00-3.49999E-01
 -1      2609 2.46053E+00 4.89849E+00-3.49999E-01
 -1      2610-7.45766E+00-1.30096E+01-3.49999E-01
 -1      2611-4.69348E+00-3.13209E+00-3.49999E-01
 -1      2612-4.34229E+00-1.31415E+01-3.49999E-01
 -1      2613 4.92171E+00 7.36586E+00 3.49999E-01
 -1      2614 1.00827E+01 4.72463E+00-3.49999E-01
 -1      2615-2.30741E+00 4.07142E+00-3.49999E-01
 -1      2616-2.88201E+00 2.42073E+00-3.49999E-01
 -1      2617-6.03054E+00-6.80757E+00-3.49999E-01
 -1      2618-4.11269E+00 9.82522E+00-3.49999E-01
 -1      2619-1.29601E+01 3.20438E+00-3.49999E-01
 -1      2620-7.72620E+00-1.33805E+01 3.49999E-01
 -1      2621-1.61931E+01-1.17629E+00 3.49999E-01
 -1      2622-1.52840E+01-7.15841E-01 3.49999E-01
 -1      2623 7.36743E+00-6.27385E+00-3.49999E-01
 -1      2624-7.63590E+00-8.11602E+00-3.49999E-01
 -1      2625-7.68391E+00-7.27591E+00-3.49999E-01
 -1      2626-6.95130E+00-6.77754E+00-3.49999E-01
 -1      2627-4.49305E+00-1.18754E+01-3.49999E-01
 -1      2628-9.97338E+00-7.38815E+00-3.49999E-01
 -1      2629-4.62753E+00 8.82966E+00-3.49999E-01
 -1      2630-3.43764E+00 6.84726E+00-3.49999E-01
 -1      2631 8.05621E+00-8.56335E+00-3.49999E-01
 -1      2632 9.03895E+00-9.19702E+00-3.49999E-01
 -1      2633-4.18995E+00-1.33526E+01 3.49999E-01
 -1      2634-7.47272E+00 4.99312E+00 3.49999E-01
 -1      2635 4.44763E+00-7.27854E+00-3.49999E-01
 -1      2636 2.11749E+00 2.86833E+00-3.49999E-01
 -1      2637-7.60453E+00-9.58605E+00 3.49999E-01
 -1      2638-3.02992E+00-8.22809E+00-3.49999E-01
 -1      2639-1.56256E+01-2.72233E+00 3.49999E-01
 -1      2640-5.29127E+00 2.90859E+00-3.49999E-01
 -1      2641-9.79094E+00 6.63223E+00-3.49999E-01
 -1      2642-3.67158E+00 1.39870E+01 3.49999E-01
 -1      2643 4.45676E+00-1.09505E+01-3.49999E-01
 -1      2644 5.20899E+00-9.88593E+00-3.49999E-01
 -1      2645-7.09582E+00 8.90808E+00 3.49999E-01
 -1      2646 3.02875E+00-8.58991E+00-3.49999E-01
 -1      2647-1.29852E+01-7.33885E+00-3.49999E-01
 -1      2648 1.07700E+01-9.03155E+00 3.49999E-01
 -1      2649-2.25067E+00-4.35432E+00-3.49999E-01
 -1      2650-9.73814E+00-7.68866E+00 3.49999E-01
 -1      2651-1.09332E+01 1.16169E+01-3.49999E-01
 -1      2652-1.16980E+01 9.96942E+00-3.49999E-01
 -1      2653 8.88970E+00 3.15734E+00-3.49999E-01
 -1      2654-8.23642E-01 3.84161E+00-3.49999E-01
 -1      2655 1.09131E+01 5.29010E+00-3.49999E-01
 -1      2656-4.19472E+00-6.92767E+00-3.49999E-01
 -1      2657 7.24937E+00 7.14966E+00-3.49999E-01
 -1      2658-2.29451E+00-6.28834E+00-3.49999E-01
 -1      2659-1.52951E+01-3.09275E+00-3.49999E-01
 -1      2660-2.77015E+00 1.09331E+01 3.49999E-01
 -1      2661-3.38756E+00-9.52841E+00-3.49999E-01
 -1      2662 1.06309E+01 6.64960E+00-3.49999E-01
 -1      2663-3.69174E+00-7.59368E+00-3.49999E-01
 -1      2664-4.78160E+00-9.75020E-02-3.49999E-01
 -1      2665 1.15475E+01-1.12480E+01-3.49999E-01
 -1      2666-3.46727E+00 1.23839E+01-3.49999E-01
 -1      2667-9.07851E+00 5.38854E+00-3.49999E-01
 -1      2668-7.93465E+00-1.24032E+01-3.49999E-01
 -1      2669-1.04357E+01 4.93861E+00-3.49999E-01
 -1      2670-3.57605E+00 1.04730E+01-3.49999E-01
 -1      2671 1.34872E+01 8.94943E+00 3.49999E-01
 -1      2672-1.50788E+01-1.07846E+00-3.49999E-01
 -1      2673 1.22280E+01-8.56873E+00-3.49999E-01
 -1      2674 1.32896E+01-9.28975E+00 3.49999E-01
 -1      2675 5.71685E+00-1.06856E+01 3.49999E-01
 -1      2676 7.74851E+00-9.70149E+00 3.49999E-01
 -1      2677-9.16035E+00-1.03477E+01 3.49999E-01
 -1      2678 5.09594E+00-3.94316E+00-3.49999E-01
 -1      2679-8.25775E+00-9.80696E+00-3.49999E-01
 -1      2680-1.03945E+01-6.00851E+00-3.49999E-01
 -1      2681-7.36267E+00-9.80348E+00-3.49999E-01
 -1      2682-1.45559E-01-4.35764E+00-3.49999E-01
 -1      2683-5.09274E+00 8.72370E+00 3.49999E-01
 -1      2684 7.31248E+00 8.61987E+00-3.49999E-01
 -1      2685-3.70796E+00 5.25703E+00-3.49999E-01
 -1      2686-7.27726E+00 5.44473E+00-3.49999E-01
 -1      2687 1.23472E+01 6.54967E+00 3.49999E-01
 -1      2688 7.23916E+00 1.44273E+01 3.49999E-01
 -1      2689-3.02907E+00-1.46779E+00-3.49999E-01
 -1      2690 1.25419E+01 4.75691E+00-3.49999E-01
 -1      2691 3.82077E+00 1.15297E+01-3.49999E-01
 -1      2692 1.22607E+01 7.44231E+00-3.49999E-01
 -1      2693-1.05666E+01-8.04268E+00 3.49999E-01
 -1      2694 4.90982E+00 5.78740E+00-3.49999E-01
 -1      2695 1.42648E+00 6.15942E+00-3.49999E-01
 -1      2696-1.87665E-01-8.68970E-01-3.49999E-01
 -1      2697-1.35494E+00-2.69546E-01 3.49999E-01
 -1      2698 9.37641E-01-1.13590E+00 3.49999E-01
 -1      2699 1.71407E+00-7.77436E-01 3.49999E-01
 -1      2700 1.39638E+01-1.20805E+00-3.49999E-01
 -1      2701-5.97092E+00 6.15249E+00-3.49999E-01
 -1      2702 6.91910E+00 7.82435E-01-3.49999E-01
 -1      2703-5.46611E+00 6.75233E+00-3.49999E-01
 -1      2704 1.02436E+01 1.03015E+01-3.49999E-01
 -1      2705 5.69805E-01 4.24946E+00-3.49999E-01
 -1      2706 8.88113E-01 5.01279E+00-3.49999E-01
 -1      2707 1.16184E+01 8.89211E+00 3.49999E-01
 -1      2708-2.96108E+00 3.23877E+00-3.49999E-01
 -1      2709 2.30125E+00 1.21708E+00-3.49999E-01
 -1      2710 1.47550E+01 6.43099E+00 3.49999E-01
 -1      2711 1.97849E-02-1.42071E+01-3.49999E-01
 -1      2712 7.98278E-02 1.34348E+01-3.49999E-01
 -1      2713-1.27406E-01-1.47691E+01 3.49999E-01
 -1      2714-1.91322E+00 7.62931E+00-3.49999E-01
 -1      2715-1.11962E+01-5.55570E+00-3.49999E-01
 -1      2716 6.17122E+00 1.27442E+01-3.49999E-01
 -1      2717 1.36335E+01 8.42203E+00-3.49999E-01
 -1      2718-5.33464E+00 7.99079E+00-3.49999E-01
 -1      2719-1.14943E+01-7.25994E+00-3.49999E-01
 -1      2720 1.13255E+01 9.51356E+00-3.49999E-01
 -1      2721 1.25180E+01 9.05802E+00-3.49999E-01
 -1      2722-7.83740E+00-1.37695E+01-3.49999E-01
 -1      2723 1.21315E+01-7.95690E-01-3.49999E-01
 -1      2724-2.22137E+00 7.32930E-01-3.49999E-01
 -1      2725-5.70135E+00 8.07090E+00 3.49999E-01
 -1      2726 9.48029E-01-3.91120E+00-3.49999E-01
 -1      2727-6.27294E+00 1.93910E+00-3.49999E-01
 -1      2728 9.70911E+00 8.06241E+00-3.49999E-01
 -1      2729 3.88501E+00 5.77117E+00-3.49999E-01
 -1      2730 1.18304E+01 7.37222E+00 3.49999E-01
 -1      2731-1.51143E+00 2.26070E+00-3.49999E-01
 -1      2732-3.11590E+00 1.74787E+00-3.49999E-01
 -1      2733 6.33814E+00-6.15180E-01-3.49999E-01
 -1      2734-1.38670E+01-3.65002E+00 3.49999E-01
 -1      2735 1.48040E-01-7.09438E+00-3.49999E-01
 -1      2736-8.36366E+00-1.08868E+01-3.49999E-01
 -1      2737 3.97993E+00-1.48326E+01-3.49999E-01
 -1      2738-5.35665E+00-5.02891E+00-3.49999E-01
 -1      2739-1.45356E+01-7.03130E+00-3.49999E-01
 -1      2740 1.58933E+00-7.25560E+00-3.49999E-01
 -1      2741-9.46215E-01-9.38566E+00-3.49999E-01
 -1      2742-2.02156E+00-1.07957E+01-3.49999E-01
 -1      2743-1.01690E+01-8.28809E+00-3.49999E-01
 -1      2744-1.63008E+01-4.03148E-01-3.49999E-01
 -1      2745 8.39235E+00 5.68680E+00-3.49999E-01
 -1      2746 9.58605E+00 7.60453E+00 3.49999E-01
 -1      2747-8.69431E+00 6.65572E+00-3.49999E-01
 -1      2748 8.58736E+00 8.46662E+00-3.49999E-01
 -1      2749 9.69316E+00 7.04490E+00-3.49999E-01
 -1      2750 8.28410E+00-2.59394E+00-3.49999E-01
 -1      2751-7.10522E+00-3.43338E+00-3.49999E-01
 -1      2752-9.34549E+00-1.32815E+01 3.49999E-01
 -1      2753 1.58419E+00-5.66048E+00-3.49999E-01
 -1      2754 9.34570E+00 8.81252E+00-3.49999E-01
 -1      2755 8.37413E+00 9.18831E+00-3.49999E-01
 -1      2756-8.58459E+00-1.02072E+00-3.49999E-01
 -1      2757-9.67733E+00-5.80679E+00-3.49999E-01
 -1      2758-5.17390E+00-1.12265E+01-3.49999E-01
 -1      2759-1.24333E+01-2.20623E-01-3.49999E-01
 -1      2760 4.82645E+00-5.24358E+00-3.49999E-01
 -1      2761-3.70475E-01 1.10161E+01-3.49999E-01
 -1      2762-2.89566E+00 3.17276E-01-3.49999E-01
 -1      2763-8.59280E+00 6.61095E+00 3.49999E-01
 -1      2764-2.27257E+00-8.43733E+00-3.49999E-01
 -1      2765-5.21284E+00-8.73847E+00 3.49999E-01
 -1      2766-9.01973E-01-7.46580E+00-3.49999E-01
 -1      2767 2.31504E+00-9.98702E+00-3.49999E-01
 -1      2768 1.29581E+01-8.12440E+00-3.49999E-01
 -1      2769-4.52428E+00 6.94492E-01-3.49999E-01
 -1      2770-1.39665E+01-4.64372E+00-3.49999E-01
 -1      2771-1.29373E+01-4.38038E+00-3.49999E-01
 -1      2772-9.96605E+00-6.63183E+00-3.49999E-01
 -1      2773 1.01508E+01 2.87236E+00 3.49999E-01
 -1      2774 1.42762E+00 9.53925E-01 3.49999E-01
 -1      2775 1.62713E+00-6.45791E+00-3.49999E-01
 -1      2776 1.57013E+01 4.32763E+00-3.49999E-01
 -1      2777 1.65816E+00-4.51792E+00-3.49999E-01
 -1      2778 4.00684E+00 8.79113E+00-3.49999E-01
 -1      2779 1.04837E+01 3.03977E+00-3.49999E-01
 -1      2780 9.55085E+00-1.05615E+01 3.49999E-01
 -1      2781-5.33008E+00-3.82840E+00-3.49999E-01
 -1      2782-1.11186E+01-1.23762E+00 3.49999E-01
 -1      2783-8.51562E+00-3.10291E+00-3.49999E-01
 -1      2784 6.28708E+00 7.07839E+00-3.49999E-01
 -1      2785-5.84398E+00-1.20652E+01 3.49999E-01
 -1      2786-6.47719E+00-9.03723E+00-3.49999E-01
 -1      2787 5.88939E+00-7.20844E+00-3.49999E-01
 -1      2788-5.64057E+00-7.99846E+00 3.49999E-01
 -1      2789-5.06409E+00 9.62287E+00-3.49999E-01
 -1      2790 1.04773E+01 1.23085E+00 3.49999E-01
 -1      2791-8.26517E+00-5.22306E+00 3.49999E-01
 -1      2792-4.01898E+00-1.12745E+01-3.49999E-01
 -1      2793 7.73744E+00-5.51267E+00-3.49999E-01
 -1      2794 1.25000E+01-3.85260E+00 3.49999E-01
 -1      2795 1.40774E+01 2.71455E+00 3.49999E-01
 -1      2796 6.32354E+00-9.51348E+00 3.49999E-01
 -1      2797 4.99312E+00-7.47272E+00 3.49999E-01
 -1      2798 8.91924E+00 1.36833E+00-3.49999E-01
 -1      2799-3.96302E+00 8.24904E+00-3.49999E-01
 -1      2800-1.32066E+01 9.37462E+00-3.49999E-01
 -1      2801-4.66512E+00 3.81066E+00-3.49999E-01
 -1      2802-5.96916E+00-1.07954E+01 3.49999E-01
 -1      2803 5.18377E+00 6.48415E+00-3.49999E-01
 -1      2804-4.14051E+00 7.38318E+00-3.49999E-01
 -1      2805 7.25708E+00 8.74682E+00 3.49999E-01
 -1      2806 1.10556E+01 7.16693E+00 3.49999E-01
 -1      2807 3.97184E+00-6.00895E+00-3.49999E-01
 -1      2808-5.57666E+00-2.15725E+00-3.49999E-01
 -1      2809-5.51841E+00-1.31583E+01-3.49999E-01
 -1      2810 2.94815E+00 5.57513E+00-3.49999E-01
 -1      2811-3.45061E+00-1.32531E+01-3.49999E-01
 -1      2812 9.65819E+00 3.85049E+00-3.49999E-01
 -1      2813-6.84824E+00-5.55122E+00-3.49999E-01
 -1      2814 6.61373E+00-6.22887E+00-3.49999E-01
 -1      2815-9.12373E+00-7.34651E+00-3.49999E-01
 -1      2816 9.75641E+00 9.72656E+00-3.49999E-01
 -1      2817 8.95086E+00-8.25476E+00-3.49999E-01
 -1      2818-7.13704E+00-8.86686E+00 3.49999E-01
 -1      2819-8.27463E+00-9.92315E+00 3.49999E-01
 -1      2820-4.13477E+00-5.15553E-01-3.49999E-01
 -1      2821 5.14521E+00-1.06389E+01-3.49999E-01
 -1      2822-9.19567E-01 3.04058E+00-3.49999E-01
 -1      2823 9.01267E+00 2.29595E+00-3.49999E-01
 -1      2824-1.77075E+00-6.91691E+00-3.49999E-01
 -1      2825-1.59422E+01-2.59029E+00-3.49999E-01
 -1      2826 1.07972E+01 6.18140E+00 3.49999E-01
 -1      2827-8.42364E+00 4.81046E+00-3.49999E-01
 -1      2828 8.93086E+00 7.66127E+00-3.49999E-01
 -1      2829-8.70480E+00 4.93913E+00 3.49999E-01
 -1      2830 7.35053E+00 7.88177E+00-3.49999E-01
 -1      2831-4.46301E+00 5.53251E+00-3.49999E-01
 -1      2832 4.67443E+00 1.15205E+01-3.49999E-01
 -1      2833-1.00089E+01-8.59067E+00 3.49999E-01
 -1      2834-1.24928E+00-1.24928E+00 3.49999E-01
 -1      2835-1.83893E+00 3.65806E-01 3.49999E-01
 -1      2836-1.07304E+01-7.28366E+00-3.49999E-01
 -1      2837-1.04515E+01-5.17332E+00-3.49999E-01
 -1      2838-6.32373E+00 8.19388E+00-3.49999E-01
 -1      2839-6.53259E+00 8.26627E+00 3.49999E-01
 -1      2840-7.05965E+00 2.07844E+00-3.49999E-01
 -1      2841 1.07385E+01 8.38592E+00-3.49999E-01
 -1      2842-7.79991E+00 6.74599E+00-3.49999E-01
 -1      2843 4.89178E-01-6.00270E+00-3.49999E-01
 -1      2844-4.61681E+00-5.49278E+00-3.49999E-01
 -1      2845 8.10113E-01-7.69859E+00-3.49999E-01
 -1      2846 8.89876E+00 6.92742E+00 3.49999E-01
 -1      2847-2.90785E-01-6.35811E+00-3.49999E-01
 -1      2848-8.32334E+00 7.45618E+00-3.49999E-01
 -1      2849 4.39496E+00-4.47602E+00-3.49999E-01
 -1      2850-3.28918E+00 9.88943E-01-3.49999E-01
 -1      2851-1.34459E+00-8.54113E+00-3.49999E-01
 -1      2852-1.73407E+00-8.71774E+00 3.49999E-01
 -1      2853-5.15754E+00-9.00012E+00-3.49999E-01
 -1      2854-5.43089E+00 9.31365E-01-3.49999E-01
 -1      2855 1.12121E+01 2.90491E+00 3.49999E-01
 -1      2856 9.07995E-01-6.82358E+00-3.49999E-01
 -1      2857 1.02082E+01 2.25776E+00-3.49999E-01
 -1      2858 1.13151E+01 3.22006E+00-3.49999E-01
 -1      2859 5.65436E+00-8.04017E+00 3.49999E-01
 -1      2860 9.54362E+00 1.89835E+00 3.49999E-01
 -1      2861-4.93863E+00-1.25705E+01-3.49999E-01
 -1      2862 3.45322E+00 5.00821E+00-3.49999E-01
 -1      2863-3.19548E+00-1.35336E+01 3.49999E-01
 -1      2864-6.20375E+00-5.00078E+00-3.49999E-01
 -1      2865-6.49296E+00-9.39673E+00 3.49999E-01
 -1      2866 9.58865E+00 1.76942E+00-3.49999E-01
 -1      2867 1.01199E+01 8.85335E+00-3.49999E-01
 -1      2868 1.14162E+01 8.14054E+00-3.49999E-01
 -1      2869-5.91837E+00 4.10620E-01-3.49999E-01
 -1      2870 1.13783E+01 2.06946E+00 3.49999E-01
 -1      2871 6.21075E+00-8.19050E+00-3.49999E-01
 -1      2872 8.79600E+00 1.64057E+00 3.49999E-01
 -1      2873 1.18142E+01 1.65798E+00-3.49999E-01
 -1      2874 6.54370E+00-8.27352E+00 3.49999E-01
 -1      2875 1.22158E+01 1.41415E+00 3.49999E-01
 -1      2876 1.25130E+01 1.29640E+00-3.49999E-01
 -1      2877-3.91216E-01-1.96669E+00 3.49999E-01
 -1      2878-1.21131E+00-1.73447E+00-3.49999E-01
 -1      2879-1.15408E+00-2.42607E+00-3.49999E-01
 -1      2880 6.30186E-02 1.92826E+00 3.49999E-01
 -1      2881 2.24276E+00 1.81672E+00-3.49999E-01
 -1      2882-2.04868E+00 1.20915E+00-3.49999E-01
 -1      2883 2.08262E+00 0.00000E+00 3.49999E-01
 -1      2884 2.08106E+00 3.94556E-01-3.49999E-01
 -1      2885-1.52994E-01-2.77546E+00-3.49999E-01
 -1      2886 1.63539E+00-1.32504E+00-3.49999E-01
 -1      2887 1.08918E+00 2.04642E+00-3.49999E-01
 -1      2888 8.26168E-01 2.52557E+00-3.49999E-01
 -1      2889-1.74741E+00-6.78668E-01-3.49999E-01
 -1      2890-1.85247E+00-8.18764E-01 3.49999E-01
 -1      2891-2.61933E+00-5.95722E-01-3.49999E-01
 -1      2892 3.89423E-01-2.94647E+00-3.49999E-01
 -1      2893-2.23313E+00-1.71265E+00-3.49999E-01
 -1      2894-2.05441E+00-2.24094E-01 3.49999E-01
 -1      2895 2.24769E+00-1.86188E-01-3.49999E-01
 -1      2896 2.42019E+00 7.44504E-01-3.49999E-01
 -1      2897 7.78876E-01-1.88038E+00 3.49999E-01
 -1      2898-2.18121E+00-6.14430E-01-3.49999E-01
 -1      2899-1.66169E+00 1.05033E+00 3.49999E-01
 -1      2900 1.71291E+00-2.08292E+00-3.49999E-01
 -1      2901-2.40932E+00 2.83077E-01-3.49999E-01
 -1      2902-3.89869E-01 2.13824E+00 3.49999E-01
 -1      2903 4.16269E-01 2.58945E+00-3.49999E-01
 -1      2904-1.80520E+00-1.28260E+00-3.49999E-01
 -1      2905 2.56481E+00 2.65051E-01-3.49999E-01
 -1      2906-1.21782E+00 1.82257E+00 3.49999E-01
 -1      2907 7.15224E-01-2.74338E+00-3.49999E-01
 -1      2908 1.63466E+00 1.03478E+00-3.49999E-01
 -1      2909-4.54823E-01 2.91681E+00-3.49999E-01
 -1      2910 1.31020E+00-2.27131E+00-3.49999E-01
 -1      2911-2.75815E+00 8.48954E-01-3.49999E-01
 -1      2912-9.95626E-01-1.81775E+00 3.49999E-01
 -1      2913-1.42354E+00-2.10020E+00-3.49999E-01
 -1      2914 7.82979E-01 1.92468E+00 3.49999E-01
 -1      2915 2.55596E+00 1.54460E+00-3.49999E-01
 -1      2916 1.97670E+00 6.29110E-01 3.49999E-01
 -1      2917 2.25641E+00 3.52731E-01 3.49999E-01
 -1      2918-7.82507E-01 2.62079E+00-3.49999E-01
 -1      2919-6.68991E-01-2.64505E+00-3.49999E-01
 -1      2920-1.54294E+00 2.89915E+00-3.49999E-01
 -1      2921 1.53923E+00-1.41882E+00 3.49999E-01
 -1      2922 2.19121E+00-1.16609E+00-3.49999E-01
 -1      2923-1.92779E+00 1.28812E+00 3.49999E-01
 -1      2924-1.52274E+00-2.45658E+00-3.49999E-01
 -1      2925 2.25569E+00 1.51531E+00-3.49999E-01
 -1      2926 1.91733E+00 1.31103E+00-3.49999E-01
 -1      2927 1.83966E+00 2.31460E+00-3.49999E-01
 -1      2928 1.32673E+00 1.58635E+00 3.49999E-01
 -1      2929 1.29230E+00 1.93405E+00 3.49999E-01
 -1      2930 2.41990E+00-6.87693E-01-3.49999E-01
 -1      2931 2.12125E+00-4.94386E-01 3.49999E-01
 -1      2932 2.56626E+00-1.45203E+00-3.49999E-01
 -1      2933 3.28442E+00-7.67158E-01-3.49999E-01
 -1      2934 2.84654E+00-7.88529E-01-3.49999E-01
 -1      2935-2.63606E+00 5.33758E-01-3.49999E-01
 -1      2936 1.25139E+00-1.80172E+00 3.49999E-01
 -1      2937 2.04097E-01-2.06271E+00 3.49999E-01
 -1      2938 1.46534E-01-1.72123E+00-3.49999E-01
 -1      2939 5.69013E-01-2.21593E+00 3.49999E-01
 -1      2940-2.23129E+00 4.43842E-01 3.49999E-01
 -1      2941 4.24298E-01 2.18804E+00 3.49999E-01
 -1      2942-1.74561E+00-1.30686E+00 3.49999E-01
 -1      2943-2.16105E+00-1.35644E+00-3.49999E-01
 -1      2944-1.26030E+00 1.72843E+00-3.49999E-01
 -1      2945 1.90336E+00-1.17356E+00 3.49999E-01
 -1      2946 1.35198E+00-2.02337E+00 3.49999E-01
 -1      2947-1.01338E+00 2.17031E+00-3.49999E-01
 -1      2948-1.68618E+00-2.82958E+00 9.48278E-01
 -1      2949-1.29545E+00-2.96040E+00-3.49999E-01
 -1      2950-2.18980E+00 2.40001E+00-3.49999E-01
 -1      2951 1.82573E+00 1.21993E+00 3.49999E-01
 -1      2952-2.37500E-01-2.32311E+00 3.49999E-01
 -1      2953 1.43644E+00 2.25880E+00-3.49999E-01
 -1      2954 1.97376E+00-1.45697E+00-3.49999E-01
 -1      2955 2.02577E+00 1.35358E+00 3.49999E-01
 -1      2956-1.85501E+00 1.77322E+00-3.49999E-01
 -1      2957-1.30169E+00-1.94810E+00 3.49999E-01
 -1      2958-2.26454E+00-2.16055E+00-3.49999E-01
 -1      2959-2.20333E+00-6.06291E-01 3.49999E-01
 -1      2960-2.67631E+00-3.85564E-02-3.49999E-01
 -1      2961-6.93305E-01 2.29441E+00 3.49999E-01
 -1      2962-3.19313E+00-8.08500E-01 9.48278E-01
 -1      2963-2.42992E+00-1.00651E+00 8.54629E-01
 -1      2964-2.42886E+00 4.83135E-01 3.49999E-01
 -1      2965-2.80631E+00-1.67655E+00 9.16972E-01
 -1      2966 1.67655E+00-2.80631E+00 9.16972E-01
 -1      2967-2.07747E+00 1.38813E+00 3.49999E-01
 -1      2968-2.80631E+00 1.67655E+00 9.16972E-01
 -1      2969-2.35146E+00-3.28457E-01 3.49999E-01
 -1      2970 2.77546E+00 1.11110E+00-3.49999E-01
 -1      2971 1.96891E+00-2.64067E+00 9.48279E-01
 -1      2972 1.85978E+00-1.85978E+00 8.54628E-01
 -1      2973 2.88660E+00 1.70980E+00 1.02500E+00
 -1      2974 2.42963E+00 1.00722E+00 8.54088E-01
 -1      2975-2.64067E+00-1.96891E+00 9.48279E-01
 -1      2976-1.87260E+00-2.54435E+00 8.56249E-01
 -1      2977-2.45174E+00 1.12424E+00-3.49999E-01
 -1      2978 2.89585E-01-2.37028E+00 3.49999E-01
 -1      2979 1.13335E+00-2.72309E+00-3.49999E-01
 -1      2980 1.56177E-02 2.84598E+00-3.49999E-01
 -1      2981-2.56565E+00-1.57686E+00 6.92750E-01
 -1      2982-2.26833E+00 1.95526E+00-3.49999E-01
 -1      2983-1.00651E+00-2.42992E+00 8.54629E-01
 -1      2984-2.06705E+00-1.12149E+00 3.49999E-01
 -1      2985 1.00651E+00-2.42992E+00 8.54629E-01
 -1      2986 2.36627E+00-2.37500E-01 3.49999E-01
 -1      2987 3.19313E+00-8.08500E-01 9.48278E-01
 -1      2988-2.64067E+00 1.96891E+00 9.48279E-01
 -1      2989-1.85978E+00 1.85978E+00 8.54628E-01
 -1      2990 2.37276E+00-4.88981E-01 3.49999E-01
 -1      2991 4.74999E-01 3.32118E+00 1.02500E+00
 -1      2992-7.67997E-04 2.63013E+00 8.54088E-01
 -1      2993 4.78543E-01 2.40577E+00 3.49999E-01
 -1      2994 2.28875E+00-2.39028E+00-3.49999E-01
 -1      2995 8.08500E-01 3.19313E+00 9.48278E-01
 -1      2996 2.30196E+00 6.78556E-01 3.49999E-01
 -1      2997 1.86203E+00-1.50515E+00 3.49999E-01
 -1      2998 1.96891E+00 2.64067E+00 9.48279E-01
 -1      2999 3.09711E+00 1.29100E-01-3.49999E-01
 -1      3000-5.83149E-01-2.26082E+00 3.49999E-01
 -1      3001-3.23428E+00-4.74999E-01 9.16972E-01
 -1      3002-4.57422E-01 2.37986E+00 3.49999E-01
 -1      3003 1.00651E+00 2.42992E+00 8.53008E-01
 -1      3004-1.67655E+00 2.80631E+00 9.16972E-01
 -1      3005-2.45080E+00-1.77905E+00 7.06511E-01
 -1      3006 8.08500E-01-3.19313E+00 9.48278E-01
 -1      3007-2.94505E+00-7.05744E-01 7.06511E-01
 -1      3008 2.03702E+00-1.35859E+00 3.49999E-01
 -1      3009-2.40251E+00-5.34079E-01 3.49999E-01
 -1      3010-4.74999E-01 3.23428E+00 9.16972E-01
 -1      3011-1.00580E+00 2.43022E+00 8.54088E-01
 -1      3012-4.74999E-01 2.97379E+00 6.92750E-01
 -1      3013 1.57686E+00-2.56565E+00 6.92750E-01
 -1      3014-2.45080E+00 1.77905E+00 7.06511E-01
 -1      3015-2.43022E+00 1.00580E+00 8.54088E-01
 -1      3016-1.85978E+00-1.85978E+00 8.53007E-01
 -1      3017 3.19313E+00 8.08500E-01 9.48278E-01
 -1      3018 2.94505E+00 7.05744E-01 7.06511E-01
 -1      3019-8.08500E-01 3.19313E+00 9.48278E-01
 -1      3020 1.39026E+00 2.08066E+00 3.49999E-01
 -1      3021 2.42963E+00-1.00722E+00 8.54088E-01
 -1      3022-1.35251E+00 2.02417E+00 3.49999E-01
 -1      3023 2.62286E+00-1.95111E+00 9.16969E-01
 -1      3024 1.77905E+00-2.45080E+00 7.06511E-01
 -1      3025 4.95841E-01-2.41357E+00 3.49999E-01
 -1      3026-4.74999E-01-3.25946E+00 9.48279E-01
 -1      3027 4.74999E-01-3.12326E+00 8.56249E-01
 -1      3028-1.58343E+00-2.58150E+00 7.06511E-01
 -1      3029-1.99420E+00-1.36653E+00 3.49999E-01
 -1      3030-2.63013E+00 7.67997E-04 8.54088E-01
 -1      3031-7.98862E-01-3.16986E+00 9.16969E-01
 -1      3032 1.85978E+00 1.85978E+00 8.53007E-01
 -1      3033 7.05744E-01-2.94505E+00 7.06511E-01
 -1      3034-6.99178E-01-2.92920E+00 6.92748E-01
 -1      3035-1.96891E+00 2.64067E+00 9.48279E-01
 -1      3036-1.77905E+00 2.45080E+00 7.06511E-01
 -1      3037 2.61486E+00 1.59724E+00 7.51011E-01
 -1      3038 4.74999E-01 3.02705E+00 7.51012E-01
 -1      3039 2.41172E+00 4.97114E-01 3.49999E-01
 -1      3040 3.32118E+00 4.74999E-01 1.02500E+00
 -1      3041 2.63013E+00 0.00000E+00 8.53007E-01
 -1      3042-4.32913E-01-2.41732E+00 3.49999E-01
 -1      3043 1.67655E+00 2.80631E+00 9.16972E-01
 -1      3044 7.05744E-01 2.94505E+00 7.06511E-01
 -1      3045 1.57686E+00 2.56565E+00 6.92750E-01
 -1      3046-1.73342E+00-1.98615E+00 6.01503E-01
 -1      3047-7.05744E-01 2.94505E+00 7.06511E-01
 -1      3048 2.43866E+00-1.76691E+00 6.92749E-01
 -1      3049-2.56565E+00 1.57686E+00 6.92750E-01
 -1      3050-3.19313E+00 8.08500E-01 9.48278E-01
 -1      3051 0.00000E+00-2.63013E+00 8.53007E-01
 -1      3052 2.94505E+00-7.05744E-01 7.06511E-01
 -1      3053 2.82958E+00-1.68618E+00 9.48278E-01
 -1      3054 2.58150E+00-1.58343E+00 7.06511E-01
 -1      3055 2.64067E+00 1.96891E+00 9.48279E-01
 -1      3056 2.45080E+00 1.77905E+00 7.06511E-01
 -1      3057 1.77905E+00 2.45080E+00 7.06511E-01
 -1      3058-2.97379E+00-4.74999E-01 6.92750E-01
 -1      3059-3.23428E+00 4.74999E-01 9.16972E-01
 -1      3060 3.23428E+00-4.74999E-01 9.16972E-01
 -1      3061 3.02705E+00 4.74999E-01 7.51012E-01
 -1      3062 2.97379E+00-4.74999E-01 6.92750E-01
 -1      3063-2.94505E+00 7.05744E-01 7.06511E-01
 -1      3064-4.74999E-01-2.99095E+00 7.06512E-01
 -1      3065 4.74999E-01-2.92284E+00 6.37018E-01
 -1      3066-2.97379E+00 4.74999E-01 6.92750E-01
 -1      3067-2.38621E+00 1.59441E+00 2.52758E-02
 -1      3068 1.59441E+00-2.38621E+00-2.14380E-02
 -1      3069 2.42111E+00 4.81593E-01-1.70058E-02
 -1      3070 2.79782E+00 5.56516E-01 1.28764E-02
 -1      3071 5.59878E-01 2.81472E+00 1.19987E-02
 -1      3072 2.09469E+00 1.39963E+00-9.76001E-03
 -1      3073-2.81472E+00-5.59878E-01 1.29834E-03
 -1      3074-2.39687E+00-4.76773E-01-6.59004E-03
 -1      3075 2.81472E+00-5.59878E-01-1.98305E-03
 -1      3076-5.27413E-01 2.65149E+00-4.48659E-02
 -1      3077 1.35198E+00-2.02337E+00-2.73755E-03
 -1      3078-2.42886E+00 4.83135E-01 1.22145E-04
 -1      3079 1.47602E+00-2.20901E+00 1.06473E-01
 -1      3080-2.27347E+00-1.51909E+00-2.35825E-02
 -1      3081-1.51465E+00-2.26683E+00-2.20827E-02
 -1      3082-1.59441E+00 2.38621E+00 1.33164E-02
 -1      3083 5.25065E-01-2.63969E+00-3.16535E-02
 -1      3084 2.41318E+00-4.80015E-01 2.79945E-03
 -1      3085-1.53952E+00 2.30406E+00 1.84972E-01
 -1      3086 2.61530E+00-5.20216E-01 1.18497E-01
 -1      3087 2.38621E+00 1.59441E+00 5.66474E-02
 -1      3088-5.59878E-01-2.81473E+00 4.17304E-04
 -1      3089 2.59977E+00 5.17127E-01 1.24963E-01
 -1      3090 4.81745E-01 2.42187E+00 7.89144E-03
 -1      3091-2.07747E+00 1.38813E+00 2.52413E-02
 -1      3092-1.53952E+00-2.30406E+00 1.77382E-01
 -1      3093-4.74449E-01-2.38519E+00-4.55169E-03
 -1      3094 5.20583E-01 2.61715E+00 1.24292E-01
 -1      3095 2.12777E+00 1.42173E+00 1.88836E-01
 -1      3096-2.61668E+00-1.26716E+00 5.82268E-02
 -1      3097-1.32964E+00-2.63667E+00 3.67243E-02
 -1      3098 2.38621E+00-1.59441E+00-8.15096E-03
 -1      3099 2.03573E+00-1.36024E+00 2.79787E-02
 -1      3100 1.59441E+00 2.38621E+00 6.68800E-05
 -1      3101 2.21863E+00-1.48244E+00 1.17350E-01
 -1      3102-2.60370E+00-5.17908E-01 1.12912E-01
 -1      3103-2.23183E+00 1.49126E+00 1.38214E-01
 -1      3104-2.81472E+00 5.59878E-01 1.28590E-02
 -1      3105 1.39026E+00 2.08066E+00 2.65011E-02
 -1      3106 1.53952E+00 2.30406E+00 1.78222E-01
 -1      3107-1.35251E+00 2.02417E+00 1.02293E-01
 -1      3108-1.39504E+00-2.08782E+00 1.49576E-01
 -1      3109-1.93257E+00-2.17206E+00 6.35468E-02
 -1      3110 1.26716E+00-2.61668E+00 8.70236E-02
 -1      3111 1.69344E-01-2.90241E+00 3.76642E-02
 -1      3112-2.30406E+00-1.53952E+00 1.77450E-01
 -1      3113-2.61803E+00 5.20757E-01 1.25102E-01
 -1      3114-5.16916E-01-2.59871E+00 1.09753E-01
 -1      3115-2.18471E+00 1.97986E+00 8.11245E-02
 -1      3116 2.77607E+00 9.93097E-01 7.60183E-02
 -1      3117 1.69344E-01 2.90241E+00 9.61014E-02
 -1      3118 9.93097E-01 2.77607E+00 7.86688E-02
 -1      3119-2.90241E+00-1.69344E-01 9.33564E-02
 -1      3120 1.97986E+00 2.18471E+00 7.61932E-02
 -1      3121-2.61668E+00 1.26716E+00 9.92666E-02
 -1      3122-9.54248E-01-2.74628E+00 1.13363E-01
 -1      3123 5.40605E-01-2.71782E+00 1.66571E-01
 -1      3124-9.33454E-01 2.80078E+00 1.88275E-02
 -1      3125-5.40605E-01 2.71782E+00 1.61962E-01
 -1      3126 2.77607E+00-9.93097E-01 7.57427E-02
 -1      3127 2.90241E+00-1.69344E-01 9.24829E-02
 -1      3128 2.17206E+00-1.93257E+00 9.07943E-02
 -1      3129-1.74136E+00 2.01072E+00-5.13311E-03
 -1      3130 5.01945E-01-2.52344E+00 1.84225E-01
 -1      3131-4.97835E-01 2.50277E+00 1.72666E-01
 -1      3132-2.11825E+00-1.41537E+00 1.70519E-01
 -3
    3C                          9527                                     1
 -1         1    3    0    1
 -2       106       102       581       964
 -1         2    3    0    1
 -2       509        45       511      1188
 -1         3    3    0    1
 -2      1474      1409      3120      3056
 -1         4    3    0    1
 -2       920       508       929       930
 -1         5    3    0    1
 -2      1954      1805      2117      2327
 -1         6    3    0    1
 -2      2731      2944      3107      3129
 -1         7    3    0    1
 -2       461      1161         6       464
 -1         8    3    0    1
 -2       966       581       960       969
 -1         9    3    0    1
 -2       924       508      1184      1185
 -1        10    3    0    1
 -2       139       993       994      1860
 -1        11    3    0    1
 -2       683       680      1011      1018
 -1        12    3    0    1
 -2        82        72       561       949
 -1        13    3    0    1
 -2      1733      1823      2004      2050
 -1        14    3    0    1
 -2       243       782       771      1306
 -1        15    3    0    1
 -2       775       766       774      3006
 -1        16    3    0    1
 -2       944        68      2225      2299
 -1        17    3    0    1
 -2      2373      1551      2696      2698
 -1        18    3    0    1
 -2       661       152       657       996
 -1        19    3    0    1
 -2       701      1024       185      1022
 -1        20    3    0    1
 -2       637       132       633       984
 -1        21    3    0    1
 -2       652       159      1001      1261
 -1        22    3    0    1
 -2      1973      1846      2037      2287
 -1        23    3    0    1
 -2      1292      1038       728      1284
 -1        24    3    0    1
 -2      1634      1652      1824      2168
 -1        25    3    0    1
 -2      1564      1563      1611      1835
 -1        26    3    0    1
 -2      1045       220      2638      2764
 -1        27    3    0    1
 -2      1316       778      2545      2573
 -1        28    3    0    1
 -2      1911      1214      2049      2307
 -1        29    3    0    1
 -2      1179      1609      2342      2492
 -1        30    3    0    1
 -2       525       524       941      1196
 -1        31    3    0    1
 -2       605       121       607       977
 -1        32    3    0    1
 -2      2332       977      2442      2615
 -1        33    3    0    1
 -2       629      1243       134       632
 -1        34    3    0    1
 -2       763       768      1072      1306
 -1        35    3    0    1
 -2       720      1037      1045      1290
 -1        36    3    0    1
 -2      2201      2163      1539      2290
 -1        37    3    0    1
 -2       581       964      1218      1221
 -1        38    3    0    1
 -2       408       415       745      1056
 -1        39    3    0    1
 -2       478       477       496       918
 -1        40    3    0    1
 -2        73      1209        76       554
 -1        41    3    0    1
 -2      1731      2515      2773      2855
 -1        42    3    0    1
 -2      1951      1661      2415      2458
 -1        43    3    0    1
 -2      2960      1473      3113      3119
 -1        44    3    0    1
 -2      1715      1557      2027      2204
 -1        45    3    0    1
 -2      1863       538      2030      2295
 -1        46    3    0    1
 -2       102       581       583       966
 -1        47    3    0    1
 -2        86        79      1214      2049
 -1        48    3    0    1
 -2       484       494       918      1176
 -1        49    3    0    1
 -2      1909      2027      2204      2321
 -1        50    3    0    1
 -2      1033      2413      2738      2781
 -1        51    3    0    1
 -2        40       505      1183      1186
 -1        52    3    0    1
 -2      3089       421      2996      3039
 -1        53    3    0    1
 -2      1897      1008       164       355
 -1        54    3    0    1
 -2       694      1034       693      1026
 -1        55    3    0    1
 -2       481        24       916      1178
 -1        56    3    0    1
 -2       653       342       656      1003
 -1        57    3    0    1
 -2      1627      1862      2081      2141
 -1        58    3    0    1
 -2      2541      2921      2936      3077
 -1        59    3    0    1
 -2        87       557       564       946
 -1        60    3    0    1
 -2      2178       555      2218      2761
 -1        61    3    0    1
 -2      1543      1771      1976      2093
 -1        62    3    0    1
 -2      1626      1527      1650      2003
 -1        63    3    0    1
 -2       604       124       609       980
 -1        64    3    0    1
 -2       141       138       629      1248
 -1        65    3    0    1
 -2      1034       711      1035      2738
 -1        66    3    0    1
 -2       509       511       928      1188
 -1        67    3    0    1
 -2      1104      1793      1800      1826
 -1        68    3    0    1
 -2      1617      2085      2216      2583
 -1        69    3    0    1
 -2      2379      1977      2498      2585
 -1        70    3    0    1
 -2        75       557       946      1212
 -1        71    3    0    1
 -2       462       915      1165      2029
 -1        72    3    0    1
 -2      1393      1752      2302      2739
 -1        73    3    0    1
 -2      2879      1968      2912      1451
 -1        74    3    0    1
 -2       110       604       609       970
 -1        75    3    0    1
 -2      2989      1452      3014      3036
 -1        76    3    0    1
 -2      1676      1695      1903      2096
 -1        77    3    0    1
 -2       143       638       628      1245
 -1        78    3    0    1
 -2      1679      1525      1809      2227
 -1        79    3    0    1
 -2      1869      2144      2389      2392
 -1        80    3    0    1
 -2       247       238       769      1309
 -1        81    3    0    1
 -2      1641      1589      2063      2064
 -1        82    3    0    1
 -2       992       629      1243      1244
 -1        83    3    0    1
 -2        47        45       509       921
 -1        84    3    0    1
 -2       555       950      1937      2014
 -1        85    3    0    1
 -2        45       509       511       922
 -1        86    3    0    1
 -2       903       459      1167      2053
 -1        87    3    0    1
 -2        34      2000      1726        37
 -1        88    3    0    1
 -2       556        83       955       956
 -1        89    3    0    1
 -2      1004       650       156      1000
 -1        90    3    0    1
 -2       463      1092      1166      1765
 -1        91    3    0    1
 -2       645       646       664      1008
 -1        92    3    0    1
 -2       628       139       633       994
 -1        93    3    0    1
 -2      2886      2954      3099      2997
 -1        94    3    0    1
 -2      1751      1715      2027      2408
 -1        95    3    0    1
 -2       158       338      1472      3102
 -1        96    3    0    1
 -2      2930      3075      3084      3086
 -1        97    3    0    1
 -2       615       597       616       982
 -1        98    3    0    1
 -2         5       460       465      1160
 -1        99    3    0    1
 -2       424       931      2306      2862
 -1       100    3    0    1
 -2      1634      1654      1702      1824
 -1       101    3    0    1
 -2      2330      1668      2564      2795
 -1       102    3    0    1
 -2      1691      1616      1850      1890
 -1       103    3    0    1
 -2       984       633       994      1245
 -1       104    3    0    1
 -2       224      1297       229       749
 -1       105    3    0    1
 -2      1595      1619      1874      2497
 -1       106    3    0    1
 -2      1204       933       532      1197
 -1       107    3    0    1
 -2       329       156      1633      1647
 -1       108    3    0    1
 -2      2077      1030      2377      2924
 -1       109    3    0    1
 -2      1770      1930      2072      2487
 -1       110    3    0    1
 -2       979      1234       597       982
 -1       111    3    0    1
 -2       413      1588      1635      1847
 -1       112    3    0    1
 -2      1591      1775      2060      2187
 -1       113    3    0    1
 -2      1685      1053      1991      2005
 -1       114    3    0    1
 -2       773      1070      1061       776
 -1       115    3    0    1
 -2      1754      1689      1884      1895
 -1       116    3    0    1
 -2       316       296      1343      2088
 -1       117    3    0    1
 -2       142      2008      2032      2112
 -1       118    3    0    1
 -2       597       615       616       981
 -1       119    3    0    1
 -2      1340       833      1691      1710
 -1       120    3    0    1
 -2      1439      1438      3080      3112
 -1       121    3    0    1
 -2        19        22       484      1173
 -1       122    3    0    1
 -2      1073       784      2606      2807
 -1       123    3    0    1
 -2      1543      2063      2067      2114
 -1       124    3    0    1
 -2      1042      2043      2584      2649
 -1       125    3    0    1
 -2      2044       962      2629      2799
 -1       126    3    0    1
 -2      1759      1627      1892      2141
 -1       127    3    0    1
 -2       691       702      2975      2976
 -1       128    3    0    1
 -2       904      1426      1430      3061
 -1       129    3    0    1
 -2      2774      2099      2908      2916
 -1       130    3    0    1
 -2      2935      2762      3078      3104
 -1       131    3    0    1
 -2      1567      1671      1803      2025
 -1       132    3    0    1
 -2      1301      1057       749      1060
 -1       133    3    0    1
 -2      1775      1942      2187      2329
 -1       134    3    0    1
 -2       921       501       928       931
 -1       135    3    0    1
 -2       525       938       531       524
 -1       136    3    0    1
 -2        26        29       488      1174
 -1       137    3    0    1
 -2       731       206       214      1282
 -1       138    3    0    1
 -2      2295      1608      2486      2495
 -1       139    3    0    1
 -2       622       993       984       621
 -1       140    3    0    1
 -2        37        34       484       917
 -1       141    3    0    1
 -2      2973      1180      3037       914
 -1       142    3    0    1
 -2      1716      1662      2013      2271
 -1       143    3    0    1
 -2       328       674       333      1017
 -1       144    3    0    1
 -2       484        34       489       917
 -1       145    3    0    1
 -2       953      1628      1644      1693
 -1       146    3    0    1
 -2        41       427       511       926
 -1       147    3    0    1
 -2       622       993       640       994
 -1       148    3    0    1
 -2       229       756       233      1301
 -1       149    3    0    1
 -2        83       384       556       950
 -1       150    3    0    1
 -2       954      1935      2019      2238
 -1       151    3    0    1
 -2       643       651      1000      1004
 -1       152    3    0    1
 -2       629       632       992      1243
 -1       153    3    0    1
 -2       684       174       179      1021
 -1       154    3    0    1
 -2       750       775      1068      2540
 -1       155    3    0    1
 -2      2215      2798      2823      2872
 -1       156    3    0    1
 -2       759       760      1059      1597
 -1       157    3    0    1
 -2       134       629       632      1246
 -1       158    3    0    1
 -2       351      1446      1447      3092
 -1       159    3    0    1
 -2      1768       682      1929      2076
 -1       160    3    0    1
 -2       510      1193       925      2181
 -1       161    3    0    1
 -2      1182       478       919      1174
 -1       162    3    0    1
 -2      1465        78      1502      3125
 -1       163    3    0    1
 -2       434      1366      1149      1839
 -1       164    3    0    1
 -2       155       650       649      1251
 -1       165    3    0    1
 -2      1062       241      2985      3006
 -1       166    3    0    1
 -2       919       488        32      1182
 -1       167    3    0    1
 -2       484       489       913      1171
 -1       168    3    0    1
 -2      1893       496      1901      1939
 -1       169    3    0    1
 -2      2142       404      2581      2787
 -1       170    3    0    1
 -2      2506      2894      1473      2969
 -1       171    3    0    1
 -2      1768      1946      2268      2532
 -1       172    3    0    1
 -2       591       592      1953      2258
 -1       173    3    0    1
 -2       481       916      1172      1178
 -1       174    3    0    1
 -2      1552      1539      1553      1773
 -1       175    3    0    1
 -2      1940      1533      1984      2087
 -1       176    3    0    1
 -2      2400      1092      2933      3126
 -1       177    3    0    1
 -2       485        26      1174      1175
 -1       178    3    0    1
 -2      1603      1619      1874      2016
 -1       179    3    0    1
 -2      1033       693       711      1036
 -1       180    3    0    1
 -2      1365       848      1700      1746
 -1       181    3    0    1
 -2       120       114       607       972
 -1       182    3    0    1
 -2       580       585       962      1224
 -1       183    3    0    1
 -2       629       992       995      1244
 -1       184    3    0    1
 -2       660       154       653      1256
 -1       185    3    0    1
 -2      2026      1625      2250      2313
 -1       186    3    0    1
 -2      1577      2409      2453      2454
 -1       187    3    0    1
 -2       595       603       974       978
 -1       188    3    0    1
 -2       769       770      1069      1309
 -1       189    3    0    1
 -2       161       159       652      1007
 -1       190    3    0    1
 -2        97       103       585      1224
 -1       191    3    0    1
 -2       601       974      1229      1232
 -1       192    3    0    1
 -2       415      1714      1809      1855
 -1       193    3    0    1
 -2       485      1174       919      1175
 -1       194    3    0    1
 -2      1642      1610      1700      2136
 -1       195    3    0    1
 -2       943       544       944      2225
 -1       196    3    0    1
 -2      1448       338      1471      1497
 -1       197    3    0    1
 -2      1281       203      2284      2405
 -1       198    3    0    1
 -2      1546      1858      2010      2155
 -1       199    3    0    1
 -2      2099      1528      2498      2585
 -1       200    3    0    1
 -2      1012       676      1019      1020
 -1       201    3    0    1
 -2      1893       496      1939      2586
 -1       202    3    0    1
 -2       622       984       994      1245
 -1       203    3    0    1
 -2      1618      1744      1749      1861
 -1       204    3    0    1
 -2       524      1204       938       538
 -1       205    3    0    1
 -2        58        63       533      1201
 -1       206    3    0    1
 -2      1543      1849      2063      2114
 -1       207    3    0    1
 -2      1651      1762      1846      1872
 -1       208    3    0    1
 -2       573      1226      1221       572
 -1       209    3    0    1
 -2       153       662       652      1257
 -1       210    3    0    1
 -2        63        58       533       932
 -1       211    3    0    1
 -2      1929      1768      2076      2268
 -1       212    3    0    1
 -2      1087      1337      1093       811
 -1       213    3    0    1
 -2      2963       666      2965      2981
 -1       214    3    0    1
 -2       505       927      1183      1186
 -1       215    3    0    1
 -2      1642      1559      1700      1746
 -1       216    3    0    1
 -2       533        58       535       932
 -1       217    3    0    1
 -2      1564      1598      1986      1996
 -1       218    3    0    1
 -2      1440      2900      2954      3128
 -1       219    3    0    1
 -2       787      1325      1081       798
 -1       220    3    0    1
 -2       501       921       928      1188
 -1       221    3    0    1
 -2       728       212      1046      1295
 -1       222    3    0    1
 -2      1114      1758      1908      2398
 -1       223    3    0    1
 -2       638       143       146      1245
 -1       224    3    0    1
 -2       384       950      1790      1904
 -1       225    3    0    1
 -2      1444       101      1468      1496
 -1       226    3    0    1
 -2      1537      1657      1923      2632
 -1       227    3    0    1
 -2       949       556       956      1205
 -1       228    3    0    1
 -2      1725       730      2221      2853
 -1       229    3    0    1
 -2       246      1707      2026      2250
 -1       230    3    0    1
 -2      1369      1623      1699      1741
 -1       231    3    0    1
 -2      1671      1567      1852      2334
 -1       232    3    0    1
 -2       676       169       681      1266
 -1       233    3    0    1
 -2      1043       718      1286      1288
 -1       234    3    0    1
 -2       652       662      1007      1257
 -1       235    3    0    1
 -2      2258       966      2339      2714
 -1       236    3    0    1
 -2      1424      1002      1434      3119
 -1       237    3    0    1
 -2      1359      1360      1636      1717
 -1       238    3    0    1
 -2       335       387       577       965
 -1       239    3    0    1
 -2       839      1351       840      1868
 -1       240    3    0    1
 -2       180       681      1266      1268
 -1       241    3    0    1
 -2       595      1239      1230       975
 -1       242    3    0    1
 -2       558      1215       560      2991
 -1       243    3    0    1
 -2       585       104       962      1228
 -1       244    3    0    1
 -2       905       377      1337      2396
 -1       245    3    0    1
 -2       165      1009      1263      2962
 -1       246    3    0    1
 -2       658      1004      1749      1861
 -1       247    3    0    1
 -2       914      2499      2546      2970
 -1       248    3    0    1
 -2      1708      1402      1764      2095
 -1       249    3    0    1
 -2       626       130       131      1242
 -1       250    3    0    1
 -2       701       201       704      1031
 -1       251    3    0    1
 -2        29        26       488       911
 -1       252    3    0    1
 -2       143       132       628      1241
 -1       253    3    0    1
 -2       529        60       530      1198
 -1       254    3    0    1
 -2       774       775      1315      2390
 -1       255    3    0    1
 -2       110       614       604      1235
 -1       256    3    0    1
 -2       471      1168      1912      2596
 -1       257    3    0    1
 -2       640       663      1006      2055
 -1       258    3    0    1
 -2      1747      1640      2333      2433
 -1       259    3    0    1
 -2       576       968       571       592
 -1       260    3    0    1
 -2      1719      1603      1918      2281
 -1       261    3    0    1
 -2       587        94       105      1217
 -1       262    3    0    1
 -2       227       747       753      1047
 -1       263    3    0    1
 -2       110       113       609      1230
 -1       264    3    0    1
 -2       477       917       918      1176
 -1       265    3    0    1
 -2       177       174       680      1018
 -1       266    3    0    1
 -2       159       321      1006      1975
 -1       267    3    0    1
 -2       143       628       983      1241
 -1       268    3    0    1
 -2      1999      2231      2322      2651
 -1       269    3    0    1
 -2      1569      1667      1784      1840
 -1       270    3    0    1
 -2      1413      1440      3024      3048
 -1       271    3    0    1
 -2       121       123       605       982
 -1       272    3    0    1
 -2       540        67       366       945
 -1       273    3    0    1
 -2       983      1250       988       619
 -1       274    3    0    1
 -2      1432      3004      3011      3047
 -1       275    3    0    1
 -2       485        26       488      1174
 -1       276    3    0    1
 -2       355       164       653      1008
 -1       277    3    0    1
 -2       574       586       961       965
 -1       278    3    0    1
 -2       639       621       640       995
 -1       279    3    0    1
 -2       750       751      1304      2682
 -1       280    3    0    1
 -2       599       977       608       606
 -1       281    3    0    1
 -2      1806      1800      1854      2021
 -1       282    3    0    1
 -2       252       773      1070      1073
 -1       283    3    0    1
 -2      2098      1590      2159      2430
 -1       284    3    0    1
 -2       575       962      1223      1224
 -1       285    3    0    1
 -2      1662      1664      1677      2013
 -1       286    3    0    1
 -2       328      1620      2202      2771
 -1       287    3    0    1
 -2        26       492        33      1175
 -1       288    3    0    1
 -2      1621      1689      1718      2711
 -1       289    3    0    1
 -2       384        83       956      1812
 -1       290    3    0    1
 -2       621       993       639       640
 -1       291    3    0    1
 -2      1359       308      1360      1717
 -1       292    3    0    1
 -2      1436      1453      1483      3033
 -1       293    3    0    1
 -2       516        41       424       931
 -1       294    3    0    1
 -2       676       681      1012      1019
 -1       295    3    0    1
 -2       643      1254      1251      1000
 -1       296    3    0    1
 -2      1280      1030      1438      3005
 -1       297    3    0    1
 -2      1770      1930      2071      2072
 -1       298    3    0    1
 -2      1544      1886      2211      2619
 -1       299    3    0    1
 -2       625       991      1240      1242
 -1       300    3    0    1
 -2       551      1214       550       558
 -1       301    3    0    1
 -2      1336      1954      2319      2327
 -1       302    3    0    1
 -2      1019       323      2277      2529
 -1       303    3    0    1
 -2       494        22        23      1176
 -1       304    3    0    1
 -2      1663      2039      2208      2445
 -1       305    3    0    1
 -2       571       591       592       968
 -1       306    3    0    1
 -2      1553      1704      2163      2180
 -1       307    3    0    1
 -2        34       913      1181      2000
 -1       308    3    0    1
 -2       383      1810      1956      2037
 -1       309    3    0    1
 -2      1588       413      1635      2627
 -1       310    3    0    1
 -2       128      2294      2315      2686
 -1       311    3    0    1
 -2      1571       975      2294      2842
 -1       312    3    0    1
 -2      2119       724      2237      2661
 -1       313    3    0    1
 -2      1452      1431      3115      3036
 -1       314    3    0    1
 -2       601       602       974      1232
 -1       315    3    0    1
 -2       462      2029      2402      2440
 -1       316    3    0    1
 -2       392      1866      2432      2754
 -1       317    3    0    1
 -2       509       921       928       931
 -1       318    3    0    1
 -2      1606      1793      1800      1806
 -1       319    3    0    1
 -2       192       697      1027      1277
 -1       320    3    0    1
 -2      1008      1897       164      2485
 -1       321    3    0    1
 -2       201       202      1036      2590
 -1       322    3    0    1
 -2      1863       380      2324      2832
 -1       323    3    0    1
 -2        45       509       921      1188
 -1       324    3    0    1
 -2      1675      1593      1842      1902
 -1       325    3    0    1
 -2       647      1003       655       654
 -1       326    3    0    1
 -2       408      1052      1600      2423
 -1       327    3    0    1
 -2      1721      1707      1943      2026
 -1       328    3    0    1
 -2      1025       693      1036      1274
 -1       329    3    0    1
 -2      1039       728      1295      1282
 -1       330    3    0    1
 -2      1034       711       693      1035
 -1       331    3    0    1
 -2      1546      1750      2010      2183
 -1       332    3    0    1
 -2       648      1259      1258       647
 -1       333    3    0    1
 -2       480      1179      1177       479
 -1       334    3    0    1
 -2      1688      2130      2421      2474
 -1       335    3    0    1
 -2       796      1320       258      1319
 -1       336    3    0    1
 -2       979       121       982      1864
 -1       337    3    0    1
 -2        97       590       580       959
 -1       338    3    0    1
 -2       474      1467      2974      3018
 -1       339    3    0    1
 -2       718      1291      1288      1043
 -1       340    3    0    1
 -2      1387       305      1369      1623
 -1       341    3    0    1
 -2      1689      1754      1856      1895
 -1       342    3    0    1
 -2      2709      2916      2996      3072
 -1       343    3    0    1
 -2       750       740       751      1055
 -1       344    3    0    1
 -2       639      2425      2527      2603
 -1       345    3    0    1
 -2       499      1186      1183       927
 -1       346    3    0    1
 -2       974       595       978      1229
 -1       347    3    0    1
 -2      1664      1714      1961      2228
 -1       348    3    0    1
 -2       471      1098      1168      1549
 -1       349    3    0    1
 -2       489        19      1170      1171
 -1       350    3    0    1
 -2       826       819      1094      2270
 -1       351    3    0    1
 -2      1293      1041      2949      3097
 -1       352    3    0    1
 -2       405       246      1625      2250
 -1       353    3    0    1
 -2       825       820      1097      1331
 -1       354    3    0    1
 -2      1867      2117      2326      2327
 -1       355    3    0    1
 -2      1047       747      1059      1302
 -1       356    3    0    1
 -2      1069       770      1308      1309
 -1       357    3    0    1
 -2      2153       916      2855      2858
 -1       358    3    0    1
 -2       620      1247      1242       991
 -1       359    3    0    1
 -2       814      1098      1095      1088
 -1       360    3    0    1
 -2       944      1807      1810      1973
 -1       361    3    0    1
 -2       511       515       928      1188
 -1       362    3    0    1
 -2      1656      1630      2146      2180
 -1       363    3    0    1
 -2       476       913      1170      1171
 -1       364    3    0    1
 -2      1575      1580      1691      1710
 -1       365    3    0    1
 -2        41       931      2191      2306
 -1       366    3    0    1
 -2      1434      1473      1506      3066
 -1       367    3    0    1
 -2       796      1323       801      1327
 -1       368    3    0    1
 -2       164      1897      2434      2466
 -1       369    3    0    1
 -2      2075      2472      2757      2772
 -1       370    3    0    1
 -2      1064       245       776       240
 -1       371    3    0    1
 -2       718      1291      1043       724
 -1       372    3    0    1
 -2       463       822      1092      1765
 -1       373    3    0    1
 -2       944       544      1807      2383
 -1       374    3    0    1
 -2      2991      2992      3010      3038
 -1       375    3    0    1
 -2       128       975      2315      2842
 -1       376    3    0    1
 -2       840      1351      1857      1868
 -1       377    3    0    1
 -2       631      2323      2616      2732
 -1       378    3    0    1
 -2      1614      1670      1940      2070
 -1       379    3    0    1
 -2       286       283       825      1331
 -1       380    3    0    1
 -2      1575      1650      1837      1966
 -1       381    3    0    1
 -2       816      1094       826       815
 -1       382    3    0    1
 -2      1107       439      1787      1835
 -1       383    3    0    1
 -2      2906      1468      3107      3022
 -1       384    3    0    1
 -2      1000      2184      2244      2759
 -1       385    3    0    1
 -2       861      1120      1619      1692
 -1       386    3    0    1
 -2        41       509       511       928
 -1       387    3    0    1
 -2       537       541       936       943
 -1       388    3    0    1
 -2       645       663       664      1007
 -1       389    3    0    1
 -2        79       557       954       957
 -1       390    3    0    1
 -2       485        32       915      1179
 -1       391    3    0    1
 -2      1103      1680      1794      2433
 -1       392    3    0    1
 -2       386       308      1359      1717
 -1       393    3    0    1
 -2      2978      2939      3025      3130
 -1       394    3    0    1
 -2      1638      1554      1758      1908
 -1       395    3    0    1
 -2      1056       415      1809      2227
 -1       396    3    0    1
 -2      3098      2348      2994      3128
 -1       397    3    0    1
 -2      1425      1456      1460      3018
 -1       398    3    0    1
 -2      2041      2880      2941      3090
 -1       399    3    0    1
 -2      1684      1675      1842      1902
 -1       400    3    0    1
 -2       557       559       954      1212
 -1       401    3    0    1
 -2      1554      1697      1781      2177
 -1       402    3    0    1
 -2      1338       823      2987      3053
 -1       403    3    0    1
 -2       476      1181       483       475
 -1       404    3    0    1
 -2       453       471       472       908
 -1       405    3    0    1
 -2        18       470       418       908
 -1       406    3    0    1
 -2       401       302      2469      2665
 -1       407    3    0    1
 -2       771       244      1071      1072
 -1       408    3    0    1
 -2        63       540        71       932
 -1       409    3    0    1
 -2       273       796       801      1327
 -1       410    3    0    1
 -2       139       320      1250      2175
 -1       411    3    0    1
 -2      1075      1325       797      1081
 -1       412    3    0    1
 -2      1876      1338      2932      3098
 -1       413    3    0    1
 -2       100        98       577      1222
 -1       414    3    0    1
 -2       518        38        49       920
 -1       415    3    0    1
 -2      1677      1722      1919      2337
 -1       416    3    0    1
 -2      1771      1791      1976      2088
 -1       417    3    0    1
 -2      1150      1624      1787      1835
 -1       418    3    0    1
 -2      1406       894      2282      2300
 -1       419    3    0    1
 -2      1590      1601      2093      2116
 -1       420    3    0    1
 -2       676       173      1019      1020
 -1       421    3    0    1
 -2       476      1181       913       483
 -1       422    3    0    1
 -2       502       931       520       501
 -1       423    3    0    1
 -2         5       469         7      1160
 -1       424    3    0    1
 -2       907       460      1159      1160
 -1       425    3    0    1
 -2      3104      2762      3113      3119
 -1       426    3    0    1
 -2        14        12       464      1168
 -1       427    3    0    1
 -2       797       267      1081      1325
 -1       428    3    0    1
 -2      1423      1448      1471      3007
 -1       429    3    0    1
 -2       544       523       943       944
 -1       430    3    0    1
 -2      2895      2905      3069      1457
 -1       431    3    0    1
 -2        58       535       932       935
 -1       432    3    0    1
 -2      1166       904      2440      2999
 -1       433    3    0    1
 -2      1562      1636      1743      1964
 -1       434    3    0    1
 -2      1590      1573      1666      2116
 -1       435    3    0    1
 -2      1614      2304      2519      2648
 -1       436    3    0    1
 -2      2231       311      2322      2651
 -1       437    3    0    1
 -2       197      1281      2284      2626
 -1       438    3    0    1
 -2      1965       969      2258      2630
 -1       439    3    0    1
 -2      1174       485       919       488
 -1       440    3    0    1
 -2       829       286       825      1332
 -1       441    3    0    1
 -2       869      1631      1649      1728
 -1       442    3    0    1
 -2       950       556      1207      1208
 -1       443    3    0    1
 -2      3087      1410      1491      1492
 -1       444    3    0    1
 -2       106       102       964      2309
 -1       445    3    0    1
 -2       953      1628      1693      1938
 -1       446    3    0    1
 -2      1992      1867      2125      2291
 -1       447    3    0    1
 -2      1375      1156      1716      1811
 -1       448    3    0    1
 -2      1430      1166      3061      3062
 -1       449    3    0    1
 -2      1034      1020      2530      2554
 -1       450    3    0    1
 -2        72       556       949      1205
 -1       451    3    0    1
 -2      1018       177      2394      2466
 -1       452    3    0    1
 -2       224       749       752      1049
 -1       453    3    0    1
 -2      2878      2942      1445      3108
 -1       454    3    0    1
 -2       528       943       543       523
 -1       455    3    0    1
 -2       460        17       907       908
 -1       456    3    0    1
 -2      2301      2893      1438      2958
 -1       457    3    0    1
 -2       553      1209      1206        73
 -1       458    3    0    1
 -2      1619      1692      1874      2016
 -1       459    3    0    1
 -2      1851      1932      2266      2420
 -1       460    3    0    1
 -2      1152      1708      1764      2068
 -1       461    3    0    1
 -2        72        82       561      1207
 -1       462    3    0    1
 -2       557        79       559       952
 -1       463    3    0    1
 -2      1155       436      1374      1919
 -1       464    3    0    1
 -2      2883      2895      3069      1457
 -1       465    3    0    1
 -2       107       104       580       967
 -1       466    3    0    1
 -2      2147      1203      1422      3100
 -1       467    3    0    1
 -2      2610      1653      2620      2668
 -1       468    3    0    1
 -2       952      1911      2238      2706
 -1       469    3    0    1
 -2      2013      1677      2118      2282
 -1       470    3    0    1
 -2       604       124       975      1239
 -1       471    3    0    1
 -2       865       884      1145      2500
 -1       472    3    0    1
 -2       532        55       542      1195
 -1       473    3    0    1
 -2      1613      1943      2025      2138
 -1       474    3    0    1
 -2      1810        89      1956      2037
 -1       475    3    0    1
 -2       436       445      1821      1919
 -1       476    3    0    1
 -2      1355       311      1356      2651
 -1       477    3    0    1
 -2      1180       914      2546      2970
 -1       478    3    0    1
 -2      1076       797      1085      1328
 -1       479    3    0    1
 -2       576       968       959       571
 -1       480    3    0    1
 -2       132       633       984      1245
 -1       481    3    0    1
 -2      2891      2239      3073      2960
 -1       482    3    0    1
 -2       108      1678      2468      2475
 -1       483    3    0    1
 -2      1540      2419      2526      2785
 -1       484    3    0    1
 -2      1999      2108      2143      2604
 -1       485    3    0    1
 -2      1018       677      1011      1021
 -1       486    3    0    1
 -2       460         5       465      1163
 -1       487    3    0    1
 -2        17      1817      2059      2122
 -1       488    3    0    1
 -2        14        12      1168      1912
 -1       489    3    0    1
 -2       519       501       520       931
 -1       490    3    0    1
 -2      1010      1270      1016       668
 -1       491    3    0    1
 -2        52      2229      2256      2342
 -1       492    3    0    1
 -2      2886      2921      3077      2997
 -1       493    3    0    1
 -2       528       942       935       932
 -1       494    3    0    1
 -2      1457      1461      1494      3061
 -1       495    3    0    1
 -2      1811      1716      1858      1915
 -1       496    3    0    1
 -2       358       410      1053      1865
 -1       497    3    0    1
 -2       578       961      1222      1225
 -1       498    3    0    1
 -2       653       656       998      1003
 -1       499    3    0    1
 -2       580       585       958       967
 -1       500    3    0    1
 -2      1305      1053      1712      1873
 -1       501    3    0    1
 -2      2972       785      3023      3048
 -1       502    3    0    1
 -2       453       454       471       907
 -1       503    3    0    1
 -2      1127       866      2464      2536
 -1       504    3    0    1
 -2       917       484       918      1176
 -1       505    3    0    1
 -2       371       244      2263      2365
 -1       506    3    0    1
 -2       488       919      1174      1182
 -1       507    3    0    1
 -2        57        55       532      1195
 -1       508    3    0    1
 -2       107       967       968      1953
 -1       509    3    0    1
 -2       528       945       942       932
 -1       510    3    0    1
 -2       509       511       922       926
 -1       511    3    0    1
 -2       917       495      1939      2357
 -1       512    3    0    1
 -2        68        65       532       944
 -1       513    3    0    1
 -2       104       580       585       962
 -1       514    3    0    1
 -2      2203      2120      2285      2407
 -1       515    3    0    1
 -2      1095       821       367       824
 -1       516    3    0    1
 -2      2154       857      2219      2737
 -1       517    3    0    1
 -2      2588       198      2650      2743
 -1       518    3    0    1
 -2      1993       389      2265      2415
 -1       519    3    0    1
 -2       408      1600      1779      1895
 -1       520    3    0    1
 -2       457        10       906      1164
 -1       521    3    0    1
 -2        88        75       557       946
 -1       522    3    0    1
 -2      1724      1560      2071      2087
 -1       523    3    0    1
 -2      1530      1793      1800      2065
 -1       524    3    0    1
 -2       380        62      1802      2832
 -1       525    3    0    1
 -2       813       814       831      1096
 -1       526    3    0    1
 -2      1489      1435      1515      3064
 -1       527    3    0    1
 -2       575      1228       579       574
 -1       528    3    0    1
 -2       488        32        30       915
 -1       529    3    0    1
 -2        61        60       529      1198
 -1       530    3    0    1
 -2      1858      1811      1936      2155
 -1       531    3    0    1
 -2      1389       869       877      1649
 -1       532    3    0    1
 -2      2348      3098      3099      3101
 -1       533    3    0    1
 -2      1967      1148       849      1105
 -1       534    3    0    1
 -2       586       579       961      2296
 -1       535    3    0    1
 -2       633       628      1241      1250
 -1       536    3    0    1
 -2       772      2198      2644      2821
 -1       537    3    0    1
 -2      1597       759      2735      2766
 -1       538    3    0    1
 -2      2124      3076      2947      3131
 -1       539    3    0    1
 -2       501       920       929       930
 -1       540    3    0    1
 -2       663       995      1005      2055
 -1       541    3    0    1
 -2      2389      2489      2687      2692
 -1       542    3    0    1
 -2       517       513       929      1187
 -1       543    3    0    1
 -2       741      1055       751       740
 -1       544    3    0    1
 -2      1049      1303       749      1055
 -1       545    3    0    1
 -2      1842      1684      1902      2102
 -1       546    3    0    1
 -2       333      1789      2262      2477
 -1       547    3    0    1
 -2       287      1096      1097      2343
 -1       548    3    0    1
 -2       754      1056      1711      1712
 -1       549    3    0    1
 -2      1727      1988      2158      2349
 -1       550    3    0    1
 -2       328      1017      1941      1950
 -1       551    3    0    1
 -2       225       753       757      1047
 -1       552    3    0    1
 -2        38       518       508       920
 -1       553    3    0    1
 -2      2347      1180      1425      3070
 -1       554    3    0    1
 -2       532        65       537       944
 -1       555    3    0    1
 -2       765      1313       778       764
 -1       556    3    0    1
 -2      2231      1732      2322      2329
 -1       557    3    0    1
 -2       770       238      1308      1309
 -1       558    3    0    1
 -2       749       752      1049      1055
 -1       559    3    0    1
 -2      1853      2125      2220      2577
 -1       560    3    0    1
 -2      1722      1621      1799      2337
 -1       561    3    0    1
 -2       407       244       777      1066
 -1       562    3    0    1
 -2       537        65       943       944
 -1       563    3    0    1
 -2       431      1397      1121      1808
 -1       564    3    0    1
 -2      1585       877      1631      1649
 -1       565    3    0    1
 -2         8       458        11       902
 -1       566    3    0    1
 -2      1413      3068      1458      3128
 -1       567    3    0    1
 -2      1885      1576      1914      2178
 -1       568    3    0    1
 -2      1028      2535      2558      2624
 -1       569    3    0    1
 -2       724       718       730      1043
 -1       570    3    0    1
 -2       850      1149      1366      1839
 -1       571    3    0    1
 -2      1471      1448      1497      3007
 -1       572    3    0    1
 -2      1998      1608      2295      2495
 -1       573    3    0    1
 -2       484       917      1173      1176
 -1       574    3    0    1
 -2       388      1146      1632      1894
 -1       575    3    0    1
 -2       412      1058      2851      2852
 -1       576    3    0    1
 -2       548      1209      1206       953
 -1       577    3    0    1
 -2       252       780       773      1073
 -1       578    3    0    1
 -2      1557      1599      1733      1825
 -1       579    3    0    1
 -2      1660      1567      1828      1985
 -1       580    3    0    1
 -2      3076      1465      3125      3131
 -1       581    3    0    1
 -2      1790        83      1812      1987
 -1       582    3    0    1
 -2      1004       650      1251       649
 -1       583    3    0    1
 -2       174       677      1018      1021
 -1       584    3    0    1
 -2       239       777      1307      1310
 -1       585    3    0    1
 -2      1204       938      1637      2778
 -1       586    3    0    1
 -2       469         5       465      1160
 -1       587    3    0    1
 -2        10       458       457       906
 -1       588    3    0    1
 -2      1217        96       583        94
 -1       589    3    0    1
 -2        84        79       559       954
 -1       590    3    0    1
 -2       506        40       505      1183
 -1       591    3    0    1
 -2      1150      1367      1611      1835
 -1       592    3    0    1
 -2       168       175       677      1010
 -1       593    3    0    1
 -2       427        41       511       928
 -1       594    3    0    1
 -2       104       107       580       962
 -1       595    3    0    1
 -2       789      1320      1083      1319
 -1       596    3    0    1
 -2       655      1002      2115      1260
 -1       597    3    0    1
 -2      1575      1527      1690      1691
 -1       598    3    0    1
 -2       899       461       464       905
 -1       599    3    0    1
 -2      1438      1420      1445      3046
 -1       600    3    0    1
 -2       621       622       640       995
 -1       601    3    0    1
 -2      1627      1827      2015      2081
 -1       602    3    0    1
 -2       770       405      1069      1313
 -1       603    3    0    1
 -2       533       540       932       945
 -1       604    3    0    1
 -2       951      1418      1476      3117
 -1       605    3    0    1
 -2       621       622       995      1244
 -1       606    3    0    1
 -2      1556      2389      2687      2692
 -1       607    3    0    1
 -2       551      1214      1211       550
 -1       608    3    0    1
 -2       564        79        86       957
 -1       609    3    0    1
 -2        79       557       559       954
 -1       610    3    0    1
 -2      1600      1660      1779      1895
 -1       611    3    0    1
 -2      2009        12      2020      2399
 -1       612    3    0    1
 -2       264       803       800      1321
 -1       613    3    0    1
 -2       287       820       825      1339
 -1       614    3    0    1
 -2      1090      1336      1094       815
 -1       615    3    0    1
 -2      2267      2333      2433      2710
 -1       616    3    0    1
 -2       417       197      1035      2617
 -1       617    3    0    1
 -2      1972      1866      2123      2127
 -1       618    3    0    1
 -2      1770      2487      2673      2768
 -1       619    3    0    1
 -2      1011       669      1021      1264
 -1       620    3    0    1
 -2      1336      1836      2270      2319
 -1       621    3    0    1
 -2       746      1056      1051      1052
 -1       622    3    0    1
 -2      1017       328      1941      2460
 -1       623    3    0    1
 -2       753       757      1047      1058
 -1       624    3    0    1
 -2      1250      2175      2222      2827
 -1       625    3    0    1
 -2       677       680      1010      1016
 -1       626    3    0    1
 -2      1044      2426      2542      2656
 -1       627    3    0    1
 -2      1585      1649      1705      2232
 -1       628    3    0    1
 -2       492       485       919      1175
 -1       629    3    0    1
 -2       623       990       631       630
 -1       630    3    0    1
 -2       226       737      3027      3051
 -1       631    3    0    1
 -2      1742      1697      2123      2127
 -1       632    3    0    1
 -2      1423      3073      1471      3096
 -1       633    3    0    1
 -2      3076      1465      3117      3125
 -1       634    3    0    1
 -2      1157      1376      2161      2350
 -1       635    3    0    1
 -2      1375      1156      1811      1915
 -1       636    3    0    1
 -2      1094       826      1988      2104
 -1       637    3    0    1
 -2      1664      1538      1714      2228
 -1       638    3    0    1
 -2       527       526       940      1199
 -1       639    3    0    1
 -2       217       212       725      1292
 -1       640    3    0    1
 -2       487       462      2440      2546
 -1       641    3    0    1
 -2      1655      1569      1667      2303
 -1       642    3    0    1
 -2       188       699      1276      1278
 -1       643    3    0    1
 -2      1261       658      1861      2007
 -1       644    3    0    1
 -2      3088      1412      1490      3122
 -1       645    3    0    1
 -2      1752       447      2130      2739
 -1       646    3    0    1
 -2      1726       917      1939      2357
 -1       647    3    0    1
 -2      1067      1315      2966      3033
 -1       648    3    0    1
 -2       748       742       754      1056
 -1       649    3    0    1
 -2      2775       234      2843      2856
 -1       650    3    0    1
 -2       747      1300       227       753
 -1       651    3    0    1
 -2      1464      3118      3044      3045
 -1       652    3    0    1
 -2       533       932       942       945
 -1       653    3    0    1
 -2       461        12       905      1165
 -1       654    3    0    1
 -2       907       471      1817      2122
 -1       655    3    0    1
 -2      1994      1729      2089      2362
 -1       656    3    0    1
 -2       715      1044       735       736
 -1       657    3    0    1
 -2       663       645       664      1008
 -1       658    3    0    1
 -2       557       564       946       957
 -1       659    3    0    1
 -2      1563      1564      1665      1787
 -1       660    3    0    1
 -2       691      1279      1031       702
 -1       661    3    0    1
 -2       191       198       697      1032
 -1       662    3    0    1
 -2      2387      1238      2616      2950
 -1       663    3    0    1
 -2        75       557       559       947
 -1       664    3    0    1
 -2      1445      3080      3109      3112
 -1       665    3    0    1
 -2       489       913      1170      1181
 -1       666    3    0    1
 -2      3091      2724      1477      2977
 -1       667    3    0    1
 -2       643      1253      1001      1252
 -1       668    3    0    1
 -2      2031      1671      2219      2410
 -1       669    3    0    1
 -2      1550      1531      1636      2206
 -1       670    3    0    1
 -2      3076      1465      2980      3117
 -1       671    3    0    1
 -2      1643      1615      1740      1745
 -1       672    3    0    1
 -2      1026       699      1035      1275
 -1       673    3    0    1
 -2       717      1042       727       716
 -1       674    3    0    1
 -2      1473      3074      3102      3119
 -1       675    3    0    1
 -2       639       992      2425      2603
 -1       676    3    0    1
 -2      1801      1523      1957      2524
 -1       677    3    0    1
 -2       414       220      1970      2638
 -1       678    3    0    1
 -2       777       781      1065      1071
 -1       679    3    0    1
 -2      1107      1400      1665      1787
 -1       680    3    0    1
 -2      1215      2199      1417      3071
 -1       681    3    0    1
 -2      1477      1416      3121      3049
 -1       682    3    0    1
 -2      1143      1752      2130      2421
 -1       683    3    0    1
 -2      2226      1907      2338      2439
 -1       684    3    0    1
 -2        34        37       913      2000
 -1       685    3    0    1
 -2      1662      1538      1664      2228
 -1       686    3    0    1
 -2       906      1164      1989      2058
 -1       687    3    0    1
 -2       931       520      2191      2694
 -1       688    3    0    1
 -2      1433      1477      3049      3063
 -1       689    3    0    1
 -2         9         5       460       901
 -1       690    3    0    1
 -2       169       676       681      1012
 -1       691    3    0    1
 -2       341       342      1005      2353
 -1       692    3    0    1
 -2      2292      1542      2330      2564
 -1       693    3    0    1
 -2       941       538      1863      2486
 -1       694    3    0    1
 -2       652       657       996      1006
 -1       695    3    0    1
 -2      1715      1751      2027      2470
 -1       696    3    0    1
 -2       188      1275       190       699
 -1       697    3    0    1
 -2       634      2179      2200      2222
 -1       698    3    0    1
 -2      1869      1747      2069      2392
 -1       699    3    0    1
 -2      1782      1607      1985      2334
 -1       700    3    0    1
 -2       168       677       680      1010
 -1       701    3    0    1
 -2       668      1270       679       667
 -1       702    3    0    1
 -2      1122      1407      1936      2183
 -1       703    3    0    1
 -2      2262      2547      2719      2836
 -1       704    3    0    1
 -2      1996       281      2080      2082
 -1       705    3    0    1
 -2      1110       853      2429      2469
 -1       706    3    0    1
 -2      1091      1339      2151      2349
 -1       707    3    0    1
 -2      1561      1834      2022      2403
 -1       708    3    0    1
 -2      1810       383      1973      2037
 -1       709    3    0    1
 -2      3064      1437      1435      3065
 -1       710    3    0    1
 -2       456       906       455       902
 -1       711    3    0    1
 -2       130       626       625      1242
 -1       712    3    0    1
 -2      3086      3075      1485      3126
 -1       713    3    0    1
 -2       124       127       975      2315
 -1       714    3    0    1
 -2       970       604       981      1235
 -1       715    3    0    1
 -2      1658      1542      1680      1794
 -1       716    3    0    1
 -2       605       607       972       977
 -1       717    3    0    1
 -2      1590      1541      1666      2430
 -1       718    3    0    1
 -2       636       629       995      1244
 -1       719    3    0    1
 -2      1587      2382      2393      2532
 -1       720    3    0    1
 -2       600      1237       599       606
 -1       721    3    0    1
 -2       533       942       372       945
 -1       722    3    0    1
 -2       961       574       965      1222
 -1       723    3    0    1
 -2      1732      1951      2207      2604
 -1       724    3    0    1
 -2       486       512      1179      1609
 -1       725    3    0    1
 -2       614       110       115      1235
 -1       726    3    0    1
 -2        96       581      1218      1221
 -1       727    3    0    1
 -2       342       653      1005      1008
 -1       728    3    0    1
 -2       108       104      1228      2140
 -1       729    3    0    1
 -2       140       134       629      1244
 -1       730    3    0    1
 -2       545      2992      1503      3012
 -1       731    3    0    1
 -2       529       937      1196      1198
 -1       732    3    0    1
 -2       857       892      2154      2219
 -1       733    3    0    1
 -2       553      1209        73       554
 -1       734    3    0    1
 -2      1954      1867      1992      2327
 -1       735    3    0    1
 -2      1523      1831      1957      2524
 -1       736    3    0    1
 -2       671      1269       682       675
 -1       737    3    0    1
 -2      2236      2182      2453      2503
 -1       738    3    0    1
 -2       132       628       633      1245
 -1       739    3    0    1
 -2       108      1678      2017      2140
 -1       740    3    0    1
 -2       958       580       967       968
 -1       741    3    0    1
 -2       124       127       604       975
 -1       742    3    0    1
 -2       812      1330      2987      3053
 -1       743    3    0    1
 -2       134       632       986      1246
 -1       744    3    0    1
 -2      3011      3004      3019      3047
 -1       745    3    0    1
 -2       584       582      1226      1948
 -1       746    3    0    1
 -2      1677      1662      2013      2118
 -1       747    3    0    1
 -2      1792      1399      2097      2384
 -1       748    3    0    1
 -2      1771      1543      2067      2093
 -1       749    3    0    1
 -2       986      1248       990       624
 -1       750    3    0    1
 -2      2954      1440      3099      2997
 -1       751    3    0    1
 -2      1411      1054      3027      3064
 -1       752    3    0    1
 -2       612       114       605      1234
 -1       753    3    0    1
 -2       624      1248       990       630
 -1       754    3    0    1
 -2      1250       983       628      1241
 -1       755    3    0    1
 -2       118       601       974       978
 -1       756    3    0    1
 -2       975       604      1230      1231
 -1       757    3    0    1
 -2        64      1464      1480      3106
 -1       758    3    0    1
 -2      1885      1584      1914      1917
 -1       759    3    0    1
 -2      2894      2506      3074      2969
 -1       760    3    0    1
 -2      1070       252      1073      2275
 -1       761    3    0    1
 -2      1569      1667      2248      2479
 -1       762    3    0    1
 -2        98       578      1222      1225
 -1       763    3    0    1
 -2        13       467       464      1161
 -1       764    3    0    1
 -2       529       937       941      1196
 -1       765    3    0    1
 -2       954        79       957      1935
 -1       766    3    0    1
 -2      1846      1651      1872      2037
 -1       767    3    0    1
 -2       897       461       905      1165
 -1       768    3    0    1
 -2       387      1529      1639      2096
 -1       769    3    0    1
 -2      1632      1562      1955      2417
 -1       770    3    0    1
 -2       777      1066      1307      1310
 -1       771    3    0    1
 -2       585       962      1223      1228
 -1       772    3    0    1
 -2      1164       902       457      1162
 -1       773    3    0    1
 -2      2373      2541      2698      2897
 -1       774    3    0    1
 -2      2989       593      1517      3036
 -1       775    3    0    1
 -2       114       605       607       972
 -1       776    3    0    1
 -2       604       110       609      1230
 -1       777    3    0    1
 -2       114       612       122      1234
 -1       778    3    0    1
 -2      1611      1563      1624      1787
 -1       779    3    0    1
 -2       716       726      2948      3031
 -1       780    3    0    1
 -2       509       516       921       931
 -1       781    3    0    1
 -2       578       961       965      1222
 -1       782    3    0    1
 -2      1337      1879      2320      2397
 -1       783    3    0    1
 -2      2972      3023      3024      3048
 -1       784    3    0    1
 -2       525       938       524       933
 -1       785    3    0    1
 -2        79       564       557       957
 -1       786    3    0    1
 -2       575       574       961      1225
 -1       787    3    0    1
 -2       248       773       776      1070
 -1       788    3    0    1
 -2       726       751      1292      1796
 -1       789    3    0    1
 -2       478       477       918      1176
 -1       790    3    0    1
 -2       731       728      1282      1295
 -1       791    3    0    1
 -2       492        26       485      1175
 -1       792    3    0    1
 -2       523       543       544       943
 -1       793    3    0    1
 -2      1270      1010       677      1262
 -1       794    3    0    1
 -2      1095       814      1088      1333
 -1       795    3    0    1
 -2      2028      1577      2500      2752
 -1       796    3    0    1
 -2      1690      1575      1691      1710
 -1       797    3    0    1
 -2      1572      1742      2123      2127
 -1       798    3    0    1
 -2       628       132       633      1241
 -1       799    3    0    1
 -2       121       605       979       982
 -1       800    3    0    1
 -2       348      1443      1452      1517
 -1       801    3    0    1
 -2      1632      1146      1692      1894
 -1       802    3    0    1
 -2      1934      1006      2055      2100
 -1       803    3    0    1
 -2      1000       643      1004      1251
 -1       804    3    0    1
 -2      1559      1610      2519      2648
 -1       805    3    0    1
 -2       708       701      1036      1274
 -1       806    3    0    1
 -2      1655      1554      1742      1972
 -1       807    3    0    1
 -2       696      1032       706       695
 -1       808    3    0    1
 -2      1559      1610      1700      2518
 -1       809    3    0    1
 -2      1844      1829      2276      2464
 -1       810    3    0    1
 -2       914      1410      2915      3116
 -1       811    3    0    1
 -2       697       192       698      1277
 -1       812    3    0    1
 -2       701       185      1025      1274
 -1       813    3    0    1
 -2      1295       221      2043      2572
 -1       814    3    0    1
 -2      1922      2052      2316      2531
 -1       815    3    0    1
 -2      1849      1791      2062      2165
 -1       816    3    0    1
 -2       567       957       547       568
 -1       817    3    0    1
 -2      1688      1535      1752      1920
 -1       818    3    0    1
 -2      1016       181      2434      2466
 -1       819    3    0    1
 -2       204      1283      2983      3031
 -1       820    3    0    1
 -2       434       438      1792      2097
 -1       821    3    0    1
 -2      1030      1420      1438      2976
 -1       822    3    0    1
 -2      3115      1415      3014      3036
 -1       823    3    0    1
 -2       749       752      1057      1296
 -1       824    3    0    1
 -2      1730      1639      1739      1801
 -1       825    3    0    1
 -2       812      1093       811      1087
 -1       826    3    0    1
 -2      2245      2018      2249      2582
 -1       827    3    0    1
 -2       940      2317      2318      2609
 -1       828    3    0    1
 -2       113       613       125       970
 -1       829    3    0    1
 -2      1293      1041      2377      2949
 -1       830    3    0    1
 -2       201       701      1033      1036
 -1       831    3    0    1
 -2       701      1025      1033      1036
 -1       832    3    0    1
 -2       349       210      3114      1490
 -1       833    3    0    1
 -2       821       367      1337       284
 -1       834    3    0    1
 -2      1455      3076      3124      3131
 -1       835    3    0    1
 -2       191       198      1669      1945
 -1       836    3    0    1
 -2       338      1448      3102      3009
 -1       837    3    0    1
 -2       719       718      1040      1287
 -1       838    3    0    1
 -2       752       755      1057      1296
 -1       839    3    0    1
 -2      1261       658      1777      1861
 -1       840    3    0    1
 -2       720      1046       736       715
 -1       841    3    0    1
 -2       616       639      2527      2603
 -1       842    3    0    1
 -2      1533      1670      1940      2085
 -1       843    3    0    1
 -2      2198      1066      2483      2573
 -1       844    3    0    1
 -2       580       104       585       967
 -1       845    3    0    1
 -2       674       171       172      1013
 -1       846    3    0    1
 -2       996       652      1007      1257
 -1       847    3    0    1
 -2      1723      1373      2410      1154
 -1       848    3    0    1
 -2        95       585       589       958
 -1       849    3    0    1
 -2       267       803       268      1328
 -1       850    3    0    1
 -2       784      1072      2606      2635
 -1       851    3    0    1
 -2       669       670      1020      1265
 -1       852    3    0    1
 -2      1607      1782      1985      2086
 -1       853    3    0    1
 -2      2976      1420      3005      3046
 -1       854    3    0    1
 -2       150      1258       154       653
 -1       855    3    0    1
 -2      1451      2879      3097      3108
 -1       856    3    0    1
 -2       553        77       953      1213
 -1       857    3    0    1
 -2      1243       629       134      1244
 -1       858    3    0    1
 -2       708       201       202      1036
 -1       859    3    0    1
 -2       461       899         6       897
 -1       860    3    0    1
 -2      1694      1706      1944      1979
 -1       861    3    0    1
 -2       748      1053      1685      1712
 -1       862    3    0    1
 -2      2940      3078      1473      2964
 -1       863    3    0    1
 -2        28       474      2974      3017
 -1       864    3    0    1
 -2      2152       425      2406      2613
 -1       865    3    0    1
 -2      1135       872      2253      2621
 -1       866    3    0    1
 -2       761      2966      2985      3013
 -1       867    3    0    1
 -2      1424      1473      3119      3058
 -1       868    3    0    1
 -2       102      1581      2309      2443
 -1       869    3    0    1
 -2      1791      1344      2088      2165
 -1       870    3    0    1
 -2       557       946       954       957
 -1       871    3    0    1
 -2       567      1807      2019      2046
 -1       872    3    0    1
 -2      2194      2265      2266      2645
 -1       873    3    0    1
 -2      1570      1694      2247      2561
 -1       874    3    0    1
 -2      1560      1670      2071      2087
 -1       875    3    0    1
 -2      1463      1465      1469      3038
 -1       876    3    0    1
 -2       103        97       585       958
 -1       877    3    0    1
 -2       590       580       959       968
 -1       878    3    0    1
 -2       951      2991      3038      1215
 -1       879    3    0    1
 -2       198      1032      2588      2650
 -1       880    3    0    1
 -2       653       164       660      1008
 -1       881    3    0    1
 -2      1968      2912      1451      3093
 -1       882    3    0    1
 -2       653       150       656      1255
 -1       883    3    0    1
 -2       937       525       941      1196
 -1       884    3    0    1
 -2       471       453       907       908
 -1       885    3    0    1
 -2      1758      1554      1781      2177
 -1       886    3    0    1
 -2       508      1187       513        38
 -1       887    3    0    1
 -2      1771      1849      2062      2063
 -1       888    3    0    1
 -2      1529       387      1695      2096
 -1       889    3    0    1
 -2      3084      2931      1454      2990
 -1       890    3    0    1
 -2       267       797       800      1328
 -1       891    3    0    1
 -2       110       604       970      1235
 -1       892    3    0    1
 -2      1410      3018      3116      1425
 -1       893    3    0    1
 -2      1452      2989      1517      3036
 -1       894    3    0    1
 -2       924        53      2205      2784
 -1       895    3    0    1
 -2       469       465       907      1160
 -1       896    3    0    1
 -2      1664      1538      1677      2337
 -1       897    3    0    1
 -2      2147      2888      3105      3118
 -1       898    3    0    1
 -2       742      1051      1052      1299
 -1       899    3    0    1
 -2      1272       682      1929      2162
 -1       900    3    0    1
 -2       480      1179       479       486
 -1       901    3    0    1
 -2        57        56       532      1197
 -1       902    3    0    1
 -2       915      1179      1962      2492
 -1       903    3    0    1
 -2       579      2296      2618      2789
 -1       904    3    0    1
 -2      1783      2158      2210      2793
 -1       905    3    0    1
 -2       581       966       960       583
 -1       906    3    0    1
 -2       748      1052      2086      2106
 -1       907    3    0    1
 -2       721       208       722      1288
 -1       908    3    0    1
 -2       902      1164       457       906
 -1       909    3    0    1
 -2      1722      1799      1919      2337
 -1       910    3    0    1
 -2       495      1901      1939      2357
 -1       911    3    0    1
 -2        10       906      1164      1989
 -1       912    3    0    1
 -2        41       427       926      2256
 -1       913    3    0    1
 -2      1324      2011      2103      2216
 -1       914    3    0    1
 -2      1098       367       821       284
 -1       915    3    0    1
 -2      1807       955      1956      1987
 -1       916    3    0    1
 -2       454      1168       453       471
 -1       917    3    0    1
 -2       459       455       466       906
 -1       918    3    0    1
 -2       962       585      1223      1224
 -1       919    3    0    1
 -2       559       563       954      1212
 -1       920    3    0    1
 -2        97       580       958       959
 -1       921    3    0    1
 -2       821       824      1329      1337
 -1       922    3    0    1
 -2       748      1052      1056      1712
 -1       923    3    0    1
 -2      1457      1430      3127      3062
 -1       924    3    0    1
 -2      1675      1593      2036      2569
 -1       925    3    0    1
 -2       556       561       949       955
 -1       926    3    0    1
 -2       320       142      2008      2032
 -1       927    3    0    1
 -2      2061      2101      2579      2744
 -1       928    3    0    1
 -2       138       141       629       995
 -1       929    3    0    1
 -2      1566      1721      1820      1943
 -1       930    3    0    1
 -2       461        12       464       905
 -1       931    3    0    1
 -2       620       988       619       983
 -1       932    3    0    1
 -2       106       581       966       969
 -1       933    3    0    1
 -2       299       298      2355      2671
 -1       934    3    0    1
 -2      1623      1699      1741      2172
 -1       935    3    0    1
 -2        27       473      2973      2974
 -1       936    3    0    1
 -2       703      1882      2242      2301
 -1       937    3    0    1
 -2      1811       862      1915      1936
 -1       938    3    0    1
 -2      1453      3083      3123      3130
 -1       939    3    0    1
 -2       206       728      1039      1282
 -1       940    3    0    1
 -2       678      1270      1814      2242
 -1       941    3    0    1
 -2       342      1003      1259      1897
 -1       942    3    0    1
 -2       508        50       929       930
 -1       943    3    0    1
 -2       499      1194      1184       924
 -1       944    3    0    1
 -2       422      1457      1461      1494
 -1       945    3    0    1
 -2      1550      1743      1797      1964
 -1       946    3    0    1
 -2      1858      1683      2155      2173
 -1       947    3    0    1
 -2      1727      1988      2104      2462
 -1       948    3    0    1
 -2        32       915      1179      1962
 -1       949    3    0    1
 -2      1397       431       432      1808
 -1       950    3    0    1
 -2      1474       370      3105      3020
 -1       951    3    0    1
 -2       953      1644      2051      2520
 -1       952    3    0    1
 -2       295      1148       397      1890
 -1       953    3    0    1
 -2      1579      1589      2063      2114
 -1       954    3    0    1
 -2      1526      1662      1716      2271
 -1       955    3    0    1
 -2       850       888      1149      1839
 -1       956    3    0    1
 -2       503       926       512       510
 -1       957    3    0    1
 -2        45      1190        47       509
 -1       958    3    0    1
 -2       992       621       995      1244
 -1       959    3    0    1
 -2        38        39       513      1184
 -1       960    3    0    1
 -2      1580      1672      2038      2132
 -1       961    3    0    1
 -2       489        34       913      1181
 -1       962    3    0    1
 -2      2186      1851      2194      2266
 -1       963    3    0    1
 -2      2871      1327       802      2142
 -1       964    3    0    1
 -2       773       780      1061      1073
 -1       965    3    0    1
 -2      2774      2908      2928      2951
 -1       966    3    0    1
 -2      1685       748      1712      2086
 -1       967    3    0    1
 -2       590        97        99       959
 -1       968    3    0    1
 -2       521      2995      3003      3044
 -1       969    3    0    1
 -2      1035       712      1709      2738
 -1       970    3    0    1
 -2       467        13        15      1161
 -1       971    3    0    1
 -2       547       567       568       956
 -1       972    3    0    1
 -2       127       124       604       981
 -1       973    3    0    1
 -2      1365       847       848      1746
 -1       974    3    0    1
 -2       913       489      1170      1171
 -1       975    3    0    1
 -2       488       919        32       485
 -1       976    3    0    1
 -2       604       124       980       981
 -1       977    3    0    1
 -2       974       118      2436      2476
 -1       978    3    0    1
 -2       404       373      1083      2581
 -1       979    3    0    1
 -2       582       963      2387      2920
 -1       980    3    0    1
 -2        65       532       537      1204
 -1       981    3    0    1
 -2       460        17       465       907
 -1       982    3    0    1
 -2      1579      1849      2062      2165
 -1       983    3    0    1
 -2      3089      3070      1460      1461
 -1       984    3    0    1
 -2       518       508       920       930
 -1       985    3    0    1
 -2       297       318      1101      1909
 -1       986    3    0    1
 -2       600      1237      1236       599
 -1       987    3    0    1
 -2      1585      1568      1649      2209
 -1       988    3    0    1
 -2      3073      3102      2960      3119
 -1       989    3    0    1
 -2      1150      1611      1624      1835
 -1       990    3    0    1
 -2      1596      1745      2095      2139
 -1       991    3    0    1
 -2      1143       446      1381      2130
 -1       992    3    0    1
 -2      1957      1801      2449      2501
 -1       993    3    0    1
 -2       580        97       585      1224
 -1       994    3    0    1
 -2      1534      1606      1730      1957
 -1       995    3    0    1
 -2      3069      2917      1457      3089
 -1       996    3    0    1
 -2       499      1185       924      1184
 -1       997    3    0    1
 -2       557       559       947       952
 -1       998    3    0    1
 -2       791      1324      1082       795
 -1       999    3    0    1
 -2       583        96       581      1218
 -1      1000    3    0    1
 -2       107       590       336       968
 -1      1001    3    0    1
 -2       477      1182       496       495
 -1      1002    3    0    1
 -2      1270      1016       679      1814
 -1      1003    3    0    1
 -2      1448       176      1450      3096
 -1      1004    3    0    1
 -2       936       537       944      1195
 -1      1005    3    0    1
 -2       932       535       942       935
 -1      1006    3    0    1
 -2       933      1204       938       524
 -1      1007    3    0    1
 -2        41       509       928       931
 -1      1008    3    0    1
 -2       455      1164       906       459
 -1      1009    3    0    1
 -2      1537      1925      2557      2212
 -1      1010    3    0    1
 -2        26       485       488       911
 -1      1011    3    0    1
 -2      1646       754      1712      1873
 -1      1012    3    0    1
 -2      2724      2923      3091      1477
 -1      1013    3    0    1
 -2       612       123       344       982
 -1      1014    3    0    1
 -2      2303      1569      2525      2593
 -1      1015    3    0    1
 -2       556        72       561      1207
 -1      1016    3    0    1
 -2      1058       759      1597      2766
 -1      1017    3    0    1
 -2      1762      1877      2110      2594
 -1      1018    3    0    1
 -2       485       488       911       915
 -1      1019    3    0    1
 -2      1590      1601      1888      2093
 -1      1020    3    0    1
 -2      1888      1771      1976      2088
 -1      1021    3    0    1
 -2       956       591       967      1798
 -1      1022    3    0    1
 -2      2182      1604      2637      2819
 -1      1023    3    0    1
 -2      1097       832      2122      2424
 -1      1024    3    0    1
 -2       436      1405      1118      1821
 -1      1025    3    0    1
 -2       835       836      1931      2062
 -1      1026    3    0    1
 -2      1765      1166      2440      2999
 -1      1027    3    0    1
 -2      1640      2267      2333      2433
 -1      1028    3    0    1
 -2        75      1211        88       557
 -1      1029    3    0    1
 -2      1080      1326      1413      3128
 -1      1030    3    0    1
 -2       557        75       559      1212
 -1      1031    3    0    1
 -2      1398      1125      1717      1788
 -1      1032    3    0    1
 -2      1092      1765      2320      2933
 -1      1033    3    0    1
 -2       504      1192      1190       503
 -1      1034    3    0    1
 -2      1600      1052      1779      2423
 -1      1035    3    0    1
 -2       476      1178      1172       475
 -1      1036    3    0    1
 -2      2535      2637      2681      2818
 -1      1037    3    0    1
 -2        50       929       930      1605
 -1      1038    3    0    1
 -2        22       484      1173      1176
 -1      1039    3    0    1
 -2       907       400      1853      2059
 -1      1040    3    0    1
 -2      2886      2699      2921      2945
 -1      1041    3    0    1
 -2      1671      1567      1723      2219
 -1      1042    3    0    1
 -2       508        38       513      1184
 -1      1043    3    0    1
 -2       711      1034      2006      2864
 -1      1044    3    0    1
 -2       432       431      1346      1899
 -1      1045    3    0    1
 -2      2284      1281      2625      2626
 -1      1046    3    0    1
 -2      1557      1686      1715      2027
 -1      1047    3    0    1
 -2       225       235       753      1047
 -1      1048    3    0    1
 -2       581       102       583       964
 -1      1049    3    0    1
 -2      1697      1623      1699      2177
 -1      1050    3    0    1
 -2      2070      1770      2673      2768
 -1      1051    3    0    1
 -2       645      1257      1007       646
 -1      1052    3    0    1
 -2       582      2387      2615      2920
 -1      1053    3    0    1
 -2       821       277       824      1088
 -1      1054    3    0    1
 -2       848       847      1642      1746
 -1      1055    3    0    1
 -2       953       382      1763      2135
 -1      1056    3    0    1
 -2      1409      1193      2881      3120
 -1      1057    3    0    1
 -2      2900      3068      2994      3128
 -1      1058    3    0    1
 -2       813      1098       832       831
 -1      1059    3    0    1
 -2      1791      1391      1888      2088
 -1      1060    3    0    1
 -2       805       266       801      1320
 -1      1061    3    0    1
 -2       283       820       825      1331
 -1      1062    3    0    1
 -2       547       949       956      1205
 -1      1063    3    0    1
 -2      1694      1570      1706      2452
 -1      1064    3    0    1
 -2       746      1056       745      1051
 -1      1065    3    0    1
 -2      1604      2182      2236      2503
 -1      1066    3    0    1
 -2       942       533       372       535
 -1      1067    3    0    1
 -2        95       103       585       958
 -1      1068    3    0    1
 -2      2079      2035      2567      2796
 -1      1069    3    0    1
 -2      1415      1441      1452      3014
 -1      1070    3    0    1
 -2       227      1300       235       753
 -1      1071    3    0    1
 -2      1427      1338      1429      3052
 -1      1072    3    0    1
 -2       773       248       776      1068
 -1      1073    3    0    1
 -2      1451      1419      3122      3028
 -1      1074    3    0    1
 -2       256      1074      2971      2972
 -1      1075    3    0    1
 -2      1906      1929      2076      2268
 -1      1076    3    0    1
 -2       796       806      1084      1319
 -1      1077    3    0    1
 -2       259       797       800      1075
 -1      1078    3    0    1
 -2      1619      1632      1692      1894
 -1      1079    3    0    1
 -2      1146      1120      1692      1894
 -1      1080    3    0    1
 -2      1554      1623      1742      2177
 -1      1081    3    0    1
 -2       152       661       160       996
 -1      1082    3    0    1
 -2       354       339      2964      3113
 -1      1083    3    0    1
 -2      1420      1445      1447      3109
 -1      1084    3    0    1
 -2      1703      1777      1861      2033
 -1      1085    3    0    1
 -2        80      2991      2992      3010
 -1      1086    3    0    1
 -2      1145      1377      2568      2752
 -1      1087    3    0    1
 -2      1657      1559      1923      2648
 -1      1088    3    0    1
 -2       579       574       586       961
 -1      1089    3    0    1
 -2       504      1192       503       510
 -1      1090    3    0    1
 -2      2893      3080      1445      3132
 -1      1091    3    0    1
 -2       771       777      1065      1071
 -1      1092    3    0    1
 -2       555       548       562       953
 -1      1093    3    0    1
 -2       739       744       760      1060
 -1      1094    3    0    1
 -2       741      1055       740      1049
 -1      1095    3    0    1
 -2      1524      1604      2182      2236
 -1      1096    3    0    1
 -2      1588      2633      2811      2863
 -1      1097    3    0    1
 -2      1338      1427      1429      3126
 -1      1098    3    0    1
 -2      1070       773      1061      1073
 -1      1099    3    0    1
 -2       797       267       800      1081
 -1      1100    3    0    1
 -2       793       794      1078      1082
 -1      1101    3    0    1
 -2       798       787       799      1081
 -1      1102    3    0    1
 -2      1561      1834      1947      2022
 -1      1103    3    0    1
 -2       776       245      1063       240
 -1      1104    3    0    1
 -2      1697      1742      1972      2127
 -1      1105    3    0    1
 -2       813      1096      1331      1332
 -1      1106    3    0    1
 -2        83       384       950      1790
 -1      1107    3    0    1
 -2       933      1204       532       938
 -1      1108    3    0    1
 -2       155      1254       650      1251
 -1      1109    3    0    1
 -2      1414      1413      3068      1458
 -1      1110    3    0    1
 -2       937      1762      1823      2691
 -1      1111    3    0    1
 -2       585       103      1223      1224
 -1      1112    3    0    1
 -2        79        84       559       952
 -1      1113    3    0    1
 -2      2885      1435      3093      3114
 -1      1114    3    0    1
 -2       924      2205      2657      2784
 -1      1115    3    0    1
 -2       643      1261      1252      1001
 -1      1116    3    0    1
 -2       681      1014      1268      1272
 -1      1117    3    0    1
 -2       152      1253       652       153
 -1      1118    3    0    1
 -2      1631      1585      2209      2234
 -1      1119    3    0    1
 -2       298      1352       299      2355
 -1      1120    3    0    1
 -2      1615      1596      2095      2310
 -1      1121    3    0    1
 -2       813       814      1096      1332
 -1      1122    3    0    1
 -2      1644       953      1763      2269
 -1      1123    3    0    1
 -2      2346      2099      2774      2916
 -1      1124    3    0    1
 -2       461       899       464         6
 -1      1125    3    0    1
 -2       749       350       752      1055
 -1      1126    3    0    1
 -2      1851       389      1951      2186
 -1      1127    3    0    1
 -2       285       824      1088      1333
 -1      1128    3    0    1
 -2       824      1088      1095       821
 -1      1129    3    0    1
 -2       754       748      1056      1712
 -1      1130    3    0    1
 -2        17        18       460       903
 -1      1131    3    0    1
 -2      1674      2671      2717      2721
 -1      1132    3    0    1
 -2        67       366       945      2695
 -1      1133    3    0    1
 -2      1848      2943      2984      3132
 -1      1134    3    0    1
 -2      2133      1991      2482      2607
 -1      1135    3    0    1
 -2      1602      1598      1947      2176
 -1      1136    3    0    1
 -2       408      1056      1052      1711
 -1      1137    3    0    1
 -2       548      1216      1207       950
 -1      1138    3    0    1
 -2      1405       859      1118      1821
 -1      1139    3    0    1
 -2      1398       308       386      1717
 -1      1140    3    0    1
 -2      1326      1080      1413      3024
 -1      1141    3    0    1
 -2       367       284      1098      2375
 -1      1142    3    0    1
 -2      1548      2276      2352      2504
 -1      1143    3    0    1
 -2       864      1398       886      1788
 -1      1144    3    0    1
 -2       957       567       954      1935
 -1      1145    3    0    1
 -2      2912      2879      1451      3108
 -1      1146    3    0    1
 -2         8       457       902      1162
 -1      1147    3    0    1
 -2       173       178      2435      2783
 -1      1148    3    0    1
 -2       212       725       728      1046
 -1      1149    3    0    1
 -2       484        19       489      1171
 -1      1150    3    0    1
 -2      1061       776       245       773
 -1      1151    3    0    1
 -2      1626      1668      1819      2340
 -1      1152    3    0    1
 -2      3018      1410      1456      3037
 -1      1153    3    0    1
 -2       674       673      1013      1017
 -1      1154    3    0    1
 -2       393       394      2233      2363
 -1      1155    3    0    1
 -2      1418      1476      3117      3012
 -1      1156    3    0    1
 -2       633       628       994      1245
 -1      1157    3    0    1
 -2       328       333      1620      2460
 -1      1158    3    0    1
 -2       820       830      1097      1331
 -1      1159    3    0    1
 -2      1668      2292      2330      2564
 -1      1160    3    0    1
 -2       432      1397      1808      1875
 -1      1161    3    0    1
 -2      1260      1433      1434      3104
 -1      1162    3    0    1
 -2       964       360      2049      2309
 -1      1163    3    0    1
 -2       173       676       681      1014
 -1      1164    3    0    1
 -2       496       919      1893      1901
 -1      1165    3    0    1
 -2      1785      1591      2060      2800
 -1      1166    3    0    1
 -2      2008      2112      2235      2297
 -1      1167    3    0    1
 -2      1590      1573      2159      2430
 -1      1168    3    0    1
 -2      1178      1878      1971      2655
 -1      1169    3    0    1
 -2       902      1164       906       455
 -1      1170    3    0    1
 -2      1807       955      1987      2046
 -1      1171    3    0    1
 -2       340       141      1248      1648
 -1      1172    3    0    1
 -2      1563      1598      1996      2082
 -1      1173    3    0    1
 -2      1697      1572      2123      2172
 -1      1174    3    0    1
 -2       334       723       729      1294
 -1      1175    3    0    1
 -2      1622      1531      1636      1717
 -1      1176    3    0    1
 -2       466      2053      2058      2366
 -1      1177    3    0    1
 -2      1079      1727      2158      2210
 -1      1178    3    0    1
 -2      1810      1872      1926      2037
 -1      1179    3    0    1
 -2       601       111       602      1232
 -1      1180    3    0    1
 -2      1606      1534      1952      1957
 -1      1181    3    0    1
 -2       651      1612      2251      2782
 -1      1182    3    0    1
 -2       534       526       536       940
 -1      1183    3    0    1
 -2      2079      2567      2608      2796
 -1      1184    3    0    1
 -2       375         1      3086      2990
 -1      1185    3    0    1
 -2      1742      1554      1781      1972
 -1      1186    3    0    1
 -2      1966      1616      2089      2362
 -1      1187    3    0    1
 -2      1974      1071      2133      2482
 -1      1188    3    0    1
 -2      2267      1913      2333      2710
 -1      1189    3    0    1
 -2       294      1102      1354      1672
 -1      1190    3    0    1
 -2       718       724       730      1040
 -1      1191    3    0    1
 -2      2226      1751      2279      2408
 -1      1192    3    0    1
 -2      1563      1564      1598      1673
 -1      1193    3    0    1
 -2       552       955       567       547
 -1      1194    3    0    1
 -2       252      2275      2510      2562
 -1      1195    3    0    1
 -2       729       733      1037      1044
 -1      1196    3    0    1
 -2      1752      2130      2445      2739
 -1      1197    3    0    1
 -2      1531      1639      1730      2206
 -1      1198    3    0    1
 -2       175       168       677      1011
 -1      1199    3    0    1
 -2      1707      1803      2025      2138
 -1      1200    3    0    1
 -2      1641      1822      2067      2114
 -1      1201    3    0    1
 -2      1389      1380      1649      2232
 -1      1202    3    0    1
 -2       532        56       537      1197
 -1      1203    3    0    1
 -2      2941      2914      3090      2993
 -1      1204    3    0    1
 -2      1248       986       632      1246
 -1      1205    3    0    1
 -2      1563      1564      1787      1835
 -1      1206    3    0    1
 -2      1583      2134      2274      2331
 -1      1207    3    0    1
 -2       624       990       986       623
 -1      1208    3    0    1
 -2       660       653      1008      1256
 -1      1209    3    0    1
 -2      1440      1428      1482      3048
 -1      1210    3    0    1
 -2      1423      1015      2981      3007
 -1      1211    3    0    1
 -2       178       173       681      1014
 -1      1212    3    0    1
 -2      2306       931      2729      2862
 -1      1213    3    0    1
 -2       191       697      1028      1032
 -1      1214    3    0    1
 -2      2966      1315      3006      3033
 -1      1215    3    0    1
 -2       606      1238       976      2616
 -1      1216    3    0    1
 -2       400      1853      2059      2577
 -1      1217    3    0    1
 -2       295      1099      1342      1890
 -1      1218    3    0    1
 -2       815      1091       819       826
 -1      1219    3    0    1
 -2       286       829       288      1332
 -1      1220    3    0    1
 -2       754      1305      1712      1873
 -1      1221    3    0    1
 -2       658      1749      1777      1861
 -1      1222    3    0    1
 -2      2850      1433      2911      3121
 -1      1223    3    0    1
 -2       297      1348      1862      1909
 -1      1224    3    0    1
 -2      2374       356      2426      2542
 -1      1225    3    0    1
 -2       491       488      1174      1182
 -1      1226    3    0    1
 -2       960       583        96       581
 -1      1227    3    0    1
 -2      1261      1001      1612      2007
 -1      1228    3    0    1
 -2      1628      1599      1720      2134
 -1      1229    3    0    1
 -2       395      1102      1672      2502
 -1      1230    3    0    1
 -2      1977      2370      2378      2379
 -1      1231    3    0    1
 -2      2939      2091      1453      3130
 -1      1232    3    0    1
 -2      1429      1430      2933      3075
 -1      1233    3    0    1
 -2       507       499       514       927
 -1      1234    3    0    1
 -2      1440      1413      3128      3048
 -1      1235    3    0    1
 -2      1701      1768      1950      1960
 -1      1236    3    0    1
 -2       837      1347       838      2015
 -1      1237    3    0    1
 -2       824       278       827      1333
 -1      1238    3    0    1
 -2      1620       333      1734      1789
 -1      1239    3    0    1
 -2       976      1238      3035      3036
 -1      1240    3    0    1
 -2       394      1605      2233      2363
 -1      1241    3    0    1
 -2       190       187       699      1275
 -1      1242    3    0    1
 -2       749       234       756      1060
 -1      1243    3    0    1
 -2      2278      2035      2608      2796
 -1      1244    3    0    1
 -2       854      1387      1369      1741
 -1      1245    3    0    1
 -2       159      1261      1883      2007
 -1      1246    3    0    1
 -2      1554      1655      1840      1972
 -1      1247    3    0    1
 -2       197       417       699      1029
 -1      1248    3    0    1
 -2       369       267       797      1325
 -1      1249    3    0    1
 -2       588       106       347       969
 -1      1250    3    0    1
 -2       986      1248       632       990
 -1      1251    3    0    1
 -2      2222      1250      2827      2829
 -1      1252    3    0    1
 -2      1664      1714      1754      1961
 -1      1253    3    0    1
 -2      1391      1382      1888      2088
 -1      1254    3    0    1
 -2       132       637       144       984
 -1      1255    3    0    1
 -2      2541      2373      2698      2886
 -1      1256    3    0    1
 -2       747      1300      1050       227
 -1      1257    3    0    1
 -2        77      1213      1576      2467
 -1      1258    3    0    1
 -2      1054      1304      3027      3064
 -1      1259    3    0    1
 -2      2914      2887      1464      3105
 -1      1260    3    0    1
 -2       175       677      1010      1262
 -1      1261    3    0    1
 -2      1054      1304      3026      3027
 -1      1262    3    0    1
 -2       610      1993      2450      2848
 -1      1263    3    0    1
 -2      1654      1634      2189      2734
 -1      1264    3    0    1
 -2       321      1006      1975      2100
 -1      1265    3    0    1
 -2       185      1024       704       200
 -1      1266    3    0    1
 -2      2883      2931      3084      2986
 -1      1267    3    0    1
 -2      1891       393      2113      2480
 -1      1268    3    0    1
 -2       297       318      1909      2321
 -1      1269    3    0    1
 -2       206       205       728      1284
 -1      1270    3    0    1
 -2      1803      1671      1852      2334
 -1      1271    3    0    1
 -2       776       245       773      1063
 -1      1272    3    0    1
 -2      1168       471      1549      2596
 -1      1273    3    0    1
 -2      1955      1562      1964      2054
 -1      1274    3    0    1
 -2       763       783       784      1072
 -1      1275    3    0    1
 -2      1178        24      2655      2826
 -1      1276    3    0    1
 -2       218       729      1037      1290
 -1      1277    3    0    1
 -2       606       631      2323      2616
 -1      1278    3    0    1
 -2       930       520      2345      2803
 -1      1279    3    0    1
 -2      1784       380      2324      2479
 -1      1280    3    0    1
 -2       471       472       908      1817
 -1      1281    3    0    1
 -2      1215       558       560      1659
 -1      1282    3    0    1
 -2      1040      1970      2488      2661
 -1      1283    3    0    1
 -2       907       471       908      1817
 -1      1284    3    0    1
 -2       950      1790      1904      1937
 -1      1285    3    0    1
 -2       776      1061       245      1064
 -1      1286    3    0    1
 -2       126       980      2703      2718
 -1      1287    3    0    1
 -2      1993       610      2243      2265
 -1      1288    3    0    1
 -2      1131      1388      1631      1728
 -1      1289    3    0    1
 -2      1862       297      1909      2321
 -1      1290    3    0    1
 -2      2022      1834      2176      2367
 -1      1291    3    0    1
 -2       505       378       927      1191
 -1      1292    3    0    1
 -2       633       637       984       993
 -1      1293    3    0    1
 -2      1665      1107      1787      1835
 -1      1294    3    0    1
 -2       648      1259       647       654
 -1      1295    3    0    1
 -2       384        83       556       956
 -1      1296    3    0    1
 -2      1702      2168      2253      2621
 -1      1297    3    0    1
 -2      1586      1822      1886      1924
 -1      1298    3    0    1
 -2       632       635       992      1243
 -1      1299    3    0    1
 -2       472       908      1963      2215
 -1      1300    3    0    1
 -2        81        80      2991      2992
 -1      1301    3    0    1
 -2      3040      1166      3061       904
 -1      1302    3    0    1
 -2       711       693       712      1036
 -1      1303    3    0    1
 -2       595      1231       975      1230
 -1      1304    3    0    1
 -2      1922      1886      1924      2052
 -1      1305    3    0    1
 -2       273       404      1083      2581
 -1      1306    3    0    1
 -2       531       524       538       941
 -1      1307    3    0    1
 -2       831       808      2111      2255
 -1      1308    3    0    1
 -2      1039      1295      1046       715
 -1      1309    3    0    1
 -2      1815       380      1949      2481
 -1      1310    3    0    1
 -2      1148      1890      1967      1994
 -1      1311    3    0    1
 -2       108      1678      2140      2468
 -1      1312    3    0    1
 -2       937       525      1196      1198
 -1      1313    3    0    1
 -2       380       529       937       941
 -1      1314    3    0    1
 -2       613       113       609       970
 -1      1315    3    0    1
 -2       583       960        96      1217
 -1      1316    3    0    1
 -2       152      1253      1252       652
 -1      1317    3    0    1
 -2       159       652       657      1261
 -1      1318    3    0    1
 -2      1093      1879      2171      2214
 -1      1319    3    0    1
 -2       832       813      1096      1097
 -1      1320    3    0    1
 -2      3059      1002       655      1260
 -1      1321    3    0    1
 -2       591       592       968      1953
 -1      1322    3    0    1
 -2       835      1345      1100      1931
 -1      1323    3    0    1
 -2      1686      1557      1715      1818
 -1      1324    3    0    1
 -2      1057      1301       749      1296
 -1      1325    3    0    1
 -2       676       681      1014      1266
 -1      1326    3    0    1
 -2      2963       665      1497      3007
 -1      1327    3    0    1
 -2       620       619       991      1240
 -1      1328    3    0    1
 -2       676       686      1020      1265
 -1      1329    3    0    1
 -2      1672       395      2038      2132
 -1      1330    3    0    1
 -2      1858      1936      2010      2155
 -1      1331    3    0    1
 -2       708       185       701      1274
 -1      1332    3    0    1
 -2      1096       832      1097      2343
 -1      1333    3    0    1
 -2      1347      1346      1899      2015
 -1      1334    3    0    1
 -2      1768      1929      1960      2268
 -1      1335    3    0    1
 -2       550       952       560       558
 -1      1336    3    0    1
 -2      2105       136      2146      2180
 -1      1337    3    0    1
 -2      2014       562      2269      2761
 -1      1338    3    0    1
 -2       264       259       800      1075
 -1      1339    3    0    1
 -2        57       532       933      1197
 -1      1340    3    0    1
 -2       333      1620      2460      2715
 -1      1341    3    0    1
 -2      1680      1747      2333      2433
 -1      1342    3    0    1
 -2       769       238       770      1309
 -1      1343    3    0    1
 -2      1781      1554      1784      1840
 -1      1344    3    0    1
 -2      1539      1755      2066      2437
 -1      1345    3    0    1
 -2       509        41       511       926
 -1      1346    3    0    1
 -2      1539      1553      1773      2066
 -1      1347    3    0    1
 -2      2179       991      2200      2201
 -1      1348    3    0    1
 -2      1187       508       929       920
 -1      1349    3    0    1
 -2      1516      1474      3032      3056
 -1      1350    3    0    1
 -2       460       470       908      1159
 -1      1351    3    0    1
 -2       553      1209       953      1206
 -1      1352    3    0    1
 -2        20       481      1169      1172
 -1      1353    3    0    1
 -2       432      1346      1875      1899
 -1      1354    3    0    1
 -2      1753       855      1764      2068
 -1      1355    3    0    1
 -2      1367       399       439      1835
 -1      1356    3    0    1
 -2       244       407       777      1071
 -1      1357    3    0    1
 -2        34        37       484       913
 -1      1358    3    0    1
 -2       465       460       907      1160
 -1      1359    3    0    1
 -2       350       365       749      1060
 -1      1360    3    0    1
 -2       723       734      1045      1290
 -1      1361    3    0    1
 -2      1048       740      3026      3027
 -1      1362    3    0    1
 -2      1004      1618      1749      1861
 -1      1363    3    0    1
 -2       461       468       900       909
 -1      1364    3    0    1
 -2       940      2137      2317      2609
 -1      1365    3    0    1
 -2      1767      1561      1830      2404
 -1      1366    3    0    1
 -2       456       906       466       455
 -1      1367    3    0    1
 -2       461      1161       900         6
 -1      1368    3    0    1
 -2      2148      2104      2448      2462
 -1      1369    3    0    1
 -2       502       930       920       501
 -1      1370    3    0    1
 -2      2916      2917      3069      2996
 -1      1371    3    0    1
 -2      1653      2028      2563      2568
 -1      1372    3    0    1
 -2      1156      1716      1811      1915
 -1      1373    3    0    1
 -2      1564      1665      1787      1835
 -1      1374    3    0    1
 -2       795       791       802      1082
 -1      1375    3    0    1
 -2      1437      1411      3027      3064
 -1      1376    3    0    1
 -2      1027       695      1028      1032
 -1      1377    3    0    1
 -2      2246      1587      2382      2393
 -1      1378    3    0    1
 -2      1733      1599      1818      2004
 -1      1379    3    0    1
 -2       916       490      2153      2855
 -1      1380    3    0    1
 -2       595      1232      1229       974
 -1      1381    3    0    1
 -2       407       253      1071      2646
 -1      1382    3    0    1
 -2      1998      1608      2152      2259
 -1      1383    3    0    1
 -2       383       938      1637      1973
 -1      1384    3    0    1
 -2       612       605       982      1234
 -1      1385    3    0    1
 -2      3018      1410      1180      1425
 -1      1386    3    0    1
 -2      1841      1587      2246      2401
 -1      1387    3    0    1
 -2      1913       852      2267      2288
 -1      1388    3    0    1
 -2       868      1393       881      2739
 -1      1389    3    0    1
 -2      1535      2189      2240      2421
 -1      1390    3    0    1
 -2       139       628       633      1250
 -1      1391    3    0    1
 -2      2628      2588      2650      2743
 -1      1392    3    0    1
 -2      1122       442      1407      2183
 -1      1393    3    0    1
 -2      1659       951      1476      3117
 -1      1394    3    0    1
 -2      1164       906       459      2058
 -1      1395    3    0    1
 -2       409      1059      1974      2005
 -1      1396    3    0    1
 -2      2263       371      2570      2635
 -1      1397    3    0    1
 -2       699       710      1035      1275
 -1      1398    3    0    1
 -2       765      1316      1310       764
 -1      1399    3    0    1
 -2      1587      1701      2382      2532
 -1      1400    3    0    1
 -2      1721      1566      1820      1898
 -1      1401    3    0    1
 -2      1369      1387      1623      1741
 -1      1402    3    0    1
 -2      1158         3      3040      3060
 -1      1403    3    0    1
 -2      1586      1703      1744      1924
 -1      1404    3    0    1
 -2      2277       323      2298      2305
 -1      1405    3    0    1
 -2      1684      1578      1902      2102
 -1      1406    3    0    1
 -2      2168      1702      2253      2672
 -1      1407    3    0    1
 -2      1631      1649      1728      2209
 -1      1408    3    0    1
 -2       468        12       420       909
 -1      1409    3    0    1
 -2       904      1426      3070      2999
 -1      1410    3    0    1
 -2      1165       462      2029      2402
 -1      1411    3    0    1
 -2      1051       742      1052      1056
 -1      1412    3    0    1
 -2      2270       819      2319      2522
 -1      1413    3    0    1
 -2      1703      1586      1749      1777
 -1      1414    3    0    1
 -2       393      1891      2113      2363
 -1      1415    3    0    1
 -2       150      1256       653       154
 -1      1416    3    0    1
 -2       850       888      1839      2047
 -1      1417    3    0    1
 -2      1238       606       976      3035
 -1      1418    3    0    1
 -2       150       653       656       998
 -1      1419    3    0    1
 -2       677       168       680      1011
 -1      1420    3    0    1
 -2       681       685      1012      1019
 -1      1421    3    0    1
 -2       424        66      2729      2862
 -1      1422    3    0    1
 -2      1913      1687      2267      2389
 -1      1423    3    0    1
 -2       179      1021      2605      2781
 -1      1424    3    0    1
 -2      1438      1445      1449      3005
 -1      1425    3    0    1
 -2       408       415      1711      1754
 -1      1426    3    0    1
 -2       993       640       994      1860
 -1      1427    3    0    1
 -2      1453       364      1483      1504
 -1      1428    3    0    1
 -2       860       894      1677      2118
 -1      1429    3    0    1
 -2      1542      2038      2502      2564
 -1      1430    3    0    1
 -2       154       660       162      1256
 -1      1431    3    0    1
 -2       546      1469      2992      3038
 -1      1432    3    0    1
 -2      1066       244      2365      2483
 -1      1433    3    0    1
 -2       657       661       996      1006
 -1      1434    3    0    1
 -2      1028      2535      2624      2818
 -1      1435    3    0    1
 -2      1735      1841      2246      2401
 -1      1436    3    0    1
 -2      1098       832       831      2375
 -1      1437    3    0    1
 -2      3001       655      1002       654
 -1      1438    3    0    1
 -2      1610      1642      1700      2254
 -1      1439    3    0    1
 -2      1104      1357      1793      2040
 -1      1440    3    0    1
 -2      1538      1677      1722      2118
 -1      1441    3    0    1
 -2       697      1027      1028      1032
 -1      1442    3    0    1
 -2       629       992       138       995
 -1      1443    3    0    1
 -2       670      1018      1011       669
 -1      1444    3    0    1
 -2      1433      2850      2911      3104
 -1      1445    3    0    1
 -2       169       180       681      1266
 -1      1446    3    0    1
 -2       652       159       657      1006
 -1      1447    3    0    1
 -2       699       197      1034      1035
 -1      1448    3    0    1
 -2      1869      2144      2392      2690
 -1      1449    3    0    1
 -2       670      1018       669       687
 -1      1450    3    0    1
 -2      1577      2409      2452      2539
 -1      1451    3    0    1
 -2       656       659      1005      1255
 -1      1452    3    0    1
 -2      1018      1011       669      1021
 -1      1453    3    0    1
 -2       672      1272      1268       671
 -1      1454    3    0    1
 -2       380      1784      1949      2481
 -1      1455    3    0    1
 -2       670      1012      1020      1265
 -1      1456    3    0    1
 -2      1931       835      2062      2579
 -1      1457    3    0    1
 -2      1706      1896      2454      2500
 -1      1458    3    0    1
 -2       848      1642      1700      1746
 -1      1459    3    0    1
 -2       699       188       705      1278
 -1      1460    3    0    1
 -2      2973        28      2974      3017
 -1      1461    3    0    1
 -2      1269      1013       674      1267
 -1      1462    3    0    1
 -2       185       708       186      1274
 -1      1463    3    0    1
 -2      2144       396      2386      2690
 -1      1464    3    0    1
 -2      2966      1062      2985      3006
 -1      1465    3    0    1
 -2       674       328       673      1017
 -1      1466    3    0    1
 -2       410       358       747      1059
 -1      1467    3    0    1
 -2       415      1711      1754      1855
 -1      1468    3    0    1
 -2      1012       676      1020      1265
 -1      1469    3    0    1
 -2       982       616      1864      2578
 -1      1470    3    0    1
 -2      1531      1622      1636      2206
 -1      1471    3    0    1
 -2       399      1150      1787      1835
 -1      1472    3    0    1
 -2      1013      1269       674      1017
 -1      1473    3    0    1
 -2      1418      3012       951      1476
 -1      1474    3    0    1
 -2       101      3085      1468      3107
 -1      1475    3    0    1
 -2       159       161       652      1001
 -1      1476    3    0    1
 -2       711       712      1035      2738
 -1      1477    3    0    1
 -2      1010      1270       677      1016
 -1      1478    3    0    1
 -2       799       798      1326      2971
 -1      1479    3    0    1
 -2       687       669       688      1018
 -1      1480    3    0    1
 -2       851      1150      1367      1624
 -1      1481    3    0    1
 -2       735       712      1295      2572
 -1      1482    3    0    1
 -2       342       355       653      1008
 -1      1483    3    0    1
 -2       171       674       673      1013
 -1      1484    3    0    1
 -2      1886      2149      2211      2619
 -1      1485    3    0    1
 -2      1677       860      2118      2282
 -1      1486    3    0    1
 -2      1781      1667      1840      1949
 -1      1487    3    0    1
 -2       180       169       681      1012
 -1      1488    3    0    1
 -2       736      1045      2548      2852
 -1      1489    3    0    1
 -2       658      1612      1861      2007
 -1      1490    3    0    1
 -2       166      1009      2962      2963
 -1      1491    3    0    1
 -2       204      1283      1285      2948
 -1      1492    3    0    1
 -2       669       670       687      1020
 -1      1493    3    0    1
 -2      1998      1608      2259      2295
 -1      1494    3    0    1
 -2       676       173       681      1019
 -1      1495    3    0    1
 -2      1948       964      2049      2309
 -1      1496    3    0    1
 -2       169       676      1012      1265
 -1      1497    3    0    1
 -2       692      1031       691      1024
 -1      1498    3    0    1
 -2       735       715       736      1046
 -1      1499    3    0    1
 -2      1448      1439      1450      2981
 -1      1500    3    0    1
 -2      1873      1646      2376      2438
 -1      1501    3    0    1
 -2       993       622       984       994
 -1      1502    3    0    1
 -2      1583      1759      1892      2141
 -1      1503    3    0    1
 -2       696      1281      1278       695
 -1      1504    3    0    1
 -2      2006      1020      2751      2530
 -1      1505    3    0    1
 -2      1038      1292      1042       716
 -1      1506    3    0    1
 -2       700       695       706      1032
 -1      1507    3    0    1
 -2       707       704      1025      1033
 -1      1508    3    0    1
 -2       697       698      1028      1277
 -1      1509    3    0    1
 -2      1027       697      1028      1277
 -1      1510    3    0    1
 -2      1896      1706      2454      2455
 -1      1511    3    0    1
 -2       669       688      1018      1021
 -1      1512    3    0    1
 -2       206       728      1038      1284
 -1      1513    3    0    1
 -2      2612      1588      2633      2811
 -1      1514    3    0    1
 -2      1628      1644      1693      1720
 -1      1515    3    0    1
 -2      1622      1531      1739      2157
 -1      1516    3    0    1
 -2      1857       840      1868      1959
 -1      1517    3    0    1
 -2       190       188       699      1276
 -1      1518    3    0    1
 -2      2010      1750      2161      2183
 -1      1519    3    0    1
 -2      1038      1292       728      1042
 -1      1520    3    0    1
 -2       197       699       705      1281
 -1      1521    3    0    1
 -2       207       218       729      1289
 -1      1522    3    0    1
 -2        31      1962      1761      2492
 -1      1523    3    0    1
 -2       692      1031       703       691
 -1      1524    3    0    1
 -2       693      1026      1035      1275
 -1      1525    3    0    1
 -2      2240      2490      2734      2770
 -1      1526    3    0    1
 -2       718       719       730      1043
 -1      1527    3    0    1
 -2      1448      3073      1471      3102
 -1      1528    3    0    1
 -2       725       205       728      1039
 -1      1529    3    0    1
 -2       694      1034       711       693
 -1      1530    3    0    1
 -2      3067      1845      3091      2977
 -1      1531    3    0    1
 -2      1024       701       704      1031
 -1      1532    3    0    1
 -2      2028      1653      2563      2668
 -1      1533    3    0    1
 -2       699       187       710      1275
 -1      1534    3    0    1
 -2       704       185       200      1025
 -1      1535    3    0    1
 -2      1909      2027      2321      2408
 -1      1536    3    0    1
 -2      1030      1280      2975      2976
 -1      1537    3    0    1
 -2      2104      1988      2448      2462
 -1      1538    3    0    1
 -2       353       201       704      1033
 -1      1539    3    0    1
 -2       720      1044      1037       715
 -1      1540    3    0    1
 -2       695      1027      1028      1277
 -1      1541    3    0    1
 -2       392      1737      2129      2754
 -1      1542    3    0    1
 -2        17       907       908      1817
 -1      1543    3    0    1
 -2       439       399      1787      1835
 -1      1544    3    0    1
 -2      1117      1385      2279      2308
 -1      1545    3    0    1
 -2      1573      2098      2149      2159
 -1      1546    3    0    1
 -2       253       407      2471      2646
 -1      1547    3    0    1
 -2       704       701      1025      1033
 -1      1548    3    0    1
 -2      1803      1707      1852      2138
 -1      1549    3    0    1
 -2       775      1315      2390      2726
 -1      1550    3    0    1
 -2       188       699       705      1026
 -1      1551    3    0    1
 -2      1715      1751      2226      2408
 -1      1552    3    0    1
 -2       196       192       697      1027
 -1      1553    3    0    1
 -2       224      1301      1296       749
 -1      1554    3    0    1
 -2      1843      1969      2237      2742
 -1      1555    3    0    1
 -2       205       206       728      1039
 -1      1556    3    0    1
 -2      1415       976      3014      3036
 -1      1557    3    0    1
 -2      1044       720      1037      1045
 -1      1558    3    0    1
 -2       699       705      1026      1034
 -1      1559    3    0    1
 -2       693       711       712      1035
 -1      1560    3    0    1
 -2       699       197       705      1034
 -1      1561    3    0    1
 -2      2119       730      2221      2551
 -1      1562    3    0    1
 -2       718       719      1043      1286
 -1      1563    3    0    1
 -2      1560      1930      2071      2768
 -1      1564    3    0    1
 -2       992       629       138       632
 -1      1565    3    0    1
 -2       719      1294      1040       730
 -1      1566    3    0    1
 -2       751      1055      1292      1796
 -1      1567    3    0    1
 -2      1033      1025       693      1036
 -1      1568    3    0    1
 -2      2900      3077      3079      1440
 -1      1569    3    0    1
 -2      1523      1831      1851      1932
 -1      1570    3    0    1
 -2       471      1817      1912      2359
 -1      1571    3    0    1
 -2       669       687       688      1020
 -1      1572    3    0    1
 -2      2498      2099      2585      2774
 -1      1573    3    0    1
 -2      2909      1659      1476      3117
 -1      1574    3    0    1
 -2      1603      1558      1719      1838
 -1      1575    3    0    1
 -2      1200        54      3003      3043
 -1      1576    3    0    1
 -2       795      1079      2011      2516
 -1      1577    3    0    1
 -2       725       732      1039      1046
 -1      1578    3    0    1
 -2      1568      1585      1649      1705
 -1      1579    3    0    1
 -2      1018       687      2485      2533
 -1      1580    3    0    1
 -2       743      1305      1300       742
 -1      1581    3    0    1
 -2       914      1193      2499      1409
 -1      1582    3    0    1
 -2      1513       809      3021      3052
 -1      1583    3    0    1
 -2       417       197       699      1035
 -1      1584    3    0    1
 -2      1501      1455      1518      3047
 -1      1585    3    0    1
 -2      1030      1280      1438      3109
 -1      1586    3    0    1
 -2      1433      1434      3104      1505
 -1      1587    3    0    1
 -2      1622      1531      1717      2512
 -1      1588    3    0    1
 -2      1834      1561      2074      2403
 -1      1589    3    0    1
 -2      1279      1882      2584      2589
 -1      1590    3    0    1
 -2      1081      2185      2447      2543
 -1      1591    3    0    1
 -2       205       725       728      1284
 -1      1592    3    0    1
 -2       896      1750      2161      2722
 -1      1593    3    0    1
 -2      1878      1971      2217      2614
 -1      1594    3    0    1
 -2       106       588       581       969
 -1      1595    3    0    1
 -2       755       224       231      1296
 -1      1596    3    0    1
 -2       246      1625      2026      2057
 -1      1597    3    0    1
 -2       320       139       628       994
 -1      1598    3    0    1
 -2      1719      1917      1918      2336
 -1      1599    3    0    1
 -2      1858      1546      2010      2183
 -1      1600    3    0    1
 -2       807       789      1083      1084
 -1      1601    3    0    1
 -2       235       227       753      1047
 -1      1602    3    0    1
 -2      1338      1092      1429      3052
 -1      1603    3    0    1
 -2      2364      1968      2877      2912
 -1      1604    3    0    1
 -2      2333      1794      2433      2710
 -1      1605    3    0    1
 -2       720      1044       736      1045
 -1      1606    3    0    1
 -2       723       334       729      1045
 -1      1607    3    0    1
 -2       224       755       752      1296
 -1      1608    3    0    1
 -2      1057      1301      1296       739
 -1      1609    3    0    1
 -2      2038      1580      2132      2292
 -1      1610    3    0    1
 -2      1473      1434      3119      3066
 -1      1611    3    0    1
 -2      1051       746      1052      1299
 -1      1612    3    0    1
 -2      1238      2920      3082      2950
 -1      1613    3    0    1
 -2      2371      1041      1411      1412
 -1      1614    3    0    1
 -2       228       746      1051      1299
 -1      1615    3    0    1
 -2      2167       272      2623      2793
 -1      1616    3    0    1
 -2      1049      1303      1055       740
 -1      1617    3    0    1
 -2       239       771       777      1065
 -1      1618    3    0    1
 -2       751      1041      1304      1796
 -1      1619    3    0    1
 -2       483      2073      2217      2614
 -1      1620    3    0    1
 -2      1578      1593      1842      1927
 -1      1621    3    0    1
 -2       655       647       654      3001
 -1      1622    3    0    1
 -2       243       239       771      1307
 -1      1623    3    0    1
 -2       358       410       747      1053
 -1      1624    3    0    1
 -2      2620      2563      2610      2722
 -1      1625    3    0    1
 -2      1564      1563      1996      2372
 -1      1626    3    0    1
 -2       961      2170      2223      2449
 -1      1627    3    0    1
 -2      1629       945      2312      2695
 -1      1628    3    0    1
 -2       758       227       236      1302
 -1      1629    3    0    1
 -2      1351      1350      1857      1868
 -1      1630    3    0    1
 -2      1096       825      1097      1331
 -1      1631    3    0    1
 -2      1303      1049       749      1297
 -1      1632    3    0    1
 -2      1794      1353      2433      2710
 -1      1633    3    0    1
 -2       528       945       932       523
 -1      1634    3    0    1
 -2       350       749      1057      1060
 -1      1635    3    0    1
 -2      1085       807      1328      2760
 -1      1636    3    0    1
 -2       756       229       749      1301
 -1      1637    3    0    1
 -2       770      1069      1308      1313
 -1      1638    3    0    1
 -2       743      1056       754       742
 -1      1639    3    0    1
 -2       760      2740      2845      2856
 -1      1640    3    0    1
 -2       230       228       745      1051
 -1      1641    3    0    1
 -2      1095       367      1098      2375
 -1      1642    3    0    1
 -2      1396      1126      1706      1896
 -1      1643    3    0    1
 -2       777      1066      1310      1316
 -1      1644    3    0    1
 -2       358       747       753      1305
 -1      1645    3    0    1
 -2      1141      1844      1944      1979
 -1      1646    3    0    1
 -2       592       969      1965      2630
 -1      1647    3    0    1
 -2       580       958       959       968
 -1      1648    3    0    1
 -2       327      1141      1944      1979
 -1      1649    3    0    1
 -2      3051      3027      3064      3065
 -1      1650    3    0    1
 -2       556        83       950      1216
 -1      1651    3    0    1
 -2      2922      2930      3084      1454
 -1      1652    3    0    1
 -2      2478      1725      2786      2853
 -1      1653    3    0    1
 -2       860       894      1155      1677
 -1      1654    3    0    1
 -2      2223      2264      2602      2789
 -1      1655    3    0    1
 -2      1304      3026      3027      3064
 -1      1656    3    0    1
 -2      1398       864      1125      1788
 -1      1657    3    0    1
 -2       747       358      1058      1059
 -1      1658    3    0    1
 -2       813      1096      1097      1331
 -1      1659    3    0    1
 -2       747       358       753      1058
 -1      1660    3    0    1
 -2      1141       309      1378      1979
 -1      1661    3    0    1
 -2       365       234       749      1060
 -1      1662    3    0    1
 -2       245       780       251      1061
 -1      1663    3    0    1
 -2       780       252       255      1073
 -1      1664    3    0    1
 -2       771       244       777      1071
 -1      1665    3    0    1
 -2       562      1763      2269      2761
 -1      1666    3    0    1
 -2      1824      1652      2246      2513
 -1      1667    3    0    1
 -2       819       815       826      1094
 -1      1668    3    0    1
 -2      1454      1427      3126      3054
 -1      1669    3    0    1
 -2       239       781       242      1065
 -1      1670    3    0    1
 -2      1144       315      1134      2825
 -1      1671    3    0    1
 -2      1857      1532      2704      2720
 -1      1672    3    0    1
 -2       239       243       771      1065
 -1      1673    3    0    1
 -2       663      1005      1008      1776
 -1      1674    3    0    1
 -2       359      1455      3124      3125
 -1      1675    3    0    1
 -2      1313       765      1069      1308
 -1      1676    3    0    1
 -2       773       252      1068      1314
 -1      1677    3    0    1
 -2       771       777      1066      1307
 -1      1678    3    0    1
 -2      1314      1063       773      1311
 -1      1679    3    0    1
 -2      1545      1931      2061      2101
 -1      1680    3    0    1
 -2      1881      1885      1914      2178
 -1      1681    3    0    1
 -2      1481      1454      1520      3054
 -1      1682    3    0    1
 -2      1699       854      2196      2257
 -1      1683    3    0    1
 -2      1572      1760      2172      2196
 -1      1684    3    0    1
 -2       540        63       533       932
 -1      1685    3    0    1
 -2       768      1070      1064       763
 -1      1686    3    0    1
 -2      1530      1851      1932      1952
 -1      1687    3    0    1
 -2       821       367       824      1337
 -1      1688    3    0    1
 -2       566        72        91      1205
 -1      1689    3    0    1
 -2      1454      3099      3101      3008
 -1      1690    3    0    1
 -2       789      1085       808       807
 -1      1691    3    0    1
 -2      1063      1314       773      1068
 -1      1692    3    0    1
 -2      1941       328      1950      2202
 -1      1693    3    0    1
 -2      2995      1200      3003      3043
 -1      1694    3    0    1
 -2      1336      1954      2327      2559
 -1      1695    3    0    1
 -2      1075      1325      1081       787
 -1      1696    3    0    1
 -2      2709      2908      2916      3072
 -1      1697    3    0    1
 -2       779       776      1064      1070
 -1      1698    3    0    1
 -2      1566      1820      1889      2154
 -1      1699    3    0    1
 -2       244       771       777      1066
 -1      1700    3    0    1
 -2       796       273      1083      1084
 -1      1701    3    0    1
 -2       780       245       773      1061
 -1      1702    3    0    1
 -2        56       532       537      1195
 -1      1703    3    0    1
 -2      1729      1767      2404      2700
 -1      1704    3    0    1
 -2      1844      1694      1944      1979
 -1      1705    3    0    1
 -2      1559      1642      1700      2136
 -1      1706    3    0    1
 -2      1779      1607      2086      2106
 -1      1707    3    0    1
 -2      3073      1424      1471      1472
 -1      1708    3    0    1
 -2       788      1081       799       787
 -1      1709    3    0    1
 -2      1180      2973      3037      3017
 -1      1710    3    0    1
 -2      1841      1941      2202      2771
 -1      1711    3    0    1
 -2      1606      1534      1739      2157
 -1      1712    3    0    1
 -2       509        41       926      1192
 -1      1713    3    0    1
 -2       763       768       783      1072
 -1      1714    3    0    1
 -2      1413      1440      1458      3024
 -1      1715    3    0    1
 -2      1661      1951      2186      2420
 -1      1716    3    0    1
 -2       793       261      1082      1324
 -1      1717    3    0    1
 -2      1627      1759      1862      2441
 -1      1718    3    0    1
 -2      1863       538      1997      2030
 -1      1719    3    0    1
 -2       803       264       274      1321
 -1      1720    3    0    1
 -2      1053       748      1685      1991
 -1      1721    3    0    1
 -2       458        10       398       906
 -1      1722    3    0    1
 -2       818       279       817      1334
 -1      1723    3    0    1
 -2      1324      1078       793      1322
 -1      1724    3    0    1
 -2      1750      2010      2161      2610
 -1      1725    3    0    1
 -2      1707       246      1803      1852
 -1      1726    3    0    1
 -2       796      1323       258       801
 -1      1727    3    0    1
 -2        87        88       557       946
 -1      1728    3    0    1
 -2       824       827      1095      1333
 -1      1729    3    0    1
 -2        36        37       918      2552
 -1      1730    3    0    1
 -2       815      1336      1094       819
 -1      1731    3    0    1
 -2       814      1098      1088       813
 -1      1732    3    0    1
 -2       797       800      1075      1081
 -1      1733    3    0    1
 -2       797      1321      1076       259
 -1      1734    3    0    1
 -2      1554      1638      1758      1781
 -1      1735    3    0    1
 -2       258      1323       266       801
 -1      1736    3    0    1
 -2       797      1321       259       800
 -1      1737    3    0    1
 -2       893      1723      1799      1821
 -1      1738    3    0    1
 -2       260       793       794      1078
 -1      1739    3    0    1
 -2       277       821       824      1329
 -1      1740    3    0    1
 -2       792      1082       802       791
 -1      1741    3    0    1
 -2      1706      1694      1896      1979
 -1      1742    3    0    1
 -2        56       537       936      1195
 -1      1743    3    0    1
 -2       789       790       807      1083
 -1      1744    3    0    1
 -2       368      3101      2997      3008
 -1      1745    3    0    1
 -2      1165        12      2009      2399
 -1      1746    3    0    1
 -2      2671      2355      2717      2721
 -1      1747    3    0    1
 -2       796       273       801      1083
 -1      1748    3    0    1
 -2       273       404       801      1083
 -1      1749    3    0    1
 -2       156      1735      2246      2513
 -1      1750    3    0    1
 -2       820       287       825      1097
 -1      1751    3    0    1
 -2      1078      1324      1082       791
 -1      1752    3    0    1
 -2       829       825      1096      1332
 -1      1753    3    0    1
 -2       173      1014      1574      2203
 -1      1754    3    0    1
 -2       812      1093       823       811
 -1      1755    3    0    1
 -2       796      1323      1077       258
 -1      1756    3    0    1
 -2      1659       951      2909      1476
 -1      1757    3    0    1
 -2       258      1320       801       266
 -1      1758    3    0    1
 -2       789       807       808      1084
 -1      1759    3    0    1
 -2       285       277       824      1329
 -1      1760    3    0    1
 -2       878      1775      1785      2329
 -1      1761    3    0    1
 -2       821      1088      1095      1098
 -1      1762    3    0    1
 -2      1646      1056      1982      2227
 -1      1763    3    0    1
 -2      2724      3078      1477      2977
 -1      1764    3    0    1
 -2      1574       173      2435      2783
 -1      1765    3    0    1
 -2       460        17       903      1167
 -1      1766    3    0    1
 -2       142       994      1934      2032
 -1      1767    3    0    1
 -2       308      1360      1717      1743
 -1      1768    3    0    1
 -2       754      1646      1982      2376
 -1      1769    3    0    1
 -2      1088       824      1095      1333
 -1      1770    3    0    1
 -2       279       818       280      1334
 -1      1771    3    0    1
 -2       119       594      2988      2989
 -1      1772    3    0    1
 -2      1703      1586      1777      2235
 -1      1773    3    0    1
 -2      1528      1551      2373      2385
 -1      1774    3    0    1
 -2      1862      1909      2204      2321
 -1      1775    3    0    1
 -2       555      1216       950      2014
 -1      1776    3    0    1
 -2      1718      1871      1884      1895
 -1      1777    3    0    1
 -2      1336      1090       818      1334
 -1      1778    3    0    1
 -2      1101      1348      1862      2081
 -1      1779    3    0    1
 -2      1653      2028      2190      2668
 -1      1780    3    0    1
 -2       926      1192      2137      2229
 -1      1781    3    0    1
 -2       404       273       801      1327
 -1      1782    3    0    1
 -2      1580       395      1691      1710
 -1      1783    3    0    1
 -2       821      1095       367      1098
 -1      1784    3    0    1
 -2       457       458       902       906
 -1      1785    3    0    1
 -2      1701      1587      1841      1950
 -1      1786    3    0    1
 -2      2173      2556      2612      2809
 -1      1787    3    0    1
 -2      1259       654      2434      2664
 -1      1788    3    0    1
 -2       471       832      1549      2596
 -1      1789    3    0    1
 -2      1570      1694      1844      2247
 -1      1790    3    0    1
 -2      1683      1526      1716      2271
 -1      1791    3    0    1
 -2      1567      1660      1828      1871
 -1      1792    3    0    1
 -2      1774      2247      2276      2352
 -1      1793    3    0    1
 -2       825       286      1331      1332
 -1      1794    3    0    1
 -2       968       980      2718      2804
 -1      1795    3    0    1
 -2      2034      1881      2218      2523
 -1      1796    3    0    1
 -2       792      1327      1323       791
 -1      1797    3    0    1
 -2      1381      1143      2130      2474
 -1      1798    3    0    1
 -2      1954       819      2319      2327
 -1      1799    3    0    1
 -2       955      1807      1956      2046
 -1      1800    3    0    1
 -2      1701      1768      2268      2532
 -1      1801    3    0    1
 -2       267       369       797      1085
 -1      1802    3    0    1
 -2       471       472      1817      2359
 -1      1803    3    0    1
 -2      1096       825      1331      1332
 -1      1804    3    0    1
 -2        46       509       516       921
 -1      1805    3    0    1
 -2      1701      1841      1941      1950
 -1      1806    3    0    1
 -2      1655      1667      1840      1972
 -1      1807    3    0    1
 -2       816      1091      1089       815
 -1      1808    3    0    1
 -2      1100       835      1931      2579
 -1      1809    3    0    1
 -2       862       895      1156      1915
 -1      1810    3    0    1
 -2      1360       845      1359      1743
 -1      1811    3    0    1
 -2       290       287       820      1097
 -1      1812    3    0    1
 -2       825       287      1096      1097
 -1      1813    3    0    1
 -2       813       831       832      1096
 -1      1814    3    0    1
 -2      1098       832      2375      2424
 -1      1815    3    0    1
 -2      2332       347      2443      2685
 -1      1816    3    0    1
 -2      1006       663      1776      1975
 -1      1817    3    0    1
 -2      1106       434      1399      2097
 -1      1818    3    0    1
 -2       283       286       825      1335
 -1      1819    3    0    1
 -2      1793      1530      1800      1826
 -1      1820    3    0    1
 -2      1006       663      1975      2055
 -1      1821    3    0    1
 -2      1694      1706      1896      2455
 -1      1822    3    0    1
 -2      1567      1671      1985      2334
 -1      1823    3    0    1
 -2      1729      2252      2361      2700
 -1      1824    3    0    1
 -2      1559      1700      2473      2518
 -1      1825    3    0    1
 -2      1139       878      2231      2329
 -1      1826    3    0    1
 -2       870      1143      1381      2474
 -1      1827    3    0    1
 -2       604       609       970       980
 -1      1828    3    0    1
 -2      2042      2834      2889      2904
 -1      1829    3    0    1
 -2      2889      2890      2904      2942
 -1      1830    3    0    1
 -2       870      1394       882      2421
 -1      1831    3    0    1
 -2        18        17       460       908
 -1      1832    3    0    1
 -2      1773      1539      2066      2437
 -1      1833    3    0    1
 -2       300       390      1793      1800
 -1      1834    3    0    1
 -2       556        83       561       955
 -1      1835    3    0    1
 -2      1372      1820      2002      2154
 -1      1836    3    0    1
 -2       663       640       995      2055
 -1      1837    3    0    1
 -2       104       108      2017      2140
 -1      1838    3    0    1
 -2       104       108       967      2017
 -1      1839    3    0    1
 -2       484        37       917       918
 -1      1840    3    0    1
 -2       531       937      1762      1877
 -1      1841    3    0    1
 -2      1621      1718      1799      2337
 -1      1842    3    0    1
 -2       861      1146      1120      1692
 -1      1843    3    0    1
 -2       797       804      1076      1085
 -1      1844    3    0    1
 -2       609       613       970       980
 -1      1845    3    0    1
 -2       508        50       513       929
 -1      1846    3    0    1
 -2      1387       854       876      1741
 -1      1847    3    0    1
 -2       501       519       520       930
 -1      1848    3    0    1
 -2       794       261       265      1082
 -1      1849    3    0    1
 -2       538       531       941      1997
 -1      1850    3    0    1
 -2      1828      1718      1871      1884
 -1      1851    3    0    1
 -2      1565      2310      2335      2354
 -1      1852    3    0    1
 -2      1838      1827      1875      1892
 -1      1853    3    0    1
 -2       937       380       941      2832
 -1      1854    3    0    1
 -2      1452      3115      3014      3036
 -1      1855    3    0    1
 -2       759       739       760      1060
 -1      1856    3    0    1
 -2       943       523       936       944
 -1      1857    3    0    1
 -2       136      1736      2098      2105
 -1      1858    3    0    1
 -2      1675      2197      2569      2601
 -1      1859    3    0    1
 -2        92       569      3004      3011
 -1      1860    3    0    1
 -2       111       601      1229      1232
 -1      1861    3    0    1
 -2       724      1291      2119      2150
 -1      1862    3    0    1
 -2       500      1191       499       507
 -1      1863    3    0    1
 -2       514       507       927      2094
 -1      1864    3    0    1
 -2       407      1066      1316      2483
 -1      1865    3    0    1
 -2      2091      2910      3077      1453
 -1      1866    3    0    1
 -2      2036      2126      2212      2601
 -1      1867    3    0    1
 -2        83       950      1216      1790
 -1      1868    3    0    1
 -2      2189      1132      2240      2421
 -1      1869    3    0    1
 -2      2272      1866      2432      2755
 -1      1870    3    0    1
 -2       663      1005      1776      2055
 -1      1871    3    0    1
 -2      1587      1735      2246      2382
 -1      1872    3    0    1
 -2      2633      1526      2811      2863
 -1      1873    3    0    1
 -2      1943      1707      2025      2138
 -1      1874    3    0    1
 -2      1652      1824      2168      2672
 -1      1875    3    0    1
 -2      1575      1527      1580      2003
 -1      1876    3    0    1
 -2      1781      1554      1840      1972
 -1      1877    3    0    1
 -2       438       434      1792      1816
 -1      1878    3    0    1
 -2      2289      1682      2489      2826
 -1      1879    3    0    1
 -2       460         5      1159      1160
 -1      1880    3    0    1
 -2       212       217       725      1046
 -1      1881    3    0    1
 -2      1565      1675      1916      2335
 -1      1882    3    0    1
 -2       586      1228      2468      2475
 -1      1883    3    0    1
 -2      1738      1760      1857      2328
 -1      1884    3    0    1
 -2      1640      1869      2389      2392
 -1      1885    3    0    1
 -2      1155      1374      1677      1919
 -1      1886    3    0    1
 -2       201       701       704      1033
 -1      1887    3    0    1
 -2      3010      2992      3012      3038
 -1      1888    3    0    1
 -2      1036       221      1295      2572
 -1      1889    3    0    1
 -2       585       589       958       967
 -1      1890    3    0    1
 -2      2163      1553      2180      2201
 -1      1891    3    0    1
 -2       955       567       547       956
 -1      1892    3    0    1
 -2       561       565       949       955
 -1      1893    3    0    1
 -2      1179      1609      2229      2342
 -1      1894    3    0    1
 -2       580       107       967       968
 -1      1895    3    0    1
 -2       747       358      1053      1305
 -1      1896    3    0    1
 -2      1651      1644      1872      2520
 -1      1897    3    0    1
 -2      1325      1075       797      1317
 -1      1898    3    0    1
 -2      1113       406      1403      1889
 -1      1899    3    0    1
 -2       735      1295      2380      2572
 -1      1900    3    0    1
 -2      1468      1432      1496      3011
 -1      1901    3    0    1
 -2       535       932       942       533
 -1      1902    3    0    1
 -2       655      1002       654      2115
 -1      1903    3    0    1
 -2      1525      1635      1910      2493
 -1      1904    3    0    1
 -2       797       267      1085      1328
 -1      1905    3    0    1
 -2       950      1790      1937      2014
 -1      1906    3    0    1
 -2      1321       797      1076      1328
 -1      1907    3    0    1
 -2       796      1320       801       258
 -1      1908    3    0    1
 -2      2610      1750      2620      2722
 -1      1909    3    0    1
 -2       773       776      1063      1068
 -1      1910    3    0    1
 -2      1413      1326      2994      3128
 -1      1911    3    0    1
 -2      1626        10      1819      1837
 -1      1912    3    0    1
 -2       788      1081       787      1075
 -1      1913    3    0    1
 -2       945       372       533        67
 -1      1914    3    0    1
 -2      1767      1729      1830      2362
 -1      1915    3    0    1
 -2       414       334       723      1045
 -1      1916    3    0    1
 -2       391       304      1350      1958
 -1      1917    3    0    1
 -2       610       978      2243      2265
 -1      1918    3    0    1
 -2      2883      2346      2884      2895
 -1      1919    3    0    1
 -2       299      1368      2671      2717
 -1      1920    3    0    1
 -2       538      1204      1997      2030
 -1      1921    3    0    1
 -2       950       555      1937      2056
 -1      1922    3    0    1
 -2       747       753      1047      1058
 -1      1923    3    0    1
 -2      1320       796      1083      1319
 -1      1924    3    0    1
 -2       705       709      1026      1034
 -1      1925    3    0    1
 -2       321       159      1883      1975
 -1      1926    3    0    1
 -2      1858      1811      1915      1936
 -1      1927    3    0    1
 -2      1946      2241      2268      2532
 -1      1928    3    0    1
 -2      2158      1783      2210      2349
 -1      1929    3    0    1
 -2      2193      1595      2283      2417
 -1      1930    3    0    1
 -2      1526      1683      1716      1858
 -1      1931    3    0    1
 -2      1203       939       536      2083
 -1      1932    3    0    1
 -2       538       941      1863      1997
 -1      1933    3    0    1
 -2       346       992      2603      2640
 -1      1934    3    0    1
 -2       702       703      1280      1882
 -1      1935    3    0    1
 -2      1575      1527      1650      1690
 -1      1936    3    0    1
 -2       471       832      1098      1549
 -1      1937    3    0    1
 -2       597       598       616       982
 -1      1938    3    0    1
 -2       544       944      2225      2383
 -1      1939    3    0    1
 -2      2498      1977      2598      2880
 -1      1940    3    0    1
 -2      1536      1626      1819      2340
 -1      1941    3    0    1
 -2      1544      1886      1924      2211
 -1      1942    3    0    1
 -2      1743      1562      1964      2045
 -1      1943    3    0    1
 -2       329      1647      2001      2156
 -1      1944    3    0    1
 -2       717      1042       716      1038
 -1      1945    3    0    1
 -2       218       733       222      1037
 -1      1946    3    0    1
 -2      1617       261      2583      2817
 -1      1947    3    0    1
 -2      1261       321      1883      2033
 -1      1948    3    0    1
 -2       915      1165      2029      2399
 -1      1949    3    0    1
 -2      1118       436      1821      1919
 -1      1950    3    0    1
 -2       136       991      1736      2290
 -1      1951    3    0    1
 -2       650      1000      1251      1254
 -1      1952    3    0    1
 -2       627       619       634       991
 -1      1953    3    0    1
 -2        30        32      1901      1962
 -1      1954    3    0    1
 -2      1239      1748      2315      2450
 -1      1955    3    0    1
 -2       782       243       254      1306
 -1      1956    3    0    1
 -2       650      1004       156       649
 -1      1957    3    0    1
 -2      1527      1575      1580      1691
 -1      1958    3    0    1
 -2       681      1014      1266      1268
 -1      1959    3    0    1
 -2      1686      1818      2496      2574
 -1      1960    3    0    1
 -2      2129       392      2728      2746
 -1      1961    3    0    1
 -2      1370      1152      1764      2068
 -1      1962    3    0    1
 -2      1372      1153      1820      2154
 -1      1963    3    0    1
 -2       977      1237      2442      2708
 -1      1964    3    0    1
 -2       677       175      1011      1264
 -1      1965    3    0    1
 -2       443       310      1145      2752
 -1      1966    3    0    1
 -2      1587      1841      1950      2401
 -1      1967    3    0    1
 -2       137       136      1736      2098
 -1      1968    3    0    1
 -2       462      2029      2440      2546
 -1      1969    3    0    1
 -2      1565      1593      1675      1902
 -1      1970    3    0    1
 -2      1595      1619      1692      1874
 -1      1971    3    0    1
 -2      1530      1661      2065      2420
 -1      1972    3    0    1
 -2       842       841      1103      1794
 -1      1973    3    0    1
 -2      2877      1968      2938      3093
 -1      1974    3    0    1
 -2      1101      1862      1909      2081
 -1      1975    3    0    1
 -2       156      1633      1647      2465
 -1      1976    3    0    1
 -2      1774      2247      2743      2833
 -1      1977    3    0    1
 -2       601       974       978      1229
 -1      1978    3    0    1
 -2      2054      1562      2193      2417
 -1      1979    3    0    1
 -2      1389       314      1380      2232
 -1      1980    3    0    1
 -2        17       460       465      1167
 -1      1981    3    0    1
 -2      1702      1634      2168      2639
 -1      1982    3    0    1
 -2      1661      1530      2108      2143
 -1      1983    3    0    1
 -2       452       905       463       451
 -1      1984    3    0    1
 -2       406       437      1820      1889
 -1      1985    3    0    1
 -2       452       905       451       899
 -1      1986    3    0    1
 -2      1072       371      2263      2635
 -1      1987    3    0    1
 -2         6       899       464        13
 -1      1988    3    0    1
 -2         5         9       460      1159
 -1      1989    3    0    1
 -2       453       909       472       471
 -1      1990    3    0    1
 -2         6      1161        13       464
 -1      1991    3    0    1
 -2       482       481       916      1169
 -1      1992    3    0    1
 -2         6       468        16       900
 -1      1993    3    0    1
 -2       468         6       461       900
 -1      1994    3    0    1
 -2       458         8       457       902
 -1      1995    3    0    1
 -2         5       460       901      1163
 -1      1996    3    0    1
 -2      3071      1462      1463      3094
 -1      1997    3    0    1
 -2       467       464      1161      1168
 -1      1998    3    0    1
 -2      1618      1004      1749      2260
 -1      1999    3    0    1
 -2      1572      1738      1760      2196
 -1      2000    3    0    1
 -2        14        12      1912      2020
 -1      2001    3    0    1
 -2       456      1167      1163       455
 -1      2002    3    0    1
 -2       475      1181       483       490
 -1      2003    3    0    1
 -2       453       909       471      1168
 -1      2004    3    0    1
 -2      1431      1238      3082      2950
 -1      2005    3    0    1
 -2      1715      1686      1818      2439
 -1      2006    3    0    1
 -2        12        14       464       905
 -1      2007    3    0    1
 -2       141       138      1248      1648
 -1      2008    3    0    1
 -2      1990      1782      2422      2507
 -1      2009    3    0    1
 -2      3080      2893      1445      3109
 -1      2010    3    0    1
 -2      3086      3084      1457      3127
 -1      2011    3    0    1
 -2       462       451       463       905
 -1      2012    3    0    1
 -2       461       899       897       905
 -1      2013    3    0    1
 -2       472       908      1817      2359
 -1      2014    3    0    1
 -2      1616      1575      1690      1850
 -1      2015    3    0    1
 -2      1768      1017      1950      1960
 -1      2016    3    0    1
 -2       451      1165       905       462
 -1      2017    3    0    1
 -2       899       451       897       905
 -1      2018    3    0    1
 -2       451      1165       897       905
 -1      2019    3    0    1
 -2       920       501       929      1187
 -1      2020    3    0    1
 -2       499      1185       500       924
 -1      2021    3    0    1
 -2       795      1324      2011      2103
 -1      2022    3    0    1
 -2       532       542       944      1195
 -1      2023    3    0    1
 -2       469        17       400       907
 -1      2024    3    0    1
 -2        17       469       465       907
 -1      2025    3    0    1
 -2       916       475      1169      1172
 -1      2026    3    0    1
 -2       470        18       460       908
 -1      2027    3    0    1
 -2        12       468       461       909
 -1      2028    3    0    1
 -2       481       916      1169      1172
 -1      2029    3    0    1
 -2        34       484       489       913
 -1      2030    3    0    1
 -2       482        20       481      1169
 -1      2031    3    0    1
 -2       523       936       944      1195
 -1      2032    3    0    1
 -2        56        57       532      1195
 -1      2033    3    0    1
 -2        22        19       484      1171
 -1      2034    3    0    1
 -2       394        50       513      1194
 -1      2035    3    0    1
 -2      1989      2873      2875      2876
 -1      2036    3    0    1
 -2      3004      1227       582      3019
 -1      2037    3    0    1
 -2       395       294      1580      1672
 -1      2038    3    0    1
 -2      1754       408      1856      1895
 -1      2039    3    0    1
 -2      1151       853       890      2429
 -1      2040    3    0    1
 -2      1613      1721      1943      2002
 -1      2041    3    0    1
 -2       482        24       396       916
 -1      2042    3    0    1
 -2        24       482       481       916
 -1      2043    3    0    1
 -2      1971      1878      2662      2826
 -1      2044    3    0    1
 -2       493       489       917      1173
 -1      2045    3    0    1
 -2        38      1187       513        39
 -1      2046    3    0    1
 -2        50       394       513       929
 -1      2047    3    0    1
 -2      3079      3068      1440      1458
 -1      2048    3    0    1
 -2       102       360       964      2309
 -1      2049    3    0    1
 -2       493        34       419       917
 -1      2050    3    0    1
 -2        34       493       489       917
 -1      2051    3    0    1
 -2      1531      1550      1676      2206
 -1      2052    3    0    1
 -2       477       495       496       918
 -1      2053    3    0    1
 -2        36        37       484       918
 -1      2054    3    0    1
 -2        36       484       494       918
 -1      2055    3    0    1
 -2      1549      1098      2375      2424
 -1      2056    3    0    1
 -2       495       477       917       918
 -1      2057    3    0    1
 -2       478       919      1174      1175
 -1      2058    3    0    1
 -2       492        32       423       919
 -1      2059    3    0    1
 -2        32       492       485       919
 -1      2060    3    0    1
 -2        46        47       509       921
 -1      2061    3    0    1
 -2       473      2973      2974      3037
 -1      2062    3    0    1
 -2       979       121      1864      2685
 -1      2063    3    0    1
 -2       507      1194       514       499
 -1      2064    3    0    1
 -2       537       532       944      1195
 -1      2065    3    0    1
 -2      1695       387      2245      2666
 -1      2066    3    0    1
 -2       499       500       507       924
 -1      2067    3    0    1
 -2      1579      1772      1931      2062
 -1      2068    3    0    1
 -2      1578      1753      1927      2102
 -1      2069    3    0    1
 -2      1777      1261      1861      2033
 -1      2070    3    0    1
 -2       881       868      2208      2549
 -1      2071    3    0    1
 -2       508        38      1184      1185
 -1      2072    3    0    1
 -2      1166      1765      2933      2999
 -1      2073    3    0    1
 -2       537       532      1197      1204
 -1      2074    3    0    1
 -2      1460      1456      1467      3018
 -1      2075    3    0    1
 -2      1346      1875      1899      2015
 -1      2076    3    0    1
 -2      2347       904      3070      2999
 -1      2077    3    0    1
 -2        45      1190       509       922
 -1      2078    3    0    1
 -2       957        86      1581      2339
 -1      2079    3    0    1
 -2       506       378       392       927
 -1      2080    3    0    1
 -2       378       506       505       927
 -1      2081    3    0    1
 -2       500      1191      1186       499
 -1      2082    3    0    1
 -2       523       945       544       543
 -1      2083    3    0    1
 -2       655       630      2115      2769
 -1      2084    3    0    1
 -2       502       931       501       921
 -1      2085    3    0    1
 -2        52       427       511       928
 -1      2086    3    0    1
 -2        52       511       515       928
 -1      2087    3    0    1
 -2       508      1187       929       513
 -1      2088    3    0    1
 -2       502       930       501       520
 -1      2089    3    0    1
 -2       394       393       513       929
 -1      2090    3    0    1
 -2       513       393       517       929
 -1      2091    3    0    1
 -2        50       518        53       930
 -1      2092    3    0    1
 -2       518        50       508       930
 -1      2093    3    0    1
 -2       519       501       929       930
 -1      2094    3    0    1
 -2        41       516       509       931
 -1      2095    3    0    1
 -2       501       519       928       931
 -1      2096    3    0    1
 -2       527      1202      1201       940
 -1      2097    3    0    1
 -2       940       527      1199      1201
 -1      2098    3    0    1
 -2      2709      2996      2896      1456
 -1      2099    3    0    1
 -2       539        58        70       935
 -1      2100    3    0    1
 -2        58       539       535       935
 -1      2101    3    0    1
 -2       528       943       523       936
 -1      2102    3    0    1
 -2        56       541        69       936
 -1      2103    3    0    1
 -2       541        56       537       936
 -1      2104    3    0    1
 -2       539       535       935       942
 -1      2105    3    0    1
 -2        62       380       529       937
 -1      2106    3    0    1
 -2        62       529       530       937
 -1      2107    3    0    1
 -2      1538      1664      1689      2713
 -1      2108    3    0    1
 -2       524       531       538       938
 -1      2109    3    0    1
 -2       556       566       956      1205
 -1      2110    3    0    1
 -2       529       530       937      1198
 -1      2111    3    0    1
 -2        72       566       556      1205
 -1      2112    3    0    1
 -2      2886      3077      1440      2997
 -1      2113    3    0    1
 -2      1396       327      1944      1979
 -1      2114    3    0    1
 -2      1203      2995      3044      3043
 -1      2115    3    0    1
 -2       534       527       526       940
 -1      2116    3    0    1
 -2      1014      2120      2203      2407
 -1      2117    3    0    1
 -2      2370      1983      2835      2899
 -1      2118    3    0    1
 -2       531       525       524       941
 -1      2119    3    0    1
 -2       525       531       937       941
 -1      2120    3    0    1
 -2       945       528       942       543
 -1      2121    3    0    1
 -2      1542      1680      1794      2502
 -1      2122    3    0    1
 -2      1525      1679      1809      2493
 -1      2123    3    0    1
 -2        97       580       585       958
 -1      2124    3    0    1
 -2        66       535       539       942
 -1      2125    3    0    1
 -2        66       372       535       942
 -1      2126    3    0    1
 -2      1878      1178      1971      2614
 -1      2127    3    0    1
 -2      1182       496       495      1901
 -1      2128    3    0    1
 -2       541        65       425       943
 -1      2129    3    0    1
 -2        65       541       537       943
 -1      2130    3    0    1
 -2       936       537       943       944
 -1      2131    3    0    1
 -2        68       542       383       944
 -1      2132    3    0    1
 -2      1627      1827      1875      2015
 -1      2133    3    0    1
 -2       542        68       532       944
 -1      2134    3    0    1
 -2        67       540       533       945
 -1      2135    3    0    1
 -2       528       945       523       543
 -1      2136    3    0    1
 -2        72       556       561       949
 -1      2137    3    0    1
 -2       358      1058      1059      1597
 -1      2138    3    0    1
 -2       552       955       547       949
 -1      2139    3    0    1
 -2        74       561       565       949
 -1      2140    3    0    1
 -2        74        82       561       949
 -1      2141    3    0    1
 -2       571       576       966      1217
 -1      2142    3    0    1
 -2       307      1375      1716      2271
 -1      2143    3    0    1
 -2       595      1232       974       596
 -1      2144    3    0    1
 -2       114       120       607      1233
 -1      2145    3    0    1
 -2       548       549       555       950
 -1      2146    3    0    1
 -2       555      1216       562       548
 -1      2147    3    0    1
 -2      1891        36      2073      2480
 -1      2148    3    0    1
 -2       966       576       960      1217
 -1      2149    3    0    1
 -2       556        72      1207      1208
 -1      2150    3    0    1
 -2      1617       261      2304      2583
 -1      2151    3    0    1
 -2        83       556       561      1216
 -1      2152    3    0    1
 -2      3004       569      1496      3011
 -1      2153    3    0    1
 -2      2129      2325      2841      2867
 -1      2154    3    0    1
 -2      2275       783      2509      2606
 -1      2155    3    0    1
 -2        75      1211       557       947
 -1      2156    3    0    1
 -2       549      1213       548       555
 -1      2157    3    0    1
 -2        77       382       553       953
 -1      2158    3    0    1
 -2       549      1213      1209       548
 -1      2159    3    0    1
 -2       832      1098      1549      2424
 -1      2160    3    0    1
 -2       552       547       567       954
 -1      2161    3    0    1
 -2       547      1212       954       552
 -1      2162    3    0    1
 -2       567       957       954       547
 -1      2163    3    0    1
 -2       547       957       954       946
 -1      2164    3    0    1
 -2        84       563        85       954
 -1      2165    3    0    1
 -2       563        84       559       954
 -1      2166    3    0    1
 -2       547      1212       946       954
 -1      2167    3    0    1
 -2       581       588       960       969
 -1      2168    3    0    1
 -2       565        83        89       955
 -1      2169    3    0    1
 -2        83       565       561       955
 -1      2170    3    0    1
 -2       949       556       955       956
 -1      2171    3    0    1
 -2       955       547       949       956
 -1      2172    3    0    1
 -2       384       566       385       956
 -1      2173    3    0    1
 -2       566       384       556       956
 -1      2174    3    0    1
 -2       652       159      1006      1007
 -1      2175    3    0    1
 -2       567       568      1812      1935
 -1      2176    3    0    1
 -2      1547      1656      2066      1704
 -1      2177    3    0    1
 -2        96       588       109       960
 -1      2178    3    0    1
 -2       588        96       581       960
 -1      2179    3    0    1
 -2       575       574       579       961
 -1      2180    3    0    1
 -2      1661      1951      2207      2458
 -1      2181    3    0    1
 -2      1654      1735      1824      2246
 -1      2182    3    0    1
 -2       583       581       964      1218
 -1      2183    3    0    1
 -2      1762      1651      1846      1877
 -1      2184    3    0    1
 -2       850      1366      1816      1839
 -1      2185    3    0    1
 -2      1554      1623      1758      1908
 -1      2186    3    0    1
 -2       595      1231       596       975
 -1      2187    3    0    1
 -2      1827       838      2015      2081
 -1      2188    3    0    1
 -2      1912       472      2359      2702
 -1      2189    3    0    1
 -2       581       106       964      1226
 -1      2190    3    0    1
 -2      1455      3124      3125      3131
 -1      2191    3    0    1
 -2      1440      1482      1511      3048
 -1      2192    3    0    1
 -2      1851      1523      1932      1952
 -1      2193    3    0    1
 -2      2348      1876      3098      2994
 -1      2194    3    0    1
 -2       368      1440      1482      1511
 -1      2195    3    0    1
 -2       577       578       965      1222
 -1      2196    3    0    1
 -2       335       577       578       965
 -1      2197    3    0    1
 -2       335       578       961       965
 -1      2198    3    0    1
 -2       102       106       581       966
 -1      2199    3    0    1
 -2      1978      1548      2276      2352
 -1      2200    3    0    1
 -2       113       110       609       970
 -1      2201    3    0    1
 -2       114       605       972      1236
 -1      2202    3    0    1
 -2       591       571       592       966
 -1      2203    3    0    1
 -2       576       969       966       960
 -1      2204    3    0    1
 -2       571       576       592       966
 -1      2205    3    0    1
 -2       102       587       360       966
 -1      2206    3    0    1
 -2       587       102       583       966
 -1      2207    3    0    1
 -2       576       969       592       966
 -1      2208    3    0    1
 -2       589       104       108       967
 -1      2209    3    0    1
 -2       104       589       585       967
 -1      2210    3    0    1
 -2      1569      1655      1667      1840
 -1      2211    3    0    1
 -2       590       107       580       968
 -1      2212    3    0    1
 -2       958       571       959       968
 -1      2213    3    0    1
 -2       571       967       591       968
 -1      2214    3    0    1
 -2       967       571       958       968
 -1      2215    3    0    1
 -2       607       611       979      1233
 -1      2216    3    0    1
 -2       152      1257       153       652
 -1      2217    3    0    1
 -2      1803      1707      2025      2026
 -1      2218    3    0    1
 -2       596       595       603       974
 -1      2219    3    0    1
 -2       605       114      1233      1234
 -1      2220    3    0    1
 -2      1748       124      2315      2701
 -1      2221    3    0    1
 -2       118       601       602       974
 -1      2222    3    0    1
 -2       121       605       607       979
 -1      2223    3    0    1
 -2      1579      1772      2062      2063
 -1      2224    3    0    1
 -2       579       961      2170      2223
 -1      2225    3    0    1
 -2       155      1254       157       650
 -1      2226    3    0    1
 -2       595       596       603       975
 -1      2227    3    0    1
 -2       603      1239       610       595
 -1      2228    3    0    1
 -2      2376      1843      2438      2742
 -1      2229    3    0    1
 -2       983      1250       628       988
 -1      2230    3    0    1
 -2       604       110      1230      1231
 -1      2231    3    0    1
 -2      2974      2973      3017      3037
 -1      2232    3    0    1
 -2      1660      1600      1884      1895
 -1      2233    3    0    1
 -2      3014       976      3035      3036
 -1      2234    3    0    1
 -2       124       604       609      1239
 -1      2235    3    0    1
 -2      1573      1590      1666      2430
 -1      2236    3    0    1
 -2      2012      1984      2121      2148
 -1      2237    3    0    1
 -2       395       294      1340      1710
 -1      2238    3    0    1
 -2       603       595       610       978
 -1      2239    3    0    1
 -2       118       389       601       978
 -1      2240    3    0    1
 -2       134       140       629      1246
 -1      2241    3    0    1
 -2       620       988       627       619
 -1      2242    3    0    1
 -2        78      1465      1502      1503
 -1      2243    3    0    1
 -2       991       620      1240      1242
 -1      2244    3    0    1
 -2       121       611       337       979
 -1      2245    3    0    1
 -2       611       121       607       979
 -1      2246    3    0    1
 -2       604       614       981      1235
 -1      2247    3    0    1
 -2       613       124       126       980
 -1      2248    3    0    1
 -2       124       613       609       980
 -1      2249    3    0    1
 -2       598       597       616       981
 -1      2250    3    0    1
 -2       970       604       980       981
 -1      2251    3    0    1
 -2       597      1235       981       598
 -1      2252    3    0    1
 -2       127       614       128       981
 -1      2253    3    0    1
 -2       614       127       604       981
 -1      2254    3    0    1
 -2       398      1778      2369      2723
 -1      2255    3    0    1
 -2       597       980       615       981
 -1      2256    3    0    1
 -2       980       597       970       981
 -1      2257    3    0    1
 -2       597      1235       970       981
 -1      2258    3    0    1
 -2       123       612       605       982
 -1      2259    3    0    1
 -2       597       615       979       982
 -1      2260    3    0    1
 -2      1153       406      1820      1889
 -1      2261    3    0    1
 -2      1615      1596      1745      2095
 -1      2262    3    0    1
 -2      1125      1622      1717      1788
 -1      2263    3    0    1
 -2       377        14      1168      2733
 -1      2264    3    0    1
 -2       658      1261      1612      2007
 -1      2265    3    0    1
 -2       619       627       634       988
 -1      2266    3    0    1
 -2      1004       650      1000      1251
 -1      2267    3    0    1
 -2      1035       357      2426      2542
 -1      2268    3    0    1
 -2      1983      2697      2835      2894
 -1      2269    3    0    1
 -2      1859       291      2171      2214
 -1      2270    3    0    1
 -2       643      1254      1000       644
 -1      2271    3    0    1
 -2       139       320       628      1250
 -1      2272    3    0    1
 -2      1473      3119      3058      3066
 -1      2273    3    0    1
 -2      1202       940       534      2318
 -1      2274    3    0    1
 -2       531       937       941      1997
 -1      2275    3    0    1
 -2      2468      2475      2582      2670
 -1      2276    3    0    1
 -2       624       990       623       630
 -1      2277    3    0    1
 -2       627       620       619       991
 -1      2278    3    0    1
 -2       620      1247       991       627
 -1      2279    3    0    1
 -2      1630      1656      2209      2234
 -1      2280    3    0    1
 -2       173       178       681      1019
 -1      2281    3    0    1
 -2       152       652       657       996
 -1      2282    3    0    1
 -2       138       635       346       992
 -1      2283    3    0    1
 -2       635       138       632       992
 -1      2284    3    0    1
 -2       637       139       145       993
 -1      2285    3    0    1
 -2       139       637       633       993
 -1      2286    3    0    1
 -2       622       993       621       640
 -1      2287    3    0    1
 -2       929       519      1605      2169
 -1      2288    3    0    1
 -2       633       139       993       994
 -1      2289    3    0    1
 -2       984       633       993       994
 -1      2290    3    0    1
 -2       142       320       628       994
 -1      2291    3    0    1
 -2       142       628       638       994
 -1      2292    3    0    1
 -2       636       141       340       995
 -1      2293    3    0    1
 -2       141       636       629       995
 -1      2294    3    0    1
 -2       621       639       992       995
 -1      2295    3    0    1
 -2       643      1253       644      1001
 -1      2296    3    0    1
 -2       644       643       651      1000
 -1      2297    3    0    1
 -2       342       653       656      1005
 -1      2298    3    0    1
 -2       652       152       657      1252
 -1      2299    3    0    1
 -2      1005      1256       645      1008
 -1      2300    3    0    1
 -2       643       644       651      1001
 -1      2301    3    0    1
 -2      1001       652      1252      1253
 -1      2302    3    0    1
 -2       651      1261       658       643
 -1      2303    3    0    1
 -2      1636      1622      1717      1743
 -1      2304    3    0    1
 -2       928        41       931      2191
 -1      2305    3    0    1
 -2      2988      2989      3014      3035
 -1      2306    3    0    1
 -2      1595      1603      1619      2497
 -1      2307    3    0    1
 -2      1433      1477      3121      3049
 -1      2308    3    0    1
 -2      3003      1464      3044      3045
 -1      2309    3    0    1
 -2      1464        64      1480      1487
 -1      2310    3    0    1
 -2      1270       679       678      1814
 -1      2311    3    0    1
 -2      1472       158      1473      1495
 -1      2312    3    0    1
 -2       150      1258       653       998
 -1      2313    3    0    1
 -2        50       394       929      1605
 -1      2314    3    0    1
 -2       651       643       658      1004
 -1      2315    3    0    1
 -2       156       329       649      1004
 -1      2316    3    0    1
 -2      1011      1021       677      1264
 -1      2317    3    0    1
 -2       677       174       680      1016
 -1      2318    3    0    1
 -2       677      1018      1011       680
 -1      2319    3    0    1
 -2       684       677      1021      1264
 -1      2320    3    0    1
 -2       341       342       656      1005
 -1      2321    3    0    1
 -2       341       656       659      1005
 -1      2322    3    0    1
 -2       661       159       321      1006
 -1      2323    3    0    1
 -2       159       661       657      1006
 -1      2324    3    0    1
 -2      1014       675      1272      2162
 -1      2325    3    0    1
 -2       646       645       664      1007
 -1      2326    3    0    1
 -2       996       652      1006      1007
 -1      2327    3    0    1
 -2       152      1257       652       996
 -1      2328    3    0    1
 -2       161       662       324      1007
 -1      2329    3    0    1
 -2       662       161       652      1007
 -1      2330    3    0    1
 -2       645      1006       663      1007
 -1      2331    3    0    1
 -2      1006       645       996      1007
 -1      2332    3    0    1
 -2       645      1257       996      1007
 -1      2333    3    0    1
 -2       645       663      1005      1008
 -1      2334    3    0    1
 -2       680       167       683      1011
 -1      2335    3    0    1
 -2       168       167       680      1011
 -1      2336    3    0    1
 -2       170       681       685      1012
 -1      2337    3    0    1
 -2       170       180       681      1012
 -1      2338    3    0    1
 -2       172       674      1013      1267
 -1      2339    3    0    1
 -2      2763       603      2842      2848
 -1      2340    3    0    1
 -2       695      1278      1276      1029
 -1      2341    3    0    1
 -2       619      1250       988       634
 -1      2342    3    0    1
 -2       674       333      1017      1269
 -1      2343    3    0    1
 -2      1775      1785      2060      2576
 -1      2344    3    0    1
 -2      1060       234      2775      2856
 -1      2345    3    0    1
 -2       695      1278      1029      1281
 -1      2346    3    0    1
 -2       174       177       680      1016
 -1      2347    3    0    1
 -2      2141      2204      2331      2441
 -1      2348    3    0    1
 -2      2911      2762      2935      3104
 -1      2349    3    0    1
 -2       681       178      1014      1272
 -1      2350    3    0    1
 -2      2850      2762      2911      3104
 -1      2351    3    0    1
 -2       174       677       680      1018
 -1      2352    3    0    1
 -2       701      1024       704       185
 -1      2353    3    0    1
 -2       177       683       181      1018
 -1      2354    3    0    1
 -2       683       177       680      1018
 -1      2355    3    0    1
 -2      1782      1990      2057      2507
 -1      2356    3    0    1
 -2       685       178       323      1019
 -1      2357    3    0    1
 -2       178       685       681      1019
 -1      2358    3    0    1
 -2       410       409      2005      2555
 -1      2359    3    0    1
 -2       173       686       332      1020
 -1      2360    3    0    1
 -2      1577      1706      2452      2455
 -1      2361    3    0    1
 -2       686       173       676      1020
 -1      2362    3    0    1
 -2       670      1019       687      1020
 -1      2363    3    0    1
 -2      1019       670      1012      1020
 -1      2364    3    0    1
 -2       174       684       677      1021
 -1      2365    3    0    1
 -2       694      1033      1025       693
 -1      2366    3    0    1
 -2      1616      1850      1890      1994
 -1      2367    3    0    1
 -2       704       701       185      1025
 -1      2368    3    0    1
 -2       438       434      1816      1839
 -1      2369    3    0    1
 -2       694      1033       693       711
 -1      2370    3    0    1
 -2       704       184       707      1025
 -1      2371    3    0    1
 -2       200       184       704      1025
 -1      2372    3    0    1
 -2       188       709       189      1026
 -1      2373    3    0    1
 -2       709       188       705      1026
 -1      2374    3    0    1
 -2       137      1886      2149      2211
 -1      2375    3    0    1
 -2       206       731       728      1282
 -1      2376    3    0    1
 -2      2395       145      2634      2827
 -1      2377    3    0    1
 -2      1000       156      2244      2393
 -1      2378    3    0    1
 -2       696      1032       695      1027
 -1      2379    3    0    1
 -2       191       697       698      1028
 -1      2380    3    0    1
 -2      1093      1337      1879      2320
 -1      2381    3    0    1
 -2       696      1281       695       706
 -1      2382    3    0    1
 -2       715      1295      1046       735
 -1      2383    3    0    1
 -2       701       201      1031      1279
 -1      2384    3    0    1
 -2      1751      1715      2439      2470
 -1      2385    3    0    1
 -2      1714      1809      1961      2228
 -1      2386    3    0    1
 -2      2882      2724      3091      2977
 -1      2387    3    0    1
 -2       723      1040      1289      1294
 -1      2388    3    0    1
 -2       201       353       704      1031
 -1      2389    3    0    1
 -2      1651      1846      1877      2287
 -1      2390    3    0    1
 -2       702       691       703      1031
 -1      2391    3    0    1
 -2       701      1024      1022      1031
 -1      2392    3    0    1
 -2      1260       989      1433      3104
 -1      2393    3    0    1
 -2      2911      2935      3078      3104
 -1      2394    3    0    1
 -2        12        14      2009      2020
 -1      2395    3    0    1
 -2       647       648       654      3001
 -1      2396    3    0    1
 -2      1024       691      1022      1031
 -1      2397    3    0    1
 -2       691      1279      1022      1031
 -1      2398    3    0    1
 -2       695       700      1028      1032
 -1      2399    3    0    1
 -2      1607      1852      2334      2491
 -1      2400    3    0    1
 -2       199       353       704      1033
 -1      2401    3    0    1
 -2       199       704       707      1033
 -1      2402    3    0    1
 -2       760      1059      1597      2555
 -1      2403    3    0    1
 -2      1416      1442      1477      3121
 -1      2404    3    0    1
 -2      1058       759      1059      1597
 -1      2405    3    0    1
 -2       709       197       203      1034
 -1      2406    3    0    1
 -2       197       709       705      1034
 -1      2407    3    0    1
 -2       188      1275       699      1026
 -1      2408    3    0    1
 -2      1026       699      1034      1035
 -1      2409    3    0    1
 -2      1034       693      1026      1035
 -1      2410    3    0    1
 -2       357       699       710      1035
 -1      2411    3    0    1
 -2       357       417       699      1035
 -1      2412    3    0    1
 -2       201       708       701      1036
 -1      2413    3    0    1
 -2       733       218       729      1037
 -1      2414    3    0    1
 -2      1065       771      1071      1072
 -1      2415    3    0    1
 -2       720      1046       715      1039
 -1      2416    3    0    1
 -2       205       732       216      1039
 -1      2417    3    0    1
 -2       732       205       725      1039
 -1      2418    3    0    1
 -2      2067      1543      2505      2619
 -1      2419    3    0    1
 -2       870       882      1143      2474
 -1      2420    3    0    1
 -2       719       718       730      1040
 -1      2421    3    0    1
 -2      1827      1347      1899      2015
 -1      2422    3    0    1
 -2       747      1300       753      1305
 -1      2423    3    0    1
 -2       726       716       727      1042
 -1      2424    3    0    1
 -2      1627      1862      2141      2441
 -1      2425    3    0    1
 -2      1577      1706      2454      2500
 -1      2426    3    0    1
 -2        37       917       918      1939
 -1      2427    3    0    1
 -2      2585      2774      2908      2928
 -1      2428    3    0    1
 -2      1477      2911      2977      3113
 -1      2429    3    0    1
 -2        62       380      1802      1815
 -1      2430    3    0    1
 -2       733       334       356      1044
 -1      2431    3    0    1
 -2       334       733       729      1044
 -1      2432    3    0    1
 -2       720      1044       715       736
 -1      2433    3    0    1
 -2       383       938      1973      2287
 -1      2434    3    0    1
 -2      1095      2111      2171      2375
 -1      2435    3    0    1
 -2       729       334      1044      1045
 -1      2436    3    0    1
 -2      1037       729      1044      1045
 -1      2437    3    0    1
 -2       220       414       723      1045
 -1      2438    3    0    1
 -2       220       723       734      1045
 -1      2439    3    0    1
 -2        42       497      2998      3032
 -1      2440    3    0    1
 -2       217       215       725      1046
 -1      2441    3    0    1
 -2       725       215       732      1046
 -1      2442    3    0    1
 -2      2226      1907      2308      2338
 -1      2443    3    0    1
 -2       756       749      1060      1301
 -1      2444    3    0    1
 -2       768      1065      1072      1306
 -1      2445    3    0    1
 -2       745       228       746      1051
 -1      2446    3    0    1
 -2      1881      1937      2056      2523
 -1      2447    3    0    1
 -2      1974       409      2005      2133
 -1      2448    3    0    1
 -2       248       252       773      1070
 -1      2449    3    0    1
 -2      1532      1857      1868      2720
 -1      2450    3    0    1
 -2       743      1056       742      1051
 -1      2451    3    0    1
 -2       746      1056       408       745
 -1      2452    3    0    1
 -2       350       749       752      1057
 -1      2453    3    0    1
 -2      1065       771      1072      1306
 -1      2454    3    0    1
 -2       960       583       966      1217
 -1      2455    3    0    1
 -2       743      1305       742       754
 -1      2456    3    0    1
 -2      1850      1105      1890      1967
 -1      2457    3    0    1
 -2       771       782      1072      1306
 -1      2458    3    0    1
 -2      1351       839      1350      1868
 -1      2459    3    0    1
 -2      1792      1830      2097      2160
 -1      2460    3    0    1
 -2      1059       409      1974      2133
 -1      2461    3    0    1
 -2       394       929      1605      2363
 -1      2462    3    0    1
 -2      1616      1690      1966      2089
 -1      2463    3    0    1
 -2       550       952       558      1214
 -1      2464    3    0    1
 -2      2041      2124      2880      3090
 -1      2465    3    0    1
 -2      2004      1818      2050      2391
 -1      2466    3    0    1
 -2      2883      2884      2917      3069
 -1      2467    3    0    1
 -2       224      1297       749      1049
 -1      2468    3    0    1
 -2      2137        41      2256      2306
 -1      2469    3    0    1
 -2       742       748      1052      1056
 -1      2470    3    0    1
 -2      1056       746       408      1052
 -1      2471    3    0    1
 -2       266       805       271      1320
 -1      2472    3    0    1
 -2       771       239       777      1307
 -1      2473    3    0    1
 -2       232       350       752      1057
 -1      2474    3    0    1
 -2       232       752       755      1057
 -1      2475    3    0    1
 -2       757       358       412      1058
 -1      2476    3    0    1
 -2       358       757       753      1058
 -1      2477    3    0    1
 -2       747       758      1059      1302
 -1      2478    3    0    1
 -2       744       739       760      1059
 -1      2479    3    0    1
 -2      1047       747      1058      1059
 -1      2480    3    0    1
 -2       739      1302      1059       744
 -1      2481    3    0    1
 -2       739       759       760      1059
 -1      2482    3    0    1
 -2       409       747       758      1059
 -1      2483    3    0    1
 -2       409       410       747      1059
 -1      2484    3    0    1
 -2       739      1058       759      1059
 -1      2485    3    0    1
 -2      1058       739      1047      1059
 -1      2486    3    0    1
 -2       739      1302      1047      1059
 -1      2487    3    0    1
 -2       739       759      1057      1060
 -1      2488    3    0    1
 -2       198      1669      1945      2561
 -1      2489    3    0    1
 -2       583        96      1218        94
 -1      2490    3    0    1
 -2      1941      1701      1950      1960
 -1      2491    3    0    1
 -2      1628      1693      1938      2134
 -1      2492    3    0    1
 -2       779       240       249      1064
 -1      2493    3    0    1
 -2       240       779       776      1064
 -1      2494    3    0    1
 -2       768      1070       763       783
 -1      2495    3    0    1
 -2       781       239       777      1065
 -1      2496    3    0    1
 -2       252       255      1073      2562
 -1      2497    3    0    1
 -2        86       360       957      1581
 -1      2498    3    0    1
 -2       416       307      1156      1716
 -1      2499    3    0    1
 -2       796      1320      1083       801
 -1      2500    3    0    1
 -2      1790      1216      1880      2014
 -1      2501    3    0    1
 -2       245       773      1063      1311
 -1      2502    3    0    1
 -2       789      1083      1084      1319
 -1      2503    3    0    1
 -2       926       512       510      2181
 -1      2504    3    0    1
 -2       791       795       802      1327
 -1      2505    3    0    1
 -2       252       248       773      1068
 -1      2506    3    0    1
 -2      1166       904      2999      3127
 -1      2507    3    0    1
 -2       777       407      1066      1316
 -1      2508    3    0    1
 -2       512       926      1179      1609
 -1      2509    3    0    1
 -2      1704      1656      2163      2180
 -1      2510    3    0    1
 -2       201      2413      2584      2590
 -1      2511    3    0    1
 -2       409      1991      2005      2482
 -1      2512    3    0    1
 -2      1452       343      3091      2967
 -1      2513    3    0    1
 -2      1599      1686      1733      1818
 -1      2514    3    0    1
 -2       246       770       405      1069
 -1      2515    3    0    1
 -2       770       246       769      1069
 -1      2516    3    0    1
 -2       765      1069      1308      1309
 -1      2517    3    0    1
 -2       808      1084      2255      2595
 -1      2518    3    0    1
 -2       783       763       784      1070
 -1      2519    3    0    1
 -2       776      1061      1064      1070
 -1      2520    3    0    1
 -2       763      1073      1070      1061
 -1      2521    3    0    1
 -2       248       779       250      1070
 -1      2522    3    0    1
 -2       779       248       776      1070
 -1      2523    3    0    1
 -2      1061       763      1064      1070
 -1      2524    3    0    1
 -2       763      1073       784      1070
 -1      2525    3    0    1
 -2       407       253       777      1071
 -1      2526    3    0    1
 -2       777       253       781      1071
 -1      2527    3    0    1
 -2      2380       736      2548      2824
 -1      2528    3    0    1
 -2       244       782       371      1072
 -1      2529    3    0    1
 -2       782       244       771      1072
 -1      2530    3    0    1
 -2       768      1071       783      1072
 -1      2531    3    0    1
 -2      1071       768      1065      1072
 -1      2532    3    0    1
 -2       387      1529      2245      2296
 -1      2533    3    0    1
 -2      1078      1324       793      1082
 -1      2534    3    0    1
 -2       259      1321       264       800
 -1      2535    3    0    1
 -2      1834      1947      2022      2176
 -1      2536    3    0    1
 -2       259       804       270      1076
 -1      2537    3    0    1
 -2       804       259       797      1076
 -1      2538    3    0    1
 -2       789      1085       807      1328
 -1      2539    3    0    1
 -2       260      1322       262       793
 -1      2540    3    0    1
 -2       792      1082       791      1078
 -1      2541    3    0    1
 -2      1423      1015      1439      2981
 -1      2542    3    0    1
 -2      1030       702      1280      1882
 -1      2543    3    0    1
 -2       764      1313       778       772
 -1      2544    3    0    1
 -2       285       824      1087      1329
 -1      2545    3    0    1
 -2       847      1365      1362      1746
 -1      2546    3    0    1
 -2       803       267       800      1328
 -1      2547    3    0    1
 -2       702       703      1882      2589
 -1      2548    3    0    1
 -2      3076      2124      1465      3131
 -1      2549    3    0    1
 -2       825       820      1335      1339
 -1      2550    3    0    1
 -2      1661      1530      2065      2108
 -1      2551    3    0    1
 -2      1793      1606      1952      2065
 -1      2552    3    0    1
 -2      2451      3084      3086      3127
 -1      2553    3    0    1
 -2       786       263      2971      2972
 -1      2554    3    0    1
 -2      1730      1639      1801      2501
 -1      2555    3    0    1
 -2      2834      2042      2878      2904
 -1      2556    3    0    1
 -2       261       794       793      1082
 -1      2557    3    0    1
 -2      1795      2128      2567      2796
 -1      2558    3    0    1
 -2       736      2380      2658      2824
 -1      2559    3    0    1
 -2       260      1322       793      1078
 -1      2560    3    0    1
 -2      1644      1651      2051      2520
 -1      2561    3    0    1
 -2       805       801      1083      1320
 -1      2562    3    0    1
 -2       821       828      1088      1098
 -1      2563    3    0    1
 -2       404       373       801      1083
 -1      2564    3    0    1
 -2       801       373       805      1083
 -1      2565    3    0    1
 -2       272       796       806      1084
 -1      2566    3    0    1
 -2       272       273       796      1084
 -1      2567    3    0    1
 -2       790      1328       789       807
 -1      2568    3    0    1
 -2       369       269       797      1085
 -1      2569    3    0    1
 -2       797       269       804      1085
 -1      2570    3    0    1
 -2       277       285       824      1088
 -1      2571    3    0    1
 -2       277       828       293      1088
 -1      2572    3    0    1
 -2       828       277       821      1088
 -1      2573    3    0    1
 -2      1339      1089       820      1335
 -1      2574    3    0    1
 -2      1771      1888      1976      2093
 -1      2575    3    0    1
 -2      1089      1339      1091       816
 -1      2576    3    0    1
 -2       816      1094       815      1090
 -1      2577    3    0    1
 -2       816      1339      1091       826
 -1      2578    3    0    1
 -2      2057      1782      2334      2491
 -1      2579    3    0    1
 -2      1001       324      1946      2251
 -1      2580    3    0    1
 -2        83       955       956      1812
 -1      2581    3    0    1
 -2       845      1360       846      1743
 -1      2582    3    0    1
 -2      1812       567      1935      2019
 -1      2583    3    0    1
 -2      1534      1730      1739      1957
 -1      2584    3    0    1
 -2       816      1091       815       826
 -1      2585    3    0    1
 -2       465       460      1163      1167
 -1      2586    3    0    1
 -2       822       811       823      1093
 -1      2587    3    0    1
 -2      2125       292      2220      2291
 -1      2588    3    0    1
 -2       568      1798      1935      2339
 -1      2589    3    0    1
 -2      1624      1611      1930      2071
 -1      2590    3    0    1
 -2      1660      1884      1871      1895
 -1      2591    3    0    1
 -2      1522      1536      1905      1928
 -1      2592    3    0    1
 -2      1458      1440      1512      3024
 -1      2593    3    0    1
 -2      1427      1454      1481      3054
 -1      2594    3    0    1
 -2       658       651      1004      2184
 -1      2595    3    0    1
 -2      1098       814      1095       831
 -1      2596    3    0    1
 -2       851       889      1150      1624
 -1      2597    3    0    1
 -2       291       824       827      1095
 -1      2598    3    0    1
 -2       291       367       824      1095
 -1      2599    3    0    1
 -2      1406       860      1119      2282
 -1      2600    3    0    1
 -2       309      1396      1126      1979
 -1      2601    3    0    1
 -2       829       287       402      1096
 -1      2602    3    0    1
 -2       287       829       825      1096
 -1      2603    3    0    1
 -2       851      1367      1611      1624
 -1      2604    3    0    1
 -2       290       830       292      1097
 -1      2605    3    0    1
 -2       830       290       820      1097
 -1      2606    3    0    1
 -2       828       284       374      1098
 -1      2607    3    0    1
 -2       284       828       821      1098
 -1      2608    3    0    1
 -2       814      1098       813       831
 -1      2609    3    0    1
 -2       964        86      1214      2049
 -1      2610    3    0    1
 -2      1141      1378      1844      1979
 -1      2611    3    0    1
 -2      1664      1538      2337      2713
 -1      2612    3    0    1
 -2      1793      1800      1806      2021
 -1      2613    3    0    1
 -2      1653      1408      2563      2620
 -1      2614    3    0    1
 -2       419       917      2823      2872
 -1      2615    3    0    1
 -2       978       610      1993      2265
 -1      2616    3    0    1
 -2       379       305      1623      1908
 -1      2617    3    0    1
 -2       909        12      1761      2020
 -1      2618    3    0    1
 -2      1834      1805      2022      2403
 -1      2619    3    0    1
 -2      1594      1824      2465      2513
 -1      2620    3    0    1
 -2        40       506        44      1183
 -1      2621    3    0    1
 -2        39       517        48      1187
 -1      2622    3    0    1
 -2       506       505       927      1183
 -1      2623    3    0    1
 -2      1732      2048      2207      2458
 -1      2624    3    0    1
 -2      1753      1578      1889      2068
 -1      2625    3    0    1
 -2       797      1321       800      1328
 -1      2626    3    0    1
 -2      2699      1933      2931      2945
 -1      2627    3    0    1
 -2       402      1096      1783      2210
 -1      2628    3    0    1
 -2      1528      1551      2379      2697
 -1      2629    3    0    1
 -2      1826      1999      2108      2143
 -1      2630    3    0    1
 -2      1181       476       913      1170
 -1      2631    3    0    1
 -2        89        83      1880      1987
 -1      2632    3    0    1
 -2      1593      1578      1842      1902
 -1      2633    3    0    1
 -2        20       482        25      1169
 -1      2634    3    0    1
 -2      1457      1494      3041      3061
 -1      2635    3    0    1
 -2      1390      1785      2576      2800
 -1      2636    3    0    1
 -2      1359       845      1636      1743
 -1      2637    3    0    1
 -2        12       905      1165      2009
 -1      2638    3    0    1
 -2      1739      1730      1801      1957
 -1      2639    3    0    1
 -2      1676      1639      1887      2096
 -1      2640    3    0    1
 -2      2126      2164      2278      2557
 -1      2641    3    0    1
 -2       405      1625      2197      2313
 -1      2642    3    0    1
 -2      2600       520      2694      2803
 -1      2643    3    0    1
 -2      2022      1805      2367      2559
 -1      2644    3    0    1
 -2      1349      2230      2355      2671
 -1      2645    3    0    1
 -2      1907      1921      2308      2338
 -1      2646    3    0    1
 -2       489       484       917      1173
 -1      2647    3    0    1
 -2       811      1337      1093       822
 -1      2648    3    0    1
 -2      1641      1822      2001      2156
 -1      2649    3    0    1
 -2       403      1152      1708      1764
 -1      2650    3    0    1
 -2       512       503       510      3055
 -1      2651    3    0    1
 -2       822      1337      2320      2397
 -1      2652    3    0    1
 -2      1656      1630      1704      2234
 -1      2653    3    0    1
 -2      1650      2089      2252      2361
 -1      2654    3    0    1
 -2       420        31       909      1761
 -1      2655    3    0    1
 -2      1830      1792      2097      2384
 -1      2656    3    0    1
 -2      2078      1304      2371      2682
 -1      2657    3    0    1
 -2      1118       859      1799      1821
 -1      2658    3    0    1
 -2      2296       586      2618      2670
 -1      2659    3    0    1
 -2      1269      1017       682      1756
 -1      2660    3    0    1
 -2      1538      1722      2337      2713
 -1      2661    3    0    1
 -2      2243      1786      2264      2602
 -1      2662    3    0    1
 -2      2740      1070      2775      2856
 -1      2663    3    0    1
 -2       191      1669      2558      2679
 -1      2664    3    0    1
 -2      1970      1980      2237      2438
 -1      2665    3    0    1
 -2       367      1093      1337      1879
 -1      2666    3    0    1
 -2      1269       682       675      1756
 -1      2667    3    0    1
 -2      1337      1087       824      1329
 -1      2668    3    0    1
 -2      1087      1337       824      1093
 -1      2669    3    0    1
 -2      1703      1777      2112      2235
 -1      2670    3    0    1
 -2      2242      1015      2301      2689
 -1      2671    3    0    1
 -2       651      1000      1004      2184
 -1      2672    3    0    1
 -2      1697      1742      1781      1972
 -1      2673    3    0    1
 -2      1622       308      1717      1743
 -1      2674    3    0    1
 -2      2294      1571      2667      2827
 -1      2675    3    0    1
 -2      1584      1681      1903      2286
 -1      2676    3    0    1
 -2      1905       396      1928      2069
 -1      2677    3    0    1
 -2      2412      1548      1789      2107
 -1      2678    3    0    1
 -2      2151       292      1091      2220
 -1      2679    3    0    1
 -2      1151      1110      2429      2469
 -1      2680    3    0    1
 -2      1631      1591      1728      2060
 -1      2681    3    0    1
 -2       792      1327       791       802
 -1      2682    3    0    1
 -2      1318       256      1074      2971
 -1      2683    3    0    1
 -2       766      1314       775       774
 -1      2684    3    0    1
 -2       909        31      1182      1761
 -1      2685    3    0    1
 -2      1034      1020      2006      2530
 -1      2686    3    0    1
 -2      1600       408      1754      1884
 -1      2687    3    0    1
 -2      2245       965      2296      2670
 -1      2688    3    0    1
 -2      1474      1499      3032      3057
 -1      2689    3    0    1
 -2      1614      1533      1940      2085
 -1      2690    3    0    1
 -2       919      1893      1901      1962
 -1      2691    3    0    1
 -2      1638      1758      2351      2398
 -1      2692    3    0    1
 -2      1524      1833      2580      2865
 -1      2693    3    0    1
 -2      2309      1226      2332      2615
 -1      2694    3    0    1
 -2      1820      1721      2002      2154
 -1      2695    3    0    1
 -2       471      1912      2122      2596
 -1      2696    3    0    1
 -2       408      1754      1884      1895
 -1      2697    3    0    1
 -2      1423      1439      1448      2981
 -1      2698    3    0    1
 -2       104       107      2044      2799
 -1      2699    3    0    1
 -2      1592      1533      2216      2448
 -1      2700    3    0    1
 -2      1650      1626      1819      1837
 -1      2701    3    0    1
 -2      2193      1918      2281      2286
 -1      2702    3    0    1
 -2      1388       312       319      1728
 -1      2703    3    0    1
 -2      1534      1606      1900      2157
 -1      2704    3    0    1
 -2       255       252      2510      2562
 -1      2705    3    0    1
 -2       890      1402      2095      2139
 -1      2706    3    0    1
 -2      1931      1772      2084      2418
 -1      2707    3    0    1
 -2        79        84       952      1911
 -1      2708    3    0    1
 -2      1132      2240      2421      2474
 -1      2709    3    0    1
 -2      1760      1738      2195      2328
 -1      2710    3    0    1
 -2      1689      1621      1718      1895
 -1      2711    3    0    1
 -2      1749      1703      1777      1861
 -1      2712    3    0    1
 -2        32       423      1893      2342
 -1      2713    3    0    1
 -2      1762       937      1823      1877
 -1      2714    3    0    1
 -2      1085      2678      2760      2849
 -1      2715    3    0    1
 -2       261      1617      2632      2817
 -1      2716    3    0    1
 -2       583       587       966      1217
 -1      2717    3    0    1
 -2      1523      1831      1932      1957
 -1      2718    3    0    1
 -2      1108      1401      2072      2487
 -1      2719    3    0    1
 -2       527      1202       940       534
 -1      2720    3    0    1
 -2      1570      1945      2456      2561
 -1      2721    3    0    1
 -2      1789      2262      2477      2547
 -1      2722    3    0    1
 -2       358      1597      1865      2741
 -1      2723    3    0    1
 -2      1589      1633      1647      2001
 -1      2724    3    0    1
 -2       904      2347      2440      2999
 -1      2725    3    0    1
 -2      1673      1602      1947      2160
 -1      2726    3    0    1
 -2       438       434      1106      2097
 -1      2727    3    0    1
 -2       409      2005      2133      2482
 -1      2728    3    0    1
 -2      2050        62      2391      2574
 -1      2729    3    0    1
 -2      1827      1627      1875      1892
 -1      2730    3    0    1
 -2      1770      2070      2071      2768
 -1      2731    3    0    1
 -2       850      1602      1665      2047
 -1      2732    3    0    1
 -2      1697      1554      1742      2177
 -1      2733    3    0    1
 -2       740      1303      1055       750
 -1      2734    3    0    1
 -2       410      1053      1865      2005
 -1      2735    3    0    1
 -2      2190      2236      2453      2503
 -1      2736    3    0    1
 -2      2370      1983      2379      2697
 -1      2737    3    0    1
 -2      1948      1226      2309      2615
 -1      2738    3    0    1
 -2      1599      1628      1825      2134
 -1      2739    3    0    1
 -2       909       471      1168      1912
 -1      2740    3    0    1
 -2      1546      1858      2155      2173
 -1      2741    3    0    1
 -2       859       893      1154      1723
 -1      2742    3    0    1
 -2        65       425       943      2406
 -1      2743    3    0    1
 -2       716      1292      1042       726
 -1      2744    3    0    1
 -2       667       678      2962      2965
 -1      2745    3    0    1
 -2       574      1228       579       586
 -1      2746    3    0    1
 -2       903      2053      2575      2587
 -1      2747    3    0    1
 -2      1568      1585      1705      2209
 -1      2748    3    0    1
 -2       117       111       601      1229
 -1      2749    3    0    1
 -2       246      1707      1803      2026
 -1      2750    3    0    1
 -2       318      1909      2321      2408
 -1      2751    3    0    1
 -2      1707      1943      2026      2250
 -1      2752    3    0    1
 -2      1968      2878      2879      2912
 -1      2753    3    0    1
 -2      2091      2541      2897      3077
 -1      2754    3    0    1
 -2       567       568       956      1812
 -1      2755    3    0    1
 -2      1800      1793      1952      2065
 -1      2756    3    0    1
 -2      1570      1829      1844      1944
 -1      2757    3    0    1
 -2      1582      1971      2662      2826
 -1      2758    3    0    1
 -2      1829      1141      1844      1944
 -1      2759    3    0    1
 -2       282       281      1996      2082
 -1      2760    3    0    1
 -2      2043       202      2584      2590
 -1      2761    3    0    1
 -2      2382      2241      2393      2532
 -1      2762    3    0    1
 -2       416       307      1716      2013
 -1      2763    3    0    1
 -2      1407       862      1122      1936
 -1      2764    3    0    1
 -2      1989        10      2544      2876
 -1      2765    3    0    1
 -2       124      1239      1748      2315
 -1      2766    3    0    1
 -2      1955      1562      2054      2417
 -1      2767    3    0    1
 -2      2974      3017      3018      3037
 -1      2768    3    0    1
 -2       682      1756      1929      2162
 -1      2769    3    0    1
 -2       749       224       752      1296
 -1      2770    3    0    1
 -2       861       885      1692      2016
 -1      2771    3    0    1
 -2       321       159      1261      1883
 -1      2772    3    0    1
 -2      1294      1040       730      2221
 -1      2773    3    0    1
 -2      1861      1261      2007      2033
 -1      2774    3    0    1
 -2       419      1181      2494      2653
 -1      2775    3    0    1
 -2      1664      1538      1689      1714
 -1      2776    3    0    1
 -2      1622      1717      1788      2512
 -1      2777    3    0    1
 -2       132       143       628      1245
 -1      2778    3    0    1
 -2      1735       156      2244      2465
 -1      2779    3    0    1
 -2      1594      1633      1652      2513
 -1      2780    3    0    1
 -2      1567      1613      2219      2737
 -1      2781    3    0    1
 -2      1476      1465      3117      3012
 -1      2782    3    0    1
 -2       406      1372      1153      1820
 -1      2783    3    0    1
 -2       142       320       994      2032
 -1      2784    3    0    1
 -2      2932      2922      3098      3126
 -1      2785    3    0    1
 -2       873       852      1913      2288
 -1      2786    3    0    1
 -2       355       342      1259      1897
 -1      2787    3    0    1
 -2       941       380      1863      2832
 -1      2788    3    0    1
 -2       904       462      1166      2440
 -1      2789    3    0    1
 -2       495       472      1963      2215
 -1      2790    3    0    1
 -2       751       726      1041      1796
 -1      2791    3    0    1
 -2      2145       332      2203      2791
 -1      2792    3    0    1
 -2      1658      1542      1794      2502
 -1      2793    3    0    1
 -2       315       325      2639      2825
 -1      2794    3    0    1
 -2       425      1998      2152      2406
 -1      2795    3    0    1
 -2       739      1301       744      1060
 -1      2796    3    0    1
 -2       248       252      1070      2275
 -1      2797    3    0    1
 -2       592      1965      2360      2630
 -1      2798    3    0    1
 -2      2006       688      2605      2751
 -1      2799    3    0    1
 -2       667      1270       679       678
 -1      2800    3    0    1
 -2      1698      2073      2217      2480
 -1      2801    3    0    1
 -2       860       894      2118      2282
 -1      2802    3    0    1
 -2      1665      1602      1673      2047
 -1      2803    3    0    1
 -2        79       952      1214      1911
 -1      2804    3    0    1
 -2      1529      1695      1887      2096
 -1      2805    3    0    1
 -2      1032      2517      2558      2588
 -1      2806    3    0    1
 -2      2061      1545      2101      2622
 -1      2807    3    0    1
 -2      1799      1118      1821      1919
 -1      2808    3    0    1
 -2       248       252      2275      2510
 -1      2809    3    0    1
 -2       462       487       915      2029
 -1      2810    3    0    1
 -2       473      2974      1507      3037
 -1      2811    3    0    1
 -2      1670      1533      1940      2087
 -1      2812    3    0    1
 -2      1598      1564      1602      1673
 -1      2813    3    0    1
 -2      1767      1729      2362      2700
 -1      2814    3    0    1
 -2      1907      1555      1921      2338
 -1      2815    3    0    1
 -2       918        37      1939      2552
 -1      2816    3    0    1
 -2      2989      1452      1488      3014
 -1      2817    3    0    1
 -2       869      1131      1631      1728
 -1      2818    3    0    1
 -2      1982      1646      2227      2742
 -1      2819    3    0    1
 -2      1578      1684      1753      2102
 -1      2820    3    0    1
 -2      1775      1591      1785      2187
 -1      2821    3    0    1
 -2      1402       403      1708      1764
 -1      2822    3    0    1
 -2       859      1405       893      1821
 -1      2823    3    0    1
 -2       586       961       965      2296
 -1      2824    3    0    1
 -2      1350      1738      1958      2328
 -1      2825    3    0    1
 -2       701      1025      1036      1274
 -1      2826    3    0    1
 -2      1764      1596      2095      2139
 -1      2827    3    0    1
 -2       909       472       471      1912
 -1      2828    3    0    1
 -2      2338      1751      2439      2470
 -1      2829    3    0    1
 -2      1094      1988      2012      2104
 -1      2830    3    0    1
 -2      1775      1785      2329      2652
 -1      2831    3    0    1
 -2      1261       651       658      1612
 -1      2832    3    0    1
 -2      1679      1961      2228      2356
 -1      2833    3    0    1
 -2      1812       567      2019      2046
 -1      2834    3    0    1
 -2      1341       833      1340      1710
 -1      2835    3    0    1
 -2       107       104      1953      2799
 -1      2836    3    0    1
 -2      1966      2089      2361      2362
 -1      2837    3    0    1
 -2        65       943      2225      2406
 -1      2838    3    0    1
 -2        53       924      2205      2311
 -1      2839    3    0    1
 -2       699       197      1029      1281
 -1      2840    3    0    1
 -2      1327       802      2142      2516
 -1      2841    3    0    1
 -2      1837      1650      2252      2361
 -1      2842    3    0    1
 -2       312      1388      1131      1728
 -1      2843    3    0    1
 -2      2103      1592      2216      2462
 -1      2844    3    0    1
 -2      1645      2419      2526      2580
 -1      2845    3    0    1
 -2        50       924      1194      2657
 -1      2846    3    0    1
 -2      1931      1579      2062      2165
 -1      2847    3    0    1
 -2       159       161      1001      2007
 -1      2848    3    0    1
 -2       385       950      1937      2056
 -1      2849    3    0    1
 -2      1592      2148      2448      2462
 -1      2850    3    0    1
 -2       822      1092      1765      2320
 -1      2851    3    0    1
 -2      1143       882      2421      2474
 -1      2852    3    0    1
 -2      1315      2966       774      1067
 -1      2853    3    0    1
 -2      2008      1250      2175      2222
 -1      2854    3    0    1
 -2      2182      1524      2236      2580
 -1      2855    3    0    1
 -2      1553      1539      1656      2066
 -1      2856    3    0    1
 -2      1808      1397      1874      1875
 -1      2857    3    0    1
 -2      2486      2213      2525      2593
 -1      2858    3    0    1
 -2      2823      2798      2866      2872
 -1      2859    3    0    1
 -2      1367      1150      1611      1624
 -1      2860    3    0    1
 -2      1921      1385      2308      2338
 -1      2861    3    0    1
 -2       360       102      1581      2309
 -1      2862    3    0    1
 -2      1558      1603      1808      1838
 -1      2863    3    0    1
 -2       860      1155      1374      1677
 -1      2864    3    0    1
 -2      1069      2057      2507      2643
 -1      2865    3    0    1
 -2       929      2113      2169      2363
 -1      2866    3    0    1
 -2       907       460       908      1159
 -1      2867    3    0    1
 -2       453       907       908      1159
 -1      2868    3    0    1
 -2       453      1160       907      1159
 -1      2869    3    0    1
 -2       453      1160       454       907
 -1      2870    3    0    1
 -2       460         4       470      1159
 -1      2871    3    0    1
 -2         9         4       460      1159
 -1      2872    3    0    1
 -2       454      1168      1161       453
 -1      2873    3    0    1
 -2       456      1167       455       466
 -1      2874    3    0    1
 -2       395      1340      1691      1710
 -1      2875    3    0    1
 -2      1853       907      1097      2431
 -1      2876    3    0    1
 -2      2228      1679      2356      2493
 -1      2877    3    0    1
 -2      1035      1709      2617      2738
 -1      2878    3    0    1
 -2       902      1164       455      1162
 -1      2879    3    0    1
 -2      1951      1732      2458      2597
 -1      2880    3    0    1
 -2      1166      3040      3061      3060
 -1      2881    3    0    1
 -2      1430      1457      1486      3062
 -1      2882    3    0    1
 -2      3021      1454      3052      3054
 -1      2883    3    0    1
 -2      1983      2506      2835      2901
 -1      2884    3    0    1
 -2      3015      2968      3049      3063
 -1      2885    3    0    1
 -2      1486      1457      1514      3062
 -1      2886    3    0    1
 -2       449      3040      3041      3061
 -1      2887    3    0    1
 -2       455       459       466      1167
 -1      2888    3    0    1
 -2       460       901      1163      1167
 -1      2889    3    0    1
 -2       455       903       459      1167
 -1      2890    3    0    1
 -2       903       455       901      1167
 -1      2891    3    0    1
 -2       455      1163       901      1167
 -1      2892    3    0    1
 -2       901       460       903      1167
 -1      2893    3    0    1
 -2       461      1161       464      1168
 -1      2894    3    0    1
 -2       461        12       909      1168
 -1      2895    3    0    1
 -2        12       461       464      1168
 -1      2896    3    0    1
 -2       900       461       909      1168
 -1      2897    3    0    1
 -2      1161       461       900      1168
 -1      2898    3    0    1
 -2        14       467       377      1168
 -1      2899    3    0    1
 -2       467        14       464      1168
 -1      2900    3    0    1
 -2        19       484       489      1173
 -1      2901    3    0    1
 -2       453      1161       900      1168
 -1      2902    3    0    1
 -2       909       453       900      1168
 -1      2903    3    0    1
 -2       476      1178       475       483
 -1      2904    3    0    1
 -2        26       485       911      1177
 -1      2905    3    0    1
 -2        62       380       937      2832
 -1      2906    3    0    1
 -2        19       493        35      1173
 -1      2907    3    0    1
 -2       493        19       489      1173
 -1      2908    3    0    1
 -2       478      1182       496       477
 -1      2909    3    0    1
 -2       488        21       491      1174
 -1      2910    3    0    1
 -2        29        21       488      1174
 -1      2911    3    0    1
 -2       478      1182       919       496
 -1      2912    3    0    1
 -2        22       494       484      1176
 -1      2913    3    0    1
 -2       917       477      1173      1176
 -1      2914    3    0    1
 -2      1706      1396      1944      1979
 -1      2915    3    0    1
 -2       313      1392      1127      2464
 -1      2916    3    0    1
 -2      1572      1760      2123      2172
 -1      2917    3    0    1
 -2      2095       890      2139      2429
 -1      2918    3    0    1
 -2       543       942      2592      2729
 -1      2919    3    0    1
 -2      1992      1867      2291      2327
 -1      2920    3    0    1
 -2       244      2263      2365      2483
 -1      2921    3    0    1
 -2       483       475       490      1178
 -1      2922    3    0    1
 -2       916       475      1172      1178
 -1      2923    3    0    1
 -2       490       475       916      1178
 -1      2924    3    0    1
 -2      1742      1655      1972      2127
 -1      2925    3    0    1
 -2       485       911      1177      1179
 -1      2926    3    0    1
 -2       911       485       915      1179
 -1      2927    3    0    1
 -2      1809      1679      1961      2228
 -1      2928    3    0    1
 -2       991      1736      2290      2669
 -1      2929    3    0    1
 -2       486       479       487      1179
 -1      2930    3    0    1
 -2      2073      1698      2428      2745
 -1      2931    3    0    1
 -2       479       915       487      1179
 -1      2932    3    0    1
 -2       911       479      1177      1179
 -1      2933    3    0    1
 -2       915       479       911      1179
 -1      2934    3    0    1
 -2      1588       413      2612      2633
 -1      2935    3    0    1
 -2       476      1181       475      1170
 -1      2936    3    0    1
 -2        32      1182       488        30
 -1      2937    3    0    1
 -2        30       491        31      1182
 -1      2938    3    0    1
 -2       491        30       488      1182
 -1      2939    3    0    1
 -2       478      1182       477      1174
 -1      2940    3    0    1
 -2       517        39       513      1187
 -1      2941    3    0    1
 -2       508      1187        38       920
 -1      2942    3    0    1
 -2       921       509       928      1188
 -1      2943    3    0    1
 -2       515        45        51      1188
 -1      2944    3    0    1
 -2        45       515       511      1188
 -1      2945    3    0    1
 -2      1547      1591      1755      1780
 -1      2946    3    0    1
 -2      1758      1638      1908      2398
 -1      2947    3    0    1
 -2       981       993      2174      2527
 -1      2948    3    0    1
 -2       505       927      1186      1191
 -1      2949    3    0    1
 -2      1807       944      1810      1956
 -1      2950    3    0    1
 -2      1137       305       379      1908
 -1      2951    3    0    1
 -2      1734      1620      1789      2039
 -1      2952    3    0    1
 -2      1400      1665      1787      2047
 -1      2953    3    0    1
 -2       499      1186       927      1191
 -1      2954    3    0    1
 -2       507       499       927      1191
 -1      2955    3    0    1
 -2      1146       861       885      1692
 -1      2956    3    0    1
 -2      1539      2201      2290      2641
 -1      2957    3    0    1
 -2       503       926       510      1192
 -1      2958    3    0    1
 -2      1190       509       922      1192
 -1      2959    3    0    1
 -2       922       509       926      1192
 -1      2960    3    0    1
 -2       778      1316      2198      2573
 -1      2961    3    0    1
 -2       926       503       922      1192
 -1      2962    3    0    1
 -2       503      1190       922      1192
 -1      2963    3    0    1
 -2         3         2      3040      3041
 -1      2964    3    0    1
 -2      2578       346      2603      2640
 -1      2965    3    0    1
 -2       508       924      1184      1194
 -1      2966    3    0    1
 -2       513       508      1184      1194
 -1      2967    3    0    1
 -2        50       508       513      1194
 -1      2968    3    0    1
 -2      1800      1606      1900      1952
 -1      2969    3    0    1
 -2       992      2425      2603      2640
 -1      2970    3    0    1
 -2      2164      2035      2278      2874
 -1      2971    3    0    1
 -2       487       915      2029      2492
 -1      2972    3    0    1
 -2       507      1194       499       924
 -1      2973    3    0    1
 -2       508        50       924      1194
 -1      2974    3    0    1
 -2        61       529      1196      1198
 -1      2975    3    0    1
 -2      2075      2024      2284      2285
 -1      2976    3    0    1
 -2      1551      2370      2379      2697
 -1      2977    3    0    1
 -2      1464      1422      3118      3045
 -1      2978    3    0    1
 -2      2927      2636      3100      3120
 -1      2979    3    0    1
 -2        58       533       535      1201
 -1      2980    3    0    1
 -2       535       940      1199      1201
 -1      2981    3    0    1
 -2        58       535      1199      1201
 -1      2982    3    0    1
 -2       533       372       535      1202
 -1      2983    3    0    1
 -2      1456      3069      3089      2996
 -1      2984    3    0    1
 -2      1400       850      1107      2047
 -1      2985    3    0    1
 -2      1565      1916      2036      2354
 -1      2986    3    0    1
 -2      2310      1916      2335      2354
 -1      2987    3    0    1
 -2       535       940      1201      1202
 -1      2988    3    0    1
 -2       533       535      1201      1202
 -1      2989    3    0    1
 -2       403       303      1152      1764
 -1      2990    3    0    1
 -2      2170      2449      2501      2524
 -1      2991    3    0    1
 -2       535       372       940      1202
 -1      2992    3    0    1
 -2        65        68       532      1204
 -1      2993    3    0    1
 -2       933      1204       524      1197
 -1      2994    3    0    1
 -2       532        68       938      1204
 -1      2995    3    0    1
 -2       548      1208       549       950
 -1      2996    3    0    1
 -2       548      1208       950      1207
 -1      2997    3    0    1
 -2       546        81      2991      2992
 -1      2998    3    0    1
 -2       142       988      2008      2112
 -1      2999    3    0    1
 -2       946       557       954      1212
 -1      3000    3    0    1
 -2       563        75        90      1212
 -1      3001    3    0    1
 -2        75       563       559      1212
 -1      3002    3    0    1
 -2       548      1209       953      1213
 -1      3003    3    0    1
 -2       555       548       953      1213
 -1      3004    3    0    1
 -2       553      1209       554      1213
 -1      3005    3    0    1
 -2      1209       553       953      1213
 -1      3006    3    0    1
 -2        77       553       554      1213
 -1      3007    3    0    1
 -2       557        79       952      1214
 -1      3008    3    0    1
 -2      1211       557       947      1214
 -1      3009    3    0    1
 -2       947       557       952      1214
 -1      3010    3    0    1
 -2       320       139      2032      2175
 -1      3011    3    0    1
 -2       909      1912      2020      2702
 -1      3012    3    0    1
 -2       952       550       947      1214
 -1      3013    3    0    1
 -2       550      1211       947      1214
 -1      3014    3    0    1
 -2      1522      1536      1626      2875
 -1      3015    3    0    1
 -2      1755      2066      2437      2528
 -1      3016    3    0    1
 -2       556       950      1207      1216
 -1      3017    3    0    1
 -2       561       556      1207      1216
 -1      3018    3    0    1
 -2       555      1216       548       950
 -1      3019    3    0    1
 -2      1671      1567      1803      1852
 -1      3020    3    0    1
 -2        94       587       583      1217
 -1      3021    3    0    1
 -2      2370      2378      2899      2906
 -1      3022    3    0    1
 -2       964       572      1218      1221
 -1      3023    3    0    1
 -2       573      1226       572       582
 -1      3024    3    0    1
 -2       577        98       578      1222
 -1      3025    3    0    1
 -2      1228       575       962      1223
 -1      3026    3    0    1
 -2       575      1228       962       579
 -1      3027    3    0    1
 -2       961       574      1222      1225
 -1      3028    3    0    1
 -2      1643      1740      1757      1923
 -1      3029    3    0    1
 -2       392       378      1866      2754
 -1      3030    3    0    1
 -2       466      1713      2058      2326
 -1      3031    3    0    1
 -2       581       964      1221      1226
 -1      3032    3    0    1
 -2      1700      1365      1746      2665
 -1      3033    3    0    1
 -2      1639      1531      1730      1739
 -1      3034    3    0    1
 -2      1577      1653      2028      2190
 -1      3035    3    0    1
 -2       582       572       584      1226
 -1      3036    3    0    1
 -2       964       572      1221      1226
 -1      3037    3    0    1
 -2       584       572       964      1226
 -1      3038    3    0    1
 -2       360      1581      2049      2309
 -1      3039    3    0    1
 -2      1530      1826      2065      2143
 -1      3040    3    0    1
 -2       305      1137      1114      1908
 -1      3041    3    0    1
 -2      1962        31      1182        30
 -1      3042    3    0    1
 -2       466       459       906      2058
 -1      3043    3    0    1
 -2       575      1228       574      1223
 -1      3044    3    0    1
 -2      2236      1645      2526      2580
 -1      3045    3    0    1
 -2       605       607       979      1233
 -1      3046    3    0    1
 -2       605       114       607      1233
 -1      3047    3    0    1
 -2       979      1234      1233       597
 -1      3048    3    0    1
 -2       979      1234       605      1233
 -1      3049    3    0    1
 -2      1234       979       605       982
 -1      3050    3    0    1
 -2       597      1234       598       982
 -1      3051    3    0    1
 -2       607       112       611      1233
 -1      3052    3    0    1
 -2       120       112       607      1233
 -1      3053    3    0    1
 -2       173       332      1014      2203
 -1      3054    3    0    1
 -2      1657      1923      2519      2648
 -1      3055    3    0    1
 -2      3104      3113      1505      1506
 -1      3056    3    0    1
 -2      1390       878      1775      1785
 -1      3057    3    0    1
 -2       123       121       605      1237
 -1      3058    3    0    1
 -2       605       121       977      1237
 -1      3059    3    0    1
 -2      1737      2123      2195      2704
 -1      3060    3    0    1
 -2      1810        89      1880      1987
 -1      3061    3    0    1
 -2       599       977       606      1237
 -1      3062    3    0    1
 -2       605       972      1236      1237
 -1      3063    3    0    1
 -2       972       605       977      1237
 -1      3064    3    0    1
 -2       977       599       972      1237
 -1      3065    3    0    1
 -2       599      1236       972      1237
 -1      3066    3    0    1
 -2      1107       399      1400      1787
 -1      3067    3    0    1
 -2       356      1044      1981      2426
 -1      3068    3    0    1
 -2       604       975      1230      1239
 -1      3069    3    0    1
 -2       609       604      1230      1239
 -1      3070    3    0    1
 -2      1886      1922      2531      2052
 -1      3071    3    0    1
 -2      1548      2352      2547      2693
 -1      3072    3    0    1
 -2       603      1239       595       975
 -1      3073    3    0    1
 -2       130       625      1240      1242
 -1      3074    3    0    1
 -2       628       638       994      1245
 -1      3075    3    0    1
 -2       632       133       635      1243
 -1      3076    3    0    1
 -2       134       133       632      1243
 -1      3077    3    0    1
 -2       140       636       147      1244
 -1      3078    3    0    1
 -2       636       140       629      1244
 -1      3079    3    0    1
 -2       621       992      1243      1244
 -1      3080    3    0    1
 -2      1625       405      2250      2313
 -1      3081    3    0    1
 -2      1543      2067      2093      2619
 -1      3082    3    0    1
 -2       625       991      1242      1247
 -1      3083    3    0    1
 -2       626       625      1242      1247
 -1      3084    3    0    1
 -2       136       626       137      1247
 -1      3085    3    0    1
 -2       625       136       991      1247
 -1      3086    3    0    1
 -2       626       136       625      1247
 -1      3087    3    0    1
 -2      1053      1305      1865      1873
 -1      3088    3    0    1
 -2      1662      1526      2228      2271
 -1      3089    3    0    1
 -2       629       632      1246      1248
 -1      3090    3    0    1
 -2       629       138       632      1248
 -1      3091    3    0    1
 -2       531       938      1637      1997
 -1      3092    3    0    1
 -2       986      1248       624      1246
 -1      3093    3    0    1
 -2       632       138       990      1248
 -1      3094    3    0    1
 -2      1473       158      3102      2969
 -1      3095    3    0    1
 -2      1531      1550      1636      1797
 -1      3096    3    0    1
 -2      1152       303      1370      1764
 -1      3097    3    0    1
 -2       983      1250       619      1241
 -1      3098    3    0    1
 -2       628       320       988      1250
 -1      3099    3    0    1
 -2       662       153       163      1257
 -1      3100    3    0    1
 -2       653       656      1005      1255
 -1      3101    3    0    1
 -2       150      1256      1255       653
 -1      3102    3    0    1
 -2      1256      1005       653      1008
 -1      3103    3    0    1
 -2       645      1256       646      1008
 -1      3104    3    0    1
 -2      1005      1256      1255       645
 -1      3105    3    0    1
 -2      1005      1256       653      1255
 -1      3106    3    0    1
 -2       659       150       151      1255
 -1      3107    3    0    1
 -2       150       659       656      1255
 -1      3108    3    0    1
 -2      1589      1641      1647      2064
 -1      3109    3    0    1
 -2      3079      3068      1458      1459
 -1      3110    3    0    1
 -2       355       342       653      1259
 -1      3111    3    0    1
 -2       653       342      1003      1259
 -1      3112    3    0    1
 -2       839      1868      1959      2230
 -1      3113    3    0    1
 -2      2137        41      2306      2862
 -1      3114    3    0    1
 -2       647      1003       654      1259
 -1      3115    3    0    1
 -2      1258       653       998      1259
 -1      3116    3    0    1
 -2       998       653      1003      1259
 -1      3117    3    0    1
 -2      1003       647       998      1259
 -1      3118    3    0    1
 -2       647      1258       998      1259
 -1      3119    3    0    1
 -2       652      1001      1252      1261
 -1      3120    3    0    1
 -2       657       652      1252      1261
 -1      3121    3    0    1
 -2      1353       317      2433      2710
 -1      3122    3    0    1
 -2       651      1261       643      1001
 -1      3123    3    0    1
 -2       668      1270      1016       679
 -1      3124    3    0    1
 -2      1271      1015      1423      3007
 -1      3125    3    0    1
 -2       175       684       183      1264
 -1      3126    3    0    1
 -2       684       175       677      1264
 -1      3127    3    0    1
 -2       686       169       182      1265
 -1      3128    3    0    1
 -2       169       686       676      1265
 -1      3129    3    0    1
 -2       677       174      1016      1270
 -1      3130    3    0    1
 -2       672      1269       682       671
 -1      3131    3    0    1
 -2      1013      1269      1017       672
 -1      3132    3    0    1
 -2       672      1269      1017       682
 -1      3133    3    0    1
 -2      1014       671      1266      1268
 -1      3134    3    0    1
 -2       672      1272       671       682
 -1      3135    3    0    1
 -2      1605       929      2169      2363
 -1      3136    3    0    1
 -2       156      1633      2465      2513
 -1      3137    3    0    1
 -2      1741      1572      2172      2196
 -1      3138    3    0    1
 -2       868       881      2208      2302
 -1      3139    3    0    1
 -2       859      1154      1373      1723
 -1      3140    3    0    1
 -2       672      1269       671      1267
 -1      3141    3    0    1
 -2      1013      1269       672      1267
 -1      3142    3    0    1
 -2       514      2094      2657      2830
 -1      3143    3    0    1
 -2      1401      1770      2487      2674
 -1      3144    3    0    1
 -2       668      1270       667      1262
 -1      3145    3    0    1
 -2      1010      1270       668      1262
 -1      3146    3    0    1
 -2       989      2850      1433      3104
 -1      3147    3    0    1
 -2      1260      2762      2850      3104
 -1      3148    3    0    1
 -2       711      2006      2781      2864
 -1      3149    3    0    1
 -2      1626      1668      2340      2795
 -1      3150    3    0    1
 -2       682       671       675      1272
 -1      3151    3    0    1
 -2      1014       671      1268      1272
 -1      3152    3    0    1
 -2      2019       954      2238      2695
 -1      3153    3    0    1
 -2       675       671      1014      1272
 -1      3154    3    0    1
 -2       699      1029      1276      1278
 -1      3155    3    0    1
 -2       227       747      1047      1302
 -1      3156    3    0    1
 -2      1373      1723      2410      2031
 -1      3157    3    0    1
 -2       434      1792      1816      1839
 -1      3158    3    0    1
 -2      1932      1606      1952      1957
 -1      3159    3    0    1
 -2      1022       701      1031      1279
 -1      3160    3    0    1
 -2      1657      1923      2304      2519
 -1      3161    3    0    1
 -2        84        79       954      1935
 -1      3162    3    0    1
 -2       993       639       640      1860
 -1      3163    3    0    1
 -2      3012      1418       951      3038
 -1      3164    3    0    1
 -2       702      1030      2975      2976
 -1      3165    3    0    1
 -2       487       479      2973      3017
 -1      3166    3    0    1
 -2       699      1029      1278      1281
 -1      3167    3    0    1
 -2       705       699      1278      1281
 -1      3168    3    0    1
 -2       300      1104      1357      1793
 -1      3169    3    0    1
 -2      1687      1913      2288      2565
 -1      3170    3    0    1
 -2      1663      1920      2341      2445
 -1      3171    3    0    1
 -2       695       700       706      1281
 -1      3172    3    0    1
 -2       700       695      1029      1281
 -1      3173    3    0    1
 -2      2924      2879      3081      3097
 -1      3174    3    0    1
 -2      3074      1848      1448      3102
 -1      3175    3    0    1
 -2       719      1294      1289      1040
 -1      3176    3    0    1
 -2      1040       719      1287      1289
 -1      3177    3    0    1
 -2       218       207       729      1290
 -1      3178    3    0    1
 -2       207       723       729      1290
 -1      3179    3    0    1
 -2       209       208       721      1288
 -1      3180    3    0    1
 -2       721      1043      1286      1288
 -1      3181    3    0    1
 -2       209       721      1286      1288
 -1      3182    3    0    1
 -2       723       207       729      1289
 -1      3183    3    0    1
 -2       723      1040      1287      1289
 -1      3184    3    0    1
 -2       207       723      1287      1289
 -1      3185    3    0    1
 -2       729       723      1045      1290
 -1      3186    3    0    1
 -2      1037       729      1045      1290
 -1      3187    3    0    1
 -2       734       207       219      1290
 -1      3188    3    0    1
 -2       207       734       723      1290
 -1      3189    3    0    1
 -2      1545      1594      1633      1652
 -1      3190    3    0    1
 -2       721      1043      1288      1291
 -1      3191    3    0    1
 -2       722       721      1288      1291
 -1      3192    3    0    1
 -2      1228       579       586      2618
 -1      3193    3    0    1
 -2      1181        34      2000      2653
 -1      3194    3    0    1
 -2       213       722       413      1291
 -1      3195    3    0    1
 -2       721       213      1043      1291
 -1      3196    3    0    1
 -2       722       213       721      1291
 -1      3197    3    0    1
 -2      1740      1916      2310      2354
 -1      3198    3    0    1
 -2       725       728      1284      1292
 -1      3199    3    0    1
 -2       725       212       728      1292
 -1      3200    3    0    1
 -2      1336       282      2319      2559
 -1      3201    3    0    1
 -2      1038      1292       716      1284
 -1      3202    3    0    1
 -2       728       212      1042      1292
 -1      3203    3    0    1
 -2      1473       354      2964      3113
 -1      3204    3    0    1
 -2       729       723      1289      1294
 -1      3205    3    0    1
 -2       334       414       723      1294
 -1      3206    3    0    1
 -2       723       414      1040      1294
 -1      3207    3    0    1
 -2       728      1046      1039      1295
 -1      3208    3    0    1
 -2      1046       728      1039       725
 -1      3209    3    0    1
 -2       212       731       221      1295
 -1      3210    3    0    1
 -2       731       212       728      1295
 -1      3211    3    0    1
 -2      1039      1295       715      1282
 -1      3212    3    0    1
 -2       243       771      1065      1306
 -1      3213    3    0    1
 -2      1057      1301       739      1060
 -1      3214    3    0    1
 -2       224      1301       749       229
 -1      3215    3    0    1
 -2       227       758       747      1302
 -1      3216    3    0    1
 -2       213      2419      2627      2861
 -1      3217    3    0    1
 -2      1724      1984      2087      2121
 -1      3218    3    0    1
 -2       365       350       749      1303
 -1      3219    3    0    1
 -2       749       350      1055      1303
 -1      3220    3    0    1
 -2       854      1369      1699      1741
 -1      3221    3    0    1
 -2      2478      1769      2786      2818
 -1      3222    3    0    1
 -2      1049      1303       740      1297
 -1      3223    3    0    1
 -2      1454      1429      1485      3052
 -1      3224    3    0    1
 -2      1427      1429      3126      3052
 -1      3225    3    0    1
 -2       742       748       754      1305
 -1      3226    3    0    1
 -2      1300       747      1050      1305
 -1      3227    3    0    1
 -2       742      1053       748      1305
 -1      3228    3    0    1
 -2      1053       742      1050      1305
 -1      3229    3    0    1
 -2       742      1300      1050      1305
 -1      3230    3    0    1
 -2      1050       747      1053      1305
 -1      3231    3    0    1
 -2      1083       796      1084      1319
 -1      3232    3    0    1
 -2       765      1313      1069       778
 -1      3233    3    0    1
 -2       259       797      1075      1317
 -1      3234    3    0    1
 -2      1066       764      1307      1310
 -1      3235    3    0    1
 -2       765      1316       764       778
 -1      3236    3    0    1
 -2       767      1314       775       766
 -1      3237    3    0    1
 -2      1063      1314      1068       767
 -1      3238    3    0    1
 -2       767      1314      1068       775
 -1      3239    3    0    1
 -2       104       107       962      2044
 -1      3240    3    0    1
 -2       994      1934      2055      2100
 -1      3241    3    0    1
 -2      2286      2054      2416      2642
 -1      3242    3    0    1
 -2      1624      1611      1787      1835
 -1      3243    3    0    1
 -2      1672      1580      2038      2292
 -1      3244    3    0    1
 -2      1068      2510      2753      2777
 -1      3245    3    0    1
 -2       282       281      1336      1836
 -1      3246    3    0    1
 -2      1613      1721      2002      2737
 -1      3247    3    0    1
 -2       765      1313       764      1308
 -1      3248    3    0    1
 -2      1182       909      1761      2358
 -1      3249    3    0    1
 -2       767      1314       766      1311
 -1      3250    3    0    1
 -2      1063      1314       767      1311
 -1      3251    3    0    1
 -2      2923      1452      3091      2967
 -1      3252    3    0    1
 -2      1445      3080      3112      3132
 -1      3253    3    0    1
 -2       366        67      1202      1629
 -1      3254    3    0    1
 -2      1771      1543      2063      2067
 -1      3255    3    0    1
 -2      1867      1713      2577      2591
 -1      3256    3    0    1
 -2       778       764       772      1316
 -1      3257    3    0    1
 -2      1066       764      1310      1316
 -1      3258    3    0    1
 -2       772       764      1066      1316
 -1      3259    3    0    1
 -2       789      1320       790      1083
 -1      3260    3    0    1
 -2       796       257       806      1319
 -1      3261    3    0    1
 -2       258       257       796      1319
 -1      3262    3    0    1
 -2       790      1328      1321       789
 -1      3263    3    0    1
 -2       803       800      1321      1328
 -1      3264    3    0    1
 -2      2158      1079      2210      2623
 -1      3265    3    0    1
 -2      1969      1843      2237      2488
 -1      3266    3    0    1
 -2      2130      1143      2421      2474
 -1      3267    3    0    1
 -2      2355       299      2671      2717
 -1      3268    3    0    1
 -2      1712      1053      1865      1873
 -1      3269    3    0    1
 -2       944      1807      1973      2299
 -1      3270    3    0    1
 -2      1340       294      1341      1710
 -1      3271    3    0    1
 -2      1078      1324       791      1322
 -1      3272    3    0    1
 -2      1075      1325       787      1317
 -1      3273    3    0    1
 -2      2453      2409      2539      2736
 -1      3274    3    0    1
 -2       463       462      1166      3040
 -1      3275    3    0    1
 -2      1326      1080      2994      3128
 -1      3276    3    0    1
 -2       985      2968      3015      3050
 -1      3277    3    0    1
 -2       263       256      2971      2972
 -1      3278    3    0    1
 -2        78       359      3125      3131
 -1      3279    3    0    1
 -2      1323       796      1077      1327
 -1      3280    3    0    1
 -2       796       273      1079      1327
 -1      3281    3    0    1
 -2       791      1079       795      1327
 -1      3282    3    0    1
 -2      1079       791      1077      1327
 -1      3283    3    0    1
 -2       791      1323      1077      1327
 -1      3284    3    0    1
 -2      1077       796      1079      1327
 -1      3285    3    0    1
 -2       789      1321      1076      1328
 -1      3286    3    0    1
 -2      1085       789      1076      1328
 -1      3287    3    0    1
 -2       830       283       289      1331
 -1      3288    3    0    1
 -2       283       830       820      1331
 -1      3289    3    0    1
 -2       285       278       824      1333
 -1      3290    3    0    1
 -2      1090      1336       818      1094
 -1      3291    3    0    1
 -2       280       818      1090      1334
 -1      3292    3    0    1
 -2       820       283       825      1335
 -1      3293    3    0    1
 -2      1089      1339       820      1091
 -1      3294    3    0    1
 -2       283       820      1089      1335
 -1      3295    3    0    1
 -2      1606      1788      1806      1900
 -1      3296    3    0    1
 -2      1796      1292      2550      2571
 -1      3297    3    0    1
 -2      1809      1679      2228      2493
 -1      3298    3    0    1
 -2       817       818      1334      1336
 -1      3299    3    0    1
 -2       282       281       817      1336
 -1      3300    3    0    1
 -2      1090      1336       815      1334
 -1      3301    3    0    1
 -2       818       281      1094      1336
 -1      3302    3    0    1
 -2       817       281       818      1336
 -1      3303    3    0    1
 -2      1363      1364      1642      2254
 -1      3304    3    0    1
 -2      1087      1337       811      1329
 -1      3305    3    0    1
 -2       824       367      1093      1337
 -1      3306    3    0    1
 -2       380      1802      2324      2832
 -1      3307    3    0    1
 -2       287       290       820      1339
 -1      3308    3    0    1
 -2      1089      1339       816      1335
 -1      3309    3    0    1
 -2       820       290      1091      1339
 -1      3310    3    0    1
 -2      1916      1925      2036      2354
 -1      3311    3    0    1
 -2       404      2142      2581      2814
 -1      3312    3    0    1
 -2      2022      1947      1598      2176
 -1      3313    3    0    1
 -2      1953       104      2044      2799
 -1      3314    3    0    1
 -2       138       990      1248      1648
 -1      3315    3    0    1
 -2      2082      1724      2121      2372
 -1      3316    3    0    1
 -2       398       906      1989      2544
 -1      3317    3    0    1
 -2      1646       754      1711      1712
 -1      3318    3    0    1
 -2       360       102       966      1581
 -1      3319    3    0    1
 -2      1111      1764      2095      2139
 -1      3320    3    0    1
 -2      1071      1059      1974      2133
 -1      3321    3    0    1
 -2      1551      1528      2099      2385
 -1      3322    3    0    1
 -2        32        30       915      1962
 -1      3323    3    0    1
 -2      2012      1984      2080      2121
 -1      3324    3    0    1
 -2      1526      1683      1858      2173
 -1      3325    3    0    1
 -2      1980      1843      2237      2438
 -1      3326    3    0    1
 -2      1079       795      2011      2103
 -1      3327    3    0    1
 -2      1151       401      2469      2473
 -1      3328    3    0    1
 -2      1638      1908      2398      2688
 -1      3329    3    0    1
 -2       284       367      1337      1879
 -1      3330    3    0    1
 -2      1693       382      1938      2274
 -1      3331    3    0    1
 -2      1940      1724      2071      2087
 -1      3332    3    0    1
 -2      1883       321      1975      2033
 -1      3333    3    0    1
 -2        17       907      1817      2122
 -1      3334    3    0    1
 -2        12       909      1912      2020
 -1      3335    3    0    1
 -2      1372       406       437      1820
 -1      3336    3    0    1
 -2      2548      1045      2764      2852
 -1      3337    3    0    1
 -2        89        83      1216      1880
 -1      3338    3    0    1
 -2       324      2251      2277      2298
 -1      3339    3    0    1
 -2       442      1376      1157      2350
 -1      3340    3    0    1
 -2      1670      1940      2071      2087
 -1      3341    3    0    1
 -2      1923      1559      2519      2648
 -1      3342    3    0    1
 -2      2197      2128      2569      2601
 -1      3343    3    0    1
 -2      1802      1815      2481      2716
 -1      3344    3    0    1
 -2      1751      2226      2338      2439
 -1      3345    3    0    1
 -2       300       390      1104      1793
 -1      3346    3    0    1
 -2       842      1103      1680      1794
 -1      3347    3    0    1
 -2      1995      2090      2537      2549
 -1      3348    3    0    1
 -2      1703      1586      1744      1749
 -1      3349    3    0    1
 -2      1857      1350      1958      2328
 -1      3350    3    0    1
 -2       246      1803      1852      2057
 -1      3351    3    0    1
 -2      1671      1723      2031      2219
 -1      3352    3    0    1
 -2      1900      1534      2157      2512
 -1      3353    3    0    1
 -2      1913      1640      2267      2333
 -1      3354    3    0    1
 -2       439       399      1107      1787
 -1      3355    3    0    1
 -2      1052      1056      1712      2423
 -1      3356    3    0    1
 -2      1695      1676      1903      2416
 -1      3357    3    0    1
 -2       877       869      1631      1649
 -1      3358    3    0    1
 -2      2174       993      2395      2527
 -1      3359    3    0    1
 -2       145      2634      2827      2829
 -1      3360    3    0    1
 -2      1637       531      1846      2287
 -1      3361    3    0    1
 -2      1820      1566      1889      1898
 -1      3362    3    0    1
 -2      1576        77      1885      1914
 -1      3363    3    0    1
 -2       950      1216      1790      2014
 -1      3364    3    0    1
 -2      1612       651      2241      2782
 -1      3365    3    0    1
 -2      2873      1536      2875      2876
 -1      3366    3    0    1
 -2      1805      1954      2367      2559
 -1      3367    3    0    1
 -2      1588      1525      1635      1847
 -1      3368    3    0    1
 -2      1586      1703      1924      2297
 -1      3369    3    0    1
 -2      1638      1758      1781      2351
 -1      3370    3    0    1
 -2      2052       627      2297      2316
 -1      3371    3    0    1
 -2       859       893      1799      1821
 -1      3372    3    0    1
 -2       531      1637      1846      1997
 -1      3373    3    0    1
 -2      1032      1028      2517      2624
 -1      3374    3    0    1
 -2      1702       883      2168      2621
 -1      3375    3    0    1
 -2       405      2197      2250      2313
 -1      3376    3    0    1
 -2       907        17      2059      2122
 -1      3377    3    0    1
 -2      1402       303       403      1764
 -1      3378    3    0    1
 -2      1918      2054      2193      2283
 -1      3379    3    0    1
 -2      1096      1783      2255      2343
 -1      3380    3    0    1
 -2       126       124      1239      1748
 -1      3381    3    0    1
 -2       174       179      2605      2611
 -1      3382    3    0    1
 -2      1962       915        31        30
 -1      3383    3    0    1
 -2       371       244      1072      2263
 -1      3384    3    0    1
 -2      1996      1563      2082      2372
 -1      3385    3    0    1
 -2      2027      1715      2321      2408
 -1      3386    3    0    1
 -2      1017      1756      1941      1960
 -1      3387    3    0    1
 -2        84      1911      2109      2238
 -1      3388    3    0    1
 -2      1707      1721      2025      2026
 -1      3389    3    0    1
 -2      1408      2563      2620      2722
 -1      3390    3    0    1
 -2      1104      1793      1826      2040
 -1      3391    3    0    1
 -2      1409      3120      3056      3057
 -1      3392    3    0    1
 -2       295       397      1099      1890
 -1      3393    3    0    1
 -2      1824      1735      2465      2513
 -1      3394    3    0    1
 -2       507      1191      2094      2830
 -1      3395    3    0    1
 -2      1388      1631      1728      2576
 -1      3396    3    0    1
 -2        34       419       917      1726
 -1      3397    3    0    1
 -2       608       977      1226      2615
 -1      3398    3    0    1
 -2      1249       631      2616      2732
 -1      3399    3    0    1
 -2      1793       300      1800      2021
 -1      3400    3    0    1
 -2       759      2548      2766      2851
 -1      3401    3    0    1
 -2       886       864      1788      1854
 -1      3402    3    0    1
 -2      2909      1475      3124      3125
 -1      3403    3    0    1
 -2      1600       408      1884      1895
 -1      3404    3    0    1
 -2      1606      1534      1730      1739
 -1      3405    3    0    1
 -2      1754       415      1855      1856
 -1      3406    3    0    1
 -2       994      1934      2032      2092
 -1      3407    3    0    1
 -2      1673       850      2047      1602
 -1      3408    3    0    1
 -2       377       374      1337      2396
 -1      3409    3    0    1
 -2       418        18       908      1817
 -1      3410    3    0    1
 -2      2172      1699      2196      2257
 -1      3411    3    0    1
 -2       631       606       976      2616
 -1      3412    3    0    1
 -2      2099      1551      2346      2498
 -1      3413    3    0    1
 -2       297      1101      1348      1909
 -1      3414    3    0    1
 -2      1056       754      1646      1982
 -1      3415    3    0    1
 -2      1071       783      2509      2740
 -1      3416    3    0    1
 -2      1905      1658      1928      2330
 -1      3417    3    0    1
 -2       833      1341       834      1710
 -1      3418    3    0    1
 -2       369      1085      2760      2849
 -1      3419    3    0    1
 -2      1017       682      1756      1960
 -1      3420    3    0    1
 -2      1204      1637      1997      2030
 -1      3421    3    0    1
 -2      1559      1610      2518      2519
 -1      3422    3    0    1
 -2      1786      2243      2838      2839
 -1      3423    3    0    1
 -2      1647       156      2465      2759
 -1      3424    3    0    1
 -2      1554      1697      1742      1781
 -1      3425    3    0    1
 -2      2264      2718      2725      2838
 -1      3426    3    0    1
 -2      1667      1781      1840      1972
 -1      3427    3    0    1
 -2      1346       431      1347      1899
 -1      3428    3    0    1
 -2       520       519       931      2191
 -1      3429    3    0    1
 -2      1792       438      1816      2097
 -1      3430    3    0    1
 -2      1886      1586      1924      2052
 -1      3431    3    0    1
 -2      1771      1791      1849      1976
 -1      3432    3    0    1
 -2      1053      1685      1865      2005
 -1      3433    3    0    1
 -2       284       374      1098      2375
 -1      3434    3    0    1
 -2      1904       385      1937      2056
 -1      3435    3    0    1
 -2       942      2592      2729      2810
 -1      3436    3    0    1
 -2       700      1028      2624      2818
 -1      3437    3    0    1
 -2      2773      2515      2779      2855
 -1      3438    3    0    1
 -2      1129      1139      2231      2322
 -1      3439    3    0    1
 -2      2345       520      2600      2803
 -1      3440    3    0    1
 -2      1998       425      2152      2495
 -1      3441    3    0    1
 -2      2163      2201      1539      1553
 -1      3442    3    0    1
 -2        53        50       930      1605
 -1      3443    3    0    1
 -2      1452      1441      1488      3014
 -1      3444    3    0    1
 -2       305      1114      1758      1908
 -1      3445    3    0    1
 -2        12       909      1168      1912
 -1      3446    3    0    1
 -2      2460      1269      2715      2837
 -1      3447    3    0    1
 -2      1530      1661      1851      1951
 -1      3448    3    0    1
 -2       568       591       956      1798
 -1      3449    3    0    1
 -2      1056      1646      1711      2227
 -1      3450    3    0    1
 -2      1601      1590      1666      2116
 -1      3451    3    0    1
 -2      1885      1881      1914      2018
 -1      3452    3    0    1
 -2      1204      1637      2030      2778
 -1      3453    3    0    1
 -2       819      1336      2319      2327
 -1      3454    3    0    1
 -2      1867      1713      1954      1992
 -1      3455    3    0    1
 -2      1789      1620      2262      2412
 -1      3456    3    0    1
 -2      1805      1834      2022      2367
 -1      3457    3    0    1
 -2       930        53      2534      2613
 -1      3458    3    0    1
 -2      3088      1412      1489      1490
 -1      3459    3    0    1
 -2       335      1529      2296      2501
 -1      3460    3    0    1
 -2      1884      1660      1871      1828
 -1      3461    3    0    1
 -2      1822      1544      1886      1924
 -1      3462    3    0    1
 -2      1650      1575      1819      2003
 -1      3463    3    0    1
 -2      1530      2065      2108      2143
 -1      3464    3    0    1
 -2       838       837      2015      2081
 -1      3465    3    0    1
 -2       281      1094      1336      1836
 -1      3466    3    0    1
 -2       754      1056      1646      1711
 -1      3467    3    0    1
 -2      2681      2786      2818      2865
 -1      3468    3    0    1
 -2      2041      2880      2914      2941
 -1      3469    3    0    1
 -2       333       328      1620      1734
 -1      3470    3    0    1
 -2      1552      1571      2747      2763
 -1      3471    3    0    1
 -2      1539      1553      2201      2641
 -1      3472    3    0    1
 -2      1924      2156      1822      1544
 -1      3473    3    0    1
 -2      1999      2108      2207      2651
 -1      3474    3    0    1
 -2      1681      1584      1903      2666
 -1      3475    3    0    1
 -2      1932      1530      1952      2065
 -1      3476    3    0    1
 -2      1576        77      1914      2178
 -1      3477    3    0    1
 -2      1525      1635      1847      1910
 -1      3478    3    0    1
 -2       404       373      2581      2787
 -1      3479    3    0    1
 -2       330       435      1100      2579
 -1      3480    3    0    1
 -2        32       423       919      1893
 -1      3481    3    0    1
 -2      1774      2352      2693      2743
 -1      3482    3    0    1
 -2      1627      1759      1827      1862
 -1      3483    3    0    1
 -2       128       981      2634      2686
 -1      3484    3    0    1
 -2       834       833      1710      1890
 -1      3485    3    0    1
 -2      1564      1598      1602      1986
 -1      3486    3    0    1
 -2      1784      1781      1840      1949
 -1      3487    3    0    1
 -2      1126      1396      1706      1979
 -1      3488    3    0    1
 -2       520       930      2694      2803
 -1      3489    3    0    1
 -2      2306       931      2694      2729
 -1      3490    3    0    1
 -2       273      1084      2167      2581
 -1      3491    3    0    1
 -2      1621      1722      1799      1821
 -1      3492    3    0    1
 -2      1527      1575      1650      2003
 -1      3493    3    0    1
 -2      1923      1617      2304      2519
 -1      3494    3    0    1
 -2       953       562      1763      2269
 -1      3495    3    0    1
 -2      1390       867       878      1785
 -1      3496    3    0    1
 -2      1602      1564      1665      1673
 -1      3497    3    0    1
 -2      1538      1662      1664      2118
 -1      3498    3    0    1
 -2      1636      1562      1797      1964
 -1      3499    3    0    1
 -2       965       586      2296      2670
 -1      3500    3    0    1
 -2      1816      1673       850      1839
 -1      3501    3    0    1
 -2      1193       510       512      2181
 -1      3502    3    0    1
 -2      1575      1616      1690      1966
 -1      3503    3    0    1
 -2       496       918      1939      2586
 -1      3504    3    0    1
 -2       748       754      1305      1712
 -1      3505    3    0    1
 -2      1399       434      1792      2097
 -1      3506    3    0    1
 -2       531       538       938      1997
 -1      3507    3    0    1
 -2      1550      1531      1676      1797
 -1      3508    3    0    1
 -2       926      1179      1609      2229
 -1      3509    3    0    1
 -2      1552      2179      2200      2201
 -1      3510    3    0    1
 -2      1402      1111      1764      2095
 -1      3511    3    0    1
 -2       391      1350      1738      1958
 -1      3512    3    0    1
 -2      1599      1628      1733      1825
 -1      3513    3    0    1
 -2      1759      1583      2274      2331
 -1      3514    3    0    1
 -2       955       567       956      1812
 -1      3515    3    0    1
 -2      2074      2023      2403      2404
 -1      3516    3    0    1
 -2      1785       867      2329      2652
 -1      3517    3    0    1
 -2       610      1993      2243      2450
 -1      3518    3    0    1
 -2      1676      1550      1797      2416
 -1      3519    3    0    1
 -2      2687      1556      2692      2730
 -1      3520    3    0    1
 -2      1544      2067      2505      2619
 -1      3521    3    0    1
 -2      1706      1577      2454      2455
 -1      3522    3    0    1
 -2      2456       191      2677      2819
 -1      3523    3    0    1
 -2      1661      1530      1851      2420
 -1      3524    3    0    1
 -2      1639      1529      1887      2096
 -1      3525    3    0    1
 -2      1740      1537      1916      2354
 -1      3526    3    0    1
 -2      1622      1531      2157      2206
 -1      3527    3    0    1
 -2       360        86       964      2049
 -1      3528    3    0    1
 -2      1716      1683      1811      1858
 -1      3529    3    0    1
 -2      1092      1338       823      2987
 -1      3530    3    0    1
 -2       347       106      2332      2443
 -1      3531    3    0    1
 -2      1909      1862      2204      2441
 -1      3532    3    0    1
 -2        10      1626      1650      1837
 -1      3533    3    0    1
 -2      1872      1651      1926      2037
 -1      3534    3    0    1
 -2      1803      1567      2025      2138
 -1      3535    3    0    1
 -2      1610      1559      1700      2136
 -1      3536    3    0    1
 -2      1045      2380      2638      2663
 -1      3537    3    0    1
 -2      1786      2264      2725      2838
 -1      3538    3    0    1
 -2       907      1853      1097      2122
 -1      3539    3    0    1
 -2      1980      1970      2237      2488
 -1      3540    3    0    1
 -2      1216       555       562      2014
 -1      3541    3    0    1
 -2       139      1860      2175      2395
 -1      3542    3    0    1
 -2      1544      1822      1886      2505
 -1      3543    3    0    1
 -2       415      1714      1855      1856
 -1      3544    3    0    1
 -2      2173      1683      2612      2633
 -1      3545    3    0    1
 -2      1800      1806      1854      1900
 -1      3546    3    0    1
 -2       294       395      1580      1710
 -1      3547    3    0    1
 -2      2294       128      2634      2686
 -1      3548    3    0    1
 -2      2905      2896      3069      3070
 -1      3549    3    0    1
 -2       446      1393      1130      2739
 -1      3550    3    0    1
 -2       396        24      2144      2386
 -1      3551    3    0    1
 -2      1860       994      2032      2092
 -1      3552    3    0    1
 -2       867      1390      1128      1785
 -1      3553    3    0    1
 -2      1596      1708      2095      2310
 -1      3554    3    0    1
 -2       654      1016      1259      2434
 -1      3555    3    0    1
 -2       314      1389       322      2232
 -1      3556    3    0    1
 -2       383      1973      2037      2287
 -1      3557    3    0    1
 -2       408       415      1056      1711
 -1      3558    3    0    1
 -2      1724      1560      2372      2461
 -1      3559    3    0    1
 -2       906       466      2058      2326
 -1      3560    3    0    1
 -2       462       487      2029      2546
 -1      3561    3    0    1
 -2      1636      1550      1743      1797
 -1      3562    3    0    1
 -2      1757      1643      1923      2518
 -1      3563    3    0    1
 -2      1491      1474      1516      3056
 -1      3564    3    0    1
 -2      1659       951      2654      2822
 -1      3565    3    0    1
 -2      1239       126      1748      2725
 -1      3566    3    0    1
 -2      1228       108      2468      2475
 -1      3567    3    0    1
 -2       383       944      1810      1973
 -1      3568    3    0    1
 -2      1385      2279      2308      2338
 -1      3569    3    0    1
 -2      1556      1687      2288      2565
 -1      3570    3    0    1
 -2      1654      1841      2401      2490
 -1      3571    3    0    1
 -2      1735      1587      1841      2382
 -1      3572    3    0    1
 -2      1665      1563      1673      1564
 -1      3573    3    0    1
 -2      1695      1676      1887      2096
 -1      3574    3    0    1
 -2      1727      2103      2448      2462
 -1      3575    3    0    1
 -2      3072      2908      1870      2926
 -1      3576    3    0    1
 -2      1353      1103      1794      2433
 -1      3577    3    0    1
 -2      1779      1052      2086      2423
 -1      3578    3    0    1
 -2      1806      1788      1854      1900
 -1      3579    3    0    1
 -2      1920      1688      2341      2445
 -1      3580    3    0    1
 -2       329      1618      1647      2156
 -1      3581    3    0    1
 -2      1079      1727      2011      2158
 -1      3582    3    0    1
 -2       281      1094      1836      2012
 -1      3583    3    0    1
 -2      2170      2223      2524      2602
 -1      3584    3    0    1
 -2      1599      1628      1720      1733
 -1      3585    3    0    1
 -2       463       905      1337      2397
 -1      3586    3    0    1
 -2      2054      2193      2283      2417
 -1      3587    3    0    1
 -2      1657      1559      1757      1923
 -1      3588    3    0    1
 -2      1630      1656      1704      2180
 -1      3589    3    0    1
 -2       387      1529      1695      2245
 -1      3590    3    0    1
 -2      1937      1881      2056      2218
 -1      3591    3    0    1
 -2      1890      1850      1967      1994
 -1      3592    3    0    1
 -2      1402      1111      2095      2139
 -1      3593    3    0    1
 -2       121       123       982      1864
 -1      3594    3    0    1
 -2      1615      1643      1740      1757
 -1      3595    3    0    1
 -2      1851       389      2186      2194
 -1      3596    3    0    1
 -2      2033      2100      2112      2235
 -1      3597    3    0    1
 -2      1539      1773      2436      2437
 -1      3598    3    0    1
 -2      1094      1336      1836      2270
 -1      3599    3    0    1
 -2      1963       495      2357      2358
 -1      3600    3    0    1
 -2      1182       919       496      1901
 -1      3601    3    0    1
 -2      1784       380      1949      2324
 -1      3602    3    0    1
 -2      1681      1584      1885      1917
 -1      3603    3    0    1
 -2      1548      1978      2107      2412
 -1      3604    3    0    1
 -2      1719      1603      1838      2336
 -1      3605    3    0    1
 -2       988      2008      2235      2297
 -1      3606    3    0    1
 -2      1910      1847      1969      2150
 -1      3607    3    0    1
 -2      1574      1014      2162      2203
 -1      3608    3    0    1
 -2      1611      1563      1787      1835
 -1      3609    3    0    1
 -2      1533      1592      1940      2148
 -1      3610    3    0    1
 -2        30        32      1182      1901
 -1      3611    3    0    1
 -2      1674      2599      2707      2721
 -1      3612    3    0    1
 -2      1778       398      2023      2252
 -1      3613    3    0    1
 -2      1522      1536      2515      2858
 -1      3614    3    0    1
 -2       994       320      1860      2032
 -1      3615    3    0    1
 -2       955      1812      1987      2046
 -1      3616    3    0    1
 -2        79        86       957      1935
 -1      3617    3    0    1
 -2      1046       736      2380      2658
 -1      3618    3    0    1
 -2      1465      1418      3117      3012
 -1      3619    3    0    1
 -2       393       394      1194      2233
 -1      3620    3    0    1
 -2      1906      1946      2076      2298
 -1      3621    3    0    1
 -2      1644       953      1693      1763
 -1      3622    3    0    1
 -2       512       926      1609      2229
 -1      3623    3    0    1
 -2       567       955      1956      2046
 -1      3624    3    0    1
 -2      1663      1734      1789      2039
 -1      3625    3    0    1
 -2       374       284      1337      2396
 -1      3626    3    0    1
 -2      2225       543      2592      2600
 -1      3627    3    0    1
 -2        89      1810      1926      2037
 -1      3628    3    0    1
 -2      1878      1698      2073      2217
 -1      3629    3    0    1
 -2       142       988      2112      2235
 -1      3630    3    0    1
 -2       835       836      2062      2165
 -1      3631    3    0    1
 -2      1675      1565      1916      2036
 -1      3632    3    0    1
 -2      1984      1724      2087      2372
 -1      3633    3    0    1
 -2      1914      1881      2178      2218
 -1      3634    3    0    1
 -2      2023      1834      2074      2403
 -1      3635    3    0    1
 -2       558      1215       951      1659
 -1      3636    3    0    1
 -2       981       127      2174      2315
 -1      3637    3    0    1
 -2       395      1580      1691      2132
 -1      3638    3    0    1
 -2      1735       156      2465      2513
 -1      3639    3    0    1
 -2      1906      2277      2298      2305
 -1      3640    3    0    1
 -2      2123      1760      2195      2704
 -1      3641    3    0    1
 -2      1808      1558      1838      1875
 -1      3642    3    0    1
 -2      1522      1536      1928      2340
 -1      3643    3    0    1
 -2      1734      1620      2039      2341
 -1      3644    3    0    1
 -2      1678       108      2017      2566
 -1      3645    3    0    1
 -2       964       584      1948      2307
 -1      3646    3    0    1
 -2       819      1954      1992      2327
 -1      3647    3    0    1
 -2      1599      1557      1686      1818
 -1      3648    3    0    1
 -2      2587       418      2790      2860
 -1      3649    3    0    1
 -2        89       955      1810      1956
 -1      3650    3    0    1
 -2      1668      1626      1819      2003
 -1      3651    3    0    1
 -2      1148      1967       849      1994
 -1      3652    3    0    1
 -2      1955      1743      1964      2045
 -1      3653    3    0    1
 -2      1600      1779      1985      2086
 -1      3654    3    0    1
 -2      1990       778      2507      2545
 -1      3655    3    0    1
 -2       869      1389      1380      1649
 -1      3656    3    0    1
 -2      1723      1621      1799      1821
 -1      3657    3    0    1
 -2       328      1620      1734      2202
 -1      3658    3    0    1
 -2      1752      1688      2130      2421
 -1      3659    3    0    1
 -2       346       992      2578      2603
 -1      3660    3    0    1
 -2       327       309      1141      1979
 -1      3661    3    0    1
 -2      1525      1910      1969      1982
 -1      3662    3    0    1
 -2       884       865      1896      2500
 -1      3663    3    0    1
 -2      1759      1827      1838      1892
 -1      3664    3    0    1
 -2      1179        32      1962      2342
 -1      3665    3    0    1
 -2       294       395      1102      1672
 -1      3666    3    0    1
 -2      1457         1      1486      1514
 -1      3667    3    0    1
 -2      1566      1721      1943      2026
 -1      3668    3    0    1
 -2      1951      1661      2186      2415
 -1      3669    3    0    1
 -2      2139      1745      2429      2469
 -1      3670    3    0    1
 -2      1328      1073      2463      2807
 -1      3671    3    0    1
 -2       751      1055      2571      2682
 -1      3672    3    0    1
 -2       982       979      1864      2831
 -1      3673    3    0    1
 -2        86       360      1581      2049
 -1      3674    3    0    1
 -2      2094      1194      2233      2428
 -1      3675    3    0    1
 -2      2628      2650      2693      2743
 -1      3676    3    0    1
 -2      2223      1786      2264      2683
 -1      3677    3    0    1
 -2      1735      1824      2246      2513
 -1      3678    3    0    1
 -2      2052      1247      2316      2531
 -1      3679    3    0    1
 -2       567       954      1935      2019
 -1      3680    3    0    1
 -2       472       471      1912      2359
 -1      3681    3    0    1
 -2      1418      1463      1465      3117
 -1      3682    3    0    1
 -2       928       919      1893      2280
 -1      3683    3    0    1
 -2      1827      1808      1875      1899
 -1      3684    3    0    1
 -2       754      1305      1873      2376
 -1      3685    3    0    1
 -2      1946      1906      2076      2268
 -1      3686    3    0    1
 -2       332      2145      2435      2530
 -1      3687    3    0    1
 -2      2029       915      2399      2492
 -1      3688    3    0    1
 -2       711      1033      1036      2738
 -1      3689    3    0    1
 -2      1950      1841      2202      2401
 -1      3690    3    0    1
 -2       121       337      2332      2685
 -1      3691    3    0    1
 -2       389      2186      2194      2265
 -1      3692    3    0    1
 -2      2125      1867      2577      2591
 -1      3693    3    0    1
 -2       415      1711      1855      2227
 -1      3694    3    0    1
 -2      1616      1575      1850      1966
 -1      3695    3    0    1
 -2      1720      1823      2051      2110
 -1      3696    3    0    1
 -2      2093      1590      2116      2159
 -1      3697    3    0    1
 -2      1405       436       445      1821
 -1      3698    3    0    1
 -2      1838      2274      2293      2712
 -1      3699    3    0    1
 -2       953       382      1693      1763
 -1      3700    3    0    1
 -2      1352      1349      1959      2230
 -1      3701    3    0    1
 -2      1800      1606      1806      1900
 -1      3702    3    0    1
 -2       198      2650      2743      2833
 -1      3703    3    0    1
 -2       440      1364      1363      2674
 -1      3704    3    0    1
 -2       977       121      2332      2442
 -1      3705    3    0    1
 -2       178      1014      1272      1574
 -1      3706    3    0    1
 -2       320       139      1860      2032
 -1      3707    3    0    1
 -2      2471       253      2482      2607
 -1      3708    3    0    1
 -2       399      1367      1150      1835
 -1      3709    3    0    1
 -2      1105      1148      1890      1967
 -1      3710    3    0    1
 -2      1693      1628      1720      2134
 -1      3711    3    0    1
 -2       319      1388      1728      2576
 -1      3712    3    0    1
 -2      1834      2023      2074      2369
 -1      3713    3    0    1
 -2       826      1094      1988      2270
 -1      3714    3    0    1
 -2      1623      1554      1758      2177
 -1      3715    3    0    1
 -2      1534      1739      2157      2512
 -1      3716    3    0    1
 -2      1438      3080      1449      3109
 -1      3717    3    0    1
 -2      1541      2098      2105      2430
 -1      3718    3    0    1
 -2      1710      1691      1850      1890
 -1      3719    3    0    1
 -2      2231      1732      2329      2652
 -1      3720    3    0    1
 -2      1052       408      1600      1779
 -1      3721    3    0    1
 -2      1326       799      2390      2484
 -1      3722    3    0    1
 -2      1981      2765      1294       356
 -1      3723    3    0    1
 -2      1294      1981      2221      2853
 -1      3724    3    0    1
 -2      1577      2190      2453      2503
 -1      3725    3    0    1
 -2       124       127      2315      2701
 -1      3726    3    0    1
 -2       392       927      2748      2828
 -1      3727    3    0    1
 -2       823      1093      2214      2320
 -1      3728    3    0    1
 -2      1853       907      2059      2122
 -1      3729    3    0    1
 -2      1586      1922      1924      2052
 -1      3730    3    0    1
 -2      1607      1852      1985      2334
 -1      3731    3    0    1
 -2      1708      1578      1764      2068
 -1      3732    3    0    1
 -2      1978      1548      2352      2719
 -1      3733    3    0    1
 -2      1269      2166      2680      2837
 -1      3734    3    0    1
 -2      1743      1636      1797      1964
 -1      3735    3    0    1
 -2       308      1398      1125      1717
 -1      3736    3    0    1
 -2       367      1093      1879      2171
 -1      3737    3    0    1
 -2      1046       215      2538      2658
 -1      3738    3    0    1
 -2      1847      1525      1910      1969
 -1      3739    3    0    1
 -2      2241       651      2244      2782
 -1      3740    3    0    1
 -2       308      1125      1622      1717
 -1      3741    3    0    1
 -2      1863      2248      2479      2486
 -1      3742    3    0    1
 -2       915       420      1165      2399
 -1      3743    3    0    1
 -2       974       118       978      1993
 -1      3744    3    0    1
 -2      2243      1786      2645      2839
 -1      3745    3    0    1
 -2      1567      1671      2138      2737
 -1      3746    3    0    1
 -2       955       567      1812      2046
 -1      3747    3    0    1
 -2       679       678      1814      2131
 -1      3748    3    0    1
 -2       310       443      2563      2752
 -1      3749    3    0    1
 -2       372      1629      2592      2810
 -1      3750    3    0    1
 -2      2323       631      2459      2732
 -1      3751    3    0    1
 -2      1665      1563      1787      2047
 -1      3752    3    0    1
 -2      2128      1795      2567      2675
 -1      3753    3    0    1
 -2      1157      2161      2183      2350
 -1      3754    3    0    1
 -2       398      1778      2023      2369
 -1      3755    3    0    1
 -2      1216        83      1790      1880
 -1      3756    3    0    1
 -2      1337       284      1879      2396
 -1      3757    3    0    1
 -2      1842      1593      2197      2313
 -1      3758    3    0    1
 -2       926       510      1192      2181
 -1      3759    3    0    1
 -2      1548      1978      1995      2107
 -1      3760    3    0    1
 -2      1935        84      2109      2238
 -1      3761    3    0    1
 -2      1756       682      1929      1960
 -1      3762    3    0    1
 -2      1096      1783      2343      2381
 -1      3763    3    0    1
 -2      2414      1007      2457      2756
 -1      3764    3    0    1
 -2       281      2080      2121      2148
 -1      3765    3    0    1
 -2      1809       415      1855      2227
 -1      3766    3    0    1
 -2      2563      1653      2568      2752
 -1      3767    3    0    1
 -2      2082      1724      2372      2461
 -1      3768    3    0    1
 -2      2008       320      2032      2175
 -1      3769    3    0    1
 -2      1606      1932      1952      2065
 -1      3770    3    0    1
 -2      1572      1623      1697      1742
 -1      3771    3    0    1
 -2      1269       333      2460      2715
 -1      3772    3    0    1
 -2      1661      1851      1951      2420
 -1      3773    3    0    1
 -2      1562      1964      2054      2642
 -1      3774    3    0    1
 -2      1560      1724      2071      2461
 -1      3775    3    0    1
 -2       651      1261      1001      1612
 -1      3776    3    0    1
 -2        37      1726      1939      2000
 -1      3777    3    0    1
 -2      1587      1701      1768      1950
 -1      3778    3    0    1
 -2      1345       835       836      1931
 -1      3779    3    0    1
 -2       383       944      1973      2299
 -1      3780    3    0    1
 -2      1578      1753      1764      2068
 -1      3781    3    0    1
 -2      2725      1786      2838      2839
 -1      3782    3    0    1
 -2      2188       118      2436      2446
 -1      3783    3    0    1
 -2      1626      1650      1819      2003
 -1      3784    3    0    1
 -2       961      2170      2449      2501
 -1      3785    3    0    1
 -2      2213      1608      2259      2593
 -1      3786    3    0    1
 -2        83       955      1812      1987
 -1      3787    3    0    1
 -2      1853      1097      2122      2424
 -1      3788    3    0    1
 -2       387       965      2245      2249
 -1      3789    3    0    1
 -2      1053      1685      1712      1865
 -1      3790    3    0    1
 -2      1779      1607      1985      2086
 -1      3791    3    0    1
 -2       142      1934      2100      2112
 -1      3792    3    0    1
 -2      1113      1753      1889      2068
 -1      3793    3    0    1
 -2       833      1691      1710      1890
 -1      3794    3    0    1
 -2      1557      1599      1686      1733
 -1      3795    3    0    1
 -2      1977      2370      2498      2598
 -1      3796    3    0    1
 -2       867      2231      2329      2652
 -1      3797    3    0    1
 -2       104      1953      2044      2140
 -1      3798    3    0    1
 -2       284       367      1879      2375
 -1      3799    3    0    1
 -2       957       360       966      1581
 -1      3800    3    0    1
 -2      2494       419      2653      2823
 -1      3801    3    0    1
 -2      1343      2062      2088      2165
 -1      3802    3    0    1
 -2       567       544      1807      1956
 -1      3803    3    0    1
 -2       831       832      1096      2343
 -1      3804    3    0    1
 -2       798      1876      2214      2447
 -1      3805    3    0    1
 -2      1805      2117      2326      2427
 -1      3806    3    0    1
 -2      1313      1069      2198      2643
 -1      3807    3    0    1
 -2      1615      1596      1740      1745
 -1      3808    3    0    1
 -2      1008       164      2466      2485
 -1      3809    3    0    1
 -2      2449      1957      2501      2524
 -1      3810    3    0    1
 -2      1595      1619      1632      1692
 -1      3811    3    0    1
 -2      1547      1656      1704      2234
 -1      3812    3    0    1
 -2      1818      1686      2050      2574
 -1      3813    3    0    1
 -2      1564      1563      2372      2461
 -1      3814    3    0    1
 -2      2697      2889      2890      2894
 -1      3815    3    0    1
 -2      1674      2355      2671      2721
 -1      3816    3    0    1
 -2      1228       108      2140      2468
 -1      3817    3    0    1
 -2       303      1402      1111      1764
 -1      3818    3    0    1
 -2      1525      1588      1635      2493
 -1      3819    3    0    1
 -2      1842      1898      1927      2313
 -1      3820    3    0    1
 -2      2042      2364      2834      2912
 -1      3821    3    0    1
 -2       394       393       929      2363
 -1      3822    3    0    1
 -2      1774      1548      2352      2504
 -1      3823    3    0    1
 -2      1098       374      1168      1549
 -1      3824    3    0    1
 -2      1615      1643      1757      2429
 -1      3825    3    0    1
 -2       374       377      1168      1549
 -1      3826    3    0    1
 -2      2146      1736      2163      2180
 -1      3827    3    0    1
 -2      1360      1636      1717      1743
 -1      3828    3    0    1
 -2      1604      1524      2182      2637
 -1      3829    3    0    1
 -2       857      1372      2002      2154
 -1      3830    3    0    1
 -2      1660      1600      1828      1884
 -1      3831    3    0    1
 -2      1031      1279      2413      2589
 -1      3832    3    0    1
 -2      1156       307      1375      1716
 -1      3833    3    0    1
 -2       634       627       991      2316
 -1      3834    3    0    1
 -2       847      1364       848      1642
 -1      3835    3    0    1
 -2      1096       831      2255      2595
 -1      3836    3    0    1
 -2      1658      1905      1928      2069
 -1      3837    3    0    1
 -2       350      2571      2843      2847
 -1      3838    3    0    1
 -2      1684      1578      1753      1764
 -1      3839    3    0    1
 -2      1053       748      1305      1712
 -1      3840    3    0    1
 -2      1762       531      1846      1997
 -1      3841    3    0    1
 -2       688      1021      2006      2605
 -1      3842    3    0    1
 -2       404       273      1327      2142
 -1      3843    3    0    1
 -2        17       400       907      2059
 -1      3844    3    0    1
 -2      1628      1720      1733      1823
 -1      3845    3    0    1
 -2      1660      1600      1779      1985
 -1      3846    3    0    1
 -2      2582      2475      2660      2670
 -1      3847    3    0    1
 -2      1760      1738      1857      1958
 -1      3848    3    0    1
 -2      1656      1780      2209      2234
 -1      3849    3    0    1
 -2       855      1403       891      2068
 -1      3850    3    0    1
 -2      1807       567      1956      2046
 -1      3851    3    0    1
 -2       378       392      1866      2432
 -1      3852    3    0    1
 -2      1343       835      2062      2165
 -1      3853    3    0    1
 -2      1946      2241      2532      2782
 -1      3854    3    0    1
 -2      1759      1627      1827      1892
 -1      3855    3    0    1
 -2      1724      1560      2087      2372
 -1      3856    3    0    1
 -2       831       808      2255      2595
 -1      3857    3    0    1
 -2       380      1863      2479       941
 -1      3858    3    0    1
 -2       706      1281      2284      2405
 -1      3859    3    0    1
 -2       592       968      1953      2630
 -1      3860    3    0    1
 -2      2098       137      2105      2430
 -1      3861    3    0    1
 -2      1180       904      2347      2440
 -1      3862    3    0    1
 -2      1093       291      1859      2214
 -1      3863    3    0    1
 -2      1849      1579      2062      2063
 -1      3864    3    0    1
 -2      1102      1354      1672      2502
 -1      3865    3    0    1
 -2      1540      2610      2620      2668
 -1      3866    3    0    1
 -2       784      1766      2606      2807
 -1      3867    3    0    1
 -2      2259      1608      2311      2593
 -1      3868    3    0    1
 -2       712       711      1036      2738
 -1      3869    3    0    1
 -2      1364       847      1363      1642
 -1      3870    3    0    1
 -2       410       358      1059      1597
 -1      3871    3    0    1
 -2       993      1860      2395      2527
 -1      3872    3    0    1
 -2      1951      1732      2207      2458
 -1      3873    3    0    1
 -2      2028      1577      2454      2500
 -1      3874    3    0    1
 -2      1677      1155      1722      2118
 -1      3875    3    0    1
 -2      1934       142      2032      2112
 -1      3876    3    0    1
 -2      1403      1113      1889      2068
 -1      3877    3    0    1
 -2      2182      2236      2453      2526
 -1      3878    3    0    1
 -2       519       928       931      2191
 -1      3879    3    0    1
 -2      1539      1553      1656      2163
 -1      3880    3    0    1
 -2      1600      1779      2086      2423
 -1      3881    3    0    1
 -2      1841      2202      2490      2771
 -1      3882    3    0    1
 -2      1344      1343      2088      2165
 -1      3883    3    0    1
 -2      1563      1665      1673      2047
 -1      3884    3    0    1
 -2       568      1798      1812      1935
 -1      3885    3    0    1
 -2      2693      1774      2743      2833
 -1      3886    3    0    1
 -2      1096      1783      2210      2595
 -1      3887    3    0    1
 -2       358       412      1058      1597
 -1      3888    3    0    1
 -2       441       440      2487      2674
 -1      3889    3    0    1
 -2       931       520      2694      2729
 -1      3890    3    0    1
 -2      3068      1414      1459      3110
 -1      3891    3    0    1
 -2      1771      1543      1849      2063
 -1      3892    3    0    1
 -2      1628      1644      1720      2051
 -1      3893    3    0    1
 -2      1593      1565      1675      2036
 -1      3894    3    0    1
 -2      1731      2515      2855      2870
 -1      3895    3    0    1
 -2       962      1228      2044      2618
 -1      3896    3    0    1
 -2      1755      1547      1780      2066
 -1      3897    3    0    1
 -2      1389       877      1585      1649
 -1      3898    3    0    1
 -2      1808      1603      1874      2016
 -1      3899    3    0    1
 -2      1547      1591      2060      2187
 -1      3900    3    0    1
 -2      1600       408      1711      1754
 -1      3901    3    0    1
 -2       390      1104      1793      1800
 -1      3902    3    0    1
 -2       350      1055      1303      2571
 -1      3903    3    0    1
 -2       215       217      2550      2658
 -1      3904    3    0    1
 -2      1181      2494      2653      2812
 -1      3905    3    0    1
 -2      1132      2189      2240      2659
 -1      3906    3    0    1
 -2      1730      1606      1739      2157
 -1      3907    3    0    1
 -2      1585      1389      1649      2232
 -1      3908    3    0    1
 -2       323      1019      2277      2298
 -1      3909    3    0    1
 -2       246      1625      2057      2643
 -1      3910    3    0    1
 -2      2179      2200      2222      2667
 -1      3911    3    0    1
 -2       748      1712      2086      2423
 -1      3912    3    0    1
 -2       851       889      1624      2072
 -1      3913    3    0    1
 -2       519       919       928      2280
 -1      3914    3    0    1
 -2       988       627      2008      2297
 -1      3915    3    0    1
 -2      1816      1792      2097      2160
 -1      3916    3    0    1
 -2       203      2145      2405      2791
 -1      3917    3    0    1
 -2      1598      1602      1986      2176
 -1      3918    3    0    1
 -2      1823      1720      2004      2110
 -1      3919    3    0    1
 -2      2499       914      1409      1410
 -1      3920    3    0    1
 -2       976      1415      2982      3115
 -1      3921    3    0    1
 -2       213      1043      2758      2802
 -1      3922    3    0    1
 -2      1563      2082      2372      2461
 -1      3923    3    0    1
 -2      1608      2213      2486      2593
 -1      3924    3    0    1
 -2      1747      1658      1869      2069
 -1      3925    3    0    1
 -2      1695      1903      2096      2666
 -1      3926    3    0    1
 -2      1339       826      1988      2349
 -1      3927    3    0    1
 -2      1586      1744      1822      1924
 -1      3928    3    0    1
 -2       869      1388       877      1631
 -1      3929    3    0    1
 -2        12       420      1761      2399
 -1      3930    3    0    1
 -2      1703      1777      2033      2112
 -1      3931    3    0    1
 -2        10      1837      2252      2544
 -1      3932    3    0    1
 -2      1879       367      2171      2375
 -1      3933    3    0    1
 -2       926       427      2229      2256
 -1      3934    3    0    1
 -2        31       420       915      2399
 -1      3935    3    0    1
 -2       990      1248      1648      2508
 -1      3936    3    0    1
 -2       802      2142      2164      2871
 -1      3937    3    0    1
 -2      1761        31      2492      2399
 -1      3938    3    0    1
 -2      2435      1019      2751      2783
 -1      3939    3    0    1
 -2       311      1129      2231      2322
 -1      3940    3    0    1
 -2      2128       405      2197      2675
 -1      3941    3    0    1
 -2      1786      2264      2683      2725
 -1      3942    3    0    1
 -2      1795      2126      2601      2608
 -1      3943    3    0    1
 -2      2035      2164      2608      2871
 -1      3944    3    0    1
 -2       483       913      2073      2614
 -1      3945    3    0    1
 -2      1536      1522      1626      2340
 -1      3946    3    0    1
 -2      1774      1945      2247      2561
 -1      3947    3    0    1
 -2      1951      1661      2207      2604
 -1      3948    3    0    1
 -2      1227       584      2654      2920
 -1      3949    3    0    1
 -2      2120      2285      2407      2757
 -1      3950    3    0    1
 -2       415      1056      1711      2227
 -1      3951    3    0    1
 -2      2054      1681      2286      2416
 -1      3952    3    0    1
 -2      2380      1044      2656      2663
 -1      3953    3    0    1
 -2      1360      1359      1636      1743
 -1      3954    3    0    1
 -2      1350       304      1351      1958
 -1      3955    3    0    1
 -2      1213        77      1576      2178
 -1      3956    3    0    1
 -2      1782      1607      2334      2491
 -1      3957    3    0    1
 -2       857       892      1153      2154
 -1      3958    3    0    1
 -2      2137      1192      2181      2229
 -1      3959    3    0    1
 -2       429      3079      1458      1459
 -1      3960    3    0    1
 -2      1021      1033      2006      2781
 -1      3961    3    0    1
 -2      1672      1542      2038      2502
 -1      3962    3    0    1
 -2      1721      1566      1898      2026
 -1      3963    3    0    1
 -2       750      1068      1303      2540
 -1      3964    3    0    1
 -2      1933      2346      2883      2895
 -1      3965    3    0    1
 -2      1558      1808      1874      1875
 -1      3966    3    0    1
 -2      1377       865      2500      2568
 -1      3967    3    0    1
 -2      1924      2156      1744      1822
 -1      3968    3    0    1
 -2      1591      1775      1785      2060
 -1      3969    3    0    1
 -2      1785      1775      2187      2652
 -1      3970    3    0    1
 -2      1727      2158      2210      2349
 -1      3971    3    0    1
 -2      1347       837      1346      2015
 -1      3972    3    0    1
 -2      2463       255      2510      2562
 -1      3973    3    0    1
 -2      1018      1008      2466      2485
 -1      3974    3    0    1
 -2      1535      1688      1752      2421
 -1      3975    3    0    1
 -2      1796      1041      2371      2377
 -1      3976    3    0    1
 -2       838      1347      1827      2015
 -1      3977    3    0    1
 -2      1753      1820      1889      1898
 -1      3978    3    0    1
 -2      1971      1178      2655      2826
 -1      3979    3    0    1
 -2      1384      1921      2308      2688
 -1      3980    3    0    1
 -2      2023      2369      2403      2427
 -1      3981    3    0    1
 -2      1822      1641      2001      2114
 -1      3982    3    0    1
 -2        12       420       909      1761
 -1      3983    3    0    1
 -2      1720      1599      1733      2004
 -1      3984    3    0    1
 -2       139      1860      2032      2175
 -1      3985    3    0    1
 -2      1388       869      1131      1631
 -1      3986    3    0    1
 -2       664       663      1008      1776
 -1      3987    3    0    1
 -2      1082       802      2164      2278
 -1      3988    3    0    1
 -2      1658      1747      1905      2069
 -1      3989    3    0    1
 -2      1962      1179      2342      2492
 -1      3990    3    0    1
 -2      1042      1292      2550      2649
 -1      3991    3    0    1
 -2      2174       616      2527      2578
 -1      3992    3    0    1
 -2       610      2450      2838      2839
 -1      3993    3    0    1
 -2      2224      1804      2628      2650
 -1      3994    3    0    1
 -2      1034      2617      2813      2864
 -1      3995    3    0    1
 -2      1126      1706      1896      1979
 -1      3996    3    0    1
 -2      1533      1592      1614      1940
 -1      3997    3    0    1
 -2       250       248      1070      2775
 -1      3998    3    0    1
 -2       388       433      1120      1894
 -1      3999    3    0    1
 -2      1967      1767      1994      2362
 -1      4000    3    0    1
 -2      1103       841      1353      1794
 -1      4001    3    0    1
 -2      1916      1537      1925      2354
 -1      4002    3    0    1
 -2       534       536       939      2083
 -1      4003    3    0    1
 -2      2044      1228      2468      2618
 -1      4004    3    0    1
 -2      1348      1101      1862      1909
 -1      4005    3    0    1
 -2      1578      1684      1708      1764
 -1      4006    3    0    1
 -2      1407      1858      1936      2183
 -1      4007    3    0    1
 -2       335       387      1529      1639
 -1      4008    3    0    1
 -2      1832      1990      2422      2545
 -1      4009    3    0    1
 -2      1969      2150      2237      2742
 -1      4010    3    0    1
 -2       882       870      2421      2474
 -1      4011    3    0    1
 -2        31      1962      1182      1761
 -1      4012    3    0    1
 -2       159      1001      1261      2007
 -1      4013    3    0    1
 -2      1813      1326      2390      2484
 -1      4014    3    0    1
 -2      1794      1680      2333      2433
 -1      4015    3    0    1
 -2      1720      1733      1823      2004
 -1      4016    3    0    1
 -2       408       415      1754      1856
 -1      4017    3    0    1
 -2       938      1637      1973      2287
 -1      4018    3    0    1
 -2      1725      2765       730      2853
 -1      4019    3    0    1
 -2       388       433      1894      2045
 -1      4020    3    0    1
 -2       784       783      2275      2606
 -1      4021    3    0    1
 -2      1575      1650      1819      1837
 -1      4022    3    0    1
 -2       944       383      1810      1956
 -1      4023    3    0    1
 -2      1547      1755      1942      2066
 -1      4024    3    0    1
 -2      1714      1689      1754      1856
 -1      4025    3    0    1
 -2      1568      1630      1656      2209
 -1      4026    3    0    1
 -2       631      2323      2459      2508
 -1      4027    3    0    1
 -2      1044      1981      2426      2663
 -1      4028    3    0    1
 -2       831       832      2343      2424
 -1      4029    3    0    1
 -2      1885      1681      1917      1918
 -1      4030    3    0    1
 -2      1542      1658      1680      1747
 -1      4031    3    0    1
 -2      1641      1544      1822      2156
 -1      4032    3    0    1
 -2       678       679      1271      2131
 -1      4033    3    0    1
 -2       305      1387       379      1623
 -1      4034    3    0    1
 -2        18        17       908      1817
 -1      4035    3    0    1
 -2      1016       177      2466      2808
 -1      4036    3    0    1
 -2      1045      1044      2380      2663
 -1      4037    3    0    1
 -2       178       173      1014      1574
 -1      4038    3    0    1
 -2      1992      2125      2220      2291
 -1      4039    3    0    1
 -2       965       387      2245      2296
 -1      4040    3    0    1
 -2      1634      1654      2246      2401
 -1      4041    3    0    1
 -2      2388      1682      2489      2730
 -1      4042    3    0    1
 -2      1042       212      2043      2550
 -1      4043    3    0    1
 -2       159      1006      1883      1975
 -1      4044    3    0    1
 -2      1820      1566      1943      2154
 -1      4045    3    0    1
 -2       291       269      1859      2171
 -1      4046    3    0    1
 -2      2240      1535      2421      2770
 -1      4047    3    0    1
 -2       772      1066      2035      2365
 -1      4048    3    0    1
 -2      2044      1228      2140      2468
 -1      4049    3    0    1
 -2      1697      1572      1742      2123
 -1      4050    3    0    1
 -2       859       893      1723      1799
 -1      4051    3    0    1
 -2        79      1214      2049      2109
 -1      4052    3    0    1
 -2      1721      1613      1943      2025
 -1      4053    3    0    1
 -2      1744      1703      1749      1861
 -1      4054    3    0    1
 -2      1567      1803      1852      2138
 -1      4055    3    0    1
 -2       320       139       994      1860
 -1      4056    3    0    1
 -2      1679      1809      1855      2227
 -1      4057    3    0    1
 -2      1639      1529      1730      1887
 -1      4058    3    0    1
 -2      1396       309       327      1979
 -1      4059    3    0    1
 -2      3078      2762      2960      3113
 -1      4060    3    0    1
 -2      1580      1527      1691      2132
 -1      4061    3    0    1
 -2      1656      1553      1704      2163
 -1      4062    3    0    1
 -2      1850      1616      1967      1994
 -1      4063    3    0    1
 -2      1846      1651      2037      2287
 -1      4064    3    0    1
 -2      1148       849       887      1994
 -1      4065    3    0    1
 -2       543       544      2225      2383
 -1      4066    3    0    1
 -2      1632      1894      1955      2045
 -1      4067    3    0    1
 -2       726      1041      1796      2377
 -1      4068    3    0    1
 -2      1390       312      1128      2800
 -1      4069    3    0    1
 -2      1786      2223      2264      2602
 -1      4070    3    0    1
 -2      1350      1857      1868      2328
 -1      4071    3    0    1
 -2      2039      1663      2341      2445
 -1      4072    3    0    1
 -2      1738      1572      1760      2195
 -1      4073    3    0    1
 -2       846       845      1743      2045
 -1      4074    3    0    1
 -2       291       367      1095      2171
 -1      4075    3    0    1
 -2      1350      1351      1857      1958
 -1      4076    3    0    1
 -2      1949      1784      2324      2479
 -1      4077    3    0    1
 -2      1850      1616      1966      1967
 -1      4078    3    0    1
 -2      2024      2284      2285      2405
 -1      4079    3    0    1
 -2      2089      1729      2252      2361
 -1      4080    3    0    1
 -2       955        89      1810      1987
 -1      4081    3    0    1
 -2       682      1272      1929      2076
 -1      4082    3    0    1
 -2      1984      1996      2082      2372
 -1      4083    3    0    1
 -2      2593      2259      2684      2805
 -1      4084    3    0    1
 -2      1916      1596      2310      2335
 -1      4085    3    0    1
 -2      1600      1660      1828      1985
 -1      4086    3    0    1
 -2      1675      1565      1684      2335
 -1      4087    3    0    1
 -2       118      2188      2528      2597
 -1      4088    3    0    1
 -2      1593      1842      1927      2313
 -1      4089    3    0    1
 -2      2043      1042      2550      2649
 -1      4090    3    0    1
 -2      1798       568      1812      2511
 -1      4091    3    0    1
 -2      1726       917      1963      2823
 -1      4092    3    0    1
 -2      1366       438      1816      1839
 -1      4093    3    0    1
 -2      1366       434       438      1839
 -1      4094    3    0    1
 -2       903       459      2053      2790
 -1      4095    3    0    1
 -2       232      2538      2550      2571
 -1      4096    3    0    1
 -2       664       663      1776      2457
 -1      4097    3    0    1
 -2      1014      2120      2162      2203
 -1      4098    3    0    1
 -2       431       432      1808      1899
 -1      4099    3    0    1
 -2      1808       432      1875      1899
 -1      4100    3    0    1
 -2      1619       861      1692      2016
 -1      4101    3    0    1
 -2      2933      1430      3127      3075
 -1      4102    3    0    1
 -2      2073      1878      2217      2614
 -1      4103    3    0    1
 -2      1804      2628      2650      2693
 -1      4104    3    0    1
 -2      1214        79      1911      2109
 -1      4105    3    0    1
 -2      2219      1115      2410      2737
 -1      4106    3    0    1
 -2       555      1937      2218      2761
 -1      4107    3    0    1
 -2      1084      1083      2167      2581
 -1      4108    3    0    1
 -2      1860       639      2425      2527
 -1      4109    3    0    1
 -2      1667      1784      1949      2248
 -1      4110    3    0    1
 -2       866      1141      1378      1844
 -1      4111    3    0    1
 -2      2374       356      2542      2788
 -1      4112    3    0    1
 -2        85        84       954      2238
 -1      4113    3    0    1
 -2       866       880      1141      1844
 -1      4114    3    0    1
 -2      1141       880      1829      1844
 -1      4115    3    0    1
 -2      2515      1731      2779      2857
 -1      4116    3    0    1
 -2      1595      1619      2283      2417
 -1      4117    3    0    1
 -2      1690      1575      1710      1850
 -1      4118    3    0    1
 -2      1969      1910      2150      2742
 -1      4119    3    0    1
 -2      1976      1543      2093      2116
 -1      4120    3    0    1
 -2       858      1385       875      2279
 -1      4121    3    0    1
 -2       358      1053      1305      1865
 -1      4122    3    0    1
 -2       836      1931      2062      2165
 -1      4123    3    0    1
 -2      1775      1942      2060      2187
 -1      4124    3    0    1
 -2       418       903      2587      2790
 -1      4125    3    0    1
 -2      1643      1757      2429      2473
 -1      4126    3    0    1
 -2      1691      1690      1710      1850
 -1      4127    3    0    1
 -2      2391        62      2691      2832
 -1      4128    3    0    1
 -2      1867      1992      2125      2577
 -1      4129    3    0    1
 -2      1616      1690      1691      1850
 -1      4130    3    0    1
 -2      1863       380      2479      2324
 -1      4131    3    0    1
 -2       380      1802      1949      2324
 -1      4132    3    0    1
 -2       341       342      2353      2869
 -1      4133    3    0    1
 -2       366        67      1629      2695
 -1      4134    3    0    1
 -2       558      1659      2654      2705
 -1      4135    3    0    1
 -2      1592      2103      2216      2583
 -1      4136    3    0    1
 -2      2117      1805      2326      2327
 -1      4137    3    0    1
 -2      1721      1943      2002      2154
 -1      4138    3    0    1
 -2      1834      1561      1947      2074
 -1      4139    3    0    1
 -2        83      1790      1880      1987
 -1      4140    3    0    1
 -2      1167       400      2059      2591
 -1      4141    3    0    1
 -2      1791      1888      1976      2088
 -1      4142    3    0    1
 -2      1601      1976      2093      2116
 -1      4143    3    0    1
 -2      2728      1582      2746      2749
 -1      4144    3    0    1
 -2      1261      1883      2007      2033
 -1      4145    3    0    1
 -2      1017      1941      1950      1960
 -1      4146    3    0    1
 -2      1596      1615      1740      2310
 -1      4147    3    0    1
 -2      2048      1732      2231      2652
 -1      4148    3    0    1
 -2      2463      1073      2562      2807
 -1      4149    3    0    1
 -2      1616      1967      1994      2362
 -1      4150    3    0    1
 -2       840       839      1868      1959
 -1      4151    3    0    1
 -2      1564      1563      1598      1996
 -1      4152    3    0    1
 -2       961       335       965      2296
 -1      4153    3    0    1
 -2       862      1375      1811      1915
 -1      4154    3    0    1
 -2       862      1156      1375      1915
 -1      4155    3    0    1
 -2      1939       918      2552      2586
 -1      4156    3    0    1
 -2      1705      1541      2232      2444
 -1      4157    3    0    1
 -2      1783      2210      2595      2793
 -1      4158    3    0    1
 -2      1614      1610      1670      2070
 -1      4159    3    0    1
 -2       682      1768      1929      1960
 -1      4160    3    0    1
 -2      1588      1635      2493      2811
 -1      4161    3    0    1
 -2      1826      2108      2065      2143
 -1      4162    3    0    1
 -2      1681      1917      1918      2286
 -1      4163    3    0    1
 -2      1803      1852      2057      2334
 -1      4164    3    0    1
 -2      2156      1744      1822      2260
 -1      4165    3    0    1
 -2      1770      1930      2487      2768
 -1      4166    3    0    1
 -2       378      2272      2432      2755
 -1      4167    3    0    1
 -2      1641      1589      2001      2114
 -1      4168    3    0    1
 -2      1550      1676      1695      2416
 -1      4169    3    0    1
 -2      1760      1572      2123      2195
 -1      4170    3    0    1
 -2       346       138       992      2640
 -1      4171    3    0    1
 -2      1015      1280      2242      2301
 -1      4172    3    0    1
 -2      1738      1857      1958      2328
 -1      4173    3    0    1
 -2       603       974       978      1993
 -1      4174    3    0    1
 -2       382      1693      1763      2135
 -1      4175    3    0    1
 -2      2063      1641      2067      2114
 -1      4176    3    0    1
 -2       838      1827      1862      2081
 -1      4177    3    0    1
 -2       883       872      1702      2825
 -1      4178    3    0    1
 -2      1653      2190      2620      2668
 -1      4179    3    0    1
 -2       269       369      1325      1859
 -1      4180    3    0    1
 -2      1648       990      2508      2640
 -1      4181    3    0    1
 -2      1093       269      1325      1859
 -1      4182    3    0    1
 -2      1717      1398      1788      2512
 -1      4183    3    0    1
 -2       687       664      2485      2533
 -1      4184    3    0    1
 -2       291       269      1093      1859
 -1      4185    3    0    1
 -2      1934      2033      2100      2112
 -1      4186    3    0    1
 -2      2748       378      2754      2755
 -1      4187    3    0    1
 -2      1804      2547      2628      2693
 -1      4188    3    0    1
 -2      2202      2401      2490      2734
 -1      4189    3    0    1
 -2       822       463      1337      2397
 -1      4190    3    0    1
 -2      1658      1747      1869      2333
 -1      4191    3    0    1
 -2       145       139      1250      2175
 -1      4192    3    0    1
 -2       320       988      1250      2175
 -1      4193    3    0    1
 -2       988       320      2008      2175
 -1      4194    3    0    1
 -2      1869      1640      1913      2333
 -1      4195    3    0    1
 -2      1814       679      2131      2434
 -1      4196    3    0    1
 -2       979      1965      2685      2831
 -1      4197    3    0    1
 -2      1953       591      2258      2714
 -1      4198    3    0    1
 -2       380      1802      1815      1949
 -1      4199    3    0    1
 -2      1658      1680      1747      2333
 -1      4200    3    0    1
 -2      1543      1771      1849      1976
 -1      4201    3    0    1
 -2      1828      1567      1871      2411
 -1      4202    3    0    1
 -2      1690      1650      1966      2089
 -1      4203    3    0    1
 -2      2277       323      2305      2529
 -1      4204    3    0    1
 -2        62      1802      2391      2574
 -1      4205    3    0    1
 -2       832      1097      2343      2424
 -1      4206    3    0    1
 -2      2012      1094      2104      2148
 -1      4207    3    0    1
 -2       994       142      1934      2100
 -1      4208    3    0    1
 -2        65        68      1204      2778
 -1      4209    3    0    1
 -2      1706       884      1896      2500
 -1      4210    3    0    1
 -2      1921      1638      2398      2688
 -1      4211    3    0    1
 -2      1610      1614      1670      2085
 -1      4212    3    0    1
 -2       433      1361      1894      2045
 -1      4213    3    0    1
 -2       104       967      1953      2017
 -1      4214    3    0    1
 -2      1594      1652      1824      2513
 -1      4215    3    0    1
 -2      1827      1808      1838      1875
 -1      4216    3    0    1
 -2       290      2151      2343      2750
 -1      4217    3    0    1
 -2      1601      1791      1888      1976
 -1      4218    3    0    1
 -2       463       822      1765      2397
 -1      4219    3    0    1
 -2      2028      1577      2453      2454
 -1      4220    3    0    1
 -2       413      2612      2633      2861
 -1      4221    3    0    1
 -2       823       798      1080      1876
 -1      4222    3    0    1
 -2      1727      1339      1988      2349
 -1      4223    3    0    1
 -2       823      1080      1338      1876
 -1      4224    3    0    1
 -2      1684      1578      1708      1902
 -1      4225    3    0    1
 -2      1877      2051      2110      2594
 -1      4226    3    0    1
 -2      1644      1720      2051      2594
 -1      4227    3    0    1
 -2      2054      1918      2193      2286
 -1      4228    3    0    1
 -2      1817       908      1963      2359
 -1      4229    3    0    1
 -2      1641      1589      1647      2001
 -1      4230    3    0    1
 -2      1606      1788      1900      2157
 -1      4231    3    0    1
 -2      1633       329      1647      2001
 -1      4232    3    0    1
 -2      1280       703      2242      2301
 -1      4233    3    0    1
 -2       220      1040      1970      2488
 -1      4234    3    0    1
 -2      1573      2098      2159      2430
 -1      4235    3    0    1
 -2      1807       544      2312      2383
 -1      4236    3    0    1
 -2       419       917      1726      2823
 -1      4237    3    0    1
 -2      1558      1838      1875      1892
 -1      4238    3    0    1
 -2      1933      2895      2931      3084
 -1      4239    3    0    1
 -2      2535      1028      2637      2818
 -1      4240    3    0    1
 -2       965      2245      2249      2670
 -1      4241    3    0    1
 -2        79        86      1935      2109
 -1      4242    3    0    1
 -2      2090      1995      2107      2549
 -1      4243    3    0    1
 -2      3088      2885      3093      3114
 -1      4244    3    0    1
 -2       640       995      2055      2840
 -1      4245    3    0    1
 -2       651      1000      2184      2244
 -1      4246    3    0    1
 -2      2186      2194      2265      2266
 -1      4247    3    0    1
 -2      1724      1984      2121      2372
 -1      4248    3    0    1
 -2      1107       850      1665      2047
 -1      4249    3    0    1
 -2       850      1400       888      2047
 -1      4250    3    0    1
 -2      1676      1550      1695      1887
 -1      4251    3    0    1
 -2       863      1157      1376      2161
 -1      4252    3    0    1
 -2      1639      1531      1676      1887
 -1      4253    3    0    1
 -2      1590      1601      1666      1888
 -1      4254    3    0    1
 -2       217       215      1046      2658
 -1      4255    3    0    1
 -2       871      1391      1382      1888
 -1      4256    3    0    1
 -2      1391      1601      1791      1888
 -1      4257    3    0    1
 -2      1391       871       879      1888
 -1      4258    3    0    1
 -2      1391       879      1601      1888
 -1      4259    3    0    1
 -2      1098      1549      2375      2396
 -1      4260    3    0    1
 -2       437       406      1113      1889
 -1      4261    3    0    1
 -2      1113      1753      1820      1889
 -1      4262    3    0    1
 -2       437      1113      1820      1889
 -1      4263    3    0    1
 -2       295      1342      1850      1890
 -1      4264    3    0    1
 -2       833      1342      1099      1890
 -1      4265    3    0    1
 -2      1148       295      1105      1890
 -1      4266    3    0    1
 -2      1105       295      1850      1890
 -1      4267    3    0    1
 -2      1342      1710      1850      1890
 -1      4268    3    0    1
 -2      1342       833       834      1890
 -1      4269    3    0    1
 -2      1342       834      1710      1890
 -1      4270    3    0    1
 -2      1718      1621      1871      1895
 -1      4271    3    0    1
 -2      1689      1718      1884      1895
 -1      4272    3    0    1
 -2       388      1120      1146      1894
 -1      4273    3    0    1
 -2      1120      1619      1692      1894
 -1      4274    3    0    1
 -2      1849      1579      2063      2114
 -1      4275    3    0    1
 -2       124       980       981      2701
 -1      4276    3    0    1
 -2      1705      1630      2209      2234
 -1      4277    3    0    1
 -2      1589      1641      2063      2114
 -1      4278    3    0    1
 -2       748      1052      1712      2423
 -1      4279    3    0    1
 -2      1228       104      2044      2140
 -1      4280    3    0    1
 -2      1722      1799      1821      1919
 -1      4281    3    0    1
 -2      2279      2308      2226      1117
 -1      4282    3    0    1
 -2      1862      1909      2081      2141
 -1      4283    3    0    1
 -2      1573       137      2098      2430
 -1      4284    3    0    1
 -2      1565      1675      1684      1902
 -1      4285    3    0    1
 -2      1067      1813      2979      3110
 -1      4286    3    0    1
 -2      1402       853      1111      2139
 -1      4287    3    0    1
 -2       919       423       928      1893
 -1      4288    3    0    1
 -2      1917      1719      1918      2281
 -1      4289    3    0    1
 -2       423        52       928      1893
 -1      4290    3    0    1
 -2      1876      1338      2320      2400
 -1      4291    3    0    1
 -2      1338      1092      2320      2400
 -1      4292    3    0    1
 -2      1007       664      2414      2457
 -1      4293    3    0    1
 -2      1706      1694      2452      2455
 -1      4294    3    0    1
 -2      1396       865      1126      1896
 -1      4295    3    0    1
 -2       663       664      1007      2457
 -1      4296    3    0    1
 -2       865      1396       884      1896
 -1      4297    3    0    1
 -2       884      1396      1706      1896
 -1      4298    3    0    1
 -2      1548      1995      2276      2504
 -1      4299    3    0    1
 -2      1069      1990      2057      2491
 -1      4300    3    0    1
 -2      1867      1954      2117      2327
 -1      4301    3    0    1
 -2      2517       706      2624      2625
 -1      4302    3    0    1
 -2       974       118      1993      2446
 -1      4303    3    0    1
 -2       164       355      1259      1897
 -1      4304    3    0    1
 -2      1653      1577      2028      2752
 -1      4305    3    0    1
 -2      1916      1565      2335      2354
 -1      4306    3    0    1
 -2      1540      2453      2526      2668
 -1      4307    3    0    1
 -2       145       139      2175      2395
 -1      4308    3    0    1
 -2      1671      2025      2138      2737
 -1      4309    3    0    1
 -2       538      2030      2295      2495
 -1      4310    3    0    1
 -2        32       919      1182      1901
 -1      4311    3    0    1
 -2       994       640      1006      2055
 -1      4312    3    0    1
 -2      1652      1634      1824      2246
 -1      4313    3    0    1
 -2       382       953      1693      1938
 -1      4314    3    0    1
 -2      1788      1900      2157      2512
 -1      4315    3    0    1
 -2      1034       711      2738      2864
 -1      4316    3    0    1
 -2       384       385       950      1904
 -1      4317    3    0    1
 -2       463       462       905      2402
 -1      4318    3    0    1
 -2      1599      1557      1818      2204
 -1      4319    3    0    1
 -2      1304       751      1796      2682
 -1      4320    3    0    1
 -2      2294      2395      2634      2827
 -1      4321    3    0    1
 -2      1809      1679      1855      1961
 -1      4322    3    0    1
 -2       955      1810      1956      1987
 -1      4323    3    0    1
 -2      2179      1552      2200      2667
 -1      4324    3    0    1
 -2      1722      1621      2337      2713
 -1      4325    3    0    1
 -2      1838      1759      1892      2274
 -1      4326    3    0    1
 -2       703       702      1031      2589
 -1      4327    3    0    1
 -2       627       634      2222      2316
 -1      4328    3    0    1
 -2      1602      1598      1673      1947
 -1      4329    3    0    1
 -2        83        89       955      1987
 -1      4330    3    0    1
 -2      2454      2028      2500      2568
 -1      4331    3    0    1
 -2      1561      1767      1830      1947
 -1      4332    3    0    1
 -2      1810      1807      1956      1987
 -1      4333    3    0    1
 -2      1759      1583      1892      2274
 -1      4334    3    0    1
 -2      1693      1938      2134      2274
 -1      4335    3    0    1
 -2       311      1139      1129      2322
 -1      4336    3    0    1
 -2      2248      1569      2479      2486
 -1      4337    3    0    1
 -2      2164      2126      2278      2608
 -1      4338    3    0    1
 -2       507       514      2657      2830
 -1      4339    3    0    1
 -2      1044       735       736      2380
 -1      4340    3    0    1
 -2       862       895      1915      1936
 -1      4341    3    0    1
 -2      1772      1579      1931      2084
 -1      4342    3    0    1
 -2      1559      1757      1923      2518
 -1      4343    3    0    1
 -2      1647      1641      2001      2156
 -1      4344    3    0    1
 -2      2070      1670      2071      2768
 -1      4345    3    0    1
 -2      2262      1789      2412      2719
 -1      4346    3    0    1
 -2       862      1407       895      1936
 -1      4347    3    0    1
 -2      1866      1737      2432      2754
 -1      4348    3    0    1
 -2      1525      1910      2227      2493
 -1      4349    3    0    1
 -2      1905       396      2069      2690
 -1      4350    3    0    1
 -2      1686      1733      1818      2050
 -1      4351    3    0    1
 -2      1002      1271      2131      2239
 -1      4352    3    0    1
 -2      1667      1784      1840      1949
 -1      4353    3    0    1
 -2      1701      1768      1960      2268
 -1      4354    3    0    1
 -2      1583      1759      2141      2331
 -1      4355    3    0    1
 -2        89      1810      1880      1926
 -1      4356    3    0    1
 -2       924       507      2205      2311
 -1      4357    3    0    1
 -2      1216        89      1880      1926
 -1      4358    3    0    1
 -2      1802        62      1815      2574
 -1      4359    3    0    1
 -2      1654      1735      2246      2401
 -1      4360    3    0    1
 -2      1751      2226      2279      2338
 -1      4361    3    0    1
 -2        77      1885      1914      1917
 -1      4362    3    0    1
 -2       253      2471      2482      2646
 -1      4363    3    0    1
 -2      2308      2279      2226      2338
 -1      4364    3    0    1
 -2      2274       382      2293      2712
 -1      4365    3    0    1
 -2      1155      1677      1722      1919
 -1      4366    3    0    1
 -2      1934      1006      1975      2055
 -1      4367    3    0    1
 -2       663      1776      1975      2055
 -1      4368    3    0    1
 -2       544       944      1807      1956
 -1      4369    3    0    1
 -2      2069      1869      2392      2690
 -1      4370    3    0    1
 -2      1888      1601      1976      2093
 -1      4371    3    0    1
 -2       445      1722      1821      1919
 -1      4372    3    0    1
 -2       445       436      1155      1919
 -1      4373    3    0    1
 -2       445      1155      1722      1919
 -1      4374    3    0    1
 -2      1823      1762      2110      2691
 -1      4375    3    0    1
 -2       401      2469      2473      2665
 -1      4376    3    0    1
 -2      1747      1640      1869      2333
 -1      4377    3    0    1
 -2       106       964      1226      2309
 -1      4378    3    0    1
 -2      1259       164      1897      2434
 -1      4379    3    0    1
 -2      1525      1910      1982      2227
 -1      4380    3    0    1
 -2      1568      2098      2105      2444
 -1      4381    3    0    1
 -2      1226       964      1948      2309
 -1      4382    3    0    1
 -2      1271      1015      2131      2689
 -1      4383    3    0    1
 -2      1567      1723      1871      2411
 -1      4384    3    0    1
 -2       459      1164      2553      2790
 -1      4385    3    0    1
 -2      1788      1806      1854      2021
 -1      4386    3    0    1
 -2      1132      1394      2189      2659
 -1      4387    3    0    1
 -2        12        14       905      2009
 -1      4388    3    0    1
 -2       864      1788      1854      2021
 -1      4389    3    0    1
 -2      1608      1998      2152      2495
 -1      4390    3    0    1
 -2      1608      2152      2259      2311
 -1      4391    3    0    1
 -2      2151      1091      2349      2522
 -1      4392    3    0    1
 -2      1735      2246      2382      2393
 -1      4393    3    0    1
 -2       213      2556      2785      2861
 -1      4394    3    0    1
 -2      1092       822       823      2320
 -1      4395    3    0    1
 -2      1810      1872      1880      1926
 -1      4396    3    0    1
 -2      1566      1889      1898      1927
 -1      4397    3    0    1
 -2      2213      2248      2486      2525
 -1      4398    3    0    1
 -2      1578      1753      1889      1927
 -1      4399    3    0    1
 -2      1889      1753      1898      1927
 -1      4400    3    0    1
 -2      2100       142      2112      2235
 -1      4401    3    0    1
 -2       246      1069      2057      2491
 -1      4402    3    0    1
 -2       974      1993      2436      2446
 -1      4403    3    0    1
 -2      1679      1525      2227      2493
 -1      4404    3    0    1
 -2      2187      1775      2329      2652
 -1      4405    3    0    1
 -2      1583      1825      2134      2331
 -1      4406    3    0    1
 -2      1714      1809      1855      1961
 -1      4407    3    0    1
 -2       832       471      2122      2596
 -1      4408    3    0    1
 -2       808      1084      2167      2255
 -1      4409    3    0    1
 -2      1995      2090      2276      2464
 -1      4410    3    0    1
 -2       608       582      2387      2615
 -1      4411    3    0    1
 -2      1802      1815      1949      2481
 -1      4412    3    0    1
 -2        36       913      2000      2073
 -1      4413    3    0    1
 -2      2053       459      2058      2553
 -1      4414    3    0    1
 -2      1791      1771      1849      2062
 -1      4415    3    0    1
 -2      1898      1842      1927      2102
 -1      4416    3    0    1
 -2      1361       846      1955      2045
 -1      4417    3    0    1
 -2      1778      1837      2252      2361
 -1      4418    3    0    1
 -2      1783       402      2210      2349
 -1      4419    3    0    1
 -2      2117      1805      2369      2427
 -1      4420    3    0    1
 -2      1411      1435      1437      3111
 -1      4421    3    0    1
 -2      1006      1934      1975      2100
 -1      4422    3    0    1
 -2      1006       994      2055      2100
 -1      4423    3    0    1
 -2      1934       994      2055      2092
 -1      4424    3    0    1
 -2      2144      2289      2389      2489
 -1      4425    3    0    1
 -2      2304      1657      2519      2648
 -1      4426    3    0    1
 -2       664      1776      2414      2457
 -1      4427    3    0    1
 -2       335       961      2449      2501
 -1      4428    3    0    1
 -2      2141      1909      2204      2441
 -1      4429    3    0    1
 -2      1759      2141      2331      2441
 -1      4430    3    0    1
 -2      1984      1940      2121      2148
 -1      4431    3    0    1
 -2       567       957       568      1935
 -1      4432    3    0    1
 -2      1291      2119      2150      2792
 -1      4433    3    0    1
 -2      1535      2202      2490      2734
 -1      4434    3    0    1
 -2       895      1407      1858      1936
 -1      4435    3    0    1
 -2       895      1858      1915      1936
 -1      4436    3    0    1
 -2      1598      1986      1996      2082
 -1      4437    3    0    1
 -2       369      1859      2678      2849
 -1      4438    3    0    1
 -2      1875      1827      1899      2015
 -1      4439    3    0    1
 -2       385       950      1904      1937
 -1      4440    3    0    1
 -2      1984      1996      2080      2082
 -1      4441    3    0    1
 -2       496       495      1901      1939
 -1      4442    3    0    1
 -2       495       496       918      1939
 -1      4443    3    0    1
 -2      1182      1761      1901      2358
 -1      4444    3    0    1
 -2       917       495       918      1939
 -1      4445    3    0    1
 -2        34        37      1726      1939
 -1      4446    3    0    1
 -2        37        34       917      1939
 -1      4447    3    0    1
 -2       917        34      1726      1939
 -1      4448    3    0    1
 -2       978       389      2194      2265
 -1      4449    3    0    1
 -2      1903      2286      2416      2642
 -1      4450    3    0    1
 -2      1676      1903      2416      2642
 -1      4451    3    0    1
 -2      1563      1611      1624      2461
 -1      4452    3    0    1
 -2       976      1249      2616      2732
 -1      4453    3    0    1
 -2      1681      1584      1917      2286
 -1      4454    3    0    1
 -2      1603      1719      1918      2336
 -1      4455    3    0    1
 -2      1073       255      2463      2562
 -1      4456    3    0    1
 -2      1694      1570      1844      1944
 -1      4457    3    0    1
 -2      1570      1694      1706      1944
 -1      4458    3    0    1
 -2      1981       356      2374      2765
 -1      4459    3    0    1
 -2      2101      2061      2253      2744
 -1      4460    3    0    1
 -2      2239      1424      3073      3119
 -1      4461    3    0    1
 -2      2910      3068      3077      3079
 -1      4462    3    0    1
 -2      2374      2478      2786      2853
 -1      4463    3    0    1
 -2      1725      2478      2765      2853
 -1      4464    3    0    1
 -2      2089      1729      2361      2362
 -1      4465    3    0    1
 -2      1694      1570      2456      2561
 -1      4466    3    0    1
 -2       118      1773      2188      2436
 -1      4467    3    0    1
 -2      1651      1644      2051      2594
 -1      4468    3    0    1
 -2      1729      2361      2362      2700
 -1      4469    3    0    1
 -2      1702      1634      2639      2659
 -1      4470    3    0    1
 -2       678      1814      2131      2242
 -1      4471    3    0    1
 -2      1598      1561      1673      1947
 -1      4472    3    0    1
 -2      2186      1851      2266      2420
 -1      4473    3    0    1
 -2       687      1018      2394      2533
 -1      4474    3    0    1
 -2      1917      1885      1918      2336
 -1      4475    3    0    1
 -2       964       584      1226      1948
 -1      4476    3    0    1
 -2      1918      1917      2281      2286
 -1      4477    3    0    1
 -2      1959      1352      2230      2355
 -1      4478    3    0    1
 -2      1556      1687      2389      2692
 -1      4479    3    0    1
 -2      1783      1096      2255      2595
 -1      4480    3    0    1
 -2      1945       198      2561      2833
 -1      4481    3    0    1
 -2      2144      1869      2389      2289
 -1      4482    3    0    1
 -2       520       543      2345      2600
 -1      4483    3    0    1
 -2      1745      2095      2139      2429
 -1      4484    3    0    1
 -2       420        31      1761      2399
 -1      4485    3    0    1
 -2      1818      1733      2004      2050
 -1      4486    3    0    1
 -2      1606      1534      1900      1952
 -1      4487    3    0    1
 -2      1793      1606      1800      1952
 -1      4488    3    0    1
 -2      1400      1107      1665      2047
 -1      4489    3    0    1
 -2      1650      1575      1690      1966
 -1      4490    3    0    1
 -2       783      1071      1974      2740
 -1      4491    3    0    1
 -2       783       760      1070      2740
 -1      4492    3    0    1
 -2      1633      1594      1647      2465
 -1      4493    3    0    1
 -2      1767      1830      1994      2362
 -1      4494    3    0    1
 -2       967       591       968      1953
 -1      4495    3    0    1
 -2       177       174      2605      2808
 -1      4496    3    0    1
 -2      1584      1681      1885      2018
 -1      4497    3    0    1
 -2       107       104       967      1953
 -1      4498    3    0    1
 -2      1636      1562      1743      2045
 -1      4499    3    0    1
 -2      1894      1361      1955      2045
 -1      4500    3    0    1
 -2      1673      1816       850      1602
 -1      4501    3    0    1
 -2       846      1743      1955      2045
 -1      4502    3    0    1
 -2      1673       850      1839      2047
 -1      4503    3    0    1
 -2      1361       845       846      2045
 -1      4504    3    0    1
 -2      1587      1735      1841      2246
 -1      4505    3    0    1
 -2       845      1361      1358      2045
 -1      4506    3    0    1
 -2      1632       388      1894      2045
 -1      4507    3    0    1
 -2       388      1361       433      2045
 -1      4508    3    0    1
 -2      1925      1916      2036      2212
 -1      4509    3    0    1
 -2       630       631       989      2459
 -1      4510    3    0    1
 -2      1562      1632      1955      2045
 -1      4511    3    0    1
 -2      1523      1932      1952      1957
 -1      4512    3    0    1
 -2      1534      1739      1801      1957
 -1      4513    3    0    1
 -2      1534      1801      1952      1957
 -1      4514    3    0    1
 -2      1801      1523      1952      1957
 -1      4515    3    0    1
 -2      1970      2237      2488      2661
 -1      4516    3    0    1
 -2      1946      1906      2241      2251
 -1      4517    3    0    1
 -2      2048      1732      2207      2231
 -1      4518    3    0    1
 -2      1961      1664      2228      2356
 -1      4519    3    0    1
 -2      1352       839       840      1959
 -1      4520    3    0    1
 -2        34       419      1726      2653
 -1      4521    3    0    1
 -2       839      1352      1349      1959
 -1      4522    3    0    1
 -2      2548       736      2766      2824
 -1      4523    3    0    1
 -2      1732      1999      2207      2231
 -1      4524    3    0    1
 -2       682      1017      1768      1960
 -1      4525    3    0    1
 -2      1855      1754      1856      1961
 -1      4526    3    0    1
 -2      1714      1855      1856      1961
 -1      4527    3    0    1
 -2      1754      1714      1856      1961
 -1      4528    3    0    1
 -2       495      1182      1901      2358
 -1      4529    3    0    1
 -2       495      1901      2357      2358
 -1      4530    3    0    1
 -2       854      1112      2196      2257
 -1      4531    3    0    1
 -2      1760      1738      1958      2257
 -1      4532    3    0    1
 -2      1192       926      2181      2229
 -1      4533    3    0    1
 -2       512      1609      2181      2229
 -1      4534    3    0    1
 -2      1760      2172      2196      2257
 -1      4535    3    0    1
 -2       427        52       926      2229
 -1      4536    3    0    1
 -2       926       512      2181      2229
 -1      4537    3    0    1
 -2        32       919      1901      1962
 -1      4538    3    0    1
 -2       919        32      1893      1962
 -1      4539    3    0    1
 -2      1182        30      1901      1962
 -1      4540    3    0    1
 -2      1761      1182      1901      1962
 -1      4541    3    0    1
 -2      1293      1041       727      2377
 -1      4542    3    0    1
 -2      1995      2464      2504      2536
 -1      4543    3    0    1
 -2      1548      2412      1789      2719
 -1      4544    3    0    1
 -2       395      1672      2038      2502
 -1      4545    3    0    1
 -2      1667      1569      2248      2525
 -1      4546    3    0    1
 -2       337       347      2332      2685
 -1      4547    3    0    1
 -2      1399       887      2097      2384
 -1      4548    3    0    1
 -2       337       121       979      2685
 -1      4549    3    0    1
 -2       981      2174      2634      2686
 -1      4550    3    0    1
 -2      1650      1966      2089      2361
 -1      4551    3    0    1
 -2       127       124       981      2701
 -1      4552    3    0    1
 -2      1324      2216      2583      2817
 -1      4553    3    0    1
 -2       937       941      1863      2832
 -1      4554    3    0    1
 -2       961       579      2170      2296
 -1      4555    3    0    1
 -2      1573      2116      2159      2619
 -1      4556    3    0    1
 -2        62       937      2691      2832
 -1      4557    3    0    1
 -2      2174      2395      2634      2686
 -1      4558    3    0    1
 -2      2113      1891      2169      2363
 -1      4559    3    0    1
 -2      1352      1349      2230      2355
 -1      4560    3    0    1
 -2      1043       730      2119      2551
 -1      4561    3    0    1
 -2       872      1395       883      2621
 -1      4562    3    0    1
 -2       994       640      2055      2092
 -1      4563    3    0    1
 -2      2061      2418      2622      2672
 -1      4564    3    0    1
 -2      1314       255      2510      2543
 -1      4565    3    0    1
 -2       941       937      1863      1997
 -1      4566    3    0    1
 -2       640       994      1860      2092
 -1      4567    3    0    1
 -2      2198      1069      2507      2643
 -1      4568    3    0    1
 -2      1700      2473      2518      2665
 -1      4569    3    0    1
 -2      1713       466      2591      2326
 -1      4570    3    0    1
 -2       221       212      1295      2043
 -1      4571    3    0    1
 -2      2899      2724      2923      3091
 -1      4572    3    0    1
 -2       334       356      1044      1981
 -1      4573    3    0    1
 -2       367      1095      2171      2375
 -1      4574    3    0    1
 -2      1634      1654      1824      2246
 -1      4575    3    0    1
 -2      1543      2116      2505      2619
 -1      4576    3    0    1
 -2      1886      1544      2505      2619
 -1      4577    3    0    1
 -2      1831      1851      1932      2266
 -1      4578    3    0    1
 -2      1769      2374      2478      2786
 -1      4579    3    0    1
 -2       104       962      1228      2044
 -1      4580    3    0    1
 -2      1883       161      2273      2457
 -1      4581    3    0    1
 -2      2370      1983      2697      2835
 -1      4582    3    0    1
 -2      1836       281      2012      2080
 -1      4583    3    0    1
 -2      2966      1315       774      3006
 -1      4584    3    0    1
 -2       373      1083      2570      2797
 -1      4585    3    0    1
 -2      2053      1167      2059      2366
 -1      4586    3    0    1
 -2       459       466      2053      2058
 -1      4587    3    0    1
 -2      1836       282      1986      2367
 -1      4588    3    0    1
 -2      1542      1658      1747      2330
 -1      4589    3    0    1
 -2      1662      2013      2118      2282
 -1      4590    3    0    1
 -2      2697      2042      2834      2890
 -1      4591    3    0    1
 -2      2284       706      2517      2625
 -1      4592    3    0    1
 -2      1829      1774      2247      2276
 -1      4593    3    0    1
 -2      1844      1829      2247      2276
 -1      4594    3    0    1
 -2      1059       783      1071      1974
 -1      4595    3    0    1
 -2       384        83      1812      2511
 -1      4596    3    0    1
 -2      2182      1604      2679      2736
 -1      4597    3    0    1
 -2       760       783      1059      1974
 -1      4598    3    0    1
 -2      1566      2026      2250      2313
 -1      4599    3    0    1
 -2      1822      1544      2067      2505
 -1      4600    3    0    1
 -2      3105       370      3106      3020
 -1      4601    3    0    1
 -2       751      1055      1796      2571
 -1      4602    3    0    1
 -2       282      1836      1986      1996
 -1      4603    3    0    1
 -2       356      1044      2426      2542
 -1      4604    3    0    1
 -2       282       281      1836      1996
 -1      4605    3    0    1
 -2      1829      1570      1844      2247
 -1      4606    3    0    1
 -2       389       978      1993      2265
 -1      4607    3    0    1
 -2      1671      2219      2410      2737
 -1      4608    3    0    1
 -2       402       287      1339      2381
 -1      4609    3    0    1
 -2       287       402      1096      2381
 -1      4610    3    0    1
 -2      1339      2151      2349      2381
 -1      4611    3    0    1
 -2       905      2009      2396      2397
 -1      4612    3    0    1
 -2       639       640      1860      2425
 -1      4613    3    0    1
 -2      2151       292      2220      2750
 -1      4614    3    0    1
 -2       519       496       919      2280
 -1      4615    3    0    1
 -2      1031      1270      2242      2589
 -1      4616    3    0    1
 -2      2225        65      2406      2778
 -1      4617    3    0    1
 -2       356       334      1294      1981
 -1      4618    3    0    1
 -2      1567      1671      1828      1985
 -1      4619    3    0    1
 -2      1607      1660      1779      1985
 -1      4620    3    0    1
 -2      1567      1607      1852      1985
 -1      4621    3    0    1
 -2      1607      1567      1660      1985
 -1      4622    3    0    1
 -2       937       531      1762      1997
 -1      4623    3    0    1
 -2      1664      1662      1677      2118
 -1      4624    3    0    1
 -2       137       136      2098      2105
 -1      4625    3    0    1
 -2      1250       988      2008      2175
 -1      4626    3    0    1
 -2       992       138      2425      2640
 -1      4627    3    0    1
 -2       181       177      1018      2466
 -1      4628    3    0    1
 -2      1639      1531      1887      2206
 -1      4629    3    0    1
 -2       495       917      2215      2357
 -1      4630    3    0    1
 -2      2059       400      2577      2591
 -1      4631    3    0    1
 -2      2506      1983      2835      2894
 -1      4632    3    0    1
 -2       121      2332      2442      2685
 -1      4633    3    0    1
 -2       608       977      2615      2708
 -1      4634    3    0    1
 -2       917      1963      2215      2357
 -1      4635    3    0    1
 -2      1603      1595      1619      2283
 -1      4636    3    0    1
 -2        10       398       906      1989
 -1      4637    3    0    1
 -2      2319       282      2367      2559
 -1      4638    3    0    1
 -2      1923      1559      2518      2519
 -1      4639    3    0    1
 -2      1755      1547      1942      2187
 -1      4640    3    0    1
 -2       610       603       978      1993
 -1      4641    3    0    1
 -2      1953       968      2799      2804
 -1      4642    3    0    1
 -2      1656      2146      2163      2180
 -1      4643    3    0    1
 -2      1247       991       627      2316
 -1      4644    3    0    1
 -2      1879       284      2375      2396
 -1      4645    3    0    1
 -2       292       290      1097      2750
 -1      4646    3    0    1
 -2       138       990      1648      2640
 -1      4647    3    0    1
 -2      1591      1547      1755      2187
 -1      4648    3    0    1
 -2       118       389       978      1993
 -1      4649    3    0    1
 -2      1630      2105      2146      2180
 -1      4650    3    0    1
 -2      2374      1981      2765      2853
 -1      4651    3    0    1
 -2       713       204      2983      3031
 -1      4652    3    0    1
 -2      1337      1093       822      2320
 -1      4653    3    0    1
 -2      1881      2056      2218      2523
 -1      4654    3    0    1
 -2      1533      1940      1984      2148
 -1      4655    3    0    1
 -2      2039      1789      2107      2412
 -1      4656    3    0    1
 -2       938      1204      1637      1997
 -1      4657    3    0    1
 -2      1204       938       538      1997
 -1      4658    3    0    1
 -2      1953       104      2017      2140
 -1      4659    3    0    1
 -2      1723       859      1799      2031
 -1      4660    3    0    1
 -2      1596      1708      1764      2095
 -1      4661    3    0    1
 -2      1809      1525      1982      2227
 -1      4662    3    0    1
 -2      1531      1676      1887      2206
 -1      4663    3    0    1
 -2       908       472      1963      2359
 -1      4664    3    0    1
 -2       831      1096      2255      2343
 -1      4665    3    0    1
 -2       428       426      3087      3095
 -1      4666    3    0    1
 -2      1536      1905      1928      2330
 -1      4667    3    0    1
 -2      1654      2240      2490      2734
 -1      4668    3    0    1
 -2       802       795      1082      2516
 -1      4669    3    0    1
 -2      1373       859      1723      2031
 -1      4670    3    0    1
 -2      1620      1789      2039      2412
 -1      4671    3    0    1
 -2      1730      1639      1887      2206
 -1      4672    3    0    1
 -2      2030      1998      2295      2495
 -1      4673    3    0    1
 -2      2044       962      2618      2629
 -1      4674    3    0    1
 -2       968       107      1953      2799
 -1      4675    3    0    1
 -2      1139       311       331      2322
 -1      4676    3    0    1
 -2        37        36       913      2000
 -1      4677    3    0    1
 -2       292      1853      2125      2220
 -1      4678    3    0    1
 -2       334      1044      2638      2663
 -1      4679    3    0    1
 -2      1650      1837      1966      2361
 -1      4680    3    0    1
 -2        53      2152      2534      2613
 -1      4681    3    0    1
 -2      2117      1713      2326      2427
 -1      4682    3    0    1
 -2      1683      1811      1858      2155
 -1      4683    3    0    1
 -2      1640      1913      2267      2389
 -1      4684    3    0    1
 -2      1640      1869      1913      2389
 -1      4685    3    0    1
 -2      1628       953      1644      2051
 -1      4686    3    0    1
 -2      1628      1720      1823      2051
 -1      4687    3    0    1
 -2      1067       774      1315      2390
 -1      4688    3    0    1
 -2      1593      1675      1842      2197
 -1      4689    3    0    1
 -2       410       409      1053      2005
 -1      4690    3    0    1
 -2      1053       409      1991      2005
 -1      4691    3    0    1
 -2      2401      1654      2490      2734
 -1      4692    3    0    1
 -2      1817       418      2575      2798
 -1      4693    3    0    1
 -2      2395       139       993       145
 -1      4694    3    0    1
 -2      2289      1869      2389      2687
 -1      4695    3    0    1
 -2      2066      1773      2437      2528
 -1      4696    3    0    1
 -2      2439      1907      2470      2496
 -1      4697    3    0    1
 -2      1568      1630      2105      2146
 -1      4698    3    0    1
 -2      1707      1721      1943      2025
 -1      4699    3    0    1
 -2      1556      2389      2565      2687
 -1      4700    3    0    1
 -2      2389      1869      2565      2687
 -1      4701    3    0    1
 -2      1072      2263      2509      2606
 -1      4702    3    0    1
 -2       443      1653      2563      2752
 -1      4703    3    0    1
 -2      1028       191      1032      2558
 -1      4704    3    0    1
 -2      1072      2263      2606      2635
 -1      4705    3    0    1
 -2      1922      2052      2297      2316
 -1      4706    3    0    1
 -2      1630      1568      1656      2146
 -1      4707    3    0    1
 -2      1020       332      2435      2530
 -1      4708    3    0    1
 -2       688       711      1034      2006
 -1      4709    3    0    1
 -2       711       688      1021      2006
 -1      4710    3    0    1
 -2      1020       688      1034      2006
 -1      4711    3    0    1
 -2       711      1021      1033      2006
 -1      4712    3    0    1
 -2      2098      1568      2105      2146
 -1      4713    3    0    1
 -2      1608      2213      2295      2486
 -1      4714    3    0    1
 -2      1882       703      2242      2589
 -1      4715    3    0    1
 -2        77      1576      2135      2467
 -1      4716    3    0    1
 -2      1805      1834      2117      2369
 -1      4717    3    0    1
 -2       320       142       988      2008
 -1      4718    3    0    1
 -2      1765       822      2320      2397
 -1      4719    3    0    1
 -2      1337       905      2396      2397
 -1      4720    3    0    1
 -2      2294      2747      2763      2842
 -1      4721    3    0    1
 -2      1723      1671      2411      1567
 -1      4722    3    0    1
 -2      1834      2023      2369      2403
 -1      4723    3    0    1
 -2        14       377       905      2009
 -1      4724    3    0    1
 -2      1612       658      1861      2184
 -1      4725    3    0    1
 -2      1851      1530      1932      2420
 -1      4726    3    0    1
 -2       651       658      1612      2184
 -1      4727    3    0    1
 -2       137      1573      2098      2149
 -1      4728    3    0    1
 -2      1817       471      1912      2122
 -1      4729    3    0    1
 -2      1397      1808      1874      2016
 -1      4730    3    0    1
 -2      1397      1121      1808      2016
 -1      4731    3    0    1
 -2      1692       885      1874      2016
 -1      4732    3    0    1
 -2      1397       861      1121      2016
 -1      4733    3    0    1
 -2       885      1397      1874      2016
 -1      4734    3    0    1
 -2       861      1397       885      2016
 -1      4735    3    0    1
 -2       967       956      1798      2017
 -1      4736    3    0    1
 -2      1798       956      1904      2017
 -1      4737    3    0    1
 -2      1030      2077      1420      2924
 -1      4738    3    0    1
 -2       845      1636      1743      2045
 -1      4739    3    0    1
 -2      1562      1955      1964      2045
 -1      4740    3    0    1
 -2      1361       388      1358      2045
 -1      4741    3    0    1
 -2        68        65      2514      2778
 -1      4742    3    0    1
 -2      1193       925      2181      2636
 -1      4743    3    0    1
 -2       357      2426      2542      2788
 -1      4744    3    0    1
 -2      1584      1885      1914      2018
 -1      4745    3    0    1
 -2       944      1807      2299      2383
 -1      4746    3    0    1
 -2      1827      1627      1862      2081
 -1      4747    3    0    1
 -2       544       567      1807      2019
 -1      4748    3    0    1
 -2       567       945       954      2019
 -1      4749    3    0    1
 -2      1313       405      2643      2821
 -1      4750    3    0    1
 -2       567       544       945      2019
 -1      4751    3    0    1
 -2       886       864      1854      2021
 -1      4752    3    0    1
 -2       300       390      1800      2021
 -1      4753    3    0    1
 -2      1147       300      1124      2021
 -1      4754    3    0    1
 -2       864      1147      1124      2021
 -1      4755    3    0    1
 -2      1800      1147      1854      2021
 -1      4756    3    0    1
 -2       300      1147       390      2021
 -1      4757    3    0    1
 -2      1147       864       886      2021
 -1      4758    3    0    1
 -2      1147       886      1854      2021
 -1      4759    3    0    1
 -2       390      1147      1800      2021
 -1      4760    3    0    1
 -2      1561      2074      2403      2404
 -1      4761    3    0    1
 -2       894      1155      1677      2118
 -1      4762    3    0    1
 -2      1538      1664      1677      2118
 -1      4763    3    0    1
 -2      1830      1767      2097      2160
 -1      4764    3    0    1
 -2      1894      1632      1955      2417
 -1      4765    3    0    1
 -2       302      1151       401      2469
 -1      4766    3    0    1
 -2       213      1043      1291      2758
 -1      4767    3    0    1
 -2      1067      1315      2261      2390
 -1      4768    3    0    1
 -2      1988      1727      2448      2462
 -1      4769    3    0    1
 -2      1001       651      1612      2251
 -1      4770    3    0    1
 -2       178      1574      2305      2783
 -1      4771    3    0    1
 -2       178      1019      2435      2783
 -1      4772    3    0    1
 -2      1552      1773      2476      2641
 -1      4773    3    0    1
 -2      2075      2024      2285      2757
 -1      4774    3    0    1
 -2      1540      2526      2610      2668
 -1      4775    3    0    1
 -2      1019      2529      2751      2783
 -1      4776    3    0    1
 -2      1098       374      1549      2396
 -1      4777    3    0    1
 -2       284       374      2375      2396
 -1      4778    3    0    1
 -2       420        12      1165      2399
 -1      4779    3    0    1
 -2      1014      1272      1574      2162
 -1      4780    3    0    1
 -2       675       682      1272      2162
 -1      4781    3    0    1
 -2       682       675      1756      2162
 -1      4782    3    0    1
 -2      1542      1658      2330      2564
 -1      4783    3    0    1
 -2      1750      1157      2161      2183
 -1      4784    3    0    1
 -2      1723      2031      2219      2410
 -1      4785    3    0    1
 -2      2248      1569      2486      2525
 -1      4786    3    0    1
 -2      1577      2409      2454      2455
 -1      4787    3    0    1
 -2      1936      1858      2010      2183
 -1      4788    3    0    1
 -2      1056      1809      1982      2227
 -1      4789    3    0    1
 -2       675      1014      2120      2162
 -1      4790    3    0    1
 -2       292      2151      1091       290
 -1      4791    3    0    1
 -2      1542      1672      2038      2292
 -1      4792    3    0    1
 -2      1411      1054      1437      3027
 -1      4793    3    0    1
 -2      1799      1723      2031      2411
 -1      4794    3    0    1
 -2      1621      1718      1871      2411
 -1      4795    3    0    1
 -2      1718      1828      1871      2411
 -1      4796    3    0    1
 -2      1723      1621      1871      2411
 -1      4797    3    0    1
 -2      2489      1682      2662      2826
 -1      4798    3    0    1
 -2       472       909      2358      2702
 -1      4799    3    0    1
 -2        37        36      2000      2552
 -1      4800    3    0    1
 -2       321      1261      1777      2033
 -1      4801    3    0    1
 -2       220      1970      2638      2764
 -1      4802    3    0    1
 -2       712      1036      2572      2844
 -1      4803    3    0    1
 -2      1145      1377      2500      2568
 -1      4804    3    0    1
 -2      1801      1957      2449      2524
 -1      4805    3    0    1
 -2      1803       246      2026      2057
 -1      4806    3    0    1
 -2       837      1348      1101      2081
 -1      4807    3    0    1
 -2       281      1094      2012      2148
 -1      4808    3    0    1
 -2       823       822      1093      2320
 -1      4809    3    0    1
 -2       853      1402       890      2139
 -1      4810    3    0    1
 -2      1846      1810      1973      2037
 -1      4811    3    0    1
 -2      1810      1846      1872      2037
 -1      4812    3    0    1
 -2      1357       843       844      2040
 -1      4813    3    0    1
 -2       843      1826      1999      2040
 -1      4814    3    0    1
 -2       843      1357      1104      2040
 -1      4815    3    0    1
 -2       843      1104      1826      2040
 -1      4816    3    0    1
 -2      1579      1772      2064      2084
 -1      4817    3    0    1
 -2      1589      1579      2064      2084
 -1      4818    3    0    1
 -2      1545      1589      2064      2084
 -1      4819    3    0    1
 -2      1995      1978      2090      2107
 -1      4820    3    0    1
 -2       913       483      2073      2217
 -1      4821    3    0    1
 -2      1041      1304      1796      2371
 -1      4822    3    0    1
 -2       486       914      1193      2499
 -1      4823    3    0    1
 -2      1239      2725      2838      2839
 -1      4824    3    0    1
 -2       244       371      1066      2365
 -1      4825    3    0    1
 -2      1713       466      2058      2366
 -1      4826    3    0    1
 -2      1530      1661      1951      2604
 -1      4827    3    0    1
 -2      1008       664      1776      2414
 -1      4828    3    0    1
 -2      2151       287      2343      2381
 -1      4829    3    0    1
 -2      1937      2178      2218      2761
 -1      4830    3    0    1
 -2      1085      2111      2344      2678
 -1      4831    3    0    1
 -2      1291      1043      2119      2551
 -1      4832    3    0    1
 -2      2728       392      2748      2828
 -1      4833    3    0    1
 -2       688       687      1018      2394
 -1      4834    3    0    1
 -2      2225       944      2299      2383
 -1      4835    3    0    1
 -2       402      1339      2349      2381
 -1      4836    3    0    1
 -2      1096       402      1783      2381
 -1      4837    3    0    1
 -2       712      1036      1295      2572
 -1      4838    3    0    1
 -2      2111      1095      2171      2678
 -1      4839    3    0    1
 -2       687      2394      2529      2533
 -1      4840    3    0    1
 -2      1443      1431      1452      3036
 -1      4841    3    0    1
 -2      1019       687      2529      2533
 -1      4842    3    0    1
 -2       118       389      1993      2415
 -1      4843    3    0    1
 -2       287      1096      2343      2381
 -1      4844    3    0    1
 -2      1339       287      2151      2381
 -1      4845    3    0    1
 -2       255       268      2463      2543
 -1      4846    3    0    1
 -2       250       234      1068      2540
 -1      4847    3    0    1
 -2       212       221      1042      2043
 -1      4848    3    0    1
 -2      1528      2379      2498      2585
 -1      4849    3    0    1
 -2      1409      1421      3120      3057
 -1      4850    3    0    1
 -2      1066      1316      2483      2573
 -1      4851    3    0    1
 -2      1783       402      2349      2381
 -1      4852    3    0    1
 -2        86        79      2049      2109
 -1      4853    3    0    1
 -2       978      2243      2265      2645
 -1      4854    3    0    1
 -2      2255      1783      2595      2793
 -1      4855    3    0    1
 -2       853      2139      2429      2469
 -1      4856    3    0    1
 -2      1204       425      1998      2495
 -1      4857    3    0    1
 -2      1537      1925      2354      2521
 -1      4858    3    0    1
 -2      1021      2006      2605      2781
 -1      4859    3    0    1
 -2      1473      3104      3113      3119
 -1      4860    3    0    1
 -2      1619      1603      1874      2497
 -1      4861    3    0    1
 -2      1784      1781      1949      2481
 -1      4862    3    0    1
 -2      1781      1554      2351      2481
 -1      4863    3    0    1
 -2       538      1204      2030      2495
 -1      4864    3    0    1
 -2      1204      1998      2030      2495
 -1      4865    3    0    1
 -2       459       466      1167      2053
 -1      4866    3    0    1
 -2       312       319      1728      2576
 -1      4867    3    0    1
 -2      1728      1631      2060      2576
 -1      4868    3    0    1
 -2      1867      1713      1992      2577
 -1      4869    3    0    1
 -2      2125      1992      2220      2577
 -1      4870    3    0    1
 -2      1773      2188      2436      2437
 -1      4871    3    0    1
 -2       332      2145      2530      2554
 -1      4872    3    0    1
 -2      2253      1135      2621      2744
 -1      4873    3    0    1
 -2      1775      1390      1785      2576
 -1      4874    3    0    1
 -2      1531      1622      1739      2512
 -1      4875    3    0    1
 -2      1238       976      2616      2950
 -1      4876    3    0    1
 -2       281      1836      1996      2080
 -1      4877    3    0    1
 -2      1614      1617      2304      2583
 -1      4878    3    0    1
 -2      1348       837       838      2081
 -1      4879    3    0    1
 -2      1983      2042      2697      2889
 -1      4880    3    0    1
 -2      1348       838      1862      2081
 -1      4881    3    0    1
 -2      1713      1867      2117      2326
 -1      4882    3    0    1
 -2      1344       835      1343      2165
 -1      4883    3    0    1
 -2      2773      2494      2779      2857
 -1      4884    3    0    1
 -2       400        17      1167      2059
 -1      4885    3    0    1
 -2       835      1344       836      2165
 -1      4886    3    0    1
 -2      2224      2628      2772      2815
 -1      4887    3    0    1
 -2      1069       246      2057      2643
 -1      4888    3    0    1
 -2      1578      1842      1902      2102
 -1      4889    3    0    1
 -2      1842      1578      1927      2102
 -1      4890    3    0    1
 -2      2182      2236      2526      2580
 -1      4891    3    0    1
 -2       202       201      2584      2590
 -1      4892    3    0    1
 -2      1753      1898      1927      2102
 -1      4893    3    0    1
 -2       297       318      2321      2408
 -1      4894    3    0    1
 -2      1594      1545      1633      2064
 -1      4895    3    0    1
 -2      1633      1589      1647      2064
 -1      4896    3    0    1
 -2      1594      1633      1647      2064
 -1      4897    3    0    1
 -2      1579      1772      2063      2064
 -1      4898    3    0    1
 -2      1589      1579      2063      2064
 -1      4899    3    0    1
 -2      1670      1614      1940      2085
 -1      4900    3    0    1
 -2      1545      1589      1633      2064
 -1      4901    3    0    1
 -2      1793      1530      1826      2065
 -1      4902    3    0    1
 -2      1793      1826      2040      2065
 -1      4903    3    0    1
 -2        84        79      1935      2109
 -1      4904    3    0    1
 -2      2029       487      2492      2546
 -1      4905    3    0    1
 -2        79        84      1911      2109
 -1      4906    3    0    1
 -2      1530      1800      1952      2065
 -1      4907    3    0    1
 -2      1214      1911      2049      2109
 -1      4908    3    0    1
 -2      1553      1656      1704      2066
 -1      4909    3    0    1
 -2      1656      1547      2066      1780
 -1      4910    3    0    1
 -2      1656      1539      1755      2066
 -1      4911    3    0    1
 -2      1656      1755      1780      2066
 -1      4912    3    0    1
 -2      2364      2373      2696      2698
 -1      4913    3    0    1
 -2      1544      1641      1822      2067
 -1      4914    3    0    1
 -2      1656      1547      1780      2234
 -1      4915    3    0    1
 -2       855       891      1152      2068
 -1      4916    3    0    1
 -2      1113       855      1753      2068
 -1      4917    3    0    1
 -2      1403       855      1113      2068
 -1      4918    3    0    1
 -2       855      1152      1370      2068
 -1      4919    3    0    1
 -2       855      1370      1764      2068
 -1      4920    3    0    1
 -2      1629       366      2695      2706
 -1      4921    3    0    1
 -2       938       531      1637      2287
 -1      4922    3    0    1
 -2      1642      1363      2254      2674
 -1      4923    3    0    1
 -2      1930      1624      2071      2072
 -1      4924    3    0    1
 -2      1670      1940      2070      2071
 -1      4925    3    0    1
 -2      1791      1771      2062      2088
 -1      4926    3    0    1
 -2      1611      1560      1930      2071
 -1      4927    3    0    1
 -2      1611      1624      1930      2072
 -1      4928    3    0    1
 -2      1611       851      1624      2072
 -1      4929    3    0    1
 -2      1108       851      1930      2072
 -1      4930    3    0    1
 -2      1401       851      1108      2072
 -1      4931    3    0    1
 -2       851      1401       889      2072
 -1      4932    3    0    1
 -2       851      1611      1930      2072
 -1      4933    3    0    1
 -2      1551      2099      2346      2385
 -1      4934    3    0    1
 -2       498      3032      3055      3056
 -1      4935    3    0    1
 -2      1721      1820      1943      2154
 -1      4936    3    0    1
 -2       857      1153      1372      2154
 -1      4937    3    0    1
 -2      1213      1914      2178      2218
 -1      4938    3    0    1
 -2      1194      1698      2428      2846
 -1      4939    3    0    1
 -2      1059      1974      2005      2555
 -1      4940    3    0    1
 -2       136      1736      2105      2146
 -1      4941    3    0    1
 -2       883      1702      2168      2825
 -1      4942    3    0    1
 -2       281      2080      2082      2121
 -1      4943    3    0    1
 -2      1239       603       610      2450
 -1      4944    3    0    1
 -2      1537      1916      1925      2212
 -1      4945    3    0    1
 -2      1028      1032      2517      2558
 -1      4946    3    0    1
 -2      1151       302      1110      2469
 -1      4947    3    0    1
 -2      2245      1903      2249      2666
 -1      4948    3    0    1
 -2      1055      1292      1796      2571
 -1      4949    3    0    1
 -2      1940      1724      2087      2121
 -1      4950    3    0    1
 -2      2080      1984      2082      2121
 -1      4951    3    0    1
 -2      1984      1940      2087      2121
 -1      4952    3    0    1
 -2       543       544       943      2225
 -1      4953    3    0    1
 -2      1736      2098      2105      2146
 -1      4954    3    0    1
 -2      1736       137      2098      2149
 -1      4955    3    0    1
 -2      1566      1898      2026      2313
 -1      4956    3    0    1
 -2       191       198      1032      2558
 -1      4957    3    0    1
 -2      1984      2082      2121      2372
 -1      4958    3    0    1
 -2      3114      3088      1489      1490
 -1      4959    3    0    1
 -2      3070      2905      2999      3127
 -1      4960    3    0    1
 -2      1853      1097      2424      2750
 -1      4961    3    0    1
 -2      1864       979      2685      2831
 -1      4962    3    0    1
 -2       750       775      2540      2726
 -1      4963    3    0    1
 -2       760      1060      2740      2856
 -1      4964    3    0    1
 -2      1194       507       514      2657
 -1      4965    3    0    1
 -2      1942      1547      2060      2187
 -1      4966    3    0    1
 -2      1978      1548      1995      2276
 -1      4967    3    0    1
 -2      1674      1687      2288      2692
 -1      4968    3    0    1
 -2       925      1193      3055      3057
 -1      4969    3    0    1
 -2      2035      2079      2365      2859
 -1      4970    3    0    1
 -2      1304      1796      2371      2682
 -1      4971    3    0    1
 -2      2108      1826      2065      2040
 -1      4972    3    0    1
 -2      1613      2154      2219      2737
 -1      4973    3    0    1
 -2       819      1336      2270      2319
 -1      4974    3    0    1
 -2      1592      1533      2012      2148
 -1      4975    3    0    1
 -2      2080      2012      2121      2148
 -1      4976    3    0    1
 -2       866      1844      2464      2536
 -1      4977    3    0    1
 -2      1567      1671      2025      2138
 -1      4978    3    0    1
 -2      1191       507      2684      2830
 -1      4979    3    0    1
 -2       953      1213      2467      2761
 -1      4980    3    0    1
 -2       281      2012      2080      2148
 -1      4981    3    0    1
 -2      1028       191      2535      2637
 -1      4982    3    0    1
 -2      1540      2190      2453      2668
 -1      4983    3    0    1
 -2       296       316      1382      2088
 -1      4984    3    0    1
 -2      1344       296      1791      2088
 -1      4985    3    0    1
 -2      1343       296      1344      2088
 -1      4986    3    0    1
 -2       296      1391      1791      2088
 -1      4987    3    0    1
 -2       296      1382      1391      2088
 -1      4988    3    0    1
 -2      1891       393      2480      2745
 -1      4989    3    0    1
 -2      2168      2253      2621      2622
 -1      4990    3    0    1
 -2      1631      1591      2060      2209
 -1      4991    3    0    1
 -2      2535      2637      2679      2681
 -1      4992    3    0    1
 -2      1591      1631      1728      2209
 -1      4993    3    0    1
 -2      1630      1568      1705      2209
 -1      4994    3    0    1
 -2      1826      1999      2040      2108
 -1      4995    3    0    1
 -2      2677      2456      2679      2736
 -1      4996    3    0    1
 -2      1631      1585      1649      2209
 -1      4997    3    0    1
 -2      1988       826      2270      2349
 -1      4998    3    0    1
 -2      1066       371      2035      2365
 -1      4999    3    0    1
 -2       772      2035      2079      2365
 -1      5000    3    0    1
 -2      2628      1804      2772      2836
 -1      5001    3    0    1
 -2       268       267      2463      2543
 -1      5002    3    0    1
 -2       918       496      2169      2586
 -1      5003    3    0    1
 -2      2129      1532      2325      2368
 -1      5004    3    0    1
 -2      2370      1983      2378      2379
 -1      5005    3    0    1
 -2      1713      1867      1954      2117
 -1      5006    3    0    1
 -2       212       217      1046      2658
 -1      5007    3    0    1
 -2      1636      1622      1743      2206
 -1      5008    3    0    1
 -2      1591      1547      2060      2234
 -1      5009    3    0    1
 -2      1676      1550      1887      2206
 -1      5010    3    0    1
 -2      1531      1730      1739      2206
 -1      5011    3    0    1
 -2      1550      1636      1743      2206
 -1      5012    3    0    1
 -2       927       507      1191      2094
 -1      5013    3    0    1
 -2       890       853      2139      2429
 -1      5014    3    0    1
 -2      1643      1615      1745      2429
 -1      5015    3    0    1
 -2      1591      2060      2209      2234
 -1      5016    3    0    1
 -2      1745      1615      2095      2429
 -1      5017    3    0    1
 -2      1399       849      1106      2097
 -1      5018    3    0    1
 -2       849      1399       887      2097
 -1      5019    3    0    1
 -2      1635      1847      1910      2150
 -1      5020    3    0    1
 -2       954        84      1935      2238
 -1      5021    3    0    1
 -2      1052      1779      2086      2106
 -1      5022    3    0    1
 -2       748      1685      1991      2106
 -1      5023    3    0    1
 -2      2108      1999      2207      2604
 -1      5024    3    0    1
 -2      1685       748      2086      2106
 -1      5025    3    0    1
 -2       865      1145      1377      2500
 -1      5026    3    0    1
 -2       321      1975      2033      2100
 -1      5027    3    0    1
 -2      1777       321      2033      2100
 -1      5028    3    0    1
 -2      1536      1522      2873      2875
 -1      5029    3    0    1
 -2      1975      1934      2033      2100
 -1      5030    3    0    1
 -2       418       903      2575      2587
 -1      5031    3    0    1
 -2       751       750      1055      2682
 -1      5032    3    0    1
 -2      1547      1591      1780      2234
 -1      5033    3    0    1
 -2      1727      1079      2011      2103
 -1      5034    3    0    1
 -2      1638      1555      2351      2481
 -1      5035    3    0    1
 -2      1698      1878      1971      2217
 -1      5036    3    0    1
 -2      1617      1614      2085      2583
 -1      5037    3    0    1
 -2      1339      1727      1988      2104
 -1      5038    3    0    1
 -2       826      1339      1988      2104
 -1      5039    3    0    1
 -2      1568      1630      1705      2105
 -1      5040    3    0    1
 -2       866       880      1844      2536
 -1      5041    3    0    1
 -2      1853       292      2125      2431
 -1      5042    3    0    1
 -2       400       907      1853      2431
 -1      5043    3    0    1
 -2      1097       292      1853      2431
 -1      5044    3    0    1
 -2      1685      1832      1991      2106
 -1      5045    3    0    1
 -2      1052       748      2086      2423
 -1      5046    3    0    1
 -2      1052       408      1711      2423
 -1      5047    3    0    1
 -2       408      1600      1711      2423
 -1      5048    3    0    1
 -2      1762      1651      1877      2594
 -1      5049    3    0    1
 -2      3078      2911      3104      3113
 -1      5050    3    0    1
 -2      1789      1663      2039      2107
 -1      5051    3    0    1
 -2      1379      1142      2537      2549
 -1      5052    3    0    1
 -2      1663      2208      2302      2445
 -1      5053    3    0    1
 -2      2394      1018      2485      2533
 -1      5054    3    0    1
 -2      1007      1019      2529      2533
 -1      5055    3    0    1
 -2      1813      1067      2261      2390
 -1      5056    3    0    1
 -2      1581        86      2049      2109
 -1      5057    3    0    1
 -2        86      1581      1935      2109
 -1      5058    3    0    1
 -2      1823      1762      1877      2110
 -1      5059    3    0    1
 -2      1640      1747      1869      2392
 -1      5060    3    0    1
 -2      2650      2693      2743      2833
 -1      5061    3    0    1
 -2      1823      1877      2051      2110
 -1      5062    3    0    1
 -2      1818      2439      2470      2496
 -1      5063    3    0    1
 -2       413      1588      2612      2627
 -1      5064    3    0    1
 -2      2176      2022      2367      2794
 -1      5065    3    0    1
 -2      2061      2101      2253      2622
 -1      5066    3    0    1
 -2      1363      1364      2254      2674
 -1      5067    3    0    1
 -2      2167       808      2255      2344
 -1      5068    3    0    1
 -2      1751      1715      2226      2439
 -1      5069    3    0    1
 -2      1646       754      1873      2376
 -1      5070    3    0    1
 -2      1623      1697      1699      2172
 -1      5071    3    0    1
 -2      1623      1572      1697      2172
 -1      5072    3    0    1
 -2      1986      1598      2176      2794
 -1      5073    3    0    1
 -2      1750       896      2620      2722
 -1      5074    3    0    1
 -2       831       808      1095      2111
 -1      5075    3    0    1
 -2       808      1085      1095      2111
 -1      5076    3    0    1
 -2      2142      1079      2516      2623
 -1      5077    3    0    1
 -2       282      1986      2367      2794
 -1      5078    3    0    1
 -2      1269      1017      1756      2460
 -1      5079    3    0    1
 -2      2469      1643      2473      2665
 -1      5080    3    0    1
 -2       333       328      1017      2460
 -1      5081    3    0    1
 -2      1748       126      2718      2725
 -1      5082    3    0    1
 -2      2018      2249      2582      2660
 -1      5083    3    0    1
 -2      1685      1832      2106      2422
 -1      5084    3    0    1
 -2      1866       378      2432      2755
 -1      5085    3    0    1
 -2      1911       560      2307      2705
 -1      5086    3    0    1
 -2      1735       156      2246      2393
 -1      5087    3    0    1
 -2      1700      1746      2473      2665
 -1      5088    3    0    1
 -2      1795      2278      2608      2796
 -1      5089    3    0    1
 -2       655       989      1260      2115
 -1      5090    3    0    1
 -2       126       336      2718      2725
 -1      5091    3    0    1
 -2       655       630       989      2115
 -1      5092    3    0    1
 -2      2683      2264      2718      2725
 -1      5093    3    0    1
 -2      1580       395      1672      2132
 -1      5094    3    0    1
 -2      1663      1734      2039      2341
 -1      5095    3    0    1
 -2      1772      2064      2084      2418
 -1      5096    3    0    1
 -2      1594      1545      2064      2418
 -1      5097    3    0    1
 -2      1250       988       634      2222
 -1      5098    3    0    1
 -2      2468       586      2475      2670
 -1      5099    3    0    1
 -2       730       724      1043      2119
 -1      5100    3    0    1
 -2      1291      1043       724      2119
 -1      5101    3    0    1
 -2      2035       772      2079      2567
 -1      5102    3    0    1
 -2       988      1250      2008      2222
 -1      5103    3    0    1
 -2      1857      1532      1868      2328
 -1      5104    3    0    1
 -2      1939        37      2000      2552
 -1      5105    3    0    1
 -2      1325      1081      2447      2543
 -1      5106    3    0    1
 -2      1394      1132      2189      2421
 -1      5107    3    0    1
 -2      2000        36      2073      2552
 -1      5108    3    0    1
 -2      1879      1337      2396      2397
 -1      5109    3    0    1
 -2       630      1248      2560      2769
 -1      5110    3    0    1
 -2      1410      2499      2915      3087
 -1      5111    3    0    1
 -2       832       471       907      2122
 -1      5112    3    0    1
 -2       832       907      1097      2122
 -1      5113    3    0    1
 -2       863      1408       896      2722
 -1      5114    3    0    1
 -2      1477      1433      1505      3063
 -1      5115    3    0    1
 -2       543       943      2345      2600
 -1      5116    3    0    1
 -2       631      1249      2459      2732
 -1      5117    3    0    1
 -2       141       995      2425      2727
 -1      5118    3    0    1
 -2      2345       943      2406      2600
 -1      5119    3    0    1
 -2      3077      2921      1440      2997
 -1      5120    3    0    1
 -2       204      1283      2948      2983
 -1      5121    3    0    1
 -2      2477      1269      2680      2837
 -1      5122    3    0    1
 -2       937      1863      1997      2832
 -1      5123    3    0    1
 -2      1668      2330      2340      2795
 -1      5124    3    0    1
 -2      2421      1688      2474      2770
 -1      5125    3    0    1
 -2       282      1836      2319      2367
 -1      5126    3    0    1
 -2      1581        86      1935      2339
 -1      5127    3    0    1
 -2      1740      1615      1757      2780
 -1      5128    3    0    1
 -2      1795      1925      2036      2126
 -1      5129    3    0    1
 -2      1697      1972      2123      2127
 -1      5130    3    0    1
 -2      2916      3072      1456      2996
 -1      5131    3    0    1
 -2      2471       407      2483      2646
 -1      5132    3    0    1
 -2      1831      1523      1851      2266
 -1      5133    3    0    1
 -2      2570      2787      2859      2871
 -1      5134    3    0    1
 -2       631       990      2323      2508
 -1      5135    3    0    1
 -2      1896      2454      2500      2568
 -1      5136    3    0    1
 -2       865      1896      2500      2568
 -1      5137    3    0    1
 -2      1851      1523      2194      2266
 -1      5138    3    0    1
 -2       447       446      1143      2130
 -1      5139    3    0    1
 -2       447      1143      1752      2130
 -1      5140    3    0    1
 -2       783      1070      2275      2740
 -1      5141    3    0    1
 -2      2429      1151      2469      2473
 -1      5142    3    0    1
 -2      1747      1905      2069      2690
 -1      5143    3    0    1
 -2      1015       678      1271      2131
 -1      5144    3    0    1
 -2       852       873      1913      2267
 -1      5145    3    0    1
 -2      1653      2028      2568      2752
 -1      5146    3    0    1
 -2      2198      1313      2643      2821
 -1      5147    3    0    1
 -2       592      1953      2258      2630
 -1      5148    3    0    1
 -2        83      1790      1812      2511
 -1      5149    3    0    1
 -2      1825      1628      1938      2134
 -1      5150    3    0    1
 -2      1583      1825      1938      2134
 -1      5151    3    0    1
 -2      1604      2182      2503      2736
 -1      5152    3    0    1
 -2       355       342      1897      2869
 -1      5153    3    0    1
 -2       603      2450      2842      2848
 -1      5154    3    0    1
 -2      2116      2093      2159      2619
 -1      5155    3    0    1
 -2       374      1098      2375      2396
 -1      5156    3    0    1
 -2      1316      2471      2545      2607
 -1      5157    3    0    1
 -2      2273       324      2277      2756
 -1      5158    3    0    1
 -2       783       784      1072      2509
 -1      5159    3    0    1
 -2      2048      1942      2187      2192
 -1      5160    3    0    1
 -2      2112      1703      2235      2297
 -1      5161    3    0    1
 -2      1980      2741      2851      2852
 -1      5162    3    0    1
 -2      1942      1755      2187      2192
 -1      5163    3    0    1
 -2       534      1202      2318      2706
 -1      5164    3    0    1
 -2       534      2318      2705      2706
 -1      5165    3    0    1
 -2      1932      1530      2065      2420
 -1      5166    3    0    1
 -2       952       560       558      2307
 -1      5167    3    0    1
 -2       273      1079      2142      2814
 -1      5168    3    0    1
 -2      1951      1851      2186      2420
 -1      5169    3    0    1
 -2      2219      1115       411      2410
 -1      5170    3    0    1
 -2      1551      1528      2373      2696
 -1      5171    3    0    1
 -2       424        41      1192      2137
 -1      5172    3    0    1
 -2      1864       982      2578      2801
 -1      5173    3    0    1
 -2       940       424      1192      2137
 -1      5174    3    0    1
 -2       560       952      1911      2307
 -1      5175    3    0    1
 -2      2419      1540      2526      2610
 -1      5176    3    0    1
 -2        66       424       940      2137
 -1      5177    3    0    1
 -2      1683      2612      2633      2811
 -1      5178    3    0    1
 -2       315      2639      2659      2825
 -1      5179    3    0    1
 -2      1780      1591      2209      2234
 -1      5180    3    0    1
 -2      1392      1127      2464      2536
 -1      5181    3    0    1
 -2       273      1079      1327      2142
 -1      5182    3    0    1
 -2      1981       334      2638      2663
 -1      5183    3    0    1
 -2      2253      2101      2621      2622
 -1      5184    3    0    1
 -2      1702      1634      1824      2168
 -1      5185    3    0    1
 -2      2062      1791      2088      2165
 -1      5186    3    0    1
 -2      2352      1548      2547      2719
 -1      5187    3    0    1
 -2       373       404      1327      2142
 -1      5188    3    0    1
 -2      2517      1028      2558      2624
 -1      5189    3    0    1
 -2      1841      2202      2401      2490
 -1      5190    3    0    1
 -2      1943      1613      2002      2154
 -1      5191    3    0    1
 -2      1820      1153      1889      2154
 -1      5192    3    0    1
 -2       712      1709      2572      2656
 -1      5193    3    0    1
 -2      2891      3073      3074      2960
 -1      5194    3    0    1
 -2      2101      2253      2621      2744
 -1      5195    3    0    1
 -2      1093      1879      2214      2320
 -1      5196    3    0    1
 -2      2193      2054      2286      2642
 -1      5197    3    0    1
 -2      1762       937      1997      2691
 -1      5198    3    0    1
 -2      1709      1035      2426      2656
 -1      5199    3    0    1
 -2       409      1059      2005      2555
 -1      5200    3    0    1
 -2      1557      1715      1818      2204
 -1      5201    3    0    1
 -2      1409      1474      1491      3056
 -1      5202    3    0    1
 -2      2636      1421      3100      3120
 -1      5203    3    0    1
 -2      1533      1984      2012      2148
 -1      5204    3    0    1
 -2      1602      1673      1816      2160
 -1      5205    3    0    1
 -2      1830      1561      1947      2160
 -1      5206    3    0    1
 -2      1767      1830      1947      2160
 -1      5207    3    0    1
 -2      1561      1673      1947      2160
 -1      5208    3    0    1
 -2      1573       137      1886      2149
 -1      5209    3    0    1
 -2      1847      1291      1969      2150
 -1      5210    3    0    1
 -2      1291       724      1969      2150
 -1      5211    3    0    1
 -2        84       952      1911      2238
 -1      5212    3    0    1
 -2       290      1091      1339      2151
 -1      5213    3    0    1
 -2       307      1716      2013      2271
 -1      5214    3    0    1
 -2      1716      1375      1811      2271
 -1      5215    3    0    1
 -2       442      1157      2183      2350
 -1      5216    3    0    1
 -2       287       290      1339      2151
 -1      5217    3    0    1
 -2       808      2111      2255      2344
 -1      5218    3    0    1
 -2      1555      1815      2496      2716
 -1      5219    3    0    1
 -2      1614      1533      2085      2583
 -1      5220    3    0    1
 -2      1963       495      2215      2357
 -1      5221    3    0    1
 -2      1683      1716      1811      2271
 -1      5222    3    0    1
 -2      1002       654      2115      2820
 -1      5223    3    0    1
 -2       562       555       953      2761
 -1      5224    3    0    1
 -2       808      1085      2111      2344
 -1      5225    3    0    1
 -2      1949      1802      2481      2716
 -1      5226    3    0    1
 -2       917      1726      1963      2357
 -1      5227    3    0    1
 -2       377      1168      1549      2733
 -1      5228    3    0    1
 -2      1588      1635      2612      2627
 -1      5229    3    0    1
 -2      1070       248      2275      2775
 -1      5230    3    0    1
 -2      1238       606       608      2616
 -1      5231    3    0    1
 -2      2142       802      2164      2516
 -1      5232    3    0    1
 -2       538      2295      2486      2495
 -1      5233    3    0    1
 -2       106       102      2309      2443
 -1      5234    3    0    1
 -2      1633      1594      2465      2513
 -1      5235    3    0    1
 -2      1886      1922      1924      2211
 -1      5236    3    0    1
 -2       706      1032      2517      2624
 -1      5237    3    0    1
 -2       178       173      1574      2783
 -1      5238    3    0    1
 -2      1590      1573      2116      2159
 -1      5239    3    0    1
 -2      1886      1573      2149      2159
 -1      5240    3    0    1
 -2      2413      1279      2584      2589
 -1      5241    3    0    1
 -2      2450      1239      2838      2839
 -1      5242    3    0    1
 -2      3113       339      1505      1506
 -1      5243    3    0    1
 -2      2834      2042      2889      2890
 -1      5244    3    0    1
 -2      1816      1673      1839      2160
 -1      5245    3    0    1
 -2      1792      1816      1839      2160
 -1      5246    3    0    1
 -2      1792      1561      1830      2160
 -1      5247    3    0    1
 -2      1673      1561      1792      2160
 -1      5248    3    0    1
 -2      1673      1792      1839      2160
 -1      5249    3    0    1
 -2      2038      1542      2292      2564
 -1      5250    3    0    1
 -2      2035      2079      2608      2796
 -1      5251    3    0    1
 -2      1658      1542      2502      2564
 -1      5252    3    0    1
 -2      1658      1928      2330      2564
 -1      5253    3    0    1
 -2      1157       896      1750      2161
 -1      5254    3    0    1
 -2       863       896      1157      2161
 -1      5255    3    0    1
 -2      1574      1272      1929      2162
 -1      5256    3    0    1
 -2       136      1736      2146      2180
 -1      5257    3    0    1
 -2      2456      2677      2679      2819
 -1      5258    3    0    1
 -2      2058       906      2326      2723
 -1      5259    3    0    1
 -2      1551      2373      2385      2698
 -1      5260    3    0    1
 -2      1841      1941      1950      2202
 -1      5261    3    0    1
 -2       977       608       606      2708
 -1      5262    3    0    1
 -2        86       957      1935      2339
 -1      5263    3    0    1
 -2      1954      1805      2327      2559
 -1      5264    3    0    1
 -2       197      1029      1281      2626
 -1      5265    3    0    1
 -2       880      1829      1844      2536
 -1      5266    3    0    1
 -2      1928      2330      2564      2795
 -1      5267    3    0    1
 -2       908       418      2798      2872
 -1      5268    3    0    1
 -2      1732      1999      2231      2322
 -1      5269    3    0    1
 -2      2098      1541      2105      2444
 -1      5270    3    0    1
 -2       966       957      1581      2339
 -1      5271    3    0    1
 -2      1747      1658      1905      2330
 -1      5272    3    0    1
 -2       807       808      1084      2167
 -1      5273    3    0    1
 -2        52       427      2191      2256
 -1      5274    3    0    1
 -2      2137       926      2229      2256
 -1      5275    3    0    1
 -2      1635      1847      2150      2792
 -1      5276    3    0    1
 -2       700      1028      1032      2624
 -1      5277    3    0    1
 -2      2493      1588      2811      2863
 -1      5278    3    0    1
 -2      1678      2468      2475      2582
 -1      5279    3    0    1
 -2      1083       807      1084      2167
 -1      5280    3    0    1
 -2       700       706      1281      2625
 -1      5281    3    0    1
 -2       706       700      1032      2624
 -1      5282    3    0    1
 -2       706       700      2624      2625
 -1      5283    3    0    1
 -2       272       273      1084      2167
 -1      5284    3    0    1
 -2      2230      1674      2355      2671
 -1      5285    3    0    1
 -2      2034      1881      2523      2582
 -1      5286    3    0    1
 -2       427        52      2229      2256
 -1      5287    3    0    1
 -2       405      1069      1313      2643
 -1      5288    3    0    1
 -2      1585      1705      2209      2234
 -1      5289    3    0    1
 -2      1537      1657      2521      2780
 -1      5290    3    0    1
 -2      1891       918      2113      2169
 -1      5291    3    0    1
 -2       496       519       929      2169
 -1      5292    3    0    1
 -2       918       496       929      2169
 -1      5293    3    0    1
 -2       918       929      2113      2169
 -1      5294    3    0    1
 -2       324       161      1007      2756
 -1      5295    3    0    1
 -2       367       291      1093      2171
 -1      5296    3    0    1
 -2      1669       191      2456      2679
 -1      5297    3    0    1
 -2      1601      1666      1888      2314
 -1      5298    3    0    1
 -2      1572      1623      1741      2172
 -1      5299    3    0    1
 -2      1056      1052      1711      2423
 -1      5300    3    0    1
 -2      2128      1795      2608      2796
 -1      5301    3    0    1
 -2      1941       328      2202      2771
 -1      5302    3    0    1
 -2      3071      1462      3094      3118
 -1      5303    3    0    1
 -2      1623      1758       305      2177
 -1      5304    3    0    1
 -2       374       377      1549      2396
 -1      5305    3    0    1
 -2      2599      1674      2692      2721
 -1      5306    3    0    1
 -2      1947      2022      1598      1561
 -1      5307    3    0    1
 -2      1878      1698      1971      2428
 -1      5308    3    0    1
 -2      1623      1697      1742      2177
 -1      5309    3    0    1
 -2      1758      1623       305      1908
 -1      5310    3    0    1
 -2       305      1369      1623      2177
 -1      5311    3    0    1
 -2      1623      1369      1699      2177
 -1      5312    3    0    1
 -2      2267      1687      2288      2717
 -1      5313    3    0    1
 -2      1773      2188      2437      2528
 -1      5314    3    0    1
 -2      1773       118      2188      2528
 -1      5315    3    0    1
 -2      1592      1533      1614      2583
 -1      5316    3    0    1
 -2      2170      2223      2449      2524
 -1      5317    3    0    1
 -2      1946      1001      2251      2782
 -1      5318    3    0    1
 -2        77      1213      1914      2178
 -1      5319    3    0    1
 -2        36      1891      2113      2480
 -1      5320    3    0    1
 -2       675      1756      2162      2837
 -1      5321    3    0    1
 -2       108       967      2017      2566
 -1      5322    3    0    1
 -2       335       387       965      2296
 -1      5323    3    0    1
 -2       387       335      1529      2296
 -1      5324    3    0    1
 -2      1562      2054      2193      2642
 -1      5325    3    0    1
 -2       121       977      1237      2442
 -1      5326    3    0    1
 -2       905      1165      2009      2402
 -1      5327    3    0    1
 -2      1349       839      1959      2230
 -1      5328    3    0    1
 -2      1408       863      1123      2722
 -1      5329    3    0    1
 -2      1794       841      2502      2776
 -1      5330    3    0    1
 -2       952      1214      1911      2307
 -1      5331    3    0    1
 -2       866      1392       880      2536
 -1      5332    3    0    1
 -2       945      2019      2312      2695
 -1      5333    3    0    1
 -2       444       442      1122      2183
 -1      5334    3    0    1
 -2      1004      1618      1861      2184
 -1      5335    3    0    1
 -2       658      1004      1861      2184
 -1      5336    3    0    1
 -2        67       945      1629      2695
 -1      5337    3    0    1
 -2      2394      1018      2466      2485
 -1      5338    3    0    1
 -2      2515      1522      2855      2870
 -1      5339    3    0    1
 -2      1988      1727      2158      2448
 -1      5340    3    0    1
 -2      1620       333      1789      2262
 -1      5341    3    0    1
 -2      1303      2540      2571      2682
 -1      5342    3    0    1
 -2      1687      1556      2288      2692
 -1      5343    3    0    1
 -2      1316      2471      2483      2573
 -1      5344    3    0    1
 -2      2011      2103      2216      2448
 -1      5345    3    0    1
 -2      1135      1395      2621      2744
 -1      5346    3    0    1
 -2      1727      2011      2158      2448
 -1      5347    3    0    1
 -2       265      1082      2557      2676
 -1      5348    3    0    1
 -2      2011      1727      2103      2448
 -1      5349    3    0    1
 -2       956      1798      1904      2511
 -1      5350    3    0    1
 -2       774       799      1314      2185
 -1      5351    3    0    1
 -2       799      1081      1314      2185
 -1      5352    3    0    1
 -2      1774      1945      2561      2833
 -1      5353    3    0    1
 -2      2086      1685      2106      2422
 -1      5354    3    0    1
 -2       127      2174      2315      2701
 -1      5355    3    0    1
 -2       703      1031      2242      2589
 -1      5356    3    0    1
 -2      1612       651      2184      2241
 -1      5357    3    0    1
 -2       703       678      1280      2242
 -1      5358    3    0    1
 -2       118       974      2436      2446
 -1      5359    3    0    1
 -2      2000        34      1726      2653
 -1      5360    3    0    1
 -2       108      1678      2475      2566
 -1      5361    3    0    1
 -2      2169       519      2191      2280
 -1      5362    3    0    1
 -2       519       928      2191      2280
 -1      5363    3    0    1
 -2      1738      1760      2196      2257
 -1      5364    3    0    1
 -2       427        41       928      2191
 -1      5365    3    0    1
 -2        52       427       928      2191
 -1      5366    3    0    1
 -2      2111       831      2255      2343
 -1      5367    3    0    1
 -2       407       244      2483      2646
 -1      5368    3    0    1
 -2       651      2184      2241      2244
 -1      5369    3    0    1
 -2      2123      1572      2127      2195
 -1      5370    3    0    1
 -2      1737      2123      2127      2195
 -1      5371    3    0    1
 -2       102       966      1581      2258
 -1      5372    3    0    1
 -2       854       876      1741      2196
 -1      5373    3    0    1
 -2      2567      2128      2608      2796
 -1      5374    3    0    1
 -2      1699      1741      2172      2196
 -1      5375    3    0    1
 -2      1699       854      1741      2196
 -1      5376    3    0    1
 -2      1913      1687      2389      2565
 -1      5377    3    0    1
 -2      1928      1536      2330      2340
 -1      5378    3    0    1
 -2      1138       854      1112      2196
 -1      5379    3    0    1
 -2       854      1138       876      2196
 -1      5380    3    0    1
 -2      1324      1082      2516      2631
 -1      5381    3    0    1
 -2      1239      1748      2450      2838
 -1      5382    3    0    1
 -2       592       591       966      2258
 -1      5383    3    0    1
 -2      2194       978      2265      2645
 -1      5384    3    0    1
 -2       909       472      1912      2702
 -1      5385    3    0    1
 -2      1066       772      1316      2198
 -1      5386    3    0    1
 -2       832       831      2375      2424
 -1      5387    3    0    1
 -2       772       778      1316      2198
 -1      5388    3    0    1
 -2      2128      2567      2608      2644
 -1      5389    3    0    1
 -2      2898      2894      3074      2959
 -1      5390    3    0    1
 -2       615       616      2360      2831
 -1      5391    3    0    1
 -2      2857      2587      2860      2866
 -1      5392    3    0    1
 -2      1313       778       772      2198
 -1      5393    3    0    1
 -2       978       610      2243      2645
 -1      5394    3    0    1
 -2      1313      1069       778      2198
 -1      5395    3    0    1
 -2      1945      1570      2247      2561
 -1      5396    3    0    1
 -2       772      2198      2365      2644
 -1      5397    3    0    1
 -2       772      2079      2567      2644
 -1      5398    3    0    1
 -2       616      2527      2578      2603
 -1      5399    3    0    1
 -2      1056      1711      1712      2423
 -1      5400    3    0    1
 -2      1553      1552      2201      2641
 -1      5401    3    0    1
 -2      1765       463      2397      2402
 -1      5402    3    0    1
 -2      1552      2179      2641      2667
 -1      5403    3    0    1
 -2      1862      1909      2141      2441
 -1      5404    3    0    1
 -2       962       579      2618      2789
 -1      5405    3    0    1
 -2      1649      1568      1705      2444
 -1      5406    3    0    1
 -2      1590      1541      2232      1666
 -1      5407    3    0    1
 -2      1909      1557      2141      2204
 -1      5408    3    0    1
 -2      1557      1909      2027      2204
 -1      5409    3    0    1
 -2      1593      1675      2197      2569
 -1      5410    3    0    1
 -2       291      1093      2171      2214
 -1      5411    3    0    1
 -2      2060      1631      2209      2234
 -1      5412    3    0    1
 -2      2027      1715      2204      2321
 -1      5413    3    0    1
 -2       823       798      1876      2214
 -1      5414    3    0    1
 -2      2001       329      2156      2260
 -1      5415    3    0    1
 -2      1739      1730      2157      2206
 -1      5416    3    0    1
 -2      1531      1739      2157      2206
 -1      5417    3    0    1
 -2      2419      2556      2785      2809
 -1      5418    3    0    1
 -2      1018      1021      2394      2605
 -1      5419    3    0    1
 -2      1651      1762      1872      2594
 -1      5420    3    0    1
 -2      1634      1654      2189      2659
 -1      5421    3    0    1
 -2      1655      1667      2272      2303
 -1      5422    3    0    1
 -2       202       221      1036      2572
 -1      5423    3    0    1
 -2      2367      2022      2559      2794
 -1      5424    3    0    1
 -2      2051      1720      2110      2594
 -1      5425    3    0    1
 -2      1777      2033      2112      2235
 -1      5426    3    0    1
 -2      2033      1777      2100      2235
 -1      5427    3    0    1
 -2      1886      2052      2531      1247
 -1      5428    3    0    1
 -2      1916      1675      2036      2212
 -1      5429    3    0    1
 -2      1925      2036      2126      2212
 -1      5430    3    0    1
 -2      1931      1772      2418      2579
 -1      5431    3    0    1
 -2       654      2434      2664      2820
 -1      5432    3    0    1
 -2      1822      2001      2156      2260
 -1      5433    3    0    1
 -2      1903       387      2245      2249
 -1      5434    3    0    1
 -2      1970       414      2638      2661
 -1      5435    3    0    1
 -2      1001       324      2251      2273
 -1      5436    3    0    1
 -2      1721      1613      2025      2737
 -1      5437    3    0    1
 -2      1325      1093      1859      2214
 -1      5438    3    0    1
 -2       798       823      1093      2214
 -1      5439    3    0    1
 -2       798      1093      1325      2214
 -1      5440    3    0    1
 -2      2489      2687      2692      2730
 -1      5441    3    0    1
 -2       702      1279      1882      2584
 -1      5442    3    0    1
 -2      1279       201      2413      2584
 -1      5443    3    0    1
 -2       400      2125      2577      2591
 -1      5444    3    0    1
 -2      1914      1584      2018      2218
 -1      5445    3    0    1
 -2      1881      1914      2018      2218
 -1      5446    3    0    1
 -2       555      1213      2178      2218
 -1      5447    3    0    1
 -2       412      1058      1597      2851
 -1      5448    3    0    1
 -2       555      1937      2056      2218
 -1      5449    3    0    1
 -2      1881      1937      2178      2218
 -1      5450    3    0    1
 -2      1718      1621      1799      2411
 -1      5451    3    0    1
 -2       202      2043      2572      2590
 -1      5452    3    0    1
 -2      1671      1567      1828      2411
 -1      5453    3    0    1
 -2      1404       857      1115      2219
 -1      5454    3    0    1
 -2       857      1404       892      2219
 -1      5455    3    0    1
 -2      1621      1723      1799      2411
 -1      5456    3    0    1
 -2      1671      1723      2411      2031
 -1      5457    3    0    1
 -2       272       273      2167      2814
 -1      5458    3    0    1
 -2        36      1891      2073      2552
 -1      5459    3    0    1
 -2       730       724      2119      2221
 -1      5460    3    0    1
 -2       724       730      1040      2221
 -1      5461    3    0    1
 -2       510      1192      2181      2317
 -1      5462    3    0    1
 -2       627       988      2008      2222
 -1      5463    3    0    1
 -2       627       634       988      2222
 -1      5464    3    0    1
 -2      1192      2137      2181      2317
 -1      5465    3    0    1
 -2       634      2179      2222      2669
 -1      5466    3    0    1
 -2      2190      2028      2453      2668
 -1      5467    3    0    1
 -2       634      2222      2316      2669
 -1      5468    3    0    1
 -2      1250       634      2200      2222
 -1      5469    3    0    1
 -2      1608      2213      2259      2295
 -1      5470    3    0    1
 -2      2197      1593      2250      2313
 -1      5471    3    0    1
 -2      2120       675      2166      2407
 -1      5472    3    0    1
 -2       558       584       964      2307
 -1      5473    3    0    1
 -2      1178      2153      2614      2655
 -1      5474    3    0    1
 -2      1291       413      2758      2792
 -1      5475    3    0    1
 -2      2419       213      2627      2758
 -1      5476    3    0    1
 -2      1933      2346      2385      2699
 -1      5477    3    0    1
 -2        65       943       944      2225
 -1      5478    3    0    1
 -2       964      1948      2049      2307
 -1      5479    3    0    1
 -2      1214       964      2049      2307
 -1      5480    3    0    1
 -2      2118      1662      2282      2300
 -1      5481    3    0    1
 -2       894      2118      2282      2300
 -1      5482    3    0    1
 -2        68        65       944      2225
 -1      5483    3    0    1
 -2      1178       916      2153      2655
 -1      5484    3    0    1
 -2       952       558      1214      2307
 -1      5485    3    0    1
 -2      1119      1406      2282      2300
 -1      5486    3    0    1
 -2      1662      2013      2282      2300
 -1      5487    3    0    1
 -2       250       234      2753      2775
 -1      5488    3    0    1
 -2      1336       282      1836      2319
 -1      5489    3    0    1
 -2      1732      2048      2329      2652
 -1      5490    3    0    1
 -2       419        34      1181      2653
 -1      5491    3    0    1
 -2      1548      1774      2352      2693
 -1      5492    3    0    1
 -2      1680      1658      1794      2333
 -1      5493    3    0    1
 -2      1139       867      1129      2231
 -1      5494    3    0    1
 -2       373      1083      2581      2787
 -1      5495    3    0    1
 -2       520      2600      2694      2729
 -1      5496    3    0    1
 -2       106       347       969      2443
 -1      5497    3    0    1
 -2       867      1139       878      2231
 -1      5498    3    0    1
 -2      1541      1585      1705      2232
 -1      5499    3    0    1
 -2       124       975      1239      2315
 -1      5500    3    0    1
 -2       988      2008      2112      2235
 -1      5501    3    0    1
 -2      1946      1906      2251      2298
 -1      5502    3    0    1
 -2       324      1946      2251      2298
 -1      5503    3    0    1
 -2      1007       324      2277      2298
 -1      5504    3    0    1
 -2      1878      1582      1971      2662
 -1      5505    3    0    1
 -2       520       543      2600      2729
 -1      5506    3    0    1
 -2      1003      1259      1897      2664
 -1      5507    3    0    1
 -2        84        85       952      2238
 -1      5508    3    0    1
 -2      1445      1470      3005      3016
 -1      5509    3    0    1
 -2      1818      2050      2391      2574
 -1      5510    3    0    1
 -2      1054      1315      2261      1436
 -1      5511    3    0    1
 -2      1848      3073      3096      3102
 -1      5512    3    0    1
 -2       423        52      1893      2342
 -1      5513    3    0    1
 -2      2018      1881      2218      2660
 -1      5514    3    0    1
 -2        32      1893      1962      2342
 -1      5515    3    0    1
 -2      1782      1607      1990      2422
 -1      5516    3    0    1
 -2      1607      1782      2086      2422
 -1      5517    3    0    1
 -2      1607      2086      2106      2422
 -1      5518    3    0    1
 -2      1903      1695      2416      2666
 -1      5519    3    0    1
 -2       678       703      1270      2242
 -1      5520    3    0    1
 -2       678      1015      1280      2242
 -1      5521    3    0    1
 -2       703      1031      1270      2242
 -1      5522    3    0    1
 -2       244       407      2509      2646
 -1      5523    3    0    1
 -2       407      1071      2509      2646
 -1      5524    3    0    1
 -2       244      2263      2483      2646
 -1      5525    3    0    1
 -2      2263       244      2509      2646
 -1      5526    3    0    1
 -2       181       164      2434      2466
 -1      5527    3    0    1
 -2       941      1863      2479      2486
 -1      5528    3    0    1
 -2      1907      1555      2470      2496
 -1      5529    3    0    1
 -2      1571      2200      2667      2829
 -1      5530    3    0    1
 -2      1943      1566      2026      2250
 -1      5531    3    0    1
 -2       870      1132      2421      2474
 -1      5532    3    0    1
 -2      1745      1643      2429      2469
 -1      5533    3    0    1
 -2      1541      1585      2232      2314
 -1      5534    3    0    1
 -2      1191       378      2748      2755
 -1      5535    3    0    1
 -2       322       314      2232      2314
 -1      5536    3    0    1
 -2      1625       246      2026      2250
 -1      5537    3    0    1
 -2      1005      1776      2055      2353
 -1      5538    3    0    1
 -2      2230      1959      2355      2721
 -1      5539    3    0    1
 -2       356      1981      2374      2426
 -1      5540    3    0    1
 -2      1774      1570      1829      2247
 -1      5541    3    0    1
 -2      1570      1774      1945      2247
 -1      5542    3    0    1
 -2      1678      2034      2475      2566
 -1      5543    3    0    1
 -2      2735       365      2843      2847
 -1      5544    3    0    1
 -2      1666      1541      2232      2314
 -1      5545    3    0    1
 -2      1593       405      2197      2250
 -1      5546    3    0    1
 -2      1389       322      2232      2314
 -1      5547    3    0    1
 -2      1585      1389      2232      2314
 -1      5548    3    0    1
 -2      1590      1666      2232      2314
 -1      5549    3    0    1
 -2      1938      1583      2134      2274
 -1      5550    3    0    1
 -2      1650        10      1837      2252
 -1      5551    3    0    1
 -2      1616      1966      1967      2362
 -1      5552    3    0    1
 -2       220      1970      1980      2488
 -1      5553    3    0    1
 -2       724      1969      2150      2488
 -1      5554    3    0    1
 -2      2237       724      2150      2488
 -1      5555    3    0    1
 -2      1364       848      1642      2254
 -1      5556    3    0    1
 -2      1642       848      1700      2254
 -1      5557    3    0    1
 -2      1770      2254      2487      2674
 -1      5558    3    0    1
 -2      1642      1610      2136      2254
 -1      5559    3    0    1
 -2      1770      1642      2254      2674
 -1      5560    3    0    1
 -2      1843      1980      2237      2488
 -1      5561    3    0    1
 -2      2150      1969      2237      2488
 -1      5562    3    0    1
 -2       724      2237      2150      2119
 -1      5563    3    0    1
 -2      1974      1071      2482      2509
 -1      5564    3    0    1
 -2        41       926      1192      2256
 -1      5565    3    0    1
 -2      1192       926      2137      2256
 -1      5566    3    0    1
 -2        41      1192      2137      2256
 -1      5567    3    0    1
 -2      2090      2208      2549      2647
 -1      5568    3    0    1
 -2      1860       640      2092      2425
 -1      5569    3    0    1
 -2      1738       391      1958      2257
 -1      5570    3    0    1
 -2       391       304      1958      2257
 -1      5571    3    0    1
 -2      1112      1138      2196      2257
 -1      5572    3    0    1
 -2       391      1738      2196      2257
 -1      5573    3    0    1
 -2       304      1138      1112      2257
 -1      5574    3    0    1
 -2      1138       391      2196      2257
 -1      5575    3    0    1
 -2      1138       304       391      2257
 -1      5576    3    0    1
 -2       102       106       966      2258
 -1      5577    3    0    1
 -2      1526      1683      2173      2633
 -1      5578    3    0    1
 -2       969       592       966      2258
 -1      5579    3    0    1
 -2       966       106       969      2258
 -1      5580    3    0    1
 -2       329      1004      1618      2260
 -1      5581    3    0    1
 -2       329      1618      2156      2260
 -1      5582    3    0    1
 -2      1744      1618      1749      2260
 -1      5583    3    0    1
 -2      1744      1586      1822      2260
 -1      5584    3    0    1
 -2      1586      1744      1749      2260
 -1      5585    3    0    1
 -2      1618      1744      2156      2260
 -1      5586    3    0    1
 -2      2541      2091      2897      2938
 -1      5587    3    0    1
 -2      1411      2371      2885      1304
 -1      5588    3    0    1
 -2      2893      2301      1438      3080
 -1      5589    3    0    1
 -2      2301      1015      1438      1439
 -1      5590    3    0    1
 -2      1054      1315      2078      2261
 -1      5591    3    0    1
 -2      2904      2942      2984      3132
 -1      5592    3    0    1
 -2      2880      2124      2902      1465
 -1      5593    3    0    1
 -2       963      1432      2920      3124
 -1      5594    3    0    1
 -2      1015      2301      2689      1439
 -1      5595    3    0    1
 -2      1933      2699      2886      2945
 -1      5596    3    0    1
 -2      2879      3081      3097      3108
 -1      5597    3    0    1
 -2      1029       700      1769      2478
 -1      5598    3    0    1
 -2       298      1349      2355      2671
 -1      5599    3    0    1
 -2       736       759      2548      2766
 -1      5600    3    0    1
 -2      2409      1577      2453      2539
 -1      5601    3    0    1
 -2      1559      1700      1746      2473
 -1      5602    3    0    1
 -2      1643      2429      2469      2473
 -1      5603    3    0    1
 -2      2515      1731      2773      2779
 -1      5604    3    0    1
 -2       164      1897      2466      2485
 -1      5605    3    0    1
 -2       324      2251      2273      2277
 -1      5606    3    0    1
 -2      1978      1995      2090      2276
 -1      5607    3    0    1
 -2       466      1167      2053      2366
 -1      5608    3    0    1
 -2      1136       852      1109      2267
 -1      5609    3    0    1
 -2      1016       679      1814      2434
 -1      5610    3    0    1
 -2       873      1136      1913      2267
 -1      5611    3    0    1
 -2       852      1136       873      2267
 -1      5612    3    0    1
 -2      1365      1362      1746      2665
 -1      5613    3    0    1
 -2      1906      1946      2241      2268
 -1      5614    3    0    1
 -2      1768      1946      2076      2268
 -1      5615    3    0    1
 -2      2556      2173      2612      2633
 -1      5616    3    0    1
 -2       562      1880      2014      2269
 -1      5617    3    0    1
 -2      1880       562      2014      1216
 -1      5618    3    0    1
 -2      1033       711      2006      2781
 -1      5619    3    0    1
 -2      1336      1094       819      2270
 -1      5620    3    0    1
 -2      1876       823      2214      2320
 -1      5621    3    0    1
 -2      1094      1836      2012      2270
 -1      5622    3    0    1
 -2      1988      1094      2012      2270
 -1      5623    3    0    1
 -2      1921      1638      2351      2398
 -1      5624    3    0    1
 -2      1921      1907      2308      2398
 -1      5625    3    0    1
 -2      1376       442       444      2350
 -1      5626    3    0    1
 -2      1122       444      2183      2350
 -1      5627    3    0    1
 -2       444       442      2183      2350
 -1      5628    3    0    1
 -2      2010      1936      2183      2350
 -1      5629    3    0    1
 -2      1936      1122      2183      2350
 -1      5630    3    0    1
 -2      2161      2010      2183      2350
 -1      5631    3    0    1
 -2      1655      1667      1972      2272
 -1      5632    3    0    1
 -2       347       969      1965      2685
 -1      5633    3    0    1
 -2       969       979      1965      2685
 -1      5634    3    0    1
 -2       347       337       979      2685
 -1      5635    3    0    1
 -2       347      1965      2443      2685
 -1      5636    3    0    1
 -2       937      1997      2691      2832
 -1      5637    3    0    1
 -2      1864       121      2442      2685
 -1      5638    3    0    1
 -2      1117       858      2226      2279
 -1      5639    3    0    1
 -2      1385       858      1117      2279
 -1      5640    3    0    1
 -2      1612      1001      2251      2273
 -1      5641    3    0    1
 -2      2166      2120      2407      2757
 -1      5642    3    0    1
 -2      1001      1612      2007      2273
 -1      5643    3    0    1
 -2       161      1001      2007      2273
 -1      5644    3    0    1
 -2       159       161      2007      2273
 -1      5645    3    0    1
 -2       161       159      1883      2273
 -1      5646    3    0    1
 -2      1883       159      2007      2273
 -1      5647    3    0    1
 -2       191      1028      2535      2558
 -1      5648    3    0    1
 -2       161       324      1001      2273
 -1      5649    3    0    1
 -2      1696      2388      2806      2841
 -1      5650    3    0    1
 -2      1068       234      1303      2540
 -1      5651    3    0    1
 -2      1392       313       326      2464
 -1      5652    3    0    1
 -2      2409      2456      2677      2736
 -1      5653    3    0    1
 -2       784       783      1070      2275
 -1      5654    3    0    1
 -2       252       248      1068      2510
 -1      5655    3    0    1
 -2      1316       253      2471      2607
 -1      5656    3    0    1
 -2       730      1725      2221      2551
 -1      5657    3    0    1
 -2      1073       784      1070      2275
 -1      5658    3    0    1
 -2      1604      2539      2677      2736
 -1      5659    3    0    1
 -2      1003       342      2854      2869
 -1      5660    3    0    1
 -2       925      1409      1421      3120
 -1      5661    3    0    1
 -2      2453      1577      2503      2539
 -1      5662    3    0    1
 -2       385       384       956      2511
 -1      5663    3    0    1
 -2       956       568      1798      2511
 -1      5664    3    0    1
 -2       568       956      1812      2511
 -1      5665    3    0    1
 -2       358       412      1597      2741
 -1      5666    3    0    1
 -2       384       385      1904      2511
 -1      5667    3    0    1
 -2       212      1042      1292      2550
 -1      5668    3    0    1
 -2      1739      1622      2157      2512
 -1      5669    3    0    1
 -2       385       956      1904      2511
 -1      5670    3    0    1
 -2      1747      2069      2392      2690
 -1      5671    3    0    1
 -2       860      1406       894      2282
 -1      5672    3    0    1
 -2      2064      1545      2084      2418
 -1      5673    3    0    1
 -2      1918      2193      2281      2283
 -1      5674    3    0    1
 -2      1603      1918      2281      2283
 -1      5675    3    0    1
 -2      1595      1603      2281      2283
 -1      5676    3    0    1
 -2      2193      1595      2281      2283
 -1      5677    3    0    1
 -2      1228       962       579      2618
 -1      5678    3    0    1
 -2      1643      1757      2473      2518
 -1      5679    3    0    1
 -2      1757      1559      2473      2518
 -1      5680    3    0    1
 -2      2116      1573      2505      2619
 -1      5681    3    0    1
 -2      1886      1573      2159      2619
 -1      5682    3    0    1
 -2      2149      1886      2159      2619
 -1      5683    3    0    1
 -2      1644       953      2269      2520
 -1      5684    3    0    1
 -2      1084      2167      2255      2793
 -1      5685    3    0    1
 -2      1228       586      2468      2618
 -1      5686    3    0    1
 -2       586       579      2296      2618
 -1      5687    3    0    1
 -2      2637      2681      2818      2865
 -1      5688    3    0    1
 -2      2494       490      2773      2779
 -1      5689    3    0    1
 -2       203       197      1281      2284
 -1      5690    3    0    1
 -2      1688      1535      1920      2770
 -1      5691    3    0    1
 -2      1619      1632      1894      2417
 -1      5692    3    0    1
 -2      1681      1918      2054      2286
 -1      5693    3    0    1
 -2      1762       531      1877      2287
 -1      5694    3    0    1
 -2       531      1762      1846      2287
 -1      5695    3    0    1
 -2      1846      1762      1877      2287
 -1      5696    3    0    1
 -2      1637      1846      1973      2287
 -1      5697    3    0    1
 -2      1687      1913      2267      2288
 -1      5698    3    0    1
 -2      1315      2078      2261      2726
 -1      5699    3    0    1
 -2      2264      2629      2683      2718
 -1      5700    3    0    1
 -2      2168      2253      2622      2672
 -1      5701    3    0    1
 -2      1591      1728      2060      2800
 -1      5702    3    0    1
 -2      1728       312      2576      2800
 -1      5703    3    0    1
 -2      2180      2163      2201      2290
 -1      5704    3    0    1
 -2      1736      2163      2180      2290
 -1      5705    3    0    1
 -2       136      1736      2180      2290
 -1      5706    3    0    1
 -2       991       136      2201      2290
 -1      5707    3    0    1
 -2       136      2180      2201      2290
 -1      5708    3    0    1
 -2       292      1091      2220      2291
 -1      5709    3    0    1
 -2      1621      1689      2711      2713
 -1      5710    3    0    1
 -2      1558      1838      1892      2293
 -1      5711    3    0    1
 -2      1892      1838      2274      2293
 -1      5712    3    0    1
 -2      1583      1892      2274      2293
 -1      5713    3    0    1
 -2      1938      1583      2274      2293
 -1      5714    3    0    1
 -2       382      1938      2274      2293
 -1      5715    3    0    1
 -2      1677      1538      1722      2337
 -1      5716    3    0    1
 -2      1838      2293      2336      2712
 -1      5717    3    0    1
 -2      2563      1653      2610      2668
 -1      5718    3    0    1
 -2      2179       991      2201      2669
 -1      5719    3    0    1
 -2      2189      1535      2240      2734
 -1      5720    3    0    1
 -2      1634      1654      2401      2734
 -1      5721    3    0    1
 -2       975       128      1571      2294
 -1      5722    3    0    1
 -2       378       927      1191      2748
 -1      5723    3    0    1
 -2      1907      1921      2351      2398
 -1      5724    3    0    1
 -2      1654      2189      2240      2734
 -1      5725    3    0    1
 -2      1922      1586      1924      2297
 -1      5726    3    0    1
 -2      1586      1922      2052      2297
 -1      5727    3    0    1
 -2      1703      1586      2235      2297
 -1      5728    3    0    1
 -2       627       988      2235      2297
 -1      5729    3    0    1
 -2      2052       627      2235      2297
 -1      5730    3    0    1
 -2      1586      2052      2235      2297
 -1      5731    3    0    1
 -2      1019      1007      2277      2298
 -1      5732    3    0    1
 -2      2251      1906      2277      2298
 -1      5733    3    0    1
 -2       383        68       944      2299
 -1      5734    3    0    1
 -2      1014       675      2120      2407
 -1      5735    3    0    1
 -2       416       307      2013      2300
 -1      5736    3    0    1
 -2      1716       416      2013      2300
 -1      5737    3    0    1
 -2      1662      1716      2013      2300
 -1      5738    3    0    1
 -2      2013      1119      2282      2300
 -1      5739    3    0    1
 -2      1406       307       416      2300
 -1      5740    3    0    1
 -2       307      1119      2013      2300
 -1      5741    3    0    1
 -2       307      1406      1119      2300
 -1      5742    3    0    1
 -2       703      1280      1882      2301
 -1      5743    3    0    1
 -2      1456      1425      1460      3116
 -1      5744    3    0    1
 -2      1280      1030      1882      2301
 -1      5745    3    0    1
 -2       396      1905      2386      2690
 -1      5746    3    0    1
 -2      1271      2689      1423      3096
 -1      5747    3    0    1
 -2       760       783      1974      2740
 -1      5748    3    0    1
 -2      1993       118      2415      2446
 -1      5749    3    0    1
 -2      1194      2094      2233      2657
 -1      5750    3    0    1
 -2      1866      1737      2123      2432
 -1      5751    3    0    1
 -2      1737       392      2432      2754
 -1      5752    3    0    1
 -2       783      2275      2509      2740
 -1      5753    3    0    1
 -2      1651      1872      1926      2520
 -1      5754    3    0    1
 -2       953       562      2269      2520
 -1      5755    3    0    1
 -2      2076      1906      2298      2305
 -1      5756    3    0    1
 -2      1473      3078      2960      3113
 -1      5757    3    0    1
 -2        66       424      2137      2862
 -1      5758    3    0    1
 -2      1766       784      2606      2635
 -1      5759    3    0    1
 -2      1272      1574      1929      2305
 -1      5760    3    0    1
 -2      1272       178      1574      2305
 -1      5761    3    0    1
 -2       377       905      2009      2396
 -1      5762    3    0    1
 -2       139      2395       993      1860
 -1      5763    3    0    1
 -2      1929      1906      2076      2305
 -1      5764    3    0    1
 -2      1272      1929      2076      2305
 -1      5765    3    0    1
 -2       323      2076      2298      2305
 -1      5766    3    0    1
 -2       323      1272      2076      2305
 -1      5767    3    0    1
 -2       323       178      1272      2305
 -1      5768    3    0    1
 -2        41       424       931      2306
 -1      5769    3    0    1
 -2      1415      3067      2982      3115
 -1      5770    3    0    1
 -2       427      2191      2256      2306
 -1      5771    3    0    1
 -2        41       427      2256      2306
 -1      5772    3    0    1
 -2       427        41      2191      2306
 -1      5773    3    0    1
 -2       342       341      2854      2869
 -1      5774    3    0    1
 -2      2905      2347      3070      2999
 -1      5775    3    0    1
 -2      1044      1045      2638      2663
 -1      5776    3    0    1
 -2       558       964      1214      2307
 -1      5777    3    0    1
 -2        12      1761      2020      2399
 -1      5778    3    0    1
 -2      1384       306      1371      2308
 -1      5779    3    0    1
 -2      1805      1834      2369      2403
 -1      5780    3    0    1
 -2       306      1384       381      2308
 -1      5781    3    0    1
 -2       381      1384      1921      2308
 -1      5782    3    0    1
 -2       306      1385      1117      2308
 -1      5783    3    0    1
 -2      1385       306       381      2308
 -1      5784    3    0    1
 -2      1385       381      1921      2308
 -1      5785    3    0    1
 -2       957       568      1935      2339
 -1      5786    3    0    1
 -2      1596      1740      1916      2310
 -1      5787    3    0    1
 -2      2213      2272      2525      2593
 -1      5788    3    0    1
 -2      1807       544      2019      2312
 -1      5789    3    0    1
 -2       544       945      2019      2312
 -1      5790    3    0    1
 -2      2042      2364      2696      2697
 -1      5791    3    0    1
 -2      1968      2042      2364      2696
 -1      5792    3    0    1
 -2      2364      1551      2696      2697
 -1      5793    3    0    1
 -2      1551      1528      2696      2697
 -1      5794    3    0    1
 -2       430      1453      1459      1498
 -1      5795    3    0    1
 -2      1898      1566      1927      2313
 -1      5796    3    0    1
 -2      1593      1927      2250      2313
 -1      5797    3    0    1
 -2      1927      1566      2250      2313
 -1      5798    3    0    1
 -2      1666      1590      1888      2314
 -1      5799    3    0    1
 -2       879      1601      1888      2314
 -1      5800    3    0    1
 -2       871       879      1888      2314
 -1      5801    3    0    1
 -2      1140       314       322      2314
 -1      5802    3    0    1
 -2       314      1133      2232      2314
 -1      5803    3    0    1
 -2       314      1140      1133      2314
 -1      5804    3    0    1
 -2      1888      1590      2232      2314
 -1      5805    3    0    1
 -2      1133      1888      2232      2314
 -1      5806    3    0    1
 -2      1140       871      1133      2314
 -1      5807    3    0    1
 -2      1133       871      1888      2314
 -1      5808    3    0    1
 -2       871      1140       879      2314
 -1      5809    3    0    1
 -2       127       128       975      2315
 -1      5810    3    0    1
 -2       627      2008      2297      2316
 -1      5811    3    0    1
 -2      2008       627      2222      2316
 -1      5812    3    0    1
 -2      1247       627      2052      2316
 -1      5813    3    0    1
 -2      1192       940      2137      2317
 -1      5814    3    0    1
 -2       510       536       940      2317
 -1      5815    3    0    1
 -2       510       940      1192      2317
 -1      5816    3    0    1
 -2       952        85      1202      2706
 -1      5817    3    0    1
 -2       560       534      2705      2706
 -1      5818    3    0    1
 -2       536       940      2317      2318
 -1      5819    3    0    1
 -2      2083       536      2317      2318
 -1      5820    3    0    1
 -2       534       536      2083      2318
 -1      5821    3    0    1
 -2       536       534       940      2318
 -1      5822    3    0    1
 -2        85       952      2238      2706
 -1      5823    3    0    1
 -2       952       560      2705      2706
 -1      5824    3    0    1
 -2       560       952      1202      2706
 -1      5825    3    0    1
 -2       366        85      2695      2706
 -1      5826    3    0    1
 -2      1911       952      2705      2706
 -1      5827    3    0    1
 -2        85      2238      2695      2706
 -1      5828    3    0    1
 -2      1338       823      1876      2320
 -1      5829    3    0    1
 -2      1587      1701      1841      2382
 -1      5830    3    0    1
 -2      1338      1092       823      2320
 -1      5831    3    0    1
 -2        65       425      2406      2778
 -1      5832    3    0    1
 -2      2233       393      2363      2745
 -1      5833    3    0    1
 -2      2452      2409      2455      2456
 -1      5834    3    0    1
 -2       993       639      1860      2527
 -1      5835    3    0    1
 -2       159       161      1883      2457
 -1      5836    3    0    1
 -2       616       981      2174      2527
 -1      5837    3    0    1
 -2       762      2985      3006      3033
 -1      5838    3    0    1
 -2      2048      2187      2329      2652
 -1      5839    3    0    1
 -2       333      1017      1269      2460
 -1      5840    3    0    1
 -2      2860      2823      2866      2872
 -1      5841    3    0    1
 -2      1563      1564      1611      2461
 -1      5842    3    0    1
 -2      1543      2093      2116      2619
 -1      5843    3    0    1
 -2      2395      2294      2634      2686
 -1      5844    3    0    1
 -2      1226       106      2309      2443
 -1      5845    3    0    1
 -2      2388      2489      2692      2730
 -1      5846    3    0    1
 -2      1756      1017      1941      2460
 -1      5847    3    0    1
 -2       606       990      1237      2323
 -1      5848    3    0    1
 -2       328      1620      1941      2460
 -1      5849    3    0    1
 -2       606       631       990      2323
 -1      5850    3    0    1
 -2      2307       558      2654      2705
 -1      5851    3    0    1
 -2       560       558      2307      2705
 -1      5852    3    0    1
 -2       558       560      1659      2705
 -1      5853    3    0    1
 -2      2489      1682      2687      2730
 -1      5854    3    0    1
 -2      1908       874      2398      2688
 -1      5855    3    0    1
 -2      1802        62      2391      2832
 -1      5856    3    0    1
 -2       945       954      2019      2695
 -1      5857    3    0    1
 -2      1045       220      2764      2852
 -1      5858    3    0    1
 -2       819      1992      2291      2327
 -1      5859    3    0    1
 -2      1139      2231      2322      2329
 -1      5860    3    0    1
 -2      1942      1732      2048      2329
 -1      5861    3    0    1
 -2      1942      2048      2187      2329
 -1      5862    3    0    1
 -2       878       867      2231      2329
 -1      5863    3    0    1
 -2       867       878      1785      2329
 -1      5864    3    0    1
 -2      1524      2580      2681      2865
 -1      5865    3    0    1
 -2      1557      2141      2204      2331
 -1      5866    3    0    1
 -2      1599      1557      2204      2331
 -1      5867    3    0    1
 -2      1825      1599      2134      2331
 -1      5868    3    0    1
 -2      1557      1599      1825      2331
 -1      5869    3    0    1
 -2      1825      1583      2141      2331
 -1      5870    3    0    1
 -2      1557      1825      2141      2331
 -1      5871    3    0    1
 -2       981       127      2315      2686
 -1      5872    3    0    1
 -2       128       127       981      2686
 -1      5873    3    0    1
 -2      1649      1705      2232      2444
 -1      5874    3    0    1
 -2       969       347      1965      2443
 -1      5875    3    0    1
 -2       127       128      2315      2686
 -1      5876    3    0    1
 -2       943      2225      2406      2600
 -1      5877    3    0    1
 -2       977       337      1226      2332
 -1      5878    3    0    1
 -2      1441       343      1442      3103
 -1      5879    3    0    1
 -2       347       106      1226      2332
 -1      5880    3    0    1
 -2       337       347      1226      2332
 -1      5881    3    0    1
 -2       121       337       977      2332
 -1      5882    3    0    1
 -2      1030      1293      2377      2924
 -1      5883    3    0    1
 -2      1852      1567      1985      2334
 -1      5884    3    0    1
 -2      1684      1565      1902      2335
 -1      5885    3    0    1
 -2      1596      1708      2310      2335
 -1      5886    3    0    1
 -2      1708      1596      1764      2335
 -1      5887    3    0    1
 -2      1684      1708      1764      2335
 -1      5888    3    0    1
 -2      1708      1684      1902      2335
 -1      5889    3    0    1
 -2      1902      1565      2310      2335
 -1      5890    3    0    1
 -2      1708      1902      2310      2335
 -1      5891    3    0    1
 -2      1838      1719      2293      1558
 -1      5892    3    0    1
 -2        77      1885      1917      2336
 -1      5893    3    0    1
 -2        77      1576      1885      2336
 -1      5894    3    0    1
 -2      1718      1621      2711      2713
 -1      5895    3    0    1
 -2      1689      1664      2711      2713
 -1      5896    3    0    1
 -2      1621      1718      2337      2713
 -1      5897    3    0    1
 -2        77      1719      2293      2336
 -1      5898    3    0    1
 -2      1719      1838      2293      2336
 -1      5899    3    0    1
 -2      1719        77      1917      2336
 -1      5900    3    0    1
 -2       966       591      2339      2714
 -1      5901    3    0    1
 -2       591       966      2258      2714
 -1      5902    3    0    1
 -2      2262       333      2477      2715
 -1      5903    3    0    1
 -2       966      1581      2258      2339
 -1      5904    3    0    1
 -2      2262      2477      2680      2715
 -1      5905    3    0    1
 -2      1620       333      2262      2715
 -1      5906    3    0    1
 -2       568       957       966      2339
 -1      5907    3    0    1
 -2       591       568       966      2339
 -1      5908    3    0    1
 -2      1869      1913      2389      2565
 -1      5909    3    0    1
 -2      1687      1556      2389      2565
 -1      5910    3    0    1
 -2      1536      1668      2330      2340
 -1      5911    3    0    1
 -2      1668      1536      1819      2340
 -1      5912    3    0    1
 -2      1607      1782      1990      2491
 -1      5913    3    0    1
 -2      1990      1782      2057      2491
 -1      5914    3    0    1
 -2       915       487      1179      2492
 -1      5915    3    0    1
 -2      1535      1734      1920      2341
 -1      5916    3    0    1
 -2      1734      1663      1920      2341
 -1      5917    3    0    1
 -2      2191        52      2256      2342
 -1      5918    3    0    1
 -2        52       928      1893      2342
 -1      5919    3    0    1
 -2      1893       928      2280      2342
 -1      5920    3    0    1
 -2       928      2191      2280      2342
 -1      5921    3    0    1
 -2       928        52      2191      2342
 -1      5922    3    0    1
 -2       926      1179      2229      2342
 -1      5923    3    0    1
 -2        52       926      2229      2342
 -1      5924    3    0    1
 -2       423        32      1179      2342
 -1      5925    3    0    1
 -2        52       423      1179      2342
 -1      5926    3    0    1
 -2       926        52      1179      2342
 -1      5927    3    0    1
 -2       688       687      2394      2751
 -1      5928    3    0    1
 -2       287       290      2151      2343
 -1      5929    3    0    1
 -2       290       287      1097      2343
 -1      5930    3    0    1
 -2       639       992       995      2425
 -1      5931    3    0    1
 -2      1213       555      2178      2761
 -1      5932    3    0    1
 -2      2115       654      2664      2820
 -1      5933    3    0    1
 -2      2145      2530      2554      2813
 -1      5934    3    0    1
 -2       197      2617      2626      2813
 -1      5935    3    0    1
 -2      2530      1034      2554      2813
 -1      5936    3    0    1
 -2       712      1035      1709      2656
 -1      5937    3    0    1
 -2       490       483      1178      2614
 -1      5938    3    0    1
 -2      1569      2486      2525      2593
 -1      5939    3    0    1
 -2      2272      2303      2525      2593
 -1      5940    3    0    1
 -2      1041      1293       727      2948
 -1      5941    3    0    1
 -2      2464      1829      2504      2536
 -1      5942    3    0    1
 -2      1609       512      2181      2499
 -1      5943    3    0    1
 -2       488        32       915       485
 -1      5944    3    0    1
 -2      1066       772      2198      2365
 -1      5945    3    0    1
 -2      2024      2075      2224      2472
 -1      5946    3    0    1
 -2      1970      1980      2851      2852
 -1      5947    3    0    1
 -2      1759      1627      2141      2441
 -1      5948    3    0    1
 -2      2077      1030      1420      3109
 -1      5949    3    0    1
 -2       584       582      2654      2920
 -1      5950    3    0    1
 -2      1092      1166      1765      2933
 -1      5951    3    0    1
 -2      1937      1904      2056      2523
 -1      5952    3    0    1
 -2       402      1339      2210      2349
 -1      5953    3    0    1
 -2      1339      1727      2210      2349
 -1      5954    3    0    1
 -2      1555      1907      1921      2351
 -1      5955    3    0    1
 -2      1554      1638      1781      2351
 -1      5956    3    0    1
 -2      2185      1314      2510      2543
 -1      5957    3    0    1
 -2      2005      1974      2133      2482
 -1      5958    3    0    1
 -2      1638      1555      1921      2351
 -1      5959    3    0    1
 -2      1991      1685      2005      2482
 -1      5960    3    0    1
 -2      2637      2679      2681      2819
 -1      5961    3    0    1
 -2      1737      2325      2368      2816
 -1      5962    3    0    1
 -2      2540      1303      2571      2843
 -1      5963    3    0    1
 -2      1582      2388      2662      2749
 -1      5964    3    0    1
 -2      2388      1582      2728      2749
 -1      5965    3    0    1
 -2      2515      1731      2587      2870
 -1      5966    3    0    1
 -2       340       341      1005      2353
 -1      5967    3    0    1
 -2       995       340      1005      2353
 -1      5968    3    0    1
 -2      1390      1128      1785      2800
 -1      5969    3    0    1
 -2      1352       298      1349      2355
 -1      5970    3    0    1
 -2      2253      2061      2622      2672
 -1      5971    3    0    1
 -2      1824      1702      2168      2672
 -1      5972    3    0    1
 -2      1662      2013      2271      2356
 -1      5973    3    0    1
 -2      2228      1662      2271      2356
 -1      5974    3    0    1
 -2      1526      2228      2271      2356
 -1      5975    3    0    1
 -2      1683      1526      2271      2356
 -1      5976    3    0    1
 -2      1664      1662      2228      2356
 -1      5977    3    0    1
 -2      1662      1664      2013      2356
 -1      5978    3    0    1
 -2      1444       101      3085      1468
 -1      5979    3    0    1
 -2      2073      1891      2480      2745
 -1      5980    3    0    1
 -2       472       495      1963      2358
 -1      5981    3    0    1
 -2       472       909      1182      2358
 -1      5982    3    0    1
 -2       495       472      1182      2358
 -1      5983    3    0    1
 -2      1548      1789      2547      2719
 -1      5984    3    0    1
 -2       980      2360      2701      2703
 -1      5985    3    0    1
 -2      1963       472      2358      2702
 -1      5986    3    0    1
 -2       472      1963      2359      2702
 -1      5987    3    0    1
 -2      2195      1760      2328      2704
 -1      5988    3    0    1
 -2      1761       909      2020      2702
 -1      5989    3    0    1
 -2       909      1761      2358      2702
 -1      5990    3    0    1
 -2       507      2205      2311      2805
 -1      5991    3    0    1
 -2       969       592      2258      2630
 -1      5992    3    0    1
 -2       507      1191      2684      2805
 -1      5993    3    0    1
 -2       418      2575      2798      2866
 -1      5994    3    0    1
 -2       592       615       980      2360
 -1      5995    3    0    1
 -2       968       592       980      2360
 -1      5996    3    0    1
 -2      1830      1729      1994      2362
 -1      5997    3    0    1
 -2      1616      1994      2089      2362
 -1      5998    3    0    1
 -2       929       393      2113      2363
 -1      5999    3    0    1
 -2       679       668       667      2962
 -1      6000    3    0    1
 -2       759      1057      2735      2766
 -1      6001    3    0    1
 -2      1248      2560      2769      2854
 -1      6002    3    0    1
 -2      1326      1813      3068      2994
 -1      6003    3    0    1
 -2      2023      2074      2369      2700
 -1      6004    3    0    1
 -2      1767      2074      2404      2700
 -1      6005    3    0    1
 -2      2346      1551      2385      2698
 -1      6006    3    0    1
 -2      2124      2947      2961      3131
 -1      6007    3    0    1
 -2      1327      2859      2871      2874
 -1      6008    3    0    1
 -2      2168      1702      2639      2825
 -1      6009    3    0    1
 -2      2369      1805      2403      2427
 -1      6010    3    0    1
 -2      1667      1784      2248      2479
 -1      6011    3    0    1
 -2      1784      1949      2248      2479
 -1      6012    3    0    1
 -2      1805      1954      2117      2367
 -1      6013    3    0    1
 -2      1834      1805      2117      2367
 -1      6014    3    0    1
 -2      1248      1648      2508      2560
 -1      6015    3    0    1
 -2      1698      1878      2073      2428
 -1      6016    3    0    1
 -2       377      1549      2396      2733
 -1      6017    3    0    1
 -2      1554      1638      2351      2481
 -1      6018    3    0    1
 -2      1551      2364      2696      2698
 -1      6019    3    0    1
 -2       615       979       982      2831
 -1      6020    3    0    1
 -2       679      2131      2434      2820
 -1      6021    3    0    1
 -2      1778      2023      2369      2700
 -1      6022    3    0    1
 -2      2679      2182      2681      2819
 -1      6023    3    0    1
 -2       512      1193      2181      2499
 -1      6024    3    0    1
 -2       486       512      1609      2499
 -1      6025    3    0    1
 -2      2954      2348      3098      3099
 -1      6026    3    0    1
 -2       918      2169      2552      2586
 -1      6027    3    0    1
 -2       736       735      1046      2380
 -1      6028    3    0    1
 -2       962      2618      2629      2789
 -1      6029    3    0    1
 -2       939      1215      2199      1417
 -1      6030    3    0    1
 -2      2170       579      2223      2789
 -1      6031    3    0    1
 -2      2023      1778      2252      2700
 -1      6032    3    0    1
 -2      2252      1778      2361      2700
 -1      6033    3    0    1
 -2      2074      2023      2404      2700
 -1      6034    3    0    1
 -2      2099      2346      2385      2884
 -1      6035    3    0    1
 -2      1667      1569      1784      2479
 -1      6036    3    0    1
 -2      1095       831      2111      2375
 -1      6037    3    0    1
 -2      1095      1098       831      2375
 -1      6038    3    0    1
 -2       727       726      1796      2377
 -1      6039    3    0    1
 -2       726       727      1041      2377
 -1      6040    3    0    1
 -2       968      1953      2630      2804
 -1      6041    3    0    1
 -2      1030       702      1882      2377
 -1      6042    3    0    1
 -2       727      1030      1293      2377
 -1      6043    3    0    1
 -2       727       702      1030      2377
 -1      6044    3    0    1
 -2      1166      1092      1429      2933
 -1      6045    3    0    1
 -2      1085      1095      2111      2678
 -1      6046    3    0    1
 -2      1044       736      1045      2380
 -1      6047    3    0    1
 -2       778      2507      2545      2573
 -1      6048    3    0    1
 -2      2023       398      2369      2427
 -1      6049    3    0    1
 -2      1295      1046       735      2380
 -1      6050    3    0    1
 -2       466      1713      2591      2366
 -1      6051    3    0    1
 -2       392      2728      2748      2754
 -1      6052    3    0    1
 -2       881      2208      2302      2549
 -1      6053    3    0    1
 -2      1878      1971      2655      2826
 -1      6054    3    0    1
 -2      1654      1634      1702      2659
 -1      6055    3    0    1
 -2      1036       712      2738      2844
 -1      6056    3    0    1
 -2       995       340      2353      2727
 -1      6057    3    0    1
 -2      1767      1830      2097      2384
 -1      6058    3    0    1
 -2      1830      1767      1994      2384
 -1      6059    3    0    1
 -2       887       849      2097      2384
 -1      6060    3    0    1
 -2       849       887      1994      2384
 -1      6061    3    0    1
 -2      1767      1967      1994      2384
 -1      6062    3    0    1
 -2      1967       849      1994      2384
 -1      6063    3    0    1
 -2      1967      1767      2097      2384
 -1      6064    3    0    1
 -2       849      1967      2097      2384
 -1      6065    3    0    1
 -2       795       802      1327      2516
 -1      6066    3    0    1
 -2      1226       977      2332      2615
 -1      6067    3    0    1
 -2      1060      1070      2740      2856
 -1      6068    3    0    1
 -2        24       396       916      2386
 -1      6069    3    0    1
 -2      1897      1259      2434      2664
 -1      6070    3    0    1
 -2       582       608      1226      2615
 -1      6071    3    0    1
 -2       582      1226      1948      2615
 -1      6072    3    0    1
 -2        24       916      1178      2386
 -1      6073    3    0    1
 -2      2380       735      2572      2656
 -1      6074    3    0    1
 -2       234      1060      2843      2856
 -1      6075    3    0    1
 -2       106      1226      2332      2443
 -1      6076    3    0    1
 -2      1226      2309      2332      2443
 -1      6077    3    0    1
 -2      2009       377      2396      2733
 -1      6078    3    0    1
 -2      1549      1168      2596      2733
 -1      6079    3    0    1
 -2      1878      1178      2614      2655
 -1      6080    3    0    1
 -2      2153       916      2386      2655
 -1      6081    3    0    1
 -2      2698      2541      2886      2921
 -1      6082    3    0    1
 -2      2476      1552      2747      2763
 -1      6083    3    0    1
 -2      1168      1912      2596      2733
 -1      6084    3    0    1
 -2      1178        24      2386      2655
 -1      6085    3    0    1
 -2        24      2144      2386      2655
 -1      6086    3    0    1
 -2       916      1178      2386      2655
 -1      6087    3    0    1
 -2       582       963      1238      2387
 -1      6088    3    0    1
 -2       608       582      1238      2387
 -1      6089    3    0    1
 -2      1776      1008      2414      2485
 -1      6090    3    0    1
 -2      1326      1067      1813      2390
 -1      6091    3    0    1
 -2      2587      1731      2790      2870
 -1      6092    3    0    1
 -2       774       799      2185      2390
 -1      6093    3    0    1
 -2      1426      3070      2999      3127
 -1      6094    3    0    1
 -2       774      1067      1326      2390
 -1      6095    3    0    1
 -2       799       774      1326      2390
 -1      6096    3    0    1
 -2       312       319      2576      2800
 -1      6097    3    0    1
 -2       156      1735      2244      2393
 -1      6098    3    0    1
 -2       664      2414      2485      2533
 -1      6099    3    0    1
 -2      2244      1735      2382      2393
 -1      6100    3    0    1
 -2      2241      2244      2382      2393
 -1      6101    3    0    1
 -2       412      1597      2741      2851
 -1      6102    3    0    1
 -2      1059       410      1597      2555
 -1      6103    3    0    1
 -2       688      1018      1021      2394
 -1      6104    3    0    1
 -2      1073      2275      2562      2606
 -1      6105    3    0    1
 -2      1646      2376      2438      2742
 -1      6106    3    0    1
 -2       310      2563      2568      2752
 -1      6107    3    0    1
 -2       783       784      2509      2606
 -1      6108    3    0    1
 -2      1073       784      2275      2606
 -1      6109    3    0    1
 -2       784      1072      2509      2606
 -1      6110    3    0    1
 -2       389      2186      2265      2415
 -1      6111    3    0    1
 -2       389      1951      2186      2415
 -1      6112    3    0    1
 -2      1576      1213      2178      2467
 -1      6113    3    0    1
 -2      1763       953      2135      2467
 -1      6114    3    0    1
 -2      1137      1114      1908      2398
 -1      6115    3    0    1
 -2      1271      2131      2239      2689
 -1      6116    3    0    1
 -2      1137       856      1114      2398
 -1      6117    3    0    1
 -2       874      1137      1908      2398
 -1      6118    3    0    1
 -2       856      1137       874      2398
 -1      6119    3    0    1
 -2       165       166      2962      2963
 -1      6120    3    0    1
 -2      2378      2899      2923      3091
 -1      6121    3    0    1
 -2       101       348      3107      3022
 -1      6122    3    0    1
 -2      3098      1428      1481      1482
 -1      6123    3    0    1
 -2      1669       191      1945      2456
 -1      6124    3    0    1
 -2       141       340       995      2727
 -1      6125    3    0    1
 -2       161       159      1007      2457
 -1      6126    3    0    1
 -2      1852       246      2057      2491
 -1      6127    3    0    1
 -2      1852      2057      2334      2491
 -1      6128    3    0    1
 -2      1735      1654      1841      2401
 -1      6129    3    0    1
 -2      1165       905       462      2402
 -1      6130    3    0    1
 -2      1165      2029      2399      2402
 -1      6131    3    0    1
 -2      2009      1165      2399      2402
 -1      6132    3    0    1
 -2       905      2009      2397      2402
 -1      6133    3    0    1
 -2       463       905      2397      2402
 -1      6134    3    0    1
 -2      1729      1767      1830      2404
 -1      6135    3    0    1
 -2      1561      1767      1947      2404
 -1      6136    3    0    1
 -2      1561      1947      2074      2404
 -1      6137    3    0    1
 -2      1947      1767      2074      2404
 -1      6138    3    0    1
 -2      2224       706      2284      2405
 -1      6139    3    0    1
 -2       203      2145      2284      2405
 -1      6140    3    0    1
 -2      1847      1635      2627      2792
 -1      6141    3    0    1
 -2      2075      2224      2284      2405
 -1      6142    3    0    1
 -2      2024      2075      2284      2405
 -1      6143    3    0    1
 -2      2075      2024      2224      2405
 -1      6144    3    0    1
 -2      2284      2145      2285      2405
 -1      6145    3    0    1
 -2      2843      1060      2735      2856
 -1      6146    3    0    1
 -2      2798       418      2860      2872
 -1      6147    3    0    1
 -2      1070      1060      2775      2856
 -1      6148    3    0    1
 -2      1522      2515      2855      2858
 -1      6149    3    0    1
 -2       875       858      2279      2408
 -1      6150    3    0    1
 -2       858      2226      2279      2408
 -1      6151    3    0    1
 -2       297      1386       318      2408
 -1      6152    3    0    1
 -2      1386       297      1116      2408
 -1      6153    3    0    1
 -2      1715      2226      2321      2408
 -1      6154    3    0    1
 -2      1116       297      2321      2408
 -1      6155    3    0    1
 -2      1386       858       875      2408
 -1      6156    3    0    1
 -2       858      1386      1116      2408
 -1      6157    3    0    1
 -2       858      1116      2321      2408
 -1      6158    3    0    1
 -2      2226       858      2321      2408
 -1      6159    3    0    1
 -2      1270       174      1814      2611
 -1      6160    3    0    1
 -2       448       411      1115      2410
 -1      6161    3    0    1
 -2      1115      2219       411      1404
 -1      6162    3    0    1
 -2      1373       411       448      2410
 -1      6163    3    0    1
 -2       411      1723      2219      2410
 -1      6164    3    0    1
 -2       411      1373      1154      2410
 -1      6165    3    0    1
 -2       411      1154      1723      2410
 -1      6166    3    0    1
 -2       177      2394      2466      2808
 -1      6167    3    0    1
 -2      1393       447      1752      2739
 -1      6168    3    0    1
 -2      1036       202      2572      2590
 -1      6169    3    0    1
 -2      1731      2773      2779      2857
 -1      6170    3    0    1
 -2       201       353      1031      2413
 -1      6171    3    0    1
 -2      2208      2302      2445      2739
 -1      6172    3    0    1
 -2       778      2198      2507      2573
 -1      6173    3    0    1
 -2      1316      1066      2198      2573
 -1      6174    3    0    1
 -2      2216      1617      2583      2817
 -1      6175    3    0    1
 -2      1974      1071      2509      2740
 -1      6176    3    0    1
 -2       201      1031      1279      2413
 -1      6177    3    0    1
 -2      2394       177      2605      2808
 -1      6178    3    0    1
 -2      2208       868      2302      2739
 -1      6179    3    0    1
 -2      1681      1903      2286      2416
 -1      6180    3    0    1
 -2      1069      2198      2507       778
 -1      6181    3    0    1
 -2       951      1227      2654      2822
 -1      6182    3    0    1
 -2      1619      1595      1632      2417
 -1      6183    3    0    1
 -2      1562      1632      2193      2417
 -1      6184    3    0    1
 -2      1632      1595      2193      2417
 -1      6185    3    0    1
 -2      1931      1545      2061      2418
 -1      6186    3    0    1
 -2      1545      1931      2084      2418
 -1      6187    3    0    1
 -2      2345       930      2534      2613
 -1      6188    3    0    1
 -2      2170       961      2296      2501
 -1      6189    3    0    1
 -2       330      1100      1345      2579
 -1      6190    3    0    1
 -2      1999      2040      2108      2651
 -1      6191    3    0    1
 -2       330      1345      1931      2579
 -1      6192    3    0    1
 -2      2010      1546      2155      2809
 -1      6193    3    0    1
 -2      1999      1732      2207      2604
 -1      6194    3    0    1
 -2      2521       265      2557      2676
 -1      6195    3    0    1
 -2       533       372      1202        67
 -1      6196    3    0    1
 -2       261      1617      2304      2632
 -1      6197    3    0    1
 -2       265      1537      2557      2632
 -1      6198    3    0    1
 -2       265      1537      2521      2557
 -1      6199    3    0    1
 -2      1394       870      1132      2421
 -1      6200    3    0    1
 -2      1681      1903      2416      2666
 -1      6201    3    0    1
 -2      1832      1607      2106      2422
 -1      6202    3    0    1
 -2       272      2210      2623      2793
 -1      6203    3    0    1
 -2      1607      1832      1990      2422
 -1      6204    3    0    1
 -2      1060       760      2735      2856
 -1      6205    3    0    1
 -2      1020      2006      2751       688
 -1      6206    3    0    1
 -2       831      2111      2375      2424
 -1      6207    3    0    1
 -2      2111       831      2343      2424
 -1      6208    3    0    1
 -2      2208      1663      2549      2647
 -1      6209    3    0    1
 -2       975       128      2294      2842
 -1      6210    3    0    1
 -2       992       138       995      2425
 -1      6211    3    0    1
 -2      1097      2343      2424      2750
 -1      6212    3    0    1
 -2       640       639       995      2425
 -1      6213    3    0    1
 -2      2200      1250      2222      2829
 -1      6214    3    0    1
 -2      1345      1100      1931      2579
 -1      6215    3    0    1
 -2      2174       981      2315      2686
 -1      6216    3    0    1
 -2      1071       783      1072      2509
 -1      6217    3    0    1
 -2      1571      2294      2763      2842
 -1      6218    3    0    1
 -2       378      1866      2754      2755
 -1      6219    3    0    1
 -2      1552      2179      2201      2641
 -1      6220    3    0    1
 -2       138       141       995      2425
 -1      6221    3    0    1
 -2       267       369      2760      2849
 -1      6222    3    0    1
 -2      1931      2061      2101      2579
 -1      6223    3    0    1
 -2      1044      2380      2656       735
 -1      6224    3    0    1
 -2       514      1194      2094      2428
 -1      6225    3    0    1
 -2      1250       145      2827      2829
 -1      6226    3    0    1
 -2       543      2592      2600      2729
 -1      6227    3    0    1
 -2       350       232      2571      2847
 -1      6228    3    0    1
 -2      1303       365      2571      2843
 -1      6229    3    0    1
 -2      1686      1818      2439      2470
 -1      6230    3    0    1
 -2       853      1151      1110      2429
 -1      6231    3    0    1
 -2      1715      1686      2439      2470
 -1      6232    3    0    1
 -2      2123      1737      2127      2432
 -1      6233    3    0    1
 -2      1866      2123      2127      2432
 -1      6234    3    0    1
 -2      1972      1866      2127      2432
 -1      6235    3    0    1
 -2      1655      1972      2127      2432
 -1      6236    3    0    1
 -2      2272      1655      2303      2432
 -1      6237    3    0    1
 -2       378      2272      2303      2432
 -1      6238    3    0    1
 -2      1972      1655      2272      2432
 -1      6239    3    0    1
 -2      1866      1972      2272      2432
 -1      6240    3    0    1
 -2      1689      1754      1884      2711
 -1      6241    3    0    1
 -2      1353       301      1103      2433
 -1      6242    3    0    1
 -2       301      1353       317      2433
 -1      6243    3    0    1
 -2      1718      1689      1884      2711
 -1      6244    3    0    1
 -2      1016       164      1259      2434
 -1      6245    3    0    1
 -2       654       679      1016      2434
 -1      6246    3    0    1
 -2       181       164      1016      2434
 -1      6247    3    0    1
 -2      2500      1145      2568      2752
 -1      6248    3    0    1
 -2       332       173      1020      2435
 -1      6249    3    0    1
 -2      1574       173      2203      2435
 -1      6250    3    0    1
 -2       332      2145      2203      2435
 -1      6251    3    0    1
 -2       173       332      2203      2435
 -1      6252    3    0    1
 -2        50       394      1605      2784
 -1      6253    3    0    1
 -2      1774      2247      2352      2743
 -1      6254    3    0    1
 -2      1646      1982      2376      2742
 -1      6255    3    0    1
 -2      1910      1982      2227      2742
 -1      6256    3    0    1
 -2      1843      2237      2438      2742
 -1      6257    3    0    1
 -2      1969      1843      1982      2742
 -1      6258    3    0    1
 -2      1910      1969      1982      2742
 -1      6259    3    0    1
 -2      1669       198      2588      2743
 -1      6260    3    0    1
 -2      1980       412      2376      2438
 -1      6261    3    0    1
 -2      1843      1980      2376      2438
 -1      6262    3    0    1
 -2       463       462      2402      2440
 -1      6263    3    0    1
 -2      1765       463      2402      2440
 -1      6264    3    0    1
 -2      1532      1857      2704      2328
 -1      6265    3    0    1
 -2      2409      1577      2452      2455
 -1      6266    3    0    1
 -2       462       463      1166      2440
 -1      6267    3    0    1
 -2      1166       463      1765      2440
 -1      6268    3    0    1
 -2       462       904      1180      2440
 -1      6269    3    0    1
 -2       487       462      1180      2440
 -1      6270    3    0    1
 -2      1833      1524      2580      2802
 -1      6271    3    0    1
 -2      1168        14      1912      2733
 -1      6272    3    0    1
 -2      1912        14      2020      2733
 -1      6273    3    0    1
 -2       413       213      2627      2861
 -1      6274    3    0    1
 -2      1041      1304      2371      1411
 -1      6275    3    0    1
 -2      2061      1931      2418      2579
 -1      6276    3    0    1
 -2       121       123      1864      2442
 -1      6277    3    0    1
 -2       123       121      1237      2442
 -1      6278    3    0    1
 -2       969      1965      2258      2443
 -1      6279    3    0    1
 -2       106       969      2258      2443
 -1      6280    3    0    1
 -2      1581       102      2258      2443
 -1      6281    3    0    1
 -2       102       106      2258      2443
 -1      6282    3    0    1
 -2      1541      1590      2232      2444
 -1      6283    3    0    1
 -2      2098      1590      2430      2444
 -1      6284    3    0    1
 -2      1541      2098      2430      2444
 -1      6285    3    0    1
 -2      1590      1541      2430      2444
 -1      6286    3    0    1
 -2      1705      1568      2105      2444
 -1      6287    3    0    1
 -2      1541      1705      2105      2444
 -1      6288    3    0    1
 -2      2428      1698      2749      2846
 -1      6289    3    0    1
 -2      1688      1752      2130      2445
 -1      6290    3    0    1
 -2      1752      1688      1920      2445
 -1      6291    3    0    1
 -2      1752      1663      2302      2445
 -1      6292    3    0    1
 -2      1663      1752      1920      2445
 -1      6293    3    0    1
 -2      1837      1778      2252      2544
 -1      6294    3    0    1
 -2      1325      1081       798      2447
 -1      6295    3    0    1
 -2      1859      1325      2214      2447
 -1      6296    3    0    1
 -2      1325       798      2214      2447
 -1      6297    3    0    1
 -2       799       798      1081      2447
 -1      6298    3    0    1
 -2       799      1081      2185      2447
 -1      6299    3    0    1
 -2      1533      1592      2012      2448
 -1      6300    3    0    1
 -2      1988      2012      2104      2448
 -1      6301    3    0    1
 -2      2104      2012      2148      2448
 -1      6302    3    0    1
 -2      2012      1592      2148      2448
 -1      6303    3    0    1
 -2      1788      1854      1900      2512
 -1      6304    3    0    1
 -2       953       555      1213      2761
 -1      6305    3    0    1
 -2       232      2538      2571      2847
 -1      6306    3    0    1
 -2      1007       161      2457      2756
 -1      6307    3    0    1
 -2       603      1239       975      2450
 -1      6308    3    0    1
 -2       975      1239      2315      2450
 -1      6309    3    0    1
 -2      2200      2222      2667      2829
 -1      6310    3    0    1
 -2      1571      2667      2827      2829
 -1      6311    3    0    1
 -2       378       392       927      2748
 -1      6312    3    0    1
 -2      2919      3088      3093      3114
 -1      6313    3    0    1
 -2      1451       210      3114      3000
 -1      6314    3    0    1
 -2      2952      2877      3093      3000
 -1      6315    3    0    1
 -2      2028      1577      2190      2453
 -1      6316    3    0    1
 -2      1829      1774      2276      2504
 -1      6317    3    0    1
 -2      2276      1774      2352      2504
 -1      6318    3    0    1
 -2       252      1073      2275      2562
 -1      6319    3    0    1
 -2      1529      1639      1730      2501
 -1      6320    3    0    1
 -2      1529       335      1639      2501
 -1      6321    3    0    1
 -2      2278      2126      2557      2676
 -1      6322    3    0    1
 -2      1730      1801      1957      2501
 -1      6323    3    0    1
 -2       961       335      2296      2501
 -1      6324    3    0    1
 -2      1694      2452      2455      2456
 -1      6325    3    0    1
 -2      1694      1570      2452      2456
 -1      6326    3    0    1
 -2      1748      1239      2725      2838
 -1      6327    3    0    1
 -2      1907      1555      2496      2716
 -1      6328    3    0    1
 -2       269      1859      2171      2678
 -1      6329    3    0    1
 -2      1006      1883      1975      2457
 -1      6330    3    0    1
 -2      1776      1006      1975      2457
 -1      6331    3    0    1
 -2       663      1006      1776      2457
 -1      6332    3    0    1
 -2      1006       663      1007      2457
 -1      6333    3    0    1
 -2      2718      1748      2725      2838
 -1      6334    3    0    1
 -2       159      1006      1007      2457
 -1      6335    3    0    1
 -2      1006       159      1883      2457
 -1      6336    3    0    1
 -2      2024      2075      2472      2757
 -1      6337    3    0    1
 -2      1663      2039      2107      2647
 -1      6338    3    0    1
 -2        14       377      2009      2733
 -1      6339    3    0    1
 -2      1249       989       631      2459
 -1      6340    3    0    1
 -2       156      1000      2244      2759
 -1      6341    3    0    1
 -2       942       372      2592      2810
 -1      6342    3    0    1
 -2      1618       329      1647      2759
 -1      6343    3    0    1
 -2      1393       446       447      2739
 -1      6344    3    0    1
 -2      1611      1560      2071      2461
 -1      6345    3    0    1
 -2      1624      1611      2071      2461
 -1      6346    3    0    1
 -2      1611      1564      2372      2461
 -1      6347    3    0    1
 -2      1560      1611      2372      2461
 -1      6348    3    0    1
 -2      2216      1592      2448      2462
 -1      6349    3    0    1
 -2      2103      2216      2448      2462
 -1      6350    3    0    1
 -2       398       906      2544      2723
 -1      6351    3    0    1
 -2      1270      2242      2589      2611
 -1      6352    3    0    1
 -2       268       267      1328      2463
 -1      6353    3    0    1
 -2      1778       398      2252      2544
 -1      6354    3    0    1
 -2       398        10      2252      2544
 -1      6355    3    0    1
 -2       956       384      1812      2511
 -1      6356    3    0    1
 -2      1790       384      1904      2511
 -1      6357    3    0    1
 -2        83       384      1790      2511
 -1      6358    3    0    1
 -2      2535       191      2558      2679
 -1      6359    3    0    1
 -2      1613      2002      2154      2737
 -1      6360    3    0    1
 -2       191      2535      2637      2679
 -1      6361    3    0    1
 -2       255       268      1328      2463
 -1      6362    3    0    1
 -2      1073       255      1328      2463
 -1      6363    3    0    1
 -2      1092      1429      2933      3126
 -1      6364    3    0    1
 -2        41       424      2306      2862
 -1      6365    3    0    1
 -2      1193      2181      2499      2636
 -1      6366    3    0    1
 -2      1877      1651      2051      2594
 -1      6367    3    0    1
 -2       164       181      1008      2466
 -1      6368    3    0    1
 -2       177       181      1016      2466
 -1      6369    3    0    1
 -2      1008       181      1018      2466
 -1      6370    3    0    1
 -2      3114      3088      1490      3122
 -1      6371    3    0    1
 -2        77       953      1213      2467
 -1      6372    3    0    1
 -2      1465      3090      2980      3117
 -1      6373    3    0    1
 -2      3068      2900      3077      3079
 -1      6374    3    0    1
 -2       382        77      2135      2467
 -1      6375    3    0    1
 -2        77       382       953      2467
 -1      6376    3    0    1
 -2       953       382      2135      2467
 -1      6377    3    0    1
 -2      2325      1737      2704      2816
 -1      6378    3    0    1
 -2       118      1773      2436      2476
 -1      6379    3    0    1
 -2      1797      1676      2416      2642
 -1      6380    3    0    1
 -2      1191       927      2094      2748
 -1      6381    3    0    1
 -2       324      1007      2277      2756
 -1      6382    3    0    1
 -2      1686      1715      2027      2470
 -1      6383    3    0    1
 -2      1907      2338      2439      2470
 -1      6384    3    0    1
 -2      1907      1555      2338      2470
 -1      6385    3    0    1
 -2      1558      1603      1719      2497
 -1      6386    3    0    1
 -2      1808      1558      1874      2497
 -1      6387    3    0    1
 -2      1603      1808      1874      2497
 -1      6388    3    0    1
 -2      1719      1603      2281      2497
 -1      6389    3    0    1
 -2       799      2185      2390      2484
 -1      6390    3    0    1
 -2      2185       799      2447      2484
 -1      6391    3    0    1
 -2       426      3087      3095      1474
 -1      6392    3    0    1
 -2       252      1068      1314      2510
 -1      6393    3    0    1
 -2      2198      1066      2365      2483
 -1      6394    3    0    1
 -2      1945      1669      2456      2561
 -1      6395    3    0    1
 -2       253       407      1316      2471
 -1      6396    3    0    1
 -2       407      1316      2471      2483
 -1      6397    3    0    1
 -2       387      1903      2245      2666
 -1      6398    3    0    1
 -2      2018      2245      2249      2666
 -1      6399    3    0    1
 -2      1533      1592      2216      2583
 -1      6400    3    0    1
 -2      2103      1324      2216      2583
 -1      6401    3    0    1
 -2      2085      1533      2216      2583
 -1      6402    3    0    1
 -2      1737      2123      2704      2816
 -1      6403    3    0    1
 -2      2634      1571      2827      2829
 -1      6404    3    0    1
 -2      2182      1524      2580      2681
 -1      6405    3    0    1
 -2      1083       373      2570      2787
 -1      6406    3    0    1
 -2      1083      1766      2581      2787
 -1      6407    3    0    1
 -2       315      1394      1132      2659
 -1      6408    3    0    1
 -2      2189      1654      2240      2659
 -1      6409    3    0    1
 -2       373       404      2142      2787
 -1      6410    3    0    1
 -2      2629      2264      2683      2789
 -1      6411    3    0    1
 -2      1833      1725      2478      2765
 -1      6412    3    0    1
 -2      1796       751      2571      2682
 -1      6413    3    0    1
 -2      1844      1829      2464      2536
 -1      6414    3    0    1
 -2      1995      1392      2464      2536
 -1      6415    3    0    1
 -2      1930      1108      2072      2487
 -1      6416    3    0    1
 -2      1003       655      2664      2769
 -1      6417    3    0    1
 -2      1863      2248      2324      2479
 -1      6418    3    0    1
 -2      2248      1949      2324      2479
 -1      6419    3    0    1
 -2        36       913      2073      2480
 -1      6420    3    0    1
 -2      2073       913      2217      2480
 -1      6421    3    0    1
 -2       232       350      1057      2847
 -1      6422    3    0    1
 -2      1554      1781      1784      2481
 -1      6423    3    0    1
 -2      1687      1674      2288      2717
 -1      6424    3    0    1
 -2      1949      1781      2351      2481
 -1      6425    3    0    1
 -2      1368      1383      2671      2717
 -1      6426    3    0    1
 -2      1603      1558      1808      2497
 -1      6427    3    0    1
 -2      1670      2070      2673      2768
 -1      6428    3    0    1
 -2      2035      2164      2278      2608
 -1      6429    3    0    1
 -2      1071       253      2133      2482
 -1      6430    3    0    1
 -2       371      2570      2635      2797
 -1      6431    3    0    1
 -2      1991       409      2133      2482
 -1      6432    3    0    1
 -2      2107      2039      2412      2647
 -1      6433    3    0    1
 -2       407       244      1066      2483
 -1      6434    3    0    1
 -2       798       799      1326      2484
 -1      6435    3    0    1
 -2       536       534       939      2995
 -1      6436    3    0    1
 -2       798      1876      2447      2484
 -1      6437    3    0    1
 -2       799       798      2447      2484
 -1      6438    3    0    1
 -2       798      1080      1876      2484
 -1      6439    3    0    1
 -2      1080       798      1326      2484
 -1      6440    3    0    1
 -2      2419      1645      2526      2785
 -1      6441    3    0    1
 -2      1008       664      2414      2485
 -1      6442    3    0    1
 -2       664      1008      1018      2485
 -1      6443    3    0    1
 -2       687       664      1018      2485
 -1      6444    3    0    1
 -2      1863       538      2295      2486
 -1      6445    3    0    1
 -2      2213      2248      2295      2486
 -1      6446    3    0    1
 -2      2248      1863      2295      2486
 -1      6447    3    0    1
 -2       440      1401      2487      2674
 -1      6448    3    0    1
 -2       441       440      1108      2487
 -1      6449    3    0    1
 -2       775       774      1315      3006
 -1      6450    3    0    1
 -2      1108       440      1401      2487
 -1      6451    3    0    1
 -2      1401      1770      2072      2487
 -1      6452    3    0    1
 -2      1044       334      1981      2663
 -1      6453    3    0    1
 -2      1620       328      1941      2771
 -1      6454    3    0    1
 -2      2490      2202      2770      2771
 -1      6455    3    0    1
 -2      1734      1620      2341      2771
 -1      6456    3    0    1
 -2      2413       201      2738      2844
 -1      6457    3    0    1
 -2      1305      1873      2376      2741
 -1      6458    3    0    1
 -2       760      1597      2735      2845
 -1      6459    3    0    1
 -2      1980       412      2438      2741
 -1      6460    3    0    1
 -2      1970      1980      2438      2741
 -1      6461    3    0    1
 -2      1597       760      2555      2845
 -1      6462    3    0    1
 -2      2531      1886       137      2211
 -1      6463    3    0    1
 -2       915        31      2399      2492
 -1      6464    3    0    1
 -2      1524      2182      2637      2681
 -1      6465    3    0    1
 -2       487       486      1179      2492
 -1      6466    3    0    1
 -2      1179       486      1609      2492
 -1      6467    3    0    1
 -2       915      1962        31      2492
 -1      6468    3    0    1
 -2      1525      1809      2228      2493
 -1      6469    3    0    1
 -2      2631       265      2632      2817
 -1      6470    3    0    1
 -2      1324       795      2011      2516
 -1      6471    3    0    1
 -2       107       962      2044      2799
 -1      6472    3    0    1
 -2      1324      1082       795      2516
 -1      6473    3    0    1
 -2      2578       344      2640      2801
 -1      6474    3    0    1
 -2      1548      1978      2412      2719
 -1      6475    3    0    1
 -2      2515      2779      2855      2858
 -1      6476    3    0    1
 -2      1977      2598      2902      2947
 -1      6477    3    0    1
 -2      1669       198      2558      2588
 -1      6478    3    0    1
 -2       916      2153      2386      2858
 -1      6479    3    0    1
 -2       852      2267      2288      2717
 -1      6480    3    0    1
 -2      1686      1818      2470      2496
 -1      6481    3    0    1
 -2       418        18      1817      2575
 -1      6482    3    0    1
 -2      1555      1815      2470      2496
 -1      6483    3    0    1
 -2      1815      1686      2470      2496
 -1      6484    3    0    1
 -2      1603      1595      2281      2497
 -1      6485    3    0    1
 -2      2499       914      1410      2915
 -1      6486    3    0    1
 -2      1551      1528      2379      2498
 -1      6487    3    0    1
 -2      1528      1551      2099      2498
 -1      6488    3    0    1
 -2      2370      1551      2379      2498
 -1      6489    3    0    1
 -2      1977      2370      2379      2498
 -1      6490    3    0    1
 -2      1408      1123      2563      2722
 -1      6491    3    0    1
 -2       248       250      2753      2775
 -1      6492    3    0    1
 -2      2275       248      2753      2775
 -1      6493    3    0    1
 -2       896      1408      2620      2722
 -1      6494    3    0    1
 -2       712      1709      2738      2844
 -1      6495    3    0    1
 -2      1709       712      2572      2844
 -1      6496    3    0    1
 -2       519       496      2280      2586
 -1      6497    3    0    1
 -2       512       486      1193      2499
 -1      6498    3    0    1
 -2      1801       335      2449      2501
 -1      6499    3    0    1
 -2      1639       335      1801      2501
 -1      6500    3    0    1
 -2      1542      1672      1680      2502
 -1      6501    3    0    1
 -2      2540      1068      2753      2777
 -1      6502    3    0    1
 -2       931      2191      2306      2694
 -1      6503    3    0    1
 -2      2276      1995      2464      2504
 -1      6504    3    0    1
 -2      1829      2276      2464      2504
 -1      6505    3    0    1
 -2      2067      1543      2114      2505
 -1      6506    3    0    1
 -2      1822      2067      2114      2505
 -1      6507    3    0    1
 -2      1750      1540      2610      2620
 -1      6508    3    0    1
 -2       398      2369      2427      2723
 -1      6509    3    0    1
 -2      2369      2117      2427      2723
 -1      6510    3    0    1
 -2       610      1239      2450      2839
 -1      6511    3    0    1
 -2       640      2092      2425      2840
 -1      6512    3    0    1
 -2       336      2683      2718      2725
 -1      6513    3    0    1
 -2      2567      2079      2608      2644
 -1      6514    3    0    1
 -2      1990      1069      2057      2507
 -1      6515    3    0    1
 -2       778      1069      1990      2507
 -1      6516    3    0    1
 -2       990      1237      2323      2508
 -1      6517    3    0    1
 -2      1772      1931      2062      2579
 -1      6518    3    0    1
 -2       330      1931      2101      2579
 -1      6519    3    0    1
 -2       393      1891      2363      2745
 -1      6520    3    0    1
 -2       346       344       990      2508
 -1      6521    3    0    1
 -2      1773      1539      2436      2641
 -1      6522    3    0    1
 -2       990       344      1237      2508
 -1      6523    3    0    1
 -2       244      1072      2263      2509
 -1      6524    3    0    1
 -2       244      1071      1072      2509
 -1      6525    3    0    1
 -2      2039      1663      2208      2647
 -1      6526    3    0    1
 -2      1978      2107      2412      2647
 -1      6527    3    0    1
 -2       244       407      1071      2509
 -1      6528    3    0    1
 -2      2241      2393      2532      2782
 -1      6529    3    0    1
 -2        10      1819      1837      2544
 -1      6530    3    0    1
 -2        10       398      1989      2544
 -1      6531    3    0    1
 -2      2385      2346      2698      2699
 -1      6532    3    0    1
 -2      1456      1492      1507      3037
 -1      6533    3    0    1
 -2       255       252      1314      2510
 -1      6534    3    0    1
 -2      1398       886      1788      2512
 -1      6535    3    0    1
 -2      1788       886      1854      2512
 -1      6536    3    0    1
 -2      1622      1788      2157      2512
 -1      6537    3    0    1
 -2        68        65      2225      2514
 -1      6538    3    0    1
 -2        68      2225      2299      2514
 -1      6539    3    0    1
 -2      2215       908      2798      2872
 -1      6540    3    0    1
 -2      1637       383      1973      2514
 -1      6541    3    0    1
 -2       383        68      2299      2514
 -1      6542    3    0    1
 -2      1973       383      2299      2514
 -1      6543    3    0    1
 -2       938       383      1637      2514
 -1      6544    3    0    1
 -2        68       383       938      2514
 -1      6545    3    0    1
 -2      1060      2843      2735       365
 -1      6546    3    0    1
 -2       332      2145      2554      2791
 -1      6547    3    0    1
 -2      1020       332      2530      2554
 -1      6548    3    0    1
 -2      2346      2099      2498      2774
 -1      6549    3    0    1
 -2       158       338      3102      3009
 -1      6550    3    0    1
 -2      1079      1327      2142      2516
 -1      6551    3    0    1
 -2      1079       795      1327      2516
 -1      6552    3    0    1
 -2      1617      1923      2304      2632
 -1      6553    3    0    1
 -2       198       191      1669      2558
 -1      6554    3    0    1
 -2      1281       706      2284      2625
 -1      6555    3    0    1
 -2       700      1769      2624      2625
 -1      6556    3    0    1
 -2       706      1032      2224      2517
 -1      6557    3    0    1
 -2      1617      1614      2304      2519
 -1      6558    3    0    1
 -2      1614      1617      2085      2519
 -1      6559    3    0    1
 -2      1796       727      2377      2649
 -1      6560    3    0    1
 -2      1292      1796      2550      2649
 -1      6561    3    0    1
 -2       562      1880      2269      2520
 -1      6562    3    0    1
 -2       562      1216      1880      2520
 -1      6563    3    0    1
 -2      1880      1216      1926      2520
 -1      6564    3    0    1
 -2      1872      1880      1926      2520
 -1      6565    3    0    1
 -2      1872      1644      2269      2520
 -1      6566    3    0    1
 -2      1880      1872      2269      2520
 -1      6567    3    0    1
 -2       826      2270      2349      2522
 -1      6568    3    0    1
 -2       826       819      2270      2522
 -1      6569    3    0    1
 -2      1091       819       826      2522
 -1      6570    3    0    1
 -2       819      1954      2319      2522
 -1      6571    3    0    1
 -2      1954       819      1992      2522
 -1      6572    3    0    1
 -2      1091      2151      2220      2522
 -1      6573    3    0    1
 -2      1339       826      2349      2522
 -1      6574    3    0    1
 -2      1091      1339      2349      2522
 -1      6575    3    0    1
 -2      1339      1091       826      2522
 -1      6576    3    0    1
 -2      1992       819      2291      2522
 -1      6577    3    0    1
 -2      2220      1992      2291      2522
 -1      6578    3    0    1
 -2      1091      2220      2291      2522
 -1      6579    3    0    1
 -2       819      1091      2291      2522
 -1      6580    3    0    1
 -2      2056      2034      2218      2523
 -1      6581    3    0    1
 -2      2223      1523      2449      2524
 -1      6582    3    0    1
 -2      1523      1801      2449      2524
 -1      6583    3    0    1
 -2      1644      1651      1872      2594
 -1      6584    3    0    1
 -2      1667      2272      2303      2525
 -1      6585    3    0    1
 -2      1569      1667      2303      2525
 -1      6586    3    0    1
 -2       273      1083      1084      2581
 -1      6587    3    0    1
 -2       807      1083      1766      2581
 -1      6588    3    0    1
 -2       424        41      2137      2862
 -1      6589    3    0    1
 -2       199       353      2413      2611
 -1      6590    3    0    1
 -2      2413      1031      2589      2611
 -1      6591    3    0    1
 -2      1031      1270      2589      2611
 -1      6592    3    0    1
 -2       353      1031      2413      2611
 -1      6593    3    0    1
 -2      1001       651      2251      2782
 -1      6594    3    0    1
 -2      1270      1814      2242      2611
 -1      6595    3    0    1
 -2      2190      1540      2453      2526
 -1      6596    3    0    1
 -2      2236      2190      2453      2526
 -1      6597    3    0    1
 -2      1645      1540      2236      2526
 -1      6598    3    0    1
 -2      1083       807      2167      2581
 -1      6599    3    0    1
 -2      1540      2190      2236      2526
 -1      6600    3    0    1
 -2       981       639       993      2527
 -1      6601    3    0    1
 -2       616       639       981      2527
 -1      6602    3    0    1
 -2      1755      1942      2066      2528
 -1      6603    3    0    1
 -2      1942      1755      2192      2528
 -1      6604    3    0    1
 -2       787       798       799      2971
 -1      6605    3    0    1
 -2      2188      2192      2437      2528
 -1      6606    3    0    1
 -2       421       422      3089      1461
 -1      6607    3    0    1
 -2      2192      1755      2437      2528
 -1      6608    3    0    1
 -2      2028      2500      2568      2752
 -1      6609    3    0    1
 -2      1605       394      2233      2784
 -1      6610    3    0    1
 -2       586      2468      2618      2670
 -1      6611    3    0    1
 -2      1736       137      2149      2531
 -1      6612    3    0    1
 -2      1922      1886      2531      2211
 -1      6613    3    0    1
 -2      2531      1886      1247       137
 -1      6614    3    0    1
 -2      2149       137      2211      2531
 -1      6615    3    0    1
 -2       991       136      1736      2531
 -1      6616    3    0    1
 -2       136       991      1247      2531
 -1      6617    3    0    1
 -2       136       137      1736      2531
 -1      6618    3    0    1
 -2       137       136      1247      2531
 -1      6619    3    0    1
 -2      1701      1587      1768      2532
 -1      6620    3    0    1
 -2      2241      1701      2268      2532
 -1      6621    3    0    1
 -2      1701      2241      2382      2532
 -1      6622    3    0    1
 -2       490      1181      2494      2773
 -1      6623    3    0    1
 -2       664      1007      2414      2533
 -1      6624    3    0    1
 -2      1007       687      1019      2533
 -1      6625    3    0    1
 -2       664       687      1007      2533
 -1      6626    3    0    1
 -2      1645      1540      2526      2785
 -1      6627    3    0    1
 -2      2152      1998      2259      2534
 -1      6628    3    0    1
 -2      2205        53      2311      2534
 -1      6629    3    0    1
 -2      2259      2205      2311      2534
 -1      6630    3    0    1
 -2      2152      2259      2311      2534
 -1      6631    3    0    1
 -2        53      2152      2311      2534
 -1      6632    3    0    1
 -2       340       141      1648      2727
 -1      6633    3    0    1
 -2      1731      2587      2790      2860
 -1      6634    3    0    1
 -2       772      1313      2198      2821
 -1      6635    3    0    1
 -2      1766      1083      2570      2787
 -1      6636    3    0    1
 -2       334       414      1981      2638
 -1      6637    3    0    1
 -2      1392       866      1127      2536
 -1      6638    3    0    1
 -2      2189      1394      2639      2659
 -1      6639    3    0    1
 -2      1392      1995      2464      2537
 -1      6640    3    0    1
 -2       326      1392      2464      2537
 -1      6641    3    0    1
 -2      1995      2090      2464      2537
 -1      6642    3    0    1
 -2       313       326      2464      2537
 -1      6643    3    0    1
 -2       326       313      1142      2537
 -1      6644    3    0    1
 -2      1142       313      1379      2537
 -1      6645    3    0    1
 -2      2090       313      2464      2537
 -1      6646    3    0    1
 -2      1379       313      2090      2537
 -1      6647    3    0    1
 -2      1379      2090      2208      2549
 -1      6648    3    0    1
 -2      2090      1379      2537      2549
 -1      6649    3    0    1
 -2       267      1081      1325      2543
 -1      6650    3    0    1
 -2      2904      2893      1445      3132
 -1      6651    3    0    1
 -2       369      1325      1859      2543
 -1      6652    3    0    1
 -2       369       267      1325      2543
 -1      6653    3    0    1
 -2      1769      1029      2617      2626
 -1      6654    3    0    1
 -2      1081      1314      2185      2543
 -1      6655    3    0    1
 -2       255      2463      2510      2543
 -1      6656    3    0    1
 -2      1859      1325      2447      2543
 -1      6657    3    0    1
 -2      2208      1663      2302      2549
 -1      6658    3    0    1
 -2       435       330      1135      2744
 -1      6659    3    0    1
 -2       215       232      1057      2538
 -1      6660    3    0    1
 -2       357      1029      1769      2788
 -1      6661    3    0    1
 -2      1046       215      1057      2538
 -1      6662    3    0    1
 -2       267       268      1081      2543
 -1      6663    3    0    1
 -2      1081       268      1314      2543
 -1      6664    3    0    1
 -2       268       255      1314      2543
 -1      6665    3    0    1
 -2      2422      1990      2507      2545
 -1      6666    3    0    1
 -2      2126      1795      2278      2608
 -1      6667    3    0    1
 -2      2798      2860      2866      2872
 -1      6668    3    0    1
 -2      1609       486      2499      2546
 -1      6669    3    0    1
 -2       486      1609      2492      2546
 -1      6670    3    0    1
 -2       487       486      2492      2546
 -1      6671    3    0    1
 -2      1870      2927      2953      3105
 -1      6672    3    0    1
 -2      1180       487      2440      2546
 -1      6673    3    0    1
 -2      2347      1180      2440      2546
 -1      6674    3    0    1
 -2      1180       486       487      2546
 -1      6675    3    0    1
 -2      2147      2953      3100      3105
 -1      6676    3    0    1
 -2      1180       914       486      2546
 -1      6677    3    0    1
 -2       486       914      2499      2546
 -1      6678    3    0    1
 -2      1532      2325      2704      2720
 -1      6679    3    0    1
 -2      1991      2482      2607      2767
 -1      6680    3    0    1
 -2      1991      1685      2482      2767
 -1      6681    3    0    1
 -2      2482      2471      2607      2767
 -1      6682    3    0    1
 -2       868       881      1142      2549
 -1      6683    3    0    1
 -2       868      1142      1379      2549
 -1      6684    3    0    1
 -2       868      1379      2208      2549
 -1      6685    3    0    1
 -2       217       212      1292      2550
 -1      6686    3    0    1
 -2       325       315      2639      2659
 -1      6687    3    0    1
 -2      1394       315       325      2659
 -1      6688    3    0    1
 -2       215       232      2538      2550
 -1      6689    3    0    1
 -2       507      1194       924      2657
 -1      6690    3    0    1
 -2       215       217      1292      2550
 -1      6691    3    0    1
 -2      1725       730      1833      2551
 -1      6692    3    0    1
 -2       930      1605      2694      2803
 -1      6693    3    0    1
 -2       730      1043      1833      2551
 -1      6694    3    0    1
 -2      1891       918        36      2113
 -1      6695    3    0    1
 -2      1891       918      2169      2552
 -1      6696    3    0    1
 -2       918      1891        36      2552
 -1      6697    3    0    1
 -2      1164      1989      2058      2553
 -1      6698    3    0    1
 -2       459      1164      2058      2553
 -1      6699    3    0    1
 -2      2024      2285      2407      2791
 -1      6700    3    0    1
 -2       272      2167      2623      2814
 -1      6701    3    0    1
 -2      1847      1291      2150      2792
 -1      6702    3    0    1
 -2       413      2627      2758      2792
 -1      6703    3    0    1
 -2      2119      1291      2551      2792
 -1      6704    3    0    1
 -2       413      1847      2627      2792
 -1      6705    3    0    1
 -2       409       410      1059      2555
 -1      6706    3    0    1
 -2      1865       410      2005      2555
 -1      6707    3    0    1
 -2      2539      2409      2677      2736
 -1      6708    3    0    1
 -2      1604      2677      2679      2736
 -1      6709    3    0    1
 -2      1604      2503      2539      2736
 -1      6710    3    0    1
 -2      1671      1567      2219      2737
 -1      6711    3    0    1
 -2       410      1597      1865       358
 -1      6712    3    0    1
 -2      1597       410      1865      2555
 -1      6713    3    0    1
 -2       857      1115      2219      2737
 -1      6714    3    0    1
 -2      2471      1316      2545      2573
 -1      6715    3    0    1
 -2       221       202      2043      2572
 -1      6716    3    0    1
 -2      1167      2059      2366      2591
 -1      6717    3    0    1
 -2       466      1167      2366      2591
 -1      6718    3    0    1
 -2       943       543      2345      2613
 -1      6719    3    0    1
 -2       943      2345      2406      2613
 -1      6720    3    0    1
 -2       520       930      2345      2613
 -1      6721    3    0    1
 -2       425       943      2406      2613
 -1      6722    3    0    1
 -2      1923      1657      2304      2632
 -1      6723    3    0    1
 -2      1537       265      2521      2632
 -1      6724    3    0    1
 -2      1925      1537      2557      2521
 -1      6725    3    0    1
 -2       930      2345      2534      2803
 -1      6726    3    0    1
 -2       265      2557      2631      2632
 -1      6727    3    0    1
 -2      1657      1537      2521      2632
 -1      6728    3    0    1
 -2       191      1945      2456      2677
 -1      6729    3    0    1
 -2      1570      2452      2456      2677
 -1      6730    3    0    1
 -2      1954      1336      2319      2559
 -1      6731    3    0    1
 -2      1954      2319      2367      2559
 -1      6732    3    0    1
 -2      2473      1643      2518      2665
 -1      6733    3    0    1
 -2       630       631      2459      2560
 -1      6734    3    0    1
 -2      2459       631      2508      2560
 -1      6735    3    0    1
 -2       990      1248      2508      2560
 -1      6736    3    0    1
 -2      1248       990       630      2560
 -1      6737    3    0    1
 -2       631       990      2508      2560
 -1      6738    3    0    1
 -2       990       631       630      2560
 -1      6739    3    0    1
 -2      2490      1535      2734      2770
 -1      6740    3    0    1
 -2       253      2133      2482      2607
 -1      6741    3    0    1
 -2      1598      1986      2082      2794
 -1      6742    3    0    1
 -2      1778       398      2544      2723
 -1      6743    3    0    1
 -2       310      1408      1123      2563
 -1      6744    3    0    1
 -2      1698      2073      2480      2745
 -1      6745    3    0    1
 -2      1408       310       443      2563
 -1      6746    3    0    1
 -2       405      1593      2197      2569
 -1      6747    3    0    1
 -2       282      2367      2559      2794
 -1      6748    3    0    1
 -2      1408       443      1653      2563
 -1      6749    3    0    1
 -2       903      2053      2587      2790
 -1      6750    3    0    1
 -2      2056      2034      2523      2566
 -1      6751    3    0    1
 -2      2034      1678      2523      2566
 -1      6752    3    0    1
 -2       967       956      2017      2566
 -1      6753    3    0    1
 -2      1904       385      2056      2566
 -1      6754    3    0    1
 -2      1904      2056      2523      2566
 -1      6755    3    0    1
 -2       956      1904      2017      2566
 -1      6756    3    0    1
 -2       956       385      1904      2566
 -1      6757    3    0    1
 -2      1904      1678      2017      2566
 -1      6758    3    0    1
 -2      1678      1904      2523      2566
 -1      6759    3    0    1
 -2       250       234      2540      2753
 -1      6760    3    0    1
 -2       201      2413      2590      2844
 -1      6761    3    0    1
 -2      1354       841       842      2776
 -1      6762    3    0    1
 -2      1036       201      2590      2844
 -1      6763    3    0    1
 -2      1672      1680      2502      2776
 -1      6764    3    0    1
 -2      2263       371      2365      2570
 -1      6765    3    0    1
 -2      1731      2773      2857      2860
 -1      6766    3    0    1
 -2       357      2374      2426      2788
 -1      6767    3    0    1
 -2      2498      2585      2914      2928
 -1      6768    3    0    1
 -2       759      1057      2766      2824
 -1      6769    3    0    1
 -2      2374      2478      2765      2788
 -1      6770    3    0    1
 -2       603       974      1993      2848
 -1      6771    3    0    1
 -2      2182      2453      2503      2736
 -1      6772    3    0    1
 -2      2079      2035      2608      2871
 -1      6773    3    0    1
 -2      1613      1567      2138      2737
 -1      6774    3    0    1
 -2      2002       857      2154      2737
 -1      6775    3    0    1
 -2      2503      2453      2539      2736
 -1      6776    3    0    1
 -2      2025      1613      2138      2737
 -1      6777    3    0    1
 -2       336       962      2629      2683
 -1      6778    3    0    1
 -2       201      1036      2738      2844
 -1      6779    3    0    1
 -2       365       350      1303      2571
 -1      6780    3    0    1
 -2      2550       232      1292       215
 -1      6781    3    0    1
 -2       350       232      1055      2571
 -1      6782    3    0    1
 -2      1055       232      1292      2571
 -1      6783    3    0    1
 -2       232      2550      1292      2571
 -1      6784    3    0    1
 -2      1815      1686      2496      2574
 -1      6785    3    0    1
 -2      1802      1815      2496      2574
 -1      6786    3    0    1
 -2      1818      2391      2496      2574
 -1      6787    3    0    1
 -2      2391      1802      2496      2574
 -1      6788    3    0    1
 -2      1866      1737      2754      2816
 -1      6789    3    0    1
 -2       198      1032      2558      2588
 -1      6790    3    0    1
 -2       265       261      2632      2817
 -1      6791    3    0    1
 -2        18        17      1817      2575
 -1      6792    3    0    1
 -2      1817        17      2059      2575
 -1      6793    3    0    1
 -2      1167      2053      2059      2575
 -1      6794    3    0    1
 -2      1167       903      2053      2575
 -1      6795    3    0    1
 -2        17        18       903      2575
 -1      6796    3    0    1
 -2        17      1167      2059      2575
 -1      6797    3    0    1
 -2        17       903      1167      2575
 -1      6798    3    0    1
 -2        18       418       903      2575
 -1      6799    3    0    1
 -2       123      1864      2442      2801
 -1      6800    3    0    1
 -2       123       982      1864      2801
 -1      6801    3    0    1
 -2       982       344      2578      2801
 -1      6802    3    0    1
 -2       123       344       982      2801
 -1      6803    3    0    1
 -2      2125      1853      2431      2577
 -1      6804    3    0    1
 -2      1853       400      2431      2577
 -1      6805    3    0    1
 -2       991       634      2316      2669
 -1      6806    3    0    1
 -2       945      1629      2312      2592
 -1      6807    3    0    1
 -2       400      2125      2431      2577
 -1      6808    3    0    1
 -2      1552      1539      1773      2641
 -1      6809    3    0    1
 -2      1773      2436      2476      2641
 -1      6810    3    0    1
 -2      1661      1530      2143      2604
 -1      6811    3    0    1
 -2      2419      1645      2785      2802
 -1      6812    3    0    1
 -2      2190      1540      2620      2668
 -1      6813    3    0    1
 -2       982       346       992      2578
 -1      6814    3    0    1
 -2       344       346       982      2578
 -1      6815    3    0    1
 -2      1524      1645      2236      2580
 -1      6816    3    0    1
 -2      1605        53      2534      2803
 -1      6817    3    0    1
 -2       980      2703      2718      2804
 -1      6818    3    0    1
 -2       930        53      1605      2803
 -1      6819    3    0    1
 -2      2426      2374      2542      2788
 -1      6820    3    0    1
 -2       356      2374      2765      2788
 -1      6821    3    0    1
 -2      1678      2034      2523      2582
 -1      6822    3    0    1
 -2      2034      1678      2475      2582
 -1      6823    3    0    1
 -2      1748       126      2703      2718
 -1      6824    3    0    1
 -2      1040       724      2221      2661
 -1      6825    3    0    1
 -2       724      2119      2221      2661
 -1      6826    3    0    1
 -2      2237       724      2488      2661
 -1      6827    3    0    1
 -2       221      1042      2043      2584
 -1      6828    3    0    1
 -2       202       221      2043      2584
 -1      6829    3    0    1
 -2       202       201      1279      2584
 -1      6830    3    0    1
 -2      1042       202      1279      2584
 -1      6831    3    0    1
 -2       221       202      1042      2584
 -1      6832    3    0    1
 -2      1070      2275      2740      2775
 -1      6833    3    0    1
 -2       496       519      2169      2586
 -1      6834    3    0    1
 -2      2169       519      2280      2586
 -1      6835    3    0    1
 -2       919      1893      2280      2586
 -1      6836    3    0    1
 -2       496       919      2280      2586
 -1      6837    3    0    1
 -2       919       496      1893      2586
 -1      6838    3    0    1
 -2       962       107      2629      2799
 -1      6839    3    0    1
 -2       107       336      2629      2799
 -1      6840    3    0    1
 -2      2205       507      2684      2805
 -1      6841    3    0    1
 -2      2145      2285      2405      2791
 -1      6842    3    0    1
 -2      2285      2024      2405      2791
 -1      6843    3    0    1
 -2      2311      2205      2684      2805
 -1      6844    3    0    1
 -2       336       107       968      2799
 -1      6845    3    0    1
 -2      2629       336      2718      2799
 -1      6846    3    0    1
 -2      2145       203      2554      2791
 -1      6847    3    0    1
 -2      1785      2060      2576      2800
 -1      6848    3    0    1
 -2      2060      1728      2576      2800
 -1      6849    3    0    1
 -2      1279      1031       702      2589
 -1      6850    3    0    1
 -2      1279       702      1882      2589
 -1      6851    3    0    1
 -2       913      2073      2614      2812
 -1      6852    3    0    1
 -2      2228      1525      2493      2863
 -1      6853    3    0    1
 -2      1526      2228      2356      2863
 -1      6854    3    0    1
 -2        66       372       942      2810
 -1      6855    3    0    1
 -2      1393       868      1130      2739
 -1      6856    3    0    1
 -2       868       881      2302      2739
 -1      6857    3    0    1
 -2       447       446      2130      2739
 -1      6858    3    0    1
 -2      1713      1867      2326      2591
 -1      6859    3    0    1
 -2      2366      2059      2577      2591
 -1      6860    3    0    1
 -2      1713      2366      2577      2591
 -1      6861    3    0    1
 -2      1675      2036      2212      2601
 -1      6862    3    0    1
 -2      2036      1795      2126      2601
 -1      6863    3    0    1
 -2       942       372       945      2592
 -1      6864    3    0    1
 -2       942       945       543      2592
 -1      6865    3    0    1
 -2      2225       543      2383      2592
 -1      6866    3    0    1
 -2        67       372      1629      2592
 -1      6867    3    0    1
 -2       372        67       945      2592
 -1      6868    3    0    1
 -2       945        67      1629      2592
 -1      6869    3    0    1
 -2       544       945      2312      2592
 -1      6870    3    0    1
 -2       945       544       543      2592
 -1      6871    3    0    1
 -2       544      2312      2383      2592
 -1      6872    3    0    1
 -2       543       544      2383      2592
 -1      6873    3    0    1
 -2       832      2122      2424      2596
 -1      6874    3    0    1
 -2      1549       832      2424      2596
 -1      6875    3    0    1
 -2       389      1951      2415      2597
 -1      6876    3    0    1
 -2      2415      1951      2458      2597
 -1      6877    3    0    1
 -2       118       389      2415      2597
 -1      6878    3    0    1
 -2      2188      2192      2528      2597
 -1      6879    3    0    1
 -2      1732      1942      2048      2597
 -1      6880    3    0    1
 -2      1732      2048      2458      2597
 -1      6881    3    0    1
 -2       118      2415      2446      2597
 -1      6882    3    0    1
 -2      2188       118      2446      2597
 -1      6883    3    0    1
 -2      2048      1942      2192      2597
 -1      6884    3    0    1
 -2      2192      1942      2528      2597
 -1      6885    3    0    1
 -2      2192      2188      2458      2597
 -1      6886    3    0    1
 -2      2188      2415      2458      2597
 -1      6887    3    0    1
 -2      2048      2192      2458      2597
 -1      6888    3    0    1
 -2      2415      2188      2446      2597
 -1      6889    3    0    1
 -2      2294       128      2315      2842
 -1      6890    3    0    1
 -2      2387       608      2615      2708
 -1      6891    3    0    1
 -2      1237      2323      2442      2708
 -1      6892    3    0    1
 -2       943       543      2225      2600
 -1      6893    3    0    1
 -2      1556      1674      2692      2730
 -1      6894    3    0    1
 -2      2036      1675      2569      2601
 -1      6895    3    0    1
 -2      1795      2036      2569      2601
 -1      6896    3    0    1
 -2      1523      1831      2524      2602
 -1      6897    3    0    1
 -2      2223      1523      2524      2602
 -1      6898    3    0    1
 -2      1523      1786      1831      2602
 -1      6899    3    0    1
 -2      1786      1523      2223      2602
 -1      6900    3    0    1
 -2      2201      2179      2290      2641
 -1      6901    3    0    1
 -2      1539      1552      1553      2641
 -1      6902    3    0    1
 -2      1550      1797      2416      2642
 -1      6903    3    0    1
 -2      2578       992       616      2603
 -1      6904    3    0    1
 -2       639       616       992      2603
 -1      6905    3    0    1
 -2       992      2578       616       982
 -1      6906    3    0    1
 -2      2108      1661      2143      2604
 -1      6907    3    0    1
 -2      1661      2108      2207      2604
 -1      6908    3    0    1
 -2      1018       174      1021      2605
 -1      6909    3    0    1
 -2      1181       490      2494      2812
 -1      6910    3    0    1
 -2       174       179      1021      2605
 -1      6911    3    0    1
 -2      2000      1181      2653      2812
 -1      6912    3    0    1
 -2       177      1018      2394      2605
 -1      6913    3    0    1
 -2       177       174      1018      2605
 -1      6914    3    0    1
 -2      2155      2173      2612      2809
 -1      6915    3    0    1
 -2      1683      2155      2173      2612
 -1      6916    3    0    1
 -2       913      1181      2000      2812
 -1      6917    3    0    1
 -2      2241      1946      2251      2782
 -1      6918    3    0    1
 -2       174      1814      2611      2808
 -1      6919    3    0    1
 -2      1930      1770      2071      2768
 -1      6920    3    0    1
 -2      2459       630      2560      2769
 -1      6921    3    0    1
 -2      1670      1560      2071      2768
 -1      6922    3    0    1
 -2      2128      1795      2601      2608
 -1      6923    3    0    1
 -2      2587      1731      2857      2860
 -1      6924    3    0    1
 -2      1072       371      2635      2797
 -1      6925    3    0    1
 -2       341      2353      2854      2869
 -1      6926    3    0    1
 -2       372       940      1202      2609
 -1      6927    3    0    1
 -2      1202       940      2318      2609
 -1      6928    3    0    1
 -2      1629      1202      2318      2609
 -1      6929    3    0    1
 -2        67      1202      1629      2609
 -1      6930    3    0    1
 -2       372        67      1629      2609
 -1      6931    3    0    1
 -2        67       372      1202      2609
 -1      6932    3    0    1
 -2       372        66       940      2609
 -1      6933    3    0    1
 -2      1248      1648      2560      2854
 -1      6934    3    0    1
 -2       872       883      1702      2621
 -1      6935    3    0    1
 -2       179       174      1270      2611
 -1      6936    3    0    1
 -2       199       179      1270      2611
 -1      6937    3    0    1
 -2      1031       199      1270      2611
 -1      6938    3    0    1
 -2       353       199      1031      2611
 -1      6939    3    0    1
 -2       145       993      2395      2634
 -1      6940    3    0    1
 -2       543       520      2345      2613
 -1      6941    3    0    1
 -2      1998      2152      2406      2613
 -1      6942    3    0    1
 -2      2152      1998      2534      2613
 -1      6943    3    0    1
 -2      2345      1998      2406      2613
 -1      6944    3    0    1
 -2      1998      2345      2534      2613
 -1      6945    3    0    1
 -2       735       712      2572      2656
 -1      6946    3    0    1
 -2       197      1034      2617      2813
 -1      6947    3    0    1
 -2       916      1178      2153      2614
 -1      6948    3    0    1
 -2       490       916      2153      2614
 -1      6949    3    0    1
 -2       916       490      1178      2614
 -1      6950    3    0    1
 -2      2786      2478      2818      2865
 -1      6951    3    0    1
 -2      2637      1524      2681      2865
 -1      6952    3    0    1
 -2      1833      1725      2580      2865
 -1      6953    3    0    1
 -2      1178       483      1971      2614
 -1      6954    3    0    1
 -2      1971       483      2217      2614
 -1      6955    3    0    1
 -2       631       976      1249      2616
 -1      6956    3    0    1
 -2       156      1004      1000      2759
 -1      6957    3    0    1
 -2      1029       357      1769      2617
 -1      6958    3    0    1
 -2       197      1034      1035      2617
 -1      6959    3    0    1
 -2      2302      1752      2445      2739
 -1      6960    3    0    1
 -2       357       417      1035      2617
 -1      6961    3    0    1
 -2      1769       357      2374      2617
 -1      6962    3    0    1
 -2      2374       357      2426      2617
 -1      6963    3    0    1
 -2      1035      1709      2426      2617
 -1      6964    3    0    1
 -2       357      1035      2426      2617
 -1      6965    3    0    1
 -2      1084       272      2167      2793
 -1      6966    3    0    1
 -2      1635       413      1847      2627
 -1      6967    3    0    1
 -2       417       357      1029      2617
 -1      6968    3    0    1
 -2      1573      1886      2505      2619
 -1      6969    3    0    1
 -2      1395       872      1135      2621
 -1      6970    3    0    1
 -2       872      1702      2253      2621
 -1      6971    3    0    1
 -2      1610      1670      2070      2673
 -1      6972    3    0    1
 -2      1610      2070      2136      2673
 -1      6973    3    0    1
 -2      2153       490      2779      2855
 -1      6974    3    0    1
 -2      1545      2061      2418      2622
 -1      6975    3    0    1
 -2      1610      2136      2254      2673
 -1      6976    3    0    1
 -2       655      2115      2664      2769
 -1      6977    3    0    1
 -2      1642      1770      2254      2673
 -1      6978    3    0    1
 -2      2254      1770      2487      2673
 -1      6979    3    0    1
 -2      1598      2022      2176      2794
 -1      6980    3    0    1
 -2      1079      2011      2516      2623
 -1      6981    3    0    1
 -2      2011      1079      2158      2623
 -1      6982    3    0    1
 -2       273       272      1079      2623
 -1      6983    3    0    1
 -2      1079       272      2210      2623
 -1      6984    3    0    1
 -2       700      1029      1769      2625
 -1      6985    3    0    1
 -2      1029       700      1281      2625
 -1      6986    3    0    1
 -2      1029      1769      2625      2626
 -1      6987    3    0    1
 -2      1281      1029      2625      2626
 -1      6988    3    0    1
 -2      1079       273      2623      2814
 -1      6989    3    0    1
 -2       881      1393      2302      2739
 -1      6990    3    0    1
 -2       203       197      2284      2626
 -1      6991    3    0    1
 -2      2167       273      2581      2814
 -1      6992    3    0    1
 -2       417       197      2617      2626
 -1      6993    3    0    1
 -2       197       417      1029      2626
 -1      6994    3    0    1
 -2      1029       417      2617      2626
 -1      6995    3    0    1
 -2       273       404      2581      2814
 -1      6996    3    0    1
 -2       273       272      2623      2814
 -1      6997    3    0    1
 -2       156      2244      2465      2759
 -1      6998    3    0    1
 -2       329       156      1647      2759
 -1      6999    3    0    1
 -2       843       844      2040      2651
 -1      7000    3    0    1
 -2       311       331      2322      2651
 -1      7001    3    0    1
 -2      1999      2207      2231      2651
 -1      7002    3    0    1
 -2      1999       843      2040      2651
 -1      7003    3    0    1
 -2      1532      2325      2368      2704
 -1      7004    3    0    1
 -2      2325      1737      2368      2704
 -1      7005    3    0    1
 -2       213       413      2556      2861
 -1      7006    3    0    1
 -2      2053       459      2553      2790
 -1      7007    3    0    1
 -2       107       336       962      2629
 -1      7008    3    0    1
 -2      2213      2272      2593      2684
 -1      7009    3    0    1
 -2      2587       418      2860      2866
 -1      7010    3    0    1
 -2      2164      1082      2557      2631
 -1      7011    3    0    1
 -2       700      1769      2478      2818
 -1      7012    3    0    1
 -2      1082       265      2557      2631
 -1      7013    3    0    1
 -2       802      2164      2516      2631
 -1      7014    3    0    1
 -2      1082       802      2516      2631
 -1      7015    3    0    1
 -2       802      1082      2164      2631
 -1      7016    3    0    1
 -2       265       261      1657      2632
 -1      7017    3    0    1
 -2       265      1657      2521      2632
 -1      7018    3    0    1
 -2      1657       261      2304      2632
 -1      7019    3    0    1
 -2       993       981      2174      2634
 -1      7020    3    0    1
 -2       993      2174      2395      2634
 -1      7021    3    0    1
 -2       927      2094      2748      2828
 -1      7022    3    0    1
 -2       128      1571      2294      2634
 -1      7023    3    0    1
 -2      1083      1766      2570      2635
 -1      7024    3    0    1
 -2       807       784      1766      2635
 -1      7025    3    0    1
 -2      1083       807      1766      2635
 -1      7026    3    0    1
 -2      1072       784      1083      2635
 -1      7027    3    0    1
 -2       784       807      1083      2635
 -1      7028    3    0    1
 -2      1411      1435      3111      1489
 -1      7029    3    0    1
 -2      1203       939      1417      3044
 -1      7030    3    0    1
 -2      2585      2887      2914      2928
 -1      7031    3    0    1
 -2       925       510      2181      2636
 -1      7032    3    0    1
 -2      2083      1203      2147      2636
 -1      7033    3    0    1
 -2      2181       510      2317      2636
 -1      7034    3    0    1
 -2       536      1203      2083      2636
 -1      7035    3    0    1
 -2       536      2083      2317      2636
 -1      7036    3    0    1
 -2       510       536      2317      2636
 -1      7037    3    0    1
 -2       536       510       925      2636
 -1      7038    3    0    1
 -2       536       925      1203      2636
 -1      7039    3    0    1
 -2       220       414      1045      2638
 -1      7040    3    0    1
 -2      1526      1683      2633      2811
 -1      7041    3    0    1
 -2      1313       772      2644      2821
 -1      7042    3    0    1
 -2      2567      2128      2675      2821
 -1      7043    3    0    1
 -2       414       334      1045      2638
 -1      7044    3    0    1
 -2       736      2380      2548      2638
 -1      7045    3    0    1
 -2      1045       736      2548      2638
 -1      7046    3    0    1
 -2       736      1045      2380      2638
 -1      7047    3    0    1
 -2       334      1044      1045      2638
 -1      7048    3    0    1
 -2      2475      2034      2582      2660
 -1      7049    3    0    1
 -2      2034      1881      2582      2660
 -1      7050    3    0    1
 -2      2018      1584      2249      2660
 -1      7051    3    0    1
 -2      1881      2034      2218      2660
 -1      7052    3    0    1
 -2       990       346      2508      2640
 -1      7053    3    0    1
 -2      1043      1833      2551      2802
 -1      7054    3    0    1
 -2      1645      2419      2580      2802
 -1      7055    3    0    1
 -2       344       346      2578      2640
 -1      7056    3    0    1
 -2       346       344      2508      2640
 -1      7057    3    0    1
 -2      1725      1833      2580      2802
 -1      7058    3    0    1
 -2      1524      1645      2580      2802
 -1      7059    3    0    1
 -2       344      1237      2508      2640
 -1      7060    3    0    1
 -2      2419       213      2758      2802
 -1      7061    3    0    1
 -2       213      2419      2785      2802
 -1      7062    3    0    1
 -2      1833      1725      2551      2802
 -1      7063    3    0    1
 -2       138       346       990      2640
 -1      7064    3    0    1
 -2      1797      1550      1964      2642
 -1      7065    3    0    1
 -2      1562      1797      1964      2642
 -1      7066    3    0    1
 -2      2054      1964      2416      2642
 -1      7067    3    0    1
 -2      1964      1550      2416      2642
 -1      7068    3    0    1
 -2       246       405      1625      2643
 -1      7069    3    0    1
 -2       405       246      1069      2643
 -1      7070    3    0    1
 -2      2079       772      2365      2644
 -1      7071    3    0    1
 -2      3076      2961      1455      2918
 -1      7072    3    0    1
 -2      1313       772      2567      2644
 -1      7073    3    0    1
 -2      1523      2194      2266      2645
 -1      7074    3    0    1
 -2      1786      1523      1831      2645
 -1      7075    3    0    1
 -2      1831      1523      2266      2645
 -1      7076    3    0    1
 -2      1786      1831      2243      2645
 -1      7077    3    0    1
 -2      1831      1786      2243      2602
 -1      7078    3    0    1
 -2      2243      1831      2266      2645
 -1      7079    3    0    1
 -2      2265      2243      2266      2645
 -1      7080    3    0    1
 -2      1977      3107      2947      2944
 -1      7081    3    0    1
 -2      1071      2482      2509      2646
 -1      7082    3    0    1
 -2      1071       253      2482      2646
 -1      7083    3    0    1
 -2      1978      2090      2107      2647
 -1      7084    3    0    1
 -2      2107      2090      2549      2647
 -1      7085    3    0    1
 -2      1663      2107      2549      2647
 -1      7086    3    0    1
 -2      1610      1614      2085      2648
 -1      7087    3    0    1
 -2      2085      1614      2519      2648
 -1      7088    3    0    1
 -2      1610      1559      2136      2648
 -1      7089    3    0    1
 -2      1614      1610      2070      2648
 -1      7090    3    0    1
 -2      2070      1610      2136      2648
 -1      7091    3    0    1
 -2      1610      2085      2519      2648
 -1      7092    3    0    1
 -2      1279      1042      2584      2649
 -1      7093    3    0    1
 -2       702      1279      2584      2649
 -1      7094    3    0    1
 -2      1882       702      2584      2649
 -1      7095    3    0    1
 -2       726       727      1796      2649
 -1      7096    3    0    1
 -2       727       726      1042      2649
 -1      7097    3    0    1
 -2       702      1882      2377      2649
 -1      7098    3    0    1
 -2       727       702      2377      2649
 -1      7099    3    0    1
 -2      1292      1042       726      2649
 -1      7100    3    0    1
 -2      1292       726      1796      2649
 -1      7101    3    0    1
 -2       702       727      1042      2649
 -1      7102    3    0    1
 -2       702      1042      1279      2649
 -1      7103    3    0    1
 -2       331       311      1355      2651
 -1      7104    3    0    1
 -2      1356       843      1355      2651
 -1      7105    3    0    1
 -2       843      1356       844      2651
 -1      7106    3    0    1
 -2      1355      1999      2322      2651
 -1      7107    3    0    1
 -2       331      1355      2322      2651
 -1      7108    3    0    1
 -2      1355       843      1999      2651
 -1      7109    3    0    1
 -2      1202       366      1629      2706
 -1      7110    3    0    1
 -2       584      1948      2307      2654
 -1      7111    3    0    1
 -2      2906      1977      3107      2598
 -1      7112    3    0    1
 -2       584       582      1948      2654
 -1      7113    3    0    1
 -2      2895      2883      2931      3084
 -1      7114    3    0    1
 -2      1948       582      2615      2654
 -1      7115    3    0    1
 -2       558       584      2307      2654
 -1      7116    3    0    1
 -2       951       558      1659      2654
 -1      7117    3    0    1
 -2      1202      1629      2318      2706
 -1      7118    3    0    1
 -2      2699      2698      2886      2921
 -1      7119    3    0    1
 -2       904      1166      1430      3127
 -1      7120    3    0    1
 -2       584       558      1227      2654
 -1      7121    3    0    1
 -2       558       951      1227      2654
 -1      7122    3    0    1
 -2      1571      2294      2634      2827
 -1      7123    3    0    1
 -2      2426      1035      2542      2656
 -1      7124    3    0    1
 -2      1035       735      1044      2656
 -1      7125    3    0    1
 -2      1035      1044      2542      2656
 -1      7126    3    0    1
 -2       712       735      1035      2656
 -1      7127    3    0    1
 -2      1194       514      2094      2657
 -1      7128    3    0    1
 -2       394      1194      2233      2657
 -1      7129    3    0    1
 -2       394        50      1194      2657
 -1      7130    3    0    1
 -2      2538       215      2550      2658
 -1      7131    3    0    1
 -2       212      2043      2550      2658
 -1      7132    3    0    1
 -2       217       212      2550      2658
 -1      7133    3    0    1
 -2       212      1046      1295      2658
 -1      7134    3    0    1
 -2      1295      1046      2380      2658
 -1      7135    3    0    1
 -2      1295      2380      2572      2658
 -1      7136    3    0    1
 -2      2043      1295      2572      2658
 -1      7137    3    0    1
 -2       212      1295      2043      2658
 -1      7138    3    0    1
 -2      1634      2189      2639      2659
 -1      7139    3    0    1
 -2      1394       325      2639      2659
 -1      7140    3    0    1
 -2      1584      2018      2218      2660
 -1      7141    3    0    1
 -2      1881      2018      2582      2660
 -1      7142    3    0    1
 -2       414      1981      2638      2661
 -1      7143    3    0    1
 -2      1294      1040      2221      2661
 -1      7144    3    0    1
 -2      1981      1294      2221      2661
 -1      7145    3    0    1
 -2       220       414      1970      2661
 -1      7146    3    0    1
 -2      1040       220      1970      2661
 -1      7147    3    0    1
 -2       414      1040      1294      2661
 -1      7148    3    0    1
 -2       334      1294      1981      2661
 -1      7149    3    0    1
 -2       414       334      1981      2661
 -1      7150    3    0    1
 -2       334       414      1294      2661
 -1      7151    3    0    1
 -2       724      1040      2488      2661
 -1      7152    3    0    1
 -2       414       220      1040      2661
 -1      7153    3    0    1
 -2      1250       145      2175      2827
 -1      7154    3    0    1
 -2      1044      2426      2656      2663
 -1      7155    3    0    1
 -2      1003       654      1259      2664
 -1      7156    3    0    1
 -2      1535      1688      2421      2770
 -1      7157    3    0    1
 -2      2240      2421      2474      2770
 -1      7158    3    0    1
 -2      1003       655       654      2664
 -1      7159    3    0    1
 -2       654       655      2115      2664
 -1      7160    3    0    1
 -2      1920      1535      2341      2770
 -1      7161    3    0    1
 -2      1535      2240      2734      2770
 -1      7162    3    0    1
 -2       302      1362      1365      2665
 -1      7163    3    0    1
 -2      1362       401      2473      2665
 -1      7164    3    0    1
 -2       302       401      1362      2665
 -1      7165    3    0    1
 -2      1746      1362      2473      2665
 -1      7166    3    0    1
 -2       387      1695      2096      2666
 -1      7167    3    0    1
 -2      1584      2018      2249      2666
 -1      7168    3    0    1
 -2      1584      1681      2018      2666
 -1      7169    3    0    1
 -2      1903      1584      2249      2666
 -1      7170    3    0    1
 -2      1903       387      2096      2666
 -1      7171    3    0    1
 -2       927       514      2094      2828
 -1      7172    3    0    1
 -2       392      2728      2746      2828
 -1      7173    3    0    1
 -2      1552      1571      2200      2667
 -1      7174    3    0    1
 -2      2746      2728      2749      2828
 -1      7175    3    0    1
 -2      2201       991      2290      2669
 -1      7176    3    0    1
 -2      2179      2201      2290      2669
 -1      7177    3    0    1
 -2      1736       991      2531      2669
 -1      7178    3    0    1
 -2       634      2179       991      2200
 -1      7179    3    0    1
 -2      2179       634       991      2669
 -1      7180    3    0    1
 -2      1247      2316      2531      2669
 -1      7181    3    0    1
 -2       991      1247      2531      2669
 -1      7182    3    0    1
 -2      1247       991      2316      2669
 -1      7183    3    0    1
 -2      2249      2245      2582      2670
 -1      7184    3    0    1
 -2      2249      2582      2660      2670
 -1      7185    3    0    1
 -2       586       965      2660      2670
 -1      7186    3    0    1
 -2      2475       586      2660      2670
 -1      7187    3    0    1
 -2       965      2249      2660      2670
 -1      7188    3    0    1
 -2       298      1368      1383      2671
 -1      7189    3    0    1
 -2       298       299      1368      2671
 -1      7190    3    0    1
 -2      2629       336      2683      2718
 -1      7191    3    0    1
 -2      1652      1594      1824      2672
 -1      7192    3    0    1
 -2      1594      1545      2418      2672
 -1      7193    3    0    1
 -2      2418      1545      2622      2672
 -1      7194    3    0    1
 -2      1545      1594      1652      2672
 -1      7195    3    0    1
 -2      1652      2168      2622      2672
 -1      7196    3    0    1
 -2      1545      1652      2622      2672
 -1      7197    3    0    1
 -2      2136      1642      2254      2673
 -1      7198    3    0    1
 -2      1770      1642      2070      2673
 -1      7199    3    0    1
 -2      2070      1642      2136      2673
 -1      7200    3    0    1
 -2      2254      1364      2487      2674
 -1      7201    3    0    1
 -2      1364       441      2487      2674
 -1      7202    3    0    1
 -2      1364       440       441      2674
 -1      7203    3    0    1
 -2      2197       405      2569      2675
 -1      7204    3    0    1
 -2      2128      2197      2569      2675
 -1      7205    3    0    1
 -2      2569      1795      2601      2675
 -1      7206    3    0    1
 -2      2128      2569      2601      2675
 -1      7207    3    0    1
 -2      1795      2128      2601      2675
 -1      7208    3    0    1
 -2      1925      2521      2557      2676
 -1      7209    3    0    1
 -2      1795      1925      2126      2676
 -1      7210    3    0    1
 -2      1795      2126      2278      2676
 -1      7211    3    0    1
 -2      2126      1925      2212      2676
 -1      7212    3    0    1
 -2      2212      1925      2557      2676
 -1      7213    3    0    1
 -2      2557      2278      1082      2164
 -1      7214    3    0    1
 -2      2278      2557      1082      2676
 -1      7215    3    0    1
 -2      2126      2212      2557      2676
 -1      7216    3    0    1
 -2      1945      1570      2456      2677
 -1      7217    3    0    1
 -2      2409      2452      2539      2677
 -1      7218    3    0    1
 -2      2452      2409      2456      2677
 -1      7219    3    0    1
 -2       269       369      1859      2678
 -1      7220    3    0    1
 -2       369       269      1085      2678
 -1      7221    3    0    1
 -2       291       269      2171      2678
 -1      7222    3    0    1
 -2       555       562      2014      2761
 -1      7223    3    0    1
 -2      1095       291      2171      2678
 -1      7224    3    0    1
 -2      1937       555      2014      2761
 -1      7225    3    0    1
 -2      1213      2178      2467      2761
 -1      7226    3    0    1
 -2      1249      2459      2732      2850
 -1      7227    3    0    1
 -2       269       291      1085      2678
 -1      7228    3    0    1
 -2      1085       291      1095      2678
 -1      7229    3    0    1
 -2      1815      1802      2496      2716
 -1      7230    3    0    1
 -2      2166      1804      2477      2680
 -1      7231    3    0    1
 -2      1269      2166      2477      2680
 -1      7232    3    0    1
 -2      1181       419      2494      2773
 -1      7233    3    0    1
 -2      2351      1949      2481      2716
 -1      7234    3    0    1
 -2      1303       750      2540      2682
 -1      7235    3    0    1
 -2      1055      1303      2571      2682
 -1      7236    3    0    1
 -2      1303      1055       750      2682
 -1      7237    3    0    1
 -2      1054      1304      2078      2682
 -1      7238    3    0    1
 -2       750      1054      2078      2682
 -1      7239    3    0    1
 -2      1054       750      1304      2682
 -1      7240    3    0    1
 -2      1269      2477      2715      2837
 -1      7241    3    0    1
 -2       931       424      2729      2862
 -1      7242    3    0    1
 -2      2205      2259      2311      2684
 -1      7243    3    0    1
 -2      2259      2213      2593      2684
 -1      7244    3    0    1
 -2      1696      2388      2730      2806
 -1      7245    3    0    1
 -2      2388      1682      2730      2806
 -1      7246    3    0    1
 -2      1859       369      2543      2849
 -1      7247    3    0    1
 -2       969       347       979      2685
 -1      7248    3    0    1
 -2      2289      2389      2489      2687
 -1      7249    3    0    1
 -2      1682      2289      2489      2687
 -1      7250    3    0    1
 -2      2308      1921      2398      2688
 -1      7251    3    0    1
 -2       874       856      2398      2688
 -1      7252    3    0    1
 -2      1371      1384      2308      2688
 -1      7253    3    0    1
 -2      1384       856       874      2688
 -1      7254    3    0    1
 -2       856      1384      1371      2688
 -1      7255    3    0    1
 -2      1371      2308      2398      2688
 -1      7256    3    0    1
 -2       856      1371      2398      2688
 -1      7257    3    0    1
 -2      1466      2976      3016      3046
 -1      7258    3    0    1
 -2      2239      1002      1423      1424
 -1      7259    3    0    1
 -2       678      1015      2242      2689
 -1      7260    3    0    1
 -2      1015       678      2131      2689
 -1      7261    3    0    1
 -2      2131       678      2242      2689
 -1      7262    3    0    1
 -2      1410      1409      3087      1491
 -1      7263    3    0    1
 -2      2144      1869      2289      2690
 -1      7264    3    0    1
 -2        24       396      2144      2690
 -1      7265    3    0    1
 -2        24      2144      2289      2690
 -1      7266    3    0    1
 -2      1869      2069      2289      2690
 -1      7267    3    0    1
 -2       396        24      2069      2690
 -1      7268    3    0    1
 -2      2069        24      2289      2690
 -1      7269    3    0    1
 -2      1669       198      2743      2833
 -1      7270    3    0    1
 -2       198      1669      2561      2833
 -1      7271    3    0    1
 -2      2050      2004      2391      2691
 -1      7272    3    0    1
 -2        62      2050      2391      2691
 -1      7273    3    0    1
 -2      2004      1823      2110      2691
 -1      7274    3    0    1
 -2      1823      2004      2050      2691
 -1      7275    3    0    1
 -2        62       937      1823      2691
 -1      7276    3    0    1
 -2        62      1823      2050      2691
 -1      7277    3    0    1
 -2      1556      1674      2288      2692
 -1      7278    3    0    1
 -2      2101       330      2579      2744
 -1      7279    3    0    1
 -2       330       435      2579      2744
 -1      7280    3    0    1
 -2      1395      2101      2621      2744
 -1      7281    3    0    1
 -2       520       519      2191      2694
 -1      7282    3    0    1
 -2       519      2169      2191      2694
 -1      7283    3    0    1
 -2       519      1605      2169      2694
 -1      7284    3    0    1
 -2       519       520       930      2694
 -1      7285    3    0    1
 -2      1605       519       930      2694
 -1      7286    3    0    1
 -2       519      1605       930       929
 -1      7287    3    0    1
 -2       954        85      2238      2695
 -1      7288    3    0    1
 -2       977      2442      2615      2708
 -1      7289    3    0    1
 -2       945       366       954      2695
 -1      7290    3    0    1
 -2       366        85       954      2695
 -1      7291    3    0    1
 -2       975       603      2450      2842
 -1      7292    3    0    1
 -2      2352      2547      2693      2836
 -1      7293    3    0    1
 -2      2547      1804      2628      2836
 -1      7294    3    0    1
 -2      2547      2628      2693      2836
 -1      7295    3    0    1
 -2      2262      2477      2547      2836
 -1      7296    3    0    1
 -2      2889      2834      2890      2942
 -1      7297    3    0    1
 -2      3028      2983      3031      3034
 -1      7298    3    0    1
 -2      1977      2598      2880      2902
 -1      7299    3    0    1
 -2       527       526       934      2995
 -1      7300    3    0    1
 -2      2930      2934      3075      3126
 -1      7301    3    0    1
 -2      1271      2239      1423      3073
 -1      7302    3    0    1
 -2      2042      2697      2889      2890
 -1      7303    3    0    1
 -2      1528      1983      2042      2697
 -1      7304    3    0    1
 -2      1983      1528      2379      2697
 -1      7305    3    0    1
 -2      1528      2042      2696      2697
 -1      7306    3    0    1
 -2      1729      2023      2252      2700
 -1      7307    3    0    1
 -2      2023      1729      2404      2700
 -1      7308    3    0    1
 -2       127       981      2174      2701
 -1      7309    3    0    1
 -2       981       616      2174      2701
 -1      7310    3    0    1
 -2       615       980      2360      2701
 -1      7311    3    0    1
 -2       980       615       981      2701
 -1      7312    3    0    1
 -2       616       615      2360      2701
 -1      7313    3    0    1
 -2       615       616       981      2701
 -1      7314    3    0    1
 -2      1789      2262      2547      2719
 -1      7315    3    0    1
 -2       126       124      1748      2703
 -1      7316    3    0    1
 -2       124       126       980      2703
 -1      7317    3    0    1
 -2       124       980      2701      2703
 -1      7318    3    0    1
 -2      1748       124      2701      2703
 -1      7319    3    0    1
 -2      2735       760      2845      2856
 -1      7320    3    0    1
 -2      1760      1857      2328      2704
 -1      7321    3    0    1
 -2      1532      2195      2328      2704
 -1      7322    3    0    1
 -2      2195      1532      2368      2704
 -1      7323    3    0    1
 -2      1737      2195      2368      2704
 -1      7324    3    0    1
 -2      1674      2230      2355      2721
 -1      7325    3    0    1
 -2       952       560      1911      2705
 -1      7326    3    0    1
 -2       560      1215      1659      2705
 -1      7327    3    0    1
 -2      1659      1215      2199      2705
 -1      7328    3    0    1
 -2      1215       939      2199      2705
 -1      7329    3    0    1
 -2      2083       534      2318      2705
 -1      7330    3    0    1
 -2       939      2083      2199      2705
 -1      7331    3    0    1
 -2       939       534      2083      2705
 -1      7332    3    0    1
 -2       560       939      1215      2705
 -1      7333    3    0    1
 -2      1696      1674      2599      2707
 -1      7334    3    0    1
 -2       560       534       939      2705
 -1      7335    3    0    1
 -2        85       366      1202      2706
 -1      7336    3    0    1
 -2       534       560      1202      2706
 -1      7337    3    0    1
 -2      1238      2387      2616      2708
 -1      7338    3    0    1
 -2       608      1238      2616      2708
 -1      7339    3    0    1
 -2      1238       608      2387      2708
 -1      7340    3    0    1
 -2       606       608      2616      2708
 -1      7341    3    0    1
 -2      2323       606      2616      2708
 -1      7342    3    0    1
 -2       977       606      1237      2708
 -1      7343    3    0    1
 -2      1237       606      2323      2708
 -1      7344    3    0    1
 -2      3074      1473      2960      3119
 -1      7345    3    0    1
 -2      1454      1513      3021      3052
 -1      7346    3    0    1
 -2      1136      1913      2267      2710
 -1      7347    3    0    1
 -2       317       301      2433      2710
 -1      7348    3    0    1
 -2      1109      1136      2267      2710
 -1      7349    3    0    1
 -2      1136       301       317      2710
 -1      7350    3    0    1
 -2       301      1136      1109      2710
 -1      7351    3    0    1
 -2      1109      2267      2433      2710
 -1      7352    3    0    1
 -2       301      1109      2433      2710
 -1      7353    3    0    1
 -2      1689      1664      1714      2711
 -1      7354    3    0    1
 -2      1714      1664      1754      2711
 -1      7355    3    0    1
 -2      1689      1714      1754      2711
 -1      7356    3    0    1
 -2      1693       382      2274      2712
 -1      7357    3    0    1
 -2       382      1693      2135      2712
 -1      7358    3    0    1
 -2        77       382      2135      2712
 -1      7359    3    0    1
 -2      1576        77      2135      2712
 -1      7360    3    0    1
 -2        77      1576      2336      2712
 -1      7361    3    0    1
 -2      2293        77      2336      2712
 -1      7362    3    0    1
 -2       382        77      2293      2712
 -1      7363    3    0    1
 -2      1664      2337      2711      2713
 -1      7364    3    0    1
 -2      2337      1718      2711      2713
 -1      7365    3    0    1
 -2       568      1798      2339      2714
 -1      7366    3    0    1
 -2       591       568      2339      2714
 -1      7367    3    0    1
 -2       568       591      1798      2714
 -1      7368    3    0    1
 -2       591       967      1798      2714
 -1      7369    3    0    1
 -2      1798       967      2017      2714
 -1      7370    3    0    1
 -2       967      1953      2017      2714
 -1      7371    3    0    1
 -2       967       591      1953      2714
 -1      7372    3    0    1
 -2      1786      2243      2264      2838
 -1      7373    3    0    1
 -2       640      2055      2092      2840
 -1      7374    3    0    1
 -2      2243       610      2450      2838
 -1      7375    3    0    1
 -2       333      1269      2477      2715
 -1      7376    3    0    1
 -2      1555      2351      2481      2716
 -1      7377    3    0    1
 -2      1555      1907      2351      2716
 -1      7378    3    0    1
 -2      1815      1555      2481      2716
 -1      7379    3    0    1
 -2      2161      1750      2610      2722
 -1      7380    3    0    1
 -2       863       896      2161      2722
 -1      7381    3    0    1
 -2       873       852      2288      2717
 -1      7382    3    0    1
 -2      2563      2620      2610      1653
 -1      7383    3    0    1
 -2       852      1383      1368      2717
 -1      7384    3    0    1
 -2      2288      1674      2671      2717
 -1      7385    3    0    1
 -2      1383      2288      2671      2717
 -1      7386    3    0    1
 -2      1383       873      2288      2717
 -1      7387    3    0    1
 -2      1383       852       873      2717
 -1      7388    3    0    1
 -2      1998      1204      2030      2778
 -1      7389    3    0    1
 -2       126       336       968      2718
 -1      7390    3    0    1
 -2      2078       750      2682      2726
 -1      7391    3    0    1
 -2       126       968       980      2718
 -1      7392    3    0    1
 -2      1315      2261      2390      2726
 -1      7393    3    0    1
 -2       750      2540      2682      2726
 -1      7394    3    0    1
 -2      2315       975      2450      2842
 -1      7395    3    0    1
 -2      1532      2129      2325      2720
 -1      7396    3    0    1
 -2      1532      1868      2707      2720
 -1      7397    3    0    1
 -2      2129      1532      2707      2720
 -1      7398    3    0    1
 -2      1868      1959      2230      2721
 -1      7399    3    0    1
 -2      2707      2599      2720      2721
 -1      7400    3    0    1
 -2      1868      2707      2720      2721
 -1      7401    3    0    1
 -2      1857      1868      2720      2721
 -1      7402    3    0    1
 -2      1868      1857      1959      2721
 -1      7403    3    0    1
 -2      1687      1674      2717      2721
 -1      7404    3    0    1
 -2      1674      1687      2692      2721
 -1      7405    3    0    1
 -2      1868      1674      2707      2721
 -1      7406    3    0    1
 -2      1674      1868      2230      2721
 -1      7407    3    0    1
 -2      2117      1713      2427      2723
 -1      7408    3    0    1
 -2      1713      2058      2326      2723
 -1      7409    3    0    1
 -2      1713      2326      2427      2723
 -1      7410    3    0    1
 -2       906      1989      2544      2723
 -1      7411    3    0    1
 -2      1989       906      2058      2723
 -1      7412    3    0    1
 -2       906       398      2427      2723
 -1      7413    3    0    1
 -2      2326       906      2427      2723
 -1      7414    3    0    1
 -2      1571      2294      2747      2763
 -1      7415    3    0    1
 -2        14      2009      2020      2733
 -1      7416    3    0    1
 -2      2747      2763      2842      2848
 -1      7417    3    0    1
 -2      2547      2352      2719      2836
 -1      7418    3    0    1
 -2      1054       750      2078      2726
 -1      7419    3    0    1
 -2      1315      1054      2078      2726
 -1      7420    3    0    1
 -2       775       750      1315      2726
 -1      7421    3    0    1
 -2       750      1054      1315      2726
 -1      7422    3    0    1
 -2       138      2425      2640      2727
 -1      7423    3    0    1
 -2       138       141      2425      2727
 -1      7424    3    0    1
 -2       141       138      1648      2727
 -1      7425    3    0    1
 -2      1648       138      2640      2727
 -1      7426    3    0    1
 -2      2728      2129      2746      2841
 -1      7427    3    0    1
 -2      2692      2388      2730      2868
 -1      7428    3    0    1
 -2       603       975      2763      2842
 -1      7429    3    0    1
 -2       369       267      2543      2849
 -1      7430    3    0    1
 -2       365       350      2571      2843
 -1      7431    3    0    1
 -2      1635      1588      2612      2811
 -1      7432    3    0    1
 -2       520       931       942      2729
 -1      7433    3    0    1
 -2       931        66       942      2729
 -1      7434    3    0    1
 -2       543       520       942      2729
 -1      7435    3    0    1
 -2       424        66       931      2729
 -1      7436    3    0    1
 -2      2612       413      2627      2861
 -1      7437    3    0    1
 -2       914      1180       486      2973
 -1      7438    3    0    1
 -2       623       624       630      3050
 -1      7439    3    0    1
 -2       428      1456      1492      1507
 -1      7440    3    0    1
 -2      1737      2754      2816      2867
 -1      7441    3    0    1
 -2      3073      1848      2689      2891
 -1      7442    3    0    1
 -2       419      1726      2653      2823
 -1      7443    3    0    1
 -2      3075      2451      3084      3086
 -1      7444    3    0    1
 -2       352      1445      3112      3132
 -1      7445    3    0    1
 -2      2556       413      2633      2861
 -1      7446    3    0    1
 -2      2834      2889      2904      2942
 -1      7447    3    0    1
 -2      1305       358      1865      2741
 -1      7448    3    0    1
 -2      2572      1036      2590      2844
 -1      7449    3    0    1
 -2       350       365      1060      2735
 -1      7450    3    0    1
 -2       514      1194      2428      2846
 -1      7451    3    0    1
 -2      1057       350      1060      2735
 -1      7452    3    0    1
 -2       759       760      1597      2735
 -1      7453    3    0    1
 -2       760       759      1060      2735
 -1      7454    3    0    1
 -2      2471      2545      2607      2767
 -1      7455    3    0    1
 -2       759      1057      1060      2735
 -1      7456    3    0    1
 -2      1305      1865      1873      2741
 -1      7457    3    0    1
 -2      2741       412      2851      2852
 -1      7458    3    0    1
 -2      1003      1248      2769      2854
 -1      7459    3    0    1
 -2       579      2170      2296      2789
 -1      7460    3    0    1
 -2      1974       760      2740      2845
 -1      7461    3    0    1
 -2      2224      2075      2284      2815
 -1      7462    3    0    1
 -2      2142      1079      2623      2814
 -1      7463    3    0    1
 -2      1033       201      1036      2738
 -1      7464    3    0    1
 -2       404       273      2142      2814
 -1      7465    3    0    1
 -2      2075      2224      2772      2815
 -1      7466    3    0    1
 -2       353      1033      2413      2738
 -1      7467    3    0    1
 -2       201       353      2413      2738
 -1      7468    3    0    1
 -2       353       201      1033      2738
 -1      7469    3    0    1
 -2       760      1060      1070      2740
 -1      7470    3    0    1
 -2       378       392      2748      2754
 -1      7471    3    0    1
 -2       267      2463      2543      2849
 -1      7472    3    0    1
 -2      2376      1873      2438      2741
 -1      7473    3    0    1
 -2       412      2376      2438      2741
 -1      7474    3    0    1
 -2       412       358      1305      2741
 -1      7475    3    0    1
 -2       412      1305      2376      2741
 -1      7476    3    0    1
 -2      1982      1843      2376      2742
 -1      7477    3    0    1
 -2      1968      2877      2912      3000
 -1      7478    3    0    1
 -2      2042      2364      2697      2834
 -1      7479    3    0    1
 -2      1436      1414      1453      3013
 -1      7480    3    0    1
 -2      2042      1968      2364      2878
 -1      7481    3    0    1
 -2      1395       330      2101      2744
 -1      7482    3    0    1
 -2      1135       330      1395      2744
 -1      7483    3    0    1
 -2      1194      2233      2428      2745
 -1      7484    3    0    1
 -2      1698      1194      2428      2745
 -1      7485    3    0    1
 -2      1194       393      2233      2745
 -1      7486    3    0    1
 -2      1194      1698      2480      2745
 -1      7487    3    0    1
 -2       393      1194      2480      2745
 -1      7488    3    0    1
 -2      1097       290      2343      2750
 -1      7489    3    0    1
 -2       292      1853      2220      2750
 -1      7490    3    0    1
 -2       232      1057      2538      2847
 -1      7491    3    0    1
 -2       290       292      2151      2750
 -1      7492    3    0    1
 -2       292      1097      1853      2750
 -1      7493    3    0    1
 -2      2436      2476      2641      2747
 -1      7494    3    0    1
 -2      2476      1552      2641      2747
 -1      7495    3    0    1
 -2      2641      1552      2667      2747
 -1      7496    3    0    1
 -2      1571      2294      2667      2747
 -1      7497    3    0    1
 -2      1552      1571      2667      2747
 -1      7498    3    0    1
 -2      2548      1045      2638      2764
 -1      7499    3    0    1
 -2      1878      1582      2662      2749
 -1      7500    3    0    1
 -2      1698      1971      2428      2749
 -1      7501    3    0    1
 -2      1582      1878      1971      2749
 -1      7502    3    0    1
 -2      1971      1878      2428      2749
 -1      7503    3    0    1
 -2       350       365      2735      2847
 -1      7504    3    0    1
 -2      2435      1020      2530      2751
 -1      7505    3    0    1
 -2      2605       688      2394      2751
 -1      7506    3    0    1
 -2       688      2605      2394      1021
 -1      7507    3    0    1
 -2       687       688      1020      2751
 -1      7508    3    0    1
 -2      2394       687      2529      2751
 -1      7509    3    0    1
 -2      1019       687      1020      2751
 -1      7510    3    0    1
 -2        50       924      2657      2784
 -1      7511    3    0    1
 -2       687      1019      2529      2751
 -1      7512    3    0    1
 -2       173      1020      2435      2751
 -1      7513    3    0    1
 -2       173      1019      1020      2751
 -1      7514    3    0    1
 -2       178       173      2435      2751
 -1      7515    3    0    1
 -2       173       178      1019      2751
 -1      7516    3    0    1
 -2      1019       178      2435      2751
 -1      7517    3    0    1
 -2      1377       310      2568      2752
 -1      7518    3    0    1
 -2      1145       310      1377      2752
 -1      7519    3    0    1
 -2      1354      1672      2502      2776
 -1      7520    3    0    1
 -2      2275       248      2510      2753
 -1      7521    3    0    1
 -2      1102      1354      2502      2776
 -1      7522    3    0    1
 -2      1680       842      1794      2776
 -1      7523    3    0    1
 -2       842       841      1794      2776
 -1      7524    3    0    1
 -2      1068       250      2540      2753
 -1      7525    3    0    1
 -2       248      1068      2510      2753
 -1      7526    3    0    1
 -2        65      2225      2514      2778
 -1      7527    3    0    1
 -2      1680      1794      2502      2776
 -1      7528    3    0    1
 -2       248       250      1068      2753
 -1      7529    3    0    1
 -2      2272      1191      2684      2755
 -1      7530    3    0    1
 -2      2684      1191      2748      2755
 -1      7531    3    0    1
 -2       378      2272      1191      2303
 -1      7532    3    0    1
 -2      2272       378      1191      2755
 -1      7533    3    0    1
 -2      2529      1007      2533      2756
 -1      7534    3    0    1
 -2      1007      2414      2533      2756
 -1      7535    3    0    1
 -2      1019      1007      2529      2756
 -1      7536    3    0    1
 -2      1007      1019      2277      2756
 -1      7537    3    0    1
 -2      2277      1019      2529      2756
 -1      7538    3    0    1
 -2       161      2273      2457      2756
 -1      7539    3    0    1
 -2       161       324      2273      2756
 -1      7540    3    0    1
 -2      2285      2024      2407      2757
 -1      7541    3    0    1
 -2      2166      2024      2472      2757
 -1      7542    3    0    1
 -2      2024      2166      2407      2757
 -1      7543    3    0    1
 -2        53       930      2534      2803
 -1      7544    3    0    1
 -2      2210      2158      2623      2793
 -1      7545    3    0    1
 -2       213       413      2627      2758
 -1      7546    3    0    1
 -2       413       213      1291      2758
 -1      7547    3    0    1
 -2      1004      1618      2184      2759
 -1      7548    3    0    1
 -2      1000      1004      2184      2759
 -1      7549    3    0    1
 -2       156       329      1004      2759
 -1      7550    3    0    1
 -2      1004       329      1618      2759
 -1      7551    3    0    1
 -2      2344      1085      2678      2760
 -1      7552    3    0    1
 -2      1249       989      2459      2850
 -1      7553    3    0    1
 -2       807      2167      2581      2760
 -1      7554    3    0    1
 -2      1766       807      2581      2760
 -1      7555    3    0    1
 -2       807       808      2167      2760
 -1      7556    3    0    1
 -2      2167       808      2344      2760
 -1      7557    3    0    1
 -2       808      1085      2344      2760
 -1      7558    3    0    1
 -2      1085       808       807      2760
 -1      7559    3    0    1
 -2       267      1085      1328      2760
 -1      7560    3    0    1
 -2       750      1054      3026      3027
 -1      7561    3    0    1
 -2       267       369      1085      2760
 -1      7562    3    0    1
 -2       562       953      1763      2761
 -1      7563    3    0    1
 -2      1763       953      2467      2761
 -1      7564    3    0    1
 -2      1054      2261      2892      1437
 -1      7565    3    0    1
 -2      2920      1432      3082      3124
 -1      7566    3    0    1
 -2      1597      1058      2766      2851
 -1      7567    3    0    1
 -2      1058       759      2766      2851
 -1      7568    3    0    1
 -2      2478      2374      2765      2853
 -1      7569    3    0    1
 -2      1970      1980      2741      2851
 -1      7570    3    0    1
 -2      1845      3067      2956      2982
 -1      7571    3    0    1
 -2      2373      2541      2897      2938
 -1      7572    3    0    1
 -2      1980       412      2741      2852
 -1      7573    3    0    1
 -2      1058      2548      2851      2852
 -1      7574    3    0    1
 -2      2164       802      2871      2874
 -1      7575    3    0    1
 -2       340      2353      2727      2854
 -1      7576    3    0    1
 -2      1648       340      2727      2854
 -1      7577    3    0    1
 -2      2639      1702      2659      2825
 -1      7578    3    0    1
 -2      2507      2422      2545      2767
 -1      7579    3    0    1
 -2      2422      1832      2545      2767
 -1      7580    3    0    1
 -2      1685      1832      2422      2767
 -1      7581    3    0    1
 -2      1832      1685      1991      2767
 -1      7582    3    0    1
 -2      2545      2471      2573      2767
 -1      7583    3    0    1
 -2      2507      2545      2573      2767
 -1      7584    3    0    1
 -2      1832      1991      2607      2767
 -1      7585    3    0    1
 -2      2545      1832      2607      2767
 -1      7586    3    0    1
 -2      2570       373      2797      2859
 -1      7587    3    0    1
 -2       490      2773      2779      2855
 -1      7588    3    0    1
 -2       630       655      1248      2769
 -1      7589    3    0    1
 -2       655      1003      1248      2769
 -1      7590    3    0    1
 -2      1688      1920      2341      2770
 -1      7591    3    0    1
 -2      2202      1535      2490      2770
 -1      7592    3    0    1
 -2      1804      2224      2628      2772
 -1      7593    3    0    1
 -2      2120       675      2162      2837
 -1      7594    3    0    1
 -2      1535      1734      2341      2770
 -1      7595    3    0    1
 -2      1737      1866      2123      2816
 -1      7596    3    0    1
 -2      1620      1734      2202      2771
 -1      7597    3    0    1
 -2      1734      2341      2770      2771
 -1      7598    3    0    1
 -2      1535      1734      2770      2771
 -1      7599    3    0    1
 -2      2202      1535      2770      2771
 -1      7600    3    0    1
 -2      1734      1535      2202      2771
 -1      7601    3    0    1
 -2      2075      2224      2472      2772
 -1      7602    3    0    1
 -2      2477      2680      2715      2837
 -1      7603    3    0    1
 -2      1756      1269      2460      2837
 -1      7604    3    0    1
 -2      2166      2680      2757      2772
 -1      7605    3    0    1
 -2      2472      2166      2757      2772
 -1      7606    3    0    1
 -2      2166      1804      2680      2772
 -1      7607    3    0    1
 -2      2224      1804      2472      2772
 -1      7608    3    0    1
 -2      1804      2166      2472      2772
 -1      7609    3    0    1
 -2      1659       951      2822      2909
 -1      7610    3    0    1
 -2      2822      1227      2920      3124
 -1      7611    3    0    1
 -2      2900      2910      3068      3077
 -1      7612    3    0    1
 -2      1060       250      1070      2775
 -1      7613    3    0    1
 -2       234       250      1060      2775
 -1      7614    3    0    1
 -2       841      1102      2502      2776
 -1      7615    3    0    1
 -2       841      1354      1102      2776
 -1      7616    3    0    1
 -2      1068      1314      2510      2777
 -1      7617    3    0    1
 -2      1314      2185      2510      2777
 -1      7618    3    0    1
 -2       775      2540      2726      2777
 -1      7619    3    0    1
 -2       775      1068      2540      2777
 -1      7620    3    0    1
 -2      2390       775      2726      2777
 -1      7621    3    0    1
 -2      1314      1068       775      2777
 -1      7622    3    0    1
 -2      1314       774      2185      2777
 -1      7623    3    0    1
 -2      2185       774      2390      2777
 -1      7624    3    0    1
 -2      1314       775       774      2777
 -1      7625    3    0    1
 -2       774       775      2390      2777
 -1      7626    3    0    1
 -2      1637       938      2514      2778
 -1      7627    3    0    1
 -2       425      1998      2406      2778
 -1      7628    3    0    1
 -2       425      1204      1998      2778
 -1      7629    3    0    1
 -2       938        68      2514      2778
 -1      7630    3    0    1
 -2        68       938      1204      2778
 -1      7631    3    0    1
 -2       425        65      1204      2778
 -1      7632    3    0    1
 -2      1757      1657      1923      2780
 -1      7633    3    0    1
 -2      1740      1757      1923      2780
 -1      7634    3    0    1
 -2      1657      1537      1923      2780
 -1      7635    3    0    1
 -2      1740      1537      2354      2780
 -1      7636    3    0    1
 -2      2354      1537      2521      2780
 -1      7637    3    0    1
 -2      1615      1740      2310      2780
 -1      7638    3    0    1
 -2      2310      1740      2354      2780
 -1      7639    3    0    1
 -2      1537      1740      1923      2780
 -1      7640    3    0    1
 -2      2413       199      2611      2781
 -1      7641    3    0    1
 -2       179      2605      2611      2781
 -1      7642    3    0    1
 -2       199       179      2611      2781
 -1      7643    3    0    1
 -2       353       199      2413      2781
 -1      7644    3    0    1
 -2       199       353      1033      2781
 -1      7645    3    0    1
 -2      1033       353      2413      2781
 -1      7646    3    0    1
 -2      1021       179      1033      2781
 -1      7647    3    0    1
 -2       179       199      1033      2781
 -1      7648    3    0    1
 -2       651      1000      2244      2782
 -1      7649    3    0    1
 -2      2244      1000      2393      2782
 -1      7650    3    0    1
 -2      2241      2244      2393      2782
 -1      7651    3    0    1
 -2      1612      2241      2251      2782
 -1      7652    3    0    1
 -2       323      2305      2529      2783
 -1      7653    3    0    1
 -2       323       178      2305      2783
 -1      7654    3    0    1
 -2       178       323      1019      2783
 -1      7655    3    0    1
 -2      1019       323      2529      2783
 -1      7656    3    0    1
 -2       394        50      2657      2784
 -1      7657    3    0    1
 -2      2233       394      2657      2784
 -1      7658    3    0    1
 -2      2205        53      2534      2784
 -1      7659    3    0    1
 -2        53      1605      2534      2784
 -1      7660    3    0    1
 -2        53        50      1605      2784
 -1      7661    3    0    1
 -2        50        53       924      2784
 -1      7662    3    0    1
 -2      1525      1588      2493      2863
 -1      7663    3    0    1
 -2      1629       372      2609      2810
 -1      7664    3    0    1
 -2      2356      2228      2493      2863
 -1      7665    3    0    1
 -2       372        66      2609      2810
 -1      7666    3    0    1
 -2      2182      2637      2681      2819
 -1      7667    3    0    1
 -2      1604      2182      2679      2819
 -1      7668    3    0    1
 -2       191      2456      2679      2819
 -1      7669    3    0    1
 -2      2677      1604      2679      2819
 -1      7670    3    0    1
 -2      2637       191      2679      2819
 -1      7671    3    0    1
 -2       418      2798      2860      2866
 -1      7672    3    0    1
 -2      1536      1522      2515      2873
 -1      7673    3    0    1
 -2       357      1769      2374      2788
 -1      7674    3    0    1
 -2      1769      1029      2478      2788
 -1      7675    3    0    1
 -2      2374      1769      2478      2788
 -1      7676    3    0    1
 -2      2170      2223      2602      2789
 -1      7677    3    0    1
 -2       962      2629      2683      2789
 -1      7678    3    0    1
 -2      2264      2223      2683      2789
 -1      7679    3    0    1
 -2       579       962      2683      2789
 -1      7680    3    0    1
 -2      2223       579      2683      2789
 -1      7681    3    0    1
 -2      1522      2870      2873      2875
 -1      7682    3    0    1
 -2      2035      2079      2859      2871
 -1      7683    3    0    1
 -2      2053      2553      2587      2790
 -1      7684    3    0    1
 -2       332      1014      2203      2791
 -1      7685    3    0    1
 -2      2203      1014      2407      2791
 -1      7686    3    0    1
 -2      2285      2203      2407      2791
 -1      7687    3    0    1
 -2      2145      2203      2285      2791
 -1      7688    3    0    1
 -2      1043      1291      2758      2792
 -1      7689    3    0    1
 -2      1291      1043      2551      2792
 -1      7690    3    0    1
 -2      2551      1043      2758      2792
 -1      7691    3    0    1
 -2       413      1291      1847      2792
 -1      7692    3    0    1
 -2      1084      2255      2595      2793
 -1      7693    3    0    1
 -2       272      1084      2210      2793
 -1      7694    3    0    1
 -2      2210      1084      2595      2793
 -1      7695    3    0    1
 -2      1986       282      1996      2794
 -1      7696    3    0    1
 -2      1996       282      2082      2794
 -1      7697    3    0    1
 -2      1986      1996      2082      2794
 -1      7698    3    0    1
 -2      1986      2176      2367      2794
 -1      7699    3    0    1
 -2      2330      1928      2340      2795
 -1      7700    3    0    1
 -2      1580      1527      2132      2795
 -1      7701    3    0    1
 -2      1668      2292      2564      2795
 -1      7702    3    0    1
 -2      1668      1626      2003      2795
 -1      7703    3    0    1
 -2      1626      1527      2003      2795
 -1      7704    3    0    1
 -2      2132      2038      2292      2795
 -1      7705    3    0    1
 -2      2292      2038      2564      2795
 -1      7706    3    0    1
 -2      1527      1580      2003      2795
 -1      7707    3    0    1
 -2      1580      2132      2292      2795
 -1      7708    3    0    1
 -2      1580      1668      2003      2795
 -1      7709    3    0    1
 -2      1668      1580      2292      2795
 -1      7710    3    0    1
 -2      1083      1072      2635      2797
 -1      7711    3    0    1
 -2      2570      1083      2635      2797
 -1      7712    3    0    1
 -2       908      1817      1963      2798
 -1      7713    3    0    1
 -2       908       418      1817      2798
 -1      7714    3    0    1
 -2       736       759      2766      2824
 -1      7715    3    0    1
 -2      1046       736      2658      2824
 -1      7716    3    0    1
 -2      2538      1046      2658      2824
 -1      7717    3    0    1
 -2       908      1963      2215      2798
 -1      7718    3    0    1
 -2      1057      1046      2538      2824
 -1      7719    3    0    1
 -2      1057      2538      2766      2824
 -1      7720    3    0    1
 -2      2556      2419      2785      2861
 -1      7721    3    0    1
 -2      2556      2612      2809      2861
 -1      7722    3    0    1
 -2      2311      2259      2593      2805
 -1      7723    3    0    1
 -2      2259      2311      2684      2805
 -1      7724    3    0    1
 -2       319      1390      2576      2800
 -1      7725    3    0    1
 -2       312      1390       319      2800
 -1      7726    3    0    1
 -2       344      1237      2640      2801
 -1      7727    3    0    1
 -2      1237       123      2442      2801
 -1      7728    3    0    1
 -2      2323      1237      2442      2801
 -1      7729    3    0    1
 -2      1237      2508      2640      2801
 -1      7730    3    0    1
 -2      1237      2323      2508      2801
 -1      7731    3    0    1
 -2       344       123      1237      2801
 -1      7732    3    0    1
 -2      1043      2551      2758      2802
 -1      7733    3    0    1
 -2      2580      2419      2758      2802
 -1      7734    3    0    1
 -2      2551      1725      2580      2802
 -1      7735    3    0    1
 -2      2551      2580      2758      2802
 -1      7736    3    0    1
 -2       336      2718      2799      2804
 -1      7737    3    0    1
 -2       968       336      2799      2804
 -1      7738    3    0    1
 -2       336       968      2718      2804
 -1      7739    3    0    1
 -2       980      2360      2703      2804
 -1      7740    3    0    1
 -2       980       968      2360      2804
 -1      7741    3    0    1
 -2       592       968      2630      2804
 -1      7742    3    0    1
 -2       968       592      2360      2804
 -1      7743    3    0    1
 -2      2360       592      2630      2804
 -1      7744    3    0    1
 -2      2272      2593      2684      2805
 -1      7745    3    0    1
 -2      2272      2303      2593      2805
 -1      7746    3    0    1
 -2      1191      2272      2684      2805
 -1      7747    3    0    1
 -2      2272      1191      2303      2805
 -1      7748    3    0    1
 -2      2388      1582      2662      2806
 -1      7749    3    0    1
 -2      2175       145      2395      2827
 -1      7750    3    0    1
 -2      1682      2388      2489      2806
 -1      7751    3    0    1
 -2      1682      2489      2662      2806
 -1      7752    3    0    1
 -2      2489      2388      2662      2806
 -1      7753    3    0    1
 -2      2562      1073      2606      2807
 -1      7754    3    0    1
 -2      1328      2463      2760      2807
 -1      7755    3    0    1
 -2       784       807      1766      2807
 -1      7756    3    0    1
 -2       807      1328      2760      2807
 -1      7757    3    0    1
 -2      1766       807      2760      2807
 -1      7758    3    0    1
 -2       807       784      1073      2807
 -1      7759    3    0    1
 -2       807      1073      1328      2807
 -1      7760    3    0    1
 -2      2605       174      2611      2808
 -1      7761    3    0    1
 -2      1814      1016      2434      2808
 -1      7762    3    0    1
 -2      2434      1016      2466      2808
 -1      7763    3    0    1
 -2       174       177      1016      2808
 -1      7764    3    0    1
 -2       174      1016      1270      2808
 -1      7765    3    0    1
 -2      1270      1016      1814      2808
 -1      7766    3    0    1
 -2       174      1270      1814      2808
 -1      7767    3    0    1
 -2      2155      1546      2173      2809
 -1      7768    3    0    1
 -2      1540      2419      2785      2809
 -1      7769    3    0    1
 -2      2419      1540      2610      2809
 -1      7770    3    0    1
 -2      1750      2010      2610      2809
 -1      7771    3    0    1
 -2      1750      1546      2010      2809
 -1      7772    3    0    1
 -2      1540      1750      2610      2809
 -1      7773    3    0    1
 -2      2556      1546      2785      2809
 -1      7774    3    0    1
 -2      2173      1546      2556      2809
 -1      7775    3    0    1
 -2      1546      1540      2785      2809
 -1      7776    3    0    1
 -2      1540      1546      1750      2809
 -1      7777    3    0    1
 -2      2006      1034      2530      2864
 -1      7778    3    0    1
 -2       913      2000      2073      2812
 -1      7779    3    0    1
 -2      2153       490      2614      2812
 -1      7780    3    0    1
 -2      1181       913       483      2812
 -1      7781    3    0    1
 -2       483       913      2614      2812
 -1      7782    3    0    1
 -2      1181       483       490      2812
 -1      7783    3    0    1
 -2       490       483      2614      2812
 -1      7784    3    0    1
 -2       490      2153      2779      2812
 -1      7785    3    0    1
 -2      2494       490      2779      2812
 -1      7786    3    0    1
 -2       203       197      2626      2813
 -1      7787    3    0    1
 -2       197       203      1034      2813
 -1      7788    3    0    1
 -2       203      2145      2554      2813
 -1      7789    3    0    1
 -2      2145       203      2284      2813
 -1      7790    3    0    1
 -2      2284       203      2626      2813
 -1      7791    3    0    1
 -2      1034       203      2554      2813
 -1      7792    3    0    1
 -2      1032      2517      2588      2815
 -1      7793    3    0    1
 -2      1032      2224      2517      2815
 -1      7794    3    0    1
 -2      2628      2224      2650      2815
 -1      7795    3    0    1
 -2      2588      2628      2650      2815
 -1      7796    3    0    1
 -2      2517      2224      2284      2815
 -1      7797    3    0    1
 -2      2224      2517      2284       706
 -1      7798    3    0    1
 -2      1032      2588      2650      2815
 -1      7799    3    0    1
 -2      2224      1032      2650      2815
 -1      7800    3    0    1
 -2      2599      1696      2841      2868
 -1      7801    3    0    1
 -2      1696      2599      2841      2707
 -1      7802    3    0    1
 -2      1696      2388      2841      2868
 -1      7803    3    0    1
 -2       261      1082      1324      2817
 -1      7804    3    0    1
 -2      1324      1082      2631      2817
 -1      7805    3    0    1
 -2      1324      2011      2216      2817
 -1      7806    3    0    1
 -2       261       265      1082      2817
 -1      7807    3    0    1
 -2      1082       265      2631      2817
 -1      7808    3    0    1
 -2      2011      1324      2516      2817
 -1      7809    3    0    1
 -2      2516      1324      2631      2817
 -1      7810    3    0    1
 -2       261      1324      2583      2817
 -1      7811    3    0    1
 -2      1769       700      2624      2818
 -1      7812    3    0    1
 -2      2624      2535      2786      2818
 -1      7813    3    0    1
 -2      2535      2681      2786      2818
 -1      7814    3    0    1
 -2      1769      2624      2786      2818
 -1      7815    3    0    1
 -2       654       679      2434      2820
 -1      7816    3    0    1
 -2      2131      1002      2239      2820
 -1      7817    3    0    1
 -2      1002      2115      2239      2820
 -1      7818    3    0    1
 -2      1271      1002      2131      2820
 -1      7819    3    0    1
 -2       679      1271      2131      2820
 -1      7820    3    0    1
 -2       654      1002      1271      2820
 -1      7821    3    0    1
 -2       679       654      1271      2820
 -1      7822    3    0    1
 -2      2128      2567      2644      2821
 -1      7823    3    0    1
 -2      2567      1313      2644      2821
 -1      7824    3    0    1
 -2      2128       405      2675      2821
 -1      7825    3    0    1
 -2       405      1625      2643      2821
 -1      7826    3    0    1
 -2       405      2128      2197      2821
 -1      7827    3    0    1
 -2      1625       405      2197      2821
 -1      7828    3    0    1
 -2      1313      2567      2675      2821
 -1      7829    3    0    1
 -2       405      1313      2675      2821
 -1      7830    3    0    1
 -2      1293      2377      2924      2949
 -1      7831    3    0    1
 -2      2636       925      1421      3120
 -1      7832    3    0    1
 -2      2346      2883      2884      2916
 -1      7833    3    0    1
 -2      2779      2153      2855      2858
 -1      7834    3    0    1
 -2      1963       917      2215      2823
 -1      7835    3    0    1
 -2      1963      2215      2798      2823
 -1      7836    3    0    1
 -2       940      2137      2609      2862
 -1      7837    3    0    1
 -2       759       736      1046      2824
 -1      7838    3    0    1
 -2       759      1046      1057      2824
 -1      7839    3    0    1
 -2       872      1144      1134      2825
 -1      7840    3    0    1
 -2      1144      2168      2639      2825
 -1      7841    3    0    1
 -2       315      1144       325      2825
 -1      7842    3    0    1
 -2      1144       872       883      2825
 -1      7843    3    0    1
 -2      1144       883      2168      2825
 -1      7844    3    0    1
 -2       325      1144      2639      2825
 -1      7845    3    0    1
 -2        24      2144      2655      2826
 -1      7846    3    0    1
 -2      2662      1682      2806      2826
 -1      7847    3    0    1
 -2      1582      2662      2806      2826
 -1      7848    3    0    1
 -2      2144      2289      2489      2826
 -1      7849    3    0    1
 -2      2144        24      2289      2826
 -1      7850    3    0    1
 -2      2655      2489      2662      2826
 -1      7851    3    0    1
 -2      1878      2655      2662      2826
 -1      7852    3    0    1
 -2      2144      2489      2655      2826
 -1      7853    3    0    1
 -2       507      2205      2684      2830
 -1      7854    3    0    1
 -2      1057       350      2735      2847
 -1      7855    3    0    1
 -2       927       392      2746      2828
 -1      7856    3    0    1
 -2       365       350      2843      2847
 -1      7857    3    0    1
 -2      2667      2222      2827      2829
 -1      7858    3    0    1
 -2       514       507      2094      2830
 -1      7859    3    0    1
 -2      1191      2684      2748      2830
 -1      7860    3    0    1
 -2      2094      1191      2748      2830
 -1      7861    3    0    1
 -2       924       507      2657      2830
 -1      7862    3    0    1
 -2       507       924      2205      2830
 -1      7863    3    0    1
 -2      2205       924      2657      2830
 -1      7864    3    0    1
 -2       616      1864      2578      2831
 -1      7865    3    0    1
 -2       979       969      1965      2831
 -1      7866    3    0    1
 -2       592       615      2360      2831
 -1      7867    3    0    1
 -2      1965       592      2360      2831
 -1      7868    3    0    1
 -2       616       615       982      2831
 -1      7869    3    0    1
 -2       616       982      1864      2831
 -1      7870    3    0    1
 -2      2360       616      2701      2831
 -1      7871    3    0    1
 -2       969       592      1965      2831
 -1      7872    3    0    1
 -2       616      2174      2701      2831
 -1      7873    3    0    1
 -2      2174       616      2578      2831
 -1      7874    3    0    1
 -2       615       969       979      2831
 -1      7875    3    0    1
 -2       615       592       969      2831
 -1      7876    3    0    1
 -2      2247      1774      2561      2833
 -1      7877    3    0    1
 -2      2561      1669      2743      2833
 -1      7878    3    0    1
 -2      2247      2561      2743      2833
 -1      7879    3    0    1
 -2       989      1260      2850      3104
 -1      7880    3    0    1
 -2      1464      1462      1493      3044
 -1      7881    3    0    1
 -2      2921      2886      3099      2997
 -1      7882    3    0    1
 -2      1304      2078      2885      3111
 -1      7883    3    0    1
 -2      2124      1977      2880      2902
 -1      7884    3    0    1
 -2      2477      2262      2680      2836
 -1      7885    3    0    1
 -2      2693      2628      2743      2836
 -1      7886    3    0    1
 -2      2352      2693      2743      2836
 -1      7887    3    0    1
 -2      1804      2477      2680      2836
 -1      7888    3    0    1
 -2      1804      2680      2772      2836
 -1      7889    3    0    1
 -2      2477      1804      2547      2836
 -1      7890    3    0    1
 -2       675      1269      1756      2837
 -1      7891    3    0    1
 -2      2166      2120      2757      2837
 -1      7892    3    0    1
 -2      2680      2166      2757      2837
 -1      7893    3    0    1
 -2       675      2120      2166      2837
 -1      7894    3    0    1
 -2      1269       675      2166      2837
 -1      7895    3    0    1
 -2      2353       995      2727      2840
 -1      7896    3    0    1
 -2      2243       610      2838      2839
 -1      7897    3    0    1
 -2       610      2243      2645      2839
 -1      7898    3    0    1
 -2       995      2425      2727      2840
 -1      7899    3    0    1
 -2       995       640      2425      2840
 -1      7900    3    0    1
 -2      1005       995      2353      2840
 -1      7901    3    0    1
 -2       995      1005      2055      2840
 -1      7902    3    0    1
 -2      2055      1005      2353      2840
 -1      7903    3    0    1
 -2       342      1003      1897      2869
 -1      7904    3    0    1
 -2      2388      1696      2730      2868
 -1      7905    3    0    1
 -2      2129      2325      2720      2841
 -1      7906    3    0    1
 -2      2388      1582      2806      2841
 -1      7907    3    0    1
 -2      1582      2388      2728      2841
 -1      7908    3    0    1
 -2      2707      2129      2720      2841
 -1      7909    3    0    1
 -2      2599      2707      2720      2841
 -1      7910    3    0    1
 -2      1582      2728      2746      2841
 -1      7911    3    0    1
 -2      2129      1696      2746      2841
 -1      7912    3    0    1
 -2      1696      2129      2707      2841
 -1      7913    3    0    1
 -2      2746      1696      2806      2841
 -1      7914    3    0    1
 -2      1582      2746      2806      2841
 -1      7915    3    0    1
 -2       975      1571      2763      2842
 -1      7916    3    0    1
 -2       234      2540      2753      2843
 -1      7917    3    0    1
 -2       234      1303      2540      2843
 -1      7918    3    0    1
 -2       234      2753      2775      2843
 -1      7919    3    0    1
 -2       365       234      1060      2843
 -1      7920    3    0    1
 -2      2728      2129      2841      2867
 -1      7921    3    0    1
 -2      1731      2515      2587      2857
 -1      7922    3    0    1
 -2       234       365      1303      2843
 -1      7923    3    0    1
 -2      1059      1974      2555      2845
 -1      7924    3    0    1
 -2       760      1059      2555      2845
 -1      7925    3    0    1
 -2      1059       760      1974      2845
 -1      7926    3    0    1
 -2      2749      2746      2828      2846
 -1      7927    3    0    1
 -2      1582      2746      2749      2846
 -1      7928    3    0    1
 -2       927       514      2828      2846
 -1      7929    3    0    1
 -2      2746       927      2828      2846
 -1      7930    3    0    1
 -2       514      2094      2828      2846
 -1      7931    3    0    1
 -2      2094       514      2428      2846
 -1      7932    3    0    1
 -2      1971      1582      2749      2846
 -1      7933    3    0    1
 -2      1698      1971      2749      2846
 -1      7934    3    0    1
 -2      2428      2749      2828      2846
 -1      7935    3    0    1
 -2      2094      2428      2828      2846
 -1      7936    3    0    1
 -2      1057      2735      2766      2847
 -1      7937    3    0    1
 -2      2538      1057      2766      2847
 -1      7938    3    0    1
 -2       603       610      2450      2848
 -1      7939    3    0    1
 -2       610       603      1993      2848
 -1      7940    3    0    1
 -2      1993       974      2436      2848
 -1      7941    3    0    1
 -2      2747      2476      2763      2848
 -1      7942    3    0    1
 -2      2436      2476      2747      2848
 -1      7943    3    0    1
 -2      2436       974      2476      2848
 -1      7944    3    0    1
 -2       974       603      2476      2848
 -1      7945    3    0    1
 -2      2476       603      2763      2848
 -1      7946    3    0    1
 -2      1085       369      2678      2849
 -1      7947    3    0    1
 -2      2760       267      2463      1328
 -1      7948    3    0    1
 -2       267      2760      2463      2849
 -1      7949    3    0    1
 -2      2921      2936      3077      1440
 -1      7950    3    0    1
 -2      3075      2451      3086      3127
 -1      7951    3    0    1
 -2       989      1260      2115      2850
 -1      7952    3    0    1
 -2      2115      1260      2762      2850
 -1      7953    3    0    1
 -2       989       630      2459      2850
 -1      7954    3    0    1
 -2       630       989      2115      2850
 -1      7955    3    0    1
 -2      1448      1450      1478      2981
 -1      7956    3    0    1
 -2       630      2115      2769      2850
 -1      7957    3    0    1
 -2      2459       630      2769      2850
 -1      7958    3    0    1
 -2      2698      2385      2699      2886
 -1      7959    3    0    1
 -2      2385      1933      2699      2886
 -1      7960    3    0    1
 -2      2373      2385      2698      2886
 -1      7961    3    0    1
 -2       759      1058      2548      2851
 -1      7962    3    0    1
 -2      2765      1725       730      1833
 -1      7963    3    0    1
 -2       730      1294      2221      2853
 -1      7964    3    0    1
 -2       220      1970      2764      2852
 -1      7965    3    0    1
 -2      1970       220      1980      2852
 -1      7966    3    0    1
 -2       759       736      2548      2852
 -1      7967    3    0    1
 -2      1058       759      2548      2852
 -1      7968    3    0    1
 -2      2764      1970      2851      2852
 -1      7969    3    0    1
 -2      2548      2764      2851      2852
 -1      7970    3    0    1
 -2      2765      1981      1294      2853
 -1      7971    3    0    1
 -2      1294       730      2765      2853
 -1      7972    3    0    1
 -2       340       341      2353      2854
 -1      7973    3    0    1
 -2      2664      1003      2769      2854
 -1      7974    3    0    1
 -2      2035      2164      2871      2874
 -1      7975    3    0    1
 -2      2859      2035      2871      2874
 -1      7976    3    0    1
 -2      1248       340      1648      2854
 -1      7977    3    0    1
 -2      1003       341      1248      2854
 -1      7978    3    0    1
 -2       342       341      1003      2854
 -1      7979    3    0    1
 -2       341       340      1248      2854
 -1      7980    3    0    1
 -2       373      2570      2787      2859
 -1      7981    3    0    1
 -2       371      2570      2797      2859
 -1      7982    3    0    1
 -2       371      2365      2570      2859
 -1      7983    3    0    1
 -2       419      2823      2860      2872
 -1      7984    3    0    1
 -2       371      2035      2365      2859
 -1      7985    3    0    1
 -2      2419      2556      2809      2861
 -1      7986    3    0    1
 -2        66      2609      2810      2862
 -1      7987    3    0    1
 -2      2612      2556      2633      2861
 -1      7988    3    0    1
 -2      2419       213      2785      2861
 -1      7989    3    0    1
 -2       396       916      2386      2858
 -1      7990    3    0    1
 -2      1536      1522      1905      2858
 -1      7991    3    0    1
 -2      1905       396      2386      2858
 -1      7992    3    0    1
 -2      1905      1522      1928      2858
 -1      7993    3    0    1
 -2       396      1905      1928      2858
 -1      7994    3    0    1
 -2       916       396      2855      2858
 -1      7995    3    0    1
 -2      1928      1522      2855      2858
 -1      7996    3    0    1
 -2       396      1928      2855      2858
 -1      7997    3    0    1
 -2       917      2215      2823      2872
 -1      7998    3    0    1
 -2      2365      2079      2570      2859
 -1      7999    3    0    1
 -2      1164      1989      2553      2873
 -1      8000    3    0    1
 -2      2587      2515      2870      2873
 -1      8001    3    0    1
 -2      2515      1522      2870      2873
 -1      8002    3    0    1
 -2      2773      2494      2857      2860
 -1      8003    3    0    1
 -2      2494       419      2823      2860
 -1      8004    3    0    1
 -2       419      2494      2773      2860
 -1      8005    3    0    1
 -2      1737      2129      2754      2867
 -1      8006    3    0    1
 -2        66       940      2609      2862
 -1      8007    3    0    1
 -2       940        66      2137      2862
 -1      8008    3    0    1
 -2        66      2729      2810       942
 -1      8009    3    0    1
 -2      2729        66      2810      2862
 -1      8010    3    0    1
 -2      1526      1683      2811      2863
 -1      8011    3    0    1
 -2      1683      1526      2356      2863
 -1      8012    3    0    1
 -2      2356      2493      2811      2863
 -1      8013    3    0    1
 -2      1683      2356      2811      2863
 -1      8014    3    0    1
 -2      2530      1034      2813      2864
 -1      8015    3    0    1
 -2      1033       711      2781      2864
 -1      8016    3    0    1
 -2       711      1033      2738      2864
 -1      8017    3    0    1
 -2      2738      1033      2781      2864
 -1      8018    3    0    1
 -2      1035      1034      2738      2864
 -1      8019    3    0    1
 -2      1034      1035      2617      2864
 -1      8020    3    0    1
 -2      2617      1035      2738      2864
 -1      8021    3    0    1
 -2      1725      2478      2786      2865
 -1      8022    3    0    1
 -2      1725      1833      2478      2865
 -1      8023    3    0    1
 -2      2580      1725      2786      2865
 -1      8024    3    0    1
 -2      2681      2580      2786      2865
 -1      8025    3    0    1
 -2      2575       418      2587      2866
 -1      8026    3    0    1
 -2      2494      2857      2860      2866
 -1      8027    3    0    1
 -2      2823      2494      2860      2866
 -1      8028    3    0    1
 -2      2325      2129      2368      2867
 -1      8029    3    0    1
 -2      2325      2368      2816      2867
 -1      8030    3    0    1
 -2      2754      2129      2728      2867
 -1      8031    3    0    1
 -2      2129      2754      2728       392
 -1      8032    3    0    1
 -2      2368      1737      2816      2867
 -1      8033    3    0    1
 -2      2129      1737      2368      2867
 -1      8034    3    0    1
 -2      1674      2692      2730      2868
 -1      8035    3    0    1
 -2      1674      2599      2692      2868
 -1      8036    3    0    1
 -2      1674      1696      2599      2868
 -1      8037    3    0    1
 -2      1696      1674      2730      2868
 -1      8038    3    0    1
 -2      1897      1003      2664      2869
 -1      8039    3    0    1
 -2      2664      1003      2854      2869
 -1      8040    3    0    1
 -2      1008       355      1897      2869
 -1      8041    3    0    1
 -2       342       355      1008      2869
 -1      8042    3    0    1
 -2       342      1005      2353      2869
 -1      8043    3    0    1
 -2      1005       342      1008      2869
 -1      8044    3    0    1
 -2      1008      1897      2485      2869
 -1      8045    3    0    1
 -2      1776      1008      2485      2869
 -1      8046    3    0    1
 -2      1005      1776      2353      2869
 -1      8047    3    0    1
 -2      1005      1008      1776      2869
 -1      8048    3    0    1
 -2      1327      2871       802      2874
 -1      8049    3    0    1
 -2       802      2164      2278      2874
 -1      8050    3    0    1
 -2      2348      3098      3101      3128
 -1      8051    3    0    1
 -2      2079      2570      2859      2871
 -1      8052    3    0    1
 -2      1327       373      2142      2871
 -1      8053    3    0    1
 -2      2142       373      2787      2871
 -1      8054    3    0    1
 -2      2787       373      2859      2871
 -1      8055    3    0    1
 -2      2870      1164      2873      2875
 -1      8056    3    0    1
 -2      1164        10      1989      2875
 -1      8057    3    0    1
 -2       373      1327      2859      2871
 -1      8058    3    0    1
 -2      1164      1989      2873      2875
 -1      8059    3    0    1
 -2      2553      2587      2790      2873
 -1      8060    3    0    1
 -2      2790      2587      2870      2873
 -1      8061    3    0    1
 -2      1164      2553      2790      2873
 -1      8062    3    0    1
 -2        10      1989      2875      2876
 -1      8063    3    0    1
 -2      1626      1536      1819      2876
 -1      8064    3    0    1
 -2      1164      2790      2870      2873
 -1      8065    3    0    1
 -2        10      1626      1819      2876
 -1      8066    3    0    1
 -2      1536      1626      2875      2876
 -1      8067    3    0    1
 -2      1416      3067      1442      3121
 -1      8068    3    0    1
 -2        10      1819      2544      2876
 -1      8069    3    0    1
 -2      1626        10      2875      2876
 -1      8070    3    0    1
 -2      2506      2889      2894      2898
 -1      8071    3    0    1
 -2       376      3101      1481      1482
 -1      8072    3    0    1
 -2      1438      1445      3005      3046
 -1      8073    3    0    1
 -2      1420      1447      3092      3109
 -1      8074    3    0    1
 -2      2762      3078      3104      3113
 -1      8075    3    0    1
 -2      2498      2041      2880      2914
 -1      8076    3    0    1
 -2      2894      2506      2898      3074
 -1      8077    3    0    1
 -2      2944      2906      3107      3129
 -1      8078    3    0    1
 -2      2880      2941      3090      1465
 -1      8079    3    0    1
 -2      1193      2499      1409      2881
 -1      8080    3    0    1
 -2      2498      2041      2585      2880
 -1      8081    3    0    1
 -2      1977      2498      2585      2880
 -1      8082    3    0    1
 -2      1977      2041      2124      2880
 -1      8083    3    0    1
 -2      2041      1977      2585      2880
 -1      8084    3    0    1
 -2       809      2987      3021      3052
 -1      8085    3    0    1
 -2      2992      1465      3012      3038
 -1      8086    3    0    1
 -2      1477      3078      2964      3113
 -1      8087    3    0    1
 -2      1464       361      3094      2993
 -1      8088    3    0    1
 -2      2616       976      2982      3115
 -1      8089    3    0    1
 -2      2877      1968      3093      3000
 -1      8090    3    0    1
 -2      1415      1452      3115      3014
 -1      8091    3    0    1
 -2      1326      1080      2484      2994
 -1      8092    3    0    1
 -2      2885      3088      3111      3114
 -1      8093    3    0    1
 -2      1030      2077      2958      3109
 -1      8094    3    0    1
 -2       361       363      3094      2993
 -1      8095    3    0    1
 -2       727       726      1041      2948
 -1      8096    3    0    1
 -2      1439      1423      1448      3096
 -1      8097    3    0    1
 -2      1968      2912      3093      3000
 -1      8098    3    0    1
 -2      1813      2900      2910      3068
 -1      8099    3    0    1
 -2      2878      2834      2942      2957
 -1      8100    3    0    1
 -2      1203      2147      1422      3118
 -1      8101    3    0    1
 -2      1067      1326      1813      3068
 -1      8102    3    0    1
 -2      2897      2091      3077      2939
 -1      8103    3    0    1
 -2      2948      1041      3028      3031
 -1      8104    3    0    1
 -2       976      1249      2732      3067
 -1      8105    3    0    1
 -2       351      1451      3092      3108
 -1      8106    3    0    1
 -2      2884      2883      2895      3069
 -1      8107    3    0    1
 -2       823       812      2987      3053
 -1      8108    3    0    1
 -2       939      1203       536      2995
 -1      8109    3    0    1
 -2      3068      1440      1458      3128
 -1      8110    3    0    1
 -2       429       430      3079      1459
 -1      8111    3    0    1
 -2      2261      1054      1436      1437
 -1      8112    3    0    1
 -2      3070      1426      1461      3127
 -1      8113    3    0    1
 -2      2922      2954      3098      3099
 -1      8114    3    0    1
 -2      2709      2996      1456      3072
 -1      8115    3    0    1
 -2      2925      2881      3072      3087
 -1      8116    3    0    1
 -2      1977      3107      2598      2947
 -1      8117    3    0    1
 -2      1227       582       584      2920
 -1      8118    3    0    1
 -2      2884      2896      2916      3069
 -1      8119    3    0    1
 -2      1468       101      3107      3022
 -1      8120    3    0    1
 -2      2364      2042      2878      2912
 -1      8121    3    0    1
 -2      3077      2897      2939      1453
 -1      8122    3    0    1
 -2      1415       976      1431      3115
 -1      8123    3    0    1
 -2      1304      2078      2371      2885
 -1      8124    3    0    1
 -2      1448      3074      3102      3009
 -1      8125    3    0    1
 -2      2919      3088      3114      3122
 -1      8126    3    0    1
 -2      2884      2916      2917      3069
 -1      8127    3    0    1
 -2       479       486       487      2973
 -1      8128    3    0    1
 -2       582      2615      2654      2920
 -1      8129    3    0    1
 -2       363      1463      1465      1469
 -1      8130    3    0    1
 -2      3104      1473      3113      1506
 -1      8131    3    0    1
 -2      1435      2885      3083      3111
 -1      8132    3    0    1
 -2      2506      2891      3074      2960
 -1      8133    3    0    1
 -2      1411      2885      3088      3111
 -1      8134    3    0    1
 -2      2371      2885      2919      3088
 -1      8135    3    0    1
 -2      1041      2948      3028      1293
 -1      8136    3    0    1
 -2      2239      1271      2689      3073
 -1      8137    3    0    1
 -2       422       421      3089      3039
 -1      8138    3    0    1
 -2      1423      2239      1424      3073
 -1      8139    3    0    1
 -2      1009       667      1263      2962
 -1      8140    3    0    1
 -2      1015      1280      2301      1438
 -1      8141    3    0    1
 -2      2909      3076      3117      3125
 -1      8142    3    0    1
 -2       787       798      2971      3023
 -1      8143    3    0    1
 -2      1412      1411      3088      1489
 -1      8144    3    0    1
 -2       798      1080      1326      2971
 -1      8145    3    0    1
 -2      2378      2882      2899      3091
 -1      8146    3    0    1
 -2       594      2988      2989      3014
 -1      8147    3    0    1
 -2      2400      1338      1427      2932
 -1      8148    3    0    1
 -2      1457      1430      1486      3127
 -1      8149    3    0    1
 -2      3126      1427      3052      3054
 -1      8150    3    0    1
 -2       211       204      2948      2983
 -1      8151    3    0    1
 -2      2920      2731      3082      2950
 -1      8152    3    0    1
 -2      3030      3058      3059      3066
 -1      8153    3    0    1
 -2      1848      3074      1448      2959
 -1      8154    3    0    1
 -2       351      1446      1451      1509
 -1      8155    3    0    1
 -2      1419      1446      1451      3097
 -1      8156    3    0    1
 -2      1445       352      1449      1470
 -1      8157    3    0    1
 -2      3080      1449      3109      3112
 -1      8158    3    0    1
 -2      1848      1448      3096      3132
 -1      8159    3    0    1
 -2      3080      1848      2893      3096
 -1      8160    3    0    1
 -2      2928      2929      1474      3105
 -1      8161    3    0    1
 -2      3099      2945      2997      3008
 -1      8162    3    0    1
 -2      2887      2888      1464      3105
 -1      8163    3    0    1
 -2      2887      1870      2953      3105
 -1      8164    3    0    1
 -2      1983      2370      2378      2899
 -1      8165    3    0    1
 -2      3090      3071      3117      3094
 -1      8166    3    0    1
 -2       338      1448      1471      3102
 -1      8167    3    0    1
 -2       925      1203      2636      1421
 -1      8168    3    0    1
 -2      2905      3069      1457      3089
 -1      8169    3    0    1
 -2      1977      2370      2906      2944
 -1      8170    3    0    1
 -2      1436      2979      3110      2261
 -1      8171    3    0    1
 -2      1414      1067      1436      3110
 -1      8172    3    0    1
 -2      1002      1271      2239      1423
 -1      8173    3    0    1
 -2      3074      3073      3102      2960
 -1      8174    3    0    1
 -2      2585      2498      2774      2928
 -1      8175    3    0    1
 -2      1410      1180      1425      3116
 -1      8176    3    0    1
 -2      1418      3071      1462      1463
 -1      8177    3    0    1
 -2       194      1273       195      2975
 -1      8178    3    0    1
 -2      3100      1480      1479      1422
 -1      8179    3    0    1
 -2      2883      2895      1457      2986
 -1      8180    3    0    1
 -2      1456       421      1460      1467
 -1      8181    3    0    1
 -2      3073      1448      3096      3102
 -1      8182    3    0    1
 -2      2078      1054      2261      2892
 -1      8183    3    0    1
 -2      1180       487      2973      3017
 -1      8184    3    0    1
 -2      3077      2886      1440      2954
 -1      8185    3    0    1
 -2      2346      1933      2883      2931
 -1      8186    3    0    1
 -2      2762      1260      1434      3104
 -1      8187    3    0    1
 -2      3075      1429      1485      3126
 -1      8188    3    0    1
 -2      2883      1933      2895      2931
 -1      8189    3    0    1
 -2      2894      2940      3078      1473
 -1      8190    3    0    1
 -2      2042      2834      2878      2912
 -1      8191    3    0    1
 -2      1484      1437      3111      3123
 -1      8192    3    0    1
 -2      2892      2261      1436      1437
 -1      8193    3    0    1
 -2      1417      1203      3044      3045
 -1      8194    3    0    1
 -2       904      1180      2347      3070
 -1      8195    3    0    1
 -2      3079       430      2946      1453
 -1      8196    3    0    1
 -2      2697      1983      2889      2894
 -1      8197    3    0    1
 -2      1983      2506      2889      2894
 -1      8198    3    0    1
 -2      2346      1933      2385      2895
 -1      8199    3    0    1
 -2      2346      2385      2884      2895
 -1      8200    3    0    1
 -2      2904      2913      1445      3109
 -1      8201    3    0    1
 -2       421      1456      3089      2996
 -1      8202    3    0    1
 -2      1067      1813      1414      3068
 -1      8203    3    0    1
 -2      1456      1425      3116      3018
 -1      8204    3    0    1
 -2       527       534       526      2995
 -1      8205    3    0    1
 -2      2239      3073      2960      3119
 -1      8206    3    0    1
 -2      2091      2897      2938      2939
 -1      8207    3    0    1
 -2      1227      2654      2822      2920
 -1      8208    3    0    1
 -2      1227       963       582      2920
 -1      8209    3    0    1
 -2       976      2616      2950      3115
 -1      8210    3    0    1
 -2      2991       546      2992      3038
 -1      8211    3    0    1
 -2      2598      2902      2947      2961
 -1      8212    3    0    1
 -2      2698      2541      2921      2936
 -1      8213    3    0    1
 -2       343      1452      3091      3103
 -1      8214    3    0    1
 -2      1876      1338      2400      2932
 -1      8215    3    0    1
 -2      3088      1435      3111      3114
 -1      8216    3    0    1
 -2      1418      3071      1463      3117
 -1      8217    3    0    1
 -2      2933      1166      2999      3127
 -1      8218    3    0    1
 -2      1041      1419      3028      3034
 -1      8219    3    0    1
 -2      3101      3098      1481      1482
 -1      8220    3    0    1
 -2      3086       375      1485      1486
 -1      8221    3    0    1
 -2      1848      2898      3074      2959
 -1      8222    3    0    1
 -2      2878      2834      2904      2942
 -1      8223    3    0    1
 -2      3070      3089      1460      3116
 -1      8224    3    0    1
 -2      1968      2364      2878      2912
 -1      8225    3    0    1
 -2      3098      2922      3099      3101
 -1      8226    3    0    1
 -2      1968      2364      2877      2938
 -1      8227    3    0    1
 -2      2888      3071      3090      3094
 -1      8228    3    0    1
 -2      1080      1876      2484      2994
 -1      8229    3    0    1
 -2      2966      2985      3013      3033
 -1      8230    3    0    1
 -2      2541      2698      2897      2936
 -1      8231    3    0    1
 -2      2933      1429      3075      3126
 -1      8232    3    0    1
 -2      1983      2724      2835      2899
 -1      8233    3    0    1
 -2      2724      2378      2882      2899
 -1      8234    3    0    1
 -2      1983      2378      2724      2899
 -1      8235    3    0    1
 -2      2099      2346      2884      2916
 -1      8236    3    0    1
 -2      2370      2378      2906      2944
 -1      8237    3    0    1
 -2      1041      2371      2377      2949
 -1      8238    3    0    1
 -2      2915      2881      2925      3087
 -1      8239    3    0    1
 -2      3093      1451      3114      3000
 -1      8240    3    0    1
 -2      2968      3015      3050      3063
 -1      8241    3    0    1
 -2      1080      1338      1876      3098
 -1      8242    3    0    1
 -2      2347      1180      2970      3116
 -1      8243    3    0    1
 -2         2       449      3040      3041
 -1      8244    3    0    1
 -2      2835      1983      2901      3078
 -1      8245    3    0    1
 -2      2835      2506      2894      2901
 -1      8246    3    0    1
 -2      2889      2894      2898      2959
 -1      8247    3    0    1
 -2      2724      1983      2835      3078
 -1      8248    3    0    1
 -2       176      1448      1450      1478
 -1      8249    3    0    1
 -2      1009      2962      2963      2965
 -1      8250    3    0    1
 -2      2950      3082      3115      3129
 -1      8251    3    0    1
 -2      1420      1419      3081      3092
 -1      8252    3    0    1
 -2       667       668      1263      2962
 -1      8253    3    0    1
 -2      2124      3076      1465      2980
 -1      8254    3    0    1
 -2      1023       691      2975      2976
 -1      8255    3    0    1
 -2       716       726       727      2948
 -1      8256    3    0    1
 -2      2943      2904      2984      3132
 -1      8257    3    0    1
 -2      2378      2899      2906      2923
 -1      8258    3    0    1
 -2      2931      1933      3084      1454
 -1      8259    3    0    1
 -2      1435       349      3114      1489
 -1      8260    3    0    1
 -2      3078      1473      2964      3113
 -1      8261    3    0    1
 -2      2911      3078      2977      3113
 -1      8262    3    0    1
 -2      1473       354      3113      1506
 -1      8263    3    0    1
 -2      1438      2301      1439      3080
 -1      8264    3    0    1
 -2      2915      1410      3087      3116
 -1      8265    3    0    1
 -2      1427      1080      1428      3098
 -1      8266    3    0    1
 -2      2918      2124      3076      2947
 -1      8267    3    0    1
 -2      1433      3104      3121      1505
 -1      8268    3    0    1
 -2      3060      3041      3061      3062
 -1      8269    3    0    1
 -2      2364      1968      2696      2938
 -1      8270    3    0    1
 -2      1238      2387      2920      2950
 -1      8271    3    0    1
 -2       256      1074      2972      3023
 -1      8272    3    0    1
 -2      1438      1030      2976      3005
 -1      8273    3    0    1
 -2      1249      1415      1416      3067
 -1      8274    3    0    1
 -2       422      1457      3089      1461
 -1      8275    3    0    1
 -2      1414      1453      1459      3110
 -1      8276    3    0    1
 -2      1249       976      1415      3067
 -1      8277    3    0    1
 -2      1416      3067      1441      1442
 -1      8278    3    0    1
 -2      3071      1417      1462      3118
 -1      8279    3    0    1
 -2      3082      1444      1443      3085
 -1      8280    3    0    1
 -2      1444      3082      1443      1432
 -1      8281    3    0    1
 -2      1977      2370      2598      2906
 -1      8282    3    0    1
 -2      1420      1419      2924      3081
 -1      8283    3    0    1
 -2      3083      3111      3123      3130
 -1      8284    3    0    1
 -2       430       429      3079      2946
 -1      8285    3    0    1
 -2      1474      1479      1499      3057
 -1      8286    3    0    1
 -2      2897      3077      2946      1453
 -1      8287    3    0    1
 -2      1203      1417      1422      3045
 -1      8288    3    0    1
 -2      2099      2585      2774      2908
 -1      8289    3    0    1
 -2      2689      1439      3080      3096
 -1      8290    3    0    1
 -2      2962      2963      2965      3007
 -1      8291    3    0    1
 -2      2373      2364      2696      2938
 -1      8292    3    0    1
 -2      1080      1428      3098      3128
 -1      8293    3    0    1
 -2       362      1484      3111      3123
 -1      8294    3    0    1
 -2      2892      3083      3111      3123
 -1      8295    3    0    1
 -2       823       812       811      2987
 -1      8296    3    0    1
 -2      2883      2884      2916      2917
 -1      8297    3    0    1
 -2      2945      2922      1454      3099
 -1      8298    3    0    1
 -2      2541      2886      2921      3077
 -1      8299    3    0    1
 -2      2895      2883      3084      2986
 -1      8300    3    0    1
 -2      1417      1418      3071      1462
 -1      8301    3    0    1
 -2      2897      2541      2936      3077
 -1      8302    3    0    1
 -2      1180       914      2970      3116
 -1      8303    3    0    1
 -2       526      1200      2995      3043
 -1      8304    3    0    1
 -2      2897      2937      2938      2939
 -1      8305    3    0    1
 -2      2937      2091      2938      2939
 -1      8306    3    0    1
 -2      1451      1490      1508      3034
 -1      8307    3    0    1
 -2       479       910      2973      3017
 -1      8308    3    0    1
 -2      3074      1448      2959      3009
 -1      8309    3    0    1
 -2      1200        54      2995      3003
 -1      8310    3    0    1
 -2      1227      3004       582       963
 -1      8311    3    0    1
 -2      2091      2885      3083      2978
 -1      8312    3    0    1
 -2      1227      2822      1475      3124
 -1      8313    3    0    1
 -2      1455      1432      1475      3124
 -1      8314    3    0    1
 -2      3079       429      1440      2946
 -1      8315    3    0    1
 -2      1041      1412      1419      3034
 -1      8316    3    0    1
 -2      1413      1326      3068      2994
 -1      8317    3    0    1
 -2      2928      1870      3072      2951
 -1      8318    3    0    1
 -2       599       600       606      3035
 -1      8319    3    0    1
 -2      2041      2498      2585      2914
 -1      8320    3    0    1
 -2      2895      3084      1457      2986
 -1      8321    3    0    1
 -2      2908      3072      1870      2951
 -1      8322    3    0    1
 -2      1933      2922      2945      3099
 -1      8323    3    0    1
 -2      1445      1420      1447      3046
 -1      8324    3    0    1
 -2      2041      2585      2887      2914
 -1      8325    3    0    1
 -2      2908      2774      2916      2951
 -1      8326    3    0    1
 -2       526       534       536      2995
 -1      8327    3    0    1
 -2      1326      1067      1413      3068
 -1      8328    3    0    1
 -2      1442      1416      1477      3049
 -1      8329    3    0    1
 -2      1413      1067      1414      3068
 -1      8330    3    0    1
 -2      1409      2499      1410      3087
 -1      8331    3    0    1
 -2      3096       176      3112      3132
 -1      8332    3    0    1
 -2      2884      2896      2908      2916
 -1      8333    3    0    1
 -2      2099      2884      2908      2916
 -1      8334    3    0    1
 -2      2896      2709      2908      2916
 -1      8335    3    0    1
 -2      2886      2541      2900      3077
 -1      8336    3    0    1
 -2       904      1426      2999      3127
 -1      8337    3    0    1
 -2       193       351      3092      3108
 -1      8338    3    0    1
 -2      1414      1436      1453      3110
 -1      8339    3    0    1
 -2      1419      2924      3081      3097
 -1      8340    3    0    1
 -2       963      1238      2387      2920
 -1      8341    3    0    1
 -2       799       788       787      2971
 -1      8342    3    0    1
 -2      2887      2914      2928      2929
 -1      8343    3    0    1
 -2      2896      2884      2905      3069
 -1      8344    3    0    1
 -2      2945      2921      3099      2997
 -1      8345    3    0    1
 -2      2884      2895      2905      3069
 -1      8346    3    0    1
 -2      2124      2880      3090      1465
 -1      8347    3    0    1
 -2      1411      2371      1412      3088
 -1      8348    3    0    1
 -2      3077      3079      2946      1453
 -1      8349    3    0    1
 -2      2903      2888      3071      3090
 -1      8350    3    0    1
 -2      1464      2929      3105      3020
 -1      8351    3    0    1
 -2      1457      3070      3089      1461
 -1      8352    3    0    1
 -2      1425       904      1426      3070
 -1      8353    3    0    1
 -2      1477      3015      3049      3063
 -1      8354    3    0    1
 -2      2347      2896      2905      3070
 -1      8355    3    0    1
 -2      1870      2928      1474      3105
 -1      8356    3    0    1
 -2      1180       904      1425      3070
 -1      8357    3    0    1
 -2      1166       463      3040      3060
 -1      8358    3    0    1
 -2      3072      2709      3087      1456
 -1      8359    3    0    1
 -2      2916      3072      2951      1456
 -1      8360    3    0    1
 -2       345      1442      1477      1500
 -1      8361    3    0    1
 -2      2689      1271      1423      3073
 -1      8362    3    0    1
 -2       665       165      2962      2963
 -1      8363    3    0    1
 -2      1215      1417      1418      3071
 -1      8364    3    0    1
 -2      1455      1475      1501      3124
 -1      8365    3    0    1
 -2      2888      2199      2903      3071
 -1      8366    3    0    1
 -2      3067      1845      2956      3091
 -1      8367    3    0    1
 -2      1424      1423      3073      1471
 -1      8368    3    0    1
 -2       582      1227       584      3019
 -1      8369    3    0    1
 -2      2879      1968      1451      3093
 -1      8370    3    0    1
 -2       158      3102      2969      3009
 -1      8371    3    0    1
 -2      2894      2835      2901      3078
 -1      8372    3    0    1
 -2      2724      2835      2940      3078
 -1      8373    3    0    1
 -2      1435      1484      1510      3065
 -1      8374    3    0    1
 -2      1293      1030      1419      2924
 -1      8375    3    0    1
 -2      2900      3077      1440      2954
 -1      8376    3    0    1
 -2      1419      1030      1420      2924
 -1      8377    3    0    1
 -2      1092      2320      2400      2933
 -1      8378    3    0    1
 -2      3117      1465      1502      3125
 -1      8379    3    0    1
 -2      1203      2147      2636      3100
 -1      8380    3    0    1
 -2      2886      1933      2945      3099
 -1      8381    3    0    1
 -2      3091      1477      3103      3121
 -1      8382    3    0    1
 -2       359      1501      1502      3125
 -1      8383    3    0    1
 -2      2732      1845      3067      3121
 -1      8384    3    0    1
 -2      3074      3073      1848      3102
 -1      8385    3    0    1
 -2      2585      1870      2887      2928
 -1      8386    3    0    1
 -2      1870      2585      2908      2928
 -1      8387    3    0    1
 -2      3100      1421      1479      3120
 -1      8388    3    0    1
 -2      2917      2883      3069      1457
 -1      8389    3    0    1
 -2       914      2915      2970      3116
 -1      8390    3    0    1
 -2      2916      2709      2996      2896
 -1      8391    3    0    1
 -2      2925      1870      2926      3072
 -1      8392    3    0    1
 -2      2709      2925      2926      3072
 -1      8393    3    0    1
 -2      1933      2922      3084      1454
 -1      8394    3    0    1
 -2      2881      1870      2925      3072
 -1      8395    3    0    1
 -2      2908      2916      3072      2951
 -1      8396    3    0    1
 -2      3075      3086      1485      1486
 -1      8397    3    0    1
 -2      2908      1870      2928      2951
 -1      8398    3    0    1
 -2      2689      1015      1439      3096
 -1      8399    3    0    1
 -2      2908      2709      2926      3072
 -1      8400    3    0    1
 -2        64      3105      3106      3020
 -1      8401    3    0    1
 -2      2239      2689      2891      3073
 -1      8402    3    0    1
 -2      1465      1502      1503      3012
 -1      8403    3    0    1
 -2      1416      1249      1433      3049
 -1      8404    3    0    1
 -2      2968       617      3015      3049
 -1      8405    3    0    1
 -2      2936      3077      1440      2946
 -1      8406    3    0    1
 -2      2709      2925      3072      3087
 -1      8407    3    0    1
 -2      2709      2915      2925      3087
 -1      8408    3    0    1
 -2      2499      1409      2881      3087
 -1      8409    3    0    1
 -2      2923      3091      1477      2967
 -1      8410    3    0    1
 -2      2499      2881      2915      3087
 -1      8411    3    0    1
 -2      2948       714      2983      3028
 -1      8412    3    0    1
 -2      2985       762      1504      3033
 -1      8413    3    0    1
 -2       370      1474      1479      1499
 -1      8414    3    0    1
 -2       451       462       463      3040
 -1      8415    3    0    1
 -2      1415      1416      3067      1441
 -1      8416    3    0    1
 -2      2983       713      3031      3034
 -1      8417    3    0    1
 -2      1933      2346      2699      2931
 -1      8418    3    0    1
 -2       176       352      1450      3112
 -1      8419    3    0    1
 -2       452      1158      3040      3060
 -1      8420    3    0    1
 -2      2301      2689      1439      3080
 -1      8421    3    0    1
 -2      1203      2636      1421      3100
 -1      8422    3    0    1
 -2      1440       368      3101      2997
 -1      8423    3    0    1
 -2      3087      3072      1456      3095
 -1      8424    3    0    1
 -2      1475      1455      1501      3047
 -1      8425    3    0    1
 -2      2506      2891      2898      3074
 -1      8426    3    0    1
 -2      1420      1438      2976      3005
 -1      8427    3    0    1
 -2      2891      1848      2898      3074
 -1      8428    3    0    1
 -2      3091       345      1477      2967
 -1      8429    3    0    1
 -2      2889      2890      2894      2959
 -1      8430    3    0    1
 -2      2922      2886      2954      3099
 -1      8431    3    0    1
 -2      2921      2886      2945      3099
 -1      8432    3    0    1
 -2      2199      1417      3071      3118
 -1      8433    3    0    1
 -2      2888      1464      3105      3118
 -1      8434    3    0    1
 -2      1462      1417      1464      3118
 -1      8435    3    0    1
 -2      1166      1429      1430      2933
 -1      8436    3    0    1
 -2      3104      1477      3121      1505
 -1      8437    3    0    1
 -2      2091      3077      2939      1453
 -1      8438    3    0    1
 -2      2834      2878      2912      2957
 -1      8439    3    0    1
 -2      2499       914      2915      2970
 -1      8440    3    0    1
 -2      3077      3079      1440      2946
 -1      8441    3    0    1
 -2      1430      3075      1486      3127
 -1      8442    3    0    1
 -2      1054      1411      1437      3111
 -1      8443    3    0    1
 -2      3090      2124      1465      2980
 -1      8444    3    0    1
 -2      2939      1453      3025      3130
 -1      8445    3    0    1
 -2      2124      1977      2902      2947
 -1      8446    3    0    1
 -2      1427      2400      2932      3126
 -1      8447    3    0    1
 -2      2933      2451      2934      3075
 -1      8448    3    0    1
 -2         1       375      3086      1486
 -1      8449    3    0    1
 -2      2451      2930      2934      3075
 -1      8450    3    0    1
 -2      1510       737      3051      3065
 -1      8451    3    0    1
 -2      2941      3090      1465      2993
 -1      8452    3    0    1
 -2      3088      1435      3114      1489
 -1      8453    3    0    1
 -2      2364      2373      2698      2938
 -1      8454    3    0    1
 -2      2698      2373      2897      2938
 -1      8455    3    0    1
 -2      2364      2897      2937      2938
 -1      8456    3    0    1
 -2      2877      2364      2937      2938
 -1      8457    3    0    1
 -2      2364      2698      2897      2938
 -1      8458    3    0    1
 -2      1436      1067      3013      3033
 -1      8459    3    0    1
 -2      1813      2900      3068      2994
 -1      8460    3    0    1
 -2      2906      1452      3107      3129
 -1      8461    3    0    1
 -2       343       345      3103      2967
 -1      8462    3    0    1
 -2      2900      2886      3077      2954
 -1      8463    3    0    1
 -2      1238       976      1431      3036
 -1      8464    3    0    1
 -2       679       667       678      2962
 -1      8465    3    0    1
 -2      2124      2909      2918      3076
 -1      8466    3    0    1
 -2       678      1015      1271      2962
 -1      8467    3    0    1
 -2      2909       951      1475      1476
 -1      8468    3    0    1
 -2       349      3114      1489      1490
 -1      8469    3    0    1
 -2      1432      1431      3082      1443
 -1      8470    3    0    1
 -2      2900      2541      2910      3077
 -1      8471    3    0    1
 -2      2451      2930      3075      3084
 -1      8472    3    0    1
 -2      2541      2091      2910      3077
 -1      8473    3    0    1
 -2      2506      3074      1473      2960
 -1      8474    3    0    1
 -2      2912      1451      3093      3000
 -1      8475    3    0    1
 -2      2936      2897      3077      2946
 -1      8476    3    0    1
 -2      1425      3070      1460      3116
 -1      8477    3    0    1
 -2       462       904      1166      3040
 -1      8478    3    0    1
 -2      2724      2835      2899      2940
 -1      8479    3    0    1
 -2      3102      3074      2969      3009
 -1      8480    3    0    1
 -2      1271      1015      2689      3096
 -1      8481    3    0    1
 -2       428      1456      2955      3095
 -1      8482    3    0    1
 -2      3073      3074      1848      2891
 -1      8483    3    0    1
 -2      1456      3072      2955      3095
 -1      8484    3    0    1
 -2      2901      2894      1473      2506
 -1      8485    3    0    1
 -2      2901      2724      2935      3078
 -1      8486    3    0    1
 -2       678      1015      2962      2965
 -1      8487    3    0    1
 -2      1465      1418      3012      3038
 -1      8488    3    0    1
 -2      2724      2911      2935      3078
 -1      8489    3    0    1
 -2      2762      2901      2935      3078
 -1      8490    3    0    1
 -2      1453      1436      3013      3033
 -1      8491    3    0    1
 -2      2835      2894      2940      3078
 -1      8492    3    0    1
 -2      1983      2724      2901      3078
 -1      8493    3    0    1
 -2       354       339      3113      1506
 -1      8494    3    0    1
 -2       426       428      2955      3095
 -1      8495    3    0    1
 -2      1015      1271      1423      3096
 -1      8496    3    0    1
 -2      1439      1448      1450      3096
 -1      8497    3    0    1
 -2      2370      1977      2378      2944
 -1      8498    3    0    1
 -2      2896      3069      1456      2996
 -1      8499    3    0    1
 -2       375      1454      1485      1513
 -1      8500    3    0    1
 -2      1447      1420      1466      3046
 -1      8501    3    0    1
 -2      3043      3003      3044      3045
 -1      8502    3    0    1
 -2       560       550       558      2991
 -1      8503    3    0    1
 -2      3070      1426      1460      1461
 -1      8504    3    0    1
 -2      2886      1440      2954      2997
 -1      8505    3    0    1
 -2      3068      1414      1458      1459
 -1      8506    3    0    1
 -2       479       480       486      2973
 -1      8507    3    0    1
 -2       785       256      2972      3023
 -1      8508    3    0    1
 -2       486      1180       487      2973
 -1      8509    3    0    1
 -2      1015      1423      1439      3096
 -1      8510    3    0    1
 -2      1425      2347      3070      3116
 -1      8511    3    0    1
 -2      1432       963      2920      3082
 -1      8512    3    0    1
 -2       997       149      3030      3059
 -1      8513    3    0    1
 -2      1438      1280      2958      3109
 -1      8514    3    0    1
 -2       963      1238      2920      3082
 -1      8515    3    0    1
 -2      2689      2301      2893      3080
 -1      8516    3    0    1
 -2      3078      1477      2977      3113
 -1      8517    3    0    1
 -2      2893      2904      2943      3080
 -1      8518    3    0    1
 -2       339      1477      2964      3113
 -1      8519    3    0    1
 -2      3074      1473      3102      2969
 -1      8520    3    0    1
 -2       572       573       582      3019
 -1      8521    3    0    1
 -2       811       822       823      2987
 -1      8522    3    0    1
 -2      2378      2956      3091      3129
 -1      8523    3    0    1
 -2      2913      2077      2924      3081
 -1      8524    3    0    1
 -2      2879      2913      2924      3081
 -1      8525    3    0    1
 -2      2901      2506      1473      2960
 -1      8526    3    0    1
 -2      2885      2919      3088      3093
 -1      8527    3    0    1
 -2        28        27      2973      2974
 -1      8528    3    0    1
 -2       727       717       716      2948
 -1      8529    3    0    1
 -2      2371      1411      2885      3088
 -1      8530    3    0    1
 -2       703       692       691      2975
 -1      8531    3    0    1
 -2      1431       963      1432      3082
 -1      8532    3    0    1
 -2      1304      1054      1411      3064
 -1      8533    3    0    1
 -2      1420      1438      1445      3109
 -1      8534    3    0    1
 -2      1009       667      2962      2965
 -1      8535    3    0    1
 -2      1238       963      1431      3082
 -1      8536    3    0    1
 -2      2913      2077      3081      3109
 -1      8537    3    0    1
 -2      1477      3091      2977      3121
 -1      8538    3    0    1
 -2      1463      3071      3094      3117
 -1      8539    3    0    1
 -2       474      2974      3017      3018
 -1      8540    3    0    1
 -2      3067      1441      1442      3103
 -1      8541    3    0    1
 -2      1416      1249      3067      3121
 -1      8542    3    0    1
 -2      3078      2940      1477      2964
 -1      8543    3    0    1
 -2       343       345      1442      3103
 -1      8544    3    0    1
 -2      1471      3073      1472      3102
 -1      8545    3    0    1
 -2      1423      2689      3073      3096
 -1      8546    3    0    1
 -2      2922      1933      2945      1454
 -1      8547    3    0    1
 -2      1933      2931      2945      1454
 -1      8548    3    0    1
 -2      3120      1474      3056      3057
 -1      8549    3    0    1
 -2      1448      1848      3096      3102
 -1      8550    3    0    1
 -2       338      1471      1472      3102
 -1      8551    3    0    1
 -2      2091      2892      2907      3083
 -1      8552    3    0    1
 -2       364      1453      1483      3123
 -1      8553    3    0    1
 -2      2892      2261      2907      3083
 -1      8554    3    0    1
 -2      3001       997      3030      3059
 -1      8555    3    0    1
 -2      2895      1933      2930      3084
 -1      8556    3    0    1
 -2      1438      2893      3109      2958
 -1      8557    3    0    1
 -2      1933      2922      2930      3084
 -1      8558    3    0    1
 -2      2451      2895      2930      3084
 -1      8559    3    0    1
 -2      3069      2917      3089      3039
 -1      8560    3    0    1
 -2       376       368      3101      1482
 -1      8561    3    0    1
 -2      1411      1435      1489      3064
 -1      8562    3    0    1
 -2      2922      1454      3099      3101
 -1      8563    3    0    1
 -2      1421      1422      3100      1479
 -1      8564    3    0    1
 -2      1475      1501      3124      3125
 -1      8565    3    0    1
 -2      1220        92      3011      3019
 -1      8566    3    0    1
 -2      2955       426      3095      1474
 -1      8567    3    0    1
 -2      3100      1464      3105      3106
 -1      8568    3    0    1
 -2      1338      1427      2932      3098
 -1      8569    3    0    1
 -2       429      3079      1440      1458
 -1      8570    3    0    1
 -2      2347      2896      3070      3116
 -1      8571    3    0    1
 -2       101       348      1444      3085
 -1      8572    3    0    1
 -2       348      1443      1444      3085
 -1      8573    3    0    1
 -2       480       910       912      2973
 -1      8574    3    0    1
 -2      2904      2878      2942      1445
 -1      8575    3    0    1
 -2      2942      2904      1445      3132
 -1      8576    3    0    1
 -2      1445      1438      1449      3109
 -1      8577    3    0    1
 -2      1273       194      1023      2975
 -1      8578    3    0    1
 -2      2878      2904      2913      1445
 -1      8579    3    0    1
 -2       702      1030      1280      2975
 -1      8580    3    0    1
 -2      1439      3080      3096      3112
 -1      8581    3    0    1
 -2       211       204      1285      2948
 -1      8582    3    0    1
 -2      1450      1439      3096      3112
 -1      8583    3    0    1
 -2       176      2984      3029      3132
 -1      8584    3    0    1
 -2      1283       717      1285      2948
 -1      8585    3    0    1
 -2       352      1445      1449      3112
 -1      8586    3    0    1
 -2       716       717      1283      2948
 -1      8587    3    0    1
 -2      2904      2943      3080      3132
 -1      8588    3    0    1
 -2       166      1009      2963      2965
 -1      8589    3    0    1
 -2       359      1455      3125      3131
 -1      8590    3    0    1
 -2      1426       904      1430      3127
 -1      8591    3    0    1
 -2      1438      1439      1449      3112
 -1      8592    3    0    1
 -2      1449      1445      3109      3112
 -1      8593    3    0    1
 -2      3080      1438      1449      3112
 -1      8594    3    0    1
 -2       352      1449      1450      3112
 -1      8595    3    0    1
 -2       176      1450      3096      3112
 -1      8596    3    0    1
 -2      1449      1439      1450      3112
 -1      8597    3    0    1
 -2      1426      1425      3070      1460
 -1      8598    3    0    1
 -2      2709      3087      1456      3116
 -1      8599    3    0    1
 -2      2931      3084      2986      2990
 -1      8600    3    0    1
 -2      3086         1      2986      2990
 -1      8601    3    0    1
 -2      3084      3086      2986      2990
 -1      8602    3    0    1
 -2      3086      3084      1454      2990
 -1      8603    3    0    1
 -2      3005      1445      3016      3046
 -1      8604    3    0    1
 -2      3069      2905      3070      3089
 -1      8605    3    0    1
 -2      1280      1030      2958      3109
 -1      8606    3    0    1
 -2      1430      3075      1485      1486
 -1      8607    3    0    1
 -2      3083      2885      2892      3111
 -1      8608    3    0    1
 -2       951      2822      2909      1475
 -1      8609    3    0    1
 -2       655       647      3001      3059
 -1      8610    3    0    1
 -2      2124      2909      3076      2980
 -1      8611    3    0    1
 -2      2903      2124      3090      2980
 -1      8612    3    0    1
 -2      3072      2951      1456      2955
 -1      8613    3    0    1
 -2       426      3087      1474      1491
 -1      8614    3    0    1
 -2      1432      1455      1468      3124
 -1      8615    3    0    1
 -2      1435      3051      3064      3065
 -1      8616    3    0    1
 -2      1435      3088      3111      1489
 -1      8617    3    0    1
 -2      3075      3086      1486      3127
 -1      8618    3    0    1
 -2      1457      3070      1461      3127
 -1      8619    3    0    1
 -2      2933      2451      3075      3127
 -1      8620    3    0    1
 -2         1      1457      1486      3127
 -1      8621    3    0    1
 -2      3086         1      1486      3127
 -1      8622    3    0    1
 -2      1428      1440      1482      3128
 -1      8623    3    0    1
 -2      1338      2400      1427      3126
 -1      8624    3    0    1
 -2      1426      1457      1461      3127
 -1      8625    3    0    1
 -2      1430      2933      3127      1166
 -1      8626    3    0    1
 -2       631       630       989      3050
 -1      8627    3    0    1
 -2       363      1465      3094      2993
 -1      8628    3    0    1
 -2      3026      1048      3027      3051
 -1      8629    3    0    1
 -2       641      3030      3059      3066
 -1      8630    3    0    1
 -2      2953      2927      3100      3105
 -1      8631    3    0    1
 -2      1454       376      1481      1520
 -1      8632    3    0    1
 -2      3091      3067      2977      3121
 -1      8633    3    0    1
 -2      2928      2887      2929      3105
 -1      8634    3    0    1
 -2      3040         3      3041      3060
 -1      8635    3    0    1
 -2      1446      1420      1447      3092
 -1      8636    3    0    1
 -2      1870      2887      2928      3105
 -1      8637    3    0    1
 -2      2942      2878      2957      3108
 -1      8638    3    0    1
 -2      3081      3092      3097      3108
 -1      8639    3    0    1
 -2      2887      2914      2929      3105
 -1      8640    3    0    1
 -2      2914      2041      2941      3090
 -1      8641    3    0    1
 -2        64      1464      3105      3020
 -1      8642    3    0    1
 -2      2985      2966      3006      3033
 -1      8643    3    0    1
 -2      2896      3069      3070      3089
 -1      8644    3    0    1
 -2      3041      1457      3061      3062
 -1      8645    3    0    1
 -2      2917       422      1457      3089
 -1      8646    3    0    1
 -2       963      1227      1475      3124
 -1      8647    3    0    1
 -2      1448      1848      2984      3132
 -1      8648    3    0    1
 -2       450      3041      3060      3062
 -1      8649    3    0    1
 -2      1419      1420      1446      3092
 -1      8650    3    0    1
 -2       193       351      1447      3092
 -1      8651    3    0    1
 -2      2971      2972      3023      3024
 -1      8652    3    0    1
 -2      2878      2912      2957      3108
 -1      8653    3    0    1
 -2      2987      3021      3052      3053
 -1      8654    3    0    1
 -2       536       526      2995      3043
 -1      8655    3    0    1
 -2       421      3089      1460      1461
 -1      8656    3    0    1
 -2      2882      2724      2899      3091
 -1      8657    3    0    1
 -2      2887      2041      2914      3090
 -1      8658    3    0    1
 -2      3030      1473      3058      3066
 -1      8659    3    0    1
 -2      1453      1436      1483      3110
 -1      8660    3    0    1
 -2      1813      1067      1414      3110
 -1      8661    3    0    1
 -2       679       678      1271      2962
 -1      8662    3    0    1
 -2      2091      2937      2938      3093
 -1      8663    3    0    1
 -2      1813      1326      2484      2994
 -1      8664    3    0    1
 -2      2124      2041      2903      3090
 -1      8665    3    0    1
 -2      3076      2918      1455      3124
 -1      8666    3    0    1
 -2      2041      2888      2903      3090
 -1      8667    3    0    1
 -2      1435      2885      3111      3114
 -1      8668    3    0    1
 -2      2041      2887      2888      3090
 -1      8669    3    0    1
 -2      1813      1414      3068      3110
 -1      8670    3    0    1
 -2      2882      2378      2956      3091
 -1      8671    3    0    1
 -2      1845      2882      2956      3091
 -1      8672    3    0    1
 -2      2937      2877      2938      3093
 -1      8673    3    0    1
 -2       345      3091      1477      3103
 -1      8674    3    0    1
 -2      2887      2888      3090      1464
 -1      8675    3    0    1
 -2      2914      2887      3090      1464
 -1      8676    3    0    1
 -2       364       362      3025      3130
 -1      8677    3    0    1
 -2       810      3021      3053      3054
 -1      8678    3    0    1
 -2       510      1193       512      3055
 -1      8679    3    0    1
 -2       176       352      3112      3132
 -1      8680    3    0    1
 -2      2896      2916      3069      2996
 -1      8681    3    0    1
 -2      2239      1002      1424      3119
 -1      8682    3    0    1
 -2      1454       376      3101      1481
 -1      8683    3    0    1
 -2      2992       545      3010      3012
 -1      8684    3    0    1
 -2      1465      3090      3094      2993
 -1      8685    3    0    1
 -2      1067      1315      1436      3110
 -1      8686    3    0    1
 -2      2979      3083      3123      3110
 -1      8687    3    0    1
 -2      2885      1968      2919      3093
 -1      8688    3    0    1
 -2      2091      1968      2885      3093
 -1      8689    3    0    1
 -2      1968      2091      2938      3093
 -1      8690    3    0    1
 -2      1968      2879      2919      3093
 -1      8691    3    0    1
 -2      2877      2937      2952      3093
 -1      8692    3    0    1
 -2      3081      1420      3092      3109
 -1      8693    3    0    1
 -2       361       363      1463      3094
 -1      8694    3    0    1
 -2      1462       361      1463      3094
 -1      8695    3    0    1
 -2      3082      1444      3085      1468
 -1      8696    3    0    1
 -2      3082      1432      1444      1468
 -1      8697    3    0    1
 -2      1413      1080      1428      3048
 -1      8698    3    0    1
 -2       910        28      2973      3017
 -1      8699    3    0    1
 -2      1030      1882      2301      2958
 -1      8700    3    0    1
 -2      1470       689      3005      3016
 -1      8701    3    0    1
 -2       691      1273      1023      2975
 -1      8702    3    0    1
 -2      2893      1438      3109      3080
 -1      8703    3    0    1
 -2       691       702       703      2975
 -1      8704    3    0    1
 -2      1280      2301      1438      2958
 -1      8705    3    0    1
 -2       703       702      1280      2975
 -1      8706    3    0    1
 -2      1280      1030      2301      2958
 -1      8707    3    0    1
 -2      1030      2077      2377      2958
 -1      8708    3    0    1
 -2      1882      1030      2377      2958
 -1      8709    3    0    1
 -2      2890      2889      2898      2959
 -1      8710    3    0    1
 -2      1280      2975      2976      3005
 -1      8711    3    0    1
 -2      3073      1448      1471      3096
 -1      8712    3    0    1
 -2      3027      3026      3051      3064
 -1      8713    3    0    1
 -2      1448      1423      1471      3096
 -1      8714    3    0    1
 -2      2947      3076      2961      3131
 -1      8715    3    0    1
 -2      1440      2972      3024      3048
 -1      8716    3    0    1
 -2      2894      2901      1473      3078
 -1      8717    3    0    1
 -2       647       997      3001      3059
 -1      8718    3    0    1
 -2        54        59      2995      3003
 -1      8719    3    0    1
 -2      2902      2124      2947      2961
 -1      8720    3    0    1
 -2      2979      3123      2261      1436
 -1      8721    3    0    1
 -2      2983      2948      3028      3031
 -1      8722    3    0    1
 -2      3004      1227      3019      3047
 -1      8723    3    0    1
 -2      2893      2689      3080      3096
 -1      8724    3    0    1
 -2      1848      3073      2689      3096
 -1      8725    3    0    1
 -2      1848      3080      2893      2943
 -1      8726    3    0    1
 -2      2893      3096      1848      2689
 -1      8727    3    0    1
 -2      1446      1419      3092      3097
 -1      8728    3    0    1
 -2      1419      3081      3092      3097
 -1      8729    3    0    1
 -2      1419      1293      2924      3097
 -1      8730    3    0    1
 -2      2924      1293      2949      3097
 -1      8731    3    0    1
 -2      1420      1030      1438      3109
 -1      8732    3    0    1
 -2       351      1446      3092      3097
 -1      8733    3    0    1
 -2      1446       351      1451      3097
 -1      8734    3    0    1
 -2      1451       351      3092      3097
 -1      8735    3    0    1
 -2      2879      2924      2949      3097
 -1      8736    3    0    1
 -2      2348      1876      2932      3098
 -1      8737    3    0    1
 -2      2348      2932      2954      3098
 -1      8738    3    0    1
 -2      1338      1080      1427      3098
 -1      8739    3    0    1
 -2      2932      2922      2954      3098
 -1      8740    3    0    1
 -2      1421      1474      1479      3120
 -1      8741    3    0    1
 -2      2888      3071      3094      3118
 -1      8742    3    0    1
 -2      1933      2886      2922      3099
 -1      8743    3    0    1
 -2      2888      2199      3071      3118
 -1      8744    3    0    1
 -2      1480      3100      1479      3106
 -1      8745    3    0    1
 -2      1977      2906      3107      2944
 -1      8746    3    0    1
 -2      2927      2147      2953      3100
 -1      8747    3    0    1
 -2      1464        64      3105      3106
 -1      8748    3    0    1
 -2      3085      3082      1468      3107
 -1      8749    3    0    1
 -2      2636      2147      2927      3100
 -1      8750    3    0    1
 -2      2347      1180      2546      2970
 -1      8751    3    0    1
 -2      1203      1421      1422      3100
 -1      8752    3    0    1
 -2      1475      2909      1476      3125
 -1      8753    3    0    1
 -2      3067      3091      3103      3121
 -1      8754    3    0    1
 -2      3072      2955      3095      1474
 -1      8755    3    0    1
 -2      1870      2928      3072      1474
 -1      8756    3    0    1
 -2      1416      1433      3121      3049
 -1      8757    3    0    1
 -2      3087      3072      3095      1474
 -1      8758    3    0    1
 -2      1454      2945      3099      3008
 -1      8759    3    0    1
 -2      3067      1845      2977      3121
 -1      8760    3    0    1
 -2      1166       904      1430      3061
 -1      8761    3    0    1
 -2      3072      2951      2955      1474
 -1      8762    3    0    1
 -2      3072      2928      2951      1474
 -1      8763    3    0    1
 -2      3082      2731      2947      3107
 -1      8764    3    0    1
 -2      1249      1416      1433      3121
 -1      8765    3    0    1
 -2      3104      1477      3113      3121
 -1      8766    3    0    1
 -2      2732      1249      2850      3121
 -1      8767    3    0    1
 -2       608       599       606      3035
 -1      8768    3    0    1
 -2      1428      1427      3098      1481
 -1      8769    3    0    1
 -2       376      1454      3101      3008
 -1      8770    3    0    1
 -2      1442      3067      3103      3121
 -1      8771    3    0    1
 -2      2762      2901      3078      2960
 -1      8772    3    0    1
 -2      3078      2901      1473      2960
 -1      8773    3    0    1
 -2      2947      2918      1455      2961
 -1      8774    3    0    1
 -2       951      1227      2822      1475
 -1      8775    3    0    1
 -2       617       135      2968      3015
 -1      8776    3    0    1
 -2       948       551      2991      3010
 -1      8777    3    0    1
 -2      3004      1220      3011      3019
 -1      8778    3    0    1
 -2      1432      1444      1468      1496
 -1      8779    3    0    1
 -2      1048       226      3027      3051
 -1      8780    3    0    1
 -2       195       194      2975      3016
 -1      8781    3    0    1
 -2      1455       359      1501      1518
 -1      8782    3    0    1
 -2      1030      1280      2976      3005
 -1      8783    3    0    1
 -2      2940      2724      3078      1477
 -1      8784    3    0    1
 -2      2899      2724      2940      1477
 -1      8785    3    0    1
 -2      2724      2899      2923      1477
 -1      8786    3    0    1
 -2      3074      2506      1473      2969
 -1      8787    3    0    1
 -2      2885      1435      3083      2978
 -1      8788    3    0    1
 -2      3041      3040      3060      3061
 -1      8789    3    0    1
 -2       349      2952      3114      3042
 -1      8790    3    0    1
 -2      1249      2732      3067      3121
 -1      8791    3    0    1
 -2      2911      1433      3104      3121
 -1      8792    3    0    1
 -2      1434      3104      1505      1506
 -1      8793    3    0    1
 -2      3076      2909      3124      3125
 -1      8794    3    0    1
 -2      2894      3074      2959      2969
 -1      8795    3    0    1
 -2       210       349      3114      3042
 -1      8796    3    0    1
 -2      1435      2885      3093      2978
 -1      8797    3    0    1
 -2       165       166      1009      2962
 -1      8798    3    0    1
 -2       345      3091      3103      2967
 -1      8799    3    0    1
 -2      3091       343      3103      2967
 -1      8800    3    0    1
 -2      2962      1015      3007      2965
 -1      8801    3    0    1
 -2       666       166      2963      2965
 -1      8802    3    0    1
 -2      1429      1430      3075      1485
 -1      8803    3    0    1
 -2      1435       349      2952      3114
 -1      8804    3    0    1
 -2      1435      2952      3093      3114
 -1      8805    3    0    1
 -2      2965      2963      2981      3007
 -1      8806    3    0    1
 -2      1015      2962      3007      1271
 -1      8807    3    0    1
 -2       210      3114      1490      3122
 -1      8808    3    0    1
 -2      2911      1477      2977      3121
 -1      8809    3    0    1
 -2      1476      3117      1502      3125
 -1      8810    3    0    1
 -2      1442      1477      1500      3049
 -1      8811    3    0    1
 -2      1501       359      3124      3125
 -1      8812    3    0    1
 -2      3026       738      3051      3064
 -1      8813    3    0    1
 -2      1435      1437      1484      3065
 -1      8814    3    0    1
 -2       737      3027      3051      3065
 -1      8815    3    0    1
 -2       822      1092       823      2987
 -1      8816    3    0    1
 -2      3073      1472      3102      3119
 -1      8817    3    0    1
 -2      1462       361      1464      1493
 -1      8818    3    0    1
 -2      1429      1454      1485      3126
 -1      8819    3    0    1
 -2      1440      1413      1458      3128
 -1      8820    3    0    1
 -2      2147      2887      2953      3105
 -1      8821    3    0    1
 -2      2929      2914      1464      3105
 -1      8822    3    0    1
 -2      2887      2147      2888      3105
 -1      8823    3    0    1
 -2       370      1474      3105      3106
 -1      8824    3    0    1
 -2       370        64      1480      3106
 -1      8825    3    0    1
 -2      1479       370      1480      3106
 -1      8826    3    0    1
 -2      3015       618      3050      3063
 -1      8827    3    0    1
 -2      3098      1454      3101      1481
 -1      8828    3    0    1
 -2      2947      1455      1468      3107
 -1      8829    3    0    1
 -2      3082      2947      1468      3107
 -1      8830    3    0    1
 -2      3068      1413      2994      3128
 -1      8831    3    0    1
 -2      3052      1338      3053      3054
 -1      8832    3    0    1
 -2      1452      2906      3107      3022
 -1      8833    3    0    1
 -2      1440       429      1458      1512
 -1      8834    3    0    1
 -2      2947      2598      2961      3107
 -1      8835    3    0    1
 -2       101       348      3085      3107
 -1      8836    3    0    1
 -2      1455      2947      2961      3107
 -1      8837    3    0    1
 -2      3124      3076      3125      3131
 -1      8838    3    0    1
 -2      1440      2972      1512      3024
 -1      8839    3    0    1
 -2      1465        78      3125      3131
 -1      8840    3    0    1
 -2      2731      2944      2947      3107
 -1      8841    3    0    1
 -2      3085      3082      3107      3129
 -1      8842    3    0    1
 -2      1455      2906      1468      3107
 -1      8843    3    0    1
 -2      3076      2947      2961      2918
 -1      8844    3    0    1
 -2      3082      2731      3107      3129
 -1      8845    3    0    1
 -2      2598      2906      2961      3107
 -1      8846    3    0    1
 -2      2731      3082      2950      3129
 -1      8847    3    0    1
 -2      2906      1455      2961      3107
 -1      8848    3    0    1
 -2      2971      1080      3024      3023
 -1      8849    3    0    1
 -2      2972       786      1512      3024
 -1      8850    3    0    1
 -2       787      1318      1074      2971
 -1      8851    3    0    1
 -2       256      1318       263      2971
 -1      8852    3    0    1
 -2      1318       787       788      2971
 -1      8853    3    0    1
 -2      1080      2971      3024      1326
 -1      8854    3    0    1
 -2        28        27       912      2973
 -1      8855    3    0    1
 -2       910        28       912      2973
 -1      8856    3    0    1
 -2      2879      2913      3081      3108
 -1      8857    3    0    1
 -2      2878      2879      2912      3108
 -1      8858    3    0    1
 -2      3092      1451      3097      3108
 -1      8859    3    0    1
 -2      2913      2878      1445      3108
 -1      8860    3    0    1
 -2       480       479       910      2973
 -1      8861    3    0    1
 -2       193      1445      2957      3108
 -1      8862    3    0    1
 -2      1215       951      1418      3038
 -1      8863    3    0    1
 -2      1451       351      2957      3108
 -1      8864    3    0    1
 -2      2912      1451      2957      3108
 -1      8865    3    0    1
 -2      2879      2878      2913      3108
 -1      8866    3    0    1
 -2      1445      2942      2957      3108
 -1      8867    3    0    1
 -2       351       193      2957      3108
 -1      8868    3    0    1
 -2      2893      2904      1445      3109
 -1      8869    3    0    1
 -2      3081      3092      3108      3109
 -1      8870    3    0    1
 -2      1445       193      1447      3109
 -1      8871    3    0    1
 -2      1447       193      3092      3109
 -1      8872    3    0    1
 -2      2077      1420      2924      3109
 -1      8873    3    0    1
 -2      2924      1420      3081      3109
 -1      8874    3    0    1
 -2      2077      2924      3081      3109
 -1      8875    3    0    1
 -2      1445      2913      3108      3109
 -1      8876    3    0    1
 -2      2913      3081      3108      3109
 -1      8877    3    0    1
 -2       193      1445      3108      3109
 -1      8878    3    0    1
 -2      3092       193      3108      3109
 -1      8879    3    0    1
 -2      2077      2893      2958      3109
 -1      8880    3    0    1
 -2      2893      2077      2913      3109
 -1      8881    3    0    1
 -2      2904      2893      2913      3109
 -1      8882    3    0    1
 -2      2917      3069      2996      3039
 -1      8883    3    0    1
 -2      1273       691       692      2975
 -1      8884    3    0    1
 -2       689      2975      3005      3016
 -1      8885    3    0    1
 -2       775       767       766      3006
 -1      8886    3    0    1
 -2      1845      2882      3091      2977
 -1      8887    3    0    1
 -2      2724      2911      3078      2977
 -1      8888    3    0    1
 -2      3074      2959      2969      3009
 -1      8889    3    0    1
 -2      2885      2091      3093      2978
 -1      8890    3    0    1
 -2      2937      2952      3093      2978
 -1      8891    3    0    1
 -2      2091      2937      3093      2978
 -1      8892    3    0    1
 -2      2952      1435      3093      2978
 -1      8893    3    0    1
 -2      3082      1432      1468      3124
 -1      8894    3    0    1
 -2      1227       963      2920      3124
 -1      8895    3    0    1
 -2      1483      1453      3110      3123
 -1      8896    3    0    1
 -2      1453      3083      3110      3123
 -1      8897    3    0    1
 -2      1437      1435      1484      3111
 -1      8898    3    0    1
 -2      1054      1304      1411      3111
 -1      8899    3    0    1
 -2      2885      2078      2892      3111
 -1      8900    3    0    1
 -2      1435       362      1484      3111
 -1      8901    3    0    1
 -2      2885      3083      2892      2091
 -1      8902    3    0    1
 -2      1067      1813      2261      2979
 -1      8903    3    0    1
 -2      2822      2909      1475      3124
 -1      8904    3    0    1
 -2      3083      1435      3130      2978
 -1      8905    3    0    1
 -2      1411      1304      2885      3111
 -1      8906    3    0    1
 -2      2907      2091      3083      2979
 -1      8907    3    0    1
 -2      2909      2918      3076      3124
 -1      8908    3    0    1
 -2      1304      1054      2078      3111
 -1      8909    3    0    1
 -2      1432       963      1475      3124
 -1      8910    3    0    1
 -2      2078      1054      2892      3111
 -1      8911    3    0    1
 -2      2892      1054      1437      3111
 -1      8912    3    0    1
 -2       594      2989      1488      3014
 -1      8913    3    0    1
 -2      1412      1451      1490      3122
 -1      8914    3    0    1
 -2      3088      1411      3111      1489
 -1      8915    3    0    1
 -2       740       750      3026      3027
 -1      8916    3    0    1
 -2      2910      1813      3068      3110
 -1      8917    3    0    1
 -2      2910      3068      3079      3110
 -1      8918    3    0    1
 -2      3079      3068      1459      3110
 -1      8919    3    0    1
 -2      1315      1067      2261      3110
 -1      8920    3    0    1
 -2      2261      1067      2979      3110
 -1      8921    3    0    1
 -2      1315      2261      1436      3110
 -1      8922    3    0    1
 -2      2091      3083      2979      3110
 -1      8923    3    0    1
 -2      2091      2910      1453      3110
 -1      8924    3    0    1
 -2      3083      2091      1453      3110
 -1      8925    3    0    1
 -2      3077      3079      1453      3110
 -1      8926    3    0    1
 -2      2910      3077      1453      3110
 -1      8927    3    0    1
 -2      3077      2910      3079      3110
 -1      8928    3    0    1
 -2       430      3079      1459      3110
 -1      8929    3    0    1
 -2      3079       430      1453      3110
 -1      8930    3    0    1
 -2      1453       430      1459      3110
 -1      8931    3    0    1
 -2      1813      2910      2979      3110
 -1      8932    3    0    1
 -2      2910      2091      2979      3110
 -1      8933    3    0    1
 -2       666      2963      1478      2981
 -1      8934    3    0    1
 -2      2963      1448      1478      2981
 -1      8935    3    0    1
 -2      1448       176      3096      3132
 -1      8936    3    0    1
 -2       370        64      3106      3020
 -1      8937    3    0    1
 -2      2896      2709      1456      3116
 -1      8938    3    0    1
 -2      3070      2896      3089      3116
 -1      8939    3    0    1
 -2       421      1456      1460      3116
 -1      8940    3    0    1
 -2      1845      2732      3067      2982
 -1      8941    3    0    1
 -2      1180      2347      1425      3116
 -1      8942    3    0    1
 -2      2709      2915      3087      3116
 -1      8943    3    0    1
 -2       976      1415      3067      2982
 -1      8944    3    0    1
 -2      2616       976      2732      2982
 -1      8945    3    0    1
 -2      2732       976      3067      2982
 -1      8946    3    0    1
 -2       362      1435      1484      1510
 -1      8947    3    0    1
 -2      2371      1412      3088      3122
 -1      8948    3    0    1
 -2      1506      1473      1521      3066
 -1      8949    3    0    1
 -2      1193       925      1409      3057
 -1      8950    3    0    1
 -2       714       211      2948      2983
 -1      8951    3    0    1
 -2      3080      3096      3112      3132
 -1      8952    3    0    1
 -2      1424      1472      1473      3058
 -1      8953    3    0    1
 -2      1448      1848      2959      2984
 -1      8954    3    0    1
 -2      2890      2904      2942      2984
 -1      8955    3    0    1
 -2      2898      2890      2959      2984
 -1      8956    3    0    1
 -2      1848      2898      2959      2984
 -1      8957    3    0    1
 -2      2890      2889      2904      2984
 -1      8958    3    0    1
 -2      2889      2890      2898      2984
 -1      8959    3    0    1
 -2      2904      1848      2943      2984
 -1      8960    3    0    1
 -2      2889      1848      2904      2984
 -1      8961    3    0    1
 -2      1848      2889      2898      2984
 -1      8962    3    0    1
 -2      1456      1410      1492      3037
 -1      8963    3    0    1
 -2      2963      1448      2981      3007
 -1      8964    3    0    1
 -2      1448      1423      2981      3007
 -1      8965    3    0    1
 -2      2962       665      2963      3007
 -1      8966    3    0    1
 -2       241       761      2966      2985
 -1      8967    3    0    1
 -2       368       376      3101      3008
 -1      8968    3    0    1
 -2       339      1477      3113      1505
 -1      8969    3    0    1
 -2      1477      3104      3113      1505
 -1      8970    3    0    1
 -2      1062       241      2966      2985
 -1      8971    3    0    1
 -2      3101      3099      2997      3008
 -1      8972    3    0    1
 -2      3086         1      1457      2986
 -1      8973    3    0    1
 -2      3084      3086      1457      2986
 -1      8974    3    0    1
 -2      1473      1472      1495      3058
 -1      8975    3    0    1
 -2      1441       343      1452      1488
 -1      8976    3    0    1
 -2      3082      1431      2950      3115
 -1      8977    3    0    1
 -2      3067      2956      2982      3115
 -1      8978    3    0    1
 -2      3067      1415      1441      3115
 -1      8979    3    0    1
 -2      1441      1415      1452      3115
 -1      8980    3    0    1
 -2      1238       976      2950      3115
 -1      8981    3    0    1
 -2       976      1238      1431      3115
 -1      8982    3    0    1
 -2      1431      1238      2950      3115
 -1      8983    3    0    1
 -2      1074       787      2971      3023
 -1      8984    3    0    1
 -2      1431      1443      1452      3115
 -1      8985    3    0    1
 -2      3067      1441      3103      3115
 -1      8986    3    0    1
 -2       798      1080      2971      3023
 -1      8987    3    0    1
 -2      2956      3067      3091      3115
 -1      8988    3    0    1
 -2      3091      3067      3103      3115
 -1      8989    3    0    1
 -2      1452      3091      3103      3115
 -1      8990    3    0    1
 -2       343      1452      3103      3115
 -1      8991    3    0    1
 -2      1441       343      3103      3115
 -1      8992    3    0    1
 -2       343      1441      1452      3115
 -1      8993    3    0    1
 -2      2950      2616      2982      3115
 -1      8994    3    0    1
 -2      1074      2971      2972      3023
 -1      8995    3    0    1
 -2      1456       421      3089      3116
 -1      8996    3    0    1
 -2      3089       421      1460      3116
 -1      8997    3    0    1
 -2      3069      1456      3089      3116
 -1      8998    3    0    1
 -2      2896      3069      3089      3116
 -1      8999    3    0    1
 -2      3069      2896      1456      3116
 -1      9000    3    0    1
 -2      2896      2347      2970      3116
 -1      9001    3    0    1
 -2      2709      2896      2970      3116
 -1      9002    3    0    1
 -2      2915      2709      2970      3116
 -1      9003    3    0    1
 -2       811       812      1086      2987
 -1      9004    3    0    1
 -2      1080      3098      2994      3128
 -1      9005    3    0    1
 -2       275      1086      1330      2987
 -1      9006    3    0    1
 -2      1193       510       925      3055
 -1      9007    3    0    1
 -2      1454      3126      3052      3054
 -1      9008    3    0    1
 -2      1086       812      1330      2987
 -1      9009    3    0    1
 -2      3021       810      1520      3054
 -1      9010    3    0    1
 -2      2934      2933      3075      3126
 -1      9011    3    0    1
 -2      1080      1413      1428      3128
 -1      9012    3    0    1
 -2      3098      1428      1482      3128
 -1      9013    3    0    1
 -2      2902      2124      2961      3131
 -1      9014    3    0    1
 -2      1431      1415      3115      3036
 -1      9015    3    0    1
 -2      1410      3018      1180      3037
 -1      9016    3    0    1
 -2      3071      3090      3117      2903
 -1      9017    3    0    1
 -2      1410      3018      1456      3116
 -1      9018    3    0    1
 -2       375      3086      1454      2990
 -1      9019    3    0    1
 -2       976      1415      1431      3036
 -1      9020    3    0    1
 -2      1443      1452      1517      3036
 -1      9021    3    0    1
 -2      2989      3014      3035      3036
 -1      9022    3    0    1
 -2      3090      1465      3094      3117
 -1      9023    3    0    1
 -2      2909      3076      2980      3117
 -1      9024    3    0    1
 -2      2975      2976      3005      3016
 -1      9025    3    0    1
 -2      1215      1659      2199      3117
 -1      9026    3    0    1
 -2      1215      2199      3071      3117
 -1      9027    3    0    1
 -2      1418      1215      3071      3117
 -1      9028    3    0    1
 -2      2199      2903      3071      3117
 -1      9029    3    0    1
 -2       951      1215      1418      3117
 -1      9030    3    0    1
 -2      1215       951      1659      3117
 -1      9031    3    0    1
 -2       363      1463      3094      3117
 -1      9032    3    0    1
 -2      1463       363      1465      3117
 -1      9033    3    0    1
 -2      1465       363      3094      3117
 -1      9034    3    0    1
 -2      3090      2903      2980      3117
 -1      9035    3    0    1
 -2      1659      2909      2980      3117
 -1      9036    3    0    1
 -2      2199      1659      2980      3117
 -1      9037    3    0    1
 -2      2903      2199      2980      3117
 -1      9038    3    0    1
 -2      1451      1419      3097      3122
 -1      9039    3    0    1
 -2      1041      2949      3097      3122
 -1      9040    3    0    1
 -2       426      3087      1491      1492
 -1      9041    3    0    1
 -2       426       428      3087      1492
 -1      9042    3    0    1
 -2      3087       428      1456      1492
 -1      9043    3    0    1
 -2       428      3087      1456      3095
 -1      9044    3    0    1
 -2      1456      1410      3116      1492
 -1      9045    3    0    1
 -2      3087      1456      3116      1492
 -1      9046    3    0    1
 -2      1410      3087      3116      1492
 -1      9047    3    0    1
 -2       210      1451      1490      1508
 -1      9048    3    0    1
 -2      3090      2914      1464      2993
 -1      9049    3    0    1
 -2      1215       558       951      2991
 -1      9050    3    0    1
 -2       550       551       558      2991
 -1      9051    3    0    1
 -2      3090      1464      3094      2993
 -1      9052    3    0    1
 -2       948       550      1210      2991
 -1      9053    3    0    1
 -2      3027      1437      3064      3065
 -1      9054    3    0    1
 -2      1210        80       948      2991
 -1      9055    3    0    1
 -2        80      1210        81      2991
 -1      9056    3    0    1
 -2       551       550       948      2991
 -1      9057    3    0    1
 -2      2923      2378      3091      3129
 -1      9058    3    0    1
 -2      1432      3004      1496      3011
 -1      9059    3    0    1
 -2      1455      1432      1468      3011
 -1      9060    3    0    1
 -2      1876      1080      3098      2994
 -1      9061    3    0    1
 -2      3091      2956      3115      3129
 -1      9062    3    0    1
 -2      1452      3091      3115      3129
 -1      9063    3    0    1
 -2      2378      2906      2944      3129
 -1      9064    3    0    1
 -2      1452      2923      3091      3129
 -1      9065    3    0    1
 -2      1443      1452      3115      3129
 -1      9066    3    0    1
 -2      2906      2378      2923      3129
 -1      9067    3    0    1
 -2       348      3085      3107      3129
 -1      9068    3    0    1
 -2        59       934      1200      2995
 -1      9069    3    0    1
 -2      1417      1462      1464      3044
 -1      9070    3    0    1
 -2       934       526      1200      2995
 -1      9071    3    0    1
 -2      1417      1464      3118      3044
 -1      9072    3    0    1
 -2      1472      1424      1473      3119
 -1      9073    3    0    1
 -2        54        59      1200      2995
 -1      9074    3    0    1
 -2      1434      2762      3104      3119
 -1      9075    3    0    1
 -2      2762      2960      3113      3119
 -1      9076    3    0    1
 -2      3102      3074      2960      3119
 -1      9077    3    0    1
 -2      3073      1424      1472      3119
 -1      9078    3    0    1
 -2      2927      3100      3105      3120
 -1      9079    3    0    1
 -2      1409      2881      3087      3120
 -1      9080    3    0    1
 -2      1417      1203      1422      3118
 -1      9081    3    0    1
 -2      1422      2147      3100      3118
 -1      9082    3    0    1
 -2      2199       939      1417      3118
 -1      9083    3    0    1
 -2       361      1464      3094      3118
 -1      9084    3    0    1
 -2      1462       361      3094      3118
 -1      9085    3    0    1
 -2       361      1462      1464      3118
 -1      9086    3    0    1
 -2      3090      2888      3094      3118
 -1      9087    3    0    1
 -2      2888      3090      1464      3118
 -1      9088    3    0    1
 -2      1464      3090      3094      3118
 -1      9089    3    0    1
 -2      3100      2147      3105      3118
 -1      9090    3    0    1
 -2      1464      3100      3105      3118
 -1      9091    3    0    1
 -2       939      1203      1417      3118
 -1      9092    3    0    1
 -2      1422      3100      1480      3118
 -1      9093    3    0    1
 -2      1464      1422      1480      3118
 -1      9094    3    0    1
 -2      2083       939      2199      3118
 -1      9095    3    0    1
 -2      1203       939      2083      3118
 -1      9096    3    0    1
 -2      1203      2083      2147      3118
 -1      9097    3    0    1
 -2      1480      3100      3106      3118
 -1      9098    3    0    1
 -2      1464      1480      3106      3118
 -1      9099    3    0    1
 -2      3100      1464      3106      3118
 -1      9100    3    0    1
 -2      2147      2199      2888      3118
 -1      9101    3    0    1
 -2      2147      2083      2199      3118
 -1      9102    3    0    1
 -2      1499       497      3032      3057
 -1      9103    3    0    1
 -2       498      1516      3032      3056
 -1      9104    3    0    1
 -2      2929      1474      3105      3020
 -1      9105    3    0    1
 -2       503       504       510      3055
 -1      9106    3    0    1
 -2       647       999       648      3001
 -1      9107    3    0    1
 -2      1283       716      2948      3031
 -1      9108    3    0    1
 -2       999       647       997      3001
 -1      9109    3    0    1
 -2         3       450      3041      3060
 -1      9110    3    0    1
 -2       606      1238       608      3035
 -1      9111    3    0    1
 -2      1283      2948      2983      3031
 -1      9112    3    0    1
 -2      1166      3060      3061      3062
 -1      9113    3    0    1
 -2      1422      1417      3118      3045
 -1      9114    3    0    1
 -2        59       521      2995      3003
 -1      9115    3    0    1
 -2      3003      2995      3043      3044
 -1      9116    3    0    1
 -2      1203      3043      3044      3045
 -1      9117    3    0    1
 -2       193      1447      1466      3046
 -1      9118    3    0    1
 -2      1260      2762      1434      3119
 -1      9119    3    0    1
 -2       158      1473      3102      3119
 -1      9120    3    0    1
 -2      1472       158      3102      3119
 -1      9121    3    0    1
 -2       158      1472      1473      3119
 -1      9122    3    0    1
 -2      1260      2115      2762      3119
 -1      9123    3    0    1
 -2      1002      1260      1434      3119
 -1      9124    3    0    1
 -2      1260      1002      2115      3119
 -1      9125    3    0    1
 -2      2115      1002      2239      3119
 -1      9126    3    0    1
 -2      2762      2239      2960      3119
 -1      9127    3    0    1
 -2      2115      2239      2762      3119
 -1      9128    3    0    1
 -2      1465      1476      1502      3012
 -1      9129    3    0    1
 -2      1449      1445      1470      3005
 -1      9130    3    0    1
 -2      2922      2930      1454      3126
 -1      9131    3    0    1
 -2      2971       786      2972      3024
 -1      9132    3    0    1
 -2      1338      2987      3052      3053
 -1      9133    3    0    1
 -2      2930      3075      3086      3126
 -1      9134    3    0    1
 -2      3114      3093      3000      3042
 -1      9135    3    0    1
 -2       766       767      1312      3006
 -1      9136    3    0    1
 -2       237       762      2985      3006
 -1      9137    3    0    1
 -2       237      1062      1312      3006
 -1      9138    3    0    1
 -2       766      1062      2966      3006
 -1      9139    3    0    1
 -2      1062       766      1312      3006
 -1      9140    3    0    1
 -2       237       241      1062      3006
 -1      9141    3    0    1
 -2       241       237      2985      3006
 -1      9142    3    0    1
 -2       774       766      2966      3006
 -1      9143    3    0    1
 -2      1448      2963      1497      3007
 -1      9144    3    0    1
 -2      1015      2965      2981      3007
 -1      9145    3    0    1
 -2       925      1193      1409      3120
 -1      9146    3    0    1
 -2      3100      1479      3106      3120
 -1      9147    3    0    1
 -2      1870      2927      3105      3120
 -1      9148    3    0    1
 -2      1474      1870      3105      3120
 -1      9149    3    0    1
 -2      3105      3100      3106      3120
 -1      9150    3    0    1
 -2      1474      3105      3106      3120
 -1      9151    3    0    1
 -2      2881      1870      3072      3120
 -1      9152    3    0    1
 -2      3072      1870      1474      3120
 -1      9153    3    0    1
 -2      2881      3072      3087      3120
 -1      9154    3    0    1
 -2      3087      3072      1474      3120
 -1      9155    3    0    1
 -2      1474      1409      1491      3120
 -1      9156    3    0    1
 -2      3087      1474      1491      3120
 -1      9157    3    0    1
 -2      1409      3087      1491      3120
 -1      9158    3    0    1
 -2      1193       925      2636      3120
 -1      9159    3    0    1
 -2       370      1474      3106      3120
 -1      9160    3    0    1
 -2      1474       370      1479      3120
 -1      9161    3    0    1
 -2      1479       370      3106      3120
 -1      9162    3    0    1
 -2      1193      2499      2881      3120
 -1      9163    3    0    1
 -2      2499      1193      2636      3120
 -1      9164    3    0    1
 -2      1870      2881      2927      3120
 -1      9165    3    0    1
 -2      2881      2636      2927      3120
 -1      9166    3    0    1
 -2      2499      2636      2881      3120
 -1      9167    3    0    1
 -2      2911      3104      3113      3121
 -1      9168    3    0    1
 -2      1477      2911      3113      3121
 -1      9169    3    0    1
 -2       345      1442      3103      3121
 -1      9170    3    0    1
 -2      1442       345      1477      3121
 -1      9171    3    0    1
 -2      1477       345      3103      3121
 -1      9172    3    0    1
 -2       989      1249      1433      3121
 -1      9173    3    0    1
 -2      1249       989      2850      3121
 -1      9174    3    0    1
 -2      2850       989      1433      3121
 -1      9175    3    0    1
 -2      2732      2911      2977      3121
 -1      9176    3    0    1
 -2      2732      2850      2911      3121
 -1      9177    3    0    1
 -2      1845      2732      2977      3121
 -1      9178    3    0    1
 -2       194      1023      2975      3016
 -1      9179    3    0    1
 -2      1465      1476      3117      1502
 -1      9180    3    0    1
 -2       551       558      2991      3010
 -1      9181    3    0    1
 -2       558       951      2991      3010
 -1      9182    3    0    1
 -2      1419      1412      3122      3034
 -1      9183    3    0    1
 -2        80       948      2991      3010
 -1      9184    3    0    1
 -2      3122      1451      3028      3034
 -1      9185    3    0    1
 -2      2991       951      3038      3010
 -1      9186    3    0    1
 -2      1412      1451      3122      3034
 -1      9187    3    0    1
 -2       545        80      2992      3010
 -1      9188    3    0    1
 -2      1451      1412      1490      3034
 -1      9189    3    0    1
 -2      1477      1433      3121      1505
 -1      9190    3    0    1
 -2      2917       422      3089      3039
 -1      9191    3    0    1
 -2      3069      3089      2996      3039
 -1      9192    3    0    1
 -2      1220        92      3004      3011
 -1      9193    3    0    1
 -2       210      3114      3000      3042
 -1      9194    3    0    1
 -2      2992      1465      1503      3012
 -1      9195    3    0    1
 -2      1080      1413      3024      3048
 -1      9196    3    0    1
 -2      1067      1414      1436      3013
 -1      9197    3    0    1
 -2      1476      2909      3117      3125
 -1      9198    3    0    1
 -2       223       226      3026      3051
 -1      9199    3    0    1
 -2      3104      1434      3119      1506
 -1      9200    3    0    1
 -2      1473      3104      3119      1506
 -1      9201    3    0    1
 -2      1434      1473      3119      1506
 -1      9202    3    0    1
 -2       726      1041      2948      3031
 -1      9203    3    0    1
 -2       463       452      3040      3060
 -1      9204    3    0    1
 -2      1451      2983      3028      3034
 -1      9205    3    0    1
 -2      1453      1414      1459      3013
 -1      9206    3    0    1
 -2      1453      1459      1498      3013
 -1      9207    3    0    1
 -2       761      2985      1498      3013
 -1      9208    3    0    1
 -2      2985      1453      1498      3013
 -1      9209    3    0    1
 -2      1041      3028      3031      3034
 -1      9210    3    0    1
 -2      1451       210      1490      3122
 -1      9211    3    0    1
 -2       210      1451      3114      3122
 -1      9212    3    0    1
 -2      2879      1451      3097      3122
 -1      9213    3    0    1
 -2      1412      1041      1419      3122
 -1      9214    3    0    1
 -2      2949      2879      3097      3122
 -1      9215    3    0    1
 -2      2919      2371      3088      3122
 -1      9216    3    0    1
 -2      1041      2371      2949      3122
 -1      9217    3    0    1
 -2      2371      1041      1412      3122
 -1      9218    3    0    1
 -2      3093      2919      3114      3122
 -1      9219    3    0    1
 -2      1451      3093      3114      3122
 -1      9220    3    0    1
 -2      1451      2879      3093      3122
 -1      9221    3    0    1
 -2      2879      2919      3093      3122
 -1      9222    3    0    1
 -2      1293      1041      3097      3122
 -1      9223    3    0    1
 -2      1041      1293      1419      3122
 -1      9224    3    0    1
 -2      1419      1293      3097      3122
 -1      9225    3    0    1
 -2      2919      2879      2949      3122
 -1      9226    3    0    1
 -2      2371      2919      2949      3122
 -1      9227    3    0    1
 -2      1435       349      1489      1515
 -1      9228    3    0    1
 -2      1437      2892      3111      3123
 -1      9229    3    0    1
 -2      1436      2892      1437      3123
 -1      9230    3    0    1
 -2      1203       536      2995      3043
 -1      9231    3    0    1
 -2      2952      3093      3114      3042
 -1      9232    3    0    1
 -2      3093      2952      3000      3042
 -1      9233    3    0    1
 -2      2892      2261      3083      3123
 -1      9234    3    0    1
 -2      2261      2892      1436      3123
 -1      9235    3    0    1
 -2      1436      1483      3110      3123
 -1      9236    3    0    1
 -2      3123      2979      3110      1436
 -1      9237    3    0    1
 -2      3083      2261      2979      3123
 -1      9238    3    0    1
 -2      2261      3083      2979      2907
 -1      9239    3    0    1
 -2       364      1483      1484      3123
 -1      9240    3    0    1
 -2      1483      1437      1484      3123
 -1      9241    3    0    1
 -2       362       364      1484      3123
 -1      9242    3    0    1
 -2      1436      1437      1483      3123
 -1      9243    3    0    1
 -2       359      1455      1501      3124
 -1      9244    3    0    1
 -2      2975      1023      2976      3016
 -1      9245    3    0    1
 -2      2731      2920      3082      3124
 -1      9246    3    0    1
 -2      2918      2947      1455      3124
 -1      9247    3    0    1
 -2      2947      3082      1468      3124
 -1      9248    3    0    1
 -2      1455      2947      1468      3124
 -1      9249    3    0    1
 -2      2731      3082      2947      3124
 -1      9250    3    0    1
 -2      2918      2822      2920      3124
 -1      9251    3    0    1
 -2      2909      2822      2918      3124
 -1      9252    3    0    1
 -2      2731      2918      2920      3124
 -1      9253    3    0    1
 -2      2918      2731      2947      3124
 -1      9254    3    0    1
 -2       226      1048      3026      3051
 -1      9255    3    0    1
 -2       135       985      2968      3015
 -1      9256    3    0    1
 -2       339      1477      1505      1519
 -1      9257    3    0    1
 -2      1501      1476      1502      3125
 -1      9258    3    0    1
 -2        78       359      1502      3125
 -1      9259    3    0    1
 -2      1475      1476      1501      3125
 -1      9260    3    0    1
 -2       690      1466      2976      3016
 -1      9261    3    0    1
 -2       689       195      2975      3016
 -1      9262    3    0    1
 -2       194       690      2976      3016
 -1      9263    3    0    1
 -2      1023       194      2976      3016
 -1      9264    3    0    1
 -2       570      3011      3019      3047
 -1      9265    3    0    1
 -2       572       582       584      3019
 -1      9266    3    0    1
 -2      3023      1080      3024      3048
 -1      9267    3    0    1
 -2      1467      1456      2974      3018
 -1      9268    3    0    1
 -2      1463      1418      1465      3038
 -1      9269    3    0    1
 -2       573       572      1219      3019
 -1      9270    3    0    1
 -2        93       570      3011      3019
 -1      9271    3    0    1
 -2      1219        93      1220      3019
 -1      9272    3    0    1
 -2       573      1220      3004      3019
 -1      9273    3    0    1
 -2       573      1219      1220      3019
 -1      9274    3    0    1
 -2       582       573      3004      3019
 -1      9275    3    0    1
 -2        93        92      1220      3019
 -1      9276    3    0    1
 -2        92        93      3011      3019
 -1      9277    3    0    1
 -2      1427      2932      3098      3126
 -1      9278    3    0    1
 -2      1092      1338      1429      3126
 -1      9279    3    0    1
 -2      1338      1092      2400      3126
 -1      9280    3    0    1
 -2       375      3086      1485      3126
 -1      9281    3    0    1
 -2      3086       375      1454      3126
 -1      9282    3    0    1
 -2      1454       375      1485      3126
 -1      9283    3    0    1
 -2      3084      3086      1454      3126
 -1      9284    3    0    1
 -2      2930      3084      1454      3126
 -1      9285    3    0    1
 -2      3084      2930      3086      3126
 -1      9286    3    0    1
 -2      3098      2922      3101      3126
 -1      9287    3    0    1
 -2      1454      3098      3101      3126
 -1      9288    3    0    1
 -2      2922      1454      3101      3126
 -1      9289    3    0    1
 -2      3098      1454      1481      3126
 -1      9290    3    0    1
 -2      1427      3098      1481      3126
 -1      9291    3    0    1
 -2      1454      1427      1481      3126
 -1      9292    3    0    1
 -2      2932      2400      2934      3126
 -1      9293    3    0    1
 -2      2400      2933      2934      3126
 -1      9294    3    0    1
 -2      2922      2932      2934      3126
 -1      9295    3    0    1
 -2      2930      2922      2934      3126
 -1      9296    3    0    1
 -2         1      3086      1457      3127
 -1      9297    3    0    1
 -2      2451      2895      3084      3127
 -1      9298    3    0    1
 -2      2895      2905      1457      3127
 -1      9299    3    0    1
 -2      3084      2895      1457      3127
 -1      9300    3    0    1
 -2      1457      2905      3089      3127
 -1      9301    3    0    1
 -2      3070      1457      3089      3127
 -1      9302    3    0    1
 -2      2905      3070      3089      3127
 -1      9303    3    0    1
 -2      2905      2451      2999      3127
 -1      9304    3    0    1
 -2      2451      2933      2999      3127
 -1      9305    3    0    1
 -2      2895      2451      2905      3127
 -1      9306    3    0    1
 -2      2998        42      3032      3055
 -1      9307    3    0    1
 -2       275       809      2987      3021
 -1      9308    3    0    1
 -2      3021      3052      3053      3054
 -1      9309    3    0    1
 -2      1427      1338      3052      3054
 -1      9310    3    0    1
 -2      1409       925      1421      3057
 -1      9311    3    0    1
 -2      3068      2900      3079      3128
 -1      9312    3    0    1
 -2      3079      2900      1440      3128
 -1      9313    3    0    1
 -2      3068      3079      1440      3128
 -1      9314    3    0    1
 -2      2954      2348      3099      3128
 -1      9315    3    0    1
 -2      1440      2954      3099      3128
 -1      9316    3    0    1
 -2      3101      3098      1482      3128
 -1      9317    3    0    1
 -2      3099      2348      3101      3128
 -1      9318    3    0    1
 -2       368      3101      1482      3128
 -1      9319    3    0    1
 -2      1440       368      1482      3128
 -1      9320    3    0    1
 -2       368      1440      3101      3128
 -1      9321    3    0    1
 -2      1440      3101      3099      2997
 -1      9322    3    0    1
 -2      3101      1440      3099      3128
 -1      9323    3    0    1
 -2      3127      3061      1457      3062
 -1      9324    3    0    1
 -2      2348      2900      2994      3128
 -1      9325    3    0    1
 -2      2900      2348      2954      3128
 -1      9326    3    0    1
 -2      1443      3082      3085      3129
 -1      9327    3    0    1
 -2      1443       348      1452      3129
 -1      9328    3    0    1
 -2       348      1443      3085      3129
 -1      9329    3    0    1
 -2      3107      1452      3022      3129
 -1      9330    3    0    1
 -2       348      3107      3022      3129
 -1      9331    3    0    1
 -2      2982      2950      3115      3129
 -1      9332    3    0    1
 -2      2956      2982      3115      3129
 -1      9333    3    0    1
 -2      1431      1443      3115      3129
 -1      9334    3    0    1
 -2      3082      1431      3115      3129
 -1      9335    3    0    1
 -2      1431      3082      1443      3129
 -1      9336    3    0    1
 -2      2378      2944      2956      3129
 -1      9337    3    0    1
 -2      2944      2731      2956      3129
 -1      9338    3    0    1
 -2      2731      2950      2956      3129
 -1      9339    3    0    1
 -2      2906      2923      1452      3129
 -1      9340    3    0    1
 -2      1452       348      3022      3129
 -1      9341    3    0    1
 -2      2956      2950      2982      3129
 -1      9342    3    0    1
 -2      2124      2902      1465      3131
 -1      9343    3    0    1
 -2      1474       426      1491      1516
 -1      9344    3    0    1
 -2       751       741       740      3026
 -1      9345    3    0    1
 -2      1483      1453      1504      3033
 -1      9346    3    0    1
 -2      1315      1067      1436      3033
 -1      9347    3    0    1
 -2       750      1054      1304      3026
 -1      9348    3    0    1
 -2       740       750       751      3026
 -1      9349    3    0    1
 -2       751       750      1304      3026
 -1      9350    3    0    1
 -2      3032      2998      3055      3057
 -1      9351    3    0    1
 -2       223      1048      1298      3026
 -1      9352    3    0    1
 -2      1293      1041      1419      3028
 -1      9353    3    0    1
 -2       740      1298      1048      3026
 -1      9354    3    0    1
 -2      1298       740       741      3026
 -1      9355    3    0    1
 -2      1474      1421      1479      3057
 -1      9356    3    0    1
 -2      1092      1338      2987      3052
 -1      9357    3    0    1
 -2      1446      1451      1509      3028
 -1      9358    3    0    1
 -2       223       226      1048      3026
 -1      9359    3    0    1
 -2      1446      1419      1451      3028
 -1      9360    3    0    1
 -2      2985      1453      3013      3033
 -1      9361    3    0    1
 -2      1454      1485      1513      3052
 -1      9362    3    0    1
 -2      1474      3032      3056      3057
 -1      9363    3    0    1
 -2      1429      1454      3126      3052
 -1      9364    3    0    1
 -2       593      2989      3035      3036
 -1      9365    3    0    1
 -2      3037      1180      1410       914
 -1      9366    3    0    1
 -2      2983       714      1509      3028
 -1      9367    3    0    1
 -2      1451      2983      1509      3028
 -1      9368    3    0    1
 -2      1473       354      1506      1521
 -1      9369    3    0    1
 -2       989      2968      3050      3063
 -1      9370    3    0    1
 -2       997       999      3001      3030
 -1      9371    3    0    1
 -2      3001      3030      3058      3059
 -1      9372    3    0    1
 -2       148       642      3001      3030
 -1      9373    3    0    1
 -2       642      3001      3030      3058
 -1      9374    3    0    1
 -2       999       148      3001      3030
 -1      9375    3    0    1
 -2       149       148       997      3030
 -1      9376    3    0    1
 -2      1249      1433      3049      3063
 -1      9377    3    0    1
 -2       997       148       999      3030
 -1      9378    3    0    1
 -2      1456      2974      3018      3037
 -1      9379    3    0    1
 -2      2988       119      2989      3035
 -1      9380    3    0    1
 -2      1421      1474      3120      3057
 -1      9381    3    0    1
 -2      2893      2904      3080      3132
 -1      9382    3    0    1
 -2      2943      1848      3080      3132
 -1      9383    3    0    1
 -2      3080      1848      3096      3132
 -1      9384    3    0    1
 -2      1453      2985      1504      3033
 -1      9385    3    0    1
 -2      1067      2966      3013      3033
 -1      9386    3    0    1
 -2      1419      3122      3028      3034
 -1      9387    3    0    1
 -2       713      2983      1508      3034
 -1      9388    3    0    1
 -2      2983      1451      1508      3034
 -1      9389    3    0    1
 -2       973       599       971      3035
 -1      9390    3    0    1
 -2       116       593      2989      3035
 -1      9391    3    0    1
 -2       116       973       971      3035
 -1      9392    3    0    1
 -2       600       973      2988      3035
 -1      9393    3    0    1
 -2       599       973       600      3035
 -1      9394    3    0    1
 -2       119       116      2989      3035
 -1      9395    3    0    1
 -2       973       116       119      3035
 -1      9396    3    0    1
 -2       973       119      2988      3035
 -1      9397    3    0    1
 -2       606       600      2988      3035
 -1      9398    3    0    1
 -2       976       606      2988      3035
 -1      9399    3    0    1
 -2       976      2988      3014      3035
 -1      9400    3    0    1
 -2      2974      1456      1507      3037
 -1      9401    3    0    1
 -2      3017      1180      3018      3037
 -1      9402    3    0    1
 -2      1469      1465      2992      3038
 -1      9403    3    0    1
 -2       951      3010      3012      3038
 -1      9404    3    0    1
 -2      1435       362      3111      3130
 -1      9405    3    0    1
 -2      2091      3083      1453      3130
 -1      9406    3    0    1
 -2       463       452       451      3040
 -1      9407    3    0    1
 -2      1435      3083      3130      3111
 -1      9408    3    0    1
 -2       362       364      3123      3130
 -1      9409    3    0    1
 -2       451      1158       898      3040
 -1      9410    3    0    1
 -2      1158         2       898      3040
 -1      9411    3    0    1
 -2      2937      2091      2939      3130
 -1      9412    3    0    1
 -2      2091      2937      2978      3130
 -1      9413    3    0    1
 -2       364      1453      3123      3130
 -1      9414    3    0    1
 -2      1158       451       452      3040
 -1      9415    3    0    1
 -2      1494       449      3041      3061
 -1      9416    3    0    1
 -2       362      1435      2978      3130
 -1      9417    3    0    1
 -2      3061      1430      3127      1426
 -1      9418    3    0    1
 -2      3111       362      3123      3130
 -1      9419    3    0    1
 -2         2      1158         3      3040
 -1      9420    3    0    1
 -2      1457      1426      1461      3061
 -1      9421    3    0    1
 -2      3083      2091      2978      3130
 -1      9422    3    0    1
 -2       362      2978      3025      3130
 -1      9423    3    0    1
 -2      1453       364      3025      3130
 -1      9424    3    0    1
 -2      2937      2939      2978      3130
 -1      9425    3    0    1
 -2      1480      1464      1487      3045
 -1      9426    3    0    1
 -2       522      3003      3043      3045
 -1      9427    3    0    1
 -2      2995      1203      3044       939
 -1      9428    3    0    1
 -2        54       522      3003      3043
 -1      9429    3    0    1
 -2      1420      1438      3005      3046
 -1      9430    3    0    1
 -2      2976      3005      3016      3046
 -1      9431    3    0    1
 -2      1422      1464      1480      3045
 -1      9432    3    0    1
 -2      1493       521      3003      3044
 -1      9433    3    0    1
 -2      1464      1493      3003      3044
 -1      9434    3    0    1
 -2       193      1445      1447      3046
 -1      9435    3    0    1
 -2      3118      1417      3044      3045
 -1      9436    3    0    1
 -2       522      1487      3003      3045
 -1      9437    3    0    1
 -2      1487      1464      3003      3045
 -1      9438    3    0    1
 -2      1466      1420      2976      3046
 -1      9439    3    0    1
 -2       963      1227      3004      3047
 -1      9440    3    0    1
 -2      1227       963      1475      3047
 -1      9441    3    0    1
 -2      1455      1432      3011      3047
 -1      9442    3    0    1
 -2      1432      1455      1475      3047
 -1      9443    3    0    1
 -2       963      1432      1475      3047
 -1      9444    3    0    1
 -2      3011       570      1518      3047
 -1      9445    3    0    1
 -2      1455      3011      1518      3047
 -1      9446    3    0    1
 -2      1432       963      3004      3047
 -1      9447    3    0    1
 -2      1428      1440      3128      3048
 -1      9448    3    0    1
 -2      1413      1428      3128      3048
 -1      9449    3    0    1
 -2       785      2972      1511      3048
 -1      9450    3    0    1
 -2      2972      1440      1511      3048
 -1      9451    3    0    1
 -2      3076      2961      3131      1455
 -1      9452    3    0    1
 -2      2961       359      3002      3131
 -1      9453    3    0    1
 -2      2902      2961      3002      3131
 -1      9454    3    0    1
 -2       359        78      3002      3131
 -1      9455    3    0    1
 -2      1455       359      2961      3131
 -1      9456    3    0    1
 -2      1465      2902      3002      3131
 -1      9457    3    0    1
 -2        78      1465      3002      3131
 -1      9458    3    0    1
 -2       617      1500      3015      3049
 -1      9459    3    0    1
 -2      1500      1477      3015      3049
 -1      9460    3    0    1
 -2      2968       989       631      1249
 -1      9461    3    0    1
 -2       989      2968       631      3050
 -1      9462    3    0    1
 -2       631       623       630      3050
 -1      9463    3    0    1
 -2       135       985      3015      3050
 -1      9464    3    0    1
 -2       624       623       987      3050
 -1      9465    3    0    1
 -2       618       129      3015      3050
 -1      9466    3    0    1
 -2       985       129       987      3050
 -1      9467    3    0    1
 -2       985       623      2968      3050
 -1      9468    3    0    1
 -2       623       985       987      3050
 -1      9469    3    0    1
 -2       129       135      3015      3050
 -1      9470    3    0    1
 -2       135       129       985      3050
 -1      9471    3    0    1
 -2      1410      1180      3116       914
 -1      9472    3    0    1
 -2       623       631      2968      3050
 -1      9473    3    0    1
 -2       738       223      3026      3051
 -1      9474    3    0    1
 -2      1437      3064      1435      1411
 -1      9475    3    0    1
 -2      1330       275      2987      3053
 -1      9476    3    0    1
 -2      2987       275      3021      3053
 -1      9477    3    0    1
 -2       276       810      3021      3053
 -1      9478    3    0    1
 -2       276       275      1330      3053
 -1      9479    3    0    1
 -2       275       276      3021      3053
 -1      9480    3    0    1
 -2      1454      3021      1520      3054
 -1      9481    3    0    1
 -2       497      2998      3032      3057
 -1      9482    3    0    1
 -2       923       503      1189      3055
 -1      9483    3    0    1
 -2        43       498      3032      3055
 -1      9484    3    0    1
 -2        42      1189        43      3055
 -1      9485    3    0    1
 -2       923        42      2998      3055
 -1      9486    3    0    1
 -2      1189        42       923      3055
 -1      9487    3    0    1
 -2       504       923      2998      3055
 -1      9488    3    0    1
 -2       504       503       923      3055
 -1      9489    3    0    1
 -2      2998       925      3055      3057
 -1      9490    3    0    1
 -2      3032      3055      3056      3057
 -1      9491    3    0    1
 -2        42        43      3032      3055
 -1      9492    3    0    1
 -2       510       504      2998      3055
 -1      9493    3    0    1
 -2       925       510      2998      3055
 -1      9494    3    0    1
 -2      3055      1193      3056      3057
 -1      9495    3    0    1
 -2      1193      1409      3056      3057
 -1      9496    3    0    1
 -2      2984      2942      3029      3132
 -1      9497    3    0    1
 -2      2942      1445      3029      3132
 -1      9498    3    0    1
 -2       352       176      3029      3132
 -1      9499    3    0    1
 -2       176      1448      2984      3132
 -1      9500    3    0    1
 -2      1445       352      3029      3132
 -1      9501    3    0    1
 -2      1495       642      3030      3058
 -1      9502    3    0    1
 -2      1473      1495      3030      3058
 -1      9503    3    0    1
 -2       655      3001      1002      3059
 -1      9504    3    0    1
 -2       149       641      3030      3059
 -1      9505    3    0    1
 -2      1002      3001      3058      3059
 -1      9506    3    0    1
 -2      1477      1505      1519      3063
 -1      9507    3    0    1
 -2      3127      3061      1426      1457
 -1      9508    3    0    1
 -2      1430      3061      3127      3062
 -1      9509    3    0    1
 -2       450      1514      3041      3062
 -1      9510    3    0    1
 -2      1514      1457      3041      3062
 -1      9511    3    0    1
 -2      1249       989      1433      3063
 -1      9512    3    0    1
 -2       989      1249      2968      3063
 -1      9513    3    0    1
 -2       618      3015      1519      3063
 -1      9514    3    0    1
 -2      3015      1477      1519      3063
 -1      9515    3    0    1
 -2      2968      1249      3049      3063
 -1      9516    3    0    1
 -2       738      1515      3051      3064
 -1      9517    3    0    1
 -2      1515      1435      3051      3064
 -1      9518    3    0    1
 -2      1435      1510      3051      3065
 -1      9519    3    0    1
 -2      1260      1002      1434      3066
 -1      9520    3    0    1
 -2      1002      1260      3059      3066
 -1      9521    3    0    1
 -2      3058      1002      3059      3066
 -1      9522    3    0    1
 -2      1434      1424      3119      3066
 -1      9523    3    0    1
 -2      3119      1424      3058      3066
 -1      9524    3    0    1
 -2      1002      1424      1434      3066
 -1      9525    3    0    1
 -2      3030       641      1521      3066
 -1      9526    3    0    1
 -2      1473      3030      1521      3066
 -1      9527    3    0    1
 -2      1424      1002      3058      3066
 -3
    1PSTEP                         1           1           1          
  100CL  101 1.000000000        3132                     0    1           1
 -4  DISP        4    1
 -5  D1          1    2    1    0
 -5  D2          1    2    2    0
 -5  D3          1    2    3    0
 -5  ALL         1    2    0    0    1ALL
 -1         1-3.05280E-03 2.61800E-04-5.40517E-02
 -1         2 6.84248E-03-8.70560E-04-5.51068E-02
 -1         3 6.79170E-03-1.07817E-03-5.56604E-02
 -1         4-3.78143E-03-4.93759E-04-8.29219E-02
 -1         5-5.48242E-03-8.64635E-04-8.30793E-02
 -1         6 1.44509E-03-5.87690E-04-7.95208E-02
 -1         7-4.41942E-03-8.37452E-04-8.36159E-02
 -1         8-1.34377E-02-6.12698E-04-5.82421E-02
 -1         9-5.36142E-03-2.38265E-04-8.26694E-02
 -1        10-4.04964E-03-2.16731E-04-5.73476E-02
 -1        11-1.33554E-02-8.87345E-04-5.89418E-02
 -1        12-3.22887E-03-2.84399E-04-8.01929E-02
 -1        13 1.48307E-03-8.83333E-04-7.99001E-02
 -1        14-3.16813E-03 8.09765E-05-8.05176E-02
 -1        15 8.24475E-04-9.01626E-04-8.04588E-02
 -1        16 4.54298E-04-5.54635E-04-7.96698E-02
 -1        17-2.47642E-03 7.68337E-05-8.38424E-02
 -1        18-2.47851E-03-1.97923E-04-8.37317E-02
 -1        19-2.39882E-03-8.13043E-03-7.76459E-02
 -1        20-1.01481E-02-9.49487E-03-5.13846E-02
 -1        21 2.82044E-03-6.45875E-03-7.79218E-02
 -1        22-2.19444E-03-7.55130E-03-7.38872E-02
 -1        23-1.32345E-03-7.23150E-03-7.22620E-02
 -1        24-3.17117E-03-1.98659E-03-5.05597E-02
 -1        25-9.64963E-03-9.59037E-03-5.46073E-02
 -1        26 3.97690E-03-5.82845E-03-7.06104E-02
 -1        27 8.48215E-03-5.12750E-03-4.82198E-02
 -1        28 8.65646E-03-5.20662E-03-5.38168E-02
 -1        29 3.80694E-03-6.22929E-03-7.53000E-02
 -1        30-2.82639E-03-1.39719E-03-7.58764E-02
 -1        31-2.67127E-03-1.14110E-03-7.82921E-02
 -1        32-2.62162E-03-1.61526E-03-7.11658E-02
 -1        33 3.22533E-03-6.08982E-03-6.86320E-02
 -1        34-1.76930E-03-1.67387E-03-7.85415E-02
 -1        35-1.44190E-03-7.74055E-03-8.00240E-02
 -1        36-2.04718E-03-2.05718E-03-7.30640E-02
 -1        37-1.93864E-03-1.83966E-03-7.47132E-02
 -1        38 4.47423E-03-1.01783E-02-5.48525E-02
 -1        39 4.79879E-03-1.03173E-02-6.12829E-02
 -1        40-1.66113E-03-1.19880E-02-3.86144E-02
 -1        41-1.08215E-03-1.94827E-03-5.20183E-02
 -1        42 1.38194E-02-7.47502E-03-3.38151E-02
 -1        43 1.39654E-02-7.50713E-03-4.47301E-02
 -1        44-1.18507E-03-1.18022E-02-4.30654E-02
 -1        45 9.56324E-03-8.20259E-03-5.99978E-02
 -1        46 8.78477E-03-8.48229E-03-4.79555E-02
 -1        47 9.30801E-03-7.93282E-03-5.17590E-02
 -1        48 5.40276E-03-9.77522E-03-6.49334E-02
 -1        49 5.11388E-03-9.64548E-03-5.17554E-02
 -1        50-4.12215E-04-2.32369E-03-5.56428E-02
 -1        51 9.12342E-03-8.56316E-03-6.44016E-02
 -1        52-1.74864E-03-1.76533E-03-6.49586E-02
 -1        53-1.03427E-04-2.34938E-03-5.26999E-02
 -1        54 2.01985E-02-5.50424E-03-2.85882E-02
 -1        55 1.28973E-02-6.80895E-03-2.29982E-02
 -1        56 1.28808E-02-7.14829E-03-3.64464E-02
 -1        57 1.25357E-02-7.21967E-03-2.74605E-02
 -1        58 1.57999E-02-5.71670E-03-3.59990E-02
 -1        59 2.01764E-02-5.58768E-03-1.36771E-02
 -1        60 7.32928E-03-8.58776E-03-2.03946E-02
 -1        61 7.46510E-03-8.33147E-03-2.59668E-02
 -1        62 7.88661E-04-1.84763E-03-2.04591E-02
 -1        63 1.55790E-02-5.75516E-03-2.49390E-02
 -1        64-1.12672E-03-9.11799E-04-2.95019E-02
 -1        65 1.27350E-03-1.51127E-03-3.67210E-02
 -1        66-1.20607E-04-1.53780E-03-4.19781E-02
 -1        67 3.77760E-04-1.26476E-03-2.51358E-02
 -1        68 1.48977E-03-1.53845E-03-2.79015E-02
 -1        69 1.30884E-02-6.81341E-03-4.12209E-02
 -1        70 1.55912E-02-5.99876E-03-4.15569E-02
 -1        71 1.54014E-02-6.01036E-03-1.96187E-02
 -1        72 1.63905E-02-5.49014E-06 5.40941E-03
 -1        73 1.26928E-02 4.51204E-05-3.12587E-03
 -1        74 1.64453E-02-5.13343E-05-9.87112E-03
 -1        75 1.82888E-02-8.51773E-05-5.72515E-03
 -1        76 1.27120E-02-1.22124E-04 4.28131E-03
 -1        77 1.81855E-03 2.14225E-04 3.91224E-03
 -1        78-6.41712E-04 3.23549E-04 9.44127E-03
 -1        79 8.29992E-04 2.30497E-04 6.58179E-03
 -1        80 2.21828E-02-2.00979E-04 7.93996E-03
 -1        81 2.21971E-02 4.43060E-05-7.82052E-03
 -1        82 1.63540E-02-1.30675E-05-4.73424E-03
 -1        83 2.04027E-03 9.55149E-05-4.68758E-03
 -1        84 9.16313E-04 3.07551E-05-5.76469E-03
 -1        85 7.84059E-04-4.49805E-04-1.23505E-02
 -1        86 5.68569E-04 4.81204E-04 1.30286E-02
 -1        87 1.80523E-02 1.67882E-04 1.23399E-02
 -1        88 1.82083E-02 6.21457E-05 6.39959E-03
 -1        89 2.08006E-03-1.53784E-04-8.99061E-03
 -1        90 1.82167E-02-4.58948E-05-1.16996E-02
 -1        91 1.64657E-02 7.23262E-05 1.05921E-02
 -1        92 2.02977E-02 5.30056E-03 2.83849E-02
 -1        93 2.01989E-02 5.44525E-03 1.35866E-02
 -1        94 1.54555E-02 5.77644E-03 2.55135E-02
 -1        95 1.29436E-02 6.80334E-03 2.36996E-02
 -1        96 1.56053E-02 5.87237E-03 3.63578E-02
 -1        97 1.28354E-02 7.23868E-03 3.71643E-02
 -1        98 7.52127E-03 8.51452E-03 2.68381E-02
 -1        99 1.30687E-02 6.90671E-03 4.20343E-02
 -1       100 7.33633E-03 8.63028E-03 2.11903E-02
 -1       101-1.29715E-03 1.10346E-03 2.94241E-02
 -1       102 1.72727E-04 1.44211E-03 2.56614E-02
 -1       103 1.25373E-02 7.26313E-03 2.81982E-02
 -1       104 1.30274E-03 1.64068E-03 2.86224E-02
 -1       105 1.52515E-02 6.05852E-03 2.02354E-02
 -1       106-8.45495E-05 1.55903E-03 3.68874E-02
 -1       107 1.06510E-03 1.72131E-03 3.74620E-02
 -1       108 1.27308E-03 1.56431E-03 2.45543E-02
 -1       109 1.54443E-02 6.10748E-03 4.20444E-02
 -1       110 5.51317E-03 1.08004E-02 6.32356E-02
 -1       111-2.56625E-04 1.36352E-02 4.54380E-02
 -1       112 9.17177E-03 8.33332E-03 4.85629E-02
 -1       113 5.37856E-03 1.04062E-02 5.62045E-02
 -1       114 9.69367E-03 8.06588E-03 6.08427E-02
 -1       115 6.13875E-03 1.02523E-02 6.72069E-02
 -1       116 1.41392E-02 7.27123E-03 3.33955E-02
 -1       117-3.72223E-04 1.32999E-02 3.97487E-02
 -1       118-1.60102E-03 2.93880E-03 4.39031E-02
 -1       119 1.43132E-02 7.22215E-03 4.42219E-02
 -1       120 9.60491E-03 7.81144E-03 5.24682E-02
 -1       121-1.08950E-03 2.04482E-03 5.29191E-02
 -1       122 9.17312E-03 8.51712E-03 6.51485E-02
 -1       123-1.47670E-03 1.92558E-03 6.12968E-02
 -1       124-2.85008E-04 2.48443E-03 5.72059E-02
 -1       125 6.02875E-03 9.85278E-03 5.29385E-02
 -1       126-3.29580E-05 2.42476E-03 5.41932E-02
 -1       127-3.85960E-04 2.30353E-03 6.38901E-02
 -1       128-6.90739E-04 2.39551E-03 6.70612E-02
 -1       129 9.31724E-03 5.36316E-03 5.34832E-02
 -1       130-1.01501E-02 9.31640E-03 5.46313E-02
 -1       131-9.56721E-03 9.40354E-03 5.77670E-02
 -1       132-1.88272E-03 7.49167E-03 7.63715E-02
 -1       133 3.66266E-03 6.04114E-03 6.95972E-02
 -1       134 4.47751E-03 5.58496E-03 7.16430E-02
 -1       135 9.07730E-03 5.28044E-03 4.72411E-02
 -1       136-3.44509E-03 2.06620E-03 5.37287E-02
 -1       137-3.72276E-03 2.14977E-03 5.59190E-02
 -1       138-2.63105E-03 1.62293E-03 7.21760E-02
 -1       139-1.92766E-03 1.89487E-03 7.73970E-02
 -1       140 4.17835E-03 5.97589E-03 7.61864E-02
 -1       141-2.78800E-03 1.34406E-03 7.68001E-02
 -1       142-2.16845E-03 1.49060E-03 8.29682E-02
 -1       143-1.96277E-03 7.98678E-03 8.01619E-02
 -1       144-8.44502E-04 7.11080E-03 7.47341E-02
 -1       145-1.95996E-03 1.99371E-03 7.55342E-02
 -1       146-9.99547E-04 7.58873E-03 8.25502E-02
 -1       147 3.55257E-03 6.24566E-03 7.87980E-02
 -1       148 7.20793E-03 2.39854E-04 5.44689E-02
 -1       149 6.81571E-03 5.27628E-06 5.45738E-02
 -1       150 1.88829E-03-5.57791E-04 7.98877E-02
 -1       151 9.77503E-04-5.69917E-04 8.04277E-02
 -1       152-5.13766E-03-1.00409E-03 8.39362E-02
 -1       153-5.01774E-03-3.94729E-04 8.36366E-02
 -1       154 1.77970E-03-1.27798E-04 7.96012E-02
 -1       155-1.29568E-02-6.44306E-04 6.06630E-02
 -1       156-4.53653E-03-1.40006E-04 5.89497E-02
 -1       157-1.36730E-02-2.87103E-04 6.00099E-02
 -1       158-2.89617E-03-2.18245E-04 5.30035E-02
 -1       159-2.69142E-03 5.23853E-05 8.50721E-02
 -1       160-4.04121E-03-9.69794E-04 8.45858E-02
 -1       161-2.68046E-03-2.30282E-04 8.47255E-02
 -1       162 9.98666E-04-1.09202E-04 7.98574E-02
 -1       163-3.82545E-03-3.95327E-04 8.39661E-02
 -1       164-3.12914E-03-3.49098E-04 8.00339E-02
 -1       165 9.18922E-03-5.17387E-03 5.33714E-02
 -1       166 8.90723E-03-5.11456E-03 4.71840E-02
 -1       167 3.17767E-03-5.92297E-03 7.81062E-02
 -1       168 4.15888E-03-5.79428E-03 7.55072E-02
 -1       169-2.25514E-03-6.82344E-03 7.54791E-02
 -1       170-1.07535E-03-6.53247E-03 8.11163E-02
 -1       171-9.80578E-03-8.39844E-03 5.67048E-02
 -1       172-1.06341E-02-8.57854E-03 5.37106E-02
 -1       173-2.10630E-03-1.61493E-03 7.63756E-02
 -1       174-2.41278E-03-1.52493E-03 7.16090E-02
 -1       175 4.03400E-03-5.49721E-03 7.11264E-02
 -1       176-2.42513E-03-9.22632E-04 4.53489E-02
 -1       177-2.73639E-03-1.18730E-03 7.63645E-02
 -1       178-1.86826E-03-1.40554E-03 8.00603E-02
 -1       179-2.32889E-03-1.65284E-03 6.89253E-02
 -1       180-2.25447E-03-7.27487E-03 7.90162E-02
 -1       181-2.61942E-03-9.01298E-04 7.84719E-02
 -1       182-1.21548E-03-6.45026E-03 7.39967E-02
 -1       183 3.26798E-03-5.76372E-03 6.92532E-02
 -1       184 9.18185E-03-8.53352E-03 6.46916E-02
 -1       185 9.84179E-03-7.90065E-03 5.18179E-02
 -1       186 9.38166E-03-8.25431E-03 4.79273E-02
 -1       187 6.43501E-03-9.65494E-03 5.23571E-02
 -1       188 5.65840E-03-1.06144E-02 6.26506E-02
 -1       189 6.25809E-03-1.00359E-02 6.65632E-02
 -1       190 5.45051E-03-1.02624E-02 5.56204E-02
 -1       191-1.17360E-03-2.80391E-03 4.04512E-02
 -1       192-9.87133E-04-1.21226E-02 4.09209E-02
 -1       193-1.50604E-03-1.19241E-03 3.04846E-02
 -1       194 1.43757E-02-7.60644E-03 3.25539E-02
 -1       195 1.46411E-02-7.50676E-03 4.39930E-02
 -1       196-4.33773E-04-1.20302E-02 4.56864E-02
 -1       197-5.24040E-04-2.17655E-03 6.33493E-02
 -1       198-1.64031E-03-2.83722E-03 4.40710E-02
 -1       199-1.67651E-03-1.69942E-03 6.51260E-02
 -1       200 9.90206E-03-8.12907E-03 6.02767E-02
 -1       201-1.12628E-03-1.94029E-03 5.23328E-02
 -1       202-7.84811E-04-1.74265E-03 4.74055E-02
 -1       203-7.77361E-04-2.13634E-03 6.65396E-02
 -1       204 1.99855E-02-5.30795E-03 1.27486E-02
 -1       205 1.59315E-02-5.66456E-03 2.40642E-02
 -1       206 1.59720E-02-5.69764E-03 3.54668E-02
 -1       207 1.27087E-02-7.24048E-03 2.68418E-02
 -1       208 7.59123E-03-8.58885E-03 1.98372E-02
 -1       209 7.66584E-03-8.54582E-03 2.53841E-02
 -1       210-7.52788E-04-4.86222E-04 1.06997E-02
 -1       211 2.01151E-02-5.21102E-03 2.73965E-02
 -1       212 1.80461E-04-1.42370E-03 3.57374E-02
 -1       213 7.65733E-04-1.93319E-03 2.46515E-02
 -1       214 1.57622E-02-5.99170E-03 4.10405E-02
 -1       215 5.06149E-04-9.26988E-04 1.82570E-02
 -1       216 1.57231E-02-5.87957E-03 1.87083E-02
 -1       217 3.20382E-04-1.27042E-03 2.41399E-02
 -1       218 1.31693E-02-7.17292E-03 3.60639E-02
 -1       219 1.29576E-02-6.90553E-03 2.24043E-02
 -1       220 1.53928E-03-1.61702E-03 2.32780E-02
 -1       221-2.93545E-04-1.62847E-03 4.17035E-02
 -1       222 1.33601E-02-6.87058E-03 4.08907E-02
 -1       223 2.20635E-02-4.81724E-05 7.21190E-03
 -1       224 1.87910E-02-1.06186E-04 4.87956E-03
 -1       225 1.67418E-02 7.71658E-05 8.92989E-03
 -1       226 2.19750E-02 1.64751E-04-9.02582E-03
 -1       227 1.66725E-02 1.82913E-04-6.51352E-03
 -1       228 1.23180E-02 2.64506E-04-4.06349E-03
 -1       229 1.87125E-02 5.87386E-05-7.63740E-03
 -1       230 1.22998E-02 5.99540E-04 2.84647E-03
 -1       231 1.87177E-02-6.75281E-05 1.11200E-02
 -1       232 6.35878E-04-3.94444E-04 1.15615E-02
 -1       233 1.86392E-02 1.17552E-04-1.38000E-02
 -1       234 7.70246E-04 5.84137E-04-1.43401E-02
 -1       235 1.66250E-02 1.81789E-04 3.73475E-03
 -1       236 1.67662E-02 1.47980E-04-1.18272E-02
 -1       237 2.04118E-02 5.04006E-03-1.43883E-02
 -1       238 8.28491E-03 9.05388E-03-2.89878E-02
 -1       239 1.31524E-02 7.31085E-03-3.04048E-02
 -1       240 1.60610E-02 5.45865E-03-2.71897E-02
 -1       241 2.04364E-02 5.03534E-03-2.93957E-02
 -1       242 1.34158E-02 6.91269E-03-2.58718E-02
 -1       243 1.35786E-02 7.32386E-03-3.99140E-02
 -1       244 1.36758E-03 1.63653E-03-4.01582E-02
 -1       245 1.62239E-02 5.58653E-03-3.81898E-02
 -1       246 8.24409E-04 2.00607E-03-2.27118E-02
 -1       247 8.00541E-03 9.37942E-03-2.27007E-02
 -1       248 5.28655E-04 1.37653E-03-2.71971E-02
 -1       249 1.58394E-02 5.74600E-03-2.18800E-02
 -1       250 7.71148E-04 9.94202E-04-2.11106E-02
 -1       251 1.60488E-02 5.85381E-03-4.40004E-02
 -1       252 1.65010E-04 1.52868E-03-3.87369E-02
 -1       253 1.74052E-03 1.41606E-03-2.67473E-02
 -1       254 1.38128E-02 6.93102E-03-4.48867E-02
 -1       255-7.74606E-05 1.64144E-03-4.46462E-02
 -1       256 1.42360E-02 6.92531E-03-4.51580E-02
 -1       257 5.74075E-03 8.83822E-03-6.86345E-02
 -1       258 5.01134E-03 9.70239E-03-6.50769E-02
 -1       259 9.64668E-03 7.42775E-03-6.23815E-02
 -1       260-1.63423E-03 1.13407E-02-4.39127E-02
 -1       261-1.44972E-03 2.59913E-03-4.67212E-02
 -1       262-1.29285E-03 1.14507E-02-4.78977E-02
 -1       263 1.41050E-02 6.91543E-03-3.46109E-02
 -1       264 9.47909E-03 7.25787E-03-5.44075E-02
 -1       265-1.15856E-03 2.89531E-03-4.35814E-02
 -1       266 4.76034E-03 9.48649E-03-5.86258E-02
 -1       267-1.12447E-03 2.07144E-03-5.48423E-02
 -1       268-5.73964E-04 1.82970E-03-5.02086E-02
 -1       269-1.76201E-03 1.81712E-03-6.70098E-02
 -1       270 9.10404E-03 7.87971E-03-6.65506E-02
 -1       271 5.29020E-03 9.05410E-03-5.56414E-02
 -1       272-5.92407E-04 2.02871E-03-6.84687E-02
 -1       273-4.57377E-04 2.11730E-03-6.57232E-02
 -1       274 9.04298E-03 7.58390E-03-5.07541E-02
 -1       275 8.97128E-03 4.53522E-03-5.43569E-02
 -1       276 8.82898E-03 4.44152E-03-4.89791E-02
 -1       277 3.75548E-03 5.22309E-03-7.65423E-02
 -1       278 3.00430E-03 5.29553E-03-7.10789E-02
 -1       279-9.98588E-03 7.79056E-03-5.65476E-02
 -1       280-1.07238E-02 8.03078E-03-5.40025E-02
 -1       281-3.22696E-03 1.72264E-03-5.34516E-02
 -1       282-3.45594E-03 1.78065E-03-5.45134E-02
 -1       283-2.59192E-03 6.71515E-03-7.92947E-02
 -1       284-2.60296E-03 1.14628E-03-7.74508E-02
 -1       285 3.89663E-03 4.80394E-03-7.26985E-02
 -1       286-2.48207E-03 6.25527E-03-7.63340E-02
 -1       287-1.96407E-03 1.55471E-03-7.71378E-02
 -1       288-1.59156E-03 5.92050E-03-7.50787E-02
 -1       289-1.57502E-03 6.31123E-03-8.13077E-02
 -1       290-1.69286E-03 1.28934E-03-8.02825E-02
 -1       291-2.00547E-03 1.73270E-03-7.05794E-02
 -1       292-1.86760E-03 1.18583E-03-8.17778E-02
 -1       293 3.05195E-03 5.50733E-03-7.89322E-02
 -1       294 0.00000E+00 0.00000E+00 0.00000E+00
 -1       295 0.00000E+00 0.00000E+00 0.00000E+00
 -1       296 0.00000E+00 0.00000E+00 0.00000E+00
 -1       297 0.00000E+00 0.00000E+00 0.00000E+00
 -1       298 0.00000E+00 0.00000E+00 0.00000E+00
 -1       299 0.00000E+00 0.00000E+00 0.00000E+00
 -1       300 0.00000E+00 0.00000E+00 0.00000E+00
 -1       301 0.00000E+00 0.00000E+00 0.00000E+00
 -1       302 0.00000E+00 0.00000E+00 0.00000E+00
 -1       303 0.00000E+00 0.00000E+00 0.00000E+00
 -1       304 0.00000E+00 0.00000E+00 0.00000E+00
 -1       305 0.00000E+00 0.00000E+00 0.00000E+00
 -1       306 0.00000E+00 0.00000E+00 0.00000E+00
 -1       307 0.00000E+00 0.00000E+00 0.00000E+00
 -1       308 0.00000E+00 0.00000E+00 0.00000E+00
 -1       309 0.00000E+00 0.00000E+00 0.00000E+00
 -1       310 0.00000E+00 0.00000E+00 0.00000E+00
 -1       311 0.00000E+00 0.00000E+00 0.00000E+00
 -1       312 0.00000E+00 0.00000E+00 0.00000E+00
 -1       313 0.00000E+00 0.00000E+00 0.00000E+00
 -1       314 0.00000E+00 0.00000E+00 0.00000E+00
 -1       315 0.00000E+00 0.00000E+00 0.00000E+00
 -1       316 0.00000E+00 0.00000E+00 0.00000E+00
 -1       317 0.00000E+00 0.00000E+00 0.00000E+00
 -1       318 0.00000E+00 0.00000E+00 0.00000E+00
 -1       319 0.00000E+00 0.00000E+00 0.00000E+00
 -1       320-1.95628E-03 1.70268E-03 8.11539E-02
 -1       321-2.75930E-03 1.59258E-04 8.51889E-02
 -1       322 0.00000E+00 0.00000E+00 0.00000E+00
 -1       323-2.04679E-03-1.23980E-03 8.14166E-02
 -1       324-2.68407E-03-3.52233E-04 8.46457E-02
 -1       325 0.00000E+00 0.00000E+00 0.00000E+00
 -1       326 0.00000E+00 0.00000E+00 0.00000E+00
 -1       327 0.00000E+00 0.00000E+00 0.00000E+00
 -1       328-3.73639E-03-1.43119E-03 5.45868E-02
 -1       329-4.26668E-03 2.15207E-04 5.93041E-02
 -1       330 0.00000E+00 0.00000E+00 0.00000E+00
 -1       331 0.00000E+00 0.00000E+00 0.00000E+00
 -1       332-1.83761E-03-1.71452E-03 7.47493E-02
 -1       333-3.38179E-03-1.87448E-03 5.30331E-02
 -1       334 1.27438E-03-1.49319E-03 3.62851E-02
 -1       335 6.87213E-04 1.83894E-03 2.60513E-02
 -1       336 1.01114E-03 1.84712E-03 4.13133E-02
 -1       337-8.74843E-04 1.91230E-03 4.81344E-02
 -1       338-2.75839E-03-4.58199E-04 5.25532E-02
 -1       339-2.88382E-03 6.82887E-04 5.26736E-02
 -1       340-2.91189E-03 1.06082E-03 7.91885E-02
 -1       341-3.21546E-03 6.07440E-04 8.03615E-02
 -1       342-3.28753E-03 3.30888E-04 8.05744E-02
 -1       343-2.25336E-03 1.20694E-03 4.42796E-02
 -1       344-1.76552E-03 1.85699E-03 6.55167E-02
 -1       345-2.53985E-03 1.13978E-03 4.56415E-02
 -1       346-2.23547E-03 1.78381E-03 6.93462E-02
 -1       347-4.51975E-04 1.67429E-03 4.26726E-02
 -1       348-1.59881E-03 1.31862E-03 3.13499E-02
 -1       349-6.52179E-04-1.27607E-04 8.32919E-03
 -1       350 7.47208E-04 1.13993E-04 5.02486E-03
 -1       351-1.17967E-03-9.55417E-04 2.83834E-02
 -1       352-2.18589E-03-1.01505E-03 4.40675E-02
 -1       353-1.52508E-03-1.82227E-03 6.08424E-02
 -1       354-2.94448E-03 4.15072E-04 5.31400E-02
 -1       355-3.25477E-03-4.64147E-05 8.01654E-02
 -1       356 8.59991E-04-1.82029E-03 4.04123E-02
 -1       357-1.31650E-04-2.17324E-03 5.31540E-02
 -1       358 2.15879E-03 3.58716E-05 3.54021E-03
 -1       359-7.35921E-04 6.14348E-04 1.17346E-02
 -1       360 3.96354E-04 1.01565E-03 1.94821E-02
 -1       361-7.67982E-04-6.85887E-04-1.18795E-02
 -1       362-6.89011E-04 3.81761E-04-1.04269E-02
 -1       363-6.50206E-04-2.90257E-04-9.35795E-03
 -1       364-7.60658E-04 6.05651E-04-1.27601E-02
 -1       365 8.13356E-04 9.26533E-05-7.77581E-03
 -1       366 5.02561E-04-1.16763E-03-1.91639E-02
 -1       367-2.42549E-03 1.52986E-03-7.32377E-02
 -1       368-2.16765E-03 1.09296E-03-4.54057E-02
 -1       369-1.48074E-03 1.87538E-03-6.29844E-02
 -1       370-1.46566E-03-1.11504E-03-3.15300E-02
 -1       371 1.15109E-03 1.81498E-03-4.43475E-02
 -1       372 1.49331E-04-1.32006E-03-3.61150E-02
 -1       373-1.94687E-04 2.30795E-03-5.64814E-02
 -1       374-2.89871E-03 9.17908E-04-7.94239E-02
 -1       375-2.94310E-03 5.29692E-04-5.35989E-02
 -1       376-2.50145E-03 1.01861E-03-4.67973E-02
 -1       377-2.96713E-03 3.49318E-04-8.05899E-02
 -1       378-1.31725E-03-2.55669E-03-3.82332E-02
 -1       379 0.00000E+00 0.00000E+00 0.00000E+00
 -1       380 7.09073E-04-1.98550E-03-2.52905E-02
 -1       381 0.00000E+00 0.00000E+00 0.00000E+00
 -1       382 1.95731E-03 1.85078E-05-2.34011E-03
 -1       383 1.58523E-03-1.44805E-03-2.40680E-02
 -1       384 2.05685E-03 6.81986E-05 5.37207E-03
 -1       385 2.00802E-03 2.14519E-04 9.93720E-03
 -1       386 0.00000E+00 0.00000E+00 0.00000E+00
 -1       387 8.00681E-04 1.84200E-03 2.13466E-02
 -1       388 0.00000E+00 0.00000E+00 0.00000E+00
 -1       389-1.42507E-03 3.09497E-03 3.95406E-02
 -1       390 0.00000E+00 0.00000E+00 0.00000E+00
 -1       391 0.00000E+00 0.00000E+00 0.00000E+00
 -1       392-1.32318E-03-2.64121E-03-4.14239E-02
 -1       393-8.10440E-04-2.14371E-03-6.49444E-02
 -1       394-5.03037E-04-2.10284E-03-6.20085E-02
 -1       395 0.00000E+00 0.00000E+00 0.00000E+00
 -1       396-3.23715E-03-1.85249E-03-5.28634E-02
 -1       397 0.00000E+00 0.00000E+00 0.00000E+00
 -1       398-3.69962E-03 7.75295E-05-5.71835E-02
 -1       399 0.00000E+00 0.00000E+00 0.00000E+00
 -1       400-2.59231E-03 1.98411E-04-8.37573E-02
 -1       401 0.00000E+00 0.00000E+00 0.00000E+00
 -1       402-1.90932E-03 1.65596E-03-7.57344E-02
 -1       403 0.00000E+00 0.00000E+00 0.00000E+00
 -1       404-3.88294E-04 2.28196E-03-5.95009E-02
 -1       405 6.59222E-04 2.23244E-03-2.83048E-02
 -1       406 0.00000E+00 0.00000E+00 0.00000E+00
 -1       407 1.65136E-03 1.57331E-03-3.10505E-02
 -1       408 1.77066E-03 1.28235E-04-3.61401E-03
 -1       409 2.25467E-03 4.62368E-04-1.13562E-02
 -1       410 2.22304E-03 1.04892E-04-6.55275E-03
 -1       411 0.00000E+00 0.00000E+00 0.00000E+00
 -1       412 2.05273E-03-2.82636E-04 8.33665E-03
 -1       413 9.51916E-04-1.87916E-03 1.98318E-02
 -1       414 1.41790E-03-1.60508E-03 2.74822E-02
 -1       415 1.78760E-03-1.29552E-04 2.14678E-03
 -1       416 0.00000E+00 0.00000E+00 0.00000E+00
 -1       417-3.50281E-04-2.27271E-03 5.63273E-02
 -1       418-2.50983E-03-4.42116E-04-8.37892E-02
 -1       419-1.91611E-03-1.52290E-03-8.04476E-02
 -1       420-2.97058E-03-5.97577E-04-7.96650E-02
 -1       421-2.99404E-03-6.56313E-04-5.32486E-02
 -1       422-3.07086E-03-4.10745E-04-5.37067E-02
 -1       423-2.29213E-03-1.70455E-03-6.83131E-02
 -1       424-7.81515E-04-1.78574E-03-4.73638E-02
 -1       425 1.06728E-03-1.63059E-03-4.06869E-02
 -1       426-2.24798E-03-1.09342E-03-4.48307E-02
 -1       427-1.36208E-03-1.81124E-03-6.06275E-02
 -1       428-2.54624E-03-1.04799E-03-4.61622E-02
 -1       429-1.52454E-03 1.16760E-03-3.23466E-02
 -1       430-1.23970E-03 9.95097E-04-3.02757E-02
 -1       431 0.00000E+00 0.00000E+00 0.00000E+00
 -1       432 0.00000E+00 0.00000E+00 0.00000E+00
 -1       433 0.00000E+00 0.00000E+00 0.00000E+00
 -1       434 0.00000E+00 0.00000E+00 0.00000E+00
 -1       435 0.00000E+00 0.00000E+00 0.00000E+00
 -1       436 0.00000E+00 0.00000E+00 0.00000E+00
 -1       437 0.00000E+00 0.00000E+00 0.00000E+00
 -1       438 0.00000E+00 0.00000E+00 0.00000E+00
 -1       439 0.00000E+00 0.00000E+00 0.00000E+00
 -1       440 0.00000E+00 0.00000E+00 0.00000E+00
 -1       441 0.00000E+00 0.00000E+00 0.00000E+00
 -1       442 0.00000E+00 0.00000E+00 0.00000E+00
 -1       443 0.00000E+00 0.00000E+00 0.00000E+00
 -1       444 0.00000E+00 0.00000E+00 0.00000E+00
 -1       445 0.00000E+00 0.00000E+00 0.00000E+00
 -1       446 0.00000E+00 0.00000E+00 0.00000E+00
 -1       447 0.00000E+00 0.00000E+00 0.00000E+00
 -1       448 0.00000E+00 0.00000E+00 0.00000E+00
 -1       449 1.63271E-03-4.20258E-04-5.48858E-02
 -1       450 1.69921E-03-5.89803E-04-5.54950E-02
 -1       451 5.28052E-03-7.94883E-04-6.90408E-02
 -1       452 5.45628E-03-1.05081E-03-6.98222E-02
 -1       453-1.59138E-03-1.22137E-04-8.40606E-02
 -1       454-1.61740E-03-7.68955E-04-8.49558E-02
 -1       455-1.11628E-02-2.95761E-04-7.36740E-02
 -1       456-1.11197E-02-7.50768E-04-7.41863E-02
 -1       457-8.65469E-03-3.53801E-04-5.80656E-02
 -1       458-8.40648E-03-3.72767E-04-5.87969E-02
 -1       459-2.77640E-03-4.95160E-05-7.42961E-02
 -1       460-3.79267E-03-1.24550E-04-8.36116E-02
 -1       461-9.96351E-04-3.24757E-04-8.02929E-02
 -1       462-3.43643E-03-4.02684E-04-6.95608E-02
 -1       463-3.40384E-03 4.19666E-05-7.00163E-02
 -1       464-8.49770E-04-4.27094E-04-8.05538E-02
 -1       465-3.87038E-03-4.00794E-04-8.40064E-02
 -1       466-2.90906E-03 7.00783E-05-7.45408E-02
 -1       467-1.06213E-03-3.53114E-04-8.08235E-02
 -1       468-1.35895E-03-4.16928E-04-8.01051E-02
 -1       469-3.49485E-03-3.20663E-04-8.41426E-02
 -1       470-3.45998E-03-1.85730E-04-8.35768E-02
 -1       471-2.72115E-03 2.99567E-04-8.48837E-02
 -1       472-2.74314E-03-3.74588E-04-8.44434E-02
 -1       473 2.61919E-03-3.18185E-03-4.78397E-02
 -1       474 2.85698E-03-3.24294E-03-5.37748E-02
 -1       475-7.70823E-03-9.43619E-03-6.90063E-02
 -1       476-7.53142E-03-8.88261E-03-6.59662E-02
 -1       477 7.84941E-04-7.05088E-03-8.14828E-02
 -1       478 1.32342E-03-6.63069E-03-7.29787E-02
 -1       479 7.14315E-03-5.34776E-03-6.63893E-02
 -1       480 7.19632E-03-5.08249E-03-6.10052E-02
 -1       481-6.73353E-03-5.61468E-03-5.12270E-02
 -1       482-6.17560E-03-5.50109E-03-5.43993E-02
 -1       483-2.01127E-03-1.84817E-03-6.64190E-02
 -1       484-2.01949E-03-4.61069E-03-7.46775E-02
 -1       485 6.66951E-04-3.73567E-03-7.12738E-02
 -1       486-2.84003E-03-1.34073E-03-6.10874E-02
 -1       487-3.27161E-03-1.02228E-03-6.68788E-02
 -1       488 3.84653E-04-3.96755E-03-7.59108E-02
 -1       489-1.97216E-03-4.89270E-03-7.85628E-02
 -1       490-1.97843E-03-1.78175E-03-6.96454E-02
 -1       491 3.42942E-04-3.95052E-03-7.83358E-02
 -1       492 4.20803E-04-3.91490E-03-6.89320E-02
 -1       493-1.64462E-03-4.65986E-03-8.05459E-02
 -1       494-1.58677E-03-4.50889E-03-7.28427E-02
 -1       495-2.34983E-03-1.41002E-03-8.18760E-02
 -1       496-1.97929E-03-1.74758E-03-7.32656E-02
 -1       497 5.97908E-03-4.51549E-03-3.34897E-02
 -1       498 6.11501E-03-4.56363E-03-4.47257E-02
 -1       499 5.76106E-04-1.15991E-02-5.40460E-02
 -1       500 2.15781E-04-1.16657E-02-4.91079E-02
 -1       501 7.19020E-03-9.05803E-03-6.65570E-02
 -1       502 7.13853E-03-8.78539E-03-5.18123E-02
 -1       503 1.25741E-02-7.49540E-03-5.36329E-02
 -1       504 1.25088E-02-7.53807E-03-4.35705E-02
 -1       505-1.52805E-03-7.23664E-03-3.85255E-02
 -1       506-1.13225E-03-6.93768E-03-4.28591E-02
 -1       507-5.43407E-04-2.44942E-03-4.94704E-02
 -1       508 2.11870E-03-6.08757E-03-5.56133E-02
 -1       509 4.05336E-03-5.00565E-03-5.21551E-02
 -1       510-1.64756E-03-1.80350E-03-4.37792E-02
 -1       511 4.04415E-03-5.13764E-03-6.05551E-02
 -1       512-2.07883E-03-1.59252E-03-5.43061E-02
 -1       513 2.21684E-03-6.15475E-03-6.18589E-02
 -1       514-6.04581E-04-2.34303E-03-5.42986E-02
 -1       515 3.73924E-03-5.31714E-03-6.47904E-02
 -1       516 4.09048E-03-5.02697E-03-4.81461E-02
 -1       517 2.50131E-03-5.88741E-03-6.52645E-02
 -1       518 2.41003E-03-5.88543E-03-5.23030E-02
 -1       519-8.49625E-04-2.08798E-03-6.67681E-02
 -1       520-4.71329E-04-2.09311E-03-5.18820E-02
 -1       521 9.81203E-03-3.32146E-03-1.34653E-02
 -1       522 9.85659E-03-3.23923E-03-2.87658E-02
 -1       523 1.41814E-02-6.27866E-03-2.22905E-02
 -1       524 9.67573E-03-8.08520E-03-3.24350E-02
 -1       525 9.24346E-03-8.44335E-03-2.55531E-02
 -1       526 1.89283E-02-5.32996E-03-3.33375E-02
 -1       527 1.84483E-02-5.49795E-03-1.96750E-02
 -1       528 1.43550E-02-6.43316E-03-4.25223E-02
 -1       529 4.22402E-03-4.95364E-03-2.58984E-02
 -1       530 4.08024E-03-5.27596E-03-2.03416E-02
 -1       531 1.54471E-03-1.64499E-03-2.57106E-02
 -1       532 6.89122E-03-4.32081E-03-2.77906E-02
 -1       533 7.84587E-03-3.63011E-03-2.51758E-02
 -1       534-4.56911E-04-1.11998E-03-1.94938E-02
 -1       535 8.02538E-03-3.61417E-03-3.62723E-02
 -1       536-8.14898E-04-1.26300E-03-3.37048E-02
 -1       537 7.09537E-03-4.30465E-03-3.67552E-02
 -1       538 1.25919E-03-1.62004E-03-3.27523E-02
 -1       539 7.87632E-03-3.78336E-03-4.18056E-02
 -1       540 7.88860E-03-3.64429E-03-1.97099E-02
 -1       541 7.08027E-03-4.19139E-03-4.13029E-02
 -1       542 6.95957E-03-4.16251E-03-2.33210E-02
 -1       543 6.16323E-04-1.48304E-03-4.24359E-02
 -1       544 1.21325E-03-1.29883E-03-2.25330E-02
 -1       545 1.09791E-02-6.18869E-06 8.17759E-03
 -1       546 1.09875E-02 1.22311E-04-8.04216E-03
 -1       547 1.72380E-02 2.48267E-04 1.14543E-02
 -1       548 1.38579E-02 1.25563E-04-3.61429E-03
 -1       549 1.39300E-02-2.17164E-04 4.62662E-03
 -1       550 2.08600E-02 1.35367E-04-7.10008E-03
 -1       551 2.10193E-02-2.13535E-04 7.82261E-03
 -1       552 1.73129E-02-8.12809E-05-1.07490E-02
 -1       553 7.22702E-03 1.24246E-05-3.08979E-03
 -1       554 7.32856E-03-2.23635E-06 4.21983E-03
 -1       555 2.04151E-03 3.72275E-05 4.43868E-03
 -1       556 9.23897E-03 7.22623E-05 5.36484E-03
 -1       557 9.54503E-03 1.34967E-04 6.52816E-03
 -1       558 8.10167E-05 8.75946E-05 7.87168E-03
 -1       559 9.61088E-03-3.00515E-05-5.77665E-03
 -1       560-7.85489E-05-2.96042E-05-7.59489E-03
 -1       561 9.12300E-03 4.51316E-05-4.67903E-03
 -1       562 2.04173E-03 2.25384E-05-3.48256E-03
 -1       563 9.62143E-03-1.37204E-04-1.17896E-02
 -1       564 9.55487E-03 2.20341E-04 1.24516E-02
 -1       565 9.08911E-03-8.32806E-05-9.75982E-03
 -1       566 9.21762E-03 1.52656E-04 1.04699E-02
 -1       567 1.53775E-03-1.14122E-04-1.06272E-02
 -1       568 1.46448E-03 3.09458E-04 1.14119E-02
 -1       569 9.83249E-03 3.26600E-03 2.85972E-02
 -1       570 9.76696E-03 3.38126E-03 1.33838E-02
 -1       571 1.40202E-02 6.28890E-03 2.27964E-02
 -1       572 1.87734E-02 5.48976E-03 1.97289E-02
 -1       573 1.90896E-02 5.20409E-03 3.37726E-02
 -1       574 8.98231E-03 8.51009E-03 2.62488E-02
 -1       575 9.54501E-03 8.15596E-03 3.33513E-02
 -1       576 1.43478E-02 6.56642E-03 4.30583E-02
 -1       577 4.08016E-03 5.19388E-03 2.12613E-02
 -1       578 4.09115E-03 5.28414E-03 2.66915E-02
 -1       579 1.16655E-03 1.67092E-03 3.33100E-02
 -1       580 6.90065E-03 4.49745E-03 3.74764E-02
 -1       581 7.82009E-03 3.66378E-03 3.67996E-02
 -1       582-5.93351E-04 1.24539E-03 3.40086E-02
 -1       583 7.98381E-03 3.58130E-03 2.57414E-02
 -1       584-4.57212E-04 1.25746E-03 1.95690E-02
 -1       585 6.79370E-03 4.47906E-03 2.85770E-02
 -1       586 1.37680E-03 1.70590E-03 2.66041E-02
 -1       587 7.97070E-03 3.68213E-03 2.02184E-02
 -1       588 7.69557E-03 3.80828E-03 4.23202E-02
 -1       589 6.85685E-03 4.34167E-03 2.40303E-02
 -1       590 6.91562E-03 4.32719E-03 4.20878E-02
 -1       591 1.00749E-03 1.40339E-03 2.30090E-02
 -1       592 4.58435E-04 1.70953E-03 4.28771E-02
 -1       593 6.00887E-03 4.46322E-03 3.30840E-02
 -1       594 6.17661E-03 4.45200E-03 4.42424E-02
 -1       595 9.40630E-04 1.24509E-02 5.06591E-02
 -1       596 1.32387E-03 1.26706E-02 5.66132E-02
 -1       597 7.88257E-03 8.92106E-03 5.25691E-02
 -1       598 7.77715E-03 9.41563E-03 6.81727E-02
 -1       599 1.26425E-02 7.26692E-03 4.38719E-02
 -1       600 1.31108E-02 7.24484E-03 5.43160E-02
 -1       601-9.17103E-04 7.99785E-03 3.96293E-02
 -1       602-7.83494E-04 8.39623E-03 4.51277E-02
 -1       603-6.38216E-04 2.52448E-03 5.67425E-02
 -1       604 2.57862E-03 6.51812E-03 6.39857E-02
 -1       605 4.03863E-03 5.15423E-03 6.14163E-02
 -1       606-2.19227E-03 1.74839E-03 5.44256E-02
 -1       607 4.12414E-03 5.01028E-03 5.28997E-02
 -1       608-1.57558E-03 1.74039E-03 4.41073E-02
 -1       609 2.44388E-03 6.32595E-03 5.70163E-02
 -1       610-5.78137E-04 2.62400E-03 5.13976E-02
 -1       611 4.13798E-03 5.05492E-03 4.87634E-02
 -1       612 3.80383E-03 5.32494E-03 6.55302E-02
 -1       613 2.84230E-03 6.04746E-03 5.35349E-02
 -1       614 2.72896E-03 6.26098E-03 6.75611E-02
 -1       615-5.47565E-04 2.18262E-03 5.27690E-02
 -1       616-9.16608E-04 2.13069E-03 6.82461E-02
 -1       617 3.10067E-03 3.13257E-03 4.71341E-02
 -1       618 3.09203E-03 3.26169E-03 5.33815E-02
 -1       619-7.47166E-03 8.99040E-03 6.88466E-02
 -1       620-7.54911E-03 9.46335E-03 7.22032E-02
 -1       621 1.90797E-03 6.40441E-03 7.47098E-02
 -1       622 1.20941E-03 6.85111E-03 8.31871E-02
 -1       623 8.07178E-03 5.25069E-03 6.10115E-02
 -1       624 7.80609E-03 5.53517E-03 6.67738E-02
 -1       625-6.91438E-03 5.63763E-03 5.44824E-02
 -1       626-6.33262E-03 5.51663E-03 5.75613E-02
 -1       627-2.22602E-03 1.75601E-03 7.26724E-02
 -1       628-1.89090E-03 4.89057E-03 8.10549E-02
 -1       629 6.72194E-04 3.77985E-03 7.68132E-02
 -1       630-3.03588E-03 1.16006E-03 6.70712E-02
 -1       631-2.93711E-03 1.47261E-03 6.13588E-02
 -1       632 7.76868E-04 3.60525E-03 7.22246E-02
 -1       633-1.78014E-03 4.54316E-03 7.73191E-02
 -1       634-2.61277E-03 2.09393E-03 6.96434E-02
 -1       635 7.44899E-04 3.67470E-03 6.99016E-02
 -1       636 4.09221E-04 3.80831E-03 7.92298E-02
 -1       637-1.32877E-03 4.45103E-03 7.53769E-02
 -1       638-1.44335E-03 4.64658E-03 8.31086E-02
 -1       639-2.10652E-03 1.85468E-03 7.50248E-02
 -1       640-2.40184E-03 1.53157E-03 8.34272E-02
 -1       641 1.92633E-03-2.99802E-06 5.44144E-02
 -1       642 2.00332E-03 1.35729E-04 5.43830E-02
 -1       643-1.09575E-02-1.24725E-03 7.57781E-02
 -1       644-1.11907E-02-7.83493E-04 7.53285E-02
 -1       645-1.44120E-03-6.07164E-04 8.51575E-02
 -1       646-1.31865E-03-2.03647E-04 8.46147E-02
 -1       647 5.70820E-03-1.13035E-04 6.89416E-02
 -1       648 5.82570E-03 1.22598E-04 6.90476E-02
 -1       649-8.30473E-03-1.72667E-04 6.05356E-02
 -1       650-9.01272E-03-3.34307E-05 5.97406E-02
 -1       651-3.25456E-03-2.49364E-04 7.57670E-02
 -1       652-3.72902E-03-3.64853E-04 8.45971E-02
 -1       653-7.69603E-04-1.80408E-05 8.03226E-02
 -1       654-3.37591E-03-1.25705E-04 6.92236E-02
 -1       655-3.48946E-03 3.17998E-04 6.94070E-02
 -1       656-8.36213E-04-1.61525E-04 8.06500E-02
 -1       657-3.79113E-03-5.77658E-04 8.50499E-02
 -1       658-3.07752E-03-2.87030E-05 7.64188E-02
 -1       659-1.25113E-03-1.49150E-04 8.08707E-02
 -1       660-1.08917E-03-8.30295E-05 8.03477E-02
 -1       661-3.35422E-03-4.61740E-04 8.52475E-02
 -1       662-3.15872E-03-4.47900E-04 8.45458E-02
 -1       663-2.93941E-03 1.42509E-04 8.54340E-02
 -1       664-2.60451E-03-2.74090E-04 8.45136E-02
 -1       665 3.02796E-03-3.08999E-03 5.32841E-02
 -1       666 2.93269E-03-3.00037E-03 4.70426E-02
 -1       667 7.90585E-03-5.05557E-03 6.08141E-02
 -1       668 7.54928E-03-5.40118E-03 6.64765E-02
 -1       669 1.44273E-03-5.96518E-03 7.39195E-02
 -1       670 9.73701E-04-6.45646E-03 8.20535E-02
 -1       671-7.84957E-03-8.00826E-03 6.80739E-02
 -1       672-8.00518E-03-8.53119E-03 7.09418E-02
 -1       673-6.79546E-03-5.28210E-03 5.61909E-02
 -1       674-7.02161E-03-4.94502E-03 5.37233E-02
 -1       675-2.50305E-03-1.63727E-03 6.88516E-02
 -1       676-2.08348E-03-4.16414E-03 7.64131E-02
 -1       677 6.90153E-04-3.59886E-03 7.17177E-02
 -1       678-2.94850E-03-1.27256E-03 6.10199E-02
 -1       679-3.07094E-03-1.03185E-03 6.68555E-02
 -1       680 6.61134E-04-3.61613E-03 7.62994E-02
 -1       681-2.02073E-03-4.38496E-03 7.99221E-02
 -1       682-2.47167E-03-1.52636E-03 7.14141E-02
 -1       683 6.03269E-04-3.59233E-03 7.85524E-02
 -1       684 3.81031E-04-3.78913E-03 6.95231E-02
 -1       685-1.82199E-03-4.22092E-03 8.16574E-02
 -1       686-1.58409E-03-4.04248E-03 7.46050E-02
 -1       687-2.46055E-03-1.24933E-03 8.22989E-02
 -1       688-2.12685E-03-1.53533E-03 7.42792E-02
 -1       689 6.34333E-03-4.54067E-03 4.40184E-02
 -1       690 6.31746E-03-4.43509E-03 3.23687E-02
 -1       691 1.30099E-02-7.43900E-03 4.33775E-02
 -1       692 1.31906E-02-7.42366E-03 5.37907E-02
 -1       693 8.05292E-03-8.89973E-03 5.18231E-02
 -1       694 7.90647E-03-9.24180E-03 6.74117E-02
 -1       695 1.33479E-03-1.19305E-02 5.06740E-02
 -1       696 1.72339E-03-1.19304E-02 5.63942E-02
 -1       697-8.08990E-04-7.39709E-03 4.54565E-02
 -1       698-1.09657E-03-7.43943E-03 4.08788E-02
 -1       699 2.68610E-03-6.20771E-03 5.63080E-02
 -1       700-3.91965E-04-2.34763E-03 5.13534E-02
 -1       701 4.29620E-03-4.97706E-03 5.23561E-02
 -1       702-1.63381E-03-1.58101E-03 4.34978E-02
 -1       703-1.81242E-03-1.57341E-03 5.40141E-02
 -1       704 4.29644E-03-5.06218E-03 6.07925E-02
 -1       705 2.70625E-03-6.31713E-03 6.33891E-02
 -1       706-6.47515E-04-2.37017E-03 5.66025E-02
 -1       707 4.12029E-03-5.16800E-03 6.50719E-02
 -1       708 4.22519E-03-5.14467E-03 4.81218E-02
 -1       709 2.82705E-03-6.06716E-03 6.69485E-02
 -1       710 2.95225E-03-5.98990E-03 5.28420E-02
 -1       711-8.35695E-04-2.04050E-03 6.74580E-02
 -1       712-4.83919E-04-2.05431E-03 5.19886E-02
 -1       713 9.72325E-03-3.16470E-03 1.24615E-02
 -1       714 9.81259E-03-3.13633E-03 2.75220E-02
 -1       715 1.46140E-02-6.46222E-03 4.19042E-02
 -1       716 1.89296E-02-5.36503E-03 1.85182E-02
 -1       717 1.89742E-02-5.18006E-03 3.26135E-02
 -1       718 9.31321E-03-8.59285E-03 2.48975E-02
 -1       719 9.91249E-03-8.15652E-03 3.21162E-02
 -1       720 1.44024E-02-6.30677E-03 2.17491E-02
 -1       721 4.26511E-03-5.21921E-03 2.52813E-02
 -1       722 4.18664E-03-5.27150E-03 1.98236E-02
 -1       723 7.11037E-03-4.32668E-03 2.73253E-02
 -1       724 1.63058E-03-1.65698E-03 2.53188E-02
 -1       725 8.16077E-03-3.45955E-03 2.42661E-02
 -1       726-5.53492E-04-1.09927E-03 1.85222E-02
 -1       727-6.52838E-04-1.14235E-03 3.29774E-02
 -1       728 8.13440E-03-3.57903E-03 3.57332E-02
 -1       729 7.22776E-03-4.29972E-03 3.63154E-02
 -1       730 1.35167E-03-1.61610E-03 3.21356E-02
 -1       731 8.02889E-03-3.74403E-03 4.12820E-02
 -1       732 8.08794E-03-3.49275E-03 1.87676E-02
 -1       733 7.20179E-03-4.23676E-03 4.09477E-02
 -1       734 7.26023E-03-4.14622E-03 2.27569E-02
 -1       735 7.69246E-04-1.58673E-03 4.19928E-02
 -1       736 1.04964E-03-1.27108E-03 2.17570E-02
 -1       737 1.06764E-02 3.32910E-04-9.21420E-03
 -1       738 1.07211E-02-1.61274E-05 7.35227E-03
 -1       739 1.76533E-02-1.24932E-04 9.84126E-03
 -1       740 2.12697E-02 7.53756E-05-8.74380E-03
 -1       741 2.11392E-02 2.75339E-05 6.19339E-03
 -1       742 1.38457E-02 1.97261E-04-5.14531E-03
 -1       743 1.39124E-02 5.84970E-04 3.03744E-03
 -1       744 1.77087E-02 3.02167E-04-1.28730E-02
 -1       745 7.05590E-03 3.15749E-04 2.71112E-03
 -1       746 7.08382E-03 1.80050E-04-3.98567E-03
 -1       747 9.39003E-03 1.53703E-04-6.52889E-03
 -1       748 2.11515E-03 1.21999E-04-4.98914E-03
 -1       749 9.80128E-03 1.38907E-04-7.73005E-03
 -1       750 1.27600E-04 4.76572E-04-8.89752E-03
 -1       751-3.57394E-05-1.75607E-05 6.45989E-03
 -1       752 9.80679E-03 3.06981E-05 4.96006E-03
 -1       753 9.32012E-03 1.63746E-04 3.60885E-03
 -1       754 2.06302E-03 1.14854E-04 2.76700E-03
 -1       755 9.72798E-03-8.06230E-05 1.12051E-02
 -1       756 9.73339E-03 3.24823E-04-1.39177E-02
 -1       757 9.31863E-03 9.95867E-05 8.77457E-03
 -1       758 9.45591E-03 1.94376E-04-1.17492E-02
 -1       759 1.51122E-03-1.77408E-04 9.78629E-03
 -1       760 1.50290E-03 3.15830E-04-1.27418E-02
 -1       761 9.89774E-03 3.04835E-03-2.95601E-02
 -1       762 9.87020E-03 3.03879E-03-1.41907E-02
 -1       763 1.50121E-02 6.37346E-03-4.54900E-02
 -1       764 1.02659E-02 8.60679E-03-3.56975E-02
 -1       765 9.79340E-03 8.93204E-03-2.84144E-02
 -1       766 1.93352E-02 4.96961E-03-3.49211E-02
 -1       767 1.88864E-02 5.10008E-03-2.11485E-02
 -1       768 1.45329E-02 6.20493E-03-2.50193E-02
 -1       769 4.53194E-03 5.69104E-03-2.27003E-02
 -1       770 4.67071E-03 5.48161E-03-2.88678E-02
 -1       771 7.35236E-03 4.51602E-03-4.01928E-02
 -1       772 1.28013E-03 1.87500E-03-3.59128E-02
 -1       773 8.18488E-03 3.55836E-03-3.86740E-02
 -1       774-7.61113E-04 1.40451E-03-3.52197E-02
 -1       775-3.57710E-04 1.19326E-03-2.09691E-02
 -1       776 8.41564E-03 3.40811E-03-2.74341E-02
 -1       777 7.25391E-03 4.47071E-03-3.09123E-02
 -1       778 1.46892E-03 1.82945E-03-2.85489E-02
 -1       779 8.38851E-03 3.51278E-03-2.18891E-02
 -1       780 8.07310E-03 3.70303E-03-4.42997E-02
 -1       781 7.47376E-03 4.22047E-03-2.62619E-02
 -1       782 7.39362E-03 4.31394E-03-4.49434E-02
 -1       783 9.94486E-04 1.43000E-03-2.49040E-02
 -1       784 6.03849E-04 1.68560E-03-4.56825E-02
 -1       785 6.33214E-03 4.20062E-03-4.53098E-02
 -1       786 6.19833E-03 4.22561E-03-3.42683E-02
 -1       787 1.28901E-02 6.90010E-03-5.54047E-02
 -1       788 1.27714E-02 6.75607E-03-4.56025E-02
 -1       789 7.58655E-03 8.53935E-03-6.95066E-02
 -1       790 7.32209E-03 8.17648E-03-5.52639E-02
 -1       791 6.56497E-04 1.10174E-02-5.87337E-02
 -1       792 3.48238E-04 1.10255E-02-5.41313E-02
 -1       793-1.30020E-03 7.07638E-03-4.76230E-02
 -1       794-1.31121E-03 6.94004E-03-4.40299E-02
 -1       795-4.07956E-04 2.32444E-03-5.89784E-02
 -1       796 2.44272E-03 5.83837E-03-6.57562E-02
 -1       797 4.13100E-03 4.77217E-03-6.29674E-02
 -1       798-1.96695E-03 1.68901E-03-5.58873E-02
 -1       799-1.44329E-03 1.63470E-03-4.55181E-02
 -1       800 4.16342E-03 4.67718E-03-5.48704E-02
 -1       801 2.16164E-03 5.77457E-03-5.93060E-02
 -1       802-4.91912E-04 2.44603E-03-5.45837E-02
 -1       803 4.12057E-03 4.81411E-03-5.09106E-02
 -1       804 3.82633E-03 4.95919E-03-6.69962E-02
 -1       805 2.49630E-03 5.56672E-03-5.61391E-02
 -1       806 2.62465E-03 5.68808E-03-6.90188E-02
 -1       807-5.93655E-04 2.12641E-03-5.51717E-02
 -1       808-9.58000E-04 1.88500E-03-6.97485E-02
 -1       809 3.00875E-03 2.82065E-03-5.42798E-02
 -1       810 2.92421E-03 2.68064E-03-4.85928E-02
 -1       811 7.48625E-03 4.63837E-03-6.73837E-02
 -1       812 7.62187E-03 4.36419E-03-6.23847E-02
 -1       813 6.41313E-04 6.06816E-03-8.27940E-02
 -1       814 1.21363E-03 5.55901E-03-7.55775E-02
 -1       815-8.27479E-03 7.75966E-03-7.07729E-02
 -1       816-8.06152E-03 7.24501E-03-6.86878E-02
 -1       817-6.55081E-03 4.65529E-03-5.60842E-02
 -1       818-6.91031E-03 4.62854E-03-5.40026E-02
 -1       819-2.26023E-03 1.45341E-03-7.14818E-02
 -1       820-2.04559E-03 4.06101E-03-8.02321E-02
 -1       821 3.98684E-04 3.37961E-03-7.73248E-02
 -1       822-3.10192E-03 9.57514E-04-6.79151E-02
 -1       823-2.84947E-03 1.32217E-03-6.25017E-02
 -1       824 7.39938E-04 3.16040E-03-7.33010E-02
 -1       825-2.22904E-03 3.94410E-03-7.71650E-02
 -1       826-2.14293E-03 1.53104E-03-6.91838E-02
 -1       827 5.01660E-04 3.19012E-03-7.13371E-02
 -1       828 1.00231E-04 3.39340E-03-7.94306E-02
 -1       829-1.79157E-03 3.83202E-03-7.56250E-02
 -1       830-1.65404E-03 3.78798E-03-8.18522E-02
 -1       831-2.00790E-03 1.54927E-03-7.58543E-02
 -1       832-2.11791E-03 1.17002E-03-8.30854E-02
 -1       833 0.00000E+00 0.00000E+00 0.00000E+00
 -1       834 0.00000E+00 0.00000E+00 0.00000E+00
 -1       835 0.00000E+00 0.00000E+00 0.00000E+00
 -1       836 0.00000E+00 0.00000E+00 0.00000E+00
 -1       837 0.00000E+00 0.00000E+00 0.00000E+00
 -1       838 0.00000E+00 0.00000E+00 0.00000E+00
 -1       839 0.00000E+00 0.00000E+00 0.00000E+00
 -1       840 0.00000E+00 0.00000E+00 0.00000E+00
 -1       841 0.00000E+00 0.00000E+00 0.00000E+00
 -1       842 0.00000E+00 0.00000E+00 0.00000E+00
 -1       843 0.00000E+00 0.00000E+00 0.00000E+00
 -1       844 0.00000E+00 0.00000E+00 0.00000E+00
 -1       845 0.00000E+00 0.00000E+00 0.00000E+00
 -1       846 0.00000E+00 0.00000E+00 0.00000E+00
 -1       847 0.00000E+00 0.00000E+00 0.00000E+00
 -1       848 0.00000E+00 0.00000E+00 0.00000E+00
 -1       849 0.00000E+00 0.00000E+00 0.00000E+00
 -1       850 0.00000E+00 0.00000E+00 0.00000E+00
 -1       851 0.00000E+00 0.00000E+00 0.00000E+00
 -1       852 0.00000E+00 0.00000E+00 0.00000E+00
 -1       853 0.00000E+00 0.00000E+00 0.00000E+00
 -1       854 0.00000E+00 0.00000E+00 0.00000E+00
 -1       855 0.00000E+00 0.00000E+00 0.00000E+00
 -1       856 0.00000E+00 0.00000E+00 0.00000E+00
 -1       857 0.00000E+00 0.00000E+00 0.00000E+00
 -1       858 0.00000E+00 0.00000E+00 0.00000E+00
 -1       859 0.00000E+00 0.00000E+00 0.00000E+00
 -1       860 0.00000E+00 0.00000E+00 0.00000E+00
 -1       861 0.00000E+00 0.00000E+00 0.00000E+00
 -1       862 0.00000E+00 0.00000E+00 0.00000E+00
 -1       863 0.00000E+00 0.00000E+00 0.00000E+00
 -1       864 0.00000E+00 0.00000E+00 0.00000E+00
 -1       865 0.00000E+00 0.00000E+00 0.00000E+00
 -1       866 0.00000E+00 0.00000E+00 0.00000E+00
 -1       867 0.00000E+00 0.00000E+00 0.00000E+00
 -1       868 0.00000E+00 0.00000E+00 0.00000E+00
 -1       869 0.00000E+00 0.00000E+00 0.00000E+00
 -1       870 0.00000E+00 0.00000E+00 0.00000E+00
 -1       871 0.00000E+00 0.00000E+00 0.00000E+00
 -1       872 0.00000E+00 0.00000E+00 0.00000E+00
 -1       873 0.00000E+00 0.00000E+00 0.00000E+00
 -1       874 0.00000E+00 0.00000E+00 0.00000E+00
 -1       875 0.00000E+00 0.00000E+00 0.00000E+00
 -1       876 0.00000E+00 0.00000E+00 0.00000E+00
 -1       877 0.00000E+00 0.00000E+00 0.00000E+00
 -1       878 0.00000E+00 0.00000E+00 0.00000E+00
 -1       879 0.00000E+00 0.00000E+00 0.00000E+00
 -1       880 0.00000E+00 0.00000E+00 0.00000E+00
 -1       881 0.00000E+00 0.00000E+00 0.00000E+00
 -1       882 0.00000E+00 0.00000E+00 0.00000E+00
 -1       883 0.00000E+00 0.00000E+00 0.00000E+00
 -1       884 0.00000E+00 0.00000E+00 0.00000E+00
 -1       885 0.00000E+00 0.00000E+00 0.00000E+00
 -1       886 0.00000E+00 0.00000E+00 0.00000E+00
 -1       887 0.00000E+00 0.00000E+00 0.00000E+00
 -1       888 0.00000E+00 0.00000E+00 0.00000E+00
 -1       889 0.00000E+00 0.00000E+00 0.00000E+00
 -1       890 0.00000E+00 0.00000E+00 0.00000E+00
 -1       891 0.00000E+00 0.00000E+00 0.00000E+00
 -1       892 0.00000E+00 0.00000E+00 0.00000E+00
 -1       893 0.00000E+00 0.00000E+00 0.00000E+00
 -1       894 0.00000E+00 0.00000E+00 0.00000E+00
 -1       895 0.00000E+00 0.00000E+00 0.00000E+00
 -1       896 0.00000E+00 0.00000E+00 0.00000E+00
 -1       897 3.93235E-03-6.50189E-04-7.46862E-02
 -1       898 6.39152E-03-8.50117E-04-6.18278E-02
 -1       899 3.87690E-03-1.04044E-03-7.54610E-02
 -1       900-5.47670E-04-2.62198E-04-8.20669E-02
 -1       901-8.97978E-03-2.60195E-04-7.87753E-02
 -1       902-1.28072E-02-7.71983E-04-6.64282E-02
 -1       903-2.47917E-03-1.05780E-04-8.04006E-02
 -1       904-3.47129E-03-4.48042E-04-6.22552E-02
 -1       905-3.45623E-03-8.86538E-07-7.62204E-02
 -1       906-3.57391E-03-1.05560E-04-6.70730E-02
 -1       907-2.85955E-03 1.48992E-04-8.52281E-02
 -1       908-2.49707E-03-2.76363E-04-8.49209E-02
 -1       909-2.89449E-03-3.13860E-04-8.28351E-02
 -1       910 8.16207E-03-5.23134E-03-5.98608E-02
 -1       911 5.89427E-03-5.63474E-03-7.12492E-02
 -1       912 8.16597E-03-4.97032E-03-5.43010E-02
 -1       913-2.01164E-03-1.85735E-03-7.18958E-02
 -1       914-3.05924E-03-1.24221E-03-5.43617E-02
 -1       915-3.08496E-03-1.32159E-03-7.21481E-02
 -1       916-2.44152E-03-1.95198E-03-6.22429E-02
 -1       917-2.11837E-03-1.53935E-03-8.17764E-02
 -1       918-2.10844E-03-1.87414E-03-7.38569E-02
 -1       919-2.19719E-03-1.68492E-03-7.14200E-02
 -1       920 6.11413E-03-9.25640E-03-5.22432E-02
 -1       921 8.09786E-03-8.45212E-03-4.98542E-02
 -1       922 1.14118E-02-7.58973E-03-5.71728E-02
 -1       923 1.33657E-02-7.41764E-03-3.86120E-02
 -1       924-2.44649E-04-2.22135E-03-5.34347E-02
 -1       925-1.83016E-03-1.53705E-03-3.82685E-02
 -1       926-1.75591E-03-1.80683E-03-5.80017E-02
 -1       927-6.25595E-04-2.43393E-03-4.87516E-02
 -1       928-1.12395E-03-2.04151E-03-6.61735E-02
 -1       929-5.79532E-04-2.15435E-03-6.64410E-02
 -1       930-5.47724E-04-2.22712E-03-5.28176E-02
 -1       931-5.07831E-04-1.94816E-03-5.04736E-02
 -1       932 1.48734E-02-6.03750E-03-2.07740E-02
 -1       933 1.06601E-02-7.91679E-03-2.67084E-02
 -1       934 1.95973E-02-5.46554E-03-1.62657E-02
 -1       935 1.50737E-02-6.20404E-03-4.21916E-02
 -1       936 1.36832E-02-6.76462E-03-4.17213E-02
 -1       937 1.12840E-03-1.81515E-03-2.34163E-02
 -1       938 1.47001E-03-1.53216E-03-2.74646E-02
 -1       939-6.51510E-04-9.09665E-04-1.60338E-02
 -1       940-4.23308E-04-1.39660E-03-3.53823E-02
 -1       941 1.09138E-03-1.66620E-03-2.94288E-02
 -1       942 4.51758E-04-1.45948E-03-4.23557E-02
 -1       943 9.03447E-04-1.60474E-03-4.20591E-02
 -1       944 1.24049E-03-1.28820E-03-2.31656E-02
 -1       945 8.98496E-04-1.23791E-03-2.10203E-02
 -1       946 1.75461E-02 2.71982E-04 1.19875E-02
 -1       947 1.97186E-02 2.17513E-04-6.44484E-03
 -1       948 2.17390E-02-1.69644E-04 7.83562E-03
 -1       949 1.68768E-02-1.27725E-04-1.02192E-02
 -1       950 2.34587E-03 7.15669E-05 4.84728E-03
 -1       951-3.92470E-04 2.60368E-04 8.48361E-03
 -1       952 5.26769E-04-5.43965E-05-6.68228E-03
 -1       953 1.95275E-03-2.03583E-05-3.11665E-03
 -1       954 1.34501E-03-2.43768E-04-1.12629E-02
 -1       955 1.66118E-03-1.98947E-04-1.02989E-02
 -1       956 1.74949E-03 2.74445E-04 1.08050E-02
 -1       957 1.13782E-03 3.90256E-04 1.19609E-02
 -1       958 1.34736E-02 6.58124E-03 2.34149E-02
 -1       959 1.37375E-02 6.85327E-03 4.25841E-02
 -1       960 1.48542E-02 6.33729E-03 4.27201E-02
 -1       961 8.95282E-04 1.78521E-03 3.01232E-02
 -1       962 1.36080E-03 1.67788E-03 3.59321E-02
 -1       963-1.18985E-03 1.26201E-03 3.16743E-02
 -1       964-1.53639E-04 1.36123E-03 2.30801E-02
 -1       965 9.73301E-04 1.74419E-03 2.43195E-02
 -1       966 6.49600E-04 1.28482E-03 2.15402E-02
 -1       967 1.20099E-03 1.45954E-03 2.39907E-02
 -1       968 7.36041E-04 1.84904E-03 4.27031E-02
 -1       969 4.26307E-05 1.68209E-03 4.31465E-02
 -1       970 6.93141E-03 9.39394E-03 5.30250E-02
 -1       971 1.36331E-02 7.19747E-03 3.83257E-02
 -1       972 1.14627E-02 7.44694E-03 4.84411E-02
 -1       973 1.39691E-02 7.18775E-03 4.90646E-02
 -1       974-1.14770E-03 2.83854E-03 5.10477E-02
 -1       975-2.12313E-04 2.39811E-03 6.13069E-02
 -1       976-2.44755E-03 1.51222E-03 4.97732E-02
 -1       977-1.53114E-03 1.75691E-03 4.91732E-02
 -1       978-7.21959E-04 2.67953E-03 4.60632E-02
 -1       979-7.39796E-04 1.98699E-03 5.09478E-02
 -1       980-1.86605E-04 2.13964E-03 5.38943E-02
 -1       981-9.14768E-04 2.34382E-03 6.84250E-02
 -1       982-1.10236E-03 2.04168E-03 6.70488E-02
 -1       983-5.20924E-03 8.84359E-03 7.68115E-02
 -1       984 3.67948E-04 6.82877E-03 7.51803E-02
 -1       985 8.90055E-03 5.24378E-03 5.38775E-02
 -1       986 6.61825E-03 5.46500E-03 6.66417E-02
 -1       987 8.97224E-03 5.24841E-03 5.98617E-02
 -1       988-1.84856E-03 1.64306E-03 7.82145E-02
 -1       989-3.19906E-03 9.97602E-04 6.03369E-02
 -1       990-2.93612E-03 1.56353E-03 6.73452E-02
 -1       991-3.01585E-03 2.04634E-03 6.26251E-02
 -1       992-2.17644E-03 1.76558E-03 7.28850E-02
 -1       993-1.98156E-03 1.85398E-03 7.60687E-02
 -1       994-2.22742E-03 1.65511E-03 8.39396E-02
 -1       995-2.53287E-03 1.22821E-03 8.19590E-02
 -1       996-2.84739E-03-8.67528E-04 8.51835E-02
 -1       997 6.65672E-03-6.37115E-05 6.13636E-02
 -1       998 4.19083E-03-3.25144E-04 7.49450E-02
 -1       999 6.96375E-03 1.24444E-04 6.14579E-02
 -1      1000-3.69891E-03-1.08375E-05 6.82620E-02
 -1      1001-2.52174E-03-1.64392E-05 8.14801E-02
 -1      1002-3.31606E-03-2.73194E-04 6.18585E-02
 -1      1003-3.41652E-03 2.10969E-04 7.59166E-02
 -1      1004-3.32620E-03-5.98305E-05 6.88665E-02
 -1      1005-3.12505E-03 2.72216E-04 8.37162E-02
 -1      1006-2.75949E-03 8.66007E-05 8.62234E-02
 -1      1007-2.67606E-03-2.86675E-04 8.53865E-02
 -1      1008-2.61079E-03-1.93753E-04 8.31657E-02
 -1      1009 8.69767E-03-5.00458E-03 5.38167E-02
 -1      1010 6.33295E-03-5.58497E-03 7.15188E-02
 -1      1011 2.39248E-03-5.98717E-03 8.04018E-02
 -1      1012-1.40653E-04-6.71970E-03 8.19046E-02
 -1      1013-9.33136E-03-8.58861E-03 6.36004E-02
 -1      1014-2.22539E-03-1.59119E-03 7.39223E-02
 -1      1015-2.93760E-03-1.13288E-03 5.39473E-02
 -1      1016-2.90921E-03-1.21149E-03 7.24455E-02
 -1      1017-3.12215E-03-1.65721E-03 6.40842E-02
 -1      1018-2.39590E-03-1.10775E-03 8.10929E-02
 -1      1019-2.30247E-03-1.28404E-03 8.25436E-02
 -1      1020-2.29138E-03-1.46409E-03 7.51068E-02
 -1      1021-2.31663E-03-1.50883E-03 7.21977E-02
 -1      1022 1.17731E-02-7.52610E-03 4.78404E-02
 -1      1023 1.40506E-02-7.51670E-03 3.76362E-02
 -1      1024 1.19006E-02-7.59219E-03 5.73982E-02
 -1      1025 8.59433E-03-8.72033E-03 6.62418E-02
 -1      1026 7.02323E-03-9.71217E-03 6.70892E-02
 -1      1027 2.85030E-04-1.21459E-02 5.07598E-02
 -1      1028-7.96237E-04-2.63767E-03 4.64655E-02
 -1      1029-1.08636E-04-2.24132E-03 5.45241E-02
 -1      1030-1.76029E-03-1.46079E-03 3.76534E-02
 -1      1031-1.65271E-03-1.82144E-03 5.80314E-02
 -1      1032-9.98983E-04-2.60551E-03 5.13359E-02
 -1      1033-1.15386E-03-1.86665E-03 6.67079E-02
 -1      1034-8.07923E-04-2.23161E-03 6.78361E-02
 -1      1035-3.44699E-04-2.13032E-03 5.30541E-02
 -1      1036-7.13111E-04-1.91530E-03 5.04022E-02
 -1      1037 1.38600E-02-6.76617E-03 4.13567E-02
 -1      1038 1.78408E-02-5.41640E-03 3.41420E-02
 -1      1039 1.51145E-02-5.93226E-03 2.01630E-02
 -1      1040 1.50203E-03-1.62467E-03 2.68868E-02
 -1      1041-5.90936E-04-9.26001E-04 1.51584E-02
 -1      1042-5.13734E-04-1.35419E-03 3.47989E-02
 -1      1043 1.16482E-03-1.68940E-03 2.88171E-02
 -1      1044 8.35282E-04-1.57911E-03 4.17382E-02
 -1      1045 1.38111E-03-1.37707E-03 2.24183E-02
 -1      1046 7.90405E-04-1.13830E-03 2.04743E-02
 -1      1047 1.72313E-02-5.97902E-05 9.28038E-03
 -1      1048 2.19693E-02 1.36965E-04-9.02891E-03
 -1      1049 2.01435E-02 1.20222E-04 5.43089E-03
 -1      1050 1.50394E-02 1.64171E-04-5.88386E-03
 -1      1051 1.29339E-02 5.28450E-04 2.75616E-03
 -1      1052 2.14539E-03 1.93928E-05-4.46334E-03
 -1      1053 2.27741E-03 3.10366E-05-5.78405E-03
 -1      1054-6.62659E-04 5.54736E-04-9.30567E-03
 -1      1055 5.51176E-04-3.35567E-05 5.57687E-03
 -1      1056 2.14919E-03 1.61232E-04 2.70644E-03
 -1      1057 1.10668E-03-1.63740E-04 1.07106E-02
 -1      1058 2.07546E-03-2.10663E-04 8.99221E-03
 -1      1059 1.90851E-03 3.25130E-04-1.21317E-02
 -1      1060 1.39445E-03 4.14921E-04-1.35288E-02
 -1      1061 1.54561E-02 6.11692E-03-4.49332E-02
 -1      1062 2.02198E-02 5.02971E-03-3.22811E-02
 -1      1063 1.77421E-02 5.24627E-03-2.42084E-02
 -1      1064 1.52143E-02 5.80627E-03-2.34112E-02
 -1      1065 1.40167E-02 6.57559E-03-2.55805E-02
 -1      1066 1.49103E-03 1.66876E-03-3.84545E-02
 -1      1067-1.04124E-03 1.06358E-03-3.28838E-02
 -1      1068-2.84555E-05 1.29872E-03-2.44857E-02
 -1      1069 1.36913E-03 1.92032E-03-2.60731E-02
 -1      1070 9.61384E-04 1.21163E-03-2.35454E-02
 -1      1071 1.38808E-03 1.40837E-03-2.60930E-02
 -1      1072 1.10113E-03 1.78095E-03-4.54641E-02
 -1      1073 3.24237E-04 1.65005E-03-4.52964E-02
 -1      1074 1.39083E-02 6.94659E-03-5.03225E-02
 -1      1075 1.15706E-02 6.94992E-03-5.02270E-02
 -1      1076 8.31411E-03 8.22155E-03-6.82037E-02
 -1      1077 2.53185E-03 1.05999E-02-6.23296E-02
 -1      1078-9.42634E-04 1.13218E-02-4.92230E-02
 -1      1079-3.06002E-04 2.14588E-03-6.35396E-02
 -1      1080-2.14552E-03 1.43736E-03-5.09816E-02
 -1      1081-1.35572E-03 1.85286E-03-5.08169E-02
 -1      1082-8.37641E-04 2.61031E-03-4.97624E-02
 -1      1083-4.68919E-04 2.15391E-03-5.62789E-02
 -1      1084-6.97875E-04 2.04631E-03-6.99322E-02
 -1      1085-1.25905E-03 1.91160E-03-6.88747E-02
 -1      1086 8.63450E-03 4.41166E-03-6.07481E-02
 -1      1087 6.20000E-03 4.57190E-03-6.79347E-02
 -1      1088 2.00081E-03 5.62358E-03-8.12110E-02
 -1      1089-5.81455E-03 7.22626E-03-7.56899E-02
 -1      1090-9.71728E-03 7.76645E-03-6.14803E-02
 -1      1091-1.65944E-03 1.32600E-03-7.70099E-02
 -1      1092-3.21423E-03 7.94358E-04-6.14126E-02
 -1      1093-2.95937E-03 1.46962E-03-6.86870E-02
 -1      1094-2.69619E-03 1.71978E-03-6.23545E-02
 -1      1095-2.07438E-03 1.59831E-03-7.39784E-02
 -1      1096-2.05473E-03 1.62332E-03-7.64282E-02
 -1      1097-1.88282E-03 1.21796E-03-8.31807E-02
 -1      1098-2.34674E-03 1.23853E-03-8.18516E-02
 -1      1099 0.00000E+00 0.00000E+00 0.00000E+00
 -1      1100 0.00000E+00 0.00000E+00 0.00000E+00
 -1      1101 0.00000E+00 0.00000E+00 0.00000E+00
 -1      1102 0.00000E+00 0.00000E+00 0.00000E+00
 -1      1103 0.00000E+00 0.00000E+00 0.00000E+00
 -1      1104 0.00000E+00 0.00000E+00 0.00000E+00
 -1      1105 0.00000E+00 0.00000E+00 0.00000E+00
 -1      1106 0.00000E+00 0.00000E+00 0.00000E+00
 -1      1107 0.00000E+00 0.00000E+00 0.00000E+00
 -1      1108 0.00000E+00 0.00000E+00 0.00000E+00
 -1      1109 0.00000E+00 0.00000E+00 0.00000E+00
 -1      1110 0.00000E+00 0.00000E+00 0.00000E+00
 -1      1111 0.00000E+00 0.00000E+00 0.00000E+00
 -1      1112 0.00000E+00 0.00000E+00 0.00000E+00
 -1      1113 0.00000E+00 0.00000E+00 0.00000E+00
 -1      1114 0.00000E+00 0.00000E+00 0.00000E+00
 -1      1115 0.00000E+00 0.00000E+00 0.00000E+00
 -1      1116 0.00000E+00 0.00000E+00 0.00000E+00
 -1      1117 0.00000E+00 0.00000E+00 0.00000E+00
 -1      1118 0.00000E+00 0.00000E+00 0.00000E+00
 -1      1119 0.00000E+00 0.00000E+00 0.00000E+00
 -1      1120 0.00000E+00 0.00000E+00 0.00000E+00
 -1      1121 0.00000E+00 0.00000E+00 0.00000E+00
 -1      1122 0.00000E+00 0.00000E+00 0.00000E+00
 -1      1123 0.00000E+00 0.00000E+00 0.00000E+00
 -1      1124 0.00000E+00 0.00000E+00 0.00000E+00
 -1      1125 0.00000E+00 0.00000E+00 0.00000E+00
 -1      1126 0.00000E+00 0.00000E+00 0.00000E+00
 -1      1127 0.00000E+00 0.00000E+00 0.00000E+00
 -1      1128 0.00000E+00 0.00000E+00 0.00000E+00
 -1      1129 0.00000E+00 0.00000E+00 0.00000E+00
 -1      1130 0.00000E+00 0.00000E+00 0.00000E+00
 -1      1131 0.00000E+00 0.00000E+00 0.00000E+00
 -1      1132 0.00000E+00 0.00000E+00 0.00000E+00
 -1      1133 0.00000E+00 0.00000E+00 0.00000E+00
 -1      1134 0.00000E+00 0.00000E+00 0.00000E+00
 -1      1135 0.00000E+00 0.00000E+00 0.00000E+00
 -1      1136 0.00000E+00 0.00000E+00 0.00000E+00
 -1      1137 0.00000E+00 0.00000E+00 0.00000E+00
 -1      1138 0.00000E+00 0.00000E+00 0.00000E+00
 -1      1139 0.00000E+00 0.00000E+00 0.00000E+00
 -1      1140 0.00000E+00 0.00000E+00 0.00000E+00
 -1      1141 0.00000E+00 0.00000E+00 0.00000E+00
 -1      1142 0.00000E+00 0.00000E+00 0.00000E+00
 -1      1143 0.00000E+00 0.00000E+00 0.00000E+00
 -1      1144 0.00000E+00 0.00000E+00 0.00000E+00
 -1      1145 0.00000E+00 0.00000E+00 0.00000E+00
 -1      1146 0.00000E+00 0.00000E+00 0.00000E+00
 -1      1147 0.00000E+00 0.00000E+00 0.00000E+00
 -1      1148 0.00000E+00 0.00000E+00 0.00000E+00
 -1      1149 0.00000E+00 0.00000E+00 0.00000E+00
 -1      1150 0.00000E+00 0.00000E+00 0.00000E+00
 -1      1151 0.00000E+00 0.00000E+00 0.00000E+00
 -1      1152 0.00000E+00 0.00000E+00 0.00000E+00
 -1      1153 0.00000E+00 0.00000E+00 0.00000E+00
 -1      1154 0.00000E+00 0.00000E+00 0.00000E+00
 -1      1155 0.00000E+00 0.00000E+00 0.00000E+00
 -1      1156 0.00000E+00 0.00000E+00 0.00000E+00
 -1      1157 0.00000E+00 0.00000E+00 0.00000E+00
 -1      1158 6.48540E-03-1.10305E-03-6.25064E-02
 -1      1159-2.83652E-03-1.12533E-04-8.38337E-02
 -1      1160-3.33061E-03-8.48452E-04-8.46202E-02
 -1      1161-3.45422E-05-7.77595E-04-8.28745E-02
 -1      1162-1.27131E-02-4.25173E-04-6.60680E-02
 -1      1163-8.67641E-03-8.80404E-04-7.93241E-02
 -1      1164-3.18531E-03-9.11216E-05-6.67340E-02
 -1      1165-3.45612E-03-2.34553E-04-7.57584E-02
 -1      1166-3.41603E-03 1.91465E-04-6.27953E-02
 -1      1167-2.42274E-03-3.29872E-05-8.05295E-02
 -1      1168-2.68693E-03 1.62457E-04-8.33359E-02
 -1      1169-9.05265E-03-9.78153E-03-6.19257E-02
 -1      1170-5.41713E-03-8.79878E-03-7.39680E-02
 -1      1171-5.36480E-03-8.16665E-03-7.07045E-02
 -1      1172-9.27860E-03-9.41778E-03-5.87475E-02
 -1      1173-4.35047E-04-7.72769E-03-8.11824E-02
 -1      1174 2.12671E-03-6.66419E-03-8.00806E-02
 -1      1175 2.36862E-03-6.07136E-03-7.10523E-02
 -1      1176-2.11053E-04-7.05710E-03-7.30105E-02
 -1      1177 5.97794E-03-5.24178E-03-6.63549E-02
 -1      1178-2.82829E-03-2.03713E-03-5.95268E-02
 -1      1179-2.83109E-03-1.51941E-03-6.69406E-02
 -1      1180-3.30405E-03-9.01722E-04-6.06031E-02
 -1      1181-1.61343E-03-1.69361E-03-7.52050E-02
 -1      1182-2.28352E-03-1.35727E-03-8.06634E-02
 -1      1183-5.53904E-04-1.19452E-02-4.85456E-02
 -1      1184 2.37899E-03-1.11165E-02-5.80796E-02
 -1      1185 1.63657E-03-1.11054E-02-5.25793E-02
 -1      1186-9.11695E-04-1.19193E-02-4.39488E-02
 -1      1187 6.26926E-03-9.68186E-03-6.59808E-02
 -1      1188 8.51360E-03-8.83829E-03-6.58728E-02
 -1      1189 1.35703E-02-7.44329E-03-4.92170E-02
 -1      1190 1.12531E-02-7.48914E-03-4.82478E-02
 -1      1191-8.21275E-04-2.55225E-03-4.45167E-02
 -1      1192-1.66622E-03-1.97538E-03-4.85288E-02
 -1      1193-2.23743E-03-1.49400E-03-4.98734E-02
 -1      1194-4.62066E-04-2.27332E-03-5.90658E-02
 -1      1195 1.33642E-02-6.62113E-03-2.29051E-02
 -1      1196 8.40170E-03-8.28752E-03-2.91418E-02
 -1      1197 1.13415E-02-7.63536E-03-3.48500E-02
 -1      1198 7.93707E-03-8.73138E-03-2.31012E-02
 -1      1199 1.76325E-02-5.33466E-03-3.50689E-02
 -1      1200 1.99143E-02-5.44262E-03-3.10627E-02
 -1      1201 1.72388E-02-5.59397E-03-2.24533E-02
 -1      1202-2.11243E-04-1.27370E-03-2.28093E-02
 -1      1203-9.76438E-04-1.15852E-03-3.16627E-02
 -1      1204 1.31567E-03-1.47310E-03-3.50540E-02
 -1      1205 1.68446E-02 1.86134E-04 1.09128E-02
 -1      1206 1.31506E-02 1.54731E-04-3.37620E-03
 -1      1207 1.50455E-02 1.66806E-04-4.09283E-03
 -1      1208 1.49611E-02-2.72381E-04 4.93365E-03
 -1      1209 1.30712E-02-6.60701E-05 4.19649E-03
 -1      1210 2.17329E-02 6.56268E-05-7.68694E-03
 -1      1211 1.98412E-02-1.41219E-04 6.85254E-03
 -1      1212 1.78128E-02-5.86548E-05-1.13858E-02
 -1      1213 1.88213E-03 8.50462E-05 4.09782E-03
 -1      1214 3.01807E-04 1.35906E-04 7.21257E-03
 -1      1215-4.95384E-04-2.16575E-04-8.06081E-03
 -1      1216 2.16314E-03 8.44731E-05-4.17950E-03
 -1      1217 1.46261E-02 6.03658E-03 2.14514E-02
 -1      1218 1.70659E-02 5.61722E-03 2.29911E-02
 -1      1219 1.96917E-02 5.41280E-03 1.64106E-02
 -1      1220 1.99633E-02 5.27072E-03 3.12230E-02
 -1      1221 1.76410E-02 5.44260E-03 3.53013E-02
 -1      1222 7.93560E-03 8.58350E-03 2.38449E-02
 -1      1223 1.06065E-02 8.05312E-03 2.74903E-02
 -1      1224 1.13130E-02 7.74473E-03 3.56966E-02
 -1      1225 8.26185E-03 8.41482E-03 3.00678E-02
 -1      1226-4.77189E-04 1.38952E-03 3.60309E-02
 -1      1227-6.20720E-04 9.92581E-04 1.63602E-02
 -1      1228 1.43992E-03 1.71391E-03 2.81448E-02
 -1      1229 1.80943E-05 1.29477E-02 4.51314E-02
 -1      1230 2.72191E-03 1.17651E-02 5.40781E-02
 -1      1231 3.13352E-03 1.20214E-02 6.05150E-02
 -1      1232 7.81399E-05 1.33088E-02 5.08669E-02
 -1      1233 8.59158E-03 8.33669E-03 5.06827E-02
 -1      1234 8.41315E-03 8.88006E-03 6.67847E-02
 -1      1235 7.02175E-03 1.00309E-02 6.79928E-02
 -1      1236 1.18883E-02 7.51032E-03 5.80962E-02
 -1      1237-2.27804E-03 1.84891E-03 5.86376E-02
 -1      1238-1.80588E-03 1.52460E-03 3.84203E-02
 -1      1239-4.00935E-04 2.44745E-03 5.51443E-02
 -1      1240-9.36113E-03 9.52599E-03 6.17865E-02
 -1      1241-5.09741E-03 8.08698E-03 7.34813E-02
 -1      1242-8.89906E-03 9.53748E-03 6.48624E-02
 -1      1243 2.97280E-03 5.83169E-03 7.24220E-02
 -1      1244 2.49829E-03 6.31268E-03 8.12797E-02
 -1      1245 8.27120E-06 7.57440E-03 8.33159E-02
 -1      1246 6.48329E-03 5.80366E-03 7.20010E-02
 -1      1247-2.78100E-03 2.06128E-03 6.53271E-02
 -1      1248-2.89268E-03 1.39391E-03 7.28211E-02
 -1      1249-2.91326E-03 1.31033E-03 5.40365E-02
 -1      1250-2.11282E-03 1.85055E-03 7.47316E-02
 -1      1251-1.23284E-02-1.01359E-03 6.82392E-02
 -1      1252-8.56602E-03-1.18019E-03 8.06259E-02
 -1      1253-8.83524E-03-5.09979E-04 8.02881E-02
 -1      1254-1.31227E-02-7.91871E-04 6.74666E-02
 -1      1255 7.51124E-05-7.95858E-04 8.31630E-02
 -1      1256-2.12854E-05-2.56219E-04 8.24667E-02
 -1      1257-2.68355E-03-1.11780E-04 8.47553E-02
 -1      1258 4.50180E-03 1.39067E-04 7.48823E-02
 -1      1259-3.56690E-03-4.70357E-06 7.56324E-02
 -1      1260-3.28415E-03 5.31155E-04 6.19132E-02
 -1      1261-2.82168E-03-8.84062E-05 8.21105E-02
 -1      1262 6.39220E-03-5.20112E-03 6.65307E-02
 -1      1263 8.75952E-03-5.01922E-03 5.96893E-02
 -1      1264 2.42693E-03-5.56496E-03 7.18471E-02
 -1      1265-8.26406E-05-6.14043E-03 7.44232E-02
 -1      1266-5.49306E-03-7.28216E-03 7.26748E-02
 -1      1267-9.72573E-03-8.57336E-03 6.10135E-02
 -1      1268-5.52815E-03-7.98029E-03 7.56127E-02
 -1      1269-3.02199E-03-1.64973E-03 6.18408E-02
 -1      1270-2.82342E-03-1.40541E-03 6.72080E-02
 -1      1271-3.20258E-03-6.52145E-04 6.02837E-02
 -1      1272-1.88301E-03-1.42971E-03 7.70065E-02
 -1      1273 1.42394E-02-7.30869E-03 4.88863E-02
 -1      1274 8.66260E-03-8.32422E-03 5.00999E-02
 -1      1275 6.91477E-03-9.18109E-03 5.26095E-02
 -1      1276 2.93335E-03-1.13850E-02 5.35759E-02
 -1      1277-2.43220E-04-1.21828E-02 4.60314E-02
 -1      1278 3.46018E-03-1.14805E-02 6.00715E-02
 -1      1279-1.33937E-03-1.79885E-03 4.85269E-02
 -1      1280-2.17759E-03-1.40901E-03 4.93371E-02
 -1      1281-1.35683E-04-2.24830E-03 6.09594E-02
 -1      1282 1.52553E-02-6.21323E-03 4.16781E-02
 -1      1283 1.97098E-02-5.28686E-03 1.54912E-02
 -1      1284 1.73348E-02-5.52773E-03 2.16864E-02
 -1      1285 1.98189E-02-5.16432E-03 3.00083E-02
 -1      1286 8.55056E-03-8.43319E-03 2.87211E-02
 -1      1287 1.07828E-02-8.16882E-03 2.63390E-02
 -1      1288 8.16540E-03-8.69755E-03 2.23984E-02
 -1      1289 1.13505E-02-7.74372E-03 3.42730E-02
 -1      1290 1.35649E-02-6.65631E-03 2.22465E-02
 -1      1291 1.08621E-03-1.93723E-03 2.28550E-02
 -1      1292-2.27421E-05-1.16422E-03 2.17853E-02
 -1      1293-1.06993E-03-1.10477E-03 3.07077E-02
 -1      1294 1.50622E-03-1.55746E-03 3.48345E-02
 -1      1295 5.32429E-04-1.48719E-03 4.18849E-02
 -1      1296 1.83013E-02-8.42484E-05 1.07149E-02
 -1      1297 2.01213E-02-4.84350E-05-7.91428E-03
 -1      1298 2.17778E-02-4.79102E-05 7.04825E-03
 -1      1299 1.29976E-02 1.91021E-04-4.61819E-03
 -1      1300 1.52025E-02 5.47416E-04 3.30866E-03
 -1      1301 1.81537E-02 2.80346E-04-1.36717E-02
 -1      1302 1.73523E-02 2.10899E-04-1.22533E-02
 -1      1303 4.54442E-04 1.37394E-04-8.20341E-03
 -1      1304-4.87768E-04-1.02452E-04 7.47520E-03
 -1      1305 2.19587E-03 1.07722E-04 3.12972E-03
 -1      1306 1.44052E-02 6.78244E-03-4.52820E-02
 -1      1307 1.19288E-02 8.04873E-03-3.82032E-02
 -1      1308 9.07626E-03 9.00757E-03-3.23057E-02
 -1      1309 8.64985E-03 9.35745E-03-2.57329E-02
 -1      1310 1.12303E-02 8.29417E-03-2.96986E-02
 -1      1311 1.81130E-02 5.03199E-03-3.70247E-02
 -1      1312 1.99213E-02 4.97853E-03-1.73575E-02
 -1      1313 1.29525E-03 1.94274E-03-3.26453E-02
 -1      1314-2.50268E-04 1.47490E-03-3.74124E-02
 -1      1315-6.62581E-04 8.27809E-04-1.71519E-02
 -1      1316 1.59459E-03 1.70725E-03-3.04871E-02
 -1      1317 1.18191E-02 7.06040E-03-5.93275E-02
 -1      1318 1.38337E-02 6.66683E-03-3.94985E-02
 -1      1319 6.72421E-03 8.92412E-03-6.92851E-02
 -1      1320 6.14203E-03 8.75244E-03-5.58159E-02
 -1      1321 8.37088E-03 7.71194E-03-5.30737E-02
 -1      1322-7.03925E-04 1.14160E-02-5.32253E-02
 -1      1323 2.15105E-03 1.04473E-02-5.69360E-02
 -1      1324-6.80942E-04 2.45013E-03-5.38578E-02
 -1      1325-1.71552E-03 1.85209E-03-5.98317E-02
 -1      1326-1.58999E-03 1.50591E-03-3.94479E-02
 -1      1327-4.41438E-04 2.31626E-03-5.78920E-02
 -1      1328-6.03619E-04 1.92909E-03-5.34003E-02
 -1      1329 6.00202E-03 4.95702E-03-7.26383E-02
 -1      1330 8.55070E-03 4.39766E-03-5.52706E-02
 -1      1331-4.90525E-04 6.32522E-03-8.24025E-02
 -1      1332-3.96046E-04 5.76921E-03-7.57108E-02
 -1      1333 2.23205E-03 5.01677E-03-7.35822E-02
 -1      1334-9.57410E-03 8.14316E-03-6.36822E-02
 -1      1335-5.83190E-03 6.63247E-03-7.33534E-02
 -1      1336-2.60544E-03 1.55516E-03-6.39279E-02
 -1      1337-2.86367E-03 1.18595E-03-7.35201E-02
 -1      1338-2.81908E-03 1.18445E-03-5.54727E-02
 -1      1339-2.05240E-03 1.53617E-03-7.46007E-02
 -1      1340 0.00000E+00 0.00000E+00 0.00000E+00
 -1      1341 0.00000E+00 0.00000E+00 0.00000E+00
 -1      1342 0.00000E+00 0.00000E+00 0.00000E+00
 -1      1343 0.00000E+00 0.00000E+00 0.00000E+00
 -1      1344 0.00000E+00 0.00000E+00 0.00000E+00
 -1      1345 0.00000E+00 0.00000E+00 0.00000E+00
 -1      1346 0.00000E+00 0.00000E+00 0.00000E+00
 -1      1347 0.00000E+00 0.00000E+00 0.00000E+00
 -1      1348 0.00000E+00 0.00000E+00 0.00000E+00
 -1      1349 0.00000E+00 0.00000E+00 0.00000E+00
 -1      1350 0.00000E+00 0.00000E+00 0.00000E+00
 -1      1351 0.00000E+00 0.00000E+00 0.00000E+00
 -1      1352 0.00000E+00 0.00000E+00 0.00000E+00
 -1      1353 0.00000E+00 0.00000E+00 0.00000E+00
 -1      1354 0.00000E+00 0.00000E+00 0.00000E+00
 -1      1355 0.00000E+00 0.00000E+00 0.00000E+00
 -1      1356 0.00000E+00 0.00000E+00 0.00000E+00
 -1      1357 0.00000E+00 0.00000E+00 0.00000E+00
 -1      1358 0.00000E+00 0.00000E+00 0.00000E+00
 -1      1359 0.00000E+00 0.00000E+00 0.00000E+00
 -1      1360 0.00000E+00 0.00000E+00 0.00000E+00
 -1      1361 0.00000E+00 0.00000E+00 0.00000E+00
 -1      1362 0.00000E+00 0.00000E+00 0.00000E+00
 -1      1363 0.00000E+00 0.00000E+00 0.00000E+00
 -1      1364 0.00000E+00 0.00000E+00 0.00000E+00
 -1      1365 0.00000E+00 0.00000E+00 0.00000E+00
 -1      1366 0.00000E+00 0.00000E+00 0.00000E+00
 -1      1367 0.00000E+00 0.00000E+00 0.00000E+00
 -1      1368 0.00000E+00 0.00000E+00 0.00000E+00
 -1      1369 0.00000E+00 0.00000E+00 0.00000E+00
 -1      1370 0.00000E+00 0.00000E+00 0.00000E+00
 -1      1371 0.00000E+00 0.00000E+00 0.00000E+00
 -1      1372 0.00000E+00 0.00000E+00 0.00000E+00
 -1      1373 0.00000E+00 0.00000E+00 0.00000E+00
 -1      1374 0.00000E+00 0.00000E+00 0.00000E+00
 -1      1375 0.00000E+00 0.00000E+00 0.00000E+00
 -1      1376 0.00000E+00 0.00000E+00 0.00000E+00
 -1      1377 0.00000E+00 0.00000E+00 0.00000E+00
 -1      1378 0.00000E+00 0.00000E+00 0.00000E+00
 -1      1379 0.00000E+00 0.00000E+00 0.00000E+00
 -1      1380 0.00000E+00 0.00000E+00 0.00000E+00
 -1      1381 0.00000E+00 0.00000E+00 0.00000E+00
 -1      1382 0.00000E+00 0.00000E+00 0.00000E+00
 -1      1383 0.00000E+00 0.00000E+00 0.00000E+00
 -1      1384 0.00000E+00 0.00000E+00 0.00000E+00
 -1      1385 0.00000E+00 0.00000E+00 0.00000E+00
 -1      1386 0.00000E+00 0.00000E+00 0.00000E+00
 -1      1387 0.00000E+00 0.00000E+00 0.00000E+00
 -1      1388 0.00000E+00 0.00000E+00 0.00000E+00
 -1      1389 0.00000E+00 0.00000E+00 0.00000E+00
 -1      1390 0.00000E+00 0.00000E+00 0.00000E+00
 -1      1391 0.00000E+00 0.00000E+00 0.00000E+00
 -1      1392 0.00000E+00 0.00000E+00 0.00000E+00
 -1      1393 0.00000E+00 0.00000E+00 0.00000E+00
 -1      1394 0.00000E+00 0.00000E+00 0.00000E+00
 -1      1395 0.00000E+00 0.00000E+00 0.00000E+00
 -1      1396 0.00000E+00 0.00000E+00 0.00000E+00
 -1      1397 0.00000E+00 0.00000E+00 0.00000E+00
 -1      1398 0.00000E+00 0.00000E+00 0.00000E+00
 -1      1399 0.00000E+00 0.00000E+00 0.00000E+00
 -1      1400 0.00000E+00 0.00000E+00 0.00000E+00
 -1      1401 0.00000E+00 0.00000E+00 0.00000E+00
 -1      1402 0.00000E+00 0.00000E+00 0.00000E+00
 -1      1403 0.00000E+00 0.00000E+00 0.00000E+00
 -1      1404 0.00000E+00 0.00000E+00 0.00000E+00
 -1      1405 0.00000E+00 0.00000E+00 0.00000E+00
 -1      1406 0.00000E+00 0.00000E+00 0.00000E+00
 -1      1407 0.00000E+00 0.00000E+00 0.00000E+00
 -1      1408 0.00000E+00 0.00000E+00 0.00000E+00
 -1      1409-2.42255E-03-1.38013E-03-4.74175E-02
 -1      1410-2.97454E-03-1.19076E-03-5.02086E-02
 -1      1411-6.83013E-04-1.16240E-04 7.64737E-03
 -1      1412-8.50968E-04-7.24317E-04 1.31352E-02
 -1      1413-1.75684E-03 1.39773E-03-3.64020E-02
 -1      1414-1.22141E-03 1.09639E-03-3.13694E-02
 -1      1415-2.48666E-03 1.50308E-03 4.71094E-02
 -1      1416-3.06746E-03 1.27009E-03 4.97634E-02
 -1      1417-8.48002E-04-9.06498E-04-1.43504E-02
 -1      1418-5.19397E-04-2.02804E-04-8.48185E-03
 -1      1419-1.14142E-03-1.07914E-03 2.92465E-02
 -1      1420-1.64228E-03-1.29997E-03 3.40329E-02
 -1      1421-1.97562E-03-1.42380E-03-3.54750E-02
 -1      1422-1.16984E-03-1.10842E-03-3.03915E-02
 -1      1423-3.17193E-03-5.83404E-04 5.66741E-02
 -1      1424-3.41114E-03-1.94911E-04 5.73859E-02
 -1      1425-3.47023E-03-8.82590E-04-5.72271E-02
 -1      1426-3.58116E-03-3.28535E-04-5.78226E-02
 -1      1427-2.93919E-03 1.06347E-03-5.15405E-02
 -1      1428-2.31456E-03 1.38909E-03-4.80019E-02
 -1      1429-3.36604E-03 7.29048E-04-5.78284E-02
 -1      1430-3.53066E-03 2.47659E-04-5.84449E-02
 -1      1431-1.99082E-03 1.49132E-03 3.53272E-02
 -1      1432-1.23020E-03 1.20604E-03 3.03716E-02
 -1      1433-3.18852E-03 8.78869E-04 5.67144E-02
 -1      1434-3.33717E-03 3.47894E-04 5.73494E-02
 -1      1435-5.15624E-04 1.37776E-04-9.68255E-04
 -1      1436-7.42435E-04 6.78657E-04-1.52359E-02
 -1      1437-7.72039E-04 5.72859E-04-9.89887E-03
 -1      1438-2.15901E-03-1.28421E-03 4.67097E-02
 -1      1439-2.74853E-03-1.04335E-03 4.95924E-02
 -1      1440-1.46670E-03 1.14344E-03-3.90391E-02
 -1      1441-2.38338E-03 1.33811E-03 4.57239E-02
 -1      1442-2.74084E-03 1.16345E-03 4.76199E-02
 -1      1443-1.81580E-03 1.40445E-03 3.35055E-02
 -1      1444-1.25275E-03 1.16473E-03 2.98762E-02
 -1      1445-1.54568E-03-1.06946E-03 3.77308E-02
 -1      1446-1.12603E-03-1.06024E-03 2.87787E-02
 -1      1447-1.57075E-03-1.24967E-03 3.22451E-02
 -1      1448-2.27819E-03-6.82100E-04 4.93133E-02
 -1      1449-2.13993E-03-1.16562E-03 4.53782E-02
 -1      1450-2.53764E-03-9.40367E-04 4.74015E-02
 -1      1451-5.71938E-04-7.27272E-04 1.97090E-02
 -1      1452-1.79595E-03 1.30967E-03 3.79816E-02
 -1      1453-6.84667E-04 8.07030E-04-2.15160E-02
 -1      1454-2.42675E-03 7.97535E-04-5.05594E-02
 -1      1455-6.71525E-04 8.50704E-04 2.07533E-02
 -1      1456-2.50579E-03-9.21793E-04-4.98791E-02
 -1      1457-2.86565E-03-6.40577E-05-5.42716E-02
 -1      1458-1.63960E-03 1.24438E-03-3.44415E-02
 -1      1459-1.25197E-03 1.06399E-03-3.08194E-02
 -1      1460-3.20202E-03-7.45059E-04-5.52691E-02
 -1      1461-3.30540E-03-3.40023E-04-5.57413E-02
 -1      1462-8.00394E-04-7.27919E-04-1.30989E-02
 -1      1463-6.02221E-04-3.02571E-04-8.94915E-03
 -1      1464-6.84409E-04-8.53169E-04-2.08994E-02
 -1      1465-2.76100E-04 4.06502E-05 3.41679E-05
 -1      1466 2.26336E-03-2.63319E-03 3.19517E-02
 -1      1467 8.68909E-05-2.17217E-03-5.36534E-02
 -1      1468-8.26620E-04 8.86561E-04 2.51023E-02
 -1      1469 5.36024E-03 3.37510E-05-8.36225E-03
 -1      1470 2.11527E-03-3.00565E-03 4.40893E-02
 -1      1471-2.87690E-03-5.46853E-04 5.46446E-02
 -1      1472-3.06610E-03-1.98926E-04 5.51236E-02
 -1      1473-2.60086E-03 8.94185E-05 5.34623E-02
 -1      1474-1.63624E-03-1.21140E-03-3.84914E-02
 -1      1475-7.96997E-04 7.72458E-04 1.44247E-02
 -1      1476-6.35563E-04 3.33970E-04 8.78150E-03
 -1      1477-2.60227E-03 9.43555E-04 4.94968E-02
 -1      1478 8.44126E-05-1.89483E-03 4.66815E-02
 -1      1479-1.68789E-03-1.18863E-03-3.34972E-02
 -1      1480-1.18631E-03-1.02841E-03-2.99172E-02
 -1      1481-2.70092E-03 1.02376E-03-4.92621E-02
 -1      1482-2.25336E-03 1.20918E-03-4.66786E-02
 -1      1483-7.53489E-04 6.49543E-04-1.40610E-02
 -1      1484-7.05632E-04 4.83469E-04-1.01274E-02
 -1      1485-3.11128E-03 6.15697E-04-5.57570E-02
 -1      1486-3.21384E-03 2.48698E-04-5.61870E-02
 -1      1487 4.57283E-03-2.16462E-03-2.89859E-02
 -1      1488 2.12834E-03 3.02722E-03 4.42634E-02
 -1      1489-6.87096E-04-1.24335E-04 7.94795E-03
 -1      1490-7.70587E-04-5.30916E-04 1.18614E-02
 -1      1491-2.26154E-03-1.26772E-03-4.61015E-02
 -1      1492-2.73358E-03-1.08192E-03-4.81451E-02
 -1      1493 4.63837E-03-2.10653E-03-1.30120E-02
 -1      1494-8.06841E-04-2.31908E-04-5.45688E-02
 -1      1495-4.55289E-04 6.15990E-05 5.40357E-02
 -1      1496 4.45457E-03 2.22394E-03 2.88495E-02
 -1      1497 4.01682E-05-2.04000E-03 5.31498E-02
 -1      1498 4.57315E-03 2.08211E-03-2.97755E-02
 -1      1499 2.22543E-03-2.91382E-03-3.29369E-02
 -1      1500 2.07787E-04 2.03255E-03 4.67502E-02
 -1      1501-7.36236E-04 6.63899E-04 1.31180E-02
 -1      1502-5.91821E-04 3.24337E-04 9.05532E-03
 -1      1503 5.37713E-03 1.72863E-04 8.53510E-03
 -1      1504 4.61798E-03 1.87665E-03-1.37992E-02
 -1      1505-3.02793E-03 7.78203E-04 5.47279E-02
 -1      1506-3.08653E-03 3.48429E-04 5.51717E-02
 -1      1507-2.13430E-04-2.13142E-03-4.74100E-02
 -1      1508 4.63832E-03-1.90939E-03 1.19921E-02
 -1      1509 4.57948E-03-2.09534E-03 2.77524E-02
 -1      1510 5.02403E-03 3.43823E-04-9.55884E-03
 -1      1511 2.35682E-03 2.82036E-03-4.53683E-02
 -1      1512 2.23055E-03 2.82172E-03-3.37337E-02
 -1      1513 8.07509E-05 1.89301E-03-5.41204E-02
 -1      1514-7.10086E-04-2.89868E-04-5.51464E-02
 -1      1515 5.09665E-03-8.49772E-05 7.60348E-03
 -1      1516 2.17017E-03-2.97711E-03-4.47514E-02
 -1      1517 2.09154E-03 2.91866E-03 3.26169E-02
 -1      1518 4.61495E-03 2.14377E-03 1.29767E-02
 -1      1519 3.34060E-05 2.20747E-03 5.32032E-02
 -1      1520 2.24661E-04 1.77306E-03-4.80831E-02
 -1      1521-4.87172E-04 3.79257E-05 5.40752E-02
 -1      1522-4.61813E-03-1.35069E-03-5.75414E-02
 -1      1523-1.02963E-03 3.02944E-03 3.35137E-02
 -1      1524-6.67002E-04-3.11823E-03 3.38230E-02
 -1      1525 1.20293E-03-1.22397E-03 1.09740E-02
 -1      1526 4.75846E-04-1.43814E-03 5.31476E-03
 -1      1527-4.96320E-03-9.96527E-04-2.19662E-02
 -1      1528-1.52109E-02 1.85019E-04-3.51536E-04
 -1      1529-6.03504E-04-2.38453E-03 2.27150E-02
 -1      1530-1.60989E-03 2.87851E-03 1.53881E-02
 -1      1531-4.00376E-04 2.08904E-03 9.18008E-03
 -1      1532-2.35422E-03-2.24457E-03-1.48726E-02
 -1      1533 3.42945E-03-2.85611E-03-4.70823E-02
 -1      1534-6.12438E-04 2.37883E-03 1.53955E-02
 -1      1535-4.83620E-03-1.34151E-03 1.77700E-02
 -1      1536 4.59295E-03 1.18020E-03-5.24796E-02
 -1      1537 1.76157E-03-3.51323E-03-3.28290E-02
 -1      1538 2.19213E-04-2.94643E-04 1.44329E-03
 -1      1539 2.51015E-03-2.97182E-03 4.54476E-02
 -1      1540-6.48972E-04-2.53719E-03 1.19558E-02
 -1      1541-4.49935E-03 2.23010E-03 2.07318E-02
 -1      1542 3.84687E-03 9.61877E-04-1.93890E-02
 -1      1543-5.30410E-03 1.14788E-03 2.98893E-02
 -1      1544 4.29941E-03-1.15481E-03 5.54278E-02
 -1      1545-5.29408E-03-1.75496E-04 1.85951E-02
 -1      1546-5.61481E-04-1.99493E-03 5.55135E-03
 -1      1547-3.76698E-03 2.88236E-03 2.27922E-02
 -1      1548-3.76025E-03-2.56959E-03 2.42329E-02
 -1      1549-4.59753E-03-1.85239E-04-8.28215E-02
 -1      1550 8.38101E-05-1.85947E-03 7.91672E-03
 -1      1551 3.89300E-05 5.76888E-05-4.50743E-04
 -1      1552-2.55214E-03 2.98847E-03 5.98488E-02
 -1      1553-3.68349E-03 3.06741E-03 4.46760E-02
 -1      1554-1.17548E-03-2.63032E-03-1.60638E-02
 -1      1555-1.72820E-04-2.01204E-03-8.55328E-03
 -1      1556-3.08895E-03-1.97391E-03-1.83565E-02
 -1      1557 4.20054E-04-1.37032E-03-5.67551E-03
 -1      1558 5.48507E-04 3.44150E-04 6.44770E-04
 -1      1559-2.94664E-03 2.61849E-03-1.74379E-02
 -1      1560 4.10006E-03-2.98034E-03-1.87891E-02
 -1      1561-5.09583E-03 6.06925E-04-2.80674E-02
 -1      1562 3.83504E-05 1.14213E-03 4.90023E-03
 -1      1563-3.63726E-03 1.80216E-03-1.97072E-02
 -1      1564 3.54875E-03-1.25888E-03-1.81655E-02
 -1      1565-1.32170E-03 3.11355E-03-1.92954E-02
 -1      1566-7.65090E-05 2.13968E-03-1.00321E-02
 -1      1567 8.34479E-04 1.27003E-03-7.20563E-03
 -1      1568 3.57152E-03-2.74439E-03 2.32313E-02
 -1      1569-4.50081E-04-2.82355E-03-3.32831E-02
 -1      1570-2.59722E-03-2.64619E-03 1.55281E-02
 -1      1571-1.86014E-03 2.63952E-03 6.88255E-02
 -1      1572-1.66668E-03-2.23844E-03-1.17919E-02
 -1      1573-4.94494E-03 2.02781E-03 3.47939E-02
 -1      1574-3.33526E-04 1.57865E-03 7.62351E-02
 -1      1575 5.53293E-03 1.83181E-05-2.32106E-02
 -1      1576-2.05903E-03-4.61218E-04 3.90384E-03
 -1      1577-1.36110E-03-2.42526E-03 1.03064E-02
 -1      1578-8.90543E-04 2.21359E-03-8.31736E-03
 -1      1579-5.07612E-03 1.73982E-05 1.29201E-02
 -1      1580 3.17498E-03 6.85018E-04-1.17584E-02
 -1      1581-7.59741E-03-3.90103E-04 2.25518E-02
 -1      1582-3.17322E-03-2.85495E-03-4.70752E-02
 -1      1583 8.50638E-04-5.56667E-04-3.31468E-03
 -1      1584 1.29233E-03 1.20718E-03 1.34668E-02
 -1      1585-3.10008E-03 2.32844E-03 9.13610E-03
 -1      1586-4.09386E-03 1.25939E-03 7.08284E-02
 -1      1587-5.67362E-03-1.22254E-03 5.74092E-02
 -1      1588 7.79575E-04-1.82009E-03 1.14439E-02
 -1      1589-6.27215E-03 3.69307E-04 3.59733E-02
 -1      1590 3.67774E-03-1.68192E-03 1.94165E-02
 -1      1591 2.76695E-03-2.32753E-03 1.38101E-02
 -1      1592-3.15959E-03 2.69476E-03-5.16670E-02
 -1      1593-5.39742E-04 2.85113E-03-2.10818E-02
 -1      1594 6.31404E-03 6.47817E-04 3.28699E-02
 -1      1595 3.83491E-04 8.44246E-04 3.29964E-03
 -1      1596 1.78463E-03-2.67458E-03-1.15913E-02
 -1      1597-5.45077E-03 1.96840E-04 3.19116E-03
 -1      1598-4.06138E-03 1.50574E-03-3.30810E-02
 -1      1599-5.80969E-04 1.59603E-03-8.45926E-03
 -1      1600-1.73923E-03-6.08535E-04-5.40579E-03
 -1      1601-4.39858E-03 1.51295E-03 1.27644E-02
 -1      1602 3.90703E-03-1.24837E-03-1.38920E-02
 -1      1603-4.54918E-04-5.46689E-04 2.44734E-03
 -1      1604-1.61152E-03-3.25061E-03 2.63131E-02
 -1      1605-3.42803E-03 1.59492E-03-5.71331E-02
 -1      1606 7.94063E-04-2.34374E-03 1.39053E-02
 -1      1607 1.36961E-03 1.34222E-03-1.40265E-02
 -1      1608 1.33109E-04-2.35200E-03-4.32425E-02
 -1      1609-9.08764E-03 8.57841E-04-6.18466E-02
 -1      1610 3.84184E-03-2.90283E-03-1.78901E-02
 -1      1611 1.99887E-03-8.67933E-04-8.82671E-03
 -1      1612 1.45616E-03 3.65351E-04 7.92237E-02
 -1      1613 1.24075E-04 1.49841E-03-5.56862E-03
 -1      1614-3.06739E-03 2.99475E-03-3.54793E-02
 -1      1615-1.96308E-03 2.65967E-03-1.36941E-02
 -1      1616-2.86125E-03-1.54114E-04-1.07712E-02
 -1      1617 3.24831E-03-3.25117E-03-4.08790E-02
 -1      1618 4.10742E-03-6.49366E-05 6.45863E-02
 -1      1619-2.42542E-04-5.64977E-04 1.66673E-03
 -1      1620 4.98403E-03 2.72715E-03 4.09879E-02
 -1      1621 4.31888E-04 2.68539E-04-1.64523E-03
 -1      1622 5.34999E-04-1.94725E-03 4.75330E-03
 -1      1623-7.00789E-04-1.09085E-03-5.21231E-03
 -1      1624-1.75463E-03 9.91155E-04-8.96759E-03
 -1      1625-5.69794E-04-2.76619E-03-2.46401E-02
 -1      1626-5.27758E-03-8.87029E-04-4.42605E-02
 -1      1627 3.37804E-04-3.65041E-04-8.80437E-04
 -1      1628 1.32012E-03-9.57690E-04-9.87769E-03
 -1      1629-7.92207E-03 6.59920E-04-2.82439E-02
 -1      1630-4.11250E-03 2.73056E-03 2.72411E-02
 -1      1631-2.19598E-03 1.55971E-03 6.31855E-03
 -1      1632 4.54368E-05 8.56626E-04 2.10464E-03
 -1      1633-6.00628E-03-2.19250E-04 4.03618E-02
 -1      1634-5.68373E-03-8.43847E-04 1.80596E-02
 -1      1635-1.03888E-03 1.68944E-03 1.32068E-02
 -1      1636-3.13449E-04 1.38633E-03 3.09237E-03
 -1      1637-3.02825E-03 1.37408E-03-2.73272E-02
 -1      1638-6.68072E-04-2.02147E-03-6.63430E-03
 -1      1639-3.27283E-05 2.12070E-03 1.70562E-02
 -1      1640 3.10098E-03 2.11738E-03-1.67342E-02
 -1      1641 5.61793E-03-4.42436E-04 4.33722E-02
 -1      1642-1.61713E-03 1.31472E-03-5.26738E-03
 -1      1643 1.86403E-03-2.40313E-03-1.04461E-02
 -1      1644-2.19073E-03 9.19976E-04-1.04957E-02
 -1      1645-2.28732E-04-2.59976E-03 2.30115E-02
 -1      1646-2.61518E-03 5.03144E-04 7.46173E-03
 -1      1647 5.96185E-03 1.02077E-04 5.02566E-02
 -1      1648-7.41259E-03-4.82174E-04 7.42450E-02
 -1      1649 2.10915E-03-1.08354E-03 7.33925E-03
 -1      1650-4.88995E-03-4.70121E-04-3.35736E-02
 -1      1651 1.53913E-03-1.24920E-03-1.53542E-02
 -1      1652-5.78277E-03-5.50785E-04 2.69655E-02
 -1      1653-5.45553E-04-1.04980E-03 4.05174E-03
 -1      1654 4.46596E-03 1.28343E-03 2.15633E-02
 -1      1655-1.14270E-03-2.87845E-03-2.71388E-02
 -1      1656 3.60097E-03-3.27616E-03 2.99741E-02
 -1      1657-2.72901E-03 3.30935E-03-2.95324E-02
 -1      1658-4.25816E-03-1.38888E-03-1.97824E-02
 -1      1659-1.23919E-02-1.06353E-04 2.77343E-03
 -1      1660 1.14524E-03 7.79799E-04-6.97604E-03
 -1      1661 1.52584E-03-2.87013E-03 2.18639E-02
 -1      1662 3.45771E-04-5.50894E-04 1.49177E-03
 -1      1663-4.03028E-03-1.75898E-03 1.54494E-02
 -1      1664-6.05497E-04 3.43895E-04 1.96944E-03
 -1      1665 2.65866E-03-1.26572E-03-8.42438E-03
 -1      1666-3.29730E-03 1.27763E-03 1.93259E-02
 -1      1667 6.59180E-04 2.83259E-03-2.82821E-02
 -1      1668 5.10487E-03 9.55993E-04-3.09595E-02
 -1      1669 2.24707E-03 3.61559E-03 4.04356E-02
 -1      1670 4.05124E-03-2.99295E-03-2.79543E-02
 -1      1671-3.84542E-04-1.62918E-03-6.99182E-03
 -1      1672 2.21895E-03 3.73257E-04-5.92403E-03
 -1      1673-2.53112E-03 1.06909E-03-1.19159E-02
 -1      1674-2.01989E-03-1.13987E-03-7.43025E-03
 -1      1675 9.33730E-04-2.96668E-03-2.58897E-02
 -1      1676-4.76898E-06 1.95224E-03 1.14959E-02
 -1      1677-1.59942E-04 1.57721E-04 5.01118E-04
 -1      1678-3.35407E-03-6.87988E-04 1.98826E-02
 -1      1679-1.10446E-03 1.08060E-03 6.48761E-03
 -1      1680 2.96627E-03 1.07427E-03-7.36671E-03
 -1      1681-1.01643E-03-1.37833E-03 1.25218E-02
 -1      1682-3.46681E-03-2.64689E-03-3.70753E-02
 -1      1683-3.44909E-05 1.38588E-03 4.16912E-03
 -1      1684 1.04599E-03-2.32696E-03-9.64229E-03
 -1      1685-3.21445E-03-7.16152E-04-1.08775E-02
 -1      1686 4.23926E-04-1.48593E-03-1.03082E-02
 -1      1687 3.16196E-03 2.70504E-03-1.01290E-02
 -1      1688 3.79659E-03 1.40118E-03 1.18327E-02
 -1      1689 1.03061E-03 3.66386E-05-4.31619E-04
 -1      1690-3.45622E-03-2.81088E-04-1.94982E-02
 -1      1691-4.31115E-03 9.95498E-06-6.64775E-03
 -1      1692 7.76089E-05 3.96988E-04 1.24498E-03
 -1      1693-1.48858E-03 7.83003E-04-4.92333E-03
 -1      1694 1.86480E-03 2.98469E-03 1.38020E-02
 -1      1695-6.32851E-04-1.79825E-03 1.48291E-02
 -1      1696-3.54131E-03-2.76669E-03-2.69818E-02
 -1      1697 1.82632E-03 3.11635E-03-1.17265E-02
 -1      1698-2.33767E-03-2.66932E-03-6.31118E-02
 -1      1699 1.64953E-03 2.05770E-03-2.71861E-03
 -1      1700 2.49384E-03-1.98267E-03-6.44636E-03
 -1      1701 3.53381E-03 1.46812E-03 6.34324E-02
 -1      1702 1.71046E-03 5.85509E-04 4.81359E-03
 -1      1703 9.21345E-04-5.62807E-04 8.01613E-02
 -1      1704-3.97340E-03 3.03761E-03 3.20715E-02
 -1      1705-3.53670E-03 2.27093E-03 1.96632E-02
 -1      1706-1.03996E-03-1.04850E-03 5.53718E-03
 -1      1707 2.35738E-04 1.76906E-03-1.36564E-02
 -1      1708-1.32781E-03 2.60256E-03-4.97790E-03
 -1      1709-5.06134E-03 1.29867E-03 5.17576E-02
 -1      1710 2.10445E-03-2.92781E-04-3.65052E-03
 -1      1711-2.29456E-03 6.71782E-05 1.85695E-03
 -1      1712-2.98876E-03-8.46211E-05-1.56143E-03
 -1      1713 2.62564E-03-4.60599E-04-7.28757E-02
 -1      1714 1.04306E-03-1.35016E-04 2.83342E-03
 -1      1715 5.46976E-05 1.55402E-03-3.52240E-03
 -1      1716-1.35899E-04-2.99961E-04 1.26997E-03
 -1      1717-2.54277E-04 8.11387E-04 3.11691E-03
 -1      1718-8.93378E-04-2.99707E-04-1.94339E-03
 -1      1719 9.62538E-04 6.24494E-04 4.00307E-03
 -1      1720-1.52648E-03 1.27259E-03-1.10868E-02
 -1      1721 9.87839E-05-1.93163E-03-9.20121E-03
 -1      1722 2.05909E-04 1.03056E-04-6.30128E-06
 -1      1723 1.36067E-04 5.60113E-04-2.08922E-03
 -1      1724-3.87687E-03 2.31289E-03-2.99857E-02
 -1      1725-1.38024E-03 2.17775E-03 3.71369E-02
 -1      1726-2.06578E-03 1.16227E-03-8.00698E-02
 -1      1727-1.81355E-03 2.27610E-03-6.70135E-02
 -1      1728 8.18959E-04-5.12984E-04 4.00950E-03
 -1      1729-5.10496E-03 4.74670E-04-2.69241E-02
 -1      1730 4.71155E-04-2.63494E-03 1.46697E-02
 -1      1731-3.25234E-03-1.15874E-03-7.50707E-02
 -1      1732-2.50236E-03 2.32574E-03 1.52519E-02
 -1      1733 8.82742E-04-1.54610E-03-1.09234E-02
 -1      1734-5.04503E-03-1.73105E-03 3.36530E-02
 -1      1735 5.02073E-03 1.37874E-03 4.97218E-02
 -1      1736 3.89426E-03-2.94158E-03 5.31290E-02
 -1      1737-2.30466E-03-2.75720E-03-2.46241E-02
 -1      1738-1.62393E-03-1.58186E-03-5.95955E-03
 -1      1739-4.85392E-04 2.28449E-03 1.28591E-02
 -1      1740 2.11405E-03-3.18032E-03-1.95808E-02
 -1      1741 0.00000E+00 0.00000E+00 0.00000E+00
 -1      1742-1.28249E-03-2.25074E-03-1.45297E-02
 -1      1743 1.08003E-04-7.95749E-04 2.66529E-03
 -1      1744 3.17932E-03-6.57732E-04 7.05691E-02
 -1      1745 1.69266E-03-2.22794E-03-9.49562E-03
 -1      1746-1.02532E-03 8.11232E-04-3.50359E-03
 -1      1747 4.48879E-03 2.17314E-03-2.05181E-02
 -1      1748-2.66699E-03-1.65233E-03 5.47798E-02
 -1      1749-3.80196E-03 5.01182E-04 7.30043E-02
 -1      1750-5.03898E-04-1.91268E-03 2.88024E-03
 -1      1751-6.38455E-05-1.03119E-03-2.91379E-03
 -1      1752-3.08357E-03-7.41582E-04 6.44923E-03
 -1      1753 9.32037E-04-2.21803E-03-5.15763E-03
 -1      1754-1.27801E-03-1.98296E-05 6.71403E-04
 -1      1755 3.33523E-03-2.98780E-03 2.96918E-02
 -1      1756 2.72098E-03 2.23925E-03 6.43590E-02
 -1      1757-2.47476E-03 2.86505E-03-1.58265E-02
 -1      1758 1.16768E-03 2.13826E-03-5.48690E-03
 -1      1759-4.21453E-04 6.43865E-04-1.69743E-03
 -1      1760 1.48622E-03 2.35149E-03-8.92317E-03
 -1      1761-5.78866E-03 4.84335E-04-8.04078E-02
 -1      1762-2.04752E-03 1.36259E-03-1.95245E-02
 -1      1763-2.33775E-03 4.57322E-04-3.00689E-03
 -1      1764 5.83376E-04-1.04076E-03-2.91862E-03
 -1      1765-9.46562E-03-1.94116E-04-6.63073E-02
 -1      1766-4.87935E-03-8.23128E-04-5.45739E-02
 -1      1767 4.77373E-03-2.78255E-04-1.98341E-02
 -1      1768-3.87362E-03-1.28646E-03 6.92957E-02
 -1      1769-1.51113E-03 2.22240E-03 5.37441E-02
 -1      1770-2.25346E-03 1.40102E-03-5.97218E-03
 -1      1771 3.91495E-03-4.62636E-04 1.83148E-02
 -1      1772 4.68985E-03 4.93979E-04 1.26372E-02
 -1      1773-3.12408E-03 3.31262E-03 4.49992E-02
 -1      1774-2.89116E-03-3.05368E-03 2.78218E-02
 -1      1775-3.10864E-03 1.95191E-03 7.40982E-03
 -1      1776-3.46125E-03 1.15684E-04 8.55980E-02
 -1      1777-3.22645E-03 8.12157E-04 8.09216E-02
 -1      1778 6.01675E-03-3.37029E-04-5.09826E-02
 -1      1779 1.80142E-03 6.67245E-04-9.12590E-03
 -1      1780 3.38825E-03-3.03668E-03 2.38636E-02
 -1      1781 9.57705E-04 2.55136E-03-1.61513E-02
 -1      1782-1.92799E-03-1.38962E-03-1.72562E-02
 -1      1783-1.58976E-03-1.17812E-03-7.44286E-02
 -1      1784-3.70195E-04-2.73258E-03-2.27105E-02
 -1      1785 9.60828E-04-1.12257E-03 4.71010E-03
 -1      1786-3.26462E-04 2.73391E-03 4.42663E-02
 -1      1787-2.35709E-03 1.02856E-03-7.10749E-03
 -1      1788 3.27469E-04-1.14466E-03 4.67117E-03
 -1      1789-4.43754E-03-2.35487E-03 3.52049E-02
 -1      1790-4.41460E-03 4.43968E-05 1.27076E-04
 -1      1791-3.88971E-03 6.97165E-04 9.53727E-03
 -1      1792-2.10720E-03 5.86181E-04-9.52554E-03
 -1      1793 1.08316E-03-1.93172E-03 7.07199E-03
 -1      1794-2.22975E-03-2.21514E-04-5.40560E-03
 -1      1795-2.59542E-04 2.99893E-03-3.78458E-02
 -1      1796-1.09654E-02 5.84003E-04 1.69471E-02
 -1      1797-1.90444E-04 1.44504E-03 6.86121E-03
 -1      1798-5.44955E-03-7.26381E-04 1.33465E-02
 -1      1799-1.85529E-04-2.65667E-04-7.14449E-04
 -1      1800-8.26628E-04 1.62064E-03 6.43226E-03
 -1      1801-5.76240E-04 2.67966E-03 2.50479E-02
 -1      1802 1.32800E-04 2.80200E-03-1.73594E-02
 -1      1803-6.08557E-04-1.91411E-03-1.51427E-02
 -1      1804-3.02984E-03-2.85308E-03 5.32612E-02
 -1      1805-4.54059E-03 1.31521E-03-5.93426E-02
 -1      1806 6.06350E-04-1.77742E-03 7.60812E-03
 -1      1807-5.37538E-03 3.08076E-04-1.76784E-02
 -1      1808-1.97974E-04-1.99507E-04 2.18435E-04
 -1      1809 1.16217E-03-7.57756E-04 6.46832E-03
 -1      1810-3.76950E-03 6.87632E-04-1.53523E-02
 -1      1811 7.55091E-05 6.73921E-04 4.90089E-04
 -1      1812-5.73813E-03 2.49675E-05-2.55207E-03
 -1      1813-1.28383E-02-7.92611E-04-3.06833E-02
 -1      1814-8.11729E-03 8.00800E-04 6.85423E-02
 -1      1815 2.01721E-05-2.22600E-03-1.60558E-02
 -1      1816 2.03808E-03-2.12079E-04-7.18725E-03
 -1      1817-2.11093E-03 7.87032E-05-8.51464E-02
 -1      1818-2.67690E-04 1.94287E-03-1.06530E-02
 -1      1819 5.59116E-03 6.73453E-04-4.33393E-02
 -1      1820 6.05842E-05-1.33340E-03-3.95484E-03
 -1      1821 2.05408E-05 2.96951E-05-4.37369E-04
 -1      1822-5.45270E-03 9.55570E-04 5.35075E-02
 -1      1823 1.22372E-03-1.59981E-03-1.59842E-02
 -1      1824 5.14646E-03 1.11364E-03 2.68806E-02
 -1      1825 8.87086E-04-1.09059E-03-7.61761E-03
 -1      1826-1.44526E-03 1.84223E-03 5.49103E-03
 -1      1827-2.36566E-04 2.66818E-04-3.11794E-04
 -1      1828-1.10490E-03-1.08510E-03-6.42119E-03
 -1      1829-2.47986E-03-1.92335E-03 8.68259E-03
 -1      1830-4.44855E-03 7.11762E-04-1.93035E-02
 -1      1831-1.35650E-04-2.72697E-03 3.57802E-02
 -1      1832 1.92108E-03 1.10706E-03-1.77482E-02
 -1      1833 4.33591E-04-2.46748E-03 3.67843E-02
 -1      1834 5.10202E-03-1.04421E-03-4.86506E-02
 -1      1835 1.66007E-03-1.09067E-03-5.82924E-03
 -1      1836 4.15727E-03-2.27294E-03-5.61043E-02
 -1      1837 6.36047E-03 3.36312E-04-4.08256E-02
 -1      1838-6.88850E-04-4.55925E-05 1.66294E-04
 -1      1839-1.84123E-03 2.09939E-04-5.86314E-03
 -1      1840-8.57318E-04-2.90341E-03-2.54313E-02
 -1      1841 4.92577E-03 1.54487E-03 4.38077E-02
 -1      1842 8.16362E-04-2.99518E-03-1.61487E-02
 -1      1843 1.83958E-03-9.39978E-04 1.44620E-02
 -1      1844 1.71016E-03 1.70706E-03 7.73777E-03
 -1      1845-1.20503E-02-7.05563E-04 4.74345E-02
 -1      1846-2.69559E-03 1.11126E-03-1.99311E-02
 -1      1847 1.05691E-03-1.83265E-03 1.65757E-02
 -1      1848-1.28022E-02 7.10174E-04 4.79684E-02
 -1      1849-5.04188E-03 5.97050E-04 1.87099E-02
 -1      1850 5.13415E-03 1.96796E-04-4.91514E-03
 -1      1851-1.43242E-03 3.22683E-03 2.85292E-02
 -1      1852 8.20086E-04 1.44906E-03-1.63248E-02
 -1      1853-8.97354E-04-4.69062E-04-8.38744E-02
 -1      1854-3.95960E-04 1.04622E-03 3.70850E-03
 -1      1855-1.30354E-03 5.41105E-04 3.34004E-03
 -1      1856 1.34176E-03-2.89455E-04 1.01594E-03
 -1      1857 1.36014E-03 1.67258E-03-6.54896E-03
 -1      1858-3.22911E-04-1.27313E-03 1.03170E-03
 -1      1859-7.76213E-03-7.62343E-04-6.18458E-02
 -1      1860-3.12538E-03-9.66104E-04 7.93922E-02
 -1      1861 1.56479E-03 5.15790E-05 7.83954E-02
 -1      1862-1.27560E-04 4.52482E-04-1.12310E-03
 -1      1863-9.77105E-04 2.45554E-03-3.06533E-02
 -1      1864-6.64932E-03-8.56233E-04 5.62763E-02
 -1      1865-4.32688E-03 1.34255E-05-1.43294E-03
 -1      1866 1.92271E-03 3.55300E-03-3.24410E-02
 -1      1867-3.44115E-03 9.57847E-04-7.66226E-02
 -1      1868-1.28200E-03-1.10933E-03-4.67146E-03
 -1      1869-4.07702E-03-2.27384E-03-2.81622E-02
 -1      1870-1.34231E-02 7.99000E-04-3.48893E-02
 -1      1871 9.31794E-04 6.33523E-04-4.59500E-03
 -1      1872-2.95181E-03 7.71686E-04-1.39955E-02
 -1      1873-3.48380E-03 2.40434E-04 3.99534E-03
 -1      1874 3.74838E-04 4.42991E-04 7.58197E-04
 -1      1875 2.83711E-04-5.67218E-06 5.22787E-05
 -1      1876-1.02319E-02-8.76251E-04-5.55188E-02
 -1      1877 1.55256E-03-1.44991E-03-1.91996E-02
 -1      1878 2.11188E-03 2.43710E-03-5.77834E-02
 -1      1879-7.23963E-03-4.05452E-04-7.34061E-02
 -1      1880-3.56656E-03 5.84252E-04-7.43600E-03
 -1      1881-2.34320E-03-8.73523E-04 1.26386E-02
 -1      1882-1.02177E-02 9.98922E-04 4.59218E-02
 -1      1883-9.94074E-04 1.95234E-04 8.47863E-02
 -1      1884-1.23189E-03-5.38719E-04-2.87808E-03
 -1      1885-1.61507E-03-7.79079E-04 9.57071E-03
 -1      1886-4.90773E-03 1.84675E-03 5.71647E-02
 -1      1887 9.41286E-05-2.33671E-03 1.66637E-02
 -1      1888 2.55489E-03-5.85102E-04 8.65738E-03
 -1      1889-4.85124E-04 9.88508E-04-3.68740E-03
 -1      1890 0.00000E+00 0.00000E+00 0.00000E+00
 -1      1891-1.63476E-03 1.51781E-03-7.00108E-02
 -1      1892 6.42463E-04-2.80979E-04-1.14025E-03
 -1      1893-5.60200E-03 9.59483E-04-7.17199E-02
 -1      1894-3.12391E-05-3.51702E-04 1.23708E-03
 -1      1895 1.30340E-03 3.68473E-04-3.34647E-03
 -1      1896 8.92924E-04 1.18243E-03 5.20492E-03
 -1      1897-6.79191E-03 2.15520E-04 7.90954E-02
 -1      1898 6.25331E-04-2.35129E-03-9.94516E-03
 -1      1899 0.00000E+00 0.00000E+00 0.00000E+00
 -1      1900-7.86829E-04 1.93783E-03 8.95197E-03
 -1      1901-4.71080E-03 9.08526E-04-7.92188E-02
 -1      1902-1.29557E-03 3.02205E-03-1.21354E-02
 -1      1903 7.93084E-04 1.72733E-03 1.50549E-02
 -1      1904-4.08304E-03-4.42469E-04 1.14981E-02
 -1      1905 4.46139E-03 1.82393E-03-4.20995E-02
 -1      1906 5.79623E-04 1.04179E-03 7.95879E-02
 -1      1907 2.78262E-04 2.10019E-03-5.41637E-03
 -1      1908-5.97557E-04-9.66612E-04-3.69818E-03
 -1      1909 6.54432E-05-3.63538E-04-1.24680E-03
 -1      1910-1.87701E-03 1.09721E-03 1.23133E-02
 -1      1911-9.46563E-03 7.74227E-05-1.17397E-03
 -1      1912-4.29167E-03 1.55844E-04-8.39040E-02
 -1      1913-2.18121E-03-1.56793E-03-6.48832E-03
 -1      1914 1.74911E-03 5.37098E-04 8.90449E-03
 -1      1915 0.00000E+00 0.00000E+00 0.00000E+00
 -1      1916 1.41923E-03-3.20287E-03-2.44000E-02
 -1      1917 1.02105E-03 9.80835E-04 8.48991E-03
 -1      1918-7.00293E-04-1.09239E-03 6.72485E-03
 -1      1919-1.06286E-04 6.02926E-05 1.18438E-05
 -1      1920-4.61969E-03-1.43775E-03 1.83016E-02
 -1      1921-2.68194E-04-1.51795E-03-1.98898E-03
 -1      1922 2.84222E-03-1.42680E-03 6.88464E-02
 -1      1923 3.16855E-03-3.37187E-03-2.75911E-02
 -1      1924 3.18682E-03-1.12108E-03 6.64368E-02
 -1      1925-1.26919E-03 3.43516E-03-3.16944E-02
 -1      1926 1.97308E-03-4.90630E-04-1.12753E-02
 -1      1927-6.22523E-04 2.33373E-03-1.31795E-02
 -1      1928-5.01075E-03-1.60454E-03-4.03389E-02
 -1      1929 1.74274E-03 1.74840E-03 7.39267E-02
 -1      1930 2.10396E-03-1.60112E-03-5.83015E-03
 -1      1931-3.54188E-03-2.13145E-04 3.15542E-03
 -1      1932 8.13360E-04-2.77321E-03 2.30602E-02
 -1      1933-1.35792E-02-1.20871E-04-4.14991E-02
 -1      1934-2.04965E-03-4.38653E-04 8.48659E-02
 -1      1935-7.23485E-03 3.66578E-05 5.12825E-03
 -1      1936 0.00000E+00 0.00000E+00 0.00000E+00
 -1      1937-3.41881E-03-3.85183E-04 7.60741E-03
 -1      1938 1.52761E-03-5.37086E-04-5.31045E-03
 -1      1939-3.17173E-03 1.07387E-03-7.54291E-02
 -1      1940-3.84381E-03 3.00712E-03-3.57567E-02
 -1      1941 4.78042E-03 1.78178E-03 5.30347E-02
 -1      1942-3.67790E-03 3.30829E-03 2.38268E-02
 -1      1943 4.82347E-05 1.65882E-03-9.23950E-03
 -1      1944-1.54725E-03-2.03550E-03 5.16581E-03
 -1      1945-2.32098E-03-3.05387E-03 2.97658E-02
 -1      1946-3.51418E-03-8.84673E-04 7.76823E-02
 -1      1947 4.53910E-03-1.17845E-03-2.78228E-02
 -1      1948-1.02576E-02-3.51811E-04 2.19396E-02
 -1      1949 6.49475E-04 2.93341E-03-2.07696E-02
 -1      1950-4.84334E-03-1.38693E-03 5.73162E-02
 -1      1951-1.94505E-03 3.25644E-03 2.58553E-02
 -1      1952-1.34795E-03 2.66379E-03 2.19843E-02
 -1      1953-5.21450E-03-9.35748E-04 3.43715E-02
 -1      1954 3.27379E-03-1.43543E-03-6.62723E-02
 -1      1955 1.23740E-04-1.10148E-03 2.62037E-03
 -1      1956 1.45677E-03-5.84529E-04-1.69247E-02
 -1      1957 2.70174E-04-2.67351E-03 2.49811E-02
 -1      1958 1.06676E-03 1.19220E-03-3.26288E-03
 -1      1959 6.23639E-04 5.86673E-04-2.96629E-03
 -1      1960 2.94294E-03 1.75686E-03 6.66243E-02
 -1      1961-1.15912E-03 6.62228E-04 3.53710E-03
 -1      1962-6.39104E-03 8.07829E-04-7.35214E-02
 -1      1963-3.24856E-03 5.54559E-04-8.38796E-02
 -1      1964 1.35372E-04-1.15071E-03 4.72286E-03
 -1      1965-6.50396E-03-1.21962E-03 4.14194E-02
 -1      1966 6.42399E-03 2.35769E-04-2.20086E-02
 -1      1967 3.38791E-03 3.98419E-04-7.54061E-03
 -1      1968-1.43574E-02 5.70011E-04 1.01277E-02
 -1      1969 1.64303E-03-1.42361E-03 1.49662E-02
 -1      1970-3.69550E-03 9.90568E-04 2.02030E-02
 -1      1971-2.92698E-03-2.57925E-03-5.80859E-02
 -1      1972 1.49888E-03 3.22964E-03-2.46206E-02
 -1      1973-3.54526E-03 8.81737E-04-2.23845E-02
 -1      1974-5.13415E-03-4.16326E-04-1.62013E-02
 -1      1975-2.06687E-03-1.88216E-04 8.58553E-02
 -1      1976-4.29882E-03 1.01346E-03 1.78009E-02
 -1      1977-1.46329E-02-2.62069E-05 1.48987E-02
 -1      1978 3.96225E-03 3.12384E-03 2.18079E-02
 -1      1979 8.91198E-04 1.02748E-03 3.75596E-03
 -1      1980 1.97734E-03-6.92702E-04 1.56152E-02
 -1      1981-3.87149E-03 1.54222E-03 3.84721E-02
 -1      1982 1.78271E-03-6.66942E-04 8.67505E-03
 -1      1983-1.43432E-02 1.02571E-04 3.37730E-02
 -1      1984 4.24096E-03-3.05956E-03-4.07904E-02
 -1      1985-1.41041E-03-1.23768E-03-1.10491E-02
 -1      1986 5.29242E-03-2.09409E-03-3.80394E-02
 -1      1987-4.62735E-03 6.59337E-04-8.75844E-03
 -1      1988 1.43269E-03-1.86928E-03-6.64851E-02
 -1      1989 4.79430E-03 4.23247E-04-6.24962E-02
 -1      1990 1.41940E-03 1.59510E-03-2.04625E-02
 -1      1991 2.10392E-03 7.37733E-04-1.33597E-02
 -1      1992 1.46665E-03-1.15110E-03-7.80405E-02
 -1      1993 7.89439E-04-3.14440E-03 4.82831E-02
 -1      1994-3.03095E-03 9.37656E-06-7.76886E-03
 -1      1995-2.61968E-03-1.79798E-03 5.39903E-03
 -1      1996 4.95448E-03-2.29008E-03-3.54147E-02
 -1      1997-2.17378E-03 1.89215E-03-2.67411E-02
 -1      1998-2.53025E-03 1.70528E-03-4.36459E-02
 -1      1999-1.71921E-03 1.75407E-03 6.77261E-03
 -1      2000-7.64917E-04 1.42761E-03-7.43018E-02
 -1      2001-5.52164E-03 4.89541E-04 5.11802E-02
 -1      2002 1.00006E-04-1.75093E-03-3.33084E-03
 -1      2003 5.36459E-03 4.70053E-04-2.86954E-02
 -1      2004-1.13459E-03 1.68472E-03-1.39084E-02
 -1      2005-4.42326E-03-5.76598E-04-1.05713E-02
 -1      2006-4.64904E-03 1.14822E-03 7.20660E-02
 -1      2007 4.53268E-04 1.73929E-04 8.20119E-02
 -1      2008 4.19293E-04-1.39127E-03 7.81843E-02
 -1      2009-6.94861E-03 6.33381E-05-7.79094E-02
 -1      2010 2.33578E-04 1.61248E-03 3.25089E-03
 -1      2011 7.52879E-04-2.40531E-03-6.04162E-02
 -1      2012 3.25775E-03-2.55692E-03-5.64497E-02
 -1      2013-5.40431E-05 4.89344E-04 1.35255E-03
 -1      2014-3.61819E-03 4.41977E-05-3.03834E-04
 -1      2015 0.00000E+00 0.00000E+00 0.00000E+00
 -1      2016-1.00985E-04-3.10791E-04 4.73021E-04
 -1      2017-4.74756E-03-3.22042E-04 2.32934E-02
 -1      2018-1.85506E-03-9.11061E-04 1.42070E-02
 -1      2019-6.95584E-03 5.99348E-04-9.80430E-03
 -1      2020-5.65385E-03 1.62994E-04-8.07394E-02
 -1      2021 2.64637E-04-6.40694E-04 3.07057E-03
 -1      2022-4.90782E-03 1.39037E-03-4.35417E-02
 -1      2023-5.16950E-03 7.36302E-04-4.61303E-02
 -1      2024-1.58661E-03-2.32019E-03 6.58640E-02
 -1      2025-2.58319E-04-1.74303E-03-9.55785E-03
 -1      2026 1.55191E-05-2.44682E-03-1.65198E-02
 -1      2027 2.43073E-04-9.40542E-04-3.19495E-03
 -1      2028 1.28440E-03 2.18524E-03 6.93995E-03
 -1      2029-8.23877E-03 6.02069E-04-7.19219E-02
 -1      2030-2.04528E-03 2.08775E-03-3.54333E-02
 -1      2031-2.35321E-04-8.95905E-04-2.27175E-03
 -1      2032-1.76903E-03-1.13397E-03 8.14296E-02
 -1      2033-5.27950E-04-3.01645E-04 8.43808E-02
 -1      2034 1.71825E-03 9.81778E-04 1.63237E-02
 -1      2035 8.09328E-05 2.52825E-03-4.77140E-02
 -1      2036-7.70967E-04 3.32860E-03-2.78694E-02
 -1      2037 1.65860E-03-1.19779E-03-1.83062E-02
 -1      2038-4.39560E-03-1.11063E-03-1.07243E-02
 -1      2039 4.48085E-03 2.87696E-03 2.14738E-02
 -1      2040 1.00021E-03-1.56822E-03 4.04561E-03
 -1      2041-1.45071E-02 2.90459E-04-1.00074E-02
 -1      2042-1.45457E-02 3.97183E-04 2.32387E-02
 -1      2043-7.98053E-03 1.06797E-03 3.96292E-02
 -1      2044-3.67625E-03-1.33479E-03 3.06990E-02
 -1      2045-6.60618E-06 5.90165E-04 1.52456E-03
 -1      2046-5.80922E-03 4.63550E-04-1.03178E-02
 -1      2047-2.53937E-03 7.35945E-04-6.51795E-03
 -1      2048 2.84220E-03-2.50111E-03 1.83855E-02
 -1      2049-9.14815E-03-1.93413E-04 1.37030E-02
 -1      2050 7.99488E-04-1.76434E-03-1.52446E-02
 -1      2051 1.38973E-03-1.13345E-03-1.26196E-02
 -1      2052-3.76247E-03 1.66823E-03 7.08052E-02
 -1      2053 1.90969E-03 1.31580E-04-7.87755E-02
 -1      2054-3.74289E-04-1.36703E-03 6.76950E-03
 -1      2055-3.50367E-03-3.19559E-04 8.49730E-02
 -1      2056 1.95110E-03 4.57033E-04 1.05750E-02
 -1      2057-1.32642E-03-1.85132E-03-2.18081E-02
 -1      2058 3.43568E-03-1.29362E-04-7.04440E-02
 -1      2059-4.79918E-04 1.11053E-05-8.33736E-02
 -1      2060-2.79960E-03 1.94988E-03 1.06441E-02
 -1      2061 3.53770E-03 2.22629E-04 7.15231E-03
 -1      2062 2.04291E-03 2.68364E-04 5.57594E-03
 -1      2063 5.25980E-03-1.14669E-04 2.58878E-02
 -1      2064 5.61076E-03 2.97696E-04 2.77075E-02
 -1      2065 1.00478E-03-2.22116E-03 1.54406E-02
 -1      2066-3.77032E-03 3.27017E-03 3.59970E-02
 -1      2067 5.37150E-03-1.16056E-03 3.66586E-02
 -1      2068-4.12165E-04 9.24922E-04-2.41012E-03
 -1      2069-4.43919E-03-2.01545E-03-3.58056E-02
 -1      2070-3.36842E-03 2.48605E-03-1.87720E-02
 -1      2071-3.03474E-03 1.95463E-03-1.51172E-02
 -1      2072-1.61003E-03 8.61171E-04-4.44517E-03
 -1      2073 3.87034E-04 1.78880E-03-6.76376E-02
 -1      2074 5.34962E-03-9.55244E-04-3.65861E-02
 -1      2075 5.49706E-04 2.30872E-03 6.09560E-02
 -1      2076-2.97395E-03-1.29243E-03 7.62515E-02
 -1      2077-1.25704E-02 1.19001E-03 3.49506E-02
 -1      2078-1.22710E-02-6.99817E-05-5.51130E-03
 -1      2079-1.92053E-03-1.91379E-03-4.55837E-02
 -1      2080 4.24188E-03-2.85785E-03-4.98295E-02
 -1      2081 2.08225E-05-1.32492E-04-5.73533E-04
 -1      2082-4.17092E-03 2.16655E-03-3.61703E-02
 -1      2083-1.12628E-02 8.83817E-04-2.81806E-02
 -1      2084-4.97306E-03 4.99434E-05 1.60381E-02
 -1      2085 3.82192E-03-3.21390E-03-3.74933E-02
 -1      2086-2.33309E-03-7.33446E-04-9.51188E-03
 -1      2087 4.25729E-03-3.08718E-03-3.11672E-02
 -1      2088 1.59223E-03-2.58902E-04 5.94586E-03
 -1      2089-4.73727E-03-1.31594E-04-2.39910E-02
 -1      2090 3.48097E-03 2.78427E-03 3.94404E-03
 -1      2091-1.41114E-02-1.69549E-04-1.14385E-02
 -1      2092-3.38565E-03-6.69606E-04 8.25719E-02
 -1      2093 4.43096E-03-1.23016E-03 2.15575E-02
 -1      2094 3.68811E-04 2.79122E-03-5.40387E-02
 -1      2095-8.41044E-04 1.44472E-03-5.14370E-03
 -1      2096 6.02152E-04 1.98766E-03 1.66135E-02
 -1      2097 1.68707E-03-1.23364E-04-7.42359E-03
 -1      2098 4.61585E-03-2.33531E-03 3.70976E-02
 -1      2099-1.47572E-02 2.25028E-04-2.80926E-02
 -1      2100-2.43671E-03 7.43581E-04 8.54161E-02
 -1      2101-2.90201E-03 2.30383E-04 1.21992E-03
 -1      2102 9.79901E-04-2.80011E-03-1.03268E-02
 -1      2103-1.71467E-03 2.59293E-03-5.97833E-02
 -1      2104-2.94100E-03 2.48671E-03-6.37011E-02
 -1      2105-4.12904E-03 2.45590E-03 3.72711E-02
 -1      2106 1.95844E-03 7.25015E-04-9.74557E-03
 -1      2107-3.59952E-03-2.03832E-03 1.95441E-02
 -1      2108 1.30087E-03-2.51386E-03 1.06836E-02
 -1      2109-8.62320E-03-1.55134E-05 4.85152E-03
 -1      2110-1.87594E-03 1.23807E-03-1.53714E-02
 -1      2111-4.87605E-03-7.89367E-04-7.51266E-02
 -1      2112-3.06569E-04-7.61476E-04 8.24885E-02
 -1      2113-1.10767E-03-2.02223E-03-6.98174E-02
 -1      2114-6.07052E-03 8.43121E-04 3.19588E-02
 -1      2115-9.71882E-03-2.89685E-05 6.58270E-02
 -1      2116-5.11877E-03 1.67143E-03 2.39367E-02
 -1      2117 3.33431E-03-8.76708E-04-6.34953E-02
 -1      2118 1.55555E-04-4.76704E-04 6.47019E-04
 -1      2119-1.80176E-03 1.91589E-03 2.47895E-02
 -1      2120 1.07422E-03 2.02656E-03 6.78311E-02
 -1      2121-3.75932E-03 2.20152E-03-4.23443E-02
 -1      2122-2.47501E-03-1.97349E-04-8.53325E-02
 -1      2123 1.82673E-03 3.17329E-03-1.81338E-02
 -1      2124-1.41536E-02-1.24389E-04 7.93070E-03
 -1      2125-2.62078E-03 8.39697E-04-8.21461E-02
 -1      2126 6.56004E-04-2.98293E-03-3.82343E-02
 -1      2127-1.60611E-03-2.63332E-03-2.15839E-02
 -1      2128-3.14431E-04-2.71937E-03-3.50987E-02
 -1      2129-2.66225E-03-2.76946E-03-2.94314E-02
 -1      2130 1.34937E-03 5.69059E-04 2.94648E-03
 -1      2131-9.71906E-03 7.36807E-04 6.30241E-02
 -1      2132-4.06471E-03-8.99541E-04-1.32039E-02
 -1      2133 1.95923E-03 8.68214E-04-1.91567E-02
 -1      2134-9.79448E-04 1.02109E-03-7.42028E-03
 -1      2135-2.18406E-03 2.51409E-04-1.26103E-03
 -1      2136-2.11733E-03 1.52307E-03-1.43150E-02
 -1      2137-8.17723E-03 9.37174E-04-4.98704E-02
 -1      2138 4.11853E-04 1.46839E-03-9.09359E-03
 -1      2139 5.28543E-04-1.06917E-03-4.34230E-03
 -1      2140-3.90193E-03-7.25985E-04 2.49304E-02
 -1      2141 3.59516E-04-7.88857E-04-2.80920E-03
 -1      2142-1.84957E-03-1.80418E-03-5.85517E-02
 -1      2143-1.71502E-03 2.54274E-03 1.04896E-02
 -1      2144 4.34036E-03 3.05448E-03-4.27277E-02
 -1      2145-1.80590E-03 1.48587E-03 7.19176E-02
 -1      2146 4.07595E-03-3.00430E-03 3.83883E-02
 -1      2147-1.26885E-02 1.12273E-03-2.57891E-02
 -1      2148-3.41176E-03 2.41865E-03-5.60695E-02
 -1      2149 4.53695E-03-1.84015E-03 5.53543E-02
 -1      2150-1.91900E-03 1.47119E-03 1.80808E-02
 -1      2151-6.02241E-04-1.24837E-03-7.88972E-02
 -1      2152 4.02915E-04-2.10140E-03-4.63086E-02
 -1      2153 3.02652E-03 1.92956E-03-6.56338E-02
 -1      2154 4.86442E-07 1.06823E-03-2.15602E-03
 -1      2155 8.21568E-05 1.80756E-03 4.19183E-03
 -1      2156 4.23519E-03-6.40204E-04 5.84783E-02
 -1      2157 5.76133E-04-2.13811E-03 9.97575E-03
 -1      2158-3.96994E-04-1.74014E-03-6.86403E-02
 -1      2159 4.73615E-03-1.71865E-03 3.74011E-02
 -1      2160 3.79733E-03-7.43185E-04-1.49433E-02
 -1      2161 1.71013E-04 5.77734E-04 1.47071E-03
 -1      2162 1.32992E-03 1.98742E-03 7.09035E-02
 -1      2163 3.29453E-03-3.09300E-03 4.47634E-02
 -1      2164-5.04973E-04-2.23923E-03-5.03370E-02
 -1      2165-1.89546E-03-9.47821E-05 5.39994E-03
 -1      2166-2.65298E-03-2.27451E-03 6.27097E-02
 -1      2167-3.63216E-03-1.31010E-03-6.76197E-02
 -1      2168-3.03173E-03-4.75002E-04 4.96430E-03
 -1      2169-3.62114E-03 1.39003E-03-6.83743E-02
 -1      2170-8.83280E-04-2.28607E-03 3.27318E-02
 -1      2171-6.77474E-03-5.60860E-04-7.16248E-02
 -1      2172 1.42596E-03 2.40243E-03-7.26335E-03
 -1      2173-1.60289E-04-2.02941E-03 5.82747E-03
 -1      2174-3.70823E-03-1.23596E-03 6.85476E-02
 -1      2175-1.13619E-03-1.21152E-03 7.71526E-02
 -1      2176 5.25563E-03-1.52768E-03-3.82512E-02
 -1      2177 1.68358E-03 2.59529E-03-6.19493E-03
 -1      2178-2.33826E-03-3.44736E-04 7.34694E-03
 -1      2179 1.68736E-03-2.14033E-03 6.22624E-02
 -1      2180-4.02790E-03 2.73491E-03 4.20543E-02
 -1      2181-9.97187E-03 1.07972E-03-4.74803E-02
 -1      2182 6.93199E-04 3.24844E-03 2.86987E-02
 -1      2183-1.36186E-04-8.67025E-04 4.10959E-04
 -1      2184 2.95524E-03 3.02993E-04 7.24499E-02
 -1      2185-1.00279E-02-6.73172E-04-4.39495E-02
 -1      2186 8.10645E-04-3.09149E-03 3.60795E-02
 -1      2187 2.78090E-03-2.47390E-03 1.52830E-02
 -1      2188 2.64551E-03-3.34692E-03 3.79014E-02
 -1      2189-3.40258E-03-5.60408E-04 6.47658E-03
 -1      2190-9.40778E-04-2.32816E-03 1.22607E-02
 -1      2191-5.88461E-03 1.02609E-03-6.06873E-02
 -1      2192 3.08444E-03-2.87619E-03 2.71288E-02
 -1      2193 3.38232E-04 1.19607E-03 5.75105E-03
 -1      2194-1.14471E-03 3.16684E-03 3.78616E-02
 -1      2195-2.37159E-03-2.47818E-03-1.42257E-02
 -1      2196-6.35550E-04-9.56016E-04-3.28278E-03
 -1      2197 4.14354E-04-3.03820E-03-2.64187E-02
 -1      2198-2.35543E-03-1.96848E-03-3.30433E-02
 -1      2199-1.31277E-02 5.36634E-04-1.12106E-02
 -1      2200-2.51886E-03 2.51515E-03 6.70000E-02
 -1      2201-3.35741E-03 2.79100E-03 5.73908E-02
 -1      2202-5.20458E-03-1.54169E-03 3.76341E-02
 -1      2203-5.63776E-04 1.64600E-03 7.29143E-02
 -1      2204-9.89127E-05 1.14933E-03-3.56226E-03
 -1      2205-1.09940E-03 2.21492E-03-5.10853E-02
 -1      2206 2.06092E-04-2.28201E-03 9.48763E-03
 -1      2207 2.11875E-03-2.85460E-03 1.56613E-02
 -1      2208 1.65698E-03 1.01700E-03 6.24200E-03
 -1      2209 3.12186E-03-2.59308E-03 1.40555E-02
 -1      2210-1.40518E-03 2.05104E-03-7.15816E-02
 -1      2211 3.55287E-03-1.67905E-03 5.87624E-02
 -1      2212 1.01278E-03-3.24118E-03-3.27869E-02
 -1      2213-5.62634E-04 2.40144E-03-4.03692E-02
 -1      2214-8.82099E-03-6.85770E-04-6.51354E-02
 -1      2215-2.58747E-03-1.08364E-03-8.39610E-02
 -1      2216 2.22878E-03-2.74124E-03-5.20457E-02
 -1      2217-2.55683E-03-2.41133E-03-6.52736E-02
 -1      2218 2.10561E-03 5.02238E-04 1.18388E-02
 -1      2219 9.54797E-05 7.90576E-04-2.17677E-03
 -1      2220 3.67415E-06-1.07054E-03-8.09656E-02
 -1      2221-2.57829E-03 1.87199E-03 3.35343E-02
 -1      2222 8.18657E-04-1.82452E-03 7.13351E-02
 -1      2223 2.33001E-04 2.42453E-03 3.67644E-02
 -1      2224-1.65627E-03-2.58646E-03 5.80681E-02
 -1      2225-4.91080E-03 1.07285E-03-3.62540E-02
 -1      2226 3.73072E-04 1.26342E-03-9.48244E-04
 -1      2227-1.84210E-03 6.92479E-04 7.64401E-03
 -1      2228 5.42602E-04-8.54563E-04 5.41084E-03
 -1      2229-8.27646E-03 9.81695E-04-5.73941E-02
 -1      2230-1.15032E-03-4.87255E-04-2.07151E-03
 -1      2231 1.21665E-03-9.46489E-04 5.96660E-03
 -1      2232 2.59813E-03-1.44586E-03 8.09694E-03
 -1      2233-1.19600E-03 2.22111E-03-6.22052E-02
 -1      2234-3.71908E-03 2.64815E-03 1.93501E-02
 -1      2235-2.85111E-03 1.22446E-03 8.07316E-02
 -1      2236-1.09340E-03-3.03929E-03 2.48947E-02
 -1      2237-2.63832E-03 1.15388E-03 1.92161E-02
 -1      2238-8.42538E-03 3.80017E-04-7.26984E-03
 -1      2239-1.05940E-02 5.26562E-04 5.83659E-02
 -1      2240 3.74836E-03 1.46011E-03 8.53309E-03
 -1      2241 2.38273E-03 8.50551E-04 7.33800E-02
 -1      2242-9.85666E-03 1.04296E-03 5.81814E-02
 -1      2243-3.91135E-04-2.56034E-03 4.56893E-02
 -1      2244 3.65667E-03 8.81294E-04 6.58449E-02
 -1      2245-1.25133E-03-1.58445E-03 1.99993E-02
 -1      2246-5.98399E-03-8.94381E-04 4.61555E-02
 -1      2247 2.76557E-03 3.24747E-03 2.70309E-02
 -1      2248 6.23272E-05 2.71139E-03-3.25347E-02
 -1      2249 1.25180E-03 1.46251E-03 1.88273E-02
 -1      2250 2.97890E-04 2.44364E-03-1.84332E-02
 -1      2251 7.72629E-04 5.49397E-04 8.02325E-02
 -1      2252-5.04054E-03 2.61608E-04-4.09918E-02
 -1      2253 3.23350E-03 6.84953E-04 1.26717E-03
 -1      2254 2.46103E-03-1.30680E-03-4.84246E-03
 -1      2255-3.18265E-03-1.03591E-03-7.37676E-02
 -1      2256-7.50561E-03 1.10836E-03-5.86333E-02
 -1      2257 8.88130E-04 9.28030E-04-3.10385E-03
 -1      2258-6.43947E-03-7.83232E-04 3.05967E-02
 -1      2259-1.32358E-03 2.07801E-03-4.57787E-02
 -1      2260-4.56813E-03 6.00894E-04 6.33052E-02
 -1      2261-1.27259E-02-3.71479E-04-1.82395E-02
 -1      2262 3.93655E-03 3.20076E-03 4.22244E-02
 -1      2263-4.17593E-03-1.42456E-03-4.13492E-02
 -1      2264-1.59353E-03-2.07957E-03 4.31073E-02
 -1      2265 1.85854E-04-2.94650E-03 4.36822E-02
 -1      2266 1.43122E-05-2.77932E-03 3.92239E-02
 -1      2267 1.33809E-03 1.09282E-03-5.87505E-03
 -1      2268 2.02965E-03 1.33459E-03 7.28281E-02
 -1      2269-2.64697E-03 6.08269E-04-5.50793E-03
 -1      2270 2.71146E-03-1.94396E-03-6.52031E-02
 -1      2271-2.19512E-04 9.77068E-04 2.00010E-03
 -1      2272 7.81980E-04 3.07354E-03-3.71629E-02
 -1      2273-5.01932E-04 2.22841E-04 8.36449E-02
 -1      2274-1.15414E-03 5.35421E-04-2.24381E-03
 -1      2275-7.02104E-03-6.49439E-04-3.23250E-02
 -1      2276 3.29498E-03 2.64296E-03 1.64194E-02
 -1      2277-1.19032E-03 6.76787E-04 8.36136E-02
 -1      2278-5.81266E-04 2.95345E-03-4.67543E-02
 -1      2279 0.00000E+00 0.00000E+00 0.00000E+00
 -1      2280-4.76840E-03 1.14696E-03-6.71106E-02
 -1      2281 7.05146E-04 9.36651E-04 5.43837E-03
 -1      2282-4.20111E-05 2.55781E-04 4.89886E-04
 -1      2283-4.11078E-04-9.87592E-04 3.69539E-03
 -1      2284-1.00928E-03 2.30320E-03 6.38798E-02
 -1      2285-3.82472E-04 1.94038E-03 6.75035E-02
 -1      2286 7.37489E-04 1.38193E-03 1.14066E-02
 -1      2287 1.43255E-03-1.54132E-03-2.14150E-02
 -1      2288-1.54400E-03-6.06564E-04-3.72763E-03
 -1      2289-3.78151E-03-2.34080E-03-3.83006E-02
 -1      2290 2.98764E-03-2.80929E-03 5.54850E-02
 -1      2291-2.49825E-03 1.29462E-03-7.84701E-02
 -1      2292 3.75991E-03 7.85763E-04-1.56278E-02
 -1      2293 1.29956E-03 1.79521E-04 5.43559E-04
 -1      2294-1.20607E-03-1.87279E-03 6.89655E-02
 -1      2295-1.54551E-03 1.98397E-03-3.97972E-02
 -1      2296-1.53069E-03-2.02626E-03 2.68051E-02
 -1      2297 1.11717E-03-1.26152E-03 7.71620E-02
 -1      2298-2.63447E-03-9.45220E-04 8.22130E-02
 -1      2299-4.54885E-03 1.03205E-03-2.62317E-02
 -1      2300-3.52828E-05-1.62952E-04 6.49704E-04
 -1      2301-1.10739E-02 1.09992E-03 4.81147E-02
 -1      2302-1.52538E-03-7.53109E-04 4.48819E-03
 -1      2303-8.29200E-04-2.73324E-03-3.65928E-02
 -1      2304-2.48499E-03 3.12377E-03-3.60174E-02
 -1      2305-2.53150E-05 1.32397E-03 7.94000E-02
 -1      2306-6.62846E-03 1.01085E-03-5.31650E-02
 -1      2307-1.02321E-02-1.77757E-04 8.25717E-03
 -1      2308 7.85754E-05 5.75631E-04-1.76283E-03
 -1      2309-8.75255E-03-4.48126E-04 2.61377E-02
 -1      2310-1.69191E-03 3.12277E-03-1.45746E-02
 -1      2311-2.56353E-04-2.43303E-03-4.87229E-02
 -1      2312-6.72618E-03 6.64167E-04-2.31200E-02
 -1      2313 2.81313E-04-2.94936E-03-1.91727E-02
 -1      2314-2.20999E-03 6.69387E-04 7.16749E-03
 -1      2315-2.28317E-03-1.93458E-03 6.34459E-02
 -1      2316 2.18173E-03-2.01773E-03 7.07496E-02
 -1      2317-9.56150E-03 1.16540E-03-3.92976E-02
 -1      2318-9.65917E-03 6.98244E-04-2.46108E-02
 -1      2319 3.75802E-03-1.76416E-03-6.46181E-02
 -1      2320-9.30650E-03-4.93581E-04-6.48353E-02
 -1      2321-1.09527E-05 5.48841E-04-1.03403E-03
 -1      2322-1.00897E-03 7.82030E-04 4.35979E-03
 -1      2323-9.10498E-03-8.30993E-04 5.72216E-02
 -1      2324 3.10626E-04 2.95073E-03-2.52018E-02
 -1      2325 2.74622E-03 2.94864E-03-2.17139E-02
 -1      2326-3.91653E-03 5.82544E-04-7.00952E-02
 -1      2327-3.25043E-03 1.38064E-03-6.77586E-02
 -1      2328-1.64323E-03-1.84911E-03-7.32158E-03
 -1      2329-2.08611E-03 1.32434E-03 7.75077E-03
 -1      2330 4.93421E-03 1.23473E-03-3.32357E-02
 -1      2331-6.25969E-04 1.04077E-03-4.47987E-03
 -1      2332-8.42594E-03-8.59486E-04 4.31080E-02
 -1      2333-3.15161E-03-1.48249E-03-1.34452E-02
 -1      2334-1.20607E-03-1.52801E-03-1.67221E-02
 -1      2335 1.51864E-03-2.83094E-03-1.48877E-02
 -1      2336-1.12319E-03-5.39046E-04 3.82805E-03
 -1      2337-4.86849E-04 7.77077E-05 1.87492E-04
 -1      2338 3.85455E-05-1.05843E-03-2.62780E-03
 -1      2339-6.75538E-03-3.47841E-04 1.61276E-02
 -1      2340-5.53408E-03-1.22034E-03-4.23604E-02
 -1      2341 4.51542E-03 2.15581E-03 2.50305E-02
 -1      2342-7.07695E-03 1.00509E-03-6.71490E-02
 -1      2343-2.63899E-03-8.72252E-04-7.86389E-02
 -1      2344-5.02755E-03-1.04587E-03-6.82188E-02
 -1      2345-3.99554E-03 1.29290E-03-4.77568E-02
 -1      2346-6.61596E-04-1.12163E-05-3.08219E-02
 -1      2347-1.09036E-02 6.76321E-04-5.61499E-02
 -1      2348-1.26678E-02-8.14082E-04-4.45464E-02
 -1      2349 2.54190E-04-1.48436E-03-7.38340E-02
 -1      2350 0.00000E+00 0.00000E+00 0.00000E+00
 -1      2351 1.12863E-03 2.43011E-03-9.46068E-03
 -1      2352 3.52252E-03 3.04156E-03 3.33836E-02
 -1      2353-6.01599E-03-1.54598E-04 8.19293E-02
 -1      2354-1.72827E-03 3.24057E-03-2.30638E-02
 -1      2355 0.00000E+00 0.00000E+00 0.00000E+00
 -1      2356-3.58743E-04 1.15707E-03 5.91522E-03
 -1      2357-3.23661E-03 8.12186E-04-8.13915E-02
 -1      2358-4.42147E-03 6.13431E-04-8.20745E-02
 -1      2359-3.27969E-03 1.38858E-04-8.43931E-02
 -1      2360-5.02813E-03-1.09914E-03 5.31457E-02
 -1      2361 6.31877E-03 6.72706E-05-3.67988E-02
 -1      2362 4.93667E-03 8.82609E-06-1.98981E-02
 -1      2363-2.31507E-03 1.75769E-03-6.68727E-02
 -1      2364-9.68629E-05-1.14508E-04 5.24900E-03
 -1      2365-2.45387E-03-2.00468E-03-4.09947E-02
 -1      2366 1.97864E-03-2.10576E-04-7.73169E-02
 -1      2367 4.96115E-03-1.50923E-03-5.40793E-02
 -1      2368-2.41719E-03-2.84780E-03-2.24096E-02
 -1      2369 4.99428E-03-8.19754E-04-5.50418E-02
 -1      2370-3.35306E-04 3.54909E-04 2.12667E-02
 -1      2371-1.29206E-02 7.08007E-04 1.33850E-02
 -1      2372 4.35333E-03-2.69942E-03-2.65343E-02
 -1      2373-1.49017E-02 2.14395E-04-1.53775E-02
 -1      2374-2.56413E-03 1.70479E-03 4.61240E-02
 -1      2375-5.10164E-03-5.12002E-04-7.84977E-02
 -1      2376 2.04982E-03-4.62999E-04 8.81131E-03
 -1      2377-1.14437E-02 9.30750E-04 3.04113E-02
 -1      2378-1.40453E-02-2.14923E-04 3.31883E-02
 -1      2379-1.50345E-02 1.49990E-04 1.49851E-02
 -1      2380-5.92790E-03 1.09031E-03 3.61986E-02
 -1      2381-1.15354E-03-1.16057E-03-7.67933E-02
 -1      2382 4.28951E-03 1.35380E-03 6.26703E-02
 -1      2383-5.40210E-03 9.93008E-04-2.48385E-02
 -1      2384-2.88149E-03-3.09449E-04-8.52647E-03
 -1      2385-1.46988E-02 7.31156E-05-2.49427E-02
 -1      2386 4.09697E-03 2.48099E-03-5.32473E-02
 -1      2387-1.13354E-02-8.10296E-04 3.74695E-02
 -1      2388 3.39088E-03 2.92554E-03-3.28380E-02
 -1      2389 3.91536E-03 3.07841E-03-2.45600E-02
 -1      2390-1.12937E-02-6.43021E-04-3.04680E-02
 -1      2391-6.01802E-04 2.23004E-03-1.69247E-02
 -1      2392 4.55034E-03 2.66873E-03-2.99190E-02
 -1      2393-4.84067E-03-8.19985E-04 6.26452E-02
 -1      2394-4.82890E-03 8.37560E-04 8.04919E-02
 -1      2395-2.56573E-03-1.15895E-03 7.39683E-02
 -1      2396-6.27583E-03-2.82354E-04-7.91572E-02
 -1      2397-8.05767E-03-2.52810E-04-7.33202E-02
 -1      2398 6.88216E-04 1.19554E-03-3.08312E-03
 -1      2399-7.10090E-03 4.45995E-04-7.74983E-02
 -1      2400-1.05671E-02-7.17104E-04-5.64914E-02
 -1      2401-6.21882E-03-1.11491E-03 3.72341E-02
 -1      2402-8.45632E-03 9.61416E-05-7.22583E-02
 -1      2403-5.09427E-03 1.03549E-03-4.81559E-02
 -1      2404-4.98152E-03 7.85216E-04-3.24277E-02
 -1      2405-1.58024E-03-2.34840E-03 6.57587E-02
 -1      2406-3.49449E-03 1.62971E-03-4.13476E-02
 -1      2407-2.08517E-03-2.09447E-03 6.91981E-02
 -1      2408-5.67637E-05-4.22908E-04-6.94475E-04
 -1      2409 1.64809E-03 3.46277E-03 1.64746E-02
 -1      2410-1.36461E-04-6.71679E-04-1.63009E-03
 -1      2411-5.66449E-04-9.88882E-04-4.10573E-03
 -1      2412 4.38421E-03 3.21073E-03 2.86746E-02
 -1      2413-7.20171E-03 1.14958E-03 5.90144E-02
 -1      2414-3.48806E-03 4.47917E-04 8.46017E-02
 -1      2415 1.35825E-03-3.54846E-03 3.92502E-02
 -1      2416-3.00008E-04-1.68139E-03 9.86452E-03
 -1      2417-1.63087E-04-1.06747E-03 3.43719E-03
 -1      2418 4.87997E-03 5.51930E-04 1.79543E-02
 -1      2419 1.83491E-04 2.69826E-03 2.07566E-02
 -1      2420 1.26149E-03-2.99416E-03 2.68417E-02
 -1      2421-2.97999E-03-8.18847E-04 2.44922E-03
 -1      2422-2.51872E-03-9.14033E-04-1.66219E-02
 -1      2423-2.26443E-03-3.76749E-04-4.13969E-03
 -1      2424-3.47823E-03-6.86264E-04-8.19351E-02
 -1      2425-5.36855E-03-7.39163E-04 7.69162E-02
 -1      2426-3.69894E-03 1.48128E-03 4.72062E-02
 -1      2427-3.98771E-03 6.35002E-04-6.00302E-02
 -1      2428 7.74393E-04 2.36071E-03-5.99474E-02
 -1      2429-1.03330E-03 1.19235E-03-4.08665E-03
 -1      2430-4.83042E-03 2.05414E-03 3.19145E-02
 -1      2431-2.60109E-03 5.85625E-04-8.41665E-02
 -1      2432-1.66866E-03-2.70192E-03-2.98189E-02
 -1      2433 1.71980E-03 6.65432E-04-5.06339E-03
 -1      2434-7.87060E-03 4.86977E-04 7.32165E-02
 -1      2435-2.60011E-03 1.14297E-03 7.61123E-02
 -1      2436 1.68549E-03-2.79353E-03 5.17485E-02
 -1      2437 2.92516E-03-3.13273E-03 4.03582E-02
 -1      2438-3.34862E-03 7.58234E-04 1.29937E-02
 -1      2439 2.43479E-04 1.90113E-03-5.12740E-03
 -1      2440-9.61805E-03 4.17845E-04-6.52895E-02
 -1      2441-1.29118E-04 5.63186E-04-2.54819E-03
 -1      2442-8.42912E-03-8.21984E-04 5.33863E-02
 -1      2443-7.76415E-03-7.67258E-04 3.57178E-02
 -1      2444 4.13111E-03-2.01159E-03 2.14915E-02
 -1      2445 2.85523E-03 1.45433E-03 9.93829E-03
 -1      2446 1.75198E-03-3.30550E-03 4.41124E-02
 -1      2447-9.37222E-03-6.39557E-04-5.59971E-02
 -1      2448 1.97887E-03-2.31992E-03-6.07471E-02
 -1      2449-2.01299E-04 2.47378E-03 3.07418E-02
 -1      2450-9.44082E-04-2.49492E-03 5.53549E-02
 -1      2451-1.14666E-02 1.57945E-05-5.59058E-02
 -1      2452-1.82618E-03-2.64049E-03 1.50424E-02
 -1      2453 1.17221E-03 3.14896E-03 1.74490E-02
 -1      2454 1.36699E-03 2.60738E-03 7.45250E-03
 -1      2455 1.72940E-03 3.01225E-03 1.15533E-02
 -1      2456 1.87262E-03 3.71019E-03 2.66666E-02
 -1      2457-2.51932E-03 2.24820E-04 8.59008E-02
 -1      2458 2.58714E-03-3.03718E-03 2.85971E-02
 -1      2459-9.92092E-03-5.32517E-04 6.27032E-02
 -1      2460 3.92022E-03 2.46382E-03 5.44281E-02
 -1      2461-3.71584E-03 1.83465E-03-2.00166E-02
 -1      2462-2.46298E-03 2.46529E-03-6.02217E-02
 -1      2463-7.16702E-03-7.30963E-04-5.06584E-02
 -1      2464 1.90787E-03 1.25841E-03 3.74741E-03
 -1      2465 6.25687E-03 8.88311E-04 4.82372E-02
 -1      2466-6.09868E-03 6.14217E-04 7.89771E-02
 -1      2467-2.39377E-03-1.11527E-04 2.46897E-03
 -1      2468-3.02862E-03-1.06880E-03 2.49217E-02
 -1      2469 1.07802E-03-1.12912E-03-3.83133E-03
 -1      2470 3.32611E-04-1.49951E-03-7.26401E-03
 -1      2471-3.56953E-03-9.89844E-04-2.64359E-02
 -1      2472-2.23953E-03-2.43286E-03 6.04824E-02
 -1      2473-1.71856E-03 1.70898E-03-5.11633E-03
 -1      2474 0.00000E+00 0.00000E+00 0.00000E+00
 -1      2475 1.46425E-03 1.33818E-03 2.23644E-02
 -1      2476-2.03462E-03 3.02861E-03 5.43845E-02
 -1      2477-3.36021E-03-2.49998E-03 4.99603E-02
 -1      2478 2.31299E-04-2.39025E-03 4.60106E-02
 -1      2479-3.04023E-04-2.55644E-03-2.99996E-02
 -1      2480-1.61497E-03-2.38146E-03-6.82766E-02
 -1      2481-3.67534E-04-2.44385E-03-1.39551E-02
 -1      2482-4.08055E-03-5.76620E-04-1.88005E-02
 -1      2483-3.44474E-03-1.38785E-03-3.45123E-02
 -1      2484-1.06078E-02-8.48476E-04-4.66626E-02
 -1      2485-4.52410E-03 5.68404E-04 8.28051E-02
 -1      2486 1.37619E-04-2.49597E-03-3.69472E-02
 -1      2487 1.40016E-03-1.33811E-03-1.96828E-03
 -1      2488 1.65968E-03-1.49237E-03 2.07757E-02
 -1      2489 3.71171E-03 3.17774E-03-3.70193E-02
 -1      2490 5.05346E-03 1.64666E-03 2.72032E-02
 -1      2491 1.29740E-03 1.64345E-03-2.07261E-02
 -1      2492-7.85207E-03 7.18386E-04-6.98120E-02
 -1      2493-1.01440E-03 1.15225E-03 9.85383E-03
 -1      2494 5.55813E-04 1.40962E-03-7.72029E-02
 -1      2495 8.27931E-04-1.89981E-03-3.86044E-02
 -1      2496 9.23405E-06 2.40919E-03-1.08610E-02
 -1      2497 3.98770E-04 5.12621E-04 2.17119E-03
 -1      2498 8.54413E-05-3.90214E-05-1.17624E-02
 -1      2499-1.08965E-02 1.09188E-03-5.18148E-02
 -1      2500-4.23794E-04-6.12478E-04 2.43747E-03
 -1      2501-4.56236E-05-2.63001E-03 2.70318E-02
 -1      2502-2.43629E-03-7.01255E-04-2.73640E-03
 -1      2503-1.36346E-03-3.11509E-03 1.92669E-02
 -1      2504-3.23396E-03-2.44375E-03 1.57411E-02
 -1      2505-5.54480E-03 1.36279E-03 4.47084E-02
 -1      2506-1.30431E-02 1.79091E-04 4.76682E-02
 -1      2507-2.47713E-03-1.49070E-03-2.48279E-02
 -1      2508-8.62681E-03-5.65835E-04 6.62525E-02
 -1      2509-5.14400E-03-9.04524E-04-2.93582E-02
 -1      2510-8.75952E-03-5.57820E-04-3.58489E-02
 -1      2511-5.23569E-03-1.98474E-04 5.39398E-03
 -1      2512-6.75991E-04 1.85154E-03 6.12392E-03
 -1      2513-5.77449E-03-5.80887E-04 4.42687E-02
 -1      2514-3.65543E-03 1.24444E-03-2.76837E-02
 -1      2515 2.41396E-03 1.16376E-03-7.00973E-02
 -1      2516-1.58398E-04-2.47366E-03-5.69937E-02
 -1      2517 3.12681E-04 2.91809E-03 5.33088E-02
 -1      2518 2.87599E-03-2.79325E-03-1.62644E-02
 -1      2519 3.56496E-03-3.37668E-03-2.81759E-02
 -1      2520 1.92464E-03-5.16184E-04-9.66157E-03
 -1      2521-1.93969E-03 3.42717E-03-3.30022E-02
 -1      2522 1.63766E-03-1.61097E-03-7.36614E-02
 -1      2523-3.00568E-03-6.41346E-04 1.44352E-02
 -1      2524-1.39464E-04-2.55328E-03 3.15768E-02
 -1      2525 1.90240E-04 2.70921E-03-3.49600E-02
 -1      2526 7.89294E-04 2.97752E-03 2.18011E-02
 -1      2527-4.51480E-03-9.79905E-04 7.49678E-02
 -1      2528-3.34616E-03 3.27027E-03 3.62906E-02
 -1      2529-2.50471E-03 6.67117E-04 8.23930E-02
 -1      2530-3.35225E-03 1.30637E-03 7.36095E-02
 -1      2531 3.30610E-03-1.98881E-03 6.47379E-02
 -1      2532-4.40076E-03-1.05247E-03 6.95225E-02
 -1      2533-3.66884E-03 6.01626E-04 8.32442E-02
 -1      2534-2.58375E-03 1.52787E-03-5.00467E-02
 -1      2535 4.31757E-04 2.96167E-03 4.48211E-02
 -1      2536-1.16625E-03-9.83436E-04 2.82111E-03
 -1      2537 0.00000E+00 0.00000E+00 0.00000E+00
 -1      2538-7.82246E-03 6.09902E-04 1.37212E-02
 -1      2539-1.57045E-03-2.92348E-03 1.83722E-02
 -1      2540-1.00234E-02-1.94937E-04-1.40111E-02
 -1      2541-1.43352E-02-1.28893E-04-2.59212E-02
 -1      2542 2.74567E-04-2.01146E-03 4.73885E-02
 -1      2543-8.43084E-03-5.35358E-04-5.31187E-02
 -1      2544 5.76673E-03 2.44057E-04-5.43023E-02
 -1      2545 1.66492E-03 1.50396E-03-2.35782E-02
 -1      2546-9.15393E-03 7.20672E-04-6.51289E-02
 -1      2547-3.67118E-03-2.91128E-03 4.02530E-02
 -1      2548-5.59035E-03 4.50924E-04 2.02260E-02
 -1      2549-1.81989E-03-8.43999E-04 6.30642E-03
 -1      2550-8.96381E-03 7.11419E-04 2.37917E-02
 -1      2551-1.45992E-03 2.30034E-03 3.04334E-02
 -1      2552-1.98521E-03 1.22089E-03-7.36407E-02
 -1      2553 3.17099E-03 2.78115E-04-7.19018E-02
 -1      2554-1.19234E-03-1.96836E-03 7.13926E-02
 -1      2555-5.41777E-03-1.84787E-04-6.76825E-03
 -1      2556-1.23171E-04-2.56751E-03 1.46387E-02
 -1      2557 1.18168E-03-3.17775E-03-4.20731E-02
 -1      2558 9.03846E-04 3.19943E-03 4.67921E-02
 -1      2559-3.58640E-03 1.60299E-03-5.94694E-02
 -1      2560-8.73326E-03-4.42990E-04 6.98171E-02
 -1      2561 2.56513E-03 3.54178E-03 3.09934E-02
 -1      2562-7.39037E-03-6.27046E-04-4.10227E-02
 -1      2563 7.41481E-04 1.09429E-03 2.22502E-03
 -1      2564-5.26037E-03-1.29911E-03-2.32888E-02
 -1      2565-2.57441E-03-1.58470E-03-9.93224E-03
 -1      2566 1.79263E-03 8.58077E-04 1.71761E-02
 -1      2567 4.76531E-04 2.54082E-03-3.97894E-02
 -1      2568 8.88841E-04 1.90603E-03 1.97277E-03
 -1      2569-7.18269E-05 2.81059E-03-2.89453E-02
 -1      2570-3.08438E-03-1.36889E-03-5.17073E-02
 -1      2571-9.61537E-03 4.76252E-04 4.58922E-03
 -1      2572-6.49103E-03 1.28513E-03 4.56909E-02
 -1      2573-2.97510E-03-1.55977E-03-2.92786E-02
 -1      2574 3.98207E-04-1.93541E-03-1.54707E-02
 -1      2575-1.34389E-04 5.17797E-05-8.31439E-02
 -1      2576-1.72164E-03 1.22154E-03 2.35146E-03
 -1      2577 5.23591E-04-3.75603E-04-8.14514E-02
 -1      2578-5.90941E-03-1.10486E-03 6.70918E-02
 -1      2579 0.00000E+00 0.00000E+00 0.00000E+00
 -1      2580-8.47287E-05 2.83538E-03 3.21201E-02
 -1      2581-3.41953E-03-1.38327E-03-6.02772E-02
 -1      2582-2.22378E-03-9.88179E-04 1.95322E-02
 -1      2583-2.67793E-03 2.92202E-03-4.87803E-02
 -1      2584-9.20978E-03 8.48143E-04 4.73108E-02
 -1      2585-1.46430E-02 3.28027E-04-1.81998E-02
 -1      2586-4.43437E-03 1.13080E-03-7.21524E-02
 -1      2587 1.34992E-03 5.75160E-04-7.86573E-02
 -1      2588 1.67515E-03 3.15160E-03 4.76810E-02
 -1      2589-8.82669E-03 1.12535E-03 5.60489E-02
 -1      2590-7.25572E-03 9.89651E-04 5.07441E-02
 -1      2591-2.83040E-03 3.78012E-04-8.12559E-02
 -1      2592-6.63744E-03 8.72388E-04-3.69017E-02
 -1      2593-3.20268E-04-2.69538E-03-4.09210E-02
 -1      2594-2.00031E-03 1.18217E-03-1.29677E-02
 -1      2595-1.51323E-03 1.86348E-03-7.36130E-02
 -1      2596-3.92211E-03-8.44128E-05-8.43731E-02
 -1      2597-2.61394E-03 3.16473E-03 3.22385E-02
 -1      2598-3.05837E-04 4.21847E-04 1.59332E-02
 -1      2599 3.03718E-03 2.09215E-03-1.62464E-02
 -1      2600-4.95637E-03 1.24116E-03-4.32483E-02
 -1      2601 2.56808E-04-2.81431E-03-3.42510E-02
 -1      2602-5.17452E-04-2.40074E-03 3.75754E-02
 -1      2603-5.84517E-03-9.04431E-04 7.27526E-02
 -1      2604-1.99798E-03 2.60668E-03 1.60305E-02
 -1      2605-5.76999E-03 8.59129E-04 7.30844E-02
 -1      2606-5.80380E-03-8.36365E-04-4.29529E-02
 -1      2607 1.79661E-03 1.27233E-03-2.06040E-02
 -1      2608-5.43428E-04-2.45906E-03-4.37517E-02
 -1      2609-8.44504E-03 8.67317E-04-3.44318E-02
 -1      2610 9.46084E-04 2.40948E-03 8.45712E-03
 -1      2611-7.75294E-03 1.06542E-03 6.52974E-02
 -1      2612-3.06678E-04 2.41303E-03 1.12524E-02
 -1      2613 2.50600E-04-1.95389E-03-4.74403E-02
 -1      2614 1.93042E-03 2.15522E-03-6.49623E-02
 -1      2615-1.01738E-02-7.94677E-04 3.64001E-02
 -1      2616-1.05558E-02-8.55567E-04 4.97480E-02
 -1      2617-3.04932E-03 1.82430E-03 5.58692E-02
 -1      2618-2.49956E-03-1.77531E-03 3.07703E-02
 -1      2619 4.82305E-03-1.43622E-03 4.54756E-02
 -1      2620-6.47819E-04-1.55281E-03 4.83136E-03
 -1      2621 0.00000E+00 0.00000E+00 0.00000E+00
 -1      2622-4.66479E-03 7.84874E-05 1.01456E-02
 -1      2623-1.35386E-03-1.82873E-03-6.61747E-02
 -1      2624-2.10749E-04 2.81162E-03 5.09293E-02
 -1      2625-9.02131E-04 2.65168E-03 5.75086E-02
 -1      2626-1.95063E-03 2.26972E-03 5.94117E-02
 -1      2627-7.73984E-04 2.20418E-03 1.96236E-02
 -1      2628 2.37651E-03 2.85982E-03 4.93314E-02
 -1      2629-3.07032E-03-1.77972E-03 3.92492E-02
 -1      2630-5.75448E-03-1.12726E-03 3.87755E-02
 -1      2631 5.77595E-04-2.89125E-03-5.01016E-02
 -1      2632 2.46918E-03-3.55081E-03-4.15370E-02
 -1      2633 1.96971E-04-1.91119E-03 9.42547E-03
 -1      2634-1.40985E-03 2.19158E-03 7.24937E-02
 -1      2635-4.14488E-03-1.20671E-03-4.82169E-02
 -1      2636-1.11218E-02 1.24158E-03-3.78534E-02
 -1      2637-9.49261E-04-3.05075E-03 3.91267E-02
 -1      2638-4.78572E-03 1.14868E-03 2.87230E-02
 -1      2639-2.52079E-03-1.60989E-04 2.90080E-03
 -1      2640-7.23427E-03-6.51328E-04 7.10329E-02
 -1      2641 2.22904E-03-2.66618E-03 5.65061E-02
 -1      2642 1.92245E-05 1.49765E-03 8.01823E-03
 -1      2643-1.49696E-03-2.29681E-03-2.85398E-02
 -1      2644-1.46670E-03-2.30351E-03-3.84791E-02
 -1      2645-6.96570E-04 2.93196E-03 4.45153E-02
 -1      2646-4.37572E-03-1.01809E-03-3.07661E-02
 -1      2647 3.69452E-03 2.94746E-03 1.52262E-02
 -1      2648-3.00169E-03 2.90169E-03-2.73112E-02
 -1      2649-9.87724E-03 9.54961E-04 3.34347E-02
 -1      2650-2.26461E-03-2.96615E-03 4.82298E-02
 -1      2651 8.24878E-04-9.08723E-04 4.31233E-03
 -1      2652 2.34810E-03-2.20009E-03 8.90062E-03
 -1      2653-5.79887E-04 1.39030E-03-7.76664E-02
 -1      2654-1.17396E-02-3.65918E-04 1.43830E-02
 -1      2655 3.05277E-03 2.68947E-03-5.47829E-02
 -1      2656-4.75515E-03 1.41551E-03 4.42706E-02
 -1      2657-8.31015E-04 2.42960E-03-5.62273E-02
 -1      2658-6.98104E-03 7.40585E-04 2.76077E-02
 -1      2659 1.78691E-03 5.79642E-04 4.91235E-03
 -1      2660 1.42032E-03 1.29042E-03 1.90976E-02
 -1      2661-3.17587E-03 1.41098E-03 2.63246E-02
 -1      2662 2.76037E-03 2.87912E-03-4.62179E-02
 -1      2663-5.02502E-03 1.13605E-03 3.73366E-02
 -1      2664-8.48611E-03 1.92785E-04 7.30466E-02
 -1      2665 1.29069E-03-1.19995E-03-3.66943E-03
 -1      2666-1.15005E-03-1.55042E-03 1.58647E-02
 -1      2667 2.10455E-04-1.81989E-03 6.89871E-02
 -1      2668 1.29439E-03 2.93548E-03 1.13306E-02
 -1      2669 2.38529E-03-2.41315E-03 6.40834E-02
 -1      2670-2.03923E-03-1.30599E-03 2.47808E-02
 -1      2671 0.00000E+00 0.00000E+00 0.00000E+00
 -1      2672 5.21462E-03 9.51507E-04 1.28551E-02
 -1      2673 3.05771E-03-2.24861E-03-1.44991E-02
 -1      2674 0.00000E+00 0.00000E+00 0.00000E+00
 -1      2675 3.84738E-05 2.60225E-03-3.43004E-02
 -1      2676-8.37165E-04 3.15961E-03-4.10461E-02
 -1      2677-1.65139E-03-3.06539E-03 2.52908E-02
 -1      2678-6.34771E-03-8.14468E-04-6.67985E-02
 -1      2679 1.21203E-03 3.57922E-03 3.52771E-02
 -1      2680 2.29214E-03 2.56025E-03 5.67860E-02
 -1      2681 4.08326E-04 3.05995E-03 3.77895E-02
 -1      2682-1.07949E-02 2.28421E-04 1.15934E-03
 -1      2683 7.03674E-04 2.14504E-03 4.23848E-02
 -1      2684-4.37477E-04 2.57113E-03-4.54603E-02
 -1      2685-7.25069E-03-8.68290E-04 4.78106E-02
 -1      2686-2.57904E-03-1.59598E-03 6.92940E-02
 -1      2687-3.62552E-03-2.42220E-03-2.77272E-02
 -1      2688-2.56325E-04-5.26170E-04-2.16028E-03
 -1      2689-1.05744E-02 8.78187E-04 5.49509E-02
 -1      2690 4.47804E-03 2.74158E-03-4.02863E-02
 -1      2691-1.45909E-03 1.80303E-03-1.98571E-02
 -1      2692 3.57148E-03 2.75535E-03-2.07134E-02
 -1      2693-3.18211E-03-3.22413E-03 3.79149E-02
 -1      2694-5.05443E-03 1.17746E-03-5.45245E-02
 -1      2695-8.01377E-03 5.22077E-04-1.85106E-02
 -1      2696-1.49419E-02 1.75411E-04 3.69639E-03
 -1      2697-2.92508E-04-4.02462E-05 2.97655E-02
 -1      2698-2.60551E-04 3.04736E-04-2.14667E-02
 -1      2699-8.71279E-04 4.36384E-04-3.79638E-02
 -1      2700 5.91373E-03-4.49029E-04-3.28684E-02
 -1      2701-3.93171E-03-1.30267E-03 6.03504E-02
 -1      2702-4.60928E-03 3.36657E-04-8.29160E-02
 -1      2703-3.82601E-03-1.30969E-03 5.42989E-02
 -1      2704 2.27660E-03 2.86822E-03-1.69864E-02
 -1      2705-1.09920E-02 2.34872E-04-9.19540E-03
 -1      2706-9.92027E-03 4.67429E-04-1.32174E-02
 -1      2707-2.75590E-03-2.07207E-03-1.63670E-02
 -1      2708-1.00641E-02-8.15791E-04 4.79099E-02
 -1      2709-1.24698E-02 7.58802E-04-4.74758E-02
 -1      2710-1.46478E-03-5.58571E-04-4.48853E-03
 -1      2711-7.68031E-04-3.40521E-05-5.63401E-04
 -1      2712-1.37637E-03 1.21842E-04 5.30690E-04
 -1      2713 5.30506E-04 1.86305E-04-3.26347E-05
 -1      2714-6.02338E-03-2.01274E-04 2.13327E-02
 -1      2715 3.39011E-03 2.86879E-03 5.29296E-02
 -1      2716 5.21645E-04 2.76100E-03-1.39992E-02
 -1      2717 1.26331E-03 9.16753E-04-2.10144E-03
 -1      2718-3.13011E-03-1.51042E-03 4.75761E-02
 -1      2719 4.04530E-03 3.19095E-03 3.49402E-02
 -1      2720 2.63421E-03 2.39485E-03-1.44508E-02
 -1      2721 1.85457E-03 1.04536E-03-7.04120E-03
 -1      2722 4.49274E-04 1.04568E-03 3.01708E-03
 -1      2723 4.50329E-03-4.28081E-04-6.20529E-02
 -1      2724-1.32310E-02-1.76997E-04 4.63381E-02
 -1      2725-7.07637E-05 2.46702E-03 4.88831E-02
 -1      2726-1.15982E-02-1.23945E-04-1.72166E-02
 -1      2727-5.91834E-03-6.53018E-04 7.94282E-02
 -1      2728 2.82194E-03 3.06548E-03-4.20944E-02
 -1      2729-6.34258E-03 1.18622E-03-4.67508E-02
 -1      2730-3.71834E-03-2.61165E-03-2.64635E-02
 -1      2731-1.33933E-02-5.03232E-04 3.04303E-02
 -1      2732-1.07731E-02-7.21976E-04 5.49290E-02
 -1      2733-5.39185E-03 1.11336E-04-8.15430E-02
 -1      2734-5.02613E-03-1.32716E-03 2.43559E-02
 -1      2735-7.11665E-03 1.82493E-04-3.33957E-03
 -1      2736 1.27381E-03 3.49257E-03 2.37223E-02
 -1      2737-2.34302E-04-1.55931E-03-4.46203E-03
 -1      2738-5.58236E-03 1.34523E-03 6.16284E-02
 -1      2739 1.04797E-03 7.33258E-04 3.42341E-03
 -1      2740-6.39570E-03-2.60581E-04-2.08132E-02
 -1      2741-4.08681E-03 5.91598E-04 7.89086E-03
 -1      2742-2.52218E-03 9.38768E-04 1.34029E-02
 -1      2743 2.90839E-03 3.13483E-03 3.93311E-02
 -1      2744 0.00000E+00 0.00000E+00 0.00000E+00
 -1      2745-5.77415E-04 1.88595E-03-6.58903E-02
 -1      2746-2.54246E-03-2.84906E-03-4.72639E-02
 -1      2747 2.85406E-04-2.42099E-03 6.14010E-02
 -1      2748 1.19112E-03 3.25714E-03-4.47206E-02
 -1      2749 1.93260E-03 2.65661E-03-5.08202E-02
 -1      2750-1.72192E-03-8.92699E-04-8.20074E-02
 -1      2751-3.76547E-03 1.04769E-03 7.70442E-02
 -1      2752 0.00000E+00 0.00000E+00 0.00000E+00
 -1      2753-8.74181E-03-1.16702E-04-2.35681E-02
 -1      2754 2.28946E-03 3.38278E-03-3.81975E-02
 -1      2755 1.30840E-03 3.28796E-03-3.91467E-02
 -1      2756-2.30453E-03 7.36072E-04 8.49642E-02
 -1      2757 9.59071E-04 2.25757E-03 6.30256E-02
 -1      2758-8.65204E-04 2.38816E-03 2.57537E-02
 -1      2759 4.58551E-03 4.58841E-04 6.07817E-02
 -1      2760-5.70182E-03-9.63289E-04-5.94884E-02
 -1      2761-2.88262E-03-2.38935E-04 3.48172E-03
 -1      2762-1.12169E-02-3.87493E-05 5.61341E-02
 -1      2763-1.36384E-03 2.71251E-03 6.19997E-02
 -1      2764-4.75297E-03 7.09279E-04 2.11668E-02
 -1      2765 7.92706E-04-2.02839E-03 4.17699E-02
 -1      2766-6.23941E-03 8.70642E-04 9.34758E-03
 -1      2767-3.30031E-03-7.62141E-04-2.07313E-02
 -1      2768 3.44628E-03-2.76825E-03-1.03868E-02
 -1      2769-8.75734E-03-1.47846E-04 7.09910E-02
 -1      2770 4.77014E-03 1.79855E-03 1.81832E-02
 -1      2771 5.04309E-03 1.93108E-03 3.65864E-02
 -1      2772 1.77437E-03 2.45711E-03 5.53471E-02
 -1      2773-2.91834E-03-1.40428E-03-7.47427E-02
 -1      2774-5.48159E-04-3.38670E-04-3.15526E-02
 -1      2775-7.56401E-03-1.07253E-04-2.26650E-02
 -1      2776 0.00000E+00 0.00000E+00 0.00000E+00
 -1      2777-1.00563E-02-3.97578E-04-2.69033E-02
 -1      2778-3.26815E-03 1.55577E-03-3.46375E-02
 -1      2779 2.11892E-03 1.49772E-03-7.16479E-02
 -1      2780-2.41373E-03 3.38263E-03-2.33576E-02
 -1      2781-6.09657E-03 1.16315E-03 6.70148E-02
 -1      2782-3.47182E-03-4.85930E-04 7.34441E-02
 -1      2783-1.85652E-03 1.17969E-03 7.95296E-02
 -1      2784-2.02108E-03 1.90878E-03-5.42918E-02
 -1      2785-1.41908E-04-2.61231E-03 1.95594E-02
 -1      2786-9.32552E-04 2.34409E-03 4.37849E-02
 -1      2787-2.81137E-03-1.50072E-03-5.63982E-02
 -1      2788 3.90655E-04-2.30886E-03 4.78696E-02
 -1      2789-1.88913E-03-2.13419E-03 3.68643E-02
 -1      2790-3.24728E-03-5.09832E-04-7.76087E-02
 -1      2791-1.79923E-03-2.10688E-03 7.06226E-02
 -1      2792-1.45668E-03 2.00717E-03 2.11748E-02
 -1      2793-1.77125E-03-1.39455E-03-7.07427E-02
 -1      2794-4.06991E-03 1.65899E-03-4.69573E-02
 -1      2795-5.32308E-03-1.25152E-03-2.61808E-02
 -1      2796 1.97007E-04 2.62939E-03-4.35296E-02
 -1      2797 5.07897E-04 1.97133E-03-5.08685E-02
 -1      2798-1.00994E-03 5.93746E-04-8.35349E-02
 -1      2799-4.11536E-03-1.29680E-03 3.75493E-02
 -1      2800 0.00000E+00 0.00000E+00 0.00000E+00
 -1      2801-7.18526E-03-9.19688E-04 6.22934E-02
 -1      2802 5.42532E-04-2.45646E-03 3.00901E-02
 -1      2803-4.20702E-03 1.25478E-03-5.30465E-02
 -1      2804-4.40400E-03-1.32916E-03 4.29007E-02
 -1      2805-3.65041E-04-2.44596E-03-4.46716E-02
 -1      2806-3.51800E-03-2.98025E-03-3.72122E-02
 -1      2807-5.99246E-03-9.46899E-04-4.95673E-02
 -1      2808-6.76077E-03 8.00366E-04 7.45360E-02
 -1      2809 2.33664E-04 2.38307E-03 1.11889E-02
 -1      2810-7.28184E-03 9.13878E-04-3.77368E-02
 -1      2811-5.49473E-04 1.57965E-03 8.94009E-03
 -1      2812 1.13145E-03 1.91988E-03-7.17803E-02
 -1      2813-3.02952E-03 1.63981E-03 6.69072E-02
 -1      2814-2.54334E-03-1.53959E-03-6.44921E-02
 -1      2815 1.20605E-03 2.79109E-03 5.43924E-02
 -1      2816 2.54667E-03 3.34173E-03-2.59532E-02
 -1      2817 1.91377E-03-3.04367E-03-5.03955E-02
 -1      2818-2.76298E-04-2.65211E-03 4.56924E-02
 -1      2819-1.42706E-03-3.02251E-03 3.40810E-02
 -1      2820-9.34149E-03 4.99758E-04 6.76650E-02
 -1      2821-1.14604E-03-2.61675E-03-3.36535E-02
 -1      2822-1.27234E-02-3.77141E-04 1.74371E-02
 -1      2823-8.20998E-04 9.85536E-04-8.12625E-02
 -1      2824-6.86402E-03 3.44851E-04 2.02564E-02
 -1      2825 0.00000E+00 0.00000E+00 0.00000E+00
 -1      2826-3.43347E-03-2.68607E-03-4.87440E-02
 -1      2827-1.16691E-03-1.42325E-03 7.36590E-02
 -1      2828 1.31161E-03 2.90286E-03-5.02812E-02
 -1      2829-2.25392E-03 2.28256E-03 7.26275E-02
 -1      2830-3.25726E-04 2.67828E-03-5.07696E-02
 -1      2831-6.32484E-03-8.18987E-04 5.32302E-02
 -1      2832-9.76812E-04 2.51890E-03-2.29516E-02
 -1      2833-2.23637E-03-3.15511E-03 3.75469E-02
 -1      2834-8.55000E-04-5.47790E-04 2.64108E-02
 -1      2835-1.46502E-03 2.39705E-04 3.95421E-02
 -1      2836 2.91959E-03 2.99506E-03 4.31452E-02
 -1      2837 2.46979E-03 2.60248E-03 6.20471E-02
 -1      2838-1.42699E-03-2.11428E-03 4.95290E-02
 -1      2839-6.44460E-04 2.78518E-03 4.91918E-02
 -1      2840-4.33516E-03-3.79886E-04 8.21405E-02
 -1      2841 3.19764E-03 2.97692E-03-2.93923E-02
 -1      2842-6.91396E-04-2.38897E-03 6.17274E-02
 -1      2843-8.50363E-03 3.94802E-05-8.00101E-03
 -1      2844-6.01020E-03 1.26038E-03 5.37848E-02
 -1      2845-6.08910E-03-1.65263E-04-1.09830E-02
 -1      2846-1.24335E-03-2.60317E-03-5.61112E-02
 -1      2847-7.98226E-03 2.75818E-04 2.59987E-03
 -1      2848 3.45386E-04-2.78300E-03 5.57199E-02
 -1      2849-6.71043E-03-7.66949E-04-5.92062E-02
 -1      2850-1.05005E-02-3.97877E-04 5.91220E-02
 -1      2851-4.85030E-03 6.04211E-04 1.29041E-02
 -1      2852 1.62494E-03-6.65940E-04 1.59646E-02
 -1      2853-2.19245E-03 1.87833E-03 3.99369E-02
 -1      2854-7.33543E-03-1.12598E-04 7.72357E-02
 -1      2855-3.67832E-03-1.61223E-03-6.65359E-02
 -1      2856-7.20625E-03-4.48977E-04-1.28530E-02
 -1      2857 1.22129E-03 1.15256E-03-7.65402E-02
 -1      2858 3.63992E-03 1.54579E-03-6.41356E-02
 -1      2859 3.36124E-04 2.28752E-03-5.13239E-02
 -1      2860-2.41343E-03-1.02171E-03-8.11426E-02
 -1      2861-3.01678E-04 2.45085E-03 1.56405E-02
 -1      2862-7.30613E-03 1.10176E-03-4.57630E-02
 -1      2863 4.47096E-04-1.46171E-03 7.31359E-03
 -1      2864-4.81571E-03 1.37043E-03 6.67354E-02
 -1      2865-9.72624E-05-2.64973E-03 4.14021E-02
 -1      2866-1.75325E-05 7.33990E-04-8.08840E-02
 -1      2867 2.69935E-03 3.23533E-03-3.09842E-02
 -1      2868 3.29647E-03 2.37730E-03-2.44678E-02
 -1      2869-6.54671E-03 1.46792E-04 8.03168E-02
 -1      2870-3.84360E-03-1.11228E-03-6.77574E-02
 -1      2871-1.62840E-03-1.91387E-03-5.23401E-02
 -1      2872-2.51396E-03-8.45104E-04-8.32237E-02
 -1      2873 3.52501E-03 6.88911E-04-6.44133E-02
 -1      2874-3.28005E-04 2.48699E-03-5.22875E-02
 -1      2875-4.56650E-03-7.27281E-04-5.98946E-02
 -1      2876 5.05972E-03 8.78214E-04-5.58513E-02
 -1      2877-1.64986E-04-1.08062E-04 7.48056E-03
 -1      2878-1.42078E-02 5.59028E-04 2.53367E-02
 -1      2879-1.37256E-02 7.35452E-04 2.24226E-02
 -1      2880 4.35747E-05 3.34128E-05-1.35858E-03
 -1      2881-1.16574E-02 1.24066E-03-4.41540E-02
 -1      2882-1.34571E-02-3.10542E-04 4.24858E-02
 -1      2883-1.38068E-03 3.11798E-05-4.48181E-02
 -1      2884-1.35997E-02 3.22539E-04-4.49342E-02
 -1      2885-1.35978E-02 1.62040E-04 2.14839E-03
 -1      2886-1.39464E-02-2.98964E-04-3.59952E-02
 -1      2887-1.40498E-02 6.34006E-04-2.32979E-02
 -1      2888-1.35779E-02 7.56204E-04-1.68344E-02
 -1      2889-1.40157E-02 4.57235E-04 3.75059E-02
 -1      2890-1.14909E-03-3.59868E-04 3.93065E-02
 -1      2891-1.20568E-02 5.69840E-04 5.21915E-02
 -1      2892-1.30404E-02-3.22998E-04-8.43188E-03
 -1      2893-1.24404E-02 1.09833E-03 4.37424E-02
 -1      2894-1.33688E-03-1.04790E-04 4.37023E-02
 -1      2895-1.32303E-02 9.58596E-05-4.82887E-02
 -1      2896-1.24178E-02 6.00144E-04-5.02433E-02
 -1      2897-1.82585E-04 4.09285E-04-1.76580E-02
 -1      2898-1.34672E-02 4.36318E-04 4.55014E-02
 -1      2899-1.07124E-03 6.30692E-04 3.56814E-02
 -1      2900-1.31044E-02-7.75619E-04-3.53925E-02
 -1      2901-1.29389E-02 2.61289E-06 4.97332E-02
 -1      2902-1.19090E-04 3.62195E-04 8.32210E-03
 -1      2903-1.38407E-02 3.05500E-04-8.65586E-03
 -1      2904-1.38607E-02 6.02200E-04 3.76849E-02
 -1      2905-1.20599E-02 1.86328E-04-5.26862E-02
 -1      2906-6.32198E-04 6.93109E-04 2.58343E-02
 -1      2907-1.33628E-02-3.08157E-04-1.50944E-02
 -1      2908-1.39750E-02 4.53822E-04-3.56732E-02
 -1      2909-1.30578E-02-2.10331E-04 8.91389E-03
 -1      2910-1.37549E-02-4.64383E-04-2.75791E-02
 -1      2911-1.15337E-02-4.50991E-04 5.36702E-02
 -1      2912-4.47149E-04-5.17298E-04 2.04557E-02
 -1      2913-1.35955E-02 8.96031E-04 2.83704E-02
 -1      2914-1.20110E-04-3.81454E-04-1.70932E-02
 -1      2915-1.13070E-02 9.03915E-04-4.96191E-02
 -1      2916-1.40528E-03-4.41161E-04-4.30661E-02
 -1      2917-1.55324E-03-2.27967E-04-4.78509E-02
 -1      2918-1.37247E-02-3.12198E-04 1.59768E-02
 -1      2919-1.37262E-02 6.67245E-04 1.24319E-02
 -1      2920-1.21993E-02-7.00914E-04 2.84454E-02
 -1      2921-8.64715E-04 6.13268E-04-3.36099E-02
 -1      2922-1.30044E-02-4.06330E-04-4.61087E-02
 -1      2923-1.41117E-03 8.39052E-04 4.03440E-02
 -1      2924-1.28831E-02 1.13660E-03 2.90691E-02
 -1      2925-1.21253E-02 1.05791E-03-4.55614E-02
 -1      2926-1.33500E-02 6.47317E-04-4.04129E-02
 -1      2927-1.23857E-02 1.15387E-03-3.59282E-02
 -1      2928-6.29700E-04-6.12376E-04-2.89249E-02
 -1      2929-5.90735E-04-6.59660E-04-2.74284E-02
 -1      2930-1.25396E-02-3.25703E-04-5.02416E-02
 -1      2931-1.50107E-03 3.54222E-04-4.54228E-02
 -1      2932-1.14636E-02-7.19785E-04-5.06468E-02
 -1      2933-1.03651E-02-3.28926E-04-6.04846E-02
 -1      2934-1.13409E-02-4.84565E-04-5.55868E-02
 -1      2935-1.18944E-02-1.82832E-04 5.25008E-02
 -1      2936-5.50155E-04 6.07154E-04-2.73254E-02
 -1      2937-1.90204E-04 1.49095E-04-5.23175E-03
 -1      2938-1.46914E-02 1.14723E-04-3.87896E-03
 -1      2939-2.00130E-04 4.09630E-04-1.29909E-02
 -1      2940-1.76851E-03 5.05813E-04 4.64357E-02
 -1      2941-4.89330E-05-2.17432E-04-9.07049E-03
 -1      2942-1.10254E-03-6.32826E-04 3.62900E-02
 -1      2943-1.32315E-02 7.35014E-04 4.37163E-02
 -1      2944-1.43092E-02-1.47560E-04 2.68233E-02
 -1      2945-1.49675E-03 5.14247E-04-4.11648E-02
 -1      2946-8.43371E-04 8.29138E-04-2.90386E-02
 -1      2947-1.40739E-02-2.32259E-04 2.13699E-02
 -1      2948 8.53752E-03-2.92522E-03 2.94142E-02
 -1      2949-1.24581E-02 9.07723E-04 2.31918E-02
 -1      2950-1.14091E-02-9.81222E-04 4.07789E-02
 -1      2951-9.64366E-04-6.60636E-04-3.90163E-02
 -1      2952-2.40429E-04 5.59378E-05 4.00716E-03
 -1      2953-1.30979E-02 9.64898E-04-2.91912E-02
 -1      2954-1.33428E-02-5.09836E-04-4.18388E-02
 -1      2955-1.52643E-03-8.33165E-04-4.22813E-02
 -1      2956-1.29507E-02-6.95346E-04 3.78787E-02
 -1      2957-6.88737E-04-7.23554E-04 2.63960E-02
 -1      2958-1.16836E-02 1.21024E-03 4.20996E-02
 -1      2959-1.64183E-03-3.68471E-04 4.61215E-02
 -1      2960-1.21300E-02 6.84879E-05 5.33710E-02
 -1      2961-4.25832E-04 5.21685E-04 1.45467E-02
 -1      2962 2.22844E-03-2.76395E-03 5.82848E-02
 -1      2963 1.46405E-03-2.52528E-03 5.01117E-02
 -1      2964-2.23518E-03 4.95298E-04 4.98549E-02
 -1      2965 2.01337E-03-2.60486E-03 5.19257E-02
 -1      2966 8.10070E-03 2.79548E-03-3.17027E-02
 -1      2967-1.94093E-03 9.87270E-04 4.26429E-02
 -1      2968 2.19017E-03 2.81299E-03 5.19617E-02
 -1      2969-1.86990E-03-8.29410E-05 4.86847E-02
 -1      2970-1.09482E-02 9.09589E-04-5.36039E-02
 -1      2971 5.27428E-03 3.83387E-03-3.81713E-02
 -1      2972 4.35448E-03 3.54431E-03-3.97044E-02
 -1      2973 2.63866E-03-3.11479E-03-5.32848E-02
 -1      2974 1.28071E-03-2.75081E-03-5.06538E-02
 -1      2975 5.24419E-03-4.14504E-03 4.77995E-02
 -1      2976 4.33928E-03-3.63148E-03 3.53368E-02
 -1      2977-1.22641E-02-4.00442E-04 4.89009E-02
 -1      2978-3.73796E-04 1.91993E-04-6.89349E-03
 -1      2979-1.29772E-02-4.30694E-04-2.31947E-02
 -1      2980-1.34707E-02-2.28669E-05-1.53631E-04
 -1      2981 2.62492E-04-1.86117E-03 4.94674E-02
 -1      2982-1.17179E-02-9.20813E-04 4.35454E-02
 -1      2983 7.24682E-03-2.64624E-03 1.99799E-02
 -1      2984-1.42371E-03-5.76246E-04 4.29813E-02
 -1      2985 7.30660E-03 2.52345E-03-2.18328E-02
 -1      2986-1.97730E-03 9.29174E-05-4.97340E-02
 -1      2987 2.25205E-03 2.59188E-03-5.93644E-02
 -1      2988 5.07928E-03 4.05519E-03 4.81625E-02
 -1      2989 4.08966E-03 3.78590E-03 3.85720E-02
 -1      2990-2.08275E-03 3.05935E-04-4.97851E-02
 -1      2991 1.08926E-02 7.43671E-05-7.75012E-03
 -1      2992 8.22308E-03 6.60802E-05 4.25809E-05
 -1      2993-2.73263E-04-3.75938E-04-1.00118E-02
 -1      2994-1.16179E-02-9.67862E-04-4.32640E-02
 -1      2995 8.55058E-03-2.98691E-03-1.54604E-02
 -1      2996-2.08757E-03-6.51653E-04-4.83299E-02
 -1      2997-1.35013E-03 8.19556E-04-3.97135E-02
 -1      2998 5.05441E-03-4.02847E-03-3.72040E-02
 -1      2999-1.04250E-02 3.19691E-04-5.91161E-02
 -1      3000-2.50927E-04-3.21541E-04 1.12113E-02
 -1      3001 1.08824E-03 5.56720E-06 5.95641E-02
 -1      3002-2.70108E-04 3.93039E-04 9.54496E-03
 -1      3003 7.27280E-03-2.71236E-03-2.10976E-02
 -1      3004 7.95018E-03 2.97194E-03 3.06598E-02
 -1      3005 2.26364E-03-3.01192E-03 4.62470E-02
 -1      3006 8.60452E-03 2.74117E-03-1.64722E-02
 -1      3007 2.05341E-04-1.99309E-03 5.60530E-02
 -1      3008-1.73993E-03 8.36325E-04-4.31108E-02
 -1      3009-2.07492E-03-2.74639E-04 4.93340E-02
 -1      3010 9.06808E-03 1.14302E-04 8.27147E-03
 -1      3011 7.26487E-03 2.76754E-03 2.09092E-02
 -1      3012 5.44920E-03 2.34589E-04 8.48797E-03
 -1      3013 4.61431E-03 2.08859E-03-3.09730E-02
 -1      3014 2.30650E-03 3.01103E-03 4.64838E-02
 -1      3015 1.54460E-03 2.67417E-03 5.02189E-02
 -1      3016 4.24810E-03-3.79005E-03 3.81457E-02
 -1      3017 2.10354E-03-2.88352E-03-5.87183E-02
 -1      3018 2.89324E-04-2.07084E-03-5.65081E-02
 -1      3019 8.43223E-03 3.07797E-03 1.56580E-02
 -1      3020-1.05481E-03-8.10352E-04-2.90416E-02
 -1      3021 1.51856E-03 2.33990E-03-5.13006E-02
 -1      3022-1.09860E-03 1.04495E-03 2.81605E-02
 -1      3023 4.89161E-03 3.73132E-03-4.91196E-02
 -1      3024 2.50451E-03 2.78066E-03-3.61899E-02
 -1      3025-3.55127E-04 4.33927E-04-1.12109E-02
 -1      3026 9.53058E-03-1.04654E-04 7.28006E-03
 -1      3027 7.89400E-03 4.76789E-04-9.32363E-03
 -1      3028 4.82685E-03-2.14172E-03 2.87809E-02
 -1      3029-1.46495E-03-7.10020E-04 4.08969E-02
 -1      3030 7.23107E-04 5.10231E-05 5.43142E-02
 -1      3031 8.01185E-03-2.71100E-03 1.44520E-02
 -1      3032 4.09384E-03-3.82391E-03-3.90149E-02
 -1      3033 4.95746E-03 1.85484E-03-1.52080E-02
 -1      3034 4.75777E-03-1.82281E-03 1.32409E-02
 -1      3035 5.05387E-03 4.09531E-03 3.70624E-02
 -1      3036 2.41614E-03 2.95584E-03 3.50720E-02
 -1      3037 3.93387E-04-2.25662E-03-5.06464E-02
 -1      3038 6.35799E-03-1.13641E-05-8.12017E-03
 -1      3039-2.14136E-03-4.20468E-04-5.01783E-02
 -1      3040 1.56956E-03-4.39159E-04-6.07580E-02
 -1      3041 3.56385E-04-3.93792E-04-5.50676E-02
 -1      3042-3.73527E-04-1.61025E-04 7.89613E-03
 -1      3043 8.01150E-03-2.89934E-03-3.06154E-02
 -1      3044 4.95862E-03-2.06836E-03-1.43425E-02
 -1      3045 4.59398E-03-2.16945E-03-3.00349E-02
 -1      3046 1.38485E-03-2.39774E-03 3.55274E-02
 -1      3047 4.92159E-03 2.13322E-03 1.43943E-02
 -1      3048 2.41392E-03 2.73713E-03-4.75464E-02
 -1      3049 4.33801E-04 2.06673E-03 4.96221E-02
 -1      3050 2.30691E-03 2.97615E-03 5.84153E-02
 -1      3051 7.87730E-03 1.30171E-04-9.15505E-04
 -1      3052 2.81911E-04 1.81871E-03-5.71339E-02
 -1      3053 2.29659E-03 2.48486E-03-5.36641E-02
 -1      3054 5.59772E-04 1.82280E-03-5.11072E-02
 -1      3055 5.12339E-03-4.21655E-03-4.82191E-02
 -1      3056 2.35703E-03-2.94600E-03-4.68121E-02
 -1      3057 2.60677E-03-2.96107E-03-3.52651E-02
 -1      3058-2.63074E-04-7.19026E-05 5.71341E-02
 -1      3059 1.16295E-03-1.12258E-05 5.94372E-02
 -1      3060 8.99076E-04-4.32527E-04-6.06801E-02
 -1      3061-2.23253E-04-3.32339E-04-5.80781E-02
 -1      3062-5.22364E-04-1.40591E-04-5.82102E-02
 -1      3063 2.22222E-04 2.15506E-03 5.61669E-02
 -1      3064 5.42558E-03-1.35109E-04 7.54354E-03
 -1      3065 4.17378E-03 4.18306E-04-9.55461E-03
 -1      3066-2.90986E-04 9.51037E-05 5.70705E-02
 -1      3067-6.84153E-03 2.88061E-04 4.68995E-02
 -1      3068-7.60944E-03 1.36521E-04-3.27184E-02
 -1      3069-7.68411E-03 6.49749E-06-5.08575E-02
 -1      3070-7.11078E-03-4.90760E-05-5.56527E-02
 -1      3071-6.81495E-03-8.38635E-05-1.10623E-02
 -1      3072-7.50849E-03-4.92741E-05-4.38192E-02
 -1      3073-7.08910E-03 2.80014E-05 5.51707E-02
 -1      3074-7.50520E-03 6.82642E-05 4.95675E-02
 -1      3075-7.16946E-03 7.25430E-05-5.61603E-02
 -1      3076-7.89517E-03 4.35649E-05 1.06674E-02
 -1      3077-7.50959E-03 2.85466E-04-2.92548E-02
 -1      3078-7.54774E-03 1.49449E-04 5.01834E-02
 -1      3079-5.49772E-03 5.24949E-04-3.12310E-02
 -1      3080-7.74172E-03 1.17029E-04 4.53519E-02
 -1      3081-7.61649E-03 4.68322E-05 2.97812E-02
 -1      3082-6.90656E-03 3.25521E-04 3.18477E-02
 -1      3083-7.74566E-03 8.36612E-05-1.17179E-02
 -1      3084-7.53685E-03 1.15179E-04-5.08131E-02
 -1      3085-4.15294E-03 7.50532E-04 3.10753E-02
 -1      3086-5.80832E-03 1.97688E-04-5.37513E-02
 -1      3087-6.44323E-03-2.70628E-04-4.74469E-02
 -1      3088-7.16190E-03 3.43029E-05 9.93964E-03
 -1      3089-5.75845E-03-1.95526E-04-5.33372E-02
 -1      3090-7.10911E-03 2.06534E-05-1.02207E-02
 -1      3091-7.00338E-03 2.59659E-04 4.29522E-02
 -1      3092-4.26123E-03-5.46116E-04 2.99954E-02
 -1      3093-7.34979E-03 1.48103E-04 8.84710E-03
 -1      3094-4.82675E-03-2.00479E-04-1.06245E-02
 -1      3095-4.41731E-03-5.40197E-04-4.42166E-02
 -1      3096-6.22158E-03-1.71793E-04 5.10111E-02
 -1      3097-6.31479E-03-1.59285E-04 2.47484E-02
 -1      3098-7.36511E-03 1.02800E-04-4.81649E-02
 -1      3099-6.98798E-03 1.99308E-04-4.33116E-02
 -1      3100-7.16210E-03 2.04411E-05-3.18674E-02
 -1      3101-5.61689E-03 4.66916E-04-4.61170E-02
 -1      3102-5.71936E-03-4.67141E-05 5.25447E-02
 -1      3103-5.38182E-03 5.66801E-04 4.50244E-02
 -1      3104-7.12679E-03 1.57275E-04 5.51879E-02
 -1      3105-6.87729E-03-8.99286E-05-2.92571E-02
 -1      3106-4.17405E-03-4.87342E-04-3.11376E-02
 -1      3107-5.40103E-03 4.23572E-04 2.83108E-02
 -1      3108-4.64558E-03-4.33830E-04 2.81488E-02
 -1      3109-5.89564E-03-2.20392E-04 3.75080E-02
 -1      3110-5.49393E-03 3.62803E-04-2.57928E-02
 -1      3111-6.31894E-03 1.47520E-04-4.27628E-03
 -1      3112-4.78050E-03-5.04006E-04 4.56159E-02
 -1      3113-5.69888E-03 2.71285E-04 5.28954E-02
 -1      3114-5.14591E-03 9.24165E-06 9.38564E-03
 -1      3115-5.91659E-03 4.11307E-04 4.23613E-02
 -1      3116-6.19963E-03-1.92934E-04-5.41800E-02
 -1      3117-4.98555E-03-2.71390E-05-3.07833E-03
 -1      3118-5.40279E-03-1.46179E-04-1.95552E-02
 -1      3119-5.77547E-03 1.75683E-05 5.65904E-02
 -1      3120-5.75522E-03-2.96241E-04-3.90858E-02
 -1      3121-5.75888E-03 5.36443E-04 5.10779E-02
 -1      3122-4.81699E-03-1.57834E-04 1.80296E-02
 -1      3123-4.13693E-03 3.56220E-04-1.19542E-02
 -1      3124-6.51715E-03 2.61437E-04 1.84869E-02
 -1      3125-4.09952E-03 2.56647E-04 1.07950E-02
 -1      3126-5.96726E-03 1.76689E-04-5.48747E-02
 -1      3127-5.83116E-03 1.78342E-04-5.74501E-02
 -1      3128-5.62502E-03 4.17808E-04-4.36292E-02
 -1      3129-7.41076E-03 3.53158E-04 3.56437E-02
 -1      3130-3.67284E-03 2.45801E-04-1.12559E-02
 -1      3131-3.83362E-03 2.77106E-04 1.03102E-02
 -1      3132-4.74435E-03-3.38566E-04 4.32907E-02
 -3
    1PSTEP                         2           1           1          
  100CL  101 1.000000000        3132                     0    1           1
 -4  STRESS      6    1
 -5  SXX         1    4    1    1
 -5  SYY         1    4    2    2
 -5  SZZ         1    4    3    3
 -5  SXY         1    4    1    2
 -5  SYZ         1    4    2    3
 -5  SZX         1    4    3    1
 -1         1-3.42890E+00-2.93980E+00-2.48211E+00 1.15174E-01-2.77800E-01-1.04232E+00
 -1         2-3.40125E-01 5.65355E-02-2.12388E-01-1.70662E-02-2.45254E-02-3.04074E-01
 -1         3-2.43363E-01 1.07503E-02-2.22956E-01-9.17539E-03-2.47231E-02-3.68591E-01
 -1         4-1.08397E+00-4.40840E-01 7.25637E-01 5.92899E-01-2.08277E-01-1.04481E-01
 -1         5-3.08158E+00-5.08291E-01 2.56238E-01-1.36879E-01 1.00620E-02 1.59659E-01
 -1         6-2.34808E+00-4.72535E-01 1.91527E-01-6.63107E-02-4.00677E-02-2.58720E-01
 -1         7-1.39682E+00-4.04313E-01 2.39869E-01-8.55485E-01 1.40093E-01-4.88287E-02
 -1         8-8.97153E-01-2.18603E-01-5.80557E-01-5.67417E-02 4.56448E-02 7.21698E-01
 -1         9-2.87275E+00-4.84986E-01 3.88579E-01 4.25009E-01-2.23076E-02 6.30316E-02
 -1        10-3.19717E-01-4.14096E-01-5.27928E-01-1.38500E-01 6.86828E-02 5.93806E-01
 -1        11-8.36429E-01-1.11539E-01-4.99043E-01-8.61913E-02-9.91661E-03 6.11609E-01
 -1        12 7.26408E-01-6.60170E-04-5.05605E-02-6.92784E-03-1.08498E-02-1.40204E-01
 -1        13-1.93165E+00-4.05090E-01 1.60372E-01 2.35333E-01-2.86395E-02-1.83680E-01
 -1        14 9.01776E-01-7.15635E-02-4.16395E-02-3.13426E-02-2.78126E-02-5.37415E-02
 -1        15-1.09719E+00-2.49798E-01 1.36163E-01 5.92311E-01 1.39821E-01-7.48522E-02
 -1        16-1.25703E+00-2.49638E-01 1.92931E-01-6.63064E-01-1.99153E-01-1.07827E-01
 -1        17 6.42606E-01 9.55707E-02 8.95771E-02-5.01891E-02-2.44745E-02 1.44593E-01
 -1        18 4.91823E-01-1.48936E-01 2.22142E-01 6.21361E-03-1.73496E-02 1.13844E-01
 -1        19-2.54188E+00-7.37647E-01 2.37369E-01-7.29519E-01 7.73345E-02 2.19945E-01
 -1        20-7.97528E-01-2.17874E-01-5.62874E-01-2.22323E-01 2.32303E-01 6.61152E-01
 -1        21-1.12433E+00-1.11501E-01 3.88334E-01 1.34965E-01 1.35541E-01-5.03978E-02
 -1        22-2.54529E+00-4.52619E-01 2.09302E-01-3.83695E-01 1.16695E-02 4.42855E-02
 -1        23-1.84921E+00 8.38641E-02 3.30728E-01 2.73151E-01-1.99182E-01-2.43643E-02
 -1        24-4.62401E-01-4.83964E-01-6.28356E-01-9.25452E-02 3.72437E-01 4.71938E-01
 -1        25-6.88323E-01-1.98677E-01-5.74138E-01-2.25022E-01 1.59165E-01 6.20266E-01
 -1        26-1.93448E+00-5.66306E-01 1.45748E-01-5.06178E-01-6.88298E-02-2.02649E-01
 -1        27-1.36496E-01-4.99995E-04-3.42540E-01-6.53443E-02-9.30133E-02-3.09654E-01
 -1        28-2.55453E-01 5.72328E-03-8.44310E-02-6.13792E-02-5.58426E-02-3.32860E-01
 -1        29-1.95807E+00-2.67427E-01 2.37257E-01-1.86167E-01 1.86173E-02-5.04600E-02
 -1        30 6.04597E-01-7.95653E-02 6.56779E-02 2.11297E-01-8.67704E-02-4.13304E-02
 -1        31 5.74952E-01-3.27479E-01-1.32448E-01 2.15563E-01 4.22218E-02-4.79190E-02
 -1        32 3.98683E-01-4.53355E-02-1.44711E-01 1.20346E-01-4.61220E-02-1.80578E-01
 -1        33-5.35342E-01-6.31935E-01 9.42892E-02-6.29175E-01-2.00100E-01-7.93938E-02
 -1        34 6.67530E-01 5.69776E-02-9.01087E-03 5.33108E-02 8.73174E-02 6.13121E-02
 -1        35-5.06824E-01-8.02320E-01 3.80453E-01-7.84103E-01 2.34685E-01-1.12009E-01
 -1        36 4.31151E-01-2.96957E-02-4.45740E-02 1.75378E-01-7.96241E-02-5.69839E-02
 -1        37 8.11788E-01 8.53788E-02 1.28939E-01 1.16072E-01-2.44512E-02-3.64232E-02
 -1        38-1.76985E+00-8.95652E-01 2.19575E-01-9.04973E-01 5.61692E-02 1.56154E-01
 -1        39-1.01659E+00-9.23859E-01 1.80522E-01-7.19420E-01 1.78963E-01 1.67432E-01
 -1        40-5.01959E-01-3.00828E-01-4.30501E-01-2.63882E-01 3.21216E-01 4.35622E-01
 -1        41 5.04421E-01 1.23948E-01-4.37553E-02 2.89607E-01-3.12705E-02-1.38397E-01
 -1        42-1.79265E-01 4.02759E-02-2.07533E-01-1.27972E-01-1.13639E-01-2.94261E-01
 -1        43-1.62489E-01-3.41687E-02-1.07701E-01-1.00123E-01-1.79108E-02-2.64774E-01
 -1        44-4.25573E-01-3.02735E-01-5.24022E-01-2.41316E-01 2.78607E-01 4.71909E-01
 -1        45-1.26549E+00-5.62416E-01 2.11167E-01-6.51535E-01-6.68048E-02-8.94092E-02
 -1        46-3.01265E-01-4.23707E-01 2.17085E-01-1.96807E-01-2.20911E-01-4.11568E-02
 -1        47-8.28806E-01-6.51273E-01 1.42716E-01-6.21801E-01-2.10418E-01-1.45040E-01
 -1        48-4.01573E-02-8.32049E-01 2.28845E-01-3.58498E-01 2.27399E-01-8.44019E-02
 -1        49-1.73096E+00 2.30195E-02 2.98845E-01-4.06435E-01-2.05056E-01-6.84041E-02
 -1        50 3.24849E-01 1.28958E-01 1.58435E-01 2.09852E-01 5.62162E-02-1.84525E-02
 -1        51-1.09666E+00 4.51826E-02 2.60591E-01-2.52479E-01 1.76651E-01 5.13341E-02
 -1        52 3.88029E-01-3.18021E-02-3.80248E-02 2.55177E-01 9.97891E-02 7.52406E-02
 -1        53 3.23082E-01 1.39979E-01 3.82387E-02 3.17282E-01-1.05844E-01-5.22650E-02
 -1        54-1.41209E-01 1.26233E-02 4.97192E-02-8.00001E-02 1.67813E-02-2.27178E-01
 -1        55-5.73225E-01-7.03481E-02 2.90522E-01-3.85719E-01-2.36959E-01-5.81163E-02
 -1        56-3.81730E-01-6.02634E-01 1.23187E-01-4.90304E-01 1.00514E-01-2.85168E-03
 -1        57-5.64294E-01-6.53068E-01 1.23821E-01-6.74532E-01-6.31145E-02 3.57044E-02
 -1        58-4.85491E-01-3.89668E-01 1.24246E-01-5.32099E-01-5.05076E-02-2.03004E-02
 -1        59-4.49097E-02 1.94336E-02-1.73192E-01-1.06928E-01-4.56925E-02-2.22144E-01
 -1        60-2.18037E-01-7.73785E-02-1.78524E-01-1.45632E-01 1.02331E-01 2.42544E-01
 -1        61-1.89223E-01-2.09154E-01-2.20796E-01-2.33829E-01 2.20202E-01 1.90879E-01
 -1        62 6.10332E-03-8.51711E-02-1.75067E-01 1.38432E-02 1.38035E-01-8.71993E-02
 -1        63-3.02382E-01-3.24021E-01 1.08944E-01-3.83959E-01-2.36084E-01 6.23064E-03
 -1        64-1.86093E+00-9.67098E-01-3.80187E-01-1.75435E-01 5.13132E-01-7.85575E-01
 -1        65 1.34741E-01 8.89297E-02-2.35352E-02 1.91558E-01 1.73949E-01-1.22600E-01
 -1        66-6.19730E-02 9.27055E-02-7.55260E-02 2.61327E-01 1.36697E-01-2.95248E-01
 -1        67-9.02615E-02-2.21638E-01-3.19758E-01 1.80924E-01-1.73421E-01-1.13302E-01
 -1        68 2.07218E-01 1.89563E-01 3.42465E-01 1.91812E-01-9.50139E-02-1.51154E-01
 -1        69 4.66871E-02-2.97701E-01 4.62255E-02-8.42793E-02 2.05457E-01-5.70055E-02
 -1        70-6.68218E-01-1.73135E-01 1.16027E-01-4.11300E-01 1.80729E-01 1.22571E-01
 -1        71 6.94819E-02-1.85737E-01 1.00175E-01-1.01251E-01-2.07640E-01 9.03534E-02
 -1        72-3.35655E-02-6.44394E-03 3.14451E-02-3.82343E-01 9.85720E-04 1.70476E-02
 -1        73-3.83863E-02-4.83701E-02-3.13008E-02-1.12781E-01 3.89104E-02 9.07247E-02
 -1        74 6.47918E-02 9.09962E-02-7.66025E-02-2.72875E-01 1.58194E-01 1.91901E-02
 -1        75 8.94693E-02 8.17114E-02 1.37433E-01-4.38641E-01 4.72582E-02-4.97407E-03
 -1        76-1.31797E-02-4.90295E-02 7.24230E-02-9.69295E-02-2.94303E-02 6.86086E-02
 -1        77-6.58952E-02-1.92313E-02-9.14854E-02 7.57461E-02 5.51332E-02-6.28105E-02
 -1        78 5.91286E-01-2.88086E-01-7.77296E-01-7.61808E-01-5.55087E-01-1.32219E+00
 -1        79 1.17997E-01 1.57365E-02-2.03737E-01 1.71473E-01-4.44880E-02-5.82042E-02
 -1        80 2.90681E-02 1.07399E-02-1.19131E-01-9.70830E-02-4.34183E-02-1.36823E-01
 -1        81-7.10269E-03-1.79701E-02 1.33264E-01-3.14915E-02 5.29654E-02-1.27200E-01
 -1        82 9.04437E-02 1.75210E-01-2.09003E-03-3.66610E-01 1.85607E-01-4.09162E-03
 -1        83 4.90040E-02 2.23836E-02-1.20280E-01 2.02309E-01 8.82365E-02-1.10912E-01
 -1        84 1.24522E-01 8.93909E-02 2.01284E-01 2.35211E-01 1.98140E-01 3.61229E-03
 -1        85-2.63921E-01 9.50788E-02 2.36051E-02 2.18861E-03 1.58516E-01-2.50190E-01
 -1        86 1.68157E-01-3.92393E-02-2.24272E-02 2.33125E-01-1.68344E-01-2.39192E-01
 -1        87 1.78635E-01 1.59459E-01-7.65440E-02-3.18320E-01-2.03452E-01 8.59426E-02
 -1        88 2.17300E-01 2.28035E-01-5.68687E-02-4.96778E-01-2.41906E-01 6.04424E-02
 -1        89-1.56141E-01-1.90479E-01-3.32942E-01-2.31567E-02 2.00429E-02 1.01242E-02
 -1        90-1.36548E-01-3.18777E-02 8.29273E-02-1.60440E-01 2.01364E-01 6.00155E-02
 -1        91-1.89929E-01-1.76481E-01 7.11439E-02-2.43383E-01-1.98433E-01-6.65849E-02
 -1        92 1.52738E-01 4.20148E-02-1.78095E-02-1.06300E-01 3.74016E-02-2.05196E-01
 -1        93 3.61659E-02 5.84301E-02 1.57169E-01-1.04245E-01 1.06005E-01-1.87786E-01
 -1        94 3.46678E-01 3.18766E-01-4.73323E-02-4.13968E-01 3.10690E-01-1.12415E-01
 -1        95 6.57017E-01 1.23028E-01-2.91508E-01-4.24173E-01 2.18247E-01-6.47372E-02
 -1        96 5.37130E-01 3.93895E-01-1.86750E-01-5.58783E-01 1.04441E-01-3.72508E-02
 -1        97 4.49853E-01 6.46937E-01-1.06905E-01-5.16216E-01-1.25235E-01 4.06214E-02
 -1        98 2.09030E-01 1.49256E-01 2.17191E-01-2.51174E-01-1.88255E-01 2.51021E-01
 -1        99-4.04755E-02 3.17520E-01 3.73633E-03-1.27776E-01-2.80985E-01-3.69487E-02
 -1       100 1.21771E-01 1.25361E-01-3.10509E-02-2.47330E-01-4.10436E-02 2.08615E-01
 -1       101 2.62898E+00 5.09448E-01 3.62406E-01-2.26469E-01-4.36588E-01-1.09494E+00
 -1       102-6.21941E-02-4.75312E-02 2.53478E-01 2.28084E-01 1.85825E-01-1.75756E-01
 -1       103 6.27598E-01 7.01577E-01-1.62367E-01-7.13308E-01 5.94192E-02 5.59279E-02
 -1       104-1.89366E-01-1.04718E-01-1.52734E-01 2.04617E-01 1.82117E-02-9.30976E-02
 -1       105-4.13991E-03 2.28703E-01 9.25747E-02-1.23233E-01 2.53321E-01-2.13332E-02
 -1       106 9.80987E-02-2.36162E-04-8.59974E-02 2.13585E-01-6.96309E-02-1.34253E-01
 -1       107-2.07827E-01-1.39212E-01 1.23589E-01 1.94725E-01-1.09381E-01-1.09299E-02
 -1       108-1.30111E-01-3.11775E-01-9.10312E-02 1.38903E-01 8.91035E-02 3.54751E-02
 -1       109 6.04481E-01 2.04965E-01-1.65756E-01-4.27351E-01-1.54795E-01 3.81513E-02
 -1       110 1.63242E+00 1.20065E+00-2.10944E-01-1.00354E+00-8.46386E-02 1.00597E-01
 -1       111 4.46880E-01 2.85113E-01 4.67887E-01-3.57053E-01-3.65274E-01 4.57290E-01
 -1       112 2.38226E-01 4.14369E-01-2.72367E-01-1.54271E-01 1.43403E-01-2.00387E-02
 -1       113 1.80177E+00 6.97848E-01-3.72994E-01-8.48404E-01 8.02666E-02-3.09413E-02
 -1       114 1.42740E+00 6.18671E-01-1.47872E-01-6.71434E-01 8.74778E-02-1.37289E-01
 -1       115 6.63564E-02 9.65003E-01-2.15356E-01-4.16013E-01-2.64102E-01-6.64202E-02
 -1       116 1.16001E-01 4.90785E-02 2.33516E-01-1.20057E-01 1.25085E-01-2.05669E-01
 -1       117 4.56292E-01 3.05831E-01 4.05560E-01-3.69733E-01-3.52165E-01 4.26367E-01
 -1       118 5.29337E-01 2.88776E-01 4.98644E-01-1.91437E-01-3.00754E-01 3.23124E-01
 -1       119 1.51936E-01 1.88336E-02 3.33731E-02-6.35351E-02 7.79370E-02-2.10066E-01
 -1       120 8.39401E-01 6.17583E-01-2.02125E-01-5.36040E-01 1.94834E-01-1.63036E-01
 -1       121-3.94609E-01-9.11886E-02-2.93808E-02 2.23160E-01 5.55769E-03-1.30852E-01
 -1       122 1.40788E+00 2.77921E-02-1.34794E-01-3.38252E-01-9.57402E-02 4.33718E-02
 -1       123-5.04869E-01-2.80725E-02-2.80057E-02 3.38896E-01-4.19017E-03 1.04391E-01
 -1       124-2.81521E-01-1.47623E-01-1.61247E-01 1.57245E-01-4.99792E-02 3.15922E-02
 -1       125 1.61287E+00-6.41275E-02-4.18993E-01-4.02835E-01 2.69154E-01-2.52404E-02
 -1       126-8.49423E-03-5.98438E-02-1.00332E-01 1.14320E-01 1.88479E-01-6.19420E-03
 -1       127-4.68303E-01-9.00800E-02 2.58948E-01 2.81422E-01-1.30790E-01 1.60572E-02
 -1       128-1.38115E-01-4.89268E-02 2.93045E-01 2.40089E-01-4.68478E-02-2.42712E-02
 -1       129 2.38999E-01 1.04160E-02 1.22038E-01-6.93030E-02 4.36627E-02-2.63540E-01
 -1       130 8.44001E-01 3.37119E-01 6.03004E-01-2.29226E-01-2.74145E-01 6.97816E-01
 -1       131 7.65947E-01 2.68516E-01 6.15201E-01-2.92012E-01-2.02821E-01 6.75710E-01
 -1       132 2.80683E+00 5.76140E-01-3.01337E-01-5.03405E-01 1.08026E-02 5.38205E-02
 -1       133 4.61667E-01 4.34229E-01-3.87507E-01-2.68852E-01 1.18641E-01-3.35145E-02
 -1       134 1.98327E+00 4.91479E-01-1.72130E-01-4.01284E-01 9.20454E-02-1.92813E-01
 -1       135 2.42990E-01 4.02890E-02 2.32024E-01-3.30758E-02 4.69195E-02-3.59159E-01
 -1       136 6.05686E-01 5.09451E-01 7.15910E-01-1.52347E-01-3.17800E-01 4.57934E-01
 -1       137 2.11157E-01 7.81921E-02 3.65399E-01 1.77859E-01-6.06788E-02 4.26745E-01
 -1       138-5.14495E-01 6.57352E-03 1.88099E-02 1.50215E-01 2.70336E-03-1.55894E-01
 -1       139-6.43983E-01-1.88038E-01-1.77142E-01 1.27731E-01-3.70101E-02-4.05531E-04
 -1       140 2.07527E+00 3.27656E-01-1.35439E-01-1.89579E-01 4.25432E-02-1.15772E-01
 -1       141-4.73088E-01 1.21965E-01-6.73131E-02 2.57120E-01 1.43794E-02-6.24019E-02
 -1       142-4.07244E-01 8.63043E-02 1.85216E-01 2.30770E-01-8.38642E-02-1.19938E-01
 -1       143 2.40149E+00 7.60092E-01-2.75404E-01-7.94323E-01-6.69373E-02 2.07811E-01
 -1       144 2.09242E+00-8.44339E-02-3.49833E-01 3.13760E-01 2.09370E-01-3.52138E-02
 -1       145-2.79643E-01 1.05662E-01 2.87441E-02 1.49018E-01 1.23397E-01-9.74040E-02
 -1       146 4.79852E-01 7.91173E-01-4.45967E-01-7.87101E-01-2.49701E-01-1.50471E-01
 -1       147 1.64795E+00-4.63258E-02-1.59176E-01 1.63021E-01-1.12792E-01-1.09519E-01
 -1       148 2.76142E-01-1.78257E-02 1.82103E-01-2.36082E-02-1.23839E-03-3.00847E-01
 -1       149 1.80299E-01-7.76748E-03 2.22878E-01-1.01765E-02 1.00060E-01-3.57596E-01
 -1       150 2.34005E+00 3.98031E-01-1.88499E-01-3.64698E-02 5.04002E-03-2.28541E-01
 -1       151 1.11001E+00 2.31314E-01-2.53871E-01-6.29935E-01 1.97517E-01-3.20955E-02
 -1       152 3.20298E+00 5.50821E-01-3.17788E-01 2.12879E-01 4.18635E-02 1.39041E-01
 -1       153 2.78935E+00 4.68781E-01-3.04433E-01-2.93157E-01-9.33874E-04 1.22098E-01
 -1       154 2.17730E+00 3.87125E-01-2.13900E-01 3.41265E-01-4.95784E-02-1.60413E-01
 -1       155 9.76720E-01 2.30644E-01 6.32046E-01 1.09413E-01 8.80156E-02 7.85705E-01
 -1       156 5.73355E-01 3.73241E-01 6.09728E-01 2.10362E-01 2.00101E-01 6.46240E-01
 -1       157 8.96101E-01 1.02380E-01 6.98514E-01 5.85683E-02 1.19858E-01 7.62466E-01
 -1       158 3.33329E+00 2.79645E+00 2.31375E+00 1.22323E-01 2.56038E-01-8.40723E-01
 -1       159-4.02806E-01-1.27622E-01-6.57916E-02-2.43885E-01-1.17050E-02 1.25522E-01
 -1       160 1.46503E+00 3.84081E-01-4.25451E-01 9.36490E-01 2.36513E-01-1.06965E-01
 -1       161-9.82982E-01-2.42611E-01-1.82377E-01-2.75417E-02-4.35026E-02 1.14888E-01
 -1       162 1.25752E+00 2.56429E-01-2.72256E-01 7.02398E-01-2.22360E-01-5.23473E-02
 -1       163 1.40763E+00 3.21534E-01-3.40052E-01-8.30450E-01-2.36814E-01-4.22277E-03
 -1       164-6.99056E-01 1.82231E-01 1.11553E-01-9.02180E-02 8.78183E-02-1.32476E-01
 -1       165 2.68991E-01 1.17364E-02 1.27795E-01 6.27822E-02-4.71669E-02-2.83838E-01
 -1       166 2.29704E-01 2.21218E-02 2.39289E-01 3.46451E-02-6.01484E-02-3.75133E-01
 -1       167 1.20150E+00 1.33871E-01-5.16627E-01-2.01143E-01 1.12120E-01-3.12737E-02
 -1       168 2.15514E+00 4.59044E-01-2.70255E-01 2.67796E-01-4.39529E-03-1.02895E-01
 -1       169 2.77745E+00 6.21118E-01-2.83295E-01 5.18273E-01 2.39830E-02 3.55029E-03
 -1       170 5.30515E-01 7.45282E-01-6.89099E-01 4.62861E-01 9.62689E-02-1.01429E-01
 -1       171 5.37357E-01 1.73497E-01 5.84536E-01 2.12064E-01 3.08068E-01 6.10062E-01
 -1       172 7.04351E-01 3.37417E-01 2.93789E-01 2.98022E-01 2.18731E-01 5.15522E-01
 -1       173-7.56632E-01-1.45143E-01 5.02865E-02-1.55609E-01 1.33273E-02-1.08832E-01
 -1       174-5.52278E-01 2.48375E-02 1.13494E-01-1.15712E-01-4.55685E-02-1.34785E-01
 -1       175 1.87398E+00 5.24650E-01-7.70591E-02 4.82046E-01-4.50554E-02-2.31054E-01
 -1       176 2.78581E+00 2.19247E+00 2.01692E+00 1.35192E-01 3.82994E-01-8.85201E-01
 -1       177-6.11369E-01-3.45077E-02-1.00168E-01-1.30936E-01-4.03476E-03-3.00081E-02
 -1       178-9.28515E-01-1.02777E-01-1.95630E-02-8.12439E-02-2.27925E-02-1.08474E-01
 -1       179-1.01706E-01 2.11505E-01 4.33730E-01-3.20757E-01 5.59757E-02-1.84305E-01
 -1       180 2.59713E+00 8.62682E-01-3.04113E-01 8.34738E-01 4.14500E-02 1.83293E-01
 -1       181-2.08899E-01 8.61482E-01 1.99035E-01-4.08546E-01 4.32642E-02-3.24766E-02
 -1       182 2.01714E+00-6.89368E-02-3.16711E-01-3.19494E-01-1.85378E-01-6.17362E-02
 -1       183 4.77811E-01 5.39128E-01-9.48079E-02 5.56239E-01-1.96321E-01-7.61469E-02
 -1       184 1.08252E+00 7.38448E-03-3.36745E-01 1.50094E-01 1.34673E-01 2.83296E-02
 -1       185 1.31151E+00 7.32013E-01-1.12271E-01 6.56632E-01-1.13719E-01-1.16505E-01
 -1       186 9.77162E-02 5.92649E-01-8.10933E-02 3.26510E-01-2.75514E-01-2.06878E-02
 -1       187 1.20206E+00 9.48070E-03-5.05029E-01 1.99195E-01-1.87930E-01-6.16705E-02
 -1       188 1.49423E+00 1.16776E+00-1.32081E-01 8.97823E-01 1.00054E-01 5.91189E-02
 -1       189 3.05385E-02 1.08258E+00-2.36969E-01 3.78632E-01 1.55765E-01-1.08088E-01
 -1       190 1.82647E+00 7.12402E-01-2.56868E-01 8.12630E-01-4.00635E-02-8.36278E-02
 -1       191 2.95567E-01 2.62690E-01 3.98399E-01 1.58788E-03 3.67668E-01 1.09961E-01
 -1       192 4.95813E-01 2.62037E-01 4.56904E-01 3.27152E-01 3.35140E-01 4.68115E-01
 -1       193 2.26058E+00 1.28552E+00 2.34069E+00 3.13943E-01 2.49243E-01-1.57457E+00
 -1       194 2.55235E-01 3.82194E-02 1.72454E-01 8.95674E-02-7.32779E-02-3.26984E-01
 -1       195 1.80642E-01 3.40915E-02 4.16393E-02 1.02231E-01-1.38077E-02-2.62484E-01
 -1       196 4.40798E-01 2.69548E-01 5.53596E-01 3.27418E-01 3.68638E-01 4.93936E-01
 -1       197-4.12189E-01-1.49215E-01-1.68457E-03-2.46846E-01 1.40488E-01-1.84920E-02
 -1       198 3.87717E-01 2.40119E-01 7.28416E-01 4.70949E-03 2.66557E-01 3.34709E-01
 -1       199-2.90008E-01 1.74403E-02-1.30539E-01-4.41164E-01 1.51244E-01-5.10310E-02
 -1       200 1.52936E+00 4.36977E-01-1.74141E-01 5.59251E-01 2.98289E-02 5.74787E-02
 -1       201-3.99371E-01-5.86446E-02 1.54839E-01-2.01772E-01-3.09139E-02-1.15806E-01
 -1       202 1.04777E-01-7.04035E-02 2.69980E-01-2.86360E-01 1.75248E-01-3.23707E-01
 -1       203-8.14141E-02-3.39182E-02 1.84130E-01-3.05647E-01 1.68438E-02-3.84932E-02
 -1       204 5.71274E-02 2.89812E-02 1.65292E-01 1.14708E-01-6.82914E-02-1.97805E-01
 -1       205 4.39465E-01 3.48367E-01-5.94031E-02 4.55085E-01-3.41171E-01-1.19118E-01
 -1       206 5.36306E-01 3.83914E-01-1.12378E-01 5.41993E-01-6.29638E-03-2.71896E-02
 -1       207 5.92369E-01 7.19049E-01-1.96939E-01 6.66303E-01-4.44827E-02 1.06595E-02
 -1       208 2.44084E-01 2.25968E-02 1.66194E-01 2.18097E-01 4.41864E-02 3.30112E-01
 -1       209 2.71783E-01 2.37115E-01 3.05027E-01 2.87368E-01 2.72835E-01 2.35263E-01
 -1       210 8.94586E-01 6.62933E-01 1.76795E+00 7.63945E-01-2.47490E-01-1.36069E+00
 -1       211 5.68858E-02 6.07540E-02-1.62564E-02 7.70502E-02 3.64771E-03-1.68870E-01
 -1       212-7.40745E-02-8.53558E-02-3.92927E-02-2.62553E-01 1.72949E-02-8.14686E-02
 -1       213 3.73936E-01 3.79734E-01 4.15346E-01 1.22276E-01 3.28727E-01 6.61885E-02
 -1       214 6.75582E-01 1.89581E-01-9.82950E-02 4.18187E-01 1.65932E-01 1.20825E-01
 -1       215 1.48702E-01 2.19070E-01 5.20385E-01-8.11084E-03-2.40064E-01-2.36990E-01
 -1       216-7.35696E-02 1.96030E-01-5.12067E-02 1.80960E-01-3.40117E-01 7.88566E-02
 -1       217 1.17539E-01 7.47212E-02 4.42303E-01-1.35574E-01-2.81136E-01-1.91790E-01
 -1       218 3.55896E-01 6.35617E-01-1.75320E-02 4.68229E-01 1.41380E-01 2.36106E-02
 -1       219 7.46315E-01 1.64189E-01-2.49353E-01 4.85873E-01-2.66572E-01-1.02041E-01
 -1       220-2.66224E-02-2.43964E-02-1.34950E-01-8.66890E-02-2.50611E-01-1.03914E-01
 -1       221 2.48809E-01-1.59632E-01-1.84730E-01-3.49216E-01 2.13922E-01-2.22141E-01
 -1       222-2.03449E-02 3.62267E-01 1.80524E-02 7.18055E-02 1.99812E-01-1.68443E-02
 -1       223 1.26573E-02 6.22104E-02-1.13934E-01 1.05306E-01 2.00861E-02-1.95714E-01
 -1       224-5.20885E-02-6.94715E-02-1.21744E-01 4.12155E-01 5.46596E-02-4.31425E-03
 -1       225-1.41001E-01-1.78009E-01 1.12616E-01 3.01314E-01 1.65584E-01 1.37552E-03
 -1       226-6.78325E-02 3.15195E-02 1.16935E-01 1.57695E-01-6.53123E-02-2.45358E-01
 -1       227 2.87215E-03-1.81271E-01-7.08271E-03 4.29460E-01-1.36376E-03 1.50642E-02
 -1       228 4.23507E-02 7.71676E-03 4.99359E-03 1.89997E-01 6.20761E-03 1.52839E-01
 -1       229-1.49844E-01-1.65788E-01 5.18555E-02 4.22364E-01-1.55701E-01 4.29839E-02
 -1       230 9.25707E-02 1.26781E-02 2.32093E-01 1.54972E-01 1.20311E-01 1.90438E-01
 -1       231 1.46946E-01 4.41582E-02-6.87271E-02 1.66912E-01 2.00303E-01 6.93845E-02
 -1       232 2.30321E-02-1.03697E-01 5.76915E-03-6.99848E-02 2.14490E-02-2.47509E-01
 -1       233-2.23354E-01-2.59634E-01 2.94729E-02 2.78702E-01-1.79161E-01 8.45796E-02
 -1       234 9.32305E-02 1.54935E-01-1.13151E-01-1.80097E-01-1.10113E-01-2.54977E-01
 -1       235-1.31686E-01-3.25899E-01 4.92523E-02 4.23507E-01 1.97865E-01-5.91978E-03
 -1       236 2.43904E-01 1.52044E-01 3.35257E-03 2.50731E-01-2.29290E-01-1.37147E-01
 -1       237-2.91565E-02 9.59895E-03-1.70710E-01 1.16817E-01 6.28497E-02-2.10732E-01
 -1       238-1.59921E-01-2.27810E-01-2.35047E-01 2.05558E-01-2.32590E-01 2.02001E-01
 -1       239-6.06652E-01-7.99620E-01 2.08296E-01 6.98134E-01-1.62160E-02 5.29469E-02
 -1       240-3.64484E-01-4.12809E-01 4.17031E-02 4.45271E-01 3.68833E-01-1.17994E-01
 -1       241-1.04484E-01 8.49112E-03 3.50373E-02 1.04559E-01-5.16396E-03-2.31486E-01
 -1       242-7.76593E-01-2.13386E-01 2.80814E-01 5.41924E-01 2.57519E-01-5.83727E-02
 -1       243-3.70209E-01-7.68270E-01 5.67512E-03 4.81350E-01-1.85697E-01 6.57865E-02
 -1       244 1.61562E-01 1.11856E-01-1.34929E-01-2.34703E-01-9.35586E-02-1.21447E-01
 -1       245-5.95077E-01-4.69100E-01 1.86394E-01 5.72591E-01 1.14827E-01-4.99508E-02
 -1       246-1.14582E-01-3.29915E-02-5.24020E-02 2.92355E-02-2.09254E-01-3.91264E-02
 -1       247-1.19747E-01-2.22206E-01-1.03190E-01 1.98290E-01-1.56440E-01 1.59541E-01
 -1       248 5.30179E-02 1.32237E-02-2.48075E-01-2.58719E-01 2.07034E-01-1.09282E-01
 -1       249 1.61251E-02-3.18817E-01-7.74667E-02 1.39561E-01 3.00520E-01-5.48863E-03
 -1       250-1.94893E-01-7.39013E-02-6.77699E-01-3.77283E-02 6.69283E-02-3.16798E-01
 -1       251-6.29815E-01-2.17705E-01 1.89111E-01 4.54289E-01-1.64790E-01 2.78739E-02
 -1       252 9.78235E-03 1.05967E-01 1.12339E-01-2.19643E-01-4.96765E-03-8.49460E-02
 -1       253 1.42778E-01 1.73690E-01 2.25030E-01-1.09532E-01 1.28949E-01-5.30251E-02
 -1       254 3.31606E-03-5.05407E-01-6.67661E-02 6.62831E-02-2.23428E-01 9.69705E-03
 -1       255 5.58733E-02 1.31780E-01 5.91637E-02-2.69281E-01-1.65910E-01-2.67138E-01
 -1       256-2.10568E-01 5.64262E-04-4.89987E-02 9.49475E-02 4.45673E-02-3.08968E-01
 -1       257-1.83136E-01-5.65915E-01 5.63156E-01 2.72573E-01-1.73132E-01-1.13888E-01
 -1       258-1.55076E+00-1.09865E+00 2.11949E-01 9.47420E-01-6.06341E-02 2.16082E-02
 -1       259-1.48239E+00-5.83279E-01 1.76715E-01 6.66261E-01 1.07374E-01-1.55208E-01
 -1       260-6.39353E-01-2.76667E-01-4.96834E-01 3.09773E-01-3.33576E-01 5.39877E-01
 -1       261-8.25208E-01-5.21030E-01-7.04585E-01 7.99135E-02-3.18136E-01 4.30044E-01
 -1       262-5.30389E-01-3.03550E-01-6.57109E-01 3.31322E-01-3.75077E-01 5.90167E-01
 -1       263-6.52705E-02 2.63760E-02-2.98611E-01 5.23833E-02 8.15087E-02-2.36975E-01
 -1       264-9.77023E-01-6.57824E-01 8.18275E-02 5.60227E-01 2.44418E-01-2.36405E-01
 -1       265 1.47805E-01-1.97987E-01 8.09980E-02 7.46907E-02-2.47710E-01-7.39325E-02
 -1       266-1.62451E+00-6.08132E-01 2.70356E-01 7.32948E-01 6.25367E-02-7.87365E-02
 -1       267 2.83840E-01 1.26989E-01 4.46156E-02-2.68099E-01 7.65844E-02-9.60085E-02
 -1       268-7.45857E-01-1.13758E-01-3.50707E-01-2.32811E-01-1.21113E-01-4.79085E-01
 -1       269 2.97990E-01-2.32019E-02-1.35001E-01-3.97214E-01-5.37656E-02-1.04185E-01
 -1       270-1.42156E+00 1.90049E-02 2.39358E-01 3.29004E-01-1.66576E-01 6.37907E-02
 -1       271-1.42085E+00 5.13772E-02 3.26432E-01 3.32437E-01 2.19655E-01-5.80382E-02
 -1       272 3.28521E-01 1.05685E-01-2.88935E-01-2.71454E-01-3.21032E-02 1.20276E-01
 -1       273 4.50137E-01 1.02922E-01 9.61814E-02-1.78670E-01-9.52932E-02-2.37933E-02
 -1       274-1.28679E-01-6.35200E-01 2.66914E-03 3.32333E-01 2.67183E-01-6.76781E-02
 -1       275-2.70135E-01-2.14699E-02-1.67370E-01 3.92949E-02 4.24620E-02-3.40758E-01
 -1       276-1.24957E-01-9.81688E-03-3.89151E-01 7.48308E-02 1.03422E-01-3.20280E-01
 -1       277-2.17577E+00-3.99023E-01 2.27778E-01 2.79711E-01 3.59846E-02-1.04266E-01
 -1       278-4.24056E-01-3.83610E-01 3.95227E-01 3.60195E-01 1.83661E-01-4.37001E-02
 -1       279-4.77870E-01-2.55287E-01-5.63171E-01 1.11627E-01-2.54319E-01 5.97672E-01
 -1       280-7.62196E-01-2.31560E-01-2.98003E-01 2.81070E-01-2.30855E-01 5.53231E-01
 -1       281-4.24871E-01-4.47865E-01-6.74360E-01 1.68070E-01-3.45301E-01 5.74940E-01
 -1       282-5.54315E-01-1.36416E-01-5.36493E-01-1.24724E-02-8.63813E-02 5.98645E-01
 -1       283-2.65988E+00-8.17434E-01 2.17357E-01 7.19819E-01-9.90341E-02 2.43613E-01
 -1       284 6.13331E-01-5.60461E-02 1.64620E-01-2.20688E-01 3.39265E-02-1.10815E-01
 -1       285-1.97155E+00-5.13246E-01 1.47076E-01 4.84145E-01 7.88784E-02-2.45174E-01
 -1       286-2.68930E+00-5.20650E-01 1.83675E-01 3.84165E-01-7.84709E-02 7.11804E-02
 -1       287 4.16952E-01 6.06221E-02 1.11265E-01-8.39424E-02-2.77228E-03-3.44633E-02
 -1       288-2.00469E+00 4.43819E-02 2.21126E-01-2.78131E-01 1.35861E-01 2.95171E-03
 -1       289-5.50363E-01-8.25973E-01 3.93779E-01 8.26966E-01-2.67583E-01-9.73018E-02
 -1       290 5.12473E-01-2.04066E-02-8.70445E-03-7.76572E-02-5.37521E-02 1.03684E-01
 -1       291 1.37310E-01-2.39337E-01-5.02886E-01-3.02579E-01-1.55025E-01-1.57657E-01
 -1       292 2.73351E-01 2.75646E-02-5.84848E-02-2.01637E-01-9.16322E-02-7.93031E-03
 -1       293-1.66769E+00 7.57157E-02 2.60750E-01-1.95624E-01-1.68206E-01-6.07927E-02
 -1       294-2.66471E+00-1.08056E+00-1.12358E+00-2.38824E-01 3.61460E-01 2.07294E+00
 -1       295-8.58626E-01 1.14444E-01 1.24044E+00-1.96460E-02-2.15874E-02-1.22226E-01
 -1       296 4.59622E-01 4.01557E-01 8.81748E-01-3.99242E-03-3.36012E-01 1.60040E+00
 -1       297-8.02550E-02-1.64849E-01-4.42912E-02-8.12811E-02 1.85210E-01 1.17158E-01
 -1       298 0.00000E+00 0.00000E+00 0.00000E+00 0.00000E+00 0.00000E+00 0.00000E+00
 -1       299 1.46077E-02-5.81533E-02 7.55842E-01-2.07667E-01 1.26035E-01-5.32181E-02
 -1       300 1.86832E-01 1.14977E+00 4.13527E-01-2.22109E-02-1.18338E+00 6.67473E-01
 -1       301-2.14904E-01-6.65598E-01-3.43935E-01-4.85365E-01 6.25276E-01 1.47465E+00
 -1       302-1.82850E+00-1.85301E+00-1.10445E+00 7.50149E-01-1.18027E+00 1.17348E+00
 -1       303-1.04376E+00-1.51209E+00-7.66756E-01 4.55984E-01-1.04508E+00 6.92925E-01
 -1       304-1.53417E+00-1.63207E+00-9.49872E-01-6.25600E-01 9.90312E-01 9.65163E-01
 -1       305 6.19840E-02-4.21272E-02 4.09952E-01-9.73991E-02 4.14895E-01 2.82364E-01
 -1       306-3.61067E-01-7.61678E-01-3.36823E-01-1.17798E-01 6.50545E-01 2.71948E-01
 -1       307 1.08219E-02 1.10863E-01-1.22825E-01-4.19068E-02 2.15084E-01 4.29779E-02
 -1       308-9.84261E-02-8.39909E-03-2.09808E-01 1.65791E-02-5.20517E-01 2.46613E-01
 -1       309 1.38120E+00 1.45796E+00 8.51747E-01 5.68110E-01 1.10800E+00 1.11569E+00
 -1       310 5.94944E-01 8.62580E-01-2.20650E-01 3.89928E-01 1.79603E-01 3.49878E-01
 -1       311 3.19461E-01 6.13117E-02 1.66088E-03-1.14039E-01-9.86346E-01 8.82051E-01
 -1       312-2.57023E-01-2.14348E-01 8.01204E-02 1.30151E-01-1.05440E+00 2.30799E-01
 -1       313 1.30025E+00 8.64206E-01-3.52898E-01 5.89835E-01 3.17922E-02 3.95517E-01
 -1       314 2.21956E+00 5.43149E-03 6.55284E-01 4.13190E-01-6.78580E-01 1.90660E+00
 -1       315 2.37006E-01-3.95070E-02 2.60381E-01-1.49185E-01-6.17763E-01 9.22807E-01
 -1       316 2.15455E+00 9.79055E-01 9.40082E-01-2.18580E-01-4.47522E-01 2.26759E+00
 -1       317 8.17987E-01-3.71498E-01 1.40426E-01-5.28740E-01 4.63218E-01 1.30433E+00
 -1       318-9.90376E-02-5.50073E-02 1.07859E-02-1.74620E-01 2.40079E-01 1.49818E-01
 -1       319-1.42049E+00-1.19365E+00-6.24720E-01 5.41168E-01-8.38962E-01 1.44861E-01
 -1       320-6.91759E-01-4.15217E-02-3.68455E-02 1.50823E-01-3.62957E-02-7.92899E-03
 -1       321-2.47404E-01 2.45779E-01 1.33912E-01 3.85346E-02 6.77481E-02 2.70717E-02
 -1       322 1.92342E+00-9.02244E-01 1.58984E-01 9.95809E-01-6.12363E-01 1.57626E+00
 -1       323-4.68517E-01-1.06015E-01 9.38011E-02-2.55120E-01-1.10855E-01-3.42697E-02
 -1       324-6.39091E-01 2.34308E-02-2.00677E-02-3.07542E-02-1.31845E-01 2.08808E-02
 -1       325-1.34031E+00-7.08083E-01-4.69620E-01-2.28018E-01-4.95027E-01 5.96910E-01
 -1       326 1.79632E-01-3.22189E-01-1.38113E+00 1.97515E-01-1.29037E-01 2.59667E-01
 -1       327-1.38248E-01-2.16297E-01 2.43479E-01-1.51820E-01 4.38681E-01 5.93569E-01
 -1       328 7.90762E-01 2.24300E-01 6.40465E-01-9.88917E-02 1.59006E-01 6.39033E-01
 -1       329 5.32390E-01 3.92600E-01 5.10256E-01-1.39085E-01-1.50838E-01 5.38119E-01
 -1       330-1.33019E+00-3.18759E-01 4.51183E-01 4.88478E-02 5.51115E-02-2.51180E-01
 -1       331-1.19131E-01-5.98637E-01-2.32418E-01 1.66338E-01-9.96331E-01 8.74916E-01
 -1       332-5.33614E-01 5.44351E-02 8.03792E-02-2.59579E-01-1.08558E-01-3.31189E-02
 -1       333 3.94434E-01 4.00924E-01 4.21270E-01-7.15128E-03 3.02518E-01 3.89270E-01
 -1       334-8.38846E-02-7.51004E-02-1.28949E-01-1.79140E-01 1.17689E-01-6.94112E-02
 -1       335 3.27727E-01 2.59559E-01 4.60760E-01-9.41644E-02-2.37086E-01 1.20277E-01
 -1       336 3.87773E-02-4.20439E-02 2.60648E-01 7.73676E-02 1.90587E-02 7.85198E-02
 -1       337 2.12165E-01-1.77575E-02 2.58421E-01 2.15824E-01-2.00364E-01-2.53308E-01
 -1       338 3.42155E+00 3.26701E+00 2.31768E+00-2.09260E-01 8.80132E-02-5.50615E-01
 -1       339 3.33960E+00 3.36280E+00 2.11964E+00 5.20401E-02-6.62364E-02-4.85158E-01
 -1       340-4.86355E-01 2.61284E-01 1.19040E-01 2.32140E-01-7.49535E-02-4.42566E-02
 -1       341-3.94670E-01 4.78731E-01 8.22418E-02 1.64174E-01-1.20141E-01-1.50584E-01
 -1       342-4.46895E-01 4.33222E-02-1.30252E-01 5.57271E-02 4.13107E-02-1.81883E-01
 -1       343 2.12264E+00 1.72080E+00 7.82340E-01 1.01763E-01-3.42267E-01-3.57848E-01
 -1       344-1.71041E-01 1.82483E-01 3.70490E-01 4.21670E-01-1.94773E-01-2.75743E-01
 -1       345 3.10999E+00 1.90042E+00 2.16185E+00 2.38441E-01-6.79790E-01-1.02121E+00
 -1       346 1.55813E-01 3.16419E-01 5.50248E-01 4.30531E-01-2.30214E-01-2.52481E-01
 -1       347-6.43071E-02-1.56208E-01-1.61780E-01 2.78303E-01-1.41718E-01-2.09883E-01
 -1       348 2.73171E+00 1.21176E+00 1.66344E+00-3.98043E-01-4.81715E-02-1.41859E+00
 -1       349 2.47765E-01-4.37796E-01-5.58967E-01 9.06628E-01 4.91411E-01-1.33121E+00
 -1       350 1.02612E-01-9.28395E-03-2.80126E-02-1.77954E-01 4.92095E-02-6.05095E-02
 -1       351 2.03046E+00 4.11773E-01-1.04662E-01 1.76682E-01 9.47869E-01-8.65459E-01
 -1       352 2.75690E+00 2.08638E+00 1.04841E+00-2.99131E-01 5.07558E-01-4.42711E-01
 -1       353-3.48098E-01-7.97438E-02-2.34473E-01-2.79172E-01 7.30403E-02 2.28151E-03
 -1       354 3.78656E+00 3.50898E+00 2.77342E+00 5.51004E-03-2.78621E-01-8.27873E-01
 -1       355-6.73289E-01 1.96998E-01-9.67433E-02 4.07536E-02 1.47107E-01-7.48057E-02
 -1       356 3.59524E-01 2.27462E-01 4.21135E-01 1.77316E-02 1.00736E-01 8.19475E-02
 -1       357-2.30426E-01-1.29675E-01-4.65055E-03-2.76769E-01-1.37442E-01-2.30958E-02
 -1       358 3.75550E-02-3.40199E-02 5.76106E-02-6.40036E-02 3.28470E-02-7.77846E-02
 -1       359 1.08844E+00 7.43581E-01 1.46402E+00-6.71926E-01 8.46502E-02-1.43382E+00
 -1       360 2.78470E-01 6.38354E-02 6.59892E-01 4.47165E-02 7.77933E-02-4.19560E-01
 -1       361-1.24916E+00-9.19823E-01-1.81443E+00-7.93700E-01-6.04990E-02-1.69591E+00
 -1       362-3.20602E-01-2.03652E-01 8.63432E-01 6.84498E-01-2.17021E-01-1.29028E+00
 -1       363-5.42291E-01 2.13489E-01 1.20447E+00-7.58577E-01 7.28448E-01-1.34735E+00
 -1       364-1.06916E+00-9.13311E-01-1.21457E+00 7.44126E-01 1.73491E-01-1.49378E+00
 -1       365 5.18968E-02 6.54036E-03 6.44896E-02-2.56086E-01-1.49221E-01-9.59289E-02
 -1       366-3.89359E-01-3.53488E-01-7.80805E-01-2.02777E-02-1.51880E-01-3.00626E-01
 -1       367 4.14910E-01-1.10876E-01-5.15133E-02-1.43310E-01 8.69470E-03-1.61905E-01
 -1       368-2.91879E+00-1.72081E+00-6.81447E-01-1.21483E-01-3.97654E-01-6.92130E-01
 -1       369 4.98526E-01 9.70405E-02 1.18907E-01-3.43207E-01 1.07504E-02 2.60427E-02
 -1       370-3.18069E+00-1.40150E+00-2.37306E+00-2.89626E-01 3.88073E-01-1.46754E+00
 -1       371-1.85830E-01 3.91916E-02-3.02648E-01-1.05495E-01-6.17567E-02 6.09328E-02
 -1       372 9.34283E-02 5.17763E-02-5.36660E-02 2.47897E-01 2.21715E-02-5.49403E-02
 -1       373 2.85019E-01 2.02809E-01 2.07735E-01-2.62312E-01 1.35476E-01-1.68998E-01
 -1       374 4.38679E-01-5.98550E-01-4.05281E-03-1.26837E-01-3.79671E-02-6.51221E-02
 -1       375-3.05271E+00-2.74914E+00-1.79256E+00-2.45658E-01-4.95618E-02-5.42205E-01
 -1       376-3.95433E+00-2.82916E+00-2.78524E+00-1.88538E-01-5.91973E-01-1.27115E+00
 -1       377 6.19865E-01-2.88737E-01-1.54214E-01-1.63062E-01-1.57774E-02-1.00708E-01
 -1       378-9.87299E-02-2.20509E-01-3.24058E-01-1.19468E-01 3.97014E-01 1.54888E-01
 -1       379 7.69547E-01 1.04152E+00 5.43321E-01 3.41522E-01 1.11694E+00 6.92129E-01
 -1       380-2.76654E-01-1.13086E-01-3.49445E-01 3.00137E-03 2.16175E-01 7.87526E-02
 -1       381 2.64468E-01 5.10496E-01 2.69624E-01 8.42196E-02 1.24120E-01 1.82762E-01
 -1       382 9.15672E-03-7.13213E-02-3.41360E-01 8.79705E-02 1.41045E-01-1.23729E-02
 -1       383 1.11998E-01 7.31130E-02 2.67860E-01 1.41652E-01-2.61237E-01-1.99856E-02
 -1       384 2.37877E-02-3.39421E-02 3.36474E-01 2.34487E-01-3.75422E-02-1.56622E-01
 -1       385 2.36731E-01 1.28370E-01 3.70853E-01 3.25107E-02-5.33832E-02-2.26176E-02
 -1       386-4.94290E-01-9.33405E-01-4.28308E-01 1.84417E-01-9.70154E-01 4.04399E-01
 -1       387-2.17976E-02 4.27062E-02-1.55002E-01 4.12902E-02-9.42923E-02 2.14751E-03
 -1       388-9.74581E-02-3.04781E-01-2.94404E-02-9.82211E-03-4.62400E-01 1.26849E-01
 -1       389 2.08814E-01 2.37930E-01-2.14231E-02-1.66085E-02-2.94605E-01 1.52937E-01
 -1       390-5.44506E-01 1.45106E-01-1.44352E-01 3.02554E-01-9.62958E-01 5.89256E-01
 -1       391-1.97988E-02-1.00708E-02-2.64091E-01 9.18319E-02 5.14460E-01 4.13615E-01
 -1       392-3.80125E-01-1.35502E-01-4.53276E-01-7.82492E-02 2.81586E-01 3.85571E-01
 -1       393 8.86415E-02 5.85136E-02-1.42530E-01 1.69451E-01 5.78665E-02 8.36870E-03
 -1       394 4.62461E-01 2.22690E-01-2.36702E-02 2.81536E-01 1.32496E-01-1.36468E-01
 -1       395 8.12247E-01 1.74015E-01-2.41930E-01 1.73510E-01 1.98751E-01 3.07244E-01
 -1       396-6.16473E-01-8.43992E-02-3.09296E-01 1.13772E-01 9.23704E-02 6.10044E-01
 -1       397 0.00000E+00 0.00000E+00 0.00000E+00 0.00000E+00 0.00000E+00 0.00000E+00
 -1       398-2.99438E-01-2.43350E-01-5.93941E-01 2.65537E-02-1.88629E-01 2.59957E-01
 -1       399-1.93151E-01 9.64768E-01 1.44775E-01-5.84356E-01-8.55890E-01 1.77820E+00
 -1       400 1.71453E-01-2.43160E-01-1.95326E-01-3.03951E-02 9.24875E-02-1.18810E-01
 -1       401 3.72759E-02-8.81243E-03-3.35572E-01-5.79931E-02-5.39414E-01 5.19165E-01
 -1       402 4.89540E-01 4.70266E-02 5.09158E-02-2.67277E-01 4.91189E-02-1.74007E-01
 -1       403 8.34943E-02 3.08173E-01-4.49965E-01-1.79866E-01-3.67283E-01 3.55442E-01
 -1       404 6.66213E-01 2.93911E-01 3.72831E-01-3.04221E-01 5.34680E-02-2.18317E-01
 -1       405-1.13658E-01-1.06680E-01-3.54032E-01 2.42125E-02-2.74676E-01-5.31664E-03
 -1       406 5.14127E-05 3.63102E-01 1.54212E-01 2.70266E-01-9.77041E-01 4.35195E-01
 -1       407 1.62606E-02 7.14217E-02 9.28088E-02-2.06357E-01 8.47162E-02-8.66849E-02
 -1       408-1.95087E-02-3.99516E-02-1.62310E-02 4.94877E-02-1.29640E-01-1.25254E-01
 -1       409-7.64291E-03-5.47968E-02-3.06883E-01-2.40674E-02-4.88708E-02 6.21231E-02
 -1       410 5.72988E-02 1.40763E-01-1.46079E-01-1.59738E-01-7.79236E-02-1.34432E-01
 -1       411 3.32757E-02 1.50023E-02-2.79569E-02 9.59406E-02-3.57819E-01 1.41064E-01
 -1       412 1.19653E-01 9.93546E-03 2.94900E-01-2.49595E-02 6.43912E-02 1.45383E-02
 -1       413 4.02134E-02 2.11818E-02-3.85116E-02 7.50690E-03 5.61919E-02-1.31479E-01
 -1       414-2.21158E-01-1.11897E-01-3.00616E-01-2.74067E-01-1.01852E-01-9.45655E-02
 -1       415 1.00474E-01 1.67535E-01-5.13508E-02 1.42109E-02 1.30406E-01 2.65197E-03
 -1       416-2.26681E-03-1.04705E-02-3.93383E-02-2.37731E-02 2.75931E-01 2.26221E-02
 -1       417-2.14887E-01-2.00782E-02 6.04328E-02-1.64010E-01 5.34247E-03-1.28854E-01
 -1       418 7.04430E-01-3.75543E-02 8.75781E-03 1.87833E-03-1.09156E-01-7.09405E-02
 -1       419 4.82178E-01-3.55967E-02-2.60295E-02 2.09978E-01 5.37954E-02-5.23113E-02
 -1       420 1.77454E-01-8.96975E-01-2.74112E-01 3.47695E-01 1.37219E-01-1.31314E-01
 -1       421-3.25750E+00-2.67767E+00-1.31692E+00 5.85515E-02 3.42373E-02-3.95015E-01
 -1       422-4.48361E+00-3.49664E+00-2.33830E+00 2.26843E-02 2.13344E-01-9.22932E-01
 -1       423-2.46764E-01-4.66076E-01-5.62044E-01 4.35396E-01 9.31264E-02-2.04657E-01
 -1       424-3.88781E-01 1.38861E-02-3.73167E-01 3.07595E-01 1.38872E-02-3.77886E-01
 -1       425-3.63844E-01-5.26809E-02-2.70218E-01 1.23311E-01 1.62635E-01 8.00709E-02
 -1       426-3.00233E+00-1.89416E+00-6.87090E-01 2.88674E-01 6.44221E-01-6.78332E-01
 -1       427 3.35929E-01 4.07799E-02 2.26269E-01 4.13777E-01 1.11275E-01 1.91783E-01
 -1       428-3.65963E+00-2.27498E+00-2.13781E+00 7.39522E-03 3.31050E-01-1.20276E+00
 -1       429-3.10226E+00-1.76668E+00-2.41941E+00 4.69232E-01-3.50778E-01-1.59719E+00
 -1       430-1.96400E+00-6.09723E-01 1.12715E-01 3.12212E-01-7.21107E-01-9.33359E-01
 -1       431 1.01786E-01 1.38167E-01 7.19859E-02 4.78518E-02-3.62303E-02-1.64399E-02
 -1       432 1.57065E-01 1.21883E-01 5.31577E-02 5.43170E-03-1.19787E-02 5.46167E-02
 -1       433 5.97809E-02 8.45760E-02 1.51961E-01-6.62803E-02-4.44803E-01 1.21300E-01
 -1       434 4.55220E-01 6.63636E-02 1.62709E-01 5.74825E-01-5.13849E-01 2.18416E+00
 -1       435 0.00000E+00 0.00000E+00 0.00000E+00 0.00000E+00 0.00000E+00 0.00000E+00
 -1       436-7.43683E-03 2.15859E-02-1.03061E-01-2.85955E-02-6.44297E-02-3.93663E-03
 -1       437-3.85579E-01-7.09800E-02-1.52373E-01 5.67016E-01-8.71164E-01 4.68547E-01
 -1       438-9.34169E-01-6.37230E-01-4.73846E-01 8.50861E-01-5.00616E-01 2.03327E+00
 -1       439-1.80296E+00 6.10543E-01-6.41569E-01-5.80448E-01-6.86019E-01 1.51638E+00
 -1       440-5.92551E-01-8.32564E-01 4.11040E-02 3.99016E-01-2.54888E-01 6.37804E-02
 -1       441-9.42153E-01-1.37961E+00-1.46453E-01 6.01818E-01-4.51914E-01 1.11366E-01
 -1       442-3.97698E-01-6.50305E-01-2.40348E-01-3.47277E-01 2.35672E-02 1.42026E-01
 -1       443 5.20930E-01 4.95166E-01 8.91840E-01 5.37746E-02-1.21792E-01 5.81849E-01
 -1       444-3.06901E-01-3.95044E-01-6.38120E-02-4.31565E-01-6.73543E-02 1.77722E-01
 -1       445 4.08838E-02 9.38153E-02 6.52171E-02 2.54005E-03-4.23999E-02-1.22624E-03
 -1       446 1.97244E+00 1.16039E+00 9.39851E-01 5.11215E-01 5.54011E-01 1.37435E+00
 -1       447-1.98573E-01 1.34393E-01 6.28309E-01 6.69243E-03 3.00061E-01 6.86489E-01
 -1       448-3.52943E-01-8.94823E-01-3.74330E-01-2.38737E-04-6.31590E-01 1.27737E-01
 -1       449-2.33305E-01-1.62507E-01-7.60622E-01 3.30801E-03 3.33348E-02-5.25387E-01
 -1       450-2.42490E-01-2.75970E-01-8.69832E-01-2.57427E-02-1.30440E-01-6.48323E-01
 -1       451-9.77764E-01-2.46585E-01 4.69456E-02-8.99612E-03 4.50712E-02-5.09484E-01
 -1       452-9.82604E-01-9.59560E-02-3.06767E-02-3.03041E-02-1.81533E-03-5.60334E-01
 -1       453-8.74285E-01-2.30608E-01 5.16369E-03 1.54012E-02 5.16124E-03-1.33954E-01
 -1       454-1.14944E+00-6.20404E-02-1.92127E-01-4.76679E-03-1.08995E-01-1.20309E-01
 -1       455-1.46301E+00-2.05649E-01 6.66477E-02-7.64966E-03 2.04261E-03 7.10348E-01
 -1       456-1.56870E+00 1.02652E-02 6.39755E-03-1.33311E-02-1.73405E-02 7.47090E-01
 -1       457-9.41892E-01-3.31465E-01-5.53665E-01-4.39319E-03 7.54503E-02 1.14954E+00
 -1       458-8.74951E-01-5.93985E-01-1.13116E+00-8.21070E-02 2.79548E-02 1.13361E+00
 -1       459-8.48034E-02-8.79989E-02 1.49521E-01-1.83710E-02 9.19736E-03 2.55376E-01
 -1       460-1.49115E+00-2.37080E-01 2.40268E-01 7.36283E-02-1.88181E-02 1.87956E-01
 -1       461-1.02200E+00-2.40781E-01 1.34102E-01-2.61236E-02 3.17680E-02-2.94202E-01
 -1       462 1.71261E-01-3.98792E-01 3.54579E-03 7.37657E-02 3.44446E-02-1.72891E-01
 -1       463 1.10075E-01-2.73593E-01 3.64507E-02-1.35508E-01-3.59182E-02-2.42624E-01
 -1       464-8.66833E-01-2.17073E-01 1.34975E-01 5.22006E-02-7.43898E-02-2.50492E-01
 -1       465-1.20215E+00-1.74026E-01 1.63315E-01-1.13573E-01-1.25474E-01 1.22729E-01
 -1       466-9.61764E-02 2.57187E-03 1.61371E-01 8.66384E-02 4.12758E-02 1.79326E-01
 -1       467-4.43425E-01-3.12775E-01 6.32780E-02 1.79368E-01-7.28312E-02-9.54431E-02
 -1       468-6.95574E-01-4.52952E-01-3.30259E-02-1.81936E-01 1.25874E-01-2.26323E-01
 -1       469-6.33962E-01-3.33714E-01 6.77608E-02-3.20456E-01-1.42907E-01-1.49156E-02
 -1       470-3.85664E-01-2.25727E-01 3.83644E-01 1.33696E-01 2.42615E-02 9.15706E-02
 -1       471 5.66939E-01-3.49984E-02 1.71822E-01-2.40714E-02-3.17294E-03-9.60924E-02
 -1       472 6.51615E-01-6.02533E-02 5.53897E-02-2.75206E-02-4.05318E-02-2.40137E-02
 -1       473-2.35318E-01-1.75413E-01-1.12558E+00-4.75956E-02-1.09770E-01-4.98453E-01
 -1       474-7.53444E-02-1.23053E-01-3.22786E-01-3.21636E-02-9.40662E-02-6.02283E-01
 -1       475-1.21686E+00-2.43957E-01 5.03078E-02-3.71017E-01 1.74834E-01 6.89655E-01
 -1       476-1.51406E+00-2.54945E-01 8.33774E-02-4.54213E-01 1.78886E-01 5.32764E-01
 -1       477-8.45295E-01-3.16259E-01 3.20203E-02-1.70942E-01-5.38394E-02-2.24869E-02
 -1       478-1.00515E+00-3.43727E-01-6.17843E-02-2.04602E-01-9.12274E-03-2.23888E-01
 -1       479-8.26038E-01-2.93922E-01 1.76143E-04-1.39445E-01-1.31507E-01-4.50128E-01
 -1       480-8.87492E-01-1.13775E-01-1.51649E-01-2.05645E-01-1.18008E-01-5.16873E-01
 -1       481-6.45015E-01-2.50506E-01-4.68212E-01-2.05134E-01 3.68821E-01 9.48414E-01
 -1       482-9.16443E-01-5.95440E-01-1.16769E+00-1.38418E-01 3.54378E-01 1.04124E+00
 -1       483-6.03765E-02-1.39693E-01 2.29895E-01-1.27525E-01 7.12217E-02 1.67653E-01
 -1       484-1.16550E+00-2.82022E-01 1.70880E-01-2.84869E-01 4.84156E-02 1.01174E-01
 -1       485-9.77407E-01-3.11798E-01 8.24789E-02-2.43470E-01-2.25062E-02-2.53257E-01
 -1       486 1.60779E-01-1.90769E-01-6.81802E-02 1.09325E-01 8.09616E-02-2.35013E-01
 -1       487 1.56881E-01-2.39767E-01 8.89646E-02 1.38808E-01-7.38128E-02-2.48774E-01
 -1       488-7.53900E-01-1.94024E-01 1.29491E-01-1.11158E-01-7.88898E-02-1.75130E-01
 -1       489-1.18998E+00-3.51380E-01 2.19783E-01-4.38686E-01-1.13665E-02 2.01592E-01
 -1       490 7.08669E-02 3.44119E-02 6.10078E-02 8.15266E-02 1.53484E-01 1.67598E-01
 -1       491-3.02699E-02-1.60228E-01 1.75192E-01-3.87667E-02-9.58478E-02-1.78425E-01
 -1       492-4.19721E-01-5.05993E-01-1.53156E-01-1.73112E-01 6.28086E-02-2.55802E-01
 -1       493-2.74513E-01-4.99402E-01 2.46684E-01-2.77389E-01-3.90333E-02-8.40245E-03
 -1       494-1.20170E+00-3.80501E-02 3.74550E-01 1.32116E-01-5.10137E-02 8.12404E-04
 -1       495 5.03320E-01 3.05775E-02 1.82307E-01 9.17707E-02-2.00900E-02-2.71607E-02
 -1       496 2.28765E-01 8.76934E-02 1.83264E-01 1.80737E-01-1.13954E-02-1.98765E-02
 -1       497-4.03841E-01-2.40589E-01-1.33007E+00 7.35618E-03-1.57481E-01-6.99722E-01
 -1       498-5.13357E-02-3.40754E-02 9.90031E-02 2.04970E-02-6.35403E-02-3.24145E-01
 -1       499-6.71921E-01-4.48427E-01 3.32453E-02-3.95228E-01 3.15861E-01 4.04966E-01
 -1       500-4.63399E-01-3.86949E-01 1.42719E-01-4.30053E-01 2.22788E-01 2.43924E-01
 -1       501-5.02709E-01-3.02425E-01 1.35252E-02-2.35591E-01-6.70384E-02-8.97078E-02
 -1       502-5.05834E-01-2.84319E-01 9.83532E-03-3.07845E-01-2.04933E-01-3.37347E-01
 -1       503-6.22263E-01-3.11972E-01 4.36266E-02-1.91685E-01-1.83041E-01-2.20983E-01
 -1       504-5.25862E-01-2.21229E-01 2.43851E-02-2.64462E-01-2.24374E-01-4.51904E-01
 -1       505-3.88171E-01-2.40715E-01-2.46318E-01-2.11656E-01 4.34844E-01 5.63774E-01
 -1       506-6.74525E-01-5.25091E-01-9.28669E-01-1.84165E-01 4.90435E-01 7.68023E-01
 -1       507 1.67436E-01-3.35968E-02 1.76118E-01 1.60809E-02 1.69419E-01 1.44832E-01
 -1       508-8.19233E-01-4.51509E-01 1.76534E-01-4.53890E-01 6.72655E-02 1.12943E-01
 -1       509-5.50712E-01-3.39041E-01 9.95430E-02-3.10176E-01-1.70017E-01-1.86233E-01
 -1       510-1.22529E-01-1.37909E-01 4.69477E-02 3.22465E-02-1.15342E-01-2.00767E-01
 -1       511-3.86129E-01-2.34771E-01 1.22217E-01-1.13560E-01-5.78101E-03 4.64521E-02
 -1       512 1.70713E-01-1.22066E-01 1.21544E-01 2.04893E-01 1.06065E-01-4.82734E-02
 -1       513-6.88490E-01-5.03695E-01 1.06979E-01-3.81054E-01 1.97758E-01 3.40249E-01
 -1       514 5.24002E-01 2.05135E-01 1.54070E-01 5.14165E-02 1.31116E-01 1.77818E-02
 -1       515-5.86031E-01-7.65887E-04 2.92354E-01-9.50576E-02 9.22996E-02 1.04582E-01
 -1       516-3.61094E-01-2.33858E-01-3.33618E-01 6.53877E-03-2.63533E-01-4.79107E-01
 -1       517-2.10543E-01-6.41148E-01 4.71385E-02-2.72608E-01 1.71196E-01 1.58122E-01
 -1       518-7.57717E-01-7.00269E-03 3.69694E-01-1.28845E-01-1.62319E-01-1.61914E-01
 -1       519 4.31701E-01 1.38184E-01 1.19687E-01 2.57648E-01 5.34413E-03-9.44471E-02
 -1       520-7.38382E-02 7.89799E-02 7.47003E-02 1.44411E-01-4.64974E-02-1.22387E-01
 -1       521-2.37459E-01-2.18720E-01-1.01295E+00-3.70529E-02-1.73848E-01-4.55667E-01
 -1       522-4.03047E-02 1.35166E-01 6.00535E-01-4.02588E-02 8.78076E-02-2.85366E-01
 -1       523-1.97842E-01-1.99363E-01 2.37911E-02-1.50956E-01-1.24436E-01-3.83504E-02
 -1       524-2.45541E-01-4.05402E-01 7.38893E-02-2.80321E-01 2.53682E-01 1.28571E-01
 -1       525-2.27042E-01-4.49986E-01 2.09935E-02-3.37362E-01 9.90700E-02 1.64433E-01
 -1       526-1.78874E-01-1.28468E-01-6.69015E-03-2.79298E-01-5.09458E-02-1.71841E-01
 -1       527-2.06142E-01-2.66590E-01-8.64410E-02-3.64226E-01-3.47607E-01-1.10632E-01
 -1       528-2.45347E-01-2.58181E-01-7.32652E-02-1.99931E-01 5.92226E-02-5.16044E-03
 -1       529-2.97905E-01-3.17281E-01-3.21101E-01-1.66989E-01 3.36997E-01 3.57537E-01
 -1       530-8.69883E-02-1.00066E-01 5.35515E-02-9.29961E-02 1.35126E-01 3.12226E-01
 -1       531 1.45690E-01-1.06937E-01 1.50132E-01 6.97564E-02 1.09058E-01 4.58768E-02
 -1       532-2.96543E-01-3.90144E-01 8.02606E-02-3.42712E-01-5.26100E-02 6.84734E-03
 -1       533-1.40119E-01-1.63388E-01 2.87014E-02-1.40787E-01-2.62496E-01-4.09689E-02
 -1       534 1.21483E-02-1.58986E-02 6.25323E-02 8.17766E-02-1.08803E-01-2.03574E-01
 -1       535-2.10274E-01-2.02862E-01-5.33370E-03-2.07106E-01 5.55638E-02 4.05154E-02
 -1       536-9.77992E-02-4.38658E-02 1.18276E-01 1.48912E-01 6.64247E-02-2.85752E-01
 -1       537-1.89666E-01-2.91501E-01 6.06034E-02-2.32245E-01 1.19834E-01 4.76828E-02
 -1       538 8.45081E-03 3.98162E-02 1.56110E-01 2.52997E-02 1.22689E-01-9.33375E-02
 -1       539-3.54399E-01-3.73282E-02 1.70086E-01-1.89259E-01 2.08342E-01 1.45695E-01
 -1       540-1.74839E-01-2.03533E-01-1.53489E-01-1.25179E-02-2.23531E-01-1.65955E-01
 -1       541-2.50320E-01-2.50896E-01-1.77184E-01-1.68063E-02 2.09941E-01 2.16923E-01
 -1       542 1.88185E-02 8.98529E-02 5.18085E-01-1.28111E-01-3.74239E-01-5.08040E-02
 -1       543 2.10558E-01 1.38374E-01 1.26000E-01 2.24697E-01 2.10721E-02-2.44563E-02
 -1       544 1.14460E-01 1.04420E-01-2.40854E-02 2.01354E-01 2.23036E-03-5.83814E-02
 -1       545-1.74489E-01-1.79844E-01-8.93063E-01-6.87113E-02-1.92043E-01-3.47455E-01
 -1       546 1.27069E-01 1.85490E-01 8.18347E-01-3.41642E-02 2.35582E-01-2.28465E-01
 -1       547 4.18285E-02 1.53706E-04-4.39367E-03-1.23416E-01-1.26278E-02 1.06712E-02
 -1       548-3.80299E-02-3.14629E-02 6.61698E-03-1.99462E-01 5.42258E-03 8.87712E-02
 -1       549-4.52915E-03 1.04264E-01 1.33796E-01-1.30957E-01-2.41853E-01 5.25757E-02
 -1       550-3.10175E-02 6.58545E-02 5.35554E-02-1.67093E-01 6.14826E-02-8.63749E-02
 -1       551-6.62369E-02-4.89919E-03-1.16743E-02-1.33129E-01-1.75330E-01-1.91967E-01
 -1       552 1.80794E-02-1.80052E-02-5.30873E-02-1.40465E-01 2.76479E-01 9.20773E-03
 -1       553 1.62308E-02 3.99972E-02-4.47845E-02-9.05518E-02 2.61014E-02 1.99443E-01
 -1       554-5.87236E-03 9.58720E-02 1.68602E-01-7.57580E-02-5.86966E-02 1.58068E-01
 -1       555-4.74816E-02-4.77713E-02 9.63914E-02 4.05204E-03 2.46819E-03-8.11000E-02
 -1       556-2.51508E-02-1.10246E-03 7.49090E-02-1.18002E-01-2.46850E-02 1.79437E-02
 -1       557 1.02794E-01 5.18887E-02 2.98056E-02-2.20168E-01-5.23815E-02-1.13657E-02
 -1       558-1.71024E-02-8.26179E-02-1.10445E-01 1.00474E-01-5.01813E-02-1.69587E-01
 -1       559 4.41874E-02-5.24806E-02-1.52248E-03-1.19036E-01 2.90522E-01-1.32104E-03
 -1       560 2.73612E-02 1.59831E-01 2.39717E-01 1.55771E-01 2.07618E-01-2.87251E-01
 -1       561-6.79803E-03 1.65405E-01 4.27508E-02-2.17308E-01 2.22012E-01 3.02610E-03
 -1       562-9.43953E-02-1.40269E-01-1.75906E-01 1.70816E-01 1.04948E-01-2.56129E-01
 -1       563 3.04041E-02 1.14066E-01 2.29709E-01-1.19131E-01 3.03605E-01-5.05853E-02
 -1       564 4.39145E-02-2.77341E-03-2.57683E-01-8.49689E-02-3.57248E-01-1.55471E-03
 -1       565-1.56029E-01-4.34698E-02-3.68044E-01-1.10281E-01 3.32125E-01 1.82453E-01
 -1       566 7.91506E-02-2.60494E-02 2.37013E-01-1.12419E-01-2.48959E-01 8.23929E-02
 -1       567 8.42626E-04-6.01899E-02-1.27100E-01 6.49002E-02-2.78641E-02-6.14783E-02
 -1       568 3.44322E-02-3.51940E-02 7.73838E-02 1.86887E-01 6.84634E-02-1.53747E-01
 -1       569 2.03718E-01-7.77032E-03-4.72238E-01-6.30207E-02-5.36257E-02-2.52382E-01
 -1       570 2.76235E-01 2.94339E-01 1.02956E+00-6.63943E-02 3.16254E-01-4.57011E-01
 -1       571 1.89622E-01 2.21880E-01 2.64709E-02-1.72747E-01 1.32331E-01-2.36840E-02
 -1       572 2.38370E-01 2.50152E-01 8.39932E-03-2.23011E-01 2.22028E-01-1.89207E-01
 -1       573 1.19534E-01 1.54080E-01-9.02551E-02-2.58590E-01-5.31911E-03-1.72166E-01
 -1       574 2.12213E-01 3.00603E-01-2.91122E-02-3.19097E-01-1.43392E-01 1.69019E-01
 -1       575 2.09305E-01 4.42986E-01 3.95004E-02-4.29149E-01-3.31330E-01 9.98331E-02
 -1       576 2.32778E-01 2.59183E-01 1.28582E-01-2.25688E-01-1.00665E-01 2.07558E-02
 -1       577 2.64794E-01 1.43252E-01 2.38926E-01-1.73555E-01-1.36624E-01 4.38943E-01
 -1       578 3.04969E-01 2.54959E-01 3.94719E-01-1.90343E-01-3.62276E-01 3.96245E-01
 -1       579 1.03641E-01 3.32834E-02 6.23946E-03 2.76624E-03-1.45424E-01-1.31291E-01
 -1       580 2.00963E-01 2.53165E-01-7.06199E-02-1.71160E-01-1.10016E-01 5.25006E-02
 -1       581 2.87723E-01 1.83327E-01-1.54515E-01-1.79691E-01 5.44857E-02 2.09720E-03
 -1       582 4.87091E-04 9.48155E-02-1.56081E-02 1.77375E-01-8.50616E-02-1.99947E-01
 -1       583 2.78159E-01 1.98751E-01-7.87854E-02-2.29297E-01 2.60526E-01-5.56238E-02
 -1       584 1.55661E-01 1.98233E-01-6.40272E-02 1.06918E-01-7.76717E-03-6.85647E-02
 -1       585 3.44741E-01 4.48349E-01-1.13022E-01-4.03666E-01 6.54439E-02 4.89865E-03
 -1       586-1.97235E-02-1.40288E-02-3.92831E-02 8.74406E-02-3.23405E-02-4.47927E-02
 -1       587 2.48571E-01 2.21232E-01 3.07155E-01-7.29031E-02 2.54582E-01-2.32438E-01
 -1       588 3.53998E-01 6.44599E-02-2.80683E-01-1.51382E-01-1.81280E-01 1.27502E-01
 -1       589 3.13344E-02-2.24388E-02-4.37372E-01-1.95540E-01 2.82208E-01-5.04490E-02
 -1       590 1.64512E-01 2.19075E-01 2.22829E-01-1.52454E-02-2.53275E-01 2.24932E-01
 -1       591-2.47725E-03 2.60016E-02-3.83483E-02 9.47710E-02 8.32864E-02-8.91517E-03
 -1       592-1.61055E-01-4.44432E-02 5.17625E-02 2.10069E-01 2.20128E-02-1.01066E-01
 -1       593 3.23220E-01 2.58097E-01 1.14534E+00-5.37240E-02 2.61944E-01-5.55658E-01
 -1       594 9.54418E-02 9.83869E-04 5.53741E-03-1.65686E-02 7.26417E-02-3.39476E-01
 -1       595 7.89717E-01 4.66512E-01-3.66263E-02-4.86311E-01-3.47339E-01 4.41313E-01
 -1       596 7.31887E-01 4.58797E-01 1.29196E-01-6.35971E-01-4.41082E-01 5.13660E-01
 -1       597 4.93708E-01 3.02330E-01 2.44175E-02-2.12100E-01 1.08529E-01-1.07592E-01
 -1       598 3.94484E-01 2.64657E-01 4.16382E-02-2.79256E-01 5.62745E-02 3.04963E-02
 -1       599 6.57938E-01 2.91022E-01 3.46655E-02-2.51689E-01 2.40599E-01-3.20821E-01
 -1       600 4.49026E-01 2.71643E-01 7.20445E-02-3.44957E-01 9.40931E-02-2.49499E-01
 -1       601 7.16906E-01 4.38126E-01 6.55987E-01-2.88319E-01-5.11371E-01 7.41374E-01
 -1       602 6.20057E-01 4.06320E-01 1.02124E+00-3.45249E-01-5.36368E-01 7.85909E-01
 -1       603 2.14634E-01 8.02927E-03-1.11622E-01-2.53115E-02-2.49593E-01 5.78606E-02
 -1       604 6.71490E-01 5.32120E-01-1.43806E-01-4.34823E-01-7.68133E-02 1.25716E-01
 -1       605 5.01088E-01 2.84025E-01-1.23225E-01-1.99984E-01 1.06583E-01-1.19440E-01
 -1       606 1.34273E-01 1.52498E-01-1.35926E-01 1.15850E-01 9.95217E-02-1.42382E-01
 -1       607 5.27537E-01 3.16083E-01-1.58219E-01-2.87914E-01 2.21618E-01-2.74398E-01
 -1       608 1.80069E-01 5.48171E-02-6.43882E-02 1.09959E-01 7.50553E-02-1.89125E-01
 -1       609 1.14658E+00 5.60610E-01-2.83389E-01-6.44718E-01 2.21448E-03-7.24638E-02
 -1       610-4.54972E-01-7.79003E-02-1.30502E-01 9.62724E-02-1.56685E-01-5.38328E-02
 -1       611 2.92787E-01 1.79650E-01 2.44171E-01 2.88099E-03 9.82065E-02-3.92552E-01
 -1       612 5.78997E-01 1.06886E-01-7.70198E-02-6.06661E-02-1.20918E-03 1.32244E-01
 -1       613 8.18801E-01-3.48885E-02-5.62074E-01-1.92132E-01 2.35259E-01-1.60790E-01
 -1       614 2.26006E-01 5.35683E-01 1.36930E-02-9.75253E-02-7.69434E-02 1.89069E-01
 -1       615-1.54105E-01-1.06568E-01-4.58776E-02 2.04562E-01-4.32189E-02-1.14403E-01
 -1       616-4.17012E-01-5.43883E-02 1.09470E-01 2.39115E-01-5.53415E-02-6.88999E-02
 -1       617 2.44308E-01 1.70358E-01 8.74135E-01 6.19740E-02 4.77057E-02-6.46755E-01
 -1       618 2.29183E-01 7.62420E-02 4.40192E-01 2.33552E-02 1.04453E-01-3.60588E-01
 -1       619 1.38485E+00 3.62680E-01-1.52590E-01-4.30044E-01-1.92232E-01 5.64756E-01
 -1       620 1.43617E+00 3.25546E-01 4.47387E-03-4.45104E-01-1.74249E-01 7.41324E-01
 -1       621 7.99128E-01 3.45505E-01 3.02974E-03-1.28846E-01 5.35643E-02-2.07216E-01
 -1       622 1.04674E+00 3.50904E-01 1.71344E-02-2.25844E-01 1.00774E-01-5.51953E-02
 -1       623 8.47533E-01 2.70130E-01 3.96495E-02-1.30013E-01 1.08784E-01-5.20170E-01
 -1       624 1.00485E+00 2.41509E-01-9.68653E-03-1.98397E-01 1.34315E-01-4.03351E-01
 -1       625 7.00896E-01 3.24223E-01 5.02496E-01-1.87643E-01-3.93281E-01 1.01257E+00
 -1       626 1.03431E+00 6.51527E-01 1.25189E+00-1.80973E-01-4.03702E-01 1.13304E+00
 -1       627 1.62985E-01 4.42437E-02-1.58662E-01-2.60652E-03-1.63708E-01 3.16594E-01
 -1       628 1.36089E+00 4.00431E-01-1.67438E-01-3.97732E-01-4.17097E-03 2.36907E-01
 -1       629 9.23714E-01 2.43452E-01-9.43428E-02-1.19522E-01 1.09557E-01-1.79197E-01
 -1       630-3.25086E-01 5.64866E-02-5.72823E-02 4.40306E-02 1.94388E-03-1.33332E-01
 -1       631-2.48040E-01 9.43661E-02 2.12414E-02 8.50779E-02-5.88508E-02-1.83822E-01
 -1       632 8.09394E-01 2.65069E-01-1.08497E-01-2.08252E-01 4.38169E-02-3.10456E-01
 -1       633 1.31236E+00 2.47422E-01-2.43109E-01-2.65770E-01-5.55671E-02 5.41629E-02
 -1       634-2.66007E-01 3.25296E-02-2.93304E-01-2.21080E-02-8.92227E-02 7.54666E-02
 -1       635 3.86200E-01 3.67145E-01 2.51199E-01 6.56479E-02-1.00976E-01-4.02177E-01
 -1       636 7.23483E-01 1.85591E-01-1.25427E-01 1.21137E-01 5.15047E-02-9.06379E-02
 -1       637 9.81588E-01 6.96353E-02-3.57184E-01 1.16513E-01 1.45107E-02-8.38113E-02
 -1       638 4.28193E-01 5.95678E-01-2.93932E-01-4.76995E-01-2.04240E-02 2.22274E-02
 -1       639-4.30480E-01-1.63606E-02-1.01389E-01 1.25558E-01-6.60178E-03-3.14712E-02
 -1       640-4.23686E-01 9.65924E-03-1.14790E-01 9.93045E-03 9.15733E-03-1.23105E-01
 -1       641 1.66859E-01 2.28753E-01 7.79727E-01-3.14396E-03-7.30635E-02-5.80003E-01
 -1       642 3.41188E-01 2.71344E-01 8.10610E-01 4.32338E-02 1.42174E-01-6.23327E-01
 -1       643 1.49562E+00 2.02935E-01-7.42619E-02 8.07207E-02-1.13822E-02 7.35821E-01
 -1       644 1.60401E+00-2.38954E-02-5.64292E-02 1.26052E-01 1.51533E-02 7.32527E-01
 -1       645 8.69933E-01 2.48706E-01 1.72383E-02 1.37082E-02 2.29332E-02-1.32656E-01
 -1       646 8.92957E-01 8.04488E-02 8.31304E-02-3.09379E-02 1.27920E-01-1.69536E-01
 -1       647 1.01134E+00 2.83194E-01 2.32113E-02-9.22162E-03-1.32771E-02-5.40143E-01
 -1       648 9.48413E-01 4.22490E-02 1.92038E-02-6.06965E-02 1.73711E-02-4.84729E-01
 -1       649 1.40505E+00 8.08282E-01 1.34404E+00 1.51882E-01 1.02084E-01 1.41120E+00
 -1       650 1.02848E+00 3.17797E-01 6.08180E-01 1.42613E-01 1.33195E-01 1.13149E+00
 -1       651-1.69236E-01-6.01825E-02-1.31678E-01 4.83388E-02-9.77217E-02 2.58558E-01
 -1       652 1.61394E+00 2.52643E-01-2.20624E-01-3.92399E-02-9.00523E-03 1.76380E-01
 -1       653 1.01118E+00 2.58889E-01-6.18121E-02 3.49556E-02-2.65275E-03-2.97732E-01
 -1       654-1.45864E-01 2.40096E-01-1.45180E-01-1.35864E-01 6.10713E-02-2.37831E-01
 -1       655 4.78179E-02 5.10421E-01-1.00698E-01 7.02379E-02-7.08389E-02-2.38157E-01
 -1       656 9.30966E-01 2.45483E-01-3.07400E-02-4.33303E-02-1.55259E-01-2.85412E-01
 -1       657 1.40438E+00 2.45521E-01-3.59334E-01 1.56539E-01-1.20081E-01 1.10480E-01
 -1       658-1.87606E-01 3.91098E-02-1.33250E-01-6.87423E-02 4.01290E-02 3.69512E-01
 -1       659 8.34356E-01 2.53275E-01-3.39618E-02-3.26358E-01-5.68744E-02-1.80554E-01
 -1       660 7.07394E-01 2.52854E-01-1.73969E-01 3.75623E-01-5.30090E-02-1.79334E-01
 -1       661 7.63124E-01 3.32629E-01-3.40569E-01 3.82627E-01-8.33644E-02-4.03456E-02
 -1       662 6.75923E-01 2.58088E-01-3.37302E-01-3.75276E-01-2.91960E-02-2.19992E-02
 -1       663-3.09935E-01 8.03982E-02-1.55979E-01 8.43024E-03 1.34957E-02-2.70349E-01
 -1       664-2.24352E-01 1.00439E-01-5.92880E-02 1.08035E-01 2.37372E-02-4.06683E-02
 -1       665 2.04438E-01 5.55590E-02 3.72981E-01 1.60448E-03-6.04450E-02-3.97995E-01
 -1       666 2.80578E-01 1.90786E-01 1.00233E+00-5.40483E-02-5.19702E-02-6.68157E-01
 -1       667 8.32208E-01 2.43119E-01 4.97530E-02 1.39781E-01-1.09345E-01-5.48488E-01
 -1       668 1.03179E+00 2.34311E-01-3.74761E-02 2.00153E-01-1.67074E-01-3.96252E-01
 -1       669 8.25998E-01 2.76253E-01 2.59836E-03 1.36891E-01-4.00240E-02-1.95709E-01
 -1       670 1.04157E+00 3.12537E-01 4.29117E-02 2.40883E-01-8.03375E-02 7.52662E-03
 -1       671 1.41653E+00 2.64806E-01-1.65539E-01 3.86622E-01 1.94969E-01 5.41322E-01
 -1       672 1.53523E+00 3.12053E-01 3.04951E-02 3.75699E-01 1.77160E-01 7.52444E-01
 -1       673 1.01900E+00 3.38963E-01 1.33383E+00 1.97448E-01 3.47407E-01 1.26919E+00
 -1       674 1.00503E+00 4.75591E-01 8.68148E-01 1.51403E-01 3.56033E-01 1.11379E+00
 -1       675-9.36359E-02 7.33911E-02-1.38134E-01-8.56154E-03 1.49881E-02 2.99882E-02
 -1       676 1.21399E+00 2.74065E-01-1.84073E-01 2.65762E-01 6.20309E-02 9.02633E-03
 -1       677 1.06275E+00 3.25940E-01-7.49668E-02 2.17628E-01-6.07193E-02-2.76631E-01
 -1       678-7.95235E-02 1.76592E-01 4.95658E-02-3.59671E-02 5.03716E-02-2.61267E-01
 -1       679-2.74935E-01 1.97080E-01-6.24925E-03-3.15038E-02-7.08634E-02-2.77920E-01
 -1       680 6.75091E-01 1.90205E-01-2.28685E-01 7.01769E-03-8.43288E-02-1.32707E-01
 -1       681 1.24727E+00 4.08504E-01-2.51738E-01 4.39692E-01 2.99442E-02 1.59395E-01
 -1       682 2.45797E-01 2.06362E-02-8.22529E-02-1.30868E-02 9.61026E-02 1.41919E-01
 -1       683 2.56973E-01 2.28448E-01-1.41926E-01 1.54044E-02-1.87251E-01-9.00170E-02
 -1       684 3.90858E-01 4.51710E-01 1.54985E-01 1.74312E-01 2.16472E-03-2.84595E-01
 -1       685 1.54352E-01 3.17975E-01-1.39027E-01 5.05517E-02-1.91188E-01 1.17406E-01
 -1       686 8.36720E-01 3.59521E-02-3.28115E-01-1.82750E-01-4.16539E-02-1.52398E-01
 -1       687-1.65640E-01 3.66042E-02-1.00947E-01-1.24539E-01-2.48731E-02-7.76362E-02
 -1       688-2.24421E-01-2.91254E-02-2.14628E-01-1.44325E-01 1.72128E-02-7.15444E-02
 -1       689 2.11534E-01-4.86327E-05-9.29291E-02-1.57139E-02-6.22198E-03-2.14249E-01
 -1       690 2.21278E-01 5.51194E-02 8.37955E-01 1.19687E-01-2.55464E-01-4.83390E-01
 -1       691 6.09199E-01 2.70066E-01 2.51473E-02 2.31307E-01-2.20830E-01-3.17840E-01
 -1       692 4.60513E-01 2.55645E-01-3.14817E-02 2.94765E-01-7.59231E-02-1.06081E-01
 -1       693 4.77298E-01 3.38119E-01 1.13507E-02 2.00598E-01-7.27291E-02-6.73351E-02
 -1       694 3.92487E-01 2.74787E-01-4.16298E-02 2.45258E-01 1.83210E-02 9.98274E-02
 -1       695 8.41198E-01 4.58432E-01-6.96462E-02 4.46683E-01 3.06414E-01 3.92141E-01
 -1       696 6.79362E-01 4.13206E-01-2.04831E-02 5.21304E-01 4.72923E-01 5.82008E-01
 -1       697 7.06401E-01 4.65343E-01 6.29829E-01 2.51311E-01 4.85326E-01 7.46860E-01
 -1       698 4.66040E-01 3.17225E-01 3.59759E-01 2.68269E-01 4.16101E-01 5.59452E-01
 -1       699 7.49302E-01 4.03796E-01-1.80633E-01 3.90895E-01 4.86433E-02 7.70447E-02
 -1       700 3.11317E-02 6.31947E-02-3.47764E-01-1.17402E-02 1.60977E-01 1.14807E-01
 -1       701 5.94379E-01 3.46390E-01-9.41687E-02 2.60758E-01-1.37147E-01-1.88512E-01
 -1       702-1.10768E-02 1.35580E-01 1.90796E-01-9.73546E-02-3.16272E-02-2.33237E-01
 -1       703-1.13367E-01 9.87343E-02-5.53948E-02-1.80101E-01 3.78015E-02-3.29393E-02
 -1       704 6.38230E-01 2.66126E-01-1.18215E-01 2.11744E-01-3.38777E-02 7.13007E-02
 -1       705 5.11442E-01 4.62491E-01-2.48884E-01 3.19799E-01 1.20406E-01 2.11225E-01
 -1       706 1.73016E-01-2.69581E-02-1.87180E-01-1.53779E-02 2.41044E-01 2.23688E-01
 -1       707 3.35210E-01 1.55945E-02-2.24350E-01 6.57000E-02-7.44991E-03 2.90948E-02
 -1       708 3.42492E-01 4.02303E-01 1.80712E-01 8.38927E-02-1.37881E-01-3.37376E-01
 -1       709 2.76461E-01 5.92892E-01-4.98866E-02 9.44468E-02 2.69709E-02 1.95293E-01
 -1       710 4.34509E-01-6.32511E-02-3.91955E-01 1.35054E-01-9.01880E-02-3.18340E-02
 -1       711-8.35492E-02 2.63114E-02-1.04995E-01-6.59878E-02 1.78526E-02-1.60092E-02
 -1       712-2.05277E-01-1.55954E-01-2.73124E-01-1.84809E-01 1.83487E-02-5.46853E-03
 -1       713 2.83900E-01 1.97140E-01 1.18409E+00 9.68555E-02-2.57435E-01-5.01876E-01
 -1       714-2.36779E-02-1.19976E-01-5.43988E-01 4.80787E-03 1.23692E-01-2.05872E-01
 -1       715 1.63921E-01 2.00827E-01-1.34174E-02 1.73873E-01 9.26654E-03 1.44775E-02
 -1       716 2.89039E-01 1.91725E-01-4.94135E-02 2.08524E-01-1.43861E-01-1.84060E-01
 -1       717 1.87452E-01 1.65225E-01-2.70032E-01 2.18785E-01 6.45877E-02-8.80197E-02
 -1       718 1.83292E-01 3.79568E-01-3.68393E-02 2.82165E-01 1.82425E-01 1.70133E-01
 -1       719 1.95473E-01 5.26894E-01 2.50366E-02 4.06213E-01 3.45738E-01 1.15255E-01
 -1       720 2.51444E-01 3.28501E-01 3.95891E-02 2.08675E-01-1.41533E-01-2.09323E-02
 -1       721 3.02956E-01 3.24951E-01 3.68777E-01 2.04296E-01 3.70564E-01 3.86676E-01
 -1       722 2.88084E-01 1.34792E-01 2.77549E-01 1.48806E-01 1.90963E-01 4.95199E-01
 -1       723 2.56605E-01 4.02793E-01-1.75262E-01 2.54365E-01-1.43517E-01-1.40843E-02
 -1       724-3.17544E-02 1.53914E-02-1.87647E-01-9.78486E-02 1.01270E-02 1.58060E-03
 -1       725 1.75272E-01 1.70758E-01 9.32474E-02 1.25907E-01-4.21701E-01-2.05530E-01
 -1       726 6.63840E-02 7.23684E-02-2.38827E-02-5.10728E-02-1.00224E-01-2.48915E-01
 -1       727 2.04456E-01 8.29428E-02-4.31199E-02-1.58679E-01 1.72777E-01-1.76275E-01
 -1       728 2.86389E-01 2.05277E-01-6.31636E-02 2.63029E-01-7.62845E-02-5.84003E-02
 -1       729 2.66768E-01 3.88697E-01-6.86281E-02 2.86377E-01 1.05619E-01 3.41737E-02
 -1       730-3.08403E-02-1.42924E-02-1.38003E-01-3.63984E-03 2.06282E-01-4.22886E-02
 -1       731 3.07796E-01-3.59045E-02-2.25690E-01 9.98803E-02 2.66320E-01 1.57187E-01
 -1       732 5.83005E-02 2.75999E-01 1.34992E-01 1.31234E-01-4.18122E-01-1.02429E-01
 -1       733 3.82131E-01 3.51257E-01 2.39697E-01 6.01097E-02 2.38396E-01 2.44497E-01
 -1       734 4.33745E-01 1.36874E-01-3.63308E-01 3.06768E-01-3.00488E-01-1.68130E-01
 -1       735-2.04483E-02-6.87584E-02-1.38567E-01-1.42984E-01-6.42432E-04-1.72490E-02
 -1       736-6.46873E-02 1.86138E-02 7.54197E-02-1.51727E-01 8.34978E-02 2.86438E-03
 -1       737 4.38446E-02-6.84820E-03 7.63525E-01 1.52266E-01-5.78446E-02-3.70400E-01
 -1       738-1.59182E-01-1.17106E-01-6.82848E-01 9.27717E-02 1.14118E-01-3.32801E-01
 -1       739 1.68309E-02 5.26925E-03-1.06006E-02 1.13970E-01 7.01279E-03 1.78933E-03
 -1       740 6.59964E-02 5.96990E-02 2.44822E-02 2.44444E-01 3.24380E-02-7.57580E-02
 -1       741 6.80593E-02-9.21219E-02-1.38971E-01 1.56096E-01 3.94756E-01-4.86529E-02
 -1       742-2.69954E-02-4.46954E-02-1.41696E-02 1.62924E-01-2.64899E-02 9.51435E-02
 -1       743-1.82444E-02 2.78514E-02 1.45388E-01 1.08344E-01 2.36257E-01 6.96178E-02
 -1       744 1.14076E-02 2.68583E-02-8.61043E-02 1.20644E-01-3.54710E-01 4.15869E-03
 -1       745 1.08827E-01 1.45361E-01 1.57754E-01 1.92847E-01 1.41183E-01 3.61739E-01
 -1       746-8.95687E-02-1.36640E-01-2.63985E-01 1.52276E-01-1.14149E-01 1.92326E-01
 -1       747-3.97822E-03-8.98865E-02-6.32896E-02 1.74051E-01-5.48083E-02 3.43761E-02
 -1       748 6.34038E-02 2.43243E-02-8.41938E-03-2.50158E-02 1.28853E-02-2.06057E-01
 -1       749-2.04186E-02 7.23696E-03 2.82334E-02 1.70153E-01-3.88813E-02-2.09671E-02
 -1       750-9.86386E-02 6.77481E-02-3.32530E-02-1.34540E-01 7.83162E-03-1.73783E-01
 -1       751 4.83156E-02-1.08056E-01-1.19704E-01-4.69042E-02 1.58834E-01-2.94150E-01
 -1       752 4.93668E-03-6.91769E-02-1.46826E-01 1.59643E-01 2.72447E-01 1.15017E-02
 -1       753-4.26888E-02-2.73717E-01 4.67262E-02 2.61072E-01 2.25897E-01-6.70190E-03
 -1       754-3.75692E-02-6.36797E-02 3.77639E-02-6.22060E-02 1.12179E-01-1.13608E-01
 -1       755 5.41408E-02-1.43582E-01-2.19362E-01 1.05058E-01 2.89546E-01 2.44890E-02
 -1       756-8.55943E-02 1.41522E-02 1.86478E-01 1.61872E-01-2.55294E-01 3.36002E-03
 -1       757 1.64457E-01 4.95465E-03 3.49329E-01 1.94483E-01 2.77044E-01 8.40629E-02
 -1       758 9.36828E-02-2.74497E-02-1.71394E-01 1.40025E-01-3.06315E-01-4.13468E-02
 -1       759 3.76990E-02 2.81049E-02 8.02097E-02-1.41619E-01-4.47134E-02-1.09516E-01
 -1       760 4.70491E-02 3.46980E-02-1.64126E-02-1.78437E-01-7.63639E-02-1.55092E-01
 -1       761-2.01304E-02 1.19594E-01 5.62742E-01 5.66258E-02-5.81101E-02-3.17875E-01
 -1       762-2.20903E-01-1.91857E-01-9.61196E-01 6.41664E-02 2.16148E-01-4.23047E-01
 -1       763-1.79351E-01-2.76111E-01-4.11129E-02 1.75454E-01-1.59083E-02 6.06127E-04
 -1       764-2.32628E-01-4.81917E-01 3.93610E-02 3.21202E-01-2.80384E-01 1.57878E-01
 -1       765-1.73071E-01-4.73451E-01 4.00567E-02 3.36248E-01-1.35187E-01 1.70106E-01
 -1       766-1.44632E-01-1.33583E-01-8.61107E-03 2.61472E-01 6.79467E-02-1.72857E-01
 -1       767-1.86050E-01-2.79300E-01-7.32890E-02 3.42925E-01 3.35935E-01-1.44044E-01
 -1       768-1.58607E-01-3.39439E-01-7.90258E-02 2.55178E-01 1.58632E-01-5.33171E-02
 -1       769-1.58211E-01-1.85764E-01-8.05163E-02 1.70413E-01-1.95490E-01 2.86920E-01
 -1       770-3.83961E-01-3.75100E-01-3.84115E-01 2.36610E-01-4.27179E-01 3.97973E-01
 -1       771-2.35978E-01-4.28345E-01 7.84181E-02 2.98942E-01-1.34625E-01 4.36452E-02
 -1       772-3.53405E-02 1.96594E-02 3.50801E-02-2.06263E-02-7.77428E-02-1.53349E-01
 -1       773-2.91830E-01-1.68727E-01 1.36997E-01 1.50152E-01 7.49924E-02-2.72016E-02
 -1       774-1.16111E-01-1.12940E-01 6.47367E-02-1.68709E-01-6.33413E-02-1.99121E-01
 -1       775-2.79624E-02-1.48699E-01 2.01120E-02-1.46732E-01 1.25173E-01-1.62233E-01
 -1       776-3.20015E-01-2.48346E-01 3.63139E-02 2.39158E-01 3.23169E-01-7.60465E-02
 -1       777-2.77111E-01-3.74011E-01 1.89576E-01 2.87630E-01 8.43587E-02-1.55630E-02
 -1       778-1.63123E-02-1.46563E-01 5.04371E-02 2.90289E-02-9.21563E-02 7.53716E-02
 -1       779-2.79738E-01-2.88690E-01-3.76448E-01 7.63057E-02 3.41798E-01-2.30307E-01
 -1       780-2.87874E-01-4.96721E-02 3.05991E-01 1.71567E-01-1.83876E-01 8.94165E-02
 -1       781-4.73605E-01-8.09553E-02 4.40758E-01 3.14876E-01 2.93502E-01-1.24459E-01
 -1       782-2.40391E-01-3.20452E-01-2.28698E-01 1.49010E-02-2.08747E-01 2.03020E-01
 -1       783 2.52340E-02 6.26534E-03 6.52274E-02-1.13450E-01 1.28178E-02-5.50244E-02
 -1       784 2.01699E-01 1.21622E-01 1.19958E-01-2.11492E-01-3.14221E-02-6.41753E-02
 -1       785-9.13648E-02 3.06826E-02 1.99943E-01-8.77209E-03 8.79186E-02-4.62733E-01
 -1       786-2.20543E-01-2.53251E-01-1.22313E+00 4.83580E-02 1.48554E-01-4.83526E-01
 -1       787-6.67830E-01-2.23866E-01-1.56296E-02 2.39201E-01 2.31062E-01-3.29824E-01
 -1       788-5.15701E-01-1.84806E-01-6.60762E-02 3.23775E-01 4.23267E-01-5.09064E-01
 -1       789-4.59874E-01-3.17828E-01-7.72370E-03 2.19183E-01 7.71145E-02-5.74973E-02
 -1       790-5.01388E-01-3.33732E-01-1.38484E-01 3.72477E-01 1.77972E-01-2.73959E-01
 -1       791-7.17739E-01-4.60625E-01 6.11042E-02 4.22708E-01-2.89906E-01 3.86298E-01
 -1       792-5.69931E-01-3.74897E-01 1.61057E-01 4.63383E-01-1.79500E-01 2.62971E-01
 -1       793-7.13907E-01-4.05132E-01-5.94525E-01 2.75179E-01-5.01683E-01 7.82666E-01
 -1       794-8.57507E-01-4.92225E-01-7.61745E-01 1.66808E-01-4.46152E-01 8.61207E-01
 -1       795-1.80270E-01-1.95041E-01 1.00769E-01 9.70294E-02-1.16874E-01 5.39955E-02
 -1       796-6.63355E-01-5.51176E-01 8.29470E-02 4.35224E-01-1.00193E-01 1.48835E-01
 -1       797-5.61848E-01-2.70086E-01 1.41495E-01 1.89720E-01 1.26152E-01-1.02612E-01
 -1       798 5.83148E-02-1.68422E-01 1.38561E-01-1.76580E-01 1.78628E-02-1.70295E-01
 -1       799 4.10298E-02-9.90787E-02-2.07145E-01-1.67070E-01 1.06404E-01-2.77004E-01
 -1       800-6.15324E-01-3.16071E-01 1.37789E-01 3.07850E-01 2.54620E-01-3.18536E-01
 -1       801-7.77257E-01-4.22382E-01 1.90516E-01 4.21563E-01 3.20799E-02-1.06619E-01
 -1       802 1.88699E-01-9.17124E-02 1.93346E-03-1.34465E-02-2.71356E-02 5.08916E-02
 -1       803-4.37149E-01-3.96447E-01-2.34487E-01 6.01732E-02 1.40868E-01-3.67423E-01
 -1       804-8.37710E-01-5.27430E-02 2.44179E-01 1.69086E-01-5.87625E-02 1.11854E-01
 -1       805-8.84332E-01 3.37977E-03 3.84510E-01 1.89102E-01 1.52628E-01-1.44787E-01
 -1       806-2.33601E-01-3.52136E-01-9.78252E-02 1.71358E-01-2.24872E-01 3.43074E-01
 -1       807 1.91392E-01 7.39793E-02 1.28356E-01-1.53979E-01 2.17863E-02-1.29304E-01
 -1       808 3.27057E-01-2.24267E-02-2.25755E-01-2.55411E-01-5.10529E-02-1.84952E-01
 -1       809-1.97466E-01-1.22789E-01-3.65800E-01-2.27475E-02 9.73792E-02-4.96834E-01
 -1       810-3.91428E-01-3.09262E-01-1.38173E+00-1.09951E-02 5.85091E-02-7.40450E-01
 -1       811-8.90104E-01-2.98873E-01 3.08471E-02 1.37602E-01 1.30854E-01-4.06860E-01
 -1       812-9.59583E-01-1.85447E-01-6.67551E-02 1.93042E-01 8.53389E-02-5.08322E-01
 -1       813-7.68650E-01-2.74870E-01 3.93297E-02 1.68396E-01 5.56238E-02-2.02794E-02
 -1       814-1.06464E+00-3.17168E-01-7.32459E-02 1.77917E-01 8.99707E-03-1.92492E-01
 -1       815-1.26227E+00-2.79952E-01 6.68005E-02 3.10010E-01-1.79224E-01 7.38321E-01
 -1       816-1.55284E+00-2.77070E-01 1.12361E-01 4.29746E-01-1.83107E-01 5.38290E-01
 -1       817-1.11886E+00-7.27338E-01-1.46582E+00 1.58443E-01-3.76496E-01 1.22382E+00
 -1       818-7.35063E-01-3.08780E-01-4.76547E-01 1.88853E-01-3.23218E-01 9.21273E-01
 -1       819 8.20884E-02 1.10837E-01 1.39610E-01-5.79723E-02-6.64420E-02 1.06279E-01
 -1       820-1.07725E+00-3.88834E-01 2.10299E-01 3.73862E-01-1.24656E-03 2.14953E-01
 -1       821-6.85100E-01-2.34448E-01 1.72823E-01 5.27269E-02 1.14491E-01-1.56040E-01
 -1       822 1.77159E-01-3.50768E-01 1.25689E-01-5.72963E-02 5.65705E-02-1.10150E-01
 -1       823-1.76927E-01-2.42100E-01 1.00600E-01-1.09073E-01-3.99876E-02-3.09907E-01
 -1       824-1.13947E+00-3.45593E-01 1.34552E-02 2.41596E-01 3.23149E-02-3.06630E-01
 -1       825-1.48640E+00-3.36664E-01 1.65107E-01 2.96869E-01-7.73906E-02 8.86114E-02
 -1       826 2.34193E-02-4.16032E-02 1.70492E-01 1.01298E-01-8.87976E-02 2.17984E-01
 -1       827-4.82363E-01-2.68028E-01-3.73948E-01 2.02432E-01 3.89016E-02-4.71375E-01
 -1       828-6.61667E-01-1.71754E-01 2.59723E-01-1.33813E-01 6.45230E-02-3.74045E-02
 -1       829-9.21512E-01-2.71879E-02 2.54102E-01-1.57648E-01 4.07713E-02-7.00207E-02
 -1       830-3.58625E-01-5.28420E-01 2.81157E-01 3.06557E-01 1.53633E-02 3.71381E-02
 -1       831 3.72539E-01 5.30918E-02 3.93907E-02-1.62653E-01 3.75680E-02-1.05967E-01
 -1       832 6.36796E-01-7.44742E-03-9.09544E-03-1.10078E-01-3.80213E-02-7.77071E-02
 -1       833-3.29929E-01-3.74632E-01-8.84829E-01 7.88642E-03-1.15435E-01 3.77594E-01
 -1       834-1.58937E+00-3.01406E-01 6.46743E-01 1.42061E-01-5.18374E-02 8.60346E-01
 -1       835 7.01195E-01 3.49808E-01 9.71097E-01-5.97300E-01 1.09179E-01 9.12751E-01
 -1       836 2.65190E-01-2.00166E-01 1.27340E-02-1.12805E+00 3.30975E-01 1.34743E+00
 -1       837 5.11893E-02 1.12510E-01 4.91099E-02-1.15977E-02 1.37224E-01-2.86382E-02
 -1       838 6.18354E-02-6.35970E-02 1.47899E-01 2.29126E-02 9.05877E-02-2.57966E-02
 -1       839 1.18941E+00 3.86920E-01 6.50719E-01 2.82748E-01 5.85075E-01 9.40155E-01
 -1       840 4.78065E-01-3.33676E-01 3.63860E-01-1.38585E-01 3.00171E-01 8.94963E-01
 -1       841 1.67910E+00 6.01569E-01-1.15228E-01 1.92229E-01-1.14644E-01 9.33966E-01
 -1       842 2.25328E-01 3.85067E-01 8.37062E-01-8.01531E-02-6.56905E-01 5.35918E-01
 -1       843 2.74080E-01 3.13129E-01 6.24136E-01-2.73776E-02-7.21957E-01 5.93803E-01
 -1       844 1.41387E+00 1.62955E+00 9.13024E-01-6.50178E-01-1.28041E+00 1.05183E+00
 -1       845-9.36840E-02-2.51363E-01-8.04822E-02 7.82525E-02-5.35060E-01 1.25842E-01
 -1       846 1.50268E-01 5.05976E-01-2.19579E-02-5.82908E-03-5.33131E-01 1.57809E-01
 -1       847 1.72516E+00 1.48585E+00 9.63302E-01-6.27205E-01-1.06155E+00 1.28082E+00
 -1       848-5.75396E-01-1.27972E-01 1.84881E-01 2.41901E-01-2.88816E-01 3.59500E-01
 -1       849-4.52668E-02 9.30583E-02-8.59148E-02-1.10386E-01-1.92257E-01 1.40783E+00
 -1       850 4.33872E-01 4.63681E-01 8.38993E-01-1.81059E-02-4.53969E-01 1.46531E+00
 -1       851 6.03733E-02 1.66125E-01 4.75585E-02-3.38839E-02-8.08320E-01 1.04437E+00
 -1       852 9.88863E-01-6.18674E-02 2.07978E-01 8.04245E-02 7.88116E-01 8.10731E-01
 -1       853-3.14576E-01-1.77001E-01-4.63672E-02 2.06946E-01-9.55615E-01 8.26887E-01
 -1       854-3.09524E-01-1.01026E-01 5.02620E-01-2.76942E-01 3.83150E-01 3.69259E-02
 -1       855 2.29125E-01 2.61435E-01 5.21514E-01 1.18121E-02-6.29588E-01 4.03371E-01
 -1       856-2.82778E-01-1.29504E+00-4.29613E-01-5.99997E-02 8.88127E-01 4.22257E-01
 -1       857 2.69325E-01 2.41900E-01 5.68726E-01-2.43688E-02-4.17613E-01 2.52932E-01
 -1       858-2.19265E-02-2.87415E-01 1.77160E-01-2.57904E-02 2.59648E-03 6.67031E-02
 -1       859-5.43783E-02-1.21325E-01 3.55445E-02-5.36102E-02-2.00062E-01-1.05295E-02
 -1       860-4.97094E-02 2.64308E-02 1.12240E-02-2.38527E-02 1.45636E-01 2.16914E-03
 -1       861-7.72683E-03 9.25580E-02-4.78751E-02-1.39714E-02-2.57886E-01-5.58929E-03
 -1       862 8.21948E-03 8.69491E-02-1.12240E-01 5.93513E-02-4.14137E-02 3.11156E-02
 -1       863 5.51231E-01 1.04970E+00 4.80280E-01 2.27411E-01 7.95569E-01 2.96894E-01
 -1       864 1.34056E-01 3.55489E-01 1.51469E-01-8.75816E-02-1.14210E+00 6.12959E-01
 -1       865 4.63957E-01 8.53606E-01 3.82098E-01 2.61575E-01 7.74359E-01 4.60067E-01
 -1       866 6.86871E-01 2.04601E-01 1.74315E-01 2.22909E-01 5.90721E-01 1.07150E+00
 -1       867 6.02023E-01 4.61499E-01-5.08674E-02-1.99628E-01-6.17756E-01 9.29787E-01
 -1       868-2.80019E-01 4.95477E-01-1.31485E-02 2.89733E-01 6.07356E-01 1.27637E+00
 -1       869 5.60443E-01 7.04172E-01 5.99687E-01-2.72631E-01-7.41586E-01 1.15235E+00
 -1       870-1.58839E+00-1.02042E+00-1.99492E-01-8.06726E-01 4.81872E-01 1.13525E-01
 -1       871 5.51967E-01 3.11069E-01-2.17175E-02-2.72966E-01-7.30022E-01 2.18490E+00
 -1       872 1.22513E+00 5.09157E-01 2.04481E-01 2.89510E-01-1.61468E-01 1.80212E-01
 -1       873 2.90631E+00 9.41799E-01 1.02913E+00 6.04725E-01 7.01309E-01 8.63043E-01
 -1       874 1.52828E-01-7.34959E-01-2.26691E-01 1.74096E-01 6.24393E-01 2.24423E-01
 -1       875 1.27360E-01 2.46481E-01 1.12152E-01 6.56678E-02 1.10293E-01 9.30320E-02
 -1       876 3.91787E-01 7.37260E-01 3.38714E-01 1.72392E-01 6.84267E-01 1.37067E-01
 -1       877-9.21856E-01-3.17762E-01 1.37451E-01 2.37856E-01-6.43040E-01 7.93003E-01
 -1       878-6.61058E-01-6.40495E-01 9.75974E-02 4.54233E-01-5.53217E-01 7.31333E-01
 -1       879-9.02696E-01-1.77890E-01 3.49532E-01 7.13004E-02-6.26776E-01 1.42663E+00
 -1       880-2.96375E-01-7.00032E-01 2.23844E-01-3.11990E-01 8.30590E-02 8.92464E-01
 -1       881-1.42936E+00-1.02309E-01-4.96738E-01 5.04702E-02 5.94583E-01 1.19751E+00
 -1       882-2.54645E+00-1.69449E+00-6.81583E-01-1.21009E+00 7.59330E-01 3.03203E-01
 -1       883-3.15871E-01 4.01306E-01 8.11866E-01 4.11879E-01-2.27906E-01-1.34316E-01
 -1       884-4.03955E-01-1.09059E-01-2.68711E-01-1.59662E-01 8.36990E-01 2.56864E-01
 -1       885-6.89986E-02-2.06494E-01-5.84583E-02-8.69085E-02-2.06838E-01 1.15298E-02
 -1       886-4.28640E-01-6.71454E-01-2.36659E-01 1.88168E-01-7.70271E-01 5.09273E-01
 -1       887 2.73171E+00 1.15931E+00 1.16984E+00-8.06938E-01-1.96953E-01 2.07102E+00
 -1       888 3.36320E+00 1.49824E+00 1.45843E+00-4.56506E-01-7.46191E-01 2.61022E+00
 -1       889 2.20024E+00 1.29569E+00 1.04878E+00-5.25313E-01-1.33168E+00 1.92652E+00
 -1       890 3.57476E-01 9.49801E-01 4.89912E-01-1.85657E-01-8.25707E-01 9.14455E-01
 -1       891 9.36319E-01 1.54762E+00 7.45182E-01-3.93253E-01-1.04548E+00 5.58832E-01
 -1       892 5.35875E-01 1.32436E+00 5.58070E-01-5.66717E-02-8.44456E-01 2.05850E-01
 -1       893-6.08932E-02-7.96296E-03-3.43746E-02-1.77755E-02-3.41868E-01-1.20193E-01
 -1       894-8.30294E-02-2.28467E-01-5.11280E-03-7.34824E-03 1.00034E-01 1.52218E-02
 -1       895 1.00607E-01-2.49735E-01 3.90833E-01 4.96290E-02-8.29427E-02-1.24049E-01
 -1       896-2.77340E-02-1.04490E-01 3.99348E-01-1.79574E-01 3.01346E-01-6.75181E-03
 -1       897-1.93368E+00-4.11646E-01 6.79033E-02 3.87105E-02 6.72325E-02-4.66355E-01
 -1       898-9.63010E-01-4.22633E-02-6.53584E-02-2.06648E-02 3.67520E-02-3.67328E-01
 -1       899-2.22452E+00-3.75599E-01 6.61119E-03 2.11828E-02-1.74351E-02-4.98741E-01
 -1       900-1.35919E+00-3.63975E-01 1.48481E-01-1.11561E-01 8.78850E-04-1.96193E-01
 -1       901-3.12917E+00-4.94548E-01 1.11424E-01-5.16326E-02 3.88268E-02 4.45094E-01
 -1       902-1.14984E+00-1.77585E-01-1.58250E-01-1.76972E-02 2.85226E-02 8.91634E-01
 -1       903-1.81673E-01-1.62868E-01 7.76911E-02-7.14544E-02-7.65197E-02 1.84631E-01
 -1       904 1.49150E-02-7.24797E-01-2.43845E-01-3.66632E-02 1.57072E-01 3.72398E-03
 -1       905-5.85784E-02-1.65758E-01 2.21619E-02-6.20815E-02 1.40200E-02-2.72416E-01
 -1       906-4.85582E-01-2.62798E-01-4.47451E-01 2.68546E-02-5.71775E-02 4.03739E-01
 -1       907-1.12513E-01-1.49232E-01-7.09818E-03-1.13107E-01-3.21594E-02-8.54678E-02
 -1       908 1.34817E-01-1.86870E-01 5.05010E-02 2.10468E-02 7.10791E-03 4.78715E-03
 -1       909 2.98716E-01-2.19865E-01-1.80566E-02 5.28951E-02 3.95646E-02-9.76657E-02
 -1       910-9.48831E-01-1.80310E-01-5.79397E-02-2.01178E-01-1.12829E-01-3.47654E-01
 -1       911-1.84184E+00-5.26133E-01 6.55960E-03-3.82009E-01-1.40370E-01-3.41320E-01
 -1       912-6.57158E-01-1.94951E-02-6.77019E-02-1.53028E-01-7.46688E-02-3.12102E-01
 -1       913-1.55147E-01-1.25709E-01 9.22704E-02-1.25328E-01 4.49467E-02 1.25391E-01
 -1       914-1.30819E-01-3.60524E-01-3.87810E-01 1.83389E-01 2.22111E-01-7.86356E-02
 -1       915 9.59383E-02-3.38748E-01-3.70150E-02 9.75584E-02-6.04201E-02-1.88911E-01
 -1       916-1.52469E-01-9.50571E-02-2.25679E-01-9.04472E-02 2.02616E-01 3.94608E-01
 -1       917 2.89082E-01-7.79727E-02-4.07087E-02-3.18416E-02 2.22810E-03 2.85631E-02
 -1       918 4.91892E-02-1.44517E-02 6.47896E-02 9.07067E-02 5.68537E-03 1.16618E-02
 -1       919-1.34825E-01-8.09795E-02-5.99817E-02 1.63417E-01 2.97843E-02-1.49661E-01
 -1       920-1.14838E+00-5.00913E-01 1.10700E-01-4.92363E-01-4.29755E-02-5.67666E-02
 -1       921-6.84753E-01-4.33719E-01 6.27625E-02-3.77507E-01-1.52422E-01-1.46217E-01
 -1       922-1.08013E+00-5.15225E-01 1.90961E-01-5.15032E-01-1.87848E-01-1.00992E-01
 -1       923-5.72556E-01-1.52775E-01-2.75168E-02-3.03133E-01-1.71737E-01-2.30506E-01
 -1       924-2.58557E-01-2.31720E-01 5.46827E-02-1.41887E-01 7.91824E-02-2.88121E-02
 -1       925-2.83851E-01-2.71140E-01-2.12765E-01 6.07773E-02 2.89209E-02-2.66855E-01
 -1       926 1.12327E-01-9.39910E-02 2.35062E-03 1.47759E-01-3.71687E-02-7.82800E-02
 -1       927-4.23019E-01-2.49540E-01-2.25784E-01-1.71730E-01 2.66385E-01 3.52146E-01
 -1       928-1.48593E-02-1.06477E-01 8.63288E-03 1.38348E-01 6.28386E-02-4.25550E-02
 -1       929-1.52710E-01-1.64171E-01-1.12792E-02 3.92342E-02 1.05673E-02 1.12465E-01
 -1       930-6.83416E-02 2.23705E-02 1.30462E-01 1.20083E-01-6.31091E-02-9.97351E-02
 -1       931-6.37323E-02-3.51390E-02-1.36104E-01 7.20408E-02-5.99799E-02-1.91517E-01
 -1       932-2.36765E-01-2.86476E-01 2.35613E-02-2.40928E-01-7.52897E-02-1.27825E-02
 -1       933-4.43060E-01-7.20062E-01 6.30055E-02-6.10703E-01-1.42321E-02 1.29466E-01
 -1       934-1.31998E-01-5.73565E-02-2.11088E-01-4.02169E-01-2.10611E-01-1.09211E-01
 -1       935-4.26422E-01-2.85917E-01 4.34178E-02-3.38753E-01 1.40300E-01 1.08064E-01
 -1       936-2.56719E-01-3.29963E-01 9.32487E-02-2.60737E-01 8.44242E-02 2.46931E-02
 -1       937-1.49230E-02-7.97557E-02 1.81510E-02-1.20947E-02 9.88769E-02 4.09183E-02
 -1       938 1.40177E-01-1.18818E-01 1.67670E-01 4.64621E-02-5.65864E-02-8.08825E-02
 -1       939-9.61464E-02-1.28900E-01-2.34582E-01 5.54901E-02 4.27190E-02-3.54914E-01
 -1       940 2.03449E-03-4.71526E-02-1.05953E-01 1.48244E-01 7.03098E-02-2.02486E-01
 -1       941-3.34283E-01-2.28064E-01-2.24917E-02-1.36079E-01 2.63565E-01 5.24309E-02
 -1       942-1.11415E-01-2.11966E-02-1.89660E-02 6.46872E-02 1.02876E-01 1.83246E-03
 -1       943 8.65482E-03-1.47201E-02-7.42416E-02 7.18492E-02 5.22378E-02-6.47192E-03
 -1       944 5.82474E-03-4.35728E-02 1.53864E-01 5.30610E-02-1.24800E-01-6.79090E-02
 -1       945-2.57782E-02-5.73524E-02-1.04289E-01 9.46672E-02-6.00580E-02-5.65271E-02
 -1       946 9.54109E-02 6.36400E-02-1.19953E-01-2.58106E-01-1.85978E-01 1.33554E-02
 -1       947 1.22323E-01 2.53290E-02 2.75346E-01-4.06664E-01 1.05006E-01 2.40799E-02
 -1       948 1.94103E-02 1.83923E-02 6.44066E-03-2.27046E-01-1.43489E-02-5.52163E-02
 -1       949 3.65805E-03 4.23054E-02 3.53277E-02-2.25025E-01 5.28592E-02 2.99125E-02
 -1       950-3.15840E-02 3.81651E-02 1.87355E-01-1.08546E-02-4.68342E-02-1.11805E-01
 -1       951 7.27210E-02-8.25581E-02 6.01724E-02 1.20757E-02 1.09536E-02-4.47044E-01
 -1       952 1.01783E-01 1.17419E-01 1.16137E-01 1.37915E-01 1.53169E-01-1.24926E-01
 -1       953-7.23445E-02-4.98217E-02-1.90394E-01 1.45552E-02 4.55018E-02-8.14438E-02
 -1       954-5.04308E-03 1.82640E-02 4.73346E-02 9.01956E-03 8.09955E-02-9.42518E-02
 -1       955 5.58050E-02 6.31506E-02-1.98405E-01 6.83849E-02 9.33454E-02-2.24957E-02
 -1       956-2.60674E-02-5.07729E-02 1.28552E-01 6.18090E-02-5.35424E-02-6.06164E-02
 -1       957 1.56861E-01 2.49765E-02-1.03472E-01-2.51887E-03-8.68346E-02-1.62763E-01
 -1       958 3.98221E-01 4.00671E-01-1.62127E-01-3.86794E-01 1.41133E-01-1.14534E-02
 -1       959 2.29198E-01 3.52499E-01-1.93729E-02-2.80292E-01-1.87674E-01 7.19743E-02
 -1       960 4.00582E-01 2.92803E-01-1.43653E-01-3.05690E-01-5.43069E-02 1.89224E-02
 -1       961 3.21949E-01 1.98068E-01 2.05686E-01-1.65892E-01-2.35765E-01-8.74935E-03
 -1       962-5.25875E-02 2.62666E-02 7.40164E-02 2.62675E-02-1.52738E-01-3.06932E-02
 -1       963 6.26093E-01 1.32254E-01 2.28878E-01 1.96450E-01-3.28878E-01-3.52210E-01
 -1       964 1.56615E-01 4.80465E-02 5.08527E-02 7.77024E-03 1.12917E-01-1.50348E-01
 -1       965 1.42646E-01 7.38178E-02-3.28496E-02-7.67228E-02-9.61413E-02 1.53076E-01
 -1       966 9.49850E-02 8.01049E-02 2.28114E-02 2.93721E-03 6.00512E-02-1.28536E-01
 -1       967 6.36549E-02-8.48208E-03-1.21218E-01 2.74722E-02 9.44260E-02 6.61778E-04
 -1       968-1.02322E-01 2.44251E-02 3.66473E-02 6.55862E-02 1.43531E-02-2.11089E-02
 -1       969-1.11134E-01-1.21503E-01-2.03839E-01 2.57393E-01-1.05948E-01-6.32800E-02
 -1       970 1.14284E+00 5.16268E-01-2.95687E-01-5.70944E-01 1.18185E-01-6.46137E-02
 -1       971 4.79890E-01 1.91335E-01 1.39837E-01-3.35286E-01 2.10931E-01-2.86819E-01
 -1       972 1.23427E+00 5.97440E-01-4.64846E-02-5.48041E-01 2.21139E-01-2.48732E-01
 -1       973 4.48246E-01 1.77766E-01 5.44321E-02-2.69957E-01 1.53497E-01-2.27139E-01
 -1       974 4.13313E-01 1.69624E-01 2.68609E-01-2.07773E-01-2.43192E-01 2.62500E-01
 -1       975 3.20358E-01 1.73264E-01 3.89292E-02-1.60007E-01-1.89996E-01 1.15115E-01
 -1       976 2.77400E-01 1.89338E-01 6.57969E-02 1.98662E-01-7.87783E-02-2.12423E-01
 -1       977 1.42502E-01 8.07137E-02-1.48703E-02 1.63836E-01 6.16163E-02-1.75602E-01
 -1       978 4.18897E-01 3.48474E-01-6.26718E-02-1.38001E-01-2.64375E-01 1.65560E-01
 -1       979-4.15899E-02-3.98249E-02 3.07705E-02 1.29015E-01-5.91397E-02-1.43130E-01
 -1       980 3.75332E-02-5.11717E-02-2.32050E-01 5.08826E-02 8.33507E-02-1.15075E-01
 -1       981 4.47811E-02 1.12353E-01 4.01595E-02 1.23688E-01-4.18646E-03-2.05450E-02
 -1       982 2.83905E-02 1.80427E-01 7.52659E-02 1.40128E-01-1.36588E-02 5.50149E-02
 -1       983 2.63629E+00 6.62380E-01-5.92635E-02-7.07247E-01-6.28443E-02 4.16994E-01
 -1       984 1.73114E+00 3.83520E-01-1.78523E-01-2.12565E-01 3.03628E-02-3.93428E-02
 -1       985 4.83194E-01 1.20024E-01 1.35057E-01-4.14598E-02 7.00978E-02-3.95639E-01
 -1       986 1.69305E+00 4.21133E-01 2.76018E-02-2.86868E-01 4.22963E-02-4.74628E-01
 -1       987 9.42717E-01 2.17163E-01 7.90244E-03-1.61990E-01 1.38519E-01-2.88724E-01
 -1       988 2.36291E-01 1.35632E-01-1.16818E-01-1.54140E-02-1.41987E-01 1.01668E-01
 -1       989 1.85415E-01 5.47863E-01 1.82952E-01 8.65971E-02-8.53376E-02-5.21943E-02
 -1       990-1.66304E-01 1.91621E-01 1.21491E-01 8.85879E-02-7.52037E-02-2.92222E-01
 -1       991 1.85978E-01 1.50045E-01 3.73897E-02-1.49913E-01-1.47920E-01 2.35671E-01
 -1       992 1.65407E-01 2.00385E-01 1.37192E-01 1.13974E-01-4.14065E-02-1.56859E-01
 -1       993 3.46572E-02 6.90413E-02-4.99790E-02 9.00979E-02 4.33335E-02-2.91254E-02
 -1       994-8.43713E-02 1.04595E-01-1.27391E-02 1.76736E-02 5.46623E-02-1.06618E-02
 -1       995-2.23286E-01 2.57230E-01-8.19967E-03 8.85540E-02 7.70849E-02-1.13277E-01
 -1       996 1.75224E+00 3.59108E-01-3.25853E-01 2.00588E-01-1.00630E-02-7.35649E-03
 -1       997 5.52737E-01 7.59015E-02 1.27583E-01-1.29022E-02 2.72508E-02-4.36191E-01
 -1       998 2.01375E+00 4.14835E-01-5.27339E-03 9.71812E-03-1.05418E-02-3.96759E-01
 -1       999 7.60532E-01 8.21430E-02 1.10479E-01-4.89131E-02-1.74354E-03-3.76754E-01
 -1      1000 8.00354E-01 1.86718E-01 9.90851E-02 1.27140E-01-3.79425E-02 3.85912E-01
 -1      1001 4.62564E-01 4.84721E-02-1.12282E-01 2.67857E-02-5.92034E-03 2.77943E-01
 -1      1002-1.03469E-02 4.25627E-01-3.34893E-02 1.66667E-02 4.01812E-04-9.41629E-02
 -1      1003-2.04431E-01 1.12877E-01-9.01083E-02 1.61264E-02-3.30018E-03-2.46057E-01
 -1      1004 5.89699E-01 3.75355E-01 4.53838E-01-6.67445E-02 3.21642E-02 5.42468E-01
 -1      1005-1.54680E-01 2.04355E-01 1.34078E-01 9.88967E-02-1.77835E-02-1.11554E-01
 -1      1006-1.32567E-01 3.59072E-02-9.16339E-02-1.63398E-02-7.47476E-04-1.15672E-01
 -1      1007-8.44293E-02 1.25499E-01-8.82028E-02-5.26028E-02-8.37384E-03-7.19166E-03
 -1      1008-3.43338E-01 1.48951E-01 9.09206E-02 7.80719E-02 6.53641E-02-1.05875E-01
 -1      1009 4.71469E-01 9.55954E-02 1.15668E-01 5.30135E-02-8.68694E-02-3.93752E-01
 -1      1010 1.85893E+00 5.03984E-01-3.96679E-02 3.64527E-01-1.47273E-01-3.33474E-01
 -1      1011 1.34899E+00 3.26018E-01-1.50756E-01 1.70116E-01-2.62974E-02-1.53647E-01
 -1      1012 1.35283E+00 4.95052E-01-2.78280E-01 4.38478E-01-1.94631E-02 2.81357E-02
 -1      1013 9.06200E-01 2.21834E-01 1.41292E-01 2.38567E-01 2.64040E-01 8.62849E-01
 -1      1014 2.45694E-01 1.68639E-01-7.08793E-02 1.06346E-01 5.80546E-02 6.39125E-02
 -1      1015 3.59012E-01 5.09851E-01 1.60589E-01-1.47207E-01 1.78281E-01-2.45624E-01
 -1      1016-1.32521E-01 3.10184E-01 2.34656E-02-1.25298E-01-5.50607E-02-2.15629E-01
 -1      1017 6.70315E-01 3.02244E-01 6.19326E-01-3.89226E-02 1.07704E-01 4.26145E-01
 -1      1018-8.88757E-02 1.78808E-01-4.31884E-02-4.12430E-02-3.28717E-02-7.92331E-02
 -1      1019-4.16863E-01 8.28877E-02 4.42382E-03-4.42744E-04-4.32644E-02-6.21747E-02
 -1      1020 7.41169E-02 8.12435E-02-7.08397E-02-7.35049E-02-8.60162E-04-3.29786E-03
 -1      1021 1.35875E-01 2.12957E-01 1.42918E-01-1.29627E-01 3.43466E-02-2.41186E-01
 -1      1022 1.19418E+00 5.12680E-01-3.84209E-02 4.68333E-01-2.92485E-01-4.38361E-01
 -1      1023 5.46511E-01 1.31801E-01 1.95470E-01 1.29197E-01-1.61479E-01-4.11873E-01
 -1      1024 1.30992E+00 5.91959E-01-3.44053E-02 6.18600E-01-1.90869E-01-2.29185E-01
 -1      1025 9.00126E-01 4.01499E-01-9.78647E-02 3.56167E-01-4.25796E-02-4.60982E-02
 -1      1026 7.78638E-01 6.67719E-01-2.49108E-01 4.71875E-01 1.35415E-03 3.43563E-02
 -1      1027 7.15326E-01 3.54063E-01 1.35499E-01 4.08263E-01 3.90062E-01 5.36908E-01
 -1      1028 9.20739E-02 7.19873E-02-2.04016E-01 3.27602E-02 1.54404E-01 1.19806E-01
 -1      1029 5.50069E-02 9.63030E-02-1.21198E-01 2.61240E-02 9.30863E-02-6.92057E-02
 -1      1030 3.98782E-03 2.26313E-01 2.57413E-01-8.15486E-02 2.05001E-01-3.06545E-01
 -1      1031 2.03411E-01 1.94460E-01-3.63128E-02-9.10344E-02-1.37313E-01-1.69529E-01
 -1      1032 2.55638E-01 1.93021E-01 1.68597E-01 4.40909E-02 2.29244E-01 2.21199E-01
 -1      1033 5.84943E-03 8.71477E-02 3.12936E-02-1.23976E-01 3.57910E-02-2.31329E-02
 -1      1034-1.09688E-01 6.86038E-02 5.39457E-02-1.32174E-01 2.03077E-02 5.44153E-02
 -1      1035-3.51048E-02-4.24450E-02-9.45881E-02-9.57667E-02-6.85609E-02-9.46162E-02
 -1      1036 8.49653E-02 8.65498E-02 8.95634E-02-6.66481E-02 2.90978E-03-1.82141E-01
 -1      1037 2.95655E-01 3.77950E-01-4.39958E-02 2.42584E-01 9.77284E-02 3.42249E-02
 -1      1038 4.91414E-01 3.28677E-01-8.74279E-02 5.14416E-01-4.54178E-04-1.57718E-01
 -1      1039 2.53291E-01 2.94847E-01-8.01191E-02 3.00975E-01-1.53014E-01-5.00668E-02
 -1      1040 5.46404E-03 1.85529E-01-1.17289E-02 8.31108E-02 5.12523E-03-2.65976E-02
 -1      1041 1.09445E-01 1.52455E-01 1.19108E-01-9.70641E-03 9.01092E-03-2.71058E-01
 -1      1042 7.96355E-02 5.49767E-03-1.08012E-01-2.07109E-01 1.33135E-01-1.82412E-01
 -1      1043 1.19357E-01 1.35494E-01-6.11184E-02 8.14131E-02 3.05015E-01 9.70929E-02
 -1      1044 2.48002E-03 9.60056E-03 3.59835E-02-9.69694E-02 6.47580E-02-1.53763E-02
 -1      1045 4.11786E-02 8.48885E-02-1.44744E-01-3.98369E-02-1.59168E-01-6.80181E-02
 -1      1046 1.25651E-02 8.52663E-02 1.81844E-01-2.55084E-02-1.41167E-01-1.23888E-01
 -1      1047-1.97712E-02-1.32277E-01 7.45985E-02 2.59574E-01 1.36232E-01 3.32494E-02
 -1      1048-2.34554E-04 3.27957E-02 5.91524E-02 2.71939E-01-7.90587E-02-2.23945E-01
 -1      1049-8.98777E-02-4.56682E-02-1.92311E-01 4.37551E-01-1.27920E-02 9.09311E-03
 -1      1050-4.63009E-02 4.64974E-02 2.80596E-02 4.08409E-01-2.39162E-01 8.99582E-02
 -1      1051 1.02068E-02-2.38490E-02-1.65572E-02 2.09015E-01-4.06558E-02 1.25729E-01
 -1      1052 7.72477E-02-8.75233E-02-3.55368E-02 6.61027E-02-6.75261E-02-7.00616E-02
 -1      1053-1.22903E-02-1.22215E-02-1.07010E-01-8.70094E-02-9.54689E-02-1.67503E-01
 -1      1054-1.08550E-01-1.54274E-01 9.34634E-02-1.09073E-01 7.22278E-03-4.55082E-01
 -1      1055-5.67024E-02-5.08573E-02-1.75822E-01 2.55418E-02 8.51783E-02-5.40269E-02
 -1      1056-5.93951E-02-7.87912E-02-7.13167E-02 3.10066E-02 3.23263E-02 2.51429E-03
 -1      1057 1.77634E-02-1.08352E-01-7.69471E-02-5.90766E-02 1.21467E-01-1.82323E-01
 -1      1058 9.70613E-03 3.11112E-03 2.99927E-02-1.77856E-02 7.42372E-02 4.25648E-02
 -1      1059-1.03684E-02-1.16944E-02-1.23054E-01-5.94463E-02-4.86834E-02-3.72441E-02
 -1      1060-2.55049E-03-3.03681E-02-1.40456E-01-5.10940E-02-5.55088E-02-1.43758E-01
 -1      1061-3.93509E-01-2.99018E-01 1.62343E-01 3.03275E-01-2.72034E-02 1.82972E-02
 -1      1062-1.22290E-01 3.05932E-02 5.87736E-03 2.33401E-01-1.07730E-02-2.11824E-01
 -1      1063-5.36912E-01-3.71520E-01 1.00919E-01 5.18052E-01 2.19470E-01-9.11646E-02
 -1      1064-2.52980E-01-3.92460E-01-5.07499E-02 3.16328E-01 2.13565E-01-1.01415E-01
 -1      1065-4.02940E-01-4.77748E-01 1.62691E-01 4.07077E-01 1.18114E-01-2.78345E-02
 -1      1066-1.19719E-01-1.58088E-01 4.12626E-03 6.02256E-02-1.67645E-01-7.63175E-02
 -1      1067-3.10147E-01-3.87091E-02 1.53514E-01-1.23487E-01-3.31629E-01-2.61598E-01
 -1      1068-3.80789E-02-1.98748E-02-1.16247E-01-1.00202E-01 1.33487E-01-1.58564E-01
 -1      1069-1.74892E-01-1.24541E-01-9.28833E-03 9.38932E-02-1.86540E-01 1.05495E-01
 -1      1070-1.94025E-01-1.20182E-01-8.18212E-02 1.25577E-03 6.47714E-02-1.30147E-01
 -1      1071-4.01770E-02 3.30111E-02 3.38437E-02-1.11416E-01 1.47506E-01-4.82097E-03
 -1      1072 4.96517E-03-6.25154E-02-1.52254E-01-4.73800E-02-4.35537E-02 2.17387E-02
 -1      1073 1.86130E-02 7.83344E-02 1.39590E-01-1.42599E-01-1.26095E-01-7.90223E-02
 -1      1074-4.73409E-01-5.08792E-02-2.15654E-02 2.00300E-01 5.04632E-02-3.37988E-01
 -1      1075-1.33512E+00-5.65795E-01-2.39911E-02 5.75028E-01 2.07107E-01-2.48663E-01
 -1      1076-9.59692E-01-3.57019E-01 1.51353E-01 3.43218E-01-2.35787E-02 3.75907E-02
 -1      1077-1.49752E+00-8.93493E-01 1.25759E-01 8.47992E-01-2.61081E-01 3.56708E-01
 -1      1078-7.33096E-01-3.43583E-01-3.84954E-02 3.94544E-01-4.15663E-01 5.83465E-01
 -1      1079 2.03382E-01 3.51770E-02 3.54555E-02-7.93656E-02-1.78031E-01 1.45997E-04
 -1      1080-2.32170E-01-3.35882E-01 3.11621E-02-2.24219E-01-1.90227E-01-1.59803E-01
 -1      1081-2.35792E-01-1.42814E-01 2.21465E-02-4.14742E-02 1.21858E-01-2.42627E-01
 -1      1082-3.38335E-01-3.10943E-01-2.30661E-01 6.48137E-02-2.32092E-01 1.99752E-01
 -1      1083-4.89681E-02-1.72551E-02 8.58417E-02-3.27442E-02 7.76567E-02-1.38768E-01
 -1      1084-2.66866E-02-1.53088E-01-1.18961E-01-7.13925E-02-4.29662E-02 6.26671E-02
 -1      1085 1.27824E-01-5.29847E-02-8.30146E-02-2.15015E-01-8.84142E-03-2.49503E-02
 -1      1086-9.10217E-01-1.64851E-01 6.94977E-02 1.70568E-01 1.16584E-01-2.98492E-01
 -1      1087-1.69283E+00-4.44609E-01 3.89899E-03 3.03710E-01 6.46540E-02-4.75192E-01
 -1      1088-1.44183E+00-3.14870E-01 1.33878E-01 1.92518E-01 2.16091E-02-1.51967E-01
 -1      1089-2.57022E+00-6.20370E-01 7.11474E-02 6.39475E-01-3.86980E-02 4.43500E-01
 -1      1090-1.31904E+00-2.92197E-01-9.88938E-02 3.28800E-01-2.43839E-01 8.46963E-01
 -1      1091-2.98025E-02-2.84320E-02 1.13686E-01 3.95054E-02-8.22519E-02 2.28351E-01
 -1      1092 1.57252E-01-3.61333E-01 3.30424E-02-1.24294E-01-2.41486E-02-5.48960E-02
 -1      1093 1.04559E-01-1.49441E-01-3.50722E-02-1.15408E-01-3.18075E-02-2.11607E-01
 -1      1094-2.57255E-01-2.26533E-01-3.23485E-02 1.12942E-01-8.78114E-02 3.12762E-01
 -1      1095-1.13345E-01-1.73314E-01-2.25989E-01-1.22205E-01-5.64022E-02-1.75507E-01
 -1      1096-9.95179E-02-7.02974E-02 8.45244E-02-9.67006E-02 2.18109E-02-9.49588E-02
 -1      1097 2.40175E-01-1.02906E-01-3.89254E-02-3.11713E-02 9.00651E-03-1.87140E-02
 -1      1098 2.06593E-01-1.60360E-01 1.16850E-01-2.18818E-02 4.72924E-02-7.40493E-02
 -1      1099 0.00000E+00 0.00000E+00 0.00000E+00 0.00000E+00 0.00000E+00 0.00000E+00
 -1      1100-1.52385E+00-4.38613E-01 3.12813E-01-5.15676E-01 4.05344E-01 1.19996E-01
 -1      1101 7.15661E-02 8.87263E-02 7.78231E-02-3.38962E-02 2.76382E-01-1.69786E-02
 -1      1102 1.55644E+00 9.47333E-01 8.04079E-01 3.42825E-01 1.15320E+00 7.06905E-01
 -1      1103-2.05688E-01 6.38657E-02 4.38898E-01 1.75870E-02 4.83593E-01 1.04562E+00
 -1      1104 8.26932E-02-2.53017E-02 8.22338E-02-5.27832E-03-4.26649E-01 5.16781E-01
 -1      1105-2.33835E+00-5.87817E-01 5.77495E-01-4.88794E-02 3.37603E-01 8.10338E-01
 -1      1106-2.07051E+00-8.99497E-01-8.91001E-01 1.01219E-01-2.55633E-01 2.59508E+00
 -1      1107-1.17081E+00-4.14099E-01-5.91106E-01-3.36380E-02-4.75736E-01 1.61867E+00
 -1      1108-1.05067E+00-4.53800E-01-2.04602E-01 3.32563E-01-6.49628E-01 5.04624E-01
 -1      1109-1.06074E+00-2.55011E-01-5.53683E-01-1.16399E-01 6.27854E-01 1.13402E+00
 -1      1110 3.81189E-01-1.59072E+00-2.94695E-01 1.69365E-01-1.01722E+00 7.32139E-01
 -1      1111 7.28144E-01-4.65203E-01 5.81435E-02-4.69764E-01-1.07308E+00 7.03889E-01
 -1      1112 6.34384E-01-1.69224E+00-2.16444E-01-5.41730E-03 8.36287E-01 5.21318E-01
 -1      1113 1.50118E-01-1.35217E-01 2.96662E-01 2.43607E-02-5.76566E-01 4.05784E-01
 -1      1114-3.70450E-01-4.47059E-01 1.55686E-01-2.63415E-01 6.09425E-01 2.21454E-01
 -1      1115 1.17844E-01-3.15577E-02 2.42882E-01 7.90405E-02-3.72271E-01 1.88515E-01
 -1      1116 8.58684E-02 5.21463E-02 1.98388E-01 9.71327E-03 7.92365E-02 8.67765E-02
 -1      1117-2.30379E-01-6.24486E-01 9.61696E-02-1.28246E-01 1.70520E-01-8.00272E-02
 -1      1118-5.27536E-02-1.00291E-01-8.15121E-02-4.38938E-02-1.06132E-01 3.94385E-02
 -1      1119 1.15335E-02 8.69384E-02-1.24810E-02 6.90474E-02 2.15357E-01-3.85861E-02
 -1      1120 8.98908E-02 2.72592E-01 6.74684E-02 7.36142E-02-3.84987E-01 7.38902E-02
 -1      1121 1.16140E-01 3.46672E-01 1.38844E-01 7.66713E-02-1.44988E-01-4.58948E-02
 -1      1122-9.06679E-02-3.58465E-01 6.09553E-02-2.45821E-02-9.50722E-02-2.33003E-02
 -1      1123 7.81107E-01 1.44600E+00 6.68132E-01 4.02363E-01 8.76609E-01 5.20296E-01
 -1      1124 6.17701E-01 1.04126E+00 4.97689E-01-2.57537E-01-1.30255E+00 6.96245E-01
 -1      1125 1.84192E-01 6.17859E-01-1.55374E-02-8.00474E-02-6.50580E-01 3.51675E-01
 -1      1126 8.29736E-01-1.04084E+00-6.66630E-02 1.15664E-01 9.64065E-01 8.80068E-01
 -1      1127 2.83933E-01 1.82326E+00 6.01170E-01 6.87435E-01 6.01206E-01 6.57228E-01
 -1      1128 7.39039E-01 2.93799E-01 3.09851E-01-2.43849E-01 3.36765E-02 1.05196E+00
 -1      1129 1.66373E-02 1.57897E+00 3.62621E-01-5.56753E-01-1.05891E+00 1.09351E+00
 -1      1130 1.84036E+00 1.27299E+00 9.34006E-01 5.59323E-01 7.91314E-01 1.48041E+00
 -1      1131-4.87529E-02-1.46127E+00-7.12496E-02 6.98202E-01-6.86425E-01 8.72784E-01
 -1      1132-9.21041E-02 2.57532E-01-5.26977E-02 3.92570E-01 2.29782E-01 7.25796E-02
 -1      1133 3.96819E-01 4.08306E-02-2.68199E-01-1.76192E-01-2.45961E-01 9.65116E-01
 -1      1134 0.00000E+00 0.00000E+00 0.00000E+00 0.00000E+00 0.00000E+00 0.00000E+00
 -1      1135 9.99680E-01 1.44410E-01-1.62733E-01-1.11791E-01-1.81092E-01-3.45062E-01
 -1      1136 5.22681E-01 5.32984E-01 3.85887E-01 3.04454E-01 5.51159E-01 1.24855E+00
 -1      1137-4.14246E-02 2.03439E-01-2.43948E-02-9.94544E-03 8.96880E-01 4.51329E-01
 -1      1138 7.41135E-01-7.23791E-01 6.37709E-02 1.37217E-01 9.07028E-01 6.34336E-01
 -1      1139-5.45895E-01 4.38422E-01 2.99752E-02-6.11957E-02-9.63468E-01 9.27670E-01
 -1      1140-2.67228E+00-1.33809E+00-1.20311E+00 4.45311E-01-7.22627E-01 2.38243E+00
 -1      1141 1.10687E-01 3.35399E-01 3.49359E-01-1.38695E-02 6.19216E-01 6.35241E-01
 -1      1142-8.18848E-01-6.74165E-01-4.47904E-01-3.29955E-01 8.45322E-01 6.42712E-01
 -1      1143-1.85475E-01 1.27798E-02 8.45418E-01-2.24866E-01-2.67729E-01 4.35152E-01
 -1      1144-4.79097E-01 2.34780E-01 1.40497E+00-7.28913E-02 7.33587E-02 7.57177E-02
 -1      1145 2.58886E-01 1.96562E-01-3.60743E-02 1.52360E-01 6.02169E-01-4.45563E-02
 -1      1146-6.10567E-02-2.95854E-01-2.93660E-02 3.97731E-02-3.82737E-01 1.55364E-02
 -1      1147 7.42023E-02 5.50189E-02 1.39969E-01 1.17628E-02-1.00272E+00 5.30844E-01
 -1      1148 5.83848E-02 6.84375E-02 4.49671E-02 3.17220E-01 2.41802E-01 6.56328E-01
 -1      1149 2.76788E+00 1.26323E+00 1.20933E+00-3.25218E-01-7.52671E-01 2.48148E+00
 -1      1150 6.84449E-01-1.07835E+00-2.55484E-01 6.21957E-01-6.45148E-01 1.50883E+00
 -1      1151 8.56999E-01-1.20715E-01 1.68236E-01-2.20376E-01-9.90155E-01 6.83618E-01
 -1      1152 2.28356E-01 4.40209E-01-1.19539E-01-1.86036E-01-7.42286E-01 3.52475E-01
 -1      1153 3.05060E-01 6.50905E-01 4.23527E-01-2.53839E-01-6.46941E-01 1.47713E-01
 -1      1154 5.24410E-02 2.11116E-01 1.23156E-01-6.56660E-02-4.60117E-01 7.13430E-02
 -1      1155 3.61602E-02 3.79027E-02 3.71953E-02 7.62485E-03 2.63440E-02 1.78833E-02
 -1      1156-3.53574E-02 8.42938E-02 1.83887E-02-4.59294E-02 1.53823E-01 2.73629E-01
 -1      1157 2.08555E-02-1.27663E-01 3.21679E-01-1.06806E-01 1.47806E-01-1.01742E-01
 -1      1158-8.84589E-01-8.41102E-02-6.20838E-02-1.88144E-02-5.07518E-03-3.96729E-01
 -1      1159-1.64562E+00-3.25162E-01 3.47640E-01 1.98371E-01-3.61751E-02 1.67020E-02
 -1      1160-1.76044E+00-2.86288E-01 1.80459E-01-1.66521E-01-9.13771E-02-1.15919E-02
 -1      1161-1.46505E+00-2.59733E-01 1.29978E-01 1.07377E-01-5.45737E-02-1.41522E-01
 -1      1162-1.24366E+00-5.21233E-02-1.46964E-01-2.49420E-02 3.31988E-02 9.13278E-01
 -1      1163-3.02505E+00-3.83783E-01 6.85125E-02-3.13157E-02-1.74455E-02 4.60887E-01
 -1      1164-4.79939E-01-1.90606E-01-7.22232E-02-7.10502E-02 2.07337E-02 2.79012E-01
 -1      1165 2.62095E-01-1.90259E-01-2.33765E-02 5.53751E-02 6.66863E-02-1.96854E-01
 -1      1166 3.59812E-03-4.43799E-01-1.41329E-01-6.16506E-02-3.58597E-02-1.11454E-01
 -1      1167-4.41282E-01-8.37178E-02 1.09174E-02 3.17513E-02-2.34972E-03 2.81082E-01
 -1      1168-2.63516E-02-2.12365E-01-5.67223E-02-1.13429E-02-2.52118E-02-1.44028E-01
 -1      1169-8.12127E-01-1.45645E-01-2.98970E-01-2.70484E-01 2.51062E-01 7.26850E-01
 -1      1170-2.41737E+00-5.89816E-01 7.65511E-02-6.64232E-01 5.51451E-02 4.35270E-01
 -1      1171-2.89771E+00-6.31321E-01 3.04643E-02-7.36895E-01 1.80210E-01 4.29110E-01
 -1      1172-1.22177E+00-2.24080E-01-1.05684E-01-3.70265E-01 2.68777E-01 8.25531E-01
 -1      1173-1.42864E+00-4.74678E-01 2.72543E-01-5.23408E-01-4.24003E-02 1.09858E-02
 -1      1174-1.25656E+00-2.88678E-01 1.29295E-01-1.94115E-01-2.97407E-03-1.66495E-01
 -1      1175-1.10331E+00-4.66343E-01 6.69295E-02-3.94409E-01 1.02269E-02-2.00312E-01
 -1      1176-1.58069E+00-3.47070E-01 1.53873E-01-1.94988E-01-2.21469E-02 1.67582E-02
 -1      1177-1.59208E+00-2.82138E-01 8.76797E-03-4.10135E-01-5.42202E-02-4.44614E-01
 -1      1178 4.55383E-02-4.14636E-02 9.34929E-02-1.07112E-01 1.81469E-01 3.29548E-01
 -1      1179-7.94752E-02-1.65691E-01-1.07039E-01 9.13849E-02-4.24692E-03-2.51571E-01
 -1      1180-6.27381E-02-4.19994E-01-2.31838E-01 9.21249E-02 8.71663E-02-1.15798E-01
 -1      1181-1.12040E-01-7.40529E-02 1.09034E-02-4.15534E-02 1.29376E-01 2.15889E-01
 -1      1182 2.27910E-01-1.73655E-01 8.87927E-02 1.02686E-01-2.90402E-02-6.75090E-02
 -1      1183-4.78577E-01-2.82305E-01-2.46809E-01-3.03909E-01 3.59540E-01 4.90993E-01
 -1      1184-1.61443E+00-9.85156E-01 4.09322E-02-9.04284E-01 2.31823E-01 3.04331E-01
 -1      1185-1.35055E+00-9.25416E-01 7.42162E-02-9.95511E-01 5.68514E-02 2.06617E-01
 -1      1186-6.97478E-01-3.96517E-01-8.89594E-02-4.26638E-01 3.96358E-01 4.71060E-01
 -1      1187-7.58340E-01-6.44884E-01 2.25171E-01-5.47916E-01 3.20937E-02 1.06752E-01
 -1      1188-8.57843E-01-3.03785E-01 7.21138E-02-3.85804E-01 4.04434E-02 4.57110E-02
 -1      1189-3.78674E-01-5.51463E-02 6.11588E-02-2.52815E-01-6.84215E-02-1.45128E-01
 -1      1190-1.18119E+00-4.88866E-01 6.18534E-02-6.15660E-01-2.35637E-01-3.51352E-01
 -1      1191 1.49205E-02-1.70451E-02 5.13167E-02-4.39145E-02 1.04985E-01 1.14641E-01
 -1      1192 4.51989E-02-4.14215E-02-6.85653E-02 1.10196E-01-9.58035E-02-2.33611E-01
 -1      1193-5.03101E-03-2.01889E-01 1.22350E-01 2.53771E-01 1.35793E-01-6.70784E-02
 -1      1194-1.06022E-01-4.61523E-02 1.70903E-02-1.76013E-02 1.59167E-01-2.34015E-02
 -1      1195-3.48863E-01-3.96789E-01 1.25536E-01-4.04832E-01-1.86363E-01-5.84163E-02
 -1      1196-2.39596E-01-3.20916E-01-9.11797E-04-3.36189E-01 3.15052E-01 2.17542E-01
 -1      1197-4.33279E-01-7.33717E-01-3.52846E-02-7.06658E-01 2.72581E-01 1.16461E-01
 -1      1198-1.47196E-01-2.39372E-01-4.61036E-02-2.43385E-01 1.82579E-01 2.31682E-01
 -1      1199-2.23302E-01-3.30819E-01 1.09080E-01-5.28508E-01 1.67452E-01-1.35535E-01
 -1      1200-1.78501E-01 3.30681E-02 2.72204E-03-2.13219E-01 1.61804E-02-2.11817E-01
 -1      1201-4.28546E-01-3.25577E-01 7.57518E-02-5.07123E-01-1.80183E-01-4.39502E-02
 -1      1202 2.90891E-02-2.33960E-02-1.33815E-01 1.12786E-01-1.38470E-01-1.43057E-01
 -1      1203-2.65557E-01-8.76494E-02 1.73730E-02 1.37446E-01 2.26818E-01-4.32474E-01
 -1      1204-3.38369E-02-4.70718E-02 4.78027E-02-2.00965E-02 1.45634E-01-7.85325E-02
 -1      1205-1.71379E-02-1.03348E-01 5.59676E-02-2.11176E-01-2.00077E-01-1.92410E-02
 -1      1206-2.63453E-03-1.08280E-01-1.79266E-01-1.38224E-01 1.38021E-01 9.91139E-02
 -1      1207-4.25739E-02-6.52885E-03 3.16200E-02-3.87670E-01 4.11923E-02-5.39795E-03
 -1      1208 2.81496E-02-1.06014E-01 4.11302E-02-3.17074E-01-1.73793E-01 1.39355E-01
 -1      1209-4.51930E-03-2.68555E-02-2.14139E-02-1.67754E-01 3.60432E-02 1.26063E-01
 -1      1210 5.20445E-02 8.88935E-02 8.21962E-02-1.75498E-01 8.50498E-02-8.00663E-02
 -1      1211-3.59058E-02 7.17759E-02 1.22013E-01-4.38203E-01-1.72287E-01-8.24656E-02
 -1      1212 2.48944E-02 4.23283E-03-1.03342E-01-2.20235E-01 1.40536E-01-8.43760E-03
 -1      1213-2.78445E-02 1.08049E-01 1.73425E-01-2.71580E-02-8.07199E-04-3.47676E-02
 -1      1214 2.27321E-02-1.86558E-04-2.01325E-01 3.41891E-02-1.52848E-01-1.29878E-01
 -1      1215-1.46865E-01 8.18980E-02 2.84739E-01-6.50162E-02 1.86507E-01-5.11256E-01
 -1      1216-4.44129E-02-3.45306E-02 2.54605E-02-4.30466E-02 7.89018E-02-7.65533E-02
 -1      1217 2.54941E-01 3.13825E-01 5.31570E-02-3.01926E-01 1.55966E-01-9.77401E-02
 -1      1218 4.88730E-01 3.95777E-01-4.20726E-02-6.50647E-01 3.68821E-01-1.04965E-01
 -1      1219 1.56687E-01 1.54737E-01 1.31117E-01-2.96598E-01 1.67225E-01-9.39143E-02
 -1      1220 1.65736E-01 3.93462E-02-1.04736E-02-2.03355E-01 2.85231E-02-1.71394E-01
 -1      1221 4.48742E-01 3.81185E-01-1.52319E-01-5.90329E-01-1.34907E-02-1.60130E-01
 -1      1222 2.01820E-01 1.37745E-01 9.28042E-04-2.77479E-01-1.91768E-01 2.96160E-01
 -1      1223 4.07654E-01 6.97450E-01-6.25434E-02-6.42605E-01-3.87640E-02 8.03332E-02
 -1      1224 4.39441E-01 7.38325E-01 1.99483E-03-6.95665E-01-2.81876E-01 1.20923E-01
 -1      1225 2.03001E-01 3.76295E-01 1.97308E-01-3.82951E-01-4.25839E-01 1.93212E-01
 -1      1226 2.68464E-02 4.78614E-02-1.68422E-01 1.86758E-01-1.21353E-01-1.89118E-01
 -1      1227 1.90616E-01 1.63154E-01 1.15321E-01 3.88143E-02 6.37186E-02-2.16503E-01
 -1      1228 6.73927E-02 7.86055E-02 2.47254E-02 3.01154E-02 1.68583E-02-3.43349E-02
 -1      1229 6.64723E-01 3.03819E-01 6.34038E-02-3.58812E-01-3.99736E-01 5.33106E-01
 -1      1230 1.71071E+00 1.12196E+00-2.11950E-02-1.01552E+00-2.15149E-01 2.30690E-01
 -1      1231 1.47948E+00 9.47111E-01 1.02093E-02-1.02407E+00-2.04686E-01 3.87520E-01
 -1      1232 5.52730E-01 3.22165E-01 2.67865E-01-4.53363E-01-4.55046E-01 5.22676E-01
 -1      1233 6.44769E-01 4.52334E-01-1.22060E-01-3.61467E-01 8.53409E-02-1.42485E-01
 -1      1234 9.38133E-01 4.30519E-01 2.83049E-02-3.64438E-01 6.91212E-02-3.06982E-02
 -1      1235 7.31761E-01 6.86947E-01-1.49838E-01-4.99409E-01-5.79346E-02 8.48146E-02
 -1      1236 9.49098E-01 5.44805E-01-6.51220E-02-6.91073E-01-4.98736E-02-1.34110E-01
 -1      1237-2.96411E-01 2.89150E-02-4.84176E-02 1.27254E-01 3.68168E-02-1.98269E-01
 -1      1238-2.67376E-02 1.27895E-01 2.39673E-01 1.96839E-01-1.63767E-01-3.30368E-01
 -1      1239 7.86483E-02 1.17725E-01-3.40092E-02-6.21069E-02-1.04655E-01 6.45396E-02
 -1      1240 1.29264E+00 3.14557E-01 7.14673E-02-3.77170E-01-3.38538E-01 7.95553E-01
 -1      1241 3.14072E+00 7.06367E-01 1.60515E-02-8.05877E-01-1.70573E-01 4.56329E-01
 -1      1242 8.90642E-01 2.60905E-01 1.54340E-01-2.58585E-01-2.85507E-01 8.76135E-01
 -1      1243 1.02575E+00 3.70803E-01-1.61578E-01-2.87012E-01-5.04928E-04-1.78921E-01
 -1      1244 1.45732E+00 3.66839E-01-8.21177E-02-1.53535E-01 5.19357E-02-1.67532E-01
 -1      1245 1.44149E+00 4.55820E-01-3.34034E-01-5.41636E-01 5.22411E-02-1.55065E-02
 -1      1246 2.04250E+00 4.03838E-01-1.17889E-02-3.58895E-01 1.80071E-01-3.89707E-01
 -1      1247 4.44451E-01 3.18905E-01 3.45406E-01-3.75686E-02-1.38998E-01 5.71053E-01
 -1      1248-1.16758E-01 1.64333E-01-2.15189E-02 6.07826E-02 2.16200E-02-1.63862E-01
 -1      1249 3.64721E-01 4.03914E-01 3.82936E-01 1.03053E-01-1.95650E-01-2.01956E-01
 -1      1250 1.72287E-01 1.07446E-01-1.39373E-01-9.56082E-02-7.87385E-02 1.11002E-01
 -1      1251 1.08151E+00 1.89564E-01 7.24880E-02 1.06185E-01 4.58483E-02 9.43213E-01
 -1      1252 3.03283E+00 4.87492E-01-1.14538E-01 4.66597E-02-2.17685E-02 3.43831E-01
 -1      1253 3.45838E+00 4.02727E-01 4.80830E-02 1.23177E-01 5.84692E-02 4.32587E-01
 -1      1254 1.31827E+00 1.45553E-01 2.09803E-01 1.35300E-01 7.01981E-02 8.52697E-01
 -1      1255 1.42061E+00 2.18473E-01-2.22551E-01-1.43624E-01-7.24611E-02-1.07716E-01
 -1      1256 1.47691E+00 3.17947E-01-1.53062E-01 1.64018E-01-3.50056E-02-1.79910E-01
 -1      1257 1.83313E+00 2.69492E-01-2.28090E-01-1.77572E-01 4.42269E-02-1.08359E-02
 -1      1258 2.26997E+00 2.67669E-01 6.66614E-02-4.72159E-03 3.33209E-02-4.27150E-01
 -1      1259 2.17077E-01 2.20658E-01-4.75338E-02-4.83593E-02 4.79193E-02-2.87497E-01
 -1      1260-1.64945E-02 8.20164E-01 2.21657E-01-7.09568E-02-1.91961E-01 1.20517E-01
 -1      1261 1.73545E-01-4.27718E-03-8.13552E-02-1.96423E-01-9.78461E-04 2.92654E-01
 -1      1262 1.87039E+00 3.20742E-01 6.20387E-02 3.76645E-01-3.86030E-02-4.92304E-01
 -1      1263 9.90017E-01 2.18504E-01 2.39954E-03 1.71794E-01-1.47032E-01-2.91307E-01
 -1      1264 1.00076E+00 3.89330E-01-7.14641E-02 3.28796E-01-1.21776E-02-1.97284E-01
 -1      1265 1.72638E+00 2.84707E-01-2.10110E-01 1.92899E-01 2.41622E-02-7.54938E-02
 -1      1266 3.10087E+00 7.02617E-01 1.04380E-03 7.77002E-01 1.92135E-01 4.14390E-01
 -1      1267 1.30662E+00 3.12781E-01 2.15505E-02 3.75615E-01 2.86570E-01 7.54702E-01
 -1      1268 2.64114E+00 6.21600E-01-6.90896E-02 6.90582E-01 7.89100E-02 4.11396E-01
 -1      1269 4.51424E-01 2.03767E-01 5.50898E-02 1.45764E-01 1.65171E-01 3.20366E-01
 -1      1270 2.95743E-02 1.71176E-01 8.41530E-02-3.46566E-02-3.90266E-02-1.72970E-01
 -1      1271-1.92000E-01 4.05883E-01 1.89726E-03 3.24062E-02-2.58886E-03 2.89834E-02
 -1      1272 2.23208E-01 4.40324E-02-8.19278E-02 2.06464E-02 7.21340E-02 1.14086E-01
 -1      1273 4.63876E-01 1.60784E-01-8.13704E-02 2.28842E-01-1.23283E-01-1.52779E-01
 -1      1274 5.93469E-01 4.83792E-01-1.02565E-01 3.44076E-01-1.46314E-01-1.73505E-01
 -1      1275 1.05099E+00 3.72452E-01-2.97630E-01 4.98692E-01-9.02636E-02-9.57394E-02
 -1      1276 1.63476E+00 1.07853E+00 1.51576E-01 1.04289E+00 1.96275E-01 7.04151E-02
 -1      1277 5.42672E-01 2.58085E-01 1.16893E-01 4.13574E-01 3.06118E-01 4.79920E-01
 -1      1278 1.51563E+00 9.53036E-01 7.11158E-02 8.25318E-01 1.83551E-01 1.37655E-01
 -1      1279-2.79495E-01 2.14565E-02 1.15397E-01-1.26611E-01-6.18814E-02-1.43014E-01
 -1      1280 8.92606E-02 3.22737E-01 7.35994E-02-2.08085E-01 1.28735E-01-1.01711E-01
 -1      1281 3.67416E-01 1.55398E-01-9.28944E-02 1.13747E-01 1.99836E-01 1.34578E-02
 -1      1282 4.01911E-01 2.90326E-01-6.00826E-02 3.49732E-01 1.46697E-01 1.22795E-01
 -1      1283 2.17911E-01 9.63610E-02 1.17545E-01 2.20455E-01-1.09682E-01-1.49267E-01
 -1      1284 4.69899E-01 3.71149E-01 3.43329E-02 6.19422E-01-3.21991E-01-1.60274E-01
 -1      1285 1.00507E-01 4.22073E-02-4.92210E-02 1.72240E-01-1.54658E-02-7.92142E-02
 -1      1286 2.03860E-01 4.15597E-01 1.70624E-01 4.03692E-01 4.45954E-01 1.71678E-01
 -1      1287 3.28260E-01 8.77098E-01-1.21787E-01 6.45723E-01-1.02270E-01 9.08883E-02
 -1      1288 2.03224E-01 1.87687E-01 1.32778E-02 2.77779E-01 2.24769E-01 3.00845E-01
 -1      1289 5.12387E-01 7.75294E-01-9.67341E-02 6.24834E-01 1.50184E-01 5.46016E-02
 -1      1290 4.09448E-01 4.48864E-01-9.90909E-02 4.14083E-01-1.87100E-01-1.02204E-01
 -1      1291-2.80277E-02 2.49501E-02-1.01126E-01-3.75612E-04 9.26783E-02 5.90757E-02
 -1      1292 9.65894E-02 4.72573E-02-5.13605E-02-1.76522E-02-1.47903E-01-1.31611E-01
 -1      1293 2.26427E-01-6.20734E-02-5.44578E-01-1.72319E-01 2.09951E-01-2.05951E-01
 -1      1294-6.93645E-03-5.41674E-02-5.07613E-02-7.67232E-02 2.27454E-01 1.77742E-02
 -1      1295 6.25662E-02-7.00122E-02-1.11221E-01-1.58612E-01 1.63165E-01 3.16234E-02
 -1      1296 4.80030E-02 9.12505E-03 5.02585E-02 2.25751E-01 1.90077E-01-2.69158E-02
 -1      1297-1.01442E-01-3.80129E-02-1.72862E-01 4.69246E-01-1.98112E-01 2.92881E-02
 -1      1298 1.08332E-01-3.45930E-02-2.04949E-01 3.04471E-01 1.40483E-01-1.96744E-02
 -1      1299-8.54193E-03-1.03567E-01-1.48534E-01 1.71309E-01-2.01462E-01 6.97754E-02
 -1      1300-8.31635E-02-1.35649E-01 4.32519E-02 4.60961E-01 4.36748E-02 6.40014E-02
 -1      1301-6.98016E-02-1.04087E-01 1.27063E-02 2.66860E-01-4.02362E-02-9.28189E-03
 -1      1302 1.14187E-01 5.91627E-02-9.47123E-03 2.46073E-01-1.59342E-01-5.24955E-02
 -1      1303-3.53293E-02 2.76780E-02 2.00425E-02-5.32029E-02-1.34862E-01-1.23931E-02
 -1      1304-5.94240E-02-9.12604E-02-1.60458E-02-1.38200E-01 5.72662E-02-3.07657E-01
 -1      1305 1.05567E-01 5.63962E-02 5.62174E-02 5.21919E-02 2.08404E-02-1.08873E-01
 -1      1306-2.08053E-01-4.87862E-01-1.69362E-03 2.69438E-01-1.49149E-01 7.57449E-02
 -1      1307-4.73696E-01-9.07202E-01-1.74152E-03 7.41612E-01-3.29142E-01 1.31582E-01
 -1      1308-2.33270E-01-3.65512E-01 4.74862E-04 3.47666E-01-3.46017E-01 2.04321E-01
 -1      1309-1.41281E-01-3.00866E-01-6.60243E-02 2.59717E-01-2.25505E-01 2.11711E-01
 -1      1310-4.58608E-01-8.67366E-01 8.15964E-02 6.60263E-01-3.53386E-02 1.30838E-01
 -1      1311-2.43518E-01-3.82873E-01 2.06803E-01 5.64567E-01-1.49667E-01-1.55692E-01
 -1      1312-1.17149E-01-9.90189E-02-2.00432E-01 3.90690E-01 2.18933E-01-9.52481E-02
 -1      1313-2.89548E-01-1.89336E-01-2.79194E-02 1.34393E-01-1.94335E-01 2.56003E-02
 -1      1314-4.20419E-02-5.87280E-02-2.33112E-02-9.93450E-02-5.98068E-02-2.04425E-01
 -1      1315-8.86005E-02-2.89147E-01 6.61848E-02-1.18794E-01-6.23894E-02-2.97312E-01
 -1      1316-2.07470E-03-7.95619E-02 7.31481E-02 2.62384E-02-3.44206E-02-3.44641E-02
 -1      1317-1.10431E+00-4.65833E-01 6.72832E-02 6.43796E-01 8.09416E-03-1.06753E-01
 -1      1318-5.60857E-01-5.16865E-02-1.83571E-01 2.81772E-01 1.70525E-01-2.61519E-01
 -1      1319-6.08508E-01-5.54702E-01 2.39270E-01 4.14997E-01-1.22196E-01 8.70664E-02
 -1      1320-1.06087E+00-4.95026E-01 1.81273E-01 5.69453E-01 6.02297E-02-1.07966E-01
 -1      1321-7.32375E-01-4.90614E-01 8.79914E-02 4.23970E-01 1.21753E-01-1.66328E-01
 -1      1322-6.72625E-01-3.37809E-01-2.78833E-01 4.15262E-01-4.11226E-01 6.27533E-01
 -1      1323-1.73589E+00-1.03256E+00 5.65867E-03 9.96699E-01-1.90650E-01 2.14582E-01
 -1      1324-1.66881E-01-7.23133E-02-7.99637E-02 7.30108E-02-1.90951E-01 2.34744E-01
 -1      1325-3.91790E-02-1.12281E-01 1.68222E-01-1.04951E-01 6.95745E-02 6.57224E-03
 -1      1326-1.41777E-01-3.08246E-01-4.41973E-01-1.13235E-01-2.36867E-01-1.52619E-01
 -1      1327-2.19451E-01-2.86747E-01 1.09667E-01 1.94639E-01-1.25298E-01 4.72127E-02
 -1      1328-2.72778E-01-1.11647E-01-9.25039E-02-3.39490E-02 2.46241E-02-2.11772E-01
 -1      1329-2.13855E+00-4.44317E-01 4.24760E-02 4.01565E-01 1.92708E-01-3.95605E-01
 -1      1330-6.73382E-01-1.20617E-01-2.68827E-02 1.07554E-01 6.78236E-02-3.97422E-01
 -1      1331-1.43012E+00-5.18607E-01 2.71284E-01 4.54828E-01-2.60275E-02 6.75098E-02
 -1      1332-1.76847E+00-2.84679E-01 1.55031E-01 1.76079E-01-7.21745E-02-5.13919E-03
 -1      1333-9.35812E-01-3.34163E-01 1.27016E-01 3.64957E-01 3.79508E-02-2.03021E-01
 -1      1334-8.04833E-01-1.76650E-01-3.17807E-01 2.60023E-01-2.38670E-01 7.29615E-01
 -1      1335-3.00596E+00-6.66366E-01 2.83385E-02 6.96688E-01-1.75112E-01 4.16459E-01
 -1      1336-7.16783E-01-2.62210E-01-2.69465E-01 1.26923E-01-1.42859E-01 4.94333E-01
 -1      1337 7.21137E-02-3.27036E-01 9.08417E-04-1.65832E-02 5.73955E-02-2.26267E-01
 -1      1338 2.87804E-03-3.31866E-01-2.21945E-01-7.92360E-02-1.69231E-01-2.27271E-01
 -1      1339-1.27925E-01-1.00886E-01 1.98790E-01 4.12414E-02-5.02135E-02 1.21080E-01
 -1      1340-3.69841E-01-4.20687E-01-1.09730E+00 7.92034E-02 2.50430E-01 6.74434E-01
 -1      1341-3.22295E+00-1.34500E+00-1.37039E+00 3.76238E-02 1.58280E-01 1.60679E+00
 -1      1342-9.36301E-01 2.87610E-01 2.04140E+00-1.06298E-01 5.53616E-02-1.87384E-02
 -1      1343 1.07910E+00 4.09020E-01 6.43955E-01 1.75815E-01-2.67663E-01 1.64281E+00
 -1      1344-1.52540E+00-2.97505E-01 1.39682E-01 2.58461E-01 1.27659E-02 1.64814E+00
 -1      1345-3.32271E+00-1.30151E+00-7.88556E-01-4.97845E-01 3.72384E-01 6.65202E-01
 -1      1346-6.87958E-02-2.21064E-02-8.98482E-03-2.31631E-02-5.11553E-03 3.39527E-02
 -1      1347-2.26954E-02-5.49189E-02 8.91843E-02 3.98342E-02-3.36924E-03 1.61044E-02
 -1      1348-2.48852E-02-1.29411E-01-1.20702E-02-1.11267E-02 2.30712E-01 1.95460E-02
 -1      1349 8.00668E-01 6.46654E-01 4.41542E-01 2.33181E-01-8.09168E-03 6.99881E-01
 -1      1350-3.74494E-01 7.86564E-03-3.99137E-01 1.39985E-02 4.74776E-01 7.52698E-01
 -1      1351-1.09471E+00-2.54411E-01-1.78506E-01-3.38208E-01 8.45257E-01 1.11586E+00
 -1      1352-1.32814E-01 1.39076E-01-1.00425E-01 4.82974E-02 8.16486E-03 8.00691E-01
 -1      1353 4.19549E-01 2.61267E-01 1.83757E-01 2.81819E-01 3.63828E-01 1.18105E+00
 -1      1354 5.46611E-01 2.88058E-01-4.19820E-02 6.03784E-02 1.71254E+00 6.54788E-01
 -1      1355-3.44928E-02 6.59060E-02 3.69920E-01 1.03068E-01-7.73148E-01 6.15040E-01
 -1      1356 1.10731E+00 1.24482E+00 7.05638E-01-4.65965E-01-1.27933E+00 1.04994E+00
 -1      1357 1.37720E+00 1.96843E+00 1.00369E+00-6.27856E-01-1.29217E+00 1.11034E+00
 -1      1358-3.74206E-01-8.67544E-01-3.72525E-01 7.78441E-02-6.39388E-01 1.93936E-01
 -1      1359-4.64713E-01-1.55217E+00-5.79185E-01-2.58867E-01-7.98960E-01 2.31661E-01
 -1      1360 1.30679E-02-4.65373E-01-7.97341E-02-3.09082E-01-6.44924E-01 1.99604E-01
 -1      1361-1.02257E-01-1.30326E-01-1.79581E-01 2.04320E-02-3.84217E-01 1.55373E-01
 -1      1362-3.75681E-02 2.32474E-01-2.06374E-01-1.47209E-01-5.74724E-01 8.47256E-01
 -1      1363 7.22579E-01-8.73603E-01 3.36631E-01 4.20578E-01 2.57806E-01 1.10174E+00
 -1      1364-2.92153E-01-8.40454E-01 1.88303E-01 4.31243E-01-1.15014E-01 7.48069E-01
 -1      1365-5.17595E-01-1.18791E-01 3.25479E-01 2.45491E-01-7.81753E-01 8.07547E-01
 -1      1366 7.37252E-01 4.23385E-01 6.17062E-01-7.12666E-02-6.89617E-01 1.76174E+00
 -1      1367-1.00428E+00-2.65936E+00-1.12942E+00 1.48370E+00-8.94828E-01 1.87925E+00
 -1      1368-8.28112E-01-7.96164E-01 3.54634E-02-4.63377E-01 4.04571E-01 2.62941E-01
 -1      1369 1.23896E-01-8.07706E-01 5.64502E-01-2.20392E-01-3.29899E-01 7.88067E-01
 -1      1370-2.91453E-01-7.03369E-01-2.11130E-01 1.18697E-01-8.68576E-01 4.55820E-01
 -1      1371-1.60344E-01-3.42274E-01-6.36408E-02-1.76132E-01 5.93466E-01 1.49938E-01
 -1      1372-2.99138E-01-8.33251E-01-1.21210E-01-1.87740E-02-7.01834E-01 2.56998E-01
 -1      1373-1.51603E-01-3.84564E-01-4.38032E-02-8.14491E-02-3.36170E-01 1.21380E-01
 -1      1374 4.42435E-02 1.33970E-01 5.34642E-02-5.43649E-02 9.20802E-02-5.11703E-02
 -1      1375 1.30687E-02 4.14917E-01-3.36866E-02 1.31180E-02 4.74891E-02 3.07888E-01
 -1      1376 1.51648E-01 3.77425E-01 1.58722E-01 2.04197E-02 2.78372E-01-3.04185E-02
 -1      1377 9.87565E-01 1.32370E+00 4.01996E-01 5.12238E-01 4.31931E-01 1.00652E-02
 -1      1378 1.54149E+00 1.51788E+00 9.17811E-01 6.52259E-01 1.37601E+00 1.33490E+00
 -1      1379 9.95791E-01-7.42188E-02-5.81044E-01 2.00720E-01 5.65668E-01-1.30014E-01
 -1      1380 2.52558E+00 1.67884E+00 1.26133E+00-7.06576E-01-1.15770E+00 2.13037E+00
 -1      1381 1.20614E+00 4.04798E-01 4.83283E-01 5.93710E-02-2.03189E-01 7.89220E-01
 -1      1382 2.48247E+00 1.12801E+00 1.08315E+00-3.01758E-01-6.22791E-01 2.47458E+00
 -1      1383-6.22196E-01-6.71697E-01-6.11564E-01-1.86149E-01 5.52742E-01 1.37390E-01
 -1      1384 2.44405E-01 5.11913E-01 2.64751E-01 1.08582E-01 5.11179E-01 2.67090E-01
 -1      1385-1.62234E-01 1.05299E-02-4.41965E-01-4.82942E-02 5.16557E-02-7.79924E-02
 -1      1386 2.83886E-01 6.15489E-01 2.69813E-01 7.56233E-02 2.83825E-01 8.60885E-02
 -1      1387 5.44464E-01 4.43433E-01 2.96369E-01 2.40332E-01 3.51350E-01 9.22638E-01
 -1      1388-1.29169E+00-1.76540E+00-1.16401E+00 6.91786E-01-6.93668E-01 8.54104E-01
 -1      1389 2.16497E-01 3.01560E-01 3.29717E-01-1.87880E-02-4.82164E-01 9.93355E-01
 -1      1390 1.05467E-01-3.68203E-02 1.11645E+00 2.00145E-01 9.67011E-02 6.37159E-01
 -1      1391 4.98808E-02 2.59593E-01 9.35125E-01 1.61176E-01-3.11310E-01 1.36078E+00
 -1      1392-9.96226E-01 8.94558E-02-5.39981E-01 2.35415E-02 2.16593E-01 3.54836E-01
 -1      1393 1.74909E-01 2.95385E-01 3.34935E-01 3.09487E-02 5.27999E-01 9.41771E-01
 -1      1394-2.38854E+00-8.92032E-01-1.26934E+00 8.58937E-02 1.82683E-01 6.34461E-01
 -1      1395-7.93797E-01-1.40961E-01 1.67844E-01-2.02373E-01 1.27924E-01-2.80496E-01
 -1      1396 2.52527E-01-9.25488E-01-4.30488E-02-6.29304E-02 7.90042E-01 6.84062E-01
 -1      1397 2.81881E-04 5.16085E-02 6.24413E-02-2.57121E-02-4.61738E-02 5.85294E-02
 -1      1398-4.92996E-02-1.35131E-01 2.10211E-01 1.25144E-01-7.75242E-01 3.43981E-01
 -1      1399 5.81099E-02-2.16235E-01-1.92910E-01-7.96822E-02-1.60864E-01 1.58486E+00
 -1      1400 6.31693E-01 6.88222E-01 5.37259E-01-5.60734E-01-6.92418E-01 2.08961E+00
 -1      1401 9.37560E-01 1.00118E+00 4.36492E-01-4.67667E-01-6.33567E-01 5.63095E-01
 -1      1402 6.83820E-01 1.08550E-01 2.14506E-02-4.47924E-01-7.96372E-01 6.84501E-01
 -1      1403 8.56447E-01 1.44801E+00 6.91337E-01-3.42171E-01-1.07269E+00 6.11595E-01
 -1      1404 3.55701E-01 8.93294E-01 3.74699E-01-4.73330E-02-7.13951E-01 2.16552E-01
 -1      1405 1.43478E-02 3.86446E-02 1.58977E-02 6.74691E-03-1.67516E-01 1.65014E-02
 -1      1406-1.95272E-02-5.68601E-02 1.61684E-02 5.20480E-02 2.44071E-01 4.60803E-04
 -1      1407-1.71418E-01-5.58804E-01 1.07900E-01-7.89884E-02-1.95014E-02 6.45956E-03
 -1      1408 2.93990E-01 4.35344E-01 5.54272E-01 8.16411E-02 4.78873E-01 3.06572E-01
 -1      1409-5.63381E-01-4.61562E-01-4.20844E-03 1.87363E-01 3.97396E-01-5.69208E-02
 -1      1410-1.19983E+00-8.01788E-01-5.66793E-01 1.83329E-01 3.01485E-01-3.23734E-01
 -1      1411-2.41409E-02-1.56101E-01-5.34450E-02 2.04706E-01 1.80650E-01-5.42309E-01
 -1      1412 5.85498E-01 5.95316E-01 9.43948E-01 4.20727E-01 2.11885E-03-1.02349E+00
 -1      1413-7.73407E-01-5.82753E-01-6.96764E-01 6.66077E-02-1.78224E-01-4.47968E-01
 -1      1414-8.36277E-01-1.06115E-02 3.45510E-01-1.86971E-02-6.04879E-01-5.42470E-01
 -1      1415 8.19979E-01 6.29233E-01 1.28484E-01 1.14649E-01-2.54003E-01-1.32972E-01
 -1      1416 1.95743E+00 1.52377E+00 1.32789E+00 7.93716E-02-5.11641E-01-5.11418E-01
 -1      1417-5.90683E-01-4.68016E-01-6.10437E-01-2.59876E-01-2.84832E-02-6.90881E-01
 -1      1418-1.50586E-01 3.19667E-01 6.61148E-01-3.28425E-01 3.85503E-01-6.44715E-01
 -1      1419 7.10492E-01 9.43624E-02-2.39806E-01 6.86289E-03 4.58311E-01-3.04926E-01
 -1      1420 1.17523E+00 8.40268E-01 1.17121E+00 1.77456E-01 3.06136E-01-8.39238E-01
 -1      1421-1.59270E+00-9.38558E-01-1.10109E+00-9.71365E-02 2.35046E-01-8.33738E-01
 -1      1422-1.08030E+00-3.53388E-01 2.53513E-01 2.12894E-02 5.30197E-01-4.63381E-01
 -1      1423 1.02268E+00 9.73340E-01 4.35790E-01 4.09770E-03 1.11301E-01-9.33004E-02
 -1      1424 1.37370E+00 1.40390E+00 8.09683E-01-5.14520E-02 2.50035E-01-1.57126E-01
 -1      1425-1.13310E+00-1.28967E+00-4.79462E-01 5.72592E-02 1.13492E-01 6.23196E-02
 -1      1426-1.13945E+00-1.47093E+00-6.20186E-01-1.15479E-01 2.53551E-01-8.03398E-02
 -1      1427-8.26613E-01-9.83605E-01-8.47863E-01-4.10734E-02-3.35263E-01-2.48669E-01
 -1      1428-1.48263E+00-1.16486E+00-8.90040E-02-2.36926E-01-3.89627E-01-1.57450E-01
 -1      1429-1.00047E+00-1.24946E+00-4.50090E-01-1.43265E-01-6.53466E-03-2.00178E-01
 -1      1430-1.10026E+00-1.37887E+00-7.98630E-01-1.05046E-01-1.67926E-01-2.93215E-01
 -1      1431 9.81730E-01 6.04217E-01 8.83727E-01 1.13057E-01-1.89065E-01-4.89436E-01
 -1      1432 1.12951E+00 3.72850E-01-8.12629E-02-1.23721E-01-4.56218E-01-4.92597E-01
 -1      1433 6.48524E-01 9.27307E-01 4.28792E-01 8.12680E-02-1.44054E-01 2.43462E-02
 -1      1434 1.22400E+00 1.47933E+00 7.75730E-01-7.76587E-02-3.05504E-01 2.17081E-02
 -1      1435-6.77715E-02-1.50083E-01-2.45875E-02 2.73731E-01 1.09910E-01-5.40432E-01
 -1      1436-1.73703E-01-8.99500E-02-2.30246E-01 2.31949E-02-1.71665E-01-5.65128E-01
 -1      1437 1.41523E-01 1.44913E-01 4.99011E-01 1.74717E-01-3.73759E-01-7.69917E-01
 -1      1438 7.52462E-01 7.39278E-01 2.55435E-01-1.49020E-01 3.28927E-01-1.84381E-01
 -1      1439 1.49960E+00 1.22541E+00 8.73636E-01-6.60884E-02 5.57841E-01-3.79740E-01
 -1      1440-1.10927E+00-9.46947E-01-9.28875E-01 8.57744E-02 4.76117E-02-4.46974E-01
 -1      1441 1.70358E+00 1.18966E+00 3.01893E-01 1.85400E-01-4.69750E-01-3.05230E-01
 -1      1442 2.29199E+00 1.76308E+00 1.85554E+00 1.86061E-02-5.72016E-01-7.55813E-01
 -1      1443 2.12095E+00 1.11643E+00 1.47117E+00-1.18346E-01-2.54450E-01-9.26524E-01
 -1      1444 2.34120E+00 4.11440E-01-1.21580E-01-2.64268E-03-8.12438E-01-1.00272E+00
 -1      1445 1.16718E+00 9.29468E-01 8.71201E-01-1.12536E-02 3.25840E-02-5.05701E-01
 -1      1446 1.33628E+00 2.00519E-01-4.58626E-01 6.49935E-05 9.70218E-01-5.49604E-01
 -1      1447 1.99337E+00 1.36929E+00 2.75875E+00 1.46837E-01 3.11174E-01-1.58677E+00
 -1      1448 1.72777E+00 1.31141E+00 1.35591E+00 9.16298E-02-2.43300E-03-5.52429E-01
 -1      1449 1.61239E+00 1.32487E+00 5.53101E-01-2.98267E-01 6.64673E-01 4.61688E-02
 -1      1450 2.02000E+00 1.92581E+00 2.07934E+00-3.40498E-02 6.66280E-01-7.85733E-01
 -1      1451 7.31630E-01 4.49781E-01 4.71954E-01 2.30694E-01 2.96440E-02-4.25487E-01
 -1      1452 1.66285E+00 1.24778E+00 9.73827E-01-2.15144E-01 1.92914E-01-5.95441E-01
 -1      1453-6.57590E-01-3.69554E-01-4.28126E-01 1.85966E-01-7.65888E-02-4.03272E-01
 -1      1454-1.50197E+00-1.26181E+00-1.35184E+00 3.89197E-02 6.70594E-02-5.61470E-01
 -1      1455 8.11822E-01 7.13016E-01 8.63316E-01-2.57957E-01 6.47901E-02-6.05377E-01
 -1      1456-1.88199E+00-1.28117E+00-1.10516E+00-1.50296E-01-9.57566E-02-5.08582E-01
 -1      1457-1.74678E+00-1.42853E+00-1.34000E+00-1.75436E-02-6.25064E-02-5.53755E-01
 -1      1458-1.55856E+00-1.06319E+00-1.74495E+00 1.37546E-01-2.85224E-01-9.41563E-01
 -1      1459-1.27282E+00-1.19298E-01 3.67251E-01-3.31850E-03-8.23999E-01-7.56179E-01
 -1      1460-1.94390E+00-1.82101E+00-6.77405E-01 1.96547E-01 1.56822E-01-5.34834E-02
 -1      1461-2.07849E+00-2.20242E+00-1.29016E+00-1.48977E-02 2.68329E-01-2.15406E-01
 -1      1462-9.18026E-01-7.98494E-01-1.56782E+00-4.22931E-01-4.47294E-02-1.36306E+00
 -1      1463-4.11766E-01 4.57158E-01 1.12063E+00-4.08117E-01 7.39466E-01-1.25451E+00
 -1      1464-8.67932E-01-6.36449E-01-5.44994E-01-1.74298E-01 3.60039E-02-5.04977E-01
 -1      1465 1.67606E-02-1.47701E-02 2.16426E-03-2.40855E-01 9.02873E-02-4.56547E-01
 -1      1466 1.06891E+00 1.08369E+00 3.04676E+00 3.02139E-01-4.15760E-01-1.17196E+00
 -1      1467-9.77881E-01-7.76605E-01-1.33451E+00 2.71887E-01-1.79609E-01-6.64318E-01
 -1      1468 1.36865E+00 5.15949E-01-1.19328E-01-1.52636E-01-3.46317E-01-3.96388E-01
 -1      1469 1.89334E-01 3.93286E-01 1.62140E+00-1.64078E-01 5.62024E-01-4.75256E-01
 -1      1470 8.90490E-01 3.51117E-01 5.17570E-01-1.55390E-01-1.37755E-01-4.45615E-01
 -1      1471 2.04625E+00 1.79474E+00 1.02225E+00-2.71230E-01 2.04776E-01-1.99464E-01
 -1      1472 2.15775E+00 2.12310E+00 1.61497E+00 3.18455E-02 3.83283E-01-4.31263E-01
 -1      1473 1.47823E+00 1.29230E+00 1.34551E+00-4.09114E-02 3.20535E-02-4.75859E-01
 -1      1474-1.60280E+00-1.07722E+00-9.51576E-01-2.17705E-01-4.11042E-02-5.45601E-01
 -1      1475 5.81128E-01 4.54505E-01 7.10591E-01-2.21085E-01-2.38953E-02-7.45259E-01
 -1      1476 2.83607E-01-7.26267E-02-5.78845E-01-2.35398E-01-2.08441E-01-7.77664E-01
 -1      1477 1.24515E+00 1.09190E+00 1.09495E+00-1.93935E-02-1.60411E-02-5.14970E-01
 -1      1478 1.01930E+00 1.33968E+00 2.87358E+00 2.64349E-02 3.29747E-02-1.24944E+00
 -1      1479-2.47215E+00-1.59157E+00-2.06653E+00-3.81417E-01 1.99954E-01-1.22457E+00
 -1      1480-1.59534E+00-5.44328E-01 3.23129E-01-5.05214E-02 7.12813E-01-6.20406E-01
 -1      1481-2.05306E+00-1.84269E+00-1.81799E+00-1.44677E-01-4.70625E-01-5.94536E-01
 -1      1482-1.93987E+00-1.27712E+00-2.75652E-01-3.75348E-01-6.10285E-01-3.10508E-01
 -1      1483-3.88708E-01-4.27455E-01-1.11138E+00 1.87073E-01 3.58182E-02-8.25652E-01
 -1      1484-2.55232E-02-1.05500E-02 1.38852E+00 3.84855E-01-3.62734E-01-1.14752E+00
 -1      1485-1.95070E+00-1.81879E+00-1.01281E+00-2.50478E-01-9.48453E-02-2.92613E-01
 -1      1486-2.07397E+00-2.14073E+00-1.72803E+00 4.96911E-02-4.01526E-01-5.50857E-01
 -1      1487-4.50209E-01-2.67623E-02 5.94723E-01-6.76094E-02 1.75970E-01-2.80959E-01
 -1      1488 8.02480E-01 3.45063E-01 4.87582E-01 8.24226E-02 1.00860E-01-4.04717E-01
 -1      1489 1.95071E-01-8.05605E-02-6.36283E-01 4.68594E-01 4.11331E-01-9.82297E-01
 -1      1490 6.38068E-01 7.75069E-01 1.53231E+00 5.86744E-01-1.81360E-01-1.36479E+00
 -1      1491-1.72799E+00-1.02491E+00 1.34724E-01 2.26924E-01 6.05684E-01-1.48770E-01
 -1      1492-2.25689E+00-1.74888E+00-1.78691E+00 5.66660E-02 4.25284E-01-7.32784E-01
 -1      1493-6.85425E-01-6.45294E-01-2.16483E+00-4.06760E-02-3.70494E-01-7.83622E-01
 -1      1494-1.12393E+00-1.24581E+00-2.23847E+00-1.72307E-01 1.93340E-01-9.30164E-01
 -1      1495 1.06234E+00 1.32941E+00 2.52448E+00 2.81054E-01 2.44860E-01-9.61485E-01
 -1      1496 7.18498E-01 6.45727E-02-8.74932E-01-1.31174E-01-1.55173E-01-2.22162E-01
 -1      1497 1.10998E+00 8.40012E-01 1.66052E+00-2.65579E-01-2.68836E-01-8.55367E-01
 -1      1498-4.68005E-01 8.50982E-02 5.76384E-01 6.74673E-02-1.75529E-01-3.85071E-01
 -1      1499-1.19160E+00-1.14501E+00-2.98177E+00-1.21212E-02-3.09633E-01-1.15686E+00
 -1      1500 1.03218E+00 1.22599E+00 2.57653E+00 4.38209E-04-7.73779E-02-1.02016E+00
 -1      1501 8.55652E-01 7.41351E-01 1.67005E+00-4.21811E-01 2.02250E-01-1.32484E+00
 -1      1502 2.35789E-01-2.91747E-01-1.27671E+00-4.16851E-01-4.65618E-01-9.81794E-01
 -1      1503-1.33105E-01-3.45608E-01-1.48231E+00-1.22445E-01-3.70268E-01-5.12592E-01
 -1      1504-5.70844E-01-5.45231E-01-1.95117E+00 5.73776E-02 3.91456E-01-6.95642E-01
 -1      1505 1.72571E+00 1.96735E+00 1.01353E+00 1.57488E-01-1.58671E-01-2.37679E-02
 -1      1506 1.98173E+00 2.27909E+00 1.59786E+00-9.10563E-02-3.02254E-01-1.09008E-01
 -1      1507-1.14433E+00-1.24651E+00-2.82162E+00-7.98033E-02-1.31605E-01-1.17875E+00
 -1      1508 6.35036E-01 6.28543E-01 2.38272E+00 1.06133E-01-4.89731E-01-8.20156E-01
 -1      1509 3.68865E-01-1.54025E-01-7.46664E-01 4.82609E-02 3.16013E-01-2.58335E-01
 -1      1510 2.33313E-01 2.05811E-01 1.52089E+00 2.07999E-01-2.62978E-01-7.66254E-01
 -1      1511-9.38853E-01-3.45871E-01-4.97895E-01-1.92187E-01 7.76255E-02-4.37947E-01
 -1      1512-1.00849E+00-1.14787E+00-2.91649E+00 1.45700E-02 3.49915E-01-1.08574E+00
 -1      1513-1.11421E+00-8.76354E-01-1.55444E+00-3.17088E-01 2.56188E-01-7.31979E-01
 -1      1514-1.08840E+00-1.37161E+00-2.58705E+00 2.23991E-01-2.89299E-01-1.03177E+00
 -1      1515-2.50907E-01-3.13762E-01-1.13890E+00 1.90457E-01 2.47040E-01-6.26244E-01
 -1      1516-7.45466E-01-3.22657E-01-3.93782E-01 1.68318E-01-3.99870E-02-3.34088E-01
 -1      1517 1.17604E+00 1.14102E+00 2.65853E+00-1.24302E-02 4.27668E-01-1.08854E+00
 -1      1518 7.45463E-01 7.09826E-01 2.23163E+00-6.63176E-02 6.13632E-01-8.26557E-01
 -1      1519 1.00452E+00 8.13553E-01 1.56759E+00 2.04639E-01 2.82551E-01-6.85451E-01
 -1      1520-1.02409E+00-1.28069E+00-2.80682E+00 3.54756E-02-5.27143E-02-1.08383E+00
 -1      1521 9.29300E-01 1.23922E+00 2.33460E+00-2.23298E-01-2.39814E-01-8.37502E-01
 -1      1522-1.01557E-02-7.13522E-02 5.12875E-02 2.24008E-02 1.15864E-01 3.19705E-01
 -1      1523 2.11138E-01-2.00125E-02-6.09495E-02-2.42895E-02-1.09236E-01 7.07341E-02
 -1      1524 4.28710E-01 1.04966E-01-1.61769E-01 1.15343E-01 1.31242E-01 7.74596E-02
 -1      1525-5.68892E-02-1.87696E-01-8.91274E-02 4.63532E-02 7.50424E-02 8.34812E-03
 -1      1526 9.80197E-02-3.29821E-01 2.37776E-02 3.23386E-02 2.14210E-01 1.17887E-01
 -1      1527 3.68866E-01-7.51008E-02 9.10801E-02-1.24881E-01-7.83590E-03 7.46806E-01
 -1      1528 1.48757E-02-1.24791E-02-3.14259E-02-1.49246E-02-2.40344E-02-4.33647E-01
 -1      1529-1.65911E-01 4.00985E-02 9.71931E-02 2.08331E-01-1.81357E-01-4.61133E-02
 -1      1530 1.55471E-01 3.75590E-02 1.30720E-01-3.10545E-02-3.77436E-01 2.48758E-01
 -1      1531-3.03754E-02-1.63139E-01 3.91192E-03-7.67396E-02-1.42169E-01 1.01484E-01
 -1      1532 3.17145E-01 1.60025E-01 1.30641E-01 1.14253E-01 3.38554E-01 5.89102E-01
 -1      1533 3.86963E-01 2.09727E-01-4.74382E-03-1.74372E-01-1.71245E-01 3.03641E-01
 -1      1534 2.20194E-01 2.53986E-03 3.00766E-02 3.17293E-02-3.39079E-01 2.16379E-01
 -1      1535-3.23297E-01-1.63775E-01 7.27327E-02-2.37789E-01 8.34506E-02 7.52082E-01
 -1      1536 4.92983E-01 2.53395E-01 4.05163E-02-5.22718E-02 1.12329E-01 3.23253E-01
 -1      1537 3.91144E-01 2.86955E-02 1.22812E-01 3.21034E-02-3.18179E-01 1.55940E-01
 -1      1538 1.91866E-01 1.27289E-01-4.29811E-02 1.73298E-01 1.28776E-01-3.50209E-02
 -1      1539-4.09661E-01-1.64890E-01-2.20070E-01 1.00775E-01-2.29729E-01 3.41749E-01
 -1      1540-1.88380E-02-6.33973E-02 9.61842E-02-1.19441E-01 3.53058E-01 2.69697E-01
 -1      1541 6.88431E-02 2.65306E-01-1.97851E-01 2.17182E-01-2.27832E-01 8.32027E-01
 -1      1542-2.07749E-01 1.90492E-01-1.93448E-01 9.66787E-02 1.47126E-01 9.83705E-01
 -1      1543-3.78703E-01-2.27030E-01-3.28407E-01 1.41830E-02-1.08198E-01 7.27880E-01
 -1      1544-9.29790E-01-3.78697E-01 1.16910E-01 8.76689E-02-5.84007E-02 3.10532E-01
 -1      1545-1.65182E-01-1.07411E-01 3.21015E-02-4.96330E-02-9.58096E-02 6.50935E-01
 -1      1546 1.26731E-02-3.10299E-01-2.68811E-02-2.69608E-02 3.01679E-01 1.43176E-01
 -1      1547-2.13918E-01-1.32059E-01-3.81946E-01 9.92787E-02-5.00362E-01 6.24417E-01
 -1      1548-2.18452E-01-6.29476E-02-1.56588E-01-1.78101E-01 3.37463E-01 4.54900E-01
 -1      1549 9.35006E-01-8.20122E-02-3.21520E-02-4.85952E-02-4.13187E-02 6.53399E-02
 -1      1550-1.24440E-02 2.09984E-01-1.16866E-01 2.13593E-01-2.36705E-01-3.97460E-02
 -1      1551 5.14859E-02 4.19300E-03-1.39203E-02 8.92023E-03 1.72205E-02-4.51094E-01
 -1      1552 1.52743E-01 5.65511E-02 8.32842E-02 1.78649E-01-8.91488E-02 1.47180E-01
 -1      1553 2.85870E-01 2.36214E-01-2.63398E-02 1.04384E-01-2.52209E-01 3.21150E-01
 -1      1554 1.54854E-01 2.55724E-01 8.17164E-02 2.51433E-01 3.10629E-01 2.63505E-01
 -1      1555 5.96950E-02 3.04171E-01 6.69515E-02-2.51955E-02 2.24594E-01 9.84205E-02
 -1      1556 7.21749E-01 6.28025E-01-9.34509E-02 3.99928E-01 4.01287E-01 2.72693E-01
 -1      1557 3.19994E-02 1.14578E-01-9.55652E-02-3.01060E-02 1.50418E-01 1.44910E-02
 -1      1558-4.66345E-02-5.87957E-02 1.12755E-01-1.65783E-01 1.32593E-02-1.06096E-01
 -1      1559 3.74916E-01 8.04142E-02 1.16361E-01-9.22228E-02-1.73812E-01 5.03223E-01
 -1      1560-6.90851E-01-7.80345E-03 3.00676E-01 2.24351E-01-3.80907E-01 4.33614E-01
 -1      1561 2.56855E-01 1.30742E-01 5.13678E-02-1.68269E-01-1.59590E-01 6.97505E-01
 -1      1562-2.08462E-02-2.68750E-01-1.26677E-02 1.39221E-02-2.76099E-01 1.14172E-01
 -1      1563 2.77005E-01 1.51607E-01 3.60802E-01 1.60913E-02-4.50051E-01 8.30782E-01
 -1      1564-7.01037E-01-3.45825E-01 1.39629E-01 3.97026E-01-3.33605E-01 6.47121E-01
 -1      1565 1.92186E-02 7.15873E-02 1.54521E-01 6.77223E-03-2.47265E-01 2.11133E-01
 -1      1566-9.72463E-02-6.24939E-02 6.87448E-02-3.76177E-02-2.97356E-01 1.80217E-01
 -1      1567-2.53670E-02 6.18797E-02-9.25753E-02 6.32351E-02-1.54393E-01 7.60698E-02
 -1      1568 3.35749E-01-1.87486E-01 1.31996E-01-2.44013E-01-4.80672E-01 4.94757E-01
 -1      1569-2.95585E-01-1.02194E-01 1.97562E-02-3.89094E-02 1.09203E-01 1.17941E-01
 -1      1570-4.66381E-02-2.82921E-01-3.25360E-02-6.75133E-02 3.33416E-01 3.55351E-01
 -1      1571 1.97804E-02-2.94820E-02-1.04947E-01 1.35774E-01-2.55433E-02-8.03456E-02
 -1      1572 1.72538E-01 6.32400E-01 1.47384E-01 2.52925E-01 4.51071E-01 4.14090E-01
 -1      1573 7.31715E-02 3.83258E-02-3.50304E-02 1.02565E-01-2.42674E-01 7.58969E-01
 -1      1574-1.58039E+00-6.51306E-01-8.45430E-02-1.62910E-01 1.07769E-01 3.74313E-02
 -1      1575-5.00271E-01-1.00885E-01-7.24483E-02-2.86736E-01-3.29465E-02 9.31697E-01
 -1      1576-3.64446E-01-2.63935E-01 1.13871E-01 4.00578E-01 1.18590E-01 1.07250E-02
 -1      1577-2.67302E-01-4.91674E-01 6.89294E-02-3.14510E-01 3.42625E-01 3.95149E-01
 -1      1578-1.28391E-01 2.30457E-01 8.03279E-02 1.61142E-02-3.63122E-01 1.72552E-01
 -1      1579-5.73139E-01-1.72781E-01-3.12151E-01-5.03169E-02 1.44632E-01 8.72656E-01
 -1      1580-6.92025E-01-3.04416E-01-4.81383E-01-3.23909E-02 8.83323E-02 6.75847E-01
 -1      1581-1.23492E-01-4.95245E-02 1.97818E-01 3.33468E-01-1.56427E-02-2.53641E-01
 -1      1582-4.90211E-03-1.29240E-02 1.14948E-01 1.02154E-01 2.13741E-01 3.15636E-01
 -1      1583 5.00186E-02 5.12465E-02 1.63234E-01-1.36344E-01 5.52502E-02-6.46119E-02
 -1      1584 2.28467E-01 1.50571E-01 6.40287E-02-1.21489E-01-6.32476E-02 5.63148E-02
 -1      1585-7.36029E-01-6.67844E-01-5.29200E-02 4.12225E-01-3.72750E-01 3.64266E-01
 -1      1586-1.06575E-01 2.46216E-01 7.67276E-03 1.37987E-02 2.82036E-02 1.57086E-01
 -1      1587 2.58792E-01 1.73770E-01-2.25894E-01-4.89549E-02 1.38697E-01 2.10183E-01
 -1      1588-1.04959E-01 2.39684E-02-7.87857E-02-6.51879E-03 1.64133E-01-1.74020E-01
 -1      1589-1.28727E-01 4.25740E-02-1.58758E-01-3.32172E-02 5.70373E-02 6.46094E-01
 -1      1590-2.02786E-01-1.24090E-02 2.65151E-02-4.06488E-02-2.15447E-01 9.05698E-01
 -1      1591 7.03258E-01 7.50289E-01-1.50672E-01-4.80961E-01-4.79316E-01 6.15968E-01
 -1      1592-1.89550E-02-1.13687E-02 1.54060E-01-1.55451E-01-1.20108E-01 1.68388E-01
 -1      1593-2.38731E-01 1.50453E-01 6.29420E-02 1.51329E-01-2.17151E-01 6.34153E-02
 -1      1594 1.64624E-01-9.54105E-02 3.63472E-02-2.41686E-03-4.50775E-02 8.27336E-01
 -1      1595 1.28799E-03-1.08099E-01-1.85953E-02-5.92519E-02-1.06862E-01 4.49213E-04
 -1      1596-7.91779E-02-3.10092E-01 3.23322E-02 8.88367E-02-5.13442E-01 5.18684E-01
 -1      1597-8.01439E-02 3.54828E-02 3.74498E-02-3.65912E-01-1.57523E-02-1.98712E-01
 -1      1598 3.76112E-02 1.31488E-01 3.90514E-01-7.72023E-02-1.78948E-01 7.53784E-01
 -1      1599 7.22401E-02 1.25206E-02 4.94088E-02 8.52851E-02-9.85887E-03 3.18644E-03
 -1      1600 4.16381E-03 2.13243E-02 2.56716E-02-1.20777E-01-1.66698E-01-3.61650E-02
 -1      1601-5.72937E-01-6.10739E-02 1.25950E-01 2.31123E-01-2.96327E-02 4.10208E-01
 -1      1602-5.04358E-01 1.50706E-01 3.57084E-01 2.74572E-01 5.51899E-02 5.00770E-01
 -1      1603 1.70800E-02 4.96116E-02 2.10448E-03 6.78125E-02-7.40003E-02 1.73236E-03
 -1      1604 9.81045E-02 5.05643E-02 1.19368E-02-5.41124E-02 2.47438E-01 1.28787E-01
 -1      1605 1.13473E+00 4.51454E-01 2.11373E-01 3.60998E-01-8.67980E-03-1.29814E-01
 -1      1606 9.47580E-02 3.38214E-01 2.24042E-02-5.48935E-02-3.91090E-01 2.43821E-01
 -1      1607-1.25493E-01 5.02369E-02-9.07971E-02 4.86957E-02-4.95018E-02 3.67181E-02
 -1      1608-6.39450E-02-6.52196E-03-1.04706E-01 5.64704E-02 4.21498E-02 5.57714E-02
 -1      1609 7.95456E-01 2.05482E-01-4.54262E-02 1.86050E-01 1.05090E-01-1.14705E-01
 -1      1610 3.31406E-02 2.54468E-01 1.12757E-01 5.08466E-02-3.20418E-01 6.85699E-01
 -1      1611-3.37375E-01-5.46746E-01-8.77381E-02 4.44383E-01-6.25802E-01 8.70146E-01
 -1      1612-1.58467E+00-6.46136E-01-4.37034E-01-3.63075E-02-3.84434E-02 8.74709E-02
 -1      1613-7.56655E-02 1.44032E-01-4.69094E-02 6.11908E-02-2.18463E-01 1.16482E-01
 -1      1614-1.16980E-01 1.90787E-02 2.65136E-02-8.18848E-02-2.23944E-01 4.89996E-01
 -1      1615 1.97695E-01 4.48879E-01-3.93528E-03-2.93834E-01-5.32752E-01 4.55686E-01
 -1      1616 7.12926E-01 2.05635E-01 8.01208E-02 9.77660E-02 1.18769E-01 1.07811E+00
 -1      1617 3.53514E-01 2.23748E-01-9.00972E-02-3.88230E-02-2.21826E-01 4.17340E-01
 -1      1618-7.27246E-01-4.16348E-01 8.88599E-02-1.52574E-01-2.35419E-02 1.57628E-01
 -1      1619 1.18214E-02 1.41113E-01-6.81058E-02 1.99096E-02-4.99240E-02 4.58494E-02
 -1      1620-8.60852E-02-2.46144E-01-1.00021E-01 1.60918E-01 3.03697E-01 6.42652E-01
 -1      1621 8.92165E-02 1.59533E-01 4.21225E-02 6.03047E-02-9.98909E-02 2.24753E-02
 -1      1622 7.57871E-02 2.14349E-01-4.99560E-02-9.72847E-02-2.15868E-01 2.19570E-01
 -1      1623 4.26423E-01 1.00822E-01 4.44319E-01 1.48349E-01 2.82529E-01 6.12686E-01
 -1      1624 1.01965E+00-7.44954E-02 1.83746E-02 1.08200E-01-8.21161E-01 1.24879E+00
 -1      1625 4.88043E-01 1.01425E-01-1.03309E-01-2.84663E-01-2.76205E-01-1.64191E-01
 -1      1626-1.11486E-01-1.67259E-01 6.51949E-02-2.24613E-01 1.13661E-01 5.71530E-01
 -1      1627-2.72124E-02 1.31032E-01-3.78741E-03-1.10319E-01 6.89875E-02 9.71288E-03
 -1      1628 5.15590E-03 9.59027E-02 1.35159E-03 9.25342E-03 2.58446E-02-3.29369E-02
 -1      1629 4.62672E-01-6.39628E-02-2.46866E-01 3.38507E-01-4.27512E-02-3.04364E-02
 -1      1630-4.03928E-02 2.39893E-02-1.12578E-01 1.60681E-02-3.87664E-01 6.15383E-01
 -1      1631-3.22983E-01-3.00749E-01-3.07453E-01 6.87199E-02-6.56361E-01 6.40750E-01
 -1      1632-7.55434E-02-1.73357E-01-7.60511E-02-9.46650E-03-1.73390E-01 4.16534E-02
 -1      1633 4.30563E-01 2.55507E-01-9.42194E-02-8.69205E-02 3.13808E-03 7.55198E-01
 -1      1634-2.85242E-01-3.30856E-02-6.06787E-03-4.56167E-02 1.53945E-01 1.21875E+00
 -1      1635-1.20883E-01 5.38827E-02 1.00646E-01-2.48871E-01 8.51016E-02-1.48793E-01
 -1      1636-7.06877E-02-3.88866E-01-2.28745E-01-4.28296E-02-3.05164E-01 9.92705E-02
 -1      1637 5.70425E-01 1.06711E-01 1.21616E-01 3.54526E-01-1.10835E-02-1.24317E-01
 -1      1638 1.63054E-01 5.03987E-01 2.54367E-01 1.68989E-01 2.42282E-01-4.09035E-02
 -1      1639 1.37254E-01 1.06952E-01-4.89032E-03-7.63325E-02-2.39715E-01 9.42750E-02
 -1      1640-1.16846E+00-3.65153E-01-2.73580E-02-4.37533E-01 2.39129E-01 8.39026E-01
 -1      1641-1.57888E-01-2.20003E-01 3.84889E-02-9.38644E-02-7.72569E-02 5.36688E-01
 -1      1642 7.41954E-01 2.14813E-01 5.35848E-01-3.49123E-03-3.20607E-01 7.95766E-01
 -1      1643-2.23540E-01-4.01494E-01-1.61863E-01 2.24210E-01-6.82525E-01 5.16023E-01
 -1      1644 1.08730E-01 1.35377E-01-3.25345E-02 1.17897E-01 1.75809E-02-4.02856E-02
 -1      1645 3.56011E-01-9.11099E-02-1.08472E-01-5.26141E-02 3.79874E-01 3.12713E-01
 -1      1646-1.65119E-01-1.05779E-01 6.07244E-02-2.56782E-01 8.04120E-02-4.87755E-02
 -1      1647-2.64435E-01-3.53642E-01-4.42919E-02-1.52877E-01-7.30472E-02 7.05236E-01
 -1      1648-1.16824E+00-3.67451E-01-9.76816E-02 1.53019E-01-3.56458E-02-5.14500E-03
 -1      1649 7.79758E-01 3.86247E-01 4.49360E-01-2.69450E-01-6.02223E-01 8.49539E-01
 -1      1650 2.81722E-01-3.07969E-02 1.18216E-01-1.35262E-01 2.23029E-02 9.54840E-01
 -1      1651-6.33840E-02 2.58546E-02-4.26851E-02-7.12903E-03-2.26801E-02-6.17734E-02
 -1      1652-6.14712E-01-5.55723E-02 1.97192E-02-1.25065E-01 1.62398E-01 6.46539E-01
 -1      1653-2.08195E-01 2.42582E-01-1.14865E-01-8.33018E-02 4.16493E-01 5.80974E-01
 -1      1654 6.55715E-01 1.60909E-01 1.32955E-01-4.35305E-02-1.18081E-02 9.60376E-01
 -1      1655-9.82604E-02 9.80871E-02 1.71819E-01 1.62463E-01 2.63198E-01 2.58570E-01
 -1      1656-8.14104E-02 1.89072E-02-9.71367E-02 2.65040E-02-3.66606E-01 5.24828E-01
 -1      1657-4.91077E-01-2.74333E-01-2.16163E-01 6.94981E-02-3.24113E-01 3.93350E-01
 -1      1658 2.63849E-01 2.26115E-01 4.54837E-02 1.83712E-01 2.27959E-01 7.21098E-01
 -1      1659 9.37567E-03-2.66147E-02-7.64668E-02 5.01958E-01-5.06656E-02-4.11669E-01
 -1      1660-7.50539E-02-4.29346E-03 3.06585E-02 8.24915E-02-2.41469E-01 7.71459E-02
 -1      1661-2.14455E-01 6.20353E-02 8.92600E-02-5.90333E-03-3.58951E-01 2.68475E-01
 -1      1662-5.48845E-02-9.54250E-02-3.72302E-02 2.09854E-02 1.19374E-01 1.27160E-01
 -1      1663-1.01782E-01-2.34107E-01-2.59735E-01-7.80604E-02 5.23416E-01 6.70643E-01
 -1      1664 8.08107E-03 4.85199E-02-7.07787E-02-4.55902E-02 1.08764E-01-1.44378E-02
 -1      1665-6.96040E-01-1.05622E-01 3.26237E-02-3.81165E-03-1.80549E-01 5.30495E-01
 -1      1666-1.38856E+00-2.92910E-01-2.46849E-01 3.20101E-01-3.27363E-01 1.15320E+00
 -1      1667 1.54199E-01 6.17840E-02 8.13224E-02 8.08175E-02 2.13236E-01 1.98995E-01
 -1      1668-2.07500E-01 1.39570E-01 2.05799E-01-1.94178E-01 1.49671E-01 5.06987E-01
 -1      1669-3.88552E-01-3.00070E-01 2.02507E-01-3.21676E-02 3.68882E-01 1.99971E-01
 -1      1670-6.27135E-02-1.47429E-01-1.78711E-02 2.68583E-02-4.51576E-01 5.77248E-01
 -1      1671 1.28167E-01-8.25900E-02-1.05702E-01-7.03679E-02-1.97295E-01 2.21600E-02
 -1      1672-7.20852E-01-5.73512E-01-6.09444E-01-3.67101E-01 7.35715E-01 6.17294E-01
 -1      1673 2.94664E-01 1.68617E-01 6.23012E-01 6.03739E-02-1.22265E-01 7.34121E-01
 -1      1674 3.81451E-01-7.05332E-01 1.55500E-01-1.75806E-01 6.66957E-01 9.14276E-01
 -1      1675 9.27203E-02 5.56381E-02 2.68994E-02 4.50655E-02-2.22700E-01 1.55296E-01
 -1      1676 5.85765E-02-6.35359E-02-6.63028E-03-9.58119E-02-2.60775E-01-5.80243E-02
 -1      1677-7.45348E-02-6.87532E-02-9.19008E-03-8.84121E-03 5.38570E-02 2.17609E-02
 -1      1678-1.49025E-01-2.11547E-01 1.79159E-02 2.64489E-01 4.94822E-02-3.35177E-02
 -1      1679-2.41328E-01-2.64114E-01 1.16652E-01-2.19095E-01-6.80571E-03-1.05167E-01
 -1      1680-1.76993E+00-6.22970E-01-2.24591E-01-3.95239E-01 1.74342E-01 1.02431E+00
 -1      1681-6.46860E-02 1.59700E-03 3.34395E-02 1.12812E-01-8.20199E-02 1.03863E-01
 -1      1682 2.83158E-02-1.76788E-01 9.93102E-02 6.22368E-02 2.78440E-01 4.43198E-01
 -1      1683 9.84482E-02 8.76550E-02-5.42508E-02-8.79329E-02 1.77757E-01 8.86745E-02
 -1      1684 1.08827E-01-2.13730E-01 1.79519E-02 1.12064E-01-3.60198E-01 1.67874E-01
 -1      1685 6.50217E-02 5.28164E-02 3.64672E-03-1.98400E-01-1.82948E-02-1.68639E-01
 -1      1686-1.42386E-01 3.97272E-02-1.64316E-01-1.63967E-02 2.33655E-01 6.82194E-03
 -1      1687-5.81285E-01-2.95604E-01 2.69175E-01-2.94449E-01 8.27816E-01 9.83573E-01
 -1      1688 7.21821E-01 2.55504E-01-1.58902E-01 3.37018E-01 1.29136E-01 7.10969E-01
 -1      1689-2.92766E-02-1.94719E-01-3.58877E-02 8.61708E-02 1.42148E-02 3.03129E-02
 -1      1690 2.51546E-01 3.30660E-02 2.31590E-01-8.74026E-02-2.26622E-01 1.08510E+00
 -1      1691 9.60123E-01 2.21190E-01-3.72894E-01-9.97023E-03-1.89880E-01 3.16647E-01
 -1      1692-2.26515E-02-1.33098E-01-8.80869E-02-2.31468E-02-2.18455E-01 4.99804E-03
 -1      1693 2.36569E-01 7.82061E-02 2.80114E-02 2.13424E-01 6.23411E-02 1.67651E-01
 -1      1694 1.55202E-01 1.40286E-01 7.93540E-02 2.06221E-01 5.58725E-01 4.54811E-01
 -1      1695-3.49377E-01-1.40746E-01-4.45441E-02 1.96572E-01-1.77375E-01-3.62986E-02
 -1      1696 2.08478E-01 1.70887E-01 1.68898E-01 1.13070E-01 4.02943E-01 3.89338E-01
 -1      1697 4.23167E-01 1.71657E-01 2.76097E-01 2.73684E-01 4.84690E-01 4.37462E-01
 -1      1698-5.80273E-03 7.17467E-02-4.87056E-02 1.25334E-01 5.36162E-03-1.31047E-01
 -1      1699-4.13675E-01-9.91098E-01 7.20889E-01-5.17407E-01 3.50181E-01 3.66143E-01
 -1      1700-3.05551E-01-5.09620E-01 1.81306E-01 3.59930E-01-1.57061E-01 5.19748E-01
 -1      1701-7.75509E-01-3.86215E-01-1.30820E-01-6.42984E-02-1.57894E-04 2.07618E-01
 -1      1702 6.02135E-01 4.57251E-01 4.28499E-01 5.85499E-01-8.76974E-02 9.08458E-01
 -1      1703-1.18024E+00-5.86012E-01-2.12475E-01 3.81712E-02 1.29422E-02-1.42998E-01
 -1      1704 1.49212E-01 9.65072E-02-4.58533E-02 2.20968E-01-3.04335E-01 4.55935E-01
 -1      1705 2.37992E-01-1.03215E-01 3.01963E-02 4.31152E-02-3.45813E-01 5.66710E-01
 -1      1706 3.70560E-03-7.07726E-01-2.52671E-01-8.86905E-02 6.10656E-01 2.95977E-01
 -1      1707-1.00573E-01-6.44071E-02-1.40781E-01 7.47852E-02-3.68520E-01-1.42034E-01
 -1      1708 3.17332E-01 4.90477E-01 4.25759E-02-2.03491E-01-1.60671E-01 1.67566E-01
 -1      1709-9.00409E-01-3.81910E-01-1.30175E-01-3.68057E-01-6.38281E-02-1.47943E-01
 -1      1710-8.68847E-01-1.68370E-01-1.55645E-01-8.65587E-02-1.18765E-01 8.44790E-01
 -1      1711-3.18627E-01-2.10149E-01-4.84196E-02-2.70904E-01 1.04007E-01-2.21294E-01
 -1      1712 1.84488E-01 1.53171E-01 1.40119E-01-2.89347E-01 5.65249E-03-3.14702E-01
 -1      1713 9.20569E-01 4.92673E-01 2.55290E-01 9.65182E-02 1.94666E-02 1.62053E-01
 -1      1714 8.74105E-02 3.27004E-02-9.85199E-02 7.95649E-02 2.09067E-01 3.85353E-02
 -1      1715 4.37254E-02-1.29832E-02-1.72011E-02 6.76170E-02 2.40101E-01 1.17058E-01
 -1      1716-4.89147E-02-1.61915E-01-1.17234E-01-5.00375E-02 1.51764E-01 2.42697E-01
 -1      1717-9.92616E-03-5.60411E-02 5.55606E-02 6.66414E-02-4.05600E-01 1.69747E-01
 -1      1718 7.57174E-02 6.48733E-02 1.10562E-01-1.13904E-01-1.03110E-01 8.50334E-02
 -1      1719 7.96506E-02 2.62051E-02-1.94308E-02-1.00441E-01-2.96142E-02-1.09851E-01
 -1      1720 8.80018E-02 1.20941E-01-2.95314E-02 2.00266E-01-1.07798E-01 2.85237E-02
 -1      1721 3.25803E-02-2.00345E-01-1.83462E-02-1.20437E-02-2.70844E-01 1.74163E-01
 -1      1722 1.03644E-02 2.64531E-02 7.74756E-04 5.60193E-02 1.47252E-02-1.68809E-02
 -1      1723 6.01602E-02 9.83640E-02 1.41897E-01 1.74902E-02-1.84444E-01 3.26591E-02
 -1      1724 6.30497E-02 1.52041E-01 1.52797E-01-1.37084E-01-3.02230E-01 5.66756E-01
 -1      1725-2.96592E-01-1.93669E-01 4.67661E-02-1.27590E-01 1.25710E-01-3.25055E-02
 -1      1726 1.67188E+00 6.15312E-01 3.09023E-02 1.54549E-01 3.71246E-02-1.87746E-01
 -1      1727 7.03432E-02 2.29463E-02 4.26767E-02-1.02356E-01 1.07225E-02-1.04657E-01
 -1      1728 1.47515E-01 3.14534E-01-1.54828E-01-2.22978E-01-6.55652E-01 4.71895E-01
 -1      1729 1.79098E-01-1.13786E-02 2.17052E-01 1.07367E-01-1.04794E-01 6.34213E-01
 -1      1730-7.43346E-03 1.62075E-01 4.62463E-02 1.65293E-02-2.47520E-01 1.76362E-01
 -1      1731 6.61141E-02-8.46301E-02 1.55962E-01 1.00412E-01-4.27116E-03 8.43973E-02
 -1      1732 1.42470E-01 2.89211E-01 9.23208E-02 3.33105E-02-4.72729E-01 6.86066E-01
 -1      1733-1.60551E-01 1.61233E-02-1.64614E-01-8.73691E-02 2.79544E-02 6.68851E-02
 -1      1734 1.63978E-01 1.71815E-02-1.07089E-01 5.53395E-02 3.00383E-01 6.63399E-01
 -1      1735-5.97027E-02 1.74743E-02 2.19490E-02 2.18138E-01 3.62092E-01 5.60216E-01
 -1      1736-6.63058E-01-4.50853E-01 6.86383E-03-1.19754E-01-2.59630E-01 1.84365E-01
 -1      1737-1.61264E-01-1.40469E-01-6.51813E-02-1.13781E-01 3.19164E-01 4.41216E-01
 -1      1738 2.12682E-02 1.25100E-01-2.12277E-01 7.62516E-02 1.83272E-01 2.67995E-01
 -1      1739 1.95840E-01 1.69683E-01-1.82187E-02-8.84121E-02-2.07988E-01 1.87510E-01
 -1      1740 1.69691E-02-1.37908E-01 8.49642E-02 8.56194E-02-4.60528E-01 3.94950E-01
 -1      1741 3.26119E-01 8.90561E-02 7.60100E-01-2.42779E-02 4.11481E-01 5.08842E-01
 -1      1742 4.83983E-01 4.80229E-01 3.06764E-01 4.31779E-01 4.94706E-01 4.59492E-01
 -1      1743 1.77381E-01 2.56584E-01-2.95751E-02-1.02420E-01-3.69809E-01 9.86359E-02
 -1      1744-6.97903E-01-3.83323E-01-1.68008E-01-1.25233E-01-1.64482E-02-2.35237E-03
 -1      1745-3.34641E-01-5.33505E-01 8.14424E-03 2.62875E-01-7.87711E-01 6.73549E-01
 -1      1746 2.16330E-01 3.88682E-01 3.56501E-01-1.20182E-01-4.99490E-01 7.09359E-01
 -1      1747-3.25330E-01 7.28298E-02 1.79225E-01-2.38866E-01 8.73258E-02 7.01790E-01
 -1      1748-9.06406E-01-5.03737E-01-7.84018E-02 3.82414E-01 6.21081E-02 2.65746E-02
 -1      1749 2.66257E-03 3.07604E-01 1.91572E-01-1.58928E-01 3.17886E-02 1.41032E-01
 -1      1750-1.04213E-01-1.51892E-01-4.21931E-02-5.67126E-02 2.51462E-01 1.79192E-02
 -1      1751 2.42689E-01 5.33312E-01 1.77000E-01-1.20467E-02 2.92033E-01 2.29552E-01
 -1      1752-6.68791E-01-2.62865E-01 5.08295E-02-2.19551E-01 7.71091E-02 4.26936E-01
 -1      1753-1.79051E-01-5.43995E-01-5.88569E-02 2.02253E-01-2.40883E-01 2.16466E-01
 -1      1754 3.52563E-02 1.83185E-01 6.10736E-02-1.05712E-01 2.62763E-02-6.73772E-02
 -1      1755-3.65599E-02 1.15383E-01-2.18022E-01-5.41906E-02-3.02229E-01 4.53040E-01
 -1      1756-1.10264E+00-7.54720E-01-3.46255E-01-1.90630E-02 4.48917E-02 1.18808E-01
 -1      1757 1.47448E-01 1.86394E-01-7.56733E-03-1.60135E-01-2.81404E-01 3.39640E-01
 -1      1758-8.38349E-02-4.06887E-01 1.11874E-01-1.12239E-01 8.59222E-02 1.46837E-01
 -1      1759 1.07060E-01-5.89471E-02 5.24595E-02 8.29424E-02 6.90846E-02 7.31126E-03
 -1      1760-2.94373E-01-3.22383E-01-7.28568E-02-2.05728E-01 3.81932E-01 4.98341E-01
 -1      1761 1.21701E+00 1.56553E-01 3.40474E-02 1.81409E-01 1.36717E-02-8.30027E-02
 -1      1762 1.41677E-01 1.19080E-01 1.34255E-01 1.52901E-01-1.70973E-02-2.28989E-02
 -1      1763-1.15772E-02-1.38291E-01-4.02922E-01 3.64972E-01 5.34957E-02-1.61122E-01
 -1      1764-2.80137E-01-3.64764E-01-1.63160E-01 1.40770E-01-4.92000E-01 3.41401E-01
 -1      1765 1.08804E+00 2.75225E-01 1.76665E-01-9.17303E-02-2.52959E-02 3.65017E-02
 -1      1766 8.74965E-01 3.93676E-01 6.60464E-02-3.39399E-01-1.56095E-02-1.54315E-02
 -1      1767-1.54162E-01 2.15718E-01 6.30902E-02 2.69714E-01-1.13100E-01 7.34801E-01
 -1      1768 4.02043E-01 1.58560E-01-3.64638E-02-1.50506E-01-7.95374E-03 8.86269E-02
 -1      1769-6.95618E-01-2.91602E-01-3.57467E-01-2.89834E-01-2.34232E-02 1.24711E-02
 -1      1770 4.35687E-01 4.17815E-01 2.55153E-01-3.14557E-01-8.24416E-01 6.59381E-01
 -1      1771 8.33799E-01 9.43099E-02-1.21744E-01-2.29986E-01-1.58409E-01 7.30153E-01
 -1      1772 1.12617E+00 7.47930E-02-5.12878E-01-1.24503E-01 5.95545E-02 1.08628E+00
 -1      1773 4.07016E-01 9.20854E-02 4.17509E-02-1.10137E-02-8.78390E-02 4.26479E-01
 -1      1774 7.77098E-02-1.26283E-01-3.11509E-03-1.09266E-01 3.29371E-01 4.29482E-01
 -1      1775 3.68611E-01-8.26098E-02 6.15028E-02-3.23836E-02-1.40128E-01 3.64639E-01
 -1      1776-1.20085E+00-5.91287E-01-1.30650E-01 3.06218E-02 2.43434E-02-6.82303E-02
 -1      1777-1.42266E-01 2.32418E-01-1.30180E-01 1.94828E-02 8.39837E-02 7.05375E-02
 -1      1778 3.79660E-01 4.79720E-01 1.08167E-02 1.99124E-01-9.20534E-02 5.45814E-01
 -1      1779-1.89069E-01 2.98106E-02 4.67526E-02 1.15680E-01-9.23868E-02 7.16905E-02
 -1      1780 2.81800E-01 4.94489E-01-1.65486E-01-2.26235E-01-4.69339E-01 5.45174E-01
 -1      1781 2.65663E-01 6.57960E-02 1.57520E-01 1.69505E-01 2.57892E-01 3.08643E-01
 -1      1782 3.72621E-01 1.85382E-01-9.12155E-03-2.77753E-01 3.46484E-02-8.81024E-02
 -1      1783 1.27620E+00 5.01364E-01 2.88658E-01-2.44490E-01 1.92791E-02 4.24033E-02
 -1      1784-3.77247E-01 1.14307E-02-1.15352E-01 2.10201E-03 1.94261E-01 2.20719E-01
 -1      1785 6.04581E-01 2.11877E-01 4.17667E-01-1.53177E-01-1.12382E-01 7.86655E-01
 -1      1786-2.46273E-02-6.84345E-02-1.06304E-01 5.20851E-02 3.49569E-02-8.66743E-02
 -1      1787 5.84265E-01 5.65258E-01 3.19766E-01-2.76943E-01-5.11907E-01 1.03772E+00
 -1      1788 1.30814E-01 1.52940E-01 1.22326E-01-1.08395E-01-6.07686E-01 2.59119E-01
 -1      1789 9.41902E-02 7.08783E-02-7.70031E-02-1.02307E-01 3.55245E-01 3.74525E-01
 -1      1790 1.60131E-02 3.35525E-02 1.15309E-02 4.23617E-01 2.50535E-03-2.22970E-01
 -1      1791-1.39072E+00-2.13402E-01 2.81183E-01 1.56357E-01-8.32561E-02 7.88702E-01
 -1      1792 7.27018E-01 3.54284E-01 4.01643E-01-3.50575E-01-8.77711E-02 1.34413E+00
 -1      1793 9.44273E-02 5.04497E-01 2.83216E-01 2.41129E-02-5.42477E-01 3.72254E-01
 -1      1794 3.34558E-01 2.50479E-01 2.22907E-01 7.99651E-02 9.03948E-02 1.05434E+00
 -1      1795-1.86274E-01-6.82284E-02 2.81855E-03 2.53505E-02-1.22770E-01 1.12421E-01
 -1      1796-8.96724E-02 1.01615E-02 3.19033E-02-2.67106E-01 4.79017E-02-2.54169E-01
 -1      1797 8.07415E-02-1.43000E-01-1.78274E-01 1.11442E-01-3.66025E-01-2.37982E-02
 -1      1798 3.06748E-02-3.13646E-02 1.76482E-01 3.10885E-01 1.36359E-01-7.58196E-02
 -1      1799-4.65153E-02-1.26900E-01 1.01436E-03-9.52363E-02-1.25250E-01-6.45516E-02
 -1      1800-1.02024E-01-1.82523E-02 1.67386E-02 9.79885E-02-5.00793E-01 3.48730E-01
 -1      1801 4.42348E-01-3.11613E-02-3.94630E-02-2.11424E-02-2.40574E-01 2.53527E-01
 -1      1802 2.32086E-01-5.32560E-02 3.80072E-02 7.24386E-02 2.51198E-01 4.79260E-03
 -1      1803 5.11998E-02 6.26516E-02-1.70232E-01-1.10308E-01-3.28096E-01-8.52339E-02
 -1      1804 4.13378E-01 2.50777E-01-9.25866E-02 6.05478E-04 7.59965E-02 1.63689E-01
 -1      1805-2.68336E-02-1.14511E-01 3.66207E-02-4.07453E-02-1.41401E-01 3.40219E-01
 -1      1806 2.41384E-01 7.50175E-01 1.38524E-01-1.34417E-01-5.07841E-01 4.48347E-01
 -1      1807 2.96617E-01 7.55117E-02-5.19237E-02 2.60194E-01-4.32228E-02 1.84864E-02
 -1      1808 9.43901E-03 2.68062E-02 6.14022E-02 5.13331E-02-1.53652E-02 1.99259E-02
 -1      1809 2.24845E-02-2.21787E-01-1.82653E-01 1.06521E-01 6.81672E-02 1.05960E-02
 -1      1810 2.25606E-01 1.79805E-01 2.57507E-02 1.55306E-01-2.19869E-02 9.27271E-03
 -1      1811-9.38249E-02 1.34596E-01-1.79990E-01 7.01545E-02 1.68633E-01 2.86498E-01
 -1      1812 4.62710E-02-7.69865E-03 2.37112E-02 3.88161E-01 1.85441E-02-3.06632E-01
 -1      1813 7.27680E-01 2.79525E-01 1.49094E-01-4.20800E-01-4.01364E-01-2.95494E-01
 -1      1814-1.24561E+00-4.38953E-01-5.03520E-02 1.05389E-01-1.04136E-02-6.94206E-02
 -1      1815-3.18987E-01-1.15414E-01-9.83264E-02-9.88631E-02 1.45495E-01-7.20559E-02
 -1      1816-2.06528E+00-7.92169E-01-4.12581E-01 5.71147E-01-3.22785E-01 1.13456E+00
 -1      1817 1.25706E+00 5.15182E-01 2.95541E-01-4.19985E-02 1.31150E-02-3.74417E-02
 -1      1818 5.38797E-02-3.18369E-02-4.64477E-03 1.55301E-01 2.49325E-01 6.59085E-02
 -1      1819 3.14742E-01 2.53625E-01 1.25589E-01-2.86134E-01 2.09325E-01 6.31647E-01
 -1      1820-1.52764E-01-3.00081E-01-2.12401E-02 1.36211E-01-4.28107E-01 2.76800E-01
 -1      1821-9.72059E-02-7.14344E-02-5.36957E-02-7.20964E-03-1.34659E-01-4.61953E-02
 -1      1822-1.57225E-01 1.27223E-01 3.47442E-02-7.86132E-03-7.36487E-02 3.31344E-01
 -1      1823-1.93978E-01-4.78846E-02-7.53705E-02-1.00886E-02-1.28648E-02 4.45588E-02
 -1      1824 8.56999E-02 5.43990E-02 1.31892E-01 3.40235E-01 3.13805E-01 1.07647E+00
 -1      1825-8.95123E-02-1.04023E-01 2.57887E-02-2.14074E-01 9.80995E-03-7.12092E-02
 -1      1826-3.62272E-01-7.24412E-01-1.67423E-01 3.36634E-01-7.70946E-02 1.94145E-01
 -1      1827-5.46458E-02-6.47710E-02 4.23229E-02 4.60985E-02 3.85112E-02 4.07198E-02
 -1      1828 1.01180E-01-7.73284E-02-7.38819E-02-1.95155E-01-2.65949E-02 2.86625E-02
 -1      1829-5.15557E-01-5.02007E-01 6.93429E-02-2.74044E-01 1.46015E-01 4.17165E-01
 -1      1830 8.88417E-01 4.19859E-01 2.55431E-01-1.30546E-02-3.90526E-02 7.14506E-01
 -1      1831-3.38163E-01-1.86433E-01-3.38874E-01 9.32762E-02-5.09687E-02-1.23752E-02
 -1      1832-1.65013E-01-3.69474E-02-1.70559E-02 7.65016E-02-1.05578E-01 2.00610E-02
 -1      1833 4.28449E-01 1.59914E-01-3.52474E-02 1.17237E-01 1.28976E-01-1.33627E-02
 -1      1834 1.37134E-01 6.40264E-02 1.98146E-03-9.09615E-02-2.53834E-01 4.99425E-01
 -1      1835-8.49436E-01-9.85097E-02-3.78530E-01-4.08670E-02-5.12770E-01 9.65514E-01
 -1      1836 6.04108E-01 6.13611E-01 3.73034E-04 5.16766E-03-1.17630E-01 3.10506E-01
 -1      1837 1.00647E-01 2.12212E-01 2.98378E-01-1.27498E-01 8.33998E-02 8.80009E-01
 -1      1838-7.84643E-02-8.32351E-02 6.75497E-02 9.20429E-02 5.12670E-02-9.18550E-03
 -1      1839 4.85549E-01 2.26710E-01 8.27843E-01 4.11824E-01-6.46216E-01 1.71420E+00
 -1      1840-1.99236E-01-6.79287E-02-8.13394E-02 7.27406E-02 2.47978E-01 2.60464E-01
 -1      1841-4.95224E-02-9.50619E-02-1.07865E-01-5.28913E-02 6.55372E-02 5.15151E-01
 -1      1842 1.01544E-01 7.35848E-02 3.96344E-02 3.11131E-03-2.78032E-01 1.60744E-02
 -1      1843 1.24194E-01 1.75916E-01 6.39864E-02 9.00590E-02-5.96996E-02 3.31628E-02
 -1      1844 5.09329E-02 7.79401E-02 2.51365E-01 5.54846E-02 3.11021E-01 6.91846E-01
 -1      1845-1.85725E+00-1.02555E+00 2.57397E-01 3.40400E-01-3.26144E-01 1.93386E-01
 -1      1846 3.17739E-01 2.54652E-01 1.29800E-01 2.59275E-01-4.00031E-02-7.31606E-02
 -1      1847-2.34420E-03-1.51818E-02 1.27064E-01-7.07680E-02-1.06354E-02-1.00011E-01
 -1      1848-1.16030E+00-4.09137E-01 3.21939E-01-7.44618E-02 1.23998E-01-1.57439E-02
 -1      1849-5.49332E-01 4.39793E-02-3.27936E-01 2.41080E-01-2.49546E-01 8.49430E-01
 -1      1850 1.64693E-01 2.47242E-01 1.11807E+00-1.38308E-01-2.87868E-02 7.75667E-01
 -1      1851-3.07439E-02 3.10587E-02 2.03013E-01 5.44908E-02-3.42628E-01 1.04198E-01
 -1      1852-6.83151E-02 9.34111E-02-8.07048E-02 1.63295E-02-2.41335E-01-1.17091E-01
 -1      1853 1.03541E+00 3.40198E-01 1.16441E-01-1.48809E-01 8.39111E-02-1.59236E-01
 -1      1854-3.42375E-01-5.60222E-01-2.38060E-01 1.64250E-01-6.42804E-01 3.69690E-01
 -1      1855 8.86799E-03-3.01188E-02-4.96208E-02-1.97173E-01 1.01331E-01-6.35224E-02
 -1      1856 2.22469E-01 3.14561E-01-2.33283E-02 1.57888E-01 3.10725E-02-2.75207E-02
 -1      1857-7.67136E-01-5.41221E-01-3.32573E-01-4.00810E-01 2.13010E-01 6.98837E-01
 -1      1858-6.76309E-02-3.80585E-01-4.68240E-02 4.64839E-02 1.36254E-01 1.22457E-01
 -1      1859 9.62741E-01 2.45409E-01 1.07198E-01-3.78451E-01-5.38248E-02-1.01658E-01
 -1      1860-1.27538E+00-5.06676E-01-2.65384E-01 1.22551E-01 2.21522E-02-6.82990E-02
 -1      1861-1.04950E+00-4.32017E-01-1.41895E-01-6.38966E-02 1.11172E-01 9.38378E-02
 -1      1862-4.60356E-02-1.80725E-01-5.09829E-03 1.23790E-02 1.14933E-01 3.65401E-02
 -1      1863 3.70489E-01 3.02905E-01 2.34395E-02 1.34972E-01 9.40193E-03-1.61342E-01
 -1      1864-8.51826E-01-2.73400E-01-2.45076E-01 2.31637E-01-8.45314E-02 4.35487E-02
 -1      1865-4.80410E-02-1.26669E-02-5.78871E-02-4.54283E-01-2.21307E-02-2.36120E-01
 -1      1866 3.98785E-01 5.28841E-02-3.61964E-03-1.43795E-01 4.24260E-01 6.51921E-02
 -1      1867 2.84861E-01-5.16308E-02 2.78778E-02-4.11693E-02 4.09571E-03 1.93070E-02
 -1      1868 2.58831E-01 1.47082E-01 2.76168E-01 5.25041E-02 3.49825E-01 9.69464E-01
 -1      1869 1.09337E-01 1.62771E-01 1.72866E-01 5.26278E-02 2.28859E-01 4.96108E-01
 -1      1870 1.13928E+00 5.55722E-01-7.03067E-02 3.18633E-01 3.63992E-02-4.18116E-01
 -1      1871 3.13284E-02 1.98529E-01 1.67551E-02 4.79277E-02-1.84418E-01 1.01237E-01
 -1      1872 1.80270E-01 1.00183E-01-5.89077E-02 1.96312E-01 1.94866E-02-4.81013E-03
 -1      1873-3.36492E-02 3.44894E-02 5.89457E-03-3.33381E-01 6.39836E-02-1.56583E-01
 -1      1874 1.86135E-02-1.24174E-01-1.29781E-02-3.94971E-02-3.62272E-02 3.66109E-02
 -1      1875-9.65296E-02-6.12601E-02 1.28400E-02-7.19705E-02 4.72262E-02 9.58803E-02
 -1      1876 1.07624E+00 2.54958E-01 4.68108E-02-1.84574E-01-2.54689E-01-2.94867E-02
 -1      1877-2.56636E-03 6.84452E-02 1.16092E-01-5.59286E-02 8.65850E-03-6.98244E-02
 -1      1878 7.28836E-01 3.29008E-01 1.57141E-01 5.74454E-02 1.02562E-01-1.37986E-03
 -1      1879 1.50039E+00 4.91006E-01 9.09076E-02-8.17047E-02 9.96223E-03-8.20588E-02
 -1      1880 1.59113E-01-2.52827E-02-8.83503E-02 1.93234E-01 3.29864E-02-7.66340E-02
 -1      1881-2.34217E-01-1.05133E-01 3.90170E-02 1.71970E-01-2.65718E-02 3.71210E-02
 -1      1882-7.91969E-01-7.77789E-02 1.10827E-01-2.06889E-01 9.63849E-02-1.16836E-01
 -1      1883-1.26695E+00-7.21393E-01-2.34981E-01-3.79617E-01 5.08604E-02 1.38323E-02
 -1      1884-1.53960E-01-4.13939E-02 2.11790E-01-1.33489E-01-1.59398E-01 2.16342E-02
 -1      1885-1.67607E-01-1.31061E-01-6.01137E-03 1.90220E-01-9.03163E-02 6.12965E-02
 -1      1886-5.63740E-02-3.28863E-02-1.54695E-02 1.77345E-01-2.05452E-02 2.63694E-01
 -1      1887-2.35958E-01-3.93887E-03 1.90251E-02 8.73531E-02-2.52742E-01 2.33475E-02
 -1      1888 7.03776E-01 3.15498E-01 4.11913E-01-5.28333E-02-2.66630E-01 9.83583E-01
 -1      1889 1.23864E-01 4.03838E-01 2.13270E-01 3.19883E-02-4.76455E-01 2.74217E-01
 -1      1890 5.89397E-02 2.21042E-01 8.68804E-01-5.37770E-02 1.02701E-01 1.58652E-01
 -1      1891 8.29140E-01 3.60122E-01-2.61855E-02 2.35067E-01-5.54441E-02-1.11047E-02
 -1      1892-1.26293E-02-1.44746E-02 7.95842E-02-9.93572E-02 4.81367E-02-3.56449E-02
 -1      1893 6.21028E-01 2.68664E-01 3.80114E-02 3.65899E-01 2.74539E-02 4.44059E-02
 -1      1894 2.68883E-02 2.01762E-01 3.04530E-02 2.39898E-02-2.40603E-01 5.69656E-02
 -1      1895-2.81600E-01-1.08713E-01-9.55457E-02 2.04989E-01-3.00549E-01 5.92792E-03
 -1      1896 7.02643E-01 1.44548E-01-1.29248E-01 3.75549E-01 9.69758E-01 4.18731E-01
 -1      1897-1.21775E+00-3.48931E-01-1.61563E-01-1.56293E-02 7.36833E-02-1.35252E-01
 -1      1898 9.63029E-02-3.85256E-01-2.87398E-02-1.01768E-01-3.20080E-01 7.32575E-02
 -1      1899-2.40203E-02-2.95545E-02 6.47087E-02 5.21773E-02-4.87787E-03 2.97626E-02
 -1      1900-1.20122E-02-2.79425E-02-1.20465E-01 1.21966E-01-5.50896E-01 3.46271E-01
 -1      1901 1.31964E+00 5.55229E-01 3.94807E-01 1.36383E-01 3.47989E-02 7.67267E-02
 -1      1902 1.79473E-01 4.28170E-01 2.13752E-01-1.01949E-02-2.51452E-01 1.86147E-01
 -1      1903 2.75925E-01 5.58478E-02-4.60129E-02-9.87728E-02-1.50047E-01-6.22114E-02
 -1      1904-1.86892E-01-3.73343E-02 1.50856E-01 2.47606E-01-2.67814E-03-1.15988E-01
 -1      1905 2.74616E-01 4.74734E-01 4.79994E-02-3.43008E-02 3.49472E-02 4.90736E-01
 -1      1906-1.31377E+00-7.68474E-01-1.40073E-01-1.32509E-01-4.00705E-02-6.51007E-02
 -1      1907-6.93515E-02-4.30025E-01 1.55486E-01-9.86124E-02 4.85439E-01 1.86168E-01
 -1      1908 2.09445E-01 4.88025E-01 3.32480E-01 1.06253E-01 4.88004E-01 2.24811E-01
 -1      1909 2.78227E-02 6.61254E-02 6.56307E-02-1.26586E-02 1.54234E-01 6.02424E-02
 -1      1910-3.66676E-02-3.84741E-02-1.14373E-01-1.45812E-01 4.48413E-02-8.89718E-03
 -1      1911-6.64543E-02 3.04926E-02-1.02287E-01 4.64146E-01 8.30197E-02-1.13311E-01
 -1      1912 1.26298E+00 4.40406E-01 2.29493E-01-5.00391E-02 4.65622E-02-2.17514E-02
 -1      1913 9.10475E-01 2.15590E-01 6.21464E-01 9.60787E-02 4.89323E-01 7.61537E-01
 -1      1914-6.05114E-02-2.59660E-02-5.00437E-02-1.22220E-02-5.25525E-02 1.44091E-01
 -1      1915-4.82345E-02-3.15025E-01-5.19379E-02 1.52623E-01 3.34008E-02 1.11498E-01
 -1      1916 8.12117E-02-1.00792E-01 2.84920E-02-2.81480E-03-3.35661E-01 2.25786E-01
 -1      1917 1.40944E-01 3.89072E-02-1.85177E-02-1.10737E-01-8.11962E-02-5.23801E-02
 -1      1918-1.41542E-02 2.08324E-02-5.45502E-02 7.93339E-02-1.12406E-01-1.86127E-02
 -1      1919-1.80758E-02 6.61905E-03-2.06565E-02-5.26716E-02 3.28010E-02-1.02240E-02
 -1      1920-2.10648E-02 1.53276E-01 1.83904E-02 2.33116E-02 2.48633E-01 6.27913E-01
 -1      1921 7.53687E-02 2.74256E-01 2.62870E-01-8.97962E-03 1.19628E-01-1.39188E-02
 -1      1922-1.17860E+00-6.76001E-01-1.30992E-01 1.05754E-01 1.92926E-02-1.54028E-01
 -1      1923 2.25805E-01 4.17621E-02 8.30221E-02 1.27001E-01-3.22846E-01 2.97264E-01
 -1      1924-9.06036E-01-4.37522E-01-1.94929E-01 1.56279E-02 2.70008E-02-8.32658E-02
 -1      1925-8.79958E-02 2.25478E-02 2.14332E-01-2.37713E-02-2.02046E-01 4.34019E-02
 -1      1926-1.33625E-01-8.52788E-02 1.28620E-02-1.31646E-01-4.27015E-03-5.81532E-02
 -1      1927-1.14792E-01 5.38922E-02 6.11269E-02-4.66443E-02-2.36783E-01 5.46103E-02
 -1      1928-2.78234E-01-1.84395E-01-5.67596E-02 1.50075E-01 5.84209E-02 5.04371E-01
 -1      1929-1.00996E+00-6.64004E-01-2.70621E-01-2.51717E-01 1.01138E-01-2.25026E-02
 -1      1930-6.00372E-01-9.55770E-02 1.19638E-01 3.58110E-01-6.49392E-01 2.40898E-01
 -1      1931-6.98536E-01-2.89100E-01-2.53749E-01-7.22600E-03 1.59249E-01 7.93794E-01
 -1      1932-1.61159E-01 7.11468E-02 4.08719E-02 6.25897E-02-3.17920E-01 8.56295E-02
 -1      1933 4.53982E-01 1.72377E-01 1.75921E-01 9.15023E-02 6.81075E-02-4.75632E-01
 -1      1934-1.46680E+00-4.39922E-01-4.62183E-03 9.18387E-02 1.28844E-03-1.83454E-01
 -1      1935-5.17535E-02-7.61503E-02 3.07255E-02 4.17502E-01-5.55110E-02-1.17366E-01
 -1      1936 1.05468E-01 1.81131E-01 1.01393E-01 1.00400E-01 7.83865E-02 4.33770E-02
 -1      1937-9.60586E-02 6.88127E-02 1.30932E-01 1.98129E-01-4.25583E-02-7.97172E-02
 -1      1938-2.36700E-01-4.54542E-02 1.21826E-02-1.92145E-01 9.52215E-03-2.79564E-02
 -1      1939 1.35154E+00 4.98054E-01 2.90312E-01 8.78427E-02 4.24900E-02-5.70107E-02
 -1      1940 1.02183E-01-2.05115E-02 6.13700E-02-1.78993E-01-2.44664E-01 3.87183E-01
 -1      1941-4.99990E-01-4.83070E-01 8.41605E-02-1.84418E-01-3.56915E-02 4.50665E-01
 -1      1942 1.34387E-02-2.53999E-01-5.84246E-02 2.08892E-01-3.46924E-01 4.17015E-01
 -1      1943-1.90147E-01 3.35435E-02-1.64074E-01 4.83015E-02-2.87176E-01 1.98177E-01
 -1      1944-7.40071E-01-7.88743E-01-7.48831E-02-3.67387E-01 6.24774E-03 1.24608E-01
 -1      1945 3.14086E-01 1.18766E-01 1.48138E-01 5.92191E-02 3.42196E-01 3.21230E-01
 -1      1946 1.15105E-01 1.91096E-01-4.90464E-02-4.68632E-02-8.58762E-02-5.22755E-02
 -1      1947-2.77107E-01 1.17099E-01 8.63779E-02-2.40864E-02-8.35935E-02 7.21052E-01
 -1      1948-3.92185E-01-3.49030E-02-1.57297E-01 4.94512E-01 1.28811E-01-2.71621E-01
 -1      1949-6.13504E-02-1.76341E-02-1.27347E-02-3.86314E-02 1.86282E-01 2.48122E-01
 -1      1950 3.16146E-01 1.47937E-01 2.45616E-02-2.66264E-01-4.43631E-02 2.79143E-01
 -1      1951-7.13055E-03 8.63224E-02 1.12582E-01 1.17834E-01-3.41153E-01 2.94483E-01
 -1      1952 1.51671E-01-3.13662E-02 1.54642E-01 9.75858E-02-4.26041E-01 2.53345E-01
 -1      1953-4.84957E-01-1.76956E-01-1.78307E-01 3.92505E-01-5.96802E-03-1.84476E-01
 -1      1954 5.00529E-01 3.53496E-01 1.04011E-01-8.94262E-02-7.78084E-03 1.16084E-01
 -1      1955-2.70391E-02 2.62872E-01-5.18060E-02 4.47753E-02-2.47556E-01 8.15352E-02
 -1      1956 2.52330E-02 5.99387E-02-1.20106E-02-8.48255E-02 5.81143E-02 2.05047E-02
 -1      1957-1.80324E-02-1.20665E-01-8.92934E-02 7.64186E-02-2.25136E-01 2.00934E-01
 -1      1958-5.02928E-01-7.72818E-01-7.34406E-01-2.02506E-01 3.75572E-01 4.02798E-01
 -1      1959-3.35722E-01-2.04362E-01-3.23972E-02-8.56619E-02 2.11155E-01 9.54853E-01
 -1      1960-7.33320E-01-4.98442E-01-3.50968E-01-2.20966E-01 4.75281E-02 4.66626E-02
 -1      1961 1.06903E-01 3.95093E-01 1.14201E-01-9.68981E-02 1.02074E-01 1.95476E-02
 -1      1962 1.03847E+00 3.29215E-01 1.58449E-01 1.71971E-01-2.32675E-02 4.38055E-02
 -1      1963 1.37172E+00 3.54470E-01 2.34338E-03 7.87503E-02-1.31744E-02-6.20467E-02
 -1      1964-3.00564E-02 5.25206E-02-6.73651E-02-7.55505E-03-3.51336E-01 9.33317E-02
 -1      1965-7.40533E-01-3.48617E-01 7.70584E-02 5.25175E-01-3.44840E-02-6.96127E-02
 -1      1966 2.41711E-01 1.05569E-01 1.63298E-01 2.02801E-01 7.54389E-02 9.67088E-01
 -1      1967-1.05447E+00-2.08797E-01-4.63399E-02 4.40485E-01 2.10793E-01 8.22015E-01
 -1      1968-1.25514E-01-3.01089E-02-1.65341E-02-1.82455E-01-5.15490E-02-3.77855E-01
 -1      1969 1.12079E-01 1.28861E-01-5.10404E-02 1.19283E-01 2.23301E-03 3.39734E-02
 -1      1970-2.25813E-01-2.03945E-01-3.96185E-02-2.82499E-01-1.23957E-01-4.44360E-02
 -1      1971-1.25023E-01-1.55420E-01 8.11819E-02-9.89076E-03 1.35247E-01 5.73514E-02
 -1      1972 2.32305E-01 8.31189E-02 5.11391E-02 1.47018E-01 3.45439E-01 2.28341E-01
 -1      1973 3.44045E-01 1.64466E-01 1.57011E-01 3.00833E-01-2.06135E-01-5.56543E-02
 -1      1974 1.50990E-02 5.11852E-02-1.52180E-01-2.25874E-01 2.79439E-02 5.29906E-02
 -1      1975-9.65461E-01-5.42116E-01 8.59540E-03-1.26796E-01 4.30832E-02-2.37880E-01
 -1      1976 4.45952E-02 1.34895E-01-3.74984E-01-7.51704E-02-1.76752E-01 8.51766E-01
 -1      1977-4.59145E-02-1.03032E-01-6.20130E-02 1.22898E-01 1.01636E-02-3.78247E-01
 -1      1978 8.53383E-02 2.09685E-01 2.08394E-01 3.61902E-02 2.62530E-01 6.27206E-01
 -1      1979 2.72435E-01 5.21105E-01 3.14992E-01 1.84826E-01 6.63207E-01 6.56084E-01
 -1      1980 1.44677E-01-7.10560E-03 2.14390E-01-8.62686E-02-1.35485E-02 8.16294E-02
 -1      1981-5.20156E-01-3.10371E-01 1.46143E-02-3.00928E-01 8.43148E-02-2.19237E-02
 -1      1982 1.22109E-01 6.71301E-02-6.66917E-02 1.20522E-01-3.17171E-02 1.47381E-02
 -1      1983-5.64146E-01-2.27444E-01-1.07578E-01-6.45030E-02 2.21928E-02-4.51593E-01
 -1      1984 2.39192E-01 1.92736E-01 1.26867E-01-9.42333E-02-3.18014E-01 4.43078E-01
 -1      1985 5.41153E-02 7.48410E-02 1.22970E-02-9.13758E-02-6.29058E-02-7.52538E-02
 -1      1986-1.03070E-01 2.80388E-01 6.29227E-02 6.36929E-02-9.11843E-02 6.64585E-01
 -1      1987 3.36089E-01 1.58673E-01-2.07910E-01 3.46554E-01 9.38894E-02-9.57198E-03
 -1      1988 5.78155E-01 2.68777E-01 2.69717E-01-1.85435E-01 8.94720E-02 2.37435E-02
 -1      1989 8.32709E-01 3.85254E-01-1.28282E-01-1.31587E-01-4.16799E-03-2.26516E-01
 -1      1990 2.62852E-02 7.88561E-03-9.41693E-02 1.82219E-02-6.13647E-02-1.74241E-02
 -1      1991-1.22690E-01-6.27880E-02-9.57233E-02 6.87525E-02 1.48520E-02 2.30788E-02
 -1      1992 8.92505E-01 4.00529E-01 1.66228E-01-1.46411E-01-3.86731E-02-6.28917E-02
 -1      1993-5.82662E-01-3.00874E-01-1.44097E-01-1.79132E-02-1.50214E-01-1.64564E-01
 -1      1994 1.39738E+00 6.00234E-01 3.39718E-01 2.42660E-01 1.35041E-01 7.62201E-01
 -1      1995-1.24461E+00-1.39983E-01-1.84855E-01-3.58311E-01-3.39675E-02 5.31929E-01
 -1      1996-8.41141E-02 1.91049E-01 7.87914E-02 2.39512E-01-2.91502E-01 7.13685E-01
 -1      1997 6.54192E-01 2.14790E-01 2.56625E-01 2.91727E-01 4.71479E-02-2.02771E-01
 -1      1998 6.10696E-01 4.05466E-01 1.61518E-01 1.79056E-01 6.93880E-02-8.92479E-04
 -1      1999-2.74879E-01-2.90302E-01 1.17693E-01 1.85570E-01-4.22730E-01 5.14738E-01
 -1      2000 1.41615E+00 4.44158E-01 1.06644E-01 1.94632E-01-1.53910E-02-4.65268E-02
 -1      2001 5.97806E-01 4.34919E-01 1.12448E-02-1.53676E-01-1.27963E-01 4.85026E-01
 -1      2002-3.45681E-02-4.08112E-01 5.53681E-02 2.49187E-02-1.50463E-01 1.66919E-01
 -1      2003-3.53438E-01 2.11171E-02 9.93260E-02-2.89317E-01-4.76268E-02 6.87450E-01
 -1      2004 3.23793E-01 2.29245E-01 7.45801E-02 2.69779E-01 4.65889E-02 9.56663E-02
 -1      2005 2.16274E-01 1.84974E-01-1.52577E-01-2.66847E-01 4.29555E-03-3.06068E-02
 -1      2006-5.77725E-01-1.06452E-01-5.02003E-02-2.29369E-01 4.33274E-02-4.94490E-02
 -1      2007-1.29127E+00-6.91712E-01-3.87272E-01-2.76814E-01 5.64084E-02 1.78383E-01
 -1      2008-1.34705E+00-6.55832E-01-2.54648E-01 2.56567E-01-1.93527E-01-3.62393E-02
 -1      2009 1.41704E+00 4.91974E-01 6.39566E-02-3.44274E-02 3.39553E-03-8.59242E-02
 -1      2010 6.73350E-02 5.84308E-01-9.83125E-02 1.10377E-01 4.55577E-01 1.92983E-01
 -1      2011 6.99443E-01 4.26255E-01 5.33954E-02-1.67425E-01-5.25560E-02 4.66472E-04
 -1      2012 7.86079E-01 2.85790E-01 7.17789E-02-1.55572E-01-2.27299E-01 3.64655E-02
 -1      2013 9.74035E-02 2.17429E-01-3.50019E-02-6.12428E-02 7.28454E-02 3.85658E-02
 -1      2014-3.83282E-03-7.46044E-02-3.71289E-02 3.71430E-01 8.47907E-02-3.03702E-01
 -1      2015-6.37348E-02 5.36855E-03 9.93662E-02-2.35874E-02 5.89402E-02 5.05133E-03
 -1      2016 4.28660E-02 1.13532E-01 1.14869E-02 7.56947E-03-1.07922E-01-1.77752E-02
 -1      2017-2.38941E-01-2.78710E-01-1.83258E-01 3.08706E-01 1.08232E-02-3.95134E-02
 -1      2018-1.10029E-01-8.65638E-02-7.44073E-02 9.87302E-02-1.04871E-01 1.58269E-01
 -1      2019 1.35383E-01 2.90013E-02 3.98068E-02 3.38694E-01-6.29535E-02-9.92956E-02
 -1      2020 1.81693E+00 6.99392E-01 1.68452E-01-9.92811E-02-7.18625E-02-5.79519E-03
 -1      2021 2.85873E-02 2.17842E-01 7.27635E-02-8.35868E-04-8.31231E-01 4.33015E-01
 -1      2022-3.76826E-01-3.09762E-01-5.48853E-02-2.44431E-01-2.36408E-01 4.84928E-01
 -1      2023-1.43988E-01-1.59467E-01 3.02457E-02 1.37863E-01-2.22934E-01 6.17541E-01
 -1      2024-1.81272E-02 5.52732E-02 8.69055E-02-1.66284E-01-2.70789E-02 8.71837E-02
 -1      2025-1.42627E-01-2.56539E-01-9.63395E-02 6.31944E-02-3.50101E-01 5.67268E-02
 -1      2026 4.39841E-02-1.87628E-01-1.19226E-01-1.12489E-01-2.87003E-01 2.64469E-02
 -1      2027 7.51025E-02 3.34609E-01 1.01851E-01-3.42530E-02 2.08102E-01 5.54289E-02
 -1      2028-5.43784E-02 2.11738E-01-3.25239E-02-2.02491E-02 6.04795E-01 6.20352E-01
 -1      2029 1.08154E+00 1.76178E-01 1.20624E-01 5.52242E-02 2.71306E-04-9.78375E-02
 -1      2030 5.79047E-01 3.96795E-01 1.11064E-02 2.74449E-01 6.46073E-02-9.63664E-02
 -1      2031-6.27503E-02-4.58160E-01 1.00402E-01-1.31568E-01-1.72307E-01 1.80969E-02
 -1      2032-1.78177E+00-7.55871E-01-7.43646E-02 2.64532E-01-6.34246E-02-8.37224E-02
 -1      2033-1.07075E+00-4.72186E-01-2.56430E-01 1.00039E-01 1.30887E-01-5.63565E-02
 -1      2034 1.10624E-01-3.02630E-02 3.43615E-02-1.32993E-02 3.32266E-02-1.07428E-02
 -1      2035-1.91706E-02-5.38048E-02-5.85039E-03-2.47746E-02 1.65029E-02-7.79073E-02
 -1      2036-1.99003E-01 3.27518E-02 8.98822E-04 9.89864E-03-2.14828E-01 1.12320E-01
 -1      2037 8.46206E-03 1.14814E-01 7.57939E-02 6.51037E-03-8.91945E-02-8.95793E-02
 -1      2038-8.85535E-02-1.76000E-01-6.18291E-01 1.34828E-01 2.86678E-01 4.68958E-01
 -1      2039 5.23067E-01-1.77760E-02-1.40922E-01 3.02609E-01 3.89565E-01 4.88007E-01
 -1      2040 3.64518E-01 4.95412E-01 4.97238E-01-1.24266E-01-6.23907E-01 5.26561E-01
 -1      2041 2.57977E-01 1.17783E-01 1.70200E-01 2.21532E-01 1.72724E-02-3.56342E-01
 -1      2042-3.38857E-01-1.38949E-01-2.20008E-01-1.13039E-01-4.34563E-02-5.75313E-01
 -1      2043-4.94733E-01-2.42073E-01-6.20122E-02-4.45514E-01 1.49476E-01-1.45947E-01
 -1      2044-3.13187E-01-1.56497E-01 8.34801E-02 4.28490E-01-2.78480E-02-1.36554E-01
 -1      2045-6.75330E-02-1.87853E-01-1.29261E-01-2.80819E-03-3.63253E-01 1.19133E-01
 -1      2046 2.64737E-01-1.02458E-01-1.52976E-01 2.47197E-01-1.49948E-01-9.63131E-02
 -1      2047 5.71632E-01 9.21561E-01 9.49745E-01-4.46370E-01-3.61191E-01 1.07989E+00
 -1      2048 2.37287E-01 4.61861E-01 1.30854E-01-2.19187E-01-4.49550E-01 5.34183E-01
 -1      2049-4.82131E-02-6.66129E-02 1.01969E-01 3.24893E-01-8.75735E-02-2.06152E-01
 -1      2050-1.47993E-01-1.81499E-02-1.66801E-01 4.21097E-02 1.69524E-01-7.98311E-02
 -1      2051 8.11684E-03 7.83968E-02-8.31807E-03-8.28182E-02-7.26228E-02-7.89601E-02
 -1      2052-1.23439E-02 7.94722E-02-5.54522E-02 1.72675E-01 3.04860E-02 1.17897E-01
 -1      2053 1.15010E+00 4.84740E-01 1.68616E-01-5.90216E-02-8.93951E-02 5.68363E-02
 -1      2054-7.99326E-02 2.38408E-02-2.19844E-02 6.23332E-02-1.54578E-01 3.31505E-02
 -1      2055-9.44466E-01 5.82342E-02-4.55984E-02 5.68418E-02 9.91764E-02-1.68814E-01
 -1      2056 1.25930E-01 5.31468E-02 1.78209E-01-1.17533E-02-4.81348E-02-1.07579E-02
 -1      2057 1.76324E-01 7.39760E-02 2.00998E-02-1.76524E-01-1.19715E-01-1.01078E-01
 -1      2058 9.79121E-01 4.89698E-01 2.63707E-01 8.95524E-02 1.65900E-02-5.59684E-02
 -1      2059 1.33106E+00 4.67924E-01 6.40817E-02-5.98629E-02 8.34101E-02-3.70014E-02
 -1      2060-2.78831E-01-1.67776E-01-1.38788E-01 3.01937E-03-6.11955E-01 8.29401E-01
 -1      2061 2.00080E+00 2.59803E-01 1.42508E-01-1.98313E-01 9.37412E-03 8.20909E-01
 -1      2062 8.99487E-01 1.90124E-01 1.68577E-01-3.01951E-01 1.83757E-01 9.22963E-01
 -1      2063 3.28390E-01 2.12315E-02-1.54259E-01-1.74968E-01-7.64016E-02 5.52064E-01
 -1      2064 1.24116E-01-6.10860E-02 1.64047E-01-1.54536E-01 2.43256E-03 8.78721E-01
 -1      2065 1.05454E-01 2.44942E-01 1.49640E-01-3.99749E-02-4.32767E-01 2.92248E-01
 -1      2066 1.89875E-02 1.57913E-02-8.28992E-02 8.83357E-02-3.21850E-01 4.31909E-01
 -1      2067-1.68353E-01-2.97143E-01-7.21793E-02-1.68853E-01-7.77519E-02 5.07854E-01
 -1      2068 2.72563E-01 4.91107E-01 3.30113E-01-6.24235E-02-5.33904E-01 3.16723E-01
 -1      2069-3.63223E-01-1.14685E-01 1.34244E-01 4.05171E-02 3.10830E-01 5.61533E-01
 -1      2070 2.68540E-01 4.37831E-01 1.57066E-01-3.04743E-01-5.28168E-01 6.42271E-01
 -1      2071 2.56793E-01 3.49500E-01 3.72091E-01-1.43587E-01-5.90708E-01 6.15724E-01
 -1      2072 1.08556E-01 2.14417E-01-1.65713E-01-4.94938E-02-8.19530E-01 5.15560E-01
 -1      2073 1.14115E+00 3.41532E-01 1.97607E-01 1.21605E-01-9.10850E-02-1.57001E-02
 -1      2074-1.87581E-01 1.34074E-01-3.38150E-02 1.53051E-01-1.55585E-01 6.82411E-01
 -1      2075-9.26168E-01-4.10444E-01-1.44051E-01-2.26453E-01 6.99211E-03 2.22195E-01
 -1      2076 7.78358E-02 2.51763E-02-1.90524E-02-2.08763E-01-1.29490E-02-5.29934E-02
 -1      2077-1.41939E+00-3.38036E-01 4.04703E-01-2.36290E-01 2.37270E-01-3.33430E-01
 -1      2078-6.57809E-02-2.59134E-01 1.05892E-01-5.81960E-01 3.86320E-02-4.74501E-01
 -1      2079 5.96988E-01 3.18473E-01 2.09173E-03-1.78935E-01-3.31691E-02-1.04870E-01
 -1      2080 4.72106E-01 7.89814E-02-1.08530E-01 2.51882E-01-5.40389E-01 5.65141E-01
 -1      2081-9.48234E-03 7.82834E-02 4.97857E-02 7.50552E-03 1.54501E-01-3.58758E-02
 -1      2082-6.78109E-02-3.23069E-02-6.86748E-02 1.04866E-01-2.11108E-01 6.40713E-01
 -1      2083 5.78242E-01-2.14283E-02 8.99533E-02 4.27856E-01 1.51723E-01-2.75661E-01
 -1      2084-6.43105E-01-1.53598E-01-1.41830E-01-2.89498E-02 8.21467E-02 8.43917E-01
 -1      2085 5.15970E-01 3.51982E-01 5.73568E-02-2.07870E-02-1.70127E-01 4.87203E-01
 -1      2086-2.07369E-02 6.09120E-02 6.82680E-02-1.45218E-01 6.62947E-02-8.18718E-02
 -1      2087 1.42876E-01 1.06949E-01 6.15780E-02-1.27115E-01-3.46864E-01 4.58289E-01
 -1      2088 2.86404E-01 2.21586E-01 6.39463E-01 2.36143E-02-2.11510E-01 1.32234E+00
 -1      2089 7.12104E-01-5.43544E-02-1.70899E-02 2.46822E-01 2.56345E-01 7.12316E-01
 -1      2090 9.78000E-02 1.38383E-01-6.05320E-01 1.57569E-01 2.33334E-01 3.89030E-01
 -1      2091 1.13411E-01 1.73605E-01-2.52832E-03-2.76719E-01-7.79562E-02-3.78455E-01
 -1      2092-1.51223E+00-8.94277E-01-8.22814E-02 6.18269E-02-5.46412E-02-1.03861E-01
 -1      2093 2.32957E-01-1.07881E-01-1.50652E-01-1.84541E-01-1.71219E-01 6.42314E-01
 -1      2094 1.06423E+00 5.03475E-01 2.60247E-01 7.12445E-02 6.74088E-02-1.27224E-02
 -1      2095 5.74464E-01 2.84371E-01 3.15572E-01-3.81767E-01-5.39274E-01 5.28764E-01
 -1      2096-5.80865E-02-1.34842E-01-2.46894E-01 3.23747E-02-1.86468E-01-4.43655E-03
 -1      2097-2.10045E-01-3.07186E-01-1.08542E-01-9.04470E-03-1.11290E-01 1.47498E+00
 -1      2098 2.24714E-01-2.39740E-02-5.54455E-02-1.75303E-01-2.49167E-01 6.22300E-01
 -1      2099 1.58164E-01 6.23260E-02 5.00392E-02-1.94405E-03-1.56450E-02-4.57066E-01
 -1      2100-4.60267E-01 3.63437E-01 2.42132E-02 1.31284E-01 5.48490E-02-1.01264E-01
 -1      2101-2.65797E-01-1.23298E-01 4.55254E-01-3.18862E-01 7.61843E-02 5.61663E-01
 -1      2102-6.56095E-02-2.82770E-01 4.21701E-03-4.42006E-02-2.60174E-01 1.15519E-01
 -1      2103-4.90215E-01-1.55193E-01 1.35315E-01-1.16354E-01 9.33016E-03-1.42037E-01
 -1      2104-1.47310E-01-2.32467E-01 1.74091E-01-8.15942E-02 1.16178E-01-1.45642E-01
 -1      2105 2.36510E-01 8.37748E-02-1.21413E-02-9.44189E-02-3.05626E-01 5.87529E-01
 -1      2106-1.70753E-01 2.56804E-03 4.41918E-02 1.48075E-01 4.25953E-02 1.79604E-02
 -1      2107-4.01110E-01-2.49773E-01-2.15728E-01-2.09849E-01 2.90128E-01 7.37670E-01
 -1      2108 6.02497E-02 2.35535E-01 1.04281E-01-1.13502E-01-4.06055E-01 4.92713E-01
 -1      2109-1.44018E-02 1.13553E-01-1.75088E-02 5.12595E-01-9.66778E-02-2.23765E-03
 -1      2110 9.94611E-03 6.88111E-02 7.78495E-02 1.54489E-01-3.51373E-03 8.42157E-02
 -1      2111 1.12612E+00 3.77052E-01-9.70528E-02-3.22306E-01-2.21686E-02-3.63932E-02
 -1      2112-1.03657E+00-5.66620E-01-1.90037E-01 3.08104E-01 1.30340E-03-8.53266E-02
 -1      2113 1.18507E-01-4.25887E-02-5.68668E-02 3.05419E-01-1.21147E-01 5.01313E-02
 -1      2114-2.83381E-03 2.80854E-01-4.25614E-02 1.21343E-01-1.74710E-01 4.51605E-01
 -1      2115-9.41490E-01-1.93505E-01-2.61931E-01-3.85670E-02-6.80070E-02 1.00063E-01
 -1      2116-2.51832E-01-4.55535E-02-5.80996E-02 1.59869E-01-1.30563E-01 7.71512E-01
 -1      2117 6.42139E-01 3.50632E-01 1.52732E-01-2.02684E-02-5.64524E-02 2.03898E-01
 -1      2118-6.29869E-02-1.11551E-01-3.28448E-02 1.59030E-02-4.06276E-03 5.58031E-02
 -1      2119-4.85031E-01-2.84435E-01-4.28751E-01-2.88399E-01-5.23661E-02-1.85011E-01
 -1      2120-1.04611E+00-2.89046E-01-1.63096E-01-1.18982E-01-4.32988E-02 5.56317E-03
 -1      2121-2.28937E-01-2.49828E-01-4.74153E-02-4.46967E-02-4.30779E-01 5.05387E-01
 -1      2122 1.28877E+00 3.65021E-01 1.34169E-01-2.15418E-01 6.69462E-02-8.44292E-02
 -1      2123-3.29595E-03 7.68393E-02 1.87588E-01-6.53018E-02 4.17985E-01 3.74263E-01
 -1      2124-1.46750E-01-2.07156E-01-1.14872E-01 3.01232E-01-4.09478E-02-4.10065E-01
 -1      2125 6.74406E-02-1.75790E-01-8.73134E-02-9.48065E-02 5.25251E-02-1.98942E-01
 -1      2126 4.58153E-01 1.44551E-01 8.11322E-02-8.34234E-02-1.60334E-01 1.24582E-01
 -1      2127 1.54397E-01 4.01070E-01 3.53252E-01 1.50927E-01 4.42255E-01 3.94133E-01
 -1      2128 3.07817E-01 2.74119E-01-1.24012E-01-1.10721E-01-2.89128E-02 3.83518E-02
 -1      2129-1.20821E-01 6.27820E-02 2.38170E-02-1.00204E-02 2.83818E-01 5.56523E-01
 -1      2130 8.90206E-01 3.56824E-01 6.15256E-01 1.23089E-01-1.63762E-01 6.91347E-01
 -1      2131-1.23023E+00-2.65956E-01-2.25531E-01 5.93170E-02-1.36489E-02 9.19323E-02
 -1      2132 6.17671E-01-2.74358E-01-6.90394E-01 2.41978E-01 1.40025E-01 3.34731E-01
 -1      2133-3.42184E-02 1.07958E-01-4.98117E-02-5.04942E-02-6.30335E-02 1.70737E-01
 -1      2134 2.38757E-01 1.11281E-01 6.17357E-02 1.42871E-01 6.08184E-02 1.02085E-02
 -1      2135-4.07038E-02-7.73386E-02-2.87489E-01 4.08109E-01 1.63915E-01-1.47946E-01
 -1      2136 6.17210E-01 5.46392E-01 4.54827E-01-2.89809E-01-4.28695E-01 7.72089E-01
 -1      2137 5.63705E-01 2.54179E-01-5.26891E-02 3.89592E-01 3.77140E-02-2.14845E-01
 -1      2138-5.10003E-01-2.96712E-01-1.10672E-01 1.61947E-01-3.57595E-01 3.78031E-02
 -1      2139-3.75996E-02-6.20751E-01 2.11320E-01 7.21024E-02-7.85793E-01 7.68653E-01
 -1      2140-2.56744E-01-3.21172E-01-1.05953E-01 4.79889E-01 5.50587E-02-7.27995E-02
 -1      2141-8.55216E-02 3.19725E-02-2.61350E-02-5.14140E-02 1.23668E-01 1.76750E-02
 -1      2142 9.78679E-01 4.07567E-01 1.67749E-01-2.59737E-01-6.65337E-02-1.02013E-01
 -1      2143-2.06207E-01-5.57374E-01-3.32253E-01 1.47737E-01-1.38235E-01 3.85891E-01
 -1      2144 3.18706E-01 1.67404E-01 3.06775E-02-7.28310E-02 3.98896E-01 4.81535E-01
 -1      2145-8.99689E-01-3.65439E-01-7.47710E-02-2.56064E-01-6.05655E-02-1.76733E-02
 -1      2146 6.26256E-03-5.77838E-03 6.37383E-02-1.26580E-01-3.39809E-01 6.15100E-01
 -1      2147 8.57593E-01 3.44673E-01 2.59814E-02 5.44895E-01 3.91524E-01-4.09457E-01
 -1      2148-1.63991E-01-3.66315E-01-1.23074E-01-6.31513E-02-2.91404E-01 1.79525E-01
 -1      2149-5.72637E-01-4.80123E-01 4.78512E-02 1.91438E-01-6.71336E-02 3.18585E-01
 -1      2150-2.15628E-01-9.20848E-02-7.30199E-02-1.76393E-01-4.88914E-02-2.49164E-03
 -1      2151 1.44013E+00 5.40498E-01 2.69574E-01-1.37145E-01-5.28341E-02-8.07724E-02
 -1      2152-8.45756E-02 4.89566E-02-1.36244E-01 8.03253E-02 3.27267E-03-3.82257E-02
 -1      2153 1.43653E+00 7.53640E-01 3.63006E-01 1.17477E-01 1.22902E-01-1.43835E-01
 -1      2154 1.36842E-01 2.73074E-01 2.79239E-01-4.51587E-02-3.57488E-01 2.29645E-01
 -1      2155 7.41893E-02 4.34113E-01-9.79820E-02 1.71372E-02 2.05497E-01 7.79307E-02
 -1      2156-7.59929E-01-3.35529E-01 1.15054E-01-1.78615E-01-1.34878E-01 1.90847E-01
 -1      2157 1.58682E-01 3.38635E-01-4.08603E-03-1.53728E-01-2.97973E-01 1.64235E-01
 -1      2158 1.21642E+00 6.82880E-01 2.39197E-02-2.72777E-01-5.78918E-02 1.68408E-01
 -1      2159 9.65842E-02-1.37948E-01-3.61520E-02-2.27477E-01-2.45946E-01 5.62024E-01
 -1      2160-1.01169E+00-2.93668E-01-3.41168E-01 2.74705E-02-4.40093E-02 8.94994E-01
 -1      2161 1.01155E-01 3.79404E-01 1.33172E-01 5.33841E-02 3.85923E-01-3.83905E-02
 -1      2162-1.27958E+00-6.13112E-01-2.72560E-01-1.04060E-01 9.46171E-02 1.13222E-01
 -1      2163-3.23888E-01-1.67858E-01-1.70962E-01 5.78395E-02-2.66448E-01 2.69201E-01
 -1      2164 6.95852E-01 3.03389E-01 1.40697E-01-2.59370E-01-1.04461E-02-3.40355E-02
 -1      2165-8.78066E-01-2.58400E-01 3.18467E-01-3.41018E-01 5.50544E-02 1.38283E+00
 -1      2166-1.83555E-02 2.21176E-01-7.83226E-02-5.46889E-02 5.84050E-03 4.51090E-02
 -1      2167 9.38879E-01 3.98926E-01-7.85305E-03-2.22612E-01-2.02675E-02-1.03141E-01
 -1      2168-1.05878E+00-3.64584E-02 2.08005E-01 1.78613E-01 1.79651E-01 6.88783E-01
 -1      2169 7.86265E-01 4.27488E-01 5.35639E-02 4.11271E-01-2.78758E-02-5.64420E-02
 -1      2170-3.26700E-01-3.26605E-01-1.85302E-01 1.26249E-01-1.15940E-01-2.47229E-02
 -1      2171 1.13577E+00 3.41211E-01-1.19344E-01-2.08272E-01-8.52993E-02-1.25330E-01
 -1      2172-2.28831E-02 7.71523E-03 2.47649E-01-9.03814E-02 8.03834E-01 4.87059E-01
 -1      2173 1.32731E-01-1.29626E-01-1.81146E-01 2.28080E-02 1.98197E-01 9.40762E-02
 -1      2174-1.08810E+00-4.62915E-01-9.30375E-02 3.77685E-01 3.53118E-02-1.69471E-01
 -1      2175-1.47914E+00-5.59389E-01-2.62708E-01 1.55054E-01-3.76467E-02-1.56885E-01
 -1      2176-5.67301E-02 3.28324E-01 1.03051E-01-1.47884E-01 4.49470E-02 4.91939E-01
 -1      2177 7.58405E-02-5.85424E-01-5.22006E-02-1.02564E-02-5.64311E-02 2.74507E-01
 -1      2178-4.73068E-02-2.37597E-03 1.82399E-01 1.34157E-01 3.13140E-02 1.70858E-02
 -1      2179-8.02991E-01-2.01282E-01-1.42817E-01 1.63254E-01 1.31715E-02-5.24980E-02
 -1      2180-6.94521E-02 2.36909E-01-3.58067E-02-2.45895E-02-3.60869E-01 3.67320E-01
 -1      2181 9.46593E-01 2.14864E-01 2.33190E-01 1.28605E-01 1.36947E-02-1.53876E-01
 -1      2182-1.71668E-01-7.23852E-02-1.63096E-01-1.13403E-01 2.57710E-01 6.13935E-02
 -1      2183-1.23041E-01-2.29150E-01 4.50567E-02-1.34323E-01 1.19921E-01 7.80376E-02
 -1      2184-1.17332E+00-6.85707E-01-2.08065E-01-9.91631E-02-3.12241E-03 9.60341E-02
 -1      2185 7.65545E-01 1.99245E-01 2.28539E-02-3.97024E-01-5.22883E-02-2.17843E-01
 -1      2186-4.29673E-01 7.96155E-03-7.03140E-02 1.20755E-01-3.58142E-01-5.74519E-02
 -1      2187 2.80345E-01-6.13405E-02-2.14484E-01-5.82382E-02-4.19105E-01 6.22428E-01
 -1      2188-3.42490E-01-1.24855E-01 5.77531E-02-8.70857E-02-2.49985E-01 4.07056E-01
 -1      2189-7.61813E-01-2.90979E-01-5.42795E-01-6.16903E-02 3.15947E-02 7.25305E-01
 -1      2190 6.90001E-02-4.40550E-01 2.52009E-01-1.44829E-01 2.73952E-01 3.32570E-01
 -1      2191 9.36787E-01 3.23007E-01 2.76967E-01 2.72203E-01 1.36075E-01 9.73204E-03
 -1      2192 2.88147E-02 1.98970E-01-1.71324E-01-1.25390E-01-3.44761E-01 4.80529E-01
 -1      2193 1.09529E-01-9.77745E-02-1.37853E-02-2.49239E-02-1.75957E-01 7.38744E-03
 -1      2194-3.99844E-02 1.13796E-01-1.72262E-01-5.78392E-02-1.84533E-01-4.88519E-02
 -1      2195 1.78257E-01 2.89251E-01 7.45440E-02 1.00818E-01 2.20765E-01 4.18765E-01
 -1      2196 9.00447E-02-2.03476E-01 3.12189E-01-8.60002E-02 7.08399E-01 2.60133E-01
 -1      2197-5.36466E-02-4.92262E-03-2.46642E-01 8.06758E-03-2.24535E-01 9.33058E-02
 -1      2198 5.65363E-01 2.58430E-01 1.68188E-01-2.28112E-01-9.21237E-02-2.04070E-01
 -1      2199 2.97644E-01 5.19733E-02-1.38858E-02 4.79283E-01 1.52682E-01-5.31417E-01
 -1      2200 6.35785E-02 3.86243E-01-8.31721E-02 3.55490E-02 1.01684E-02-3.76075E-03
 -1      2201-2.87491E-01 9.52499E-02-2.01853E-01 1.03568E-01-1.19323E-01 1.12822E-02
 -1      2202 2.59627E-01-5.37436E-02-5.00971E-02-9.99001E-02 1.46307E-02 7.41824E-01
 -1      2203-1.15932E+00-3.40845E-01-8.01993E-02-2.19153E-01-1.94165E-02 1.62934E-03
 -1      2204 1.16814E-01-7.78818E-02 1.87769E-02 8.91574E-02 1.69918E-01 2.22474E-02
 -1      2205 7.22178E-01 2.85084E-01 2.23278E-01 2.40557E-01-3.44992E-02-4.60382E-02
 -1      2206-1.54581E-01 2.23611E-01-2.91336E-02-3.50930E-02-1.98414E-01 1.41655E-01
 -1      2207 8.63207E-02 1.33369E-01 5.50702E-02-2.55837E-01-3.27834E-01 5.64049E-01
 -1      2208 1.05478E+00 4.31293E-01 1.81313E-01 4.38057E-01 5.95089E-01 5.75861E-01
 -1      2209-1.39663E-01 1.71322E-02-2.46406E-01-1.17463E-01-6.46277E-01 5.86720E-01
 -1      2210 1.94204E-01 1.56898E-02-8.99030E-02-1.99210E-01 3.06889E-03-7.55425E-02
 -1      2211-1.35973E+00-7.51758E-01-4.47403E-02 3.02375E-01 1.38902E-01-7.17944E-02
 -1      2212 6.00445E-01 2.10020E-01 1.68413E-01-1.11383E-01-2.48956E-01 1.27580E-01
 -1      2213 5.71627E-01 4.23762E-01 1.55263E-03 3.24635E-01 7.25406E-03 1.87333E-01
 -1      2214 8.93694E-01 2.39065E-01 1.41581E-01-2.13474E-01-1.10565E-01-1.28049E-01
 -1      2215 4.10361E-01-4.77082E-01-3.70468E-01 1.32866E-01 3.34951E-02-1.19680E-01
 -1      2216 3.46997E-01 3.65218E-01 2.38064E-01-1.26193E-01-8.61397E-02 2.16961E-01
 -1      2217 1.01960E-01-2.72391E-01 3.58646E-02 3.93152E-02-7.70635E-02-1.74158E-01
 -1      2218 7.84526E-02 1.07994E-02 1.27316E-01-1.56145E-03-5.37982E-02 5.02193E-02
 -1      2219 1.71710E-01 2.15647E-01 2.51262E-01 7.70671E-02-2.93461E-01 2.03583E-01
 -1      2220 1.27761E+00 6.43741E-01 1.56990E-01-2.21741E-01-9.03262E-02-9.72183E-02
 -1      2221-6.83921E-01-4.63343E-01-1.83690E-01-3.32978E-01 2.11925E-01-6.67465E-03
 -1      2222-1.16727E+00-4.07121E-01-2.87795E-01 1.45001E-01-4.04483E-02 3.54338E-02
 -1      2223 1.11256E-01-1.38104E-01-7.74511E-02-8.51114E-03-3.94073E-02-3.54426E-02
 -1      2224-1.57606E-01-4.34190E-02 9.80096E-02-1.09935E-01 3.92429E-02 5.31127E-02
 -1      2225 5.61805E-01 2.45669E-01 6.64266E-02 3.42029E-01 7.46358E-02-2.61019E-01
 -1      2226 2.42066E-02-3.04236E-01 2.71529E-01-6.30104E-02 2.39304E-01 1.17765E-01
 -1      2227-1.31185E-01-6.53739E-02-1.24769E-01-1.63626E-01 3.49805E-03 1.13603E-02
 -1      2228 4.02473E-02-1.04975E-02 1.28994E-01 1.02047E-01 1.59521E-01 9.41665E-02
 -1      2229 6.92627E-01 2.24182E-01-8.21093E-03 2.15104E-01 9.42617E-03-6.08128E-02
 -1      2230 2.89695E-01 5.64672E-01 2.05329E-01 2.71762E-01 1.07030E-01 1.14957E+00
 -1      2231 4.96566E-02 3.65255E-01-2.02002E-02-1.29460E-01-6.88248E-01 6.57850E-01
 -1      2232 5.03273E-01 1.46139E-01 2.06747E-01 1.21279E-01-3.00631E-01 8.89463E-01
 -1      2233 1.02256E+00 5.86145E-01-8.96433E-02 3.22611E-01 1.11904E-01-2.61211E-02
 -1      2234-4.53506E-01-2.48093E-01-1.83526E-01 2.02258E-01-5.03951E-01 6.16572E-01
 -1      2235 1.79932E-02 5.83586E-02-1.85805E-01 3.17513E-01-1.64123E-02 7.76262E-02
 -1      2236 2.70911E-01-9.73671E-02 1.83174E-01-7.71500E-02 2.05843E-01 2.72158E-01
 -1      2237-2.04457E-01-7.81590E-02-8.95999E-02-2.05308E-01-5.59843E-02 3.72011E-03
 -1      2238 1.61759E-01 2.01157E-01 3.14739E-01 4.36221E-01 5.39246E-02-1.00256E-01
 -1      2239-1.38344E+00-4.22972E-01 1.13094E-01 3.26007E-03 9.39194E-02 2.66457E-01
 -1      2240 8.53240E-01 2.12331E-01-1.61323E-01 8.68713E-02 4.18277E-02 5.21874E-01
 -1      2241-1.36376E+00-5.20099E-01-2.56144E-01-4.91860E-02-8.59494E-02-4.95442E-02
 -1      2242-5.94579E-01-1.22401E-01-4.73324E-02-2.26880E-01 1.58249E-01-9.48188E-02
 -1      2243-6.65196E-01-3.33085E-01-2.20799E-01 2.51558E-01-7.56636E-02 4.46765E-02
 -1      2244-5.78590E-01-2.72490E-01-6.87426E-03 1.11276E-01 7.90101E-02 8.52275E-02
 -1      2245-1.43687E-01-6.90294E-02-4.51012E-02 1.93421E-01-2.55791E-02-7.45757E-02
 -1      2246 2.78021E-01 3.19446E-01-1.27870E-02 1.91726E-01 3.14945E-01 6.75636E-01
 -1      2247 2.22310E-03 4.29255E-02 1.40925E-01 1.78300E-01 4.73866E-01 5.03820E-01
 -1      2248 4.52594E-01 2.85180E-01-1.75686E-02 1.12260E-01 2.26812E-02 3.20500E-02
 -1      2249 6.31137E-02-2.62848E-02-6.35879E-02 2.50363E-02-1.00720E-01 4.98879E-02
 -1      2250-2.47321E-01-3.71802E-02 3.59594E-02 1.14992E-01-2.20066E-01 4.12069E-02
 -1      2251-8.92544E-01-3.48142E-01-3.03730E-01 3.10581E-02-1.14648E-01 1.23318E-01
 -1      2252-9.87536E-02-7.81149E-03 1.31401E-01 8.61505E-02-1.48899E-02 7.27615E-01
 -1      2253 2.58795E-01-1.42722E-01-5.43316E-01-2.08630E-01 6.54231E-02 4.48784E-01
 -1      2254-2.42611E-01-3.47491E-01 4.55481E-01 2.32784E-01-2.26709E-01 9.98746E-01
 -1      2255 7.94432E-01 2.36291E-01-5.49288E-02-3.00842E-01 2.32389E-02-2.44532E-02
 -1      2256 8.50788E-01 2.88228E-01 1.20099E-01 4.06096E-01 6.26723E-02 8.49899E-02
 -1      2257-4.48368E-01-1.20327E+00-2.83522E-01-2.93153E-01 6.33189E-01 3.36469E-01
 -1      2258-4.41546E-01-1.52334E-01-2.22637E-01 3.74370E-01-1.70352E-02-1.40979E-01
 -1      2259 5.40506E-01 2.71960E-01 1.45235E-01 1.91958E-01-5.14484E-02 6.04080E-02
 -1      2260 6.94093E-01 5.29782E-01 1.01872E-01-2.55307E-01-1.64443E-01 2.85107E-01
 -1      2261 2.73261E-01-4.73452E-02 4.22237E-02-3.76625E-01-3.03570E-01-5.27917E-01
 -1      2262-5.15965E-01-1.08972E-01 4.80278E-02-5.06521E-02 2.84023E-01 3.70803E-01
 -1      2263 7.53398E-01 4.48418E-01-1.73978E-01-3.82134E-01-2.57935E-02-7.67723E-02
 -1      2264-6.24397E-01-3.91632E-01 1.26020E-02 2.37767E-01-2.05888E-02-4.74477E-02
 -1      2265-5.92418E-01-1.54686E-01-3.49388E-01 7.82798E-02-1.16672E-01-1.12977E-01
 -1      2266-4.53398E-01-8.40551E-02-9.23135E-02 3.51501E-02-2.20088E-01-1.22209E-02
 -1      2267-2.79399E-01-4.65614E-01 1.50888E-01-2.61061E-01 5.81832E-01 9.10645E-01
 -1      2268-7.56689E-01-4.69354E-01-6.67862E-02-1.09762E-01-1.41986E-02-3.83234E-02
 -1      2269-5.72752E-03 1.87409E-02-2.82528E-01 3.55004E-01 5.05180E-03-3.08398E-01
 -1      2270 1.24847E+00 6.18155E-01 3.51320E-01 2.41584E-02-1.04805E-01-6.86029E-02
 -1      2271 3.20906E-02 1.37877E-01 1.09141E-03-3.30808E-02 7.18353E-02 2.26904E-01
 -1      2272 2.72707E-01 6.75503E-02 1.38971E-01 1.22976E-01 1.92007E-01 4.35827E-02
 -1      2273-1.87659E+00-7.09667E-01-1.81001E-01-8.13100E-03-4.15108E-02 1.42294E-01
 -1      2274 4.07340E-02-6.49623E-02 1.85707E-02 5.10191E-02 9.46646E-02-1.89486E-02
 -1      2275 4.87331E-01 2.41909E-01 1.40038E-01-3.87673E-01-1.82743E-02-9.00589E-02
 -1      2276 2.24713E-01 5.34113E-01 4.14826E-02 2.54323E-01 3.08601E-01 6.49887E-01
 -1      2277-1.20464E+00-3.71428E-01-7.93618E-02-1.71483E-01-7.15089E-02 1.37764E-02
 -1      2278-1.41662E-01-1.67276E-01-1.78719E-01-8.35969E-02 3.54008E-03-8.85766E-02
 -1      2279-5.94052E-02 3.98956E-02-1.29022E-01-5.60899E-02 7.93061E-02-6.08494E-02
 -1      2280 6.83493E-01 2.57290E-01 9.74495E-02 3.98202E-01 7.14775E-02-1.25994E-01
 -1      2281 1.94435E-01 7.16597E-02-7.59439E-02-1.48951E-01-1.88532E-01-1.57217E-02
 -1      2282 8.08777E-02 5.65287E-02 9.53538E-02-4.08069E-02 4.51815E-02-1.31697E-03
 -1      2283-3.59287E-02 4.17151E-02-1.34027E-01 1.14602E-01-5.39310E-02 2.74170E-02
 -1      2284-6.55355E-01-4.92850E-01-1.20927E-01-2.45583E-01 6.07686E-02 7.74452E-03
 -1      2285-1.04234E+00-5.56871E-01-1.08371E-01-1.98264E-01 3.33900E-02 1.12849E-01
 -1      2286 1.69315E-01 8.10082E-02 4.37592E-02-1.38004E-01-1.20688E-01-2.54313E-02
 -1      2287 2.01703E-01 2.13347E-01 2.06741E-01 8.41955E-02-2.45714E-02-3.90881E-02
 -1      2288 4.75789E-01 9.16567E-01 6.11886E-01 3.26621E-01 7.39020E-01 5.85518E-01
 -1      2289-3.46215E-01-1.93433E-01 8.20952E-02-4.97984E-02 3.64504E-01 4.42111E-01
 -1      2290-8.66021E-01-3.08320E-01-3.09507E-01 9.23281E-02-2.09893E-01-9.99301E-02
 -1      2291-1.77007E-01-2.44390E-01-5.05513E-02-1.63413E-01-7.23410E-02 4.12825E-02
 -1      2292-5.83126E-01-1.52391E-01-1.29866E-02-7.21165E-02 2.71340E-01 8.01107E-01
 -1      2293-1.70370E-02 1.86754E-02 7.92008E-02-1.52817E-01 8.01781E-02-1.91471E-01
 -1      2294-9.42371E-01-6.30894E-01-1.91375E-01 2.17263E-01-2.39648E-02-4.79218E-03
 -1      2295 5.49998E-01 4.16100E-01 1.29178E-01 2.14946E-01 6.70455E-02 1.41437E-02
 -1      2296-4.58026E-01-1.46901E-01-6.51216E-02 2.18572E-01-1.02459E-01-1.59710E-01
 -1      2297-8.05190E-01-5.06923E-01-1.97002E-01 2.56470E-01-7.58947E-02 1.02917E-02
 -1      2298-2.84609E-01-1.63680E-02-1.83766E-01-7.74069E-02-5.27414E-02-1.39725E-01
 -1      2299 2.90706E-01 9.44214E-02 1.67627E-01 4.37312E-01-1.86920E-01-1.92405E-01
 -1      2300 2.61207E-02-1.80482E-01-5.14427E-02 7.81564E-03 1.23142E-01-1.64735E-02
 -1      2301-9.63766E-01-1.32839E-01-2.36201E-01-2.60872E-01 4.48735E-01-6.87186E-02
 -1      2302-9.56913E-01-4.17276E-01-2.75706E-01-3.36932E-01 4.15856E-01 8.25156E-01
 -1      2303-2.81496E-01-1.83435E-01 3.09219E-01-2.30512E-02 1.98466E-01 7.50539E-02
 -1      2304-3.89689E-01-3.09566E-01-2.80879E-01 1.11566E-01-3.33576E-01 5.35545E-01
 -1      2305-1.19147E+00-5.54454E-01-1.21689E-01-2.80905E-01 1.38120E-03-6.11955E-02
 -1      2306 1.20378E+00 4.33104E-01 8.14511E-02 3.84774E-01 4.37314E-02 5.62563E-02
 -1      2307 6.98018E-02-2.66095E-03-3.17025E-02 3.10898E-01-1.72112E-02-2.28212E-01
 -1      2308-1.29840E-01-1.77081E-01-3.68401E-02-9.44353E-02 2.29847E-01-1.06393E-02
 -1      2309-5.68130E-01-2.02639E-01-1.85647E-02 4.61737E-01 2.64268E-02-2.54594E-01
 -1      2310 1.45077E-01 2.38967E-01 5.93323E-02-2.02591E-01-2.56167E-01 3.02105E-01
 -1      2311-9.32560E-02-8.09917E-02-1.65407E-01 8.44947E-02-6.36882E-02 4.69215E-02
 -1      2312 5.95078E-01 1.69755E-01-1.71954E-03 5.24662E-01-5.33048E-02-7.90827E-02
 -1      2313 1.74480E-01-2.01351E-02 4.69538E-02-2.47895E-02-2.93758E-01-1.37777E-03
 -1      2314-6.28477E-01-6.25767E-01-3.40066E-01 3.40406E-01-4.15622E-01 1.13621E+00
 -1      2315-1.15079E+00-5.32986E-01-3.76601E-02 3.40267E-01-1.39542E-01-8.91389E-03
 -1      2316-1.04651E+00-6.37935E-01-3.87792E-01 2.06177E-01-6.80721E-02-1.47424E-01
 -1      2317 5.12727E-01 1.15054E-01-4.10827E-02 3.86629E-01 8.05211E-02-2.41059E-01
 -1      2318 5.97485E-01 5.43004E-02-7.07063E-02 4.90202E-01-4.22886E-02-2.03404E-01
 -1      2319 3.88970E-01 4.15828E-01 8.47821E-02 1.16596E-03 6.50706E-03-2.83608E-02
 -1      2320 9.98101E-01 4.01888E-01 2.22618E-01 1.88995E-02-2.88187E-02-8.49930E-02
 -1      2321-1.19416E-01-4.29185E-01 2.66293E-03-4.21774E-02 1.33880E-01 1.15449E-01
 -1      2322-6.26939E-01-2.15812E-01-4.16750E-02 2.10357E-01-8.04857E-01 7.10138E-01
 -1      2323-1.20165E+00-2.85298E-01-1.62599E-01 2.07690E-01-6.21725E-02-2.85475E-01
 -1      2324 4.72970E-01 4.31125E-01-4.36364E-02 2.77991E-01 9.15133E-02-2.76217E-03
 -1      2325-7.08063E-02-2.05858E-01-1.27855E-01-1.52975E-01 2.89171E-01 4.22555E-01
 -1      2326-2.37427E-01-3.81855E-01-7.20761E-02 1.00331E-01-5.27056E-02-2.30934E-02
 -1      2327-5.16518E-01-3.27766E-01-8.04103E-03-3.04640E-02 3.96230E-03-7.82906E-03
 -1      2328 4.24460E-01 2.23866E-01-2.15181E-02 1.43252E-01 5.97700E-02 4.45448E-01
 -1      2329-1.10694E-04 1.91769E-02-1.81318E-01 1.84168E-01-3.49444E-01 5.37312E-01
 -1      2330-2.49486E-01 7.07501E-02-1.10545E-01-6.42061E-02 1.22894E-01 8.35207E-01
 -1      2331 9.28805E-02-1.21911E-01 2.52064E-02 9.29550E-02 1.11383E-01 7.43454E-03
 -1      2332-2.80449E-01-8.07526E-02 4.76035E-02 3.55773E-01-1.43758E-01-1.66496E-01
 -1      2333-3.54469E-02-3.84087E-03 2.64240E-01 3.25131E-02 4.31183E-01 9.98381E-01
 -1      2334 2.35590E-01 9.12143E-02-1.73755E-01-1.88214E-01-1.62083E-01-1.87051E-01
 -1      2335 9.04594E-02-2.00236E-01 4.54789E-02-2.34920E-02-2.90528E-01 2.89413E-01
 -1      2336-8.31685E-02-2.73972E-02-1.89942E-02 1.82336E-01-4.58667E-02 5.68501E-02
 -1      2337-1.91416E-02 3.00474E-02-4.24659E-02-7.01002E-02 3.58148E-02-2.92628E-02
 -1      2338-6.16852E-02 1.95074E-01 9.26916E-02-1.10249E-01 3.44542E-01 8.27965E-02
 -1      2339-2.22710E-01-2.28784E-01-2.64554E-01 2.42634E-01-1.40637E-02-1.42934E-01
 -1      2340-4.31539E-02-1.76605E-01-3.18148E-02-5.43364E-03 8.12527E-02 5.32300E-01
 -1      2341 2.07064E-01-1.25769E-01-1.51099E-01 2.59626E-01 2.53375E-01 7.32792E-01
 -1      2342 1.07843E+00 2.98489E-01 4.42787E-02 1.94888E-01 4.26298E-02 7.99050E-03
 -1      2343 1.22638E+00 5.00113E-01 2.96287E-01-1.83114E-01-2.94841E-02-7.32852E-02
 -1      2344 1.34221E+00 5.69866E-01-6.08360E-02-1.97554E-01-1.72250E-02-2.08649E-02
 -1      2345 3.92733E-01 3.36887E-01 7.19097E-02 2.51769E-01-8.79078E-02 3.72495E-03
 -1      2346-2.87903E-01-2.88366E-01-9.31120E-02-5.14393E-02 4.05354E-03-5.37113E-01
 -1      2347 1.54360E+00 5.73939E-01-7.86209E-02 1.00565E-01 1.76949E-01 9.88786E-02
 -1      2348 1.47529E+00 6.41017E-01-2.99814E-01-4.01745E-01-2.67094E-01 4.94516E-02
 -1      2349 1.30781E+00 4.98779E-01 2.19374E-01-2.41539E-01 2.75392E-03 1.06081E-01
 -1      2350 1.04403E-01 4.25371E-01 2.32438E-01-1.45708E-01 1.35947E-01 5.96828E-02
 -1      2351 9.67568E-02-4.39868E-02 1.18413E-01-1.95017E-02 1.73967E-01 9.27435E-02
 -1      2352-1.82477E-01 1.99202E-02 2.55645E-02-7.73035E-02 3.63398E-01 4.85386E-01
 -1      2353-1.00286E+00-1.99336E-01 8.92013E-02 2.43759E-01-3.29464E-02 3.49963E-02
 -1      2354-3.56253E-01-7.44507E-02 5.02944E-02-1.90238E-02-3.33466E-01 1.63402E-01
 -1      2355-2.37744E-01-1.12298E+00-4.32578E-01-6.44787E-01 1.64747E-01 8.00183E-01
 -1      2356-1.38531E-01 7.15271E-02 8.86845E-02-1.10183E-01 1.33595E-01-3.49505E-02
 -1      2357 1.30919E+00 5.52508E-01 4.22275E-02 4.27948E-02 8.96425E-02-4.80279E-02
 -1      2358 1.20330E+00 2.52922E-01 2.42018E-01 1.27458E-01-1.14809E-02-4.88662E-04
 -1      2359 1.56565E+00 7.20524E-01 1.97485E-01-1.59085E-01-4.08952E-02-1.65984E-02
 -1      2360-5.04192E-01-2.38951E-01 3.05805E-01 3.52446E-01 3.27513E-02-4.23015E-02
 -1      2361 3.31845E-02 1.67681E-01 1.65544E-01 1.55199E-01 8.61940E-02 7.75680E-01
 -1      2362 8.62179E-02 1.44637E-01 1.00476E-01 2.35236E-01 5.67443E-02 7.97548E-01
 -1      2363 8.95919E-01 5.19725E-01-2.13014E-02 3.30484E-01-7.50047E-03-4.75457E-02
 -1      2364 6.40779E-02 5.93762E-02 5.01166E-02 2.52866E-02-1.14582E-02-4.60348E-01
 -1      2365 3.23620E-01 2.76123E-01 4.11109E-02-1.84570E-01-4.54814E-02-1.49514E-01
 -1      2366 1.36444E+00 5.67797E-01 1.39605E-01 2.11712E-02 1.18214E-01 1.51782E-01
 -1      2367 5.72098E-01 3.72193E-01-3.75929E-02-1.89605E-01-5.85473E-02 3.90028E-01
 -1      2368-1.34264E-01-1.84149E-01-1.27120E-01 3.19686E-02 2.26770E-01 4.21706E-01
 -1      2369 3.83927E-01 8.50615E-02-3.94786E-02 1.16812E-01-1.80883E-01 4.89874E-01
 -1      2370 2.67346E-01 2.54387E-01 1.01438E-01-5.24804E-02 3.24061E-02-4.86197E-01
 -1      2371-4.56248E-01-1.64020E-01 2.24198E-01-3.57756E-01 1.77451E-01-4.79687E-01
 -1      2372-3.09730E-01-3.30911E-02 7.06163E-02 2.55447E-01-3.63770E-01 6.16391E-01
 -1      2373 2.70114E-01 1.08503E-01-1.71806E-02-8.53475E-02-3.65107E-02-4.22743E-01
 -1      2374-3.90648E-01-2.74359E-01 3.75750E-02-2.38781E-01 4.82349E-02 8.15427E-02
 -1      2375 1.21464E+00 4.32148E-01 2.78331E-01-9.54580E-02-2.88607E-02-3.83211E-02
 -1      2376-3.07206E-02 4.44336E-02 6.30154E-02-2.84504E-02 3.51265E-02 2.53164E-02
 -1      2377-4.87254E-01-5.22211E-02-3.58183E-02-3.22497E-01 2.24144E-01-3.29275E-01
 -1      2378-7.14943E-01-1.70470E-01-4.09219E-02 2.95112E-02 6.31151E-02-4.21903E-01
 -1      2379-2.58118E-01-1.00592E-01-2.35266E-02 8.63028E-02 2.69200E-02-4.42844E-01
 -1      2380-5.03054E-01-1.70060E-01-1.38292E-01-3.07904E-01 5.06235E-02-1.35646E-01
 -1      2381 1.12587E+00 5.72720E-01 4.67146E-01-2.89959E-01 4.99362E-02-1.56024E-01
 -1      2382-7.68900E-01-3.52297E-01-3.38881E-01-9.73169E-03 1.82132E-01 1.01570E-01
 -1      2383 4.67440E-01 1.61002E-01 1.53306E-02 5.26152E-01 3.88851E-02-6.23463E-02
 -1      2384 8.32299E-01 1.84622E-01 4.60354E-01-1.94581E-01-5.79708E-02 1.03088E+00
 -1      2385 6.35857E-01 2.54562E-01 1.11110E-01-6.14396E-02-8.17684E-03-4.61356E-01
 -1      2386 4.50717E-01 5.20278E-01-1.18565E-01 2.12917E-02 9.29900E-02 3.19544E-01
 -1      2387-8.22610E-01-3.16068E-01-9.69506E-02 2.43551E-01-2.10848E-01-2.93435E-01
 -1      2388 1.46999E-02-1.21754E-01-1.96027E-02 1.95233E-02 3.66061E-01 4.03430E-01
 -1      2389-5.98626E-03 2.86105E-02-4.46700E-02-7.32989E-02 4.36435E-01 5.22549E-01
 -1      2390 4.52813E-01 5.06200E-02 1.22600E-01-3.95461E-01-1.64524E-01-2.03438E-01
 -1      2391 3.91677E-01 2.63846E-02-3.28314E-02 2.78347E-01 2.45357E-01-4.29911E-02
 -1      2392-3.21016E-01-4.53678E-02 1.07276E-01-2.88232E-01 2.66050E-01 4.42952E-01
 -1      2393 3.55336E-01 4.13000E-01 5.55467E-02 2.00315E-01 2.28954E-01 2.34928E-01
 -1      2394-1.27495E+00-5.42312E-01-2.57899E-01-1.81607E-02 5.69432E-02 1.09656E-02
 -1      2395-1.34709E+00-5.41708E-01-7.07912E-02 2.80323E-01 7.44135E-02-1.44377E-01
 -1      2396 1.22569E+00 2.27375E-01 1.53860E-01-7.21034E-02-4.10153E-02-5.74748E-02
 -1      2397 1.22564E+00 2.21051E-01 1.35243E-01-1.15769E-01-4.35061E-02-8.60472E-02
 -1      2398-1.70043E-01-5.80977E-01-1.04267E-01-8.96209E-02 4.20245E-01 9.19053E-02
 -1      2399 1.26299E+00 1.79519E-01 5.96431E-02 1.05863E-01 1.52768E-02-9.16881E-02
 -1      2400 1.31587E+00 4.08590E-01-6.27525E-02 4.45481E-02-1.92269E-01 9.18939E-02
 -1      2401 1.09987E-01 8.70574E-02-1.74500E-01-9.27930E-02 1.15632E-01 7.14542E-01
 -1      2402 1.21410E+00 5.76568E-01 1.18466E-01-3.65318E-02-1.05272E-02-1.34560E-01
 -1      2403-3.77250E-01-3.56169E-01 9.38222E-03-1.00110E-01-2.46701E-01 5.22270E-01
 -1      2404-3.11414E-01-1.55528E-02-2.77432E-02 1.20730E-01-1.92673E-01 7.27445E-01
 -1      2405 1.45650E-01 2.49197E-02 6.70284E-02-1.69580E-01 1.97981E-03 6.14109E-02
 -1      2406 3.83958E-01 2.36209E-01-8.11724E-02 2.47292E-01 5.08846E-02-8.40212E-02
 -1      2407-1.74950E-01 1.46133E-01 7.38623E-02-1.37037E-01 2.77502E-02-4.56388E-02
 -1      2408 5.32869E-02 6.52700E-02 1.59698E-01-4.36994E-02 1.42661E-01 1.42754E-01
 -1      2409-1.30473E-01 9.69109E-02 3.74720E-02-2.31830E-02 4.16358E-01 3.42242E-01
 -1      2410-9.95175E-02-3.29490E-01-4.56065E-02-2.27187E-02-3.21156E-01 8.69052E-02
 -1      2411 1.64242E-01 1.64469E-01-1.83325E-02-1.28927E-01-1.29296E-01 2.04157E-02
 -1      2412-2.99580E-01-1.77668E-01-8.99804E-02 5.32178E-02 3.28030E-01 5.88687E-01
 -1      2413-1.08928E+00-3.90036E-01-2.66857E-01-2.85398E-01 7.38073E-02 1.40408E-02
 -1      2414-9.25966E-01-5.76506E-01-1.02656E-01 2.78093E-01-1.05722E-02-3.00741E-02
 -1      2415-5.87108E-01-8.83789E-02 6.06919E-02 2.14834E-02-3.83112E-01-2.81760E-02
 -1      2416-8.46426E-02-1.57249E-01-1.53181E-01 1.19874E-01-2.49410E-01-5.65444E-03
 -1      2417-1.41366E-02 1.61176E-01-4.00353E-02 6.99833E-02-1.21162E-01 2.82552E-02
 -1      2418 1.07859E+00 5.38461E-02-3.82832E-01-4.51061E-02-6.18905E-02 8.98295E-01
 -1      2419-4.23992E-01-1.58623E-01-2.24381E-01-9.37587E-02 3.36009E-01 9.14306E-02
 -1      2420-3.16658E-01 1.20124E-01 1.00551E-01 9.78166E-02-3.95030E-01 8.21088E-02
 -1      2421-5.57075E-01-3.88054E-01-2.94902E-01-2.76319E-01 1.81766E-01 5.18626E-01
 -1      2422 9.46903E-02 1.11678E-01 3.01765E-02-1.37438E-01-4.52343E-02-9.10122E-02
 -1      2423 3.04728E-01-2.60898E-02 4.33669E-02-2.14858E-01-2.08749E-02-2.19903E-01
 -1      2424 1.46525E+00 6.90970E-01 5.34901E-02-9.76044E-02 7.15561E-02 1.15540E-02
 -1      2425-1.30217E+00-5.32918E-01-3.63645E-01 6.36897E-02-5.22271E-02-1.68132E-02
 -1      2426-2.63600E-01-2.40300E-01 1.04863E-01-3.37757E-01-3.61890E-02-4.95298E-02
 -1      2427 8.33631E-02-2.87859E-01-8.25619E-02 1.62770E-01-1.17609E-01 2.62591E-01
 -1      2428 4.95300E-01 4.81216E-01 1.56752E-02 1.07080E-01 3.26463E-02-7.02271E-02
 -1      2429 1.86244E-01-6.46596E-02 1.24823E-01-3.42308E-02-7.43977E-01 5.89216E-01
 -1      2430 1.77794E-01 1.31491E-01-1.85191E-01 1.71403E-02-2.66130E-01 8.76888E-01
 -1      2431 1.01070E-01-6.13291E-01-4.73883E-02-5.53706E-02 1.42766E-01-2.80974E-01
 -1      2432-2.79907E-02-1.13006E-01 2.29947E-02-7.02137E-02 4.63572E-01 2.21817E-01
 -1      2433-3.28369E-01-3.85905E-01-8.60921E-02-3.38547E-01 3.49984E-01 9.19892E-01
 -1      2434-1.00929E+00-6.99819E-02-1.58126E-01-2.47417E-01 5.23092E-02-1.52568E-01
 -1      2435-1.56655E+00-4.93074E-01-2.57266E-02-1.89340E-01-5.93162E-02-1.84042E-01
 -1      2436-5.63942E-01-4.65374E-01 3.45042E-02 1.38979E-01 2.69335E-02 1.62243E-01
 -1      2437-4.16413E-01-2.52883E-01-1.54861E-01 6.04553E-02-9.78368E-02 3.72465E-01
 -1      2438-3.10846E-01-1.91286E-01-8.65467E-02-2.80726E-01 4.62047E-02 9.99785E-02
 -1      2439 2.72217E-02-1.33933E-01 1.83655E-01 1.14700E-01 3.25272E-01 2.57004E-01
 -1      2440 9.02022E-01 1.99797E-01 1.41738E-01 5.55397E-02 5.62786E-02-1.75726E-02
 -1      2441 8.45373E-02-1.78524E-01 9.27416E-02 1.40617E-01 1.31982E-01 5.21625E-02
 -1      2442-1.11352E+00-2.99025E-01-4.53530E-02 3.42093E-01 5.64588E-03-1.91169E-01
 -1      2443-6.23461E-01-2.61903E-01-2.17063E-01 4.45634E-01-5.72955E-02-2.23526E-01
 -1      2444 7.84439E-01 3.02187E-01-5.01290E-03-1.64866E-01-6.98493E-02 5.81547E-01
 -1      2445 7.50008E-01 4.06672E-01 7.39291E-02 3.12725E-01 3.96366E-01 6.58879E-01
 -1      2446-1.01205E+00-3.73428E-01 3.22038E-01-2.94110E-01-2.65481E-01 1.54287E-01
 -1      2447 1.02127E+00 2.24024E-01 1.82173E-01-1.92218E-01 2.06287E-02-3.31178E-02
 -1      2448 4.89520E-01 3.87936E-01 1.43954E-01-1.56777E-01-3.75616E-02-2.01711E-02
 -1      2449 5.11874E-01-1.33481E-02 4.04678E-03-6.94064E-02-1.01298E-01 7.31701E-02
 -1      2450-8.26331E-01-3.26137E-01-7.70720E-02 2.01321E-01-1.78977E-01-4.61919E-02
 -1      2451 2.45123E+00 1.21017E+00-4.48457E-01 2.93152E-02-1.78318E-02 5.86755E-02
 -1      2452-4.99193E-02-3.11515E-01-1.53889E-02-2.50914E-01 4.16791E-01 3.62824E-01
 -1      2453 8.35858E-02 1.84120E-01 2.09757E-01-1.08712E-01 3.32373E-01 3.05007E-01
 -1      2454 1.53149E-01 4.28464E-01-1.88130E-02 1.27828E-01 6.22805E-01 4.32872E-01
 -1      2455 5.21802E-02 2.97944E-01-1.82025E-02 1.47116E-01 7.09608E-01 4.19592E-01
 -1      2456-9.62285E-02 6.42023E-02-6.27562E-02 1.45629E-01 4.57883E-01 3.37253E-01
 -1      2457-1.24137E+00-6.12972E-01-4.10081E-01 2.52675E-02 2.05177E-02-4.25904E-02
 -1      2458-4.96220E-01-8.50987E-02 1.76975E-02-9.93829E-02-4.16068E-01 3.93635E-01
 -1      2459-1.08638E+00-4.60404E-01-1.54213E-01 3.52992E-02-7.31928E-02 7.88424E-02
 -1      2460-7.97978E-01-5.24223E-01 1.38167E-01 1.35439E-02 9.93257E-02 2.19570E-01
 -1      2461-2.32952E-01-1.05942E-01 1.66675E-01 1.13533E-01-5.26537E-01 8.15640E-01
 -1      2462-8.52836E-01-4.00222E-02 3.79113E-01-1.26093E-01-5.79841E-02 4.04942E-02
 -1      2463 4.83316E-01 2.89355E-01-6.73832E-02-3.38770E-01-1.16115E-01-1.78659E-01
 -1      2464-9.31357E-02 5.85343E-01-1.05038E-01 2.38343E-01-2.52820E-02 4.44528E-01
 -1      2465-3.81048E-01-4.56330E-01 1.00865E-01 1.71172E-01 2.98718E-01 7.52212E-01
 -1      2466-1.07663E+00-1.28338E-01-9.48616E-02-1.00416E-01 8.05802E-02-1.15490E-01
 -1      2467-1.25571E-01-3.35289E-03-9.22317E-02 2.74712E-01 9.57337E-02-3.56858E-01
 -1      2468-2.27682E-01-2.50496E-01-1.88174E-02 3.70344E-01 7.90187E-02 9.33079E-03
 -1      2469-3.06314E-01-1.08853E+00-2.78356E-01 3.18592E-01-7.26387E-01 5.01630E-01
 -1      2470-1.23015E-01 1.48740E-01 4.40397E-02 1.63540E-02 3.99945E-01 1.60632E-01
 -1      2471 3.57560E-01 2.22962E-01 1.07520E-01-2.87540E-01 2.01474E-02-4.72420E-02
 -1      2472 3.01513E-01 2.56548E-01 1.72426E-02-1.09048E-01 4.41982E-02 3.98834E-02
 -1      2473 4.48598E-01 3.31744E-01-1.17354E-02-1.89188E-01-3.27552E-01 3.11960E-01
 -1      2474 7.70025E-01 1.60151E-01 4.20971E-01-1.82227E-01 2.09712E-01 5.91903E-01
 -1      2475-4.05664E-02-1.82449E-01 1.96200E-02 8.26962E-02 5.17523E-02-1.33579E-02
 -1      2476 2.84164E-01 4.99920E-02 1.13287E-01 6.02679E-02-9.78872E-02 4.97494E-02
 -1      2477-1.58879E-01 2.40158E-01-3.54473E-02-2.77681E-02 1.65544E-01 1.40294E-01
 -1      2478 1.58924E-01 8.48036E-02 6.06602E-02-5.04171E-02 2.12936E-03 4.04065E-02
 -1      2479-1.81820E-01-2.62375E-02-2.36428E-01-2.68579E-02 5.51292E-02 8.76066E-02
 -1      2480-1.62355E-01-2.01157E-01 3.37074E-02 2.95650E-02-6.43421E-02-1.34035E-01
 -1      2481-1.70991E-01 3.26864E-03-2.87632E-02-1.72823E-02 1.85432E-01 1.01492E-01
 -1      2482 3.02623E-01 2.64234E-01 9.75040E-02-2.53779E-01 1.34668E-02 7.86372E-02
 -1      2483 5.88516E-01 3.29433E-01 5.45637E-02-4.02639E-01-1.02291E-01-1.33448E-01
 -1      2484 1.02120E+00 1.46540E-01 1.18234E-01-2.31714E-01-1.03792E-01-1.42188E-01
 -1      2485-9.73342E-01-2.59515E-01 1.05303E-02 9.55008E-02-4.39593E-02-7.97763E-02
 -1      2486-1.49566E-01-1.29052E-02-7.28546E-02-3.81790E-02 3.51306E-02 5.54970E-02
 -1      2487-6.04547E-01-4.21466E-01 2.97293E-01 2.12207E-01-6.20641E-01 3.58513E-01
 -1      2488 1.20880E-01-2.53394E-02 1.48129E-01-3.39731E-02-1.10647E-01 2.88325E-03
 -1      2489 2.92834E-01-6.75083E-03 1.02323E-01-1.16493E-02 3.40070E-01 4.44270E-01
 -1      2490 4.17351E-01 1.13905E-01 1.80094E-01-1.05983E-01-7.25607E-02 8.31017E-01
 -1      2491-1.10944E-01 3.89020E-02-6.26053E-02 8.23601E-02-8.20908E-02-1.17783E-01
 -1      2492 1.27450E+00 4.80043E-01 2.08027E-01 1.29757E-01-5.20578E-03-3.49111E-02
 -1      2493-1.11744E-01-1.38848E-01 7.19311E-03-9.36460E-02 1.07269E-01-8.50513E-02
 -1      2494 1.00530E+00 4.85333E-01 2.20367E-01 2.23015E-01 1.79633E-01 5.93296E-02
 -1      2495-3.67919E-01 2.47919E-02 2.36737E-03 4.09122E-03 1.04320E-01-7.87596E-03
 -1      2496 3.71386E-02-8.99190E-02-2.22709E-02 5.11718E-02 2.74453E-01 2.34342E-02
 -1      2497 9.35082E-02-3.31374E-02 3.27145E-03-1.15133E-01-7.90052E-02-6.40856E-02
 -1      2498-1.53310E-01-1.67744E-01-1.59024E-02-5.69126E-02 1.85154E-02-4.35519E-01
 -1      2499 5.23192E-01 1.58497E-01-9.45157E-03 3.28592E-01 3.99269E-01-8.19204E-02
 -1      2500 9.35231E-02-2.43727E-01-1.56843E-01 9.63776E-02 5.65671E-01 1.86899E-01
 -1      2501-1.07538E-01-6.23365E-02 1.21320E-01 2.46786E-02-2.08843E-01 5.44503E-02
 -1      2502 3.62450E-01 3.34130E-01-3.17856E-01 2.07595E-01 8.15042E-01 7.92051E-01
 -1      2503 1.55209E-01-1.80429E-01 1.43792E-01-1.77517E-01 2.35848E-01 2.74040E-01
 -1      2504 3.13381E-02 1.57397E-01-1.67496E-01-1.73282E-01 3.35815E-01 6.36018E-01
 -1      2505-1.03926E-02 1.97332E-01-4.67075E-02 1.74434E-01-1.06511E-01 4.60377E-01
 -1      2506-8.13845E-01-4.02362E-01 1.52368E-01-3.16997E-02-8.10199E-02-2.99272E-01
 -1      2507 2.80029E-01 1.66421E-01 1.14168E-01-2.84609E-01 4.30145E-02-7.32223E-02
 -1      2508-1.11604E+00-2.40297E-01 1.14104E-01 2.78957E-01-1.42317E-01-2.47970E-01
 -1      2509 3.31111E-01 1.81957E-01 4.54849E-02-3.60507E-01 6.79315E-02-1.68429E-01
 -1      2510 6.40345E-01 2.26655E-01 5.13714E-02-4.31484E-01-4.08829E-02-6.64458E-02
 -1      2511-2.43524E-01-6.12913E-02 2.56361E-01 4.02785E-01 8.89267E-02-3.29401E-01
 -1      2512-1.27573E-01-5.98280E-01-6.44151E-02 9.84334E-02-3.49417E-01 1.86357E-01
 -1      2513 5.54213E-01 4.00947E-01 3.02498E-01 3.06266E-01 2.65120E-01 8.27129E-01
 -1      2514 3.06474E-01 2.89110E-01 5.45712E-02 4.35357E-01-7.42786E-02-1.55108E-01
 -1      2515 6.53303E-01 3.85879E-01 1.87595E-01 5.79613E-02-2.40960E-02 1.14561E-01
 -1      2516 7.84803E-01 3.00673E-01 3.14568E-02-9.22408E-02-8.48999E-02-7.31887E-02
 -1      2517-1.21938E+00-6.68692E-01-2.69237E-01-3.12939E-01 1.87003E-02-1.91444E-01
 -1      2518-7.41851E-02-3.45859E-01-2.68189E-02 2.99538E-01-2.79119E-01 4.50676E-01
 -1      2519 8.22595E-02 1.55067E-01 3.10049E-02 1.45497E-01-3.32649E-01 5.10450E-01
 -1      2520-4.06721E-02 3.89067E-02-1.70628E-02-5.34473E-02-1.43301E-02-5.47288E-02
 -1      2521-4.29100E-01-3.00385E-01 2.91804E-01 1.21390E-01-2.80171E-01 1.64127E-01
 -1      2522 1.19578E+00 5.35149E-01 1.85234E-01-1.08337E-01-1.23241E-01 1.25279E-01
 -1      2523-7.98402E-02-1.24387E-01 1.64942E-01 1.58592E-01 1.90124E-02-5.52258E-02
 -1      2524-1.02328E-01-2.78332E-01-2.93155E-01 9.94706E-02-4.98215E-02 5.45434E-02
 -1      2525 2.41889E-01 1.40793E-01 2.08646E-01 9.06469E-02 8.03523E-02 8.37173E-02
 -1      2526-2.95120E-01-1.38978E-01-1.32658E-01-1.69949E-01 3.53165E-01 2.28705E-01
 -1      2527-9.06504E-01-3.91874E-01-5.69337E-02 2.84442E-01 7.83017E-02-4.72744E-02
 -1      2528 3.89184E-01 1.43212E-01-6.92273E-02-4.76512E-02-2.05573E-01 3.82487E-01
 -1      2529-1.38844E+00-4.89027E-01-2.80370E-03-6.78542E-02 3.86704E-02-5.99477E-02
 -1      2530-1.09195E+00-3.85916E-01-4.51902E-02-3.35280E-01-7.09423E-02 1.21145E-02
 -1      2531-6.45015E-01-4.49223E-01-1.51710E-01 1.48605E-01 3.64645E-02-1.17494E-01
 -1      2532 1.61605E-01 1.87283E-01 8.86896E-02-2.54810E-04 3.90444E-02 6.97898E-02
 -1      2533-6.75621E-01-1.67106E-01-6.03212E-02-2.12867E-01-3.06640E-02-9.11267E-02
 -1      2534 7.72804E-01 4.83517E-01 1.57856E-01 3.40196E-01-5.30352E-02 1.77765E-02
 -1      2535-3.94346E-01-2.14485E-01-1.63567E-01-1.65521E-01 9.98615E-03-1.52694E-01
 -1      2536-7.09190E-01-3.26003E-01 2.09557E-01-2.18524E-01 1.53956E-01 6.90265E-01
 -1      2537-7.39262E-01-6.12126E-01-1.42080E+00-1.10613E-01-3.56311E-02-5.90231E-02
 -1      2538-2.18370E-01-3.71071E-02 1.43249E-01-2.93533E-01-8.43365E-02-2.16305E-01
 -1      2539-3.49825E-02-1.80382E-01 9.24926E-02-1.65686E-01 3.24963E-01 3.53408E-01
 -1      2540 7.53450E-02 9.97100E-02-1.90022E-02-3.03458E-01-1.72754E-02-2.38705E-01
 -1      2541 3.54107E-01 1.86202E-01 5.58409E-02-1.81381E-01-3.13798E-02-3.19687E-01
 -1      2542 6.01411E-01-4.71080E-02 3.13950E-01-3.08775E-01-2.45885E-02-5.90157E-02
 -1      2543 6.54335E-01 2.67331E-01 1.47824E-01-3.50997E-01-2.31679E-02-1.61070E-01
 -1      2544 6.25608E-01 5.66146E-01-5.75387E-02-6.74516E-02 1.01635E-01 3.33502E-01
 -1      2545 3.12257E-02 7.08760E-02 2.29801E-02-1.30703E-01-1.68611E-02 1.26281E-02
 -1      2546 1.21170E+00 3.79539E-01 1.64508E-01 9.80646E-02 3.28817E-02-1.53176E-02
 -1      2547-1.20440E-01 1.33319E-01-7.54780E-02-1.07845E-01 2.15068E-01 2.61981E-01
 -1      2548-2.28208E-01-2.99422E-01-1.83044E-01-2.90289E-01 1.09167E-02 3.46331E-03
 -1      2549-6.29227E-01-4.88098E-01-5.81483E-01-1.36141E-01 7.56670E-01 5.95847E-01
 -1      2550-3.58996E-01-7.15136E-02 5.78463E-02-3.60538E-01-5.85439E-02-1.48580E-01
 -1      2551-2.25868E-01-1.88172E-01-7.26245E-02-1.33920E-01 1.03843E-01-9.17411E-02
 -1      2552 1.42739E+00 5.70685E-01 9.58794E-02 2.60982E-01-3.08030E-02-1.13399E-01
 -1      2553 1.23358E+00 6.15124E-01 2.81685E-01-6.61033E-02-2.74460E-02 9.49913E-02
 -1      2554-7.80208E-02 1.88040E-01 1.45313E-01-3.33825E-01-2.59281E-02 3.51410E-02
 -1      2555 1.59837E-01 1.58368E-01-1.84075E-01-3.80166E-01 6.45161E-02-1.37955E-01
 -1      2556-6.08363E-02-9.89082E-03-2.98630E-01 1.15625E-01 1.64656E-01-1.50840E-01
 -1      2557 4.61888E-01 1.17419E-01 2.34371E-01-9.26021E-02-1.77178E-01-1.44556E-01
 -1      2558-8.95644E-01-5.00389E-01-2.27361E-01-1.88834E-01 3.85879E-02-3.42375E-01
 -1      2559-5.04357E-01-3.07479E-01-1.95403E-01-1.79807E-01 3.55756E-02 3.82126E-01
 -1      2560-1.15504E+00-4.98158E-01-9.36313E-02 8.36079E-02 1.42167E-02 8.82782E-03
 -1      2561-6.99535E-02-5.82315E-02 2.31046E-01 1.39943E-01 4.25765E-01 4.55344E-01
 -1      2562 6.83645E-01 2.87272E-01 6.82779E-02-3.84185E-01-7.42751E-02-1.53241E-01
 -1      2563 1.55227E-01 6.48354E-01-8.96274E-02 1.21810E-01 3.13599E-01 5.04533E-01
 -1      2564-6.32249E-02 1.96340E-02-3.57740E-02 1.39131E-01 1.93415E-01 6.78978E-01
 -1      2565 9.86178E-01 7.05788E-01 1.84835E-01 2.93791E-01 3.29094E-01 4.03818E-01
 -1      2566 1.27798E-01-4.53346E-02 2.90441E-02-1.49170E-02-2.29684E-03 1.81878E-02
 -1      2567-1.28230E-01 9.48229E-02-1.17899E-01-1.81359E-02 1.85940E-02 2.27589E-02
 -1      2568 5.68901E-01 1.21709E+00-3.32479E-01 4.40124E-01 6.26408E-01 2.97852E-01
 -1      2569-3.99277E-01-7.64288E-02-2.07736E-01 1.01028E-01-1.39672E-01 5.03401E-02
 -1      2570 6.19216E-01 3.88131E-01-1.31981E-03-3.01118E-01 5.52772E-02-2.29919E-02
 -1      2571-3.20115E-02-2.50648E-03-1.38335E-02-3.77433E-01 1.78230E-03-1.66490E-01
 -1      2572-3.19899E-01-2.35322E-01-6.79617E-02-3.56013E-01 9.19409E-02-9.14654E-02
 -1      2573 4.72073E-01 3.34478E-01 2.61325E-02-3.58441E-01-3.22717E-02-5.21500E-02
 -1      2574-1.27092E-01-6.57405E-02-7.81905E-02-3.58886E-02 2.19760E-01-1.85540E-01
 -1      2575 1.58850E+00 5.48269E-01 1.70994E-01 3.66350E-02-6.43433E-02-8.58770E-05
 -1      2576-1.29975E+00-1.03696E+00 1.88965E-01 5.64073E-01-7.41732E-01 4.77592E-01
 -1      2577 9.90880E-01 3.89912E-01 9.70493E-02-2.56702E-02 1.19169E-01-3.19609E-02
 -1      2578-6.98092E-01-1.31873E-01 8.55461E-02 3.11844E-01-1.03715E-01-1.13642E-01
 -1      2579 7.64409E-01 2.43907E-01 3.05330E-01-1.80753E-01 1.65471E-01 4.80284E-01
 -1      2580-3.18300E-01-2.47459E-01-1.72623E-01-1.39860E-01 1.46562E-01 9.42035E-02
 -1      2581 9.45232E-01 3.97827E-01 3.41780E-01-2.80935E-01 8.09907E-03-2.03841E-01
 -1      2582-2.28381E-01-9.89686E-02-4.71459E-02 2.08881E-01 1.22169E-02-2.41783E-02
 -1      2583-2.84436E-01-3.28035E-02-9.71598E-02-6.97717E-02-3.06264E-02 2.73309E-01
 -1      2584-6.50659E-01-2.31123E-01 9.29336E-02-3.29175E-01 1.08090E-01-1.56749E-01
 -1      2585 2.38363E-01 1.08872E-01 8.82892E-02 9.52390E-02-6.89424E-02-4.22877E-01
 -1      2586 8.82538E-01 5.73030E-01 2.69111E-01 3.48353E-01 8.53037E-02-3.97913E-02
 -1      2587 8.19149E-01 3.71114E-01 2.03822E-01-1.03233E-01-1.04807E-01 9.36678E-02
 -1      2588-8.78093E-01-5.58631E-01-5.50157E-03-1.54432E-01 5.69775E-02 5.31623E-03
 -1      2589-1.02210E+00-2.63210E-01-2.39084E-01-3.22398E-01-2.79325E-02 1.35108E-02
 -1      2590-9.64033E-01-3.80757E-01 2.21587E-01-3.35830E-01 8.37866E-02-1.60339E-01
 -1      2591 2.06327E-01-2.52466E-01-1.00841E-01 7.28789E-02 1.43882E-01 4.35797E-02
 -1      2592 5.19993E-01 1.90801E-01 5.38670E-02 3.58201E-01 5.98097E-02-2.15130E-02
 -1      2593 7.53368E-03 2.70461E-02-6.05228E-03 1.57301E-01-1.92918E-02 1.09682E-01
 -1      2594 9.52644E-02 9.10559E-02-9.26111E-02 1.70464E-01-9.25736E-02 6.28039E-03
 -1      2595-7.61363E-02-2.64765E-01-1.90426E-01-3.70140E-01 4.66940E-02-1.71355E-01
 -1      2596 1.46185E+00 4.65341E-01 3.73841E-02-4.74990E-02 3.29425E-02-9.70524E-04
 -1      2597 1.34317E-01 8.00686E-02 2.09765E-01-8.64288E-02-5.00310E-01 3.62455E-01
 -1      2598 6.16546E-01 1.96026E-01 2.26784E-01-4.24021E-02 8.12543E-02-4.03791E-01
 -1      2599-2.89289E-01-1.02110E+00-2.27374E-01-4.43365E-01 6.85657E-01 7.02174E-01
 -1      2600 9.56318E-01 3.73064E-01-4.01433E-02 3.98631E-01-2.37460E-02-8.12476E-02
 -1      2601 3.85871E-01 2.51619E-01 3.98871E-02-1.32019E-01-1.81944E-01 1.52964E-01
 -1      2602-7.45258E-01-4.66651E-01-3.61426E-01 2.29692E-01-2.07006E-02 2.50019E-02
 -1      2603-7.66848E-01-3.30950E-01 1.49743E-01 3.01543E-01-1.31263E-01-4.67347E-02
 -1      2604-1.66794E-01-3.32203E-01 1.94691E-02 1.95488E-01-1.87928E-01 4.75713E-01
 -1      2605-1.09826E+00-3.88649E-01-1.12553E-01-1.45884E-01-4.98128E-03-1.12558E-01
 -1      2606 8.80446E-01 3.17762E-01-5.93441E-02-3.36986E-01-3.64412E-02-9.75000E-02
 -1      2607-5.16738E-02 5.05542E-02 3.82020E-04 1.31754E-03-2.64450E-03 1.95649E-02
 -1      2608 5.98190E-01 3.68365E-01 2.83887E-02-1.99953E-01-7.98067E-02 5.89410E-02
 -1      2609 6.27896E-01 1.29251E-01-3.00016E-02 4.10982E-01 1.04951E-01-8.77939E-02
 -1      2610-3.07333E-02 6.71361E-01-2.93160E-01 9.63666E-02 5.15962E-01 2.16472E-01
 -1      2611-9.61819E-01-3.03791E-01-6.63226E-02-3.33119E-01 2.44601E-02-1.06607E-01
 -1      2612-1.25581E-02 2.78483E-01-9.36789E-02-4.27161E-02 1.40338E-01-5.39716E-02
 -1      2613-1.87784E-02 1.08076E-01-5.49265E-02 1.14984E-01-9.52889E-02-9.43629E-02
 -1      2614 8.29536E-01 2.99102E-01 3.55880E-01-1.79988E-02 4.44665E-02-9.00360E-02
 -1      2615-5.37113E-01-1.53474E-01-5.86934E-02 4.06115E-01-5.85894E-02-2.46404E-01
 -1      2616-3.27280E-01-9.36727E-02-8.82666E-02 2.83415E-01-1.12435E-01-1.66610E-01
 -1      2617-8.49631E-01-3.95719E-01-7.08336E-02-3.40724E-01 1.45412E-02-1.79395E-01
 -1      2618-4.81563E-01-2.18647E-01-5.07118E-02 3.89134E-01-1.11318E-01-8.22059E-02
 -1      2619-2.53856E-01-2.22419E-01-6.23738E-02 5.95056E-02-1.15121E-01 5.08359E-01
 -1      2620-8.24383E-02-7.31783E-02 1.18723E-02-1.94687E-01 2.39315E-01 1.60398E-01
 -1      2621-6.34683E-01-1.67524E-01-5.84605E-02-2.21881E-01-3.99806E-01 3.77407E-02
 -1      2622-5.40330E-01-2.79162E-01-1.18871E-01-3.83133E-01 2.02274E-01 4.81471E-01
 -1      2623 1.13354E+00 5.67583E-01-9.06376E-03-3.47222E-01-1.43162E-01 1.72765E-02
 -1      2624-9.55555E-01-4.92135E-01-4.94687E-01-3.27970E-01 1.56148E-02-1.57084E-01
 -1      2625-8.63761E-01-5.27651E-01-4.50416E-01-1.79415E-01 2.03862E-01-1.08340E-02
 -1      2626-1.26114E+00-5.69437E-01-2.07219E-01-3.73940E-01 1.86025E-01-1.13057E-01
 -1      2627-2.67894E-01-5.24914E-02 2.34755E-01-2.46232E-01 1.56360E-01-5.27073E-02
 -1      2628-3.53143E-01-2.73347E-01-3.18018E-01-6.93657E-02 7.99169E-02 1.78009E-01
 -1      2629-7.04963E-01-4.80740E-01 3.03563E-02 3.25375E-01-6.13182E-02 6.62205E-02
 -1      2630-6.93348E-01-3.72426E-02 6.85830E-02 3.57244E-01 1.15945E-01-1.83219E-01
 -1      2631 8.83678E-01 4.32347E-01 2.96380E-02-1.94044E-01 1.49864E-02-1.70157E-01
 -1      2632 2.43811E-01 1.45686E-02-1.12878E-01 1.37909E-01-3.26413E-01 1.66926E-01
 -1      2633 4.07503E-01 3.26112E-01-1.23183E-01 2.07016E-01 1.39756E-01-8.60317E-02
 -1      2634-3.07689E-01-4.07378E-02 1.09627E-01 3.08787E-01 8.02095E-02-1.19446E-01
 -1      2635 3.17431E-01 2.69146E-01-1.05724E-01-2.69304E-01 3.78750E-02 3.44018E-02
 -1      2636 7.85985E-01 2.30082E-01 2.04514E-02 2.44249E-01 2.48709E-01-3.26163E-01
 -1      2637 3.95198E-01 2.83769E-01-7.22046E-02 9.90601E-02 1.39187E-01-9.81404E-02
 -1      2638-3.27475E-01-1.53212E-01-2.36558E-01-3.97045E-01-4.84514E-02-1.68690E-01
 -1      2639-7.61620E-01-2.47066E-01 5.75368E-01-2.35503E-01-4.25859E-01 8.43302E-01
 -1      2640-8.53872E-01-3.09973E-01 5.94739E-02 3.11901E-01-9.86928E-02-1.36552E-01
 -1      2641-6.31467E-01-4.15769E-01-2.20285E-01 2.05437E-01-1.15884E-01 6.48678E-02
 -1      2642 1.26771E-01-9.16050E-02-4.80176E-02 2.80424E-02-2.48148E-01-5.03250E-02
 -1      2643 3.25099E-01 2.03232E-01 1.94201E-01-2.25743E-01-6.61752E-02-3.23430E-01
 -1      2644 3.58934E-01 4.36121E-01-3.67783E-02-1.54912E-01 7.84165E-02-5.47199E-02
 -1      2645-4.85489E-02 1.15721E-04-1.95241E-01 3.71755E-02 1.30440E-02-9.86922E-02
 -1      2646 3.48813E-01 2.58446E-01 7.85460E-02-4.71404E-01 1.58228E-01-8.48360E-02
 -1      2647 6.45004E-01-5.81096E-02-2.50970E-01 2.01368E-01 5.07107E-01 7.77079E-01
 -1      2648 9.65269E-02 3.75206E-01 2.57559E-02-5.78959E-02-3.69220E-01 5.52982E-01
 -1      2649-5.33746E-01-2.21082E-01-8.96906E-02-4.06116E-01 8.25950E-02-2.33565E-01
 -1      2650 4.15091E-01 1.22714E-01 4.44444E-02-1.82059E-02 8.65142E-02 1.56134E-01
 -1      2651 3.04043E-01 2.53734E-01 2.84426E-01-1.63763E-01-8.25263E-01 6.59185E-01
 -1      2652 1.31631E+00 1.56869E+00-2.56043E-01-5.91617E-01-2.84309E-01 5.13800E-01
 -1      2653 1.59183E+00 6.35017E-01 8.95017E-02 1.90515E-01 1.84394E-01-4.48003E-02
 -1      2654-1.22119E-01 8.96782E-02-1.74630E-02 3.42961E-01-3.71540E-02-2.74109E-01
 -1      2655 9.84976E-01 2.99111E-01 1.74604E-02 3.94541E-02 2.03254E-01 1.74848E-01
 -1      2656-4.20095E-01-2.84930E-01-1.40558E-01-3.50831E-01-6.78397E-02-1.05058E-01
 -1      2657 7.52124E-01 3.54483E-01 2.54234E-01 1.52522E-01 1.21926E-01-1.67517E-01
 -1      2658-4.13749E-01-1.32715E-02 1.46606E-01-3.62767E-01 8.72337E-03-3.76319E-02
 -1      2659 7.05789E-01 2.31893E-01 3.95125E-01-1.69699E-01-2.46616E-01 7.60687E-01
 -1      2660 2.43946E-01 9.00863E-02-1.43997E-02-1.03294E-01-4.40036E-02 3.40248E-02
 -1      2661-3.85043E-01-2.08462E-01-1.07892E-01-3.31057E-01 1.31152E-02-1.07382E-01
 -1      2662 5.01296E-01 1.33981E-01 1.34747E-01 1.55079E-01 2.63832E-01 2.60739E-01
 -1      2663-8.50653E-01-3.69733E-01-1.57829E-01-3.42423E-01 7.24510E-02-1.67311E-01
 -1      2664-1.34432E+00-6.49748E-01-3.06993E-01-6.36163E-02 5.25471E-02-6.88285E-02
 -1      2665-4.94778E-01-5.35735E-01-2.94489E-01 2.79401E-01-5.80029E-01 6.47586E-01
 -1      2666-1.51074E-01-1.31006E-01-9.83506E-02 1.36767E-01-1.73978E-01 3.88724E-02
 -1      2667-1.12413E+00-4.58229E-01-1.32292E-01 1.69993E-01 5.32872E-02-3.62731E-02
 -1      2668-1.30419E-01-5.21082E-02-9.45410E-02-3.31127E-03 4.22610E-01 4.09497E-01
 -1      2669-1.56448E+00-6.36191E-01-3.92244E-01 1.31413E-01-6.20458E-02-1.47330E-01
 -1      2670-3.12340E-01-1.91671E-01-1.82012E-01 2.40753E-01 3.20732E-03-1.73367E-02
 -1      2671 5.52480E-01-6.20578E-01 3.44507E-01-4.04778E-01 5.40854E-01 5.11434E-01
 -1      2672 5.69034E-01 1.01107E-01-1.23410E-01-8.51786E-03 1.04723E-01 7.28182E-01
 -1      2673-3.62290E-01-4.34918E-01-3.70721E-02 7.20314E-02-7.12166E-01 9.35700E-01
 -1      2674 4.70395E-01 4.88985E-01 1.14032E+00-1.92941E-01-7.14778E-02 4.81537E-01
 -1      2675-3.49630E-01-2.18219E-02-2.43326E-01 3.64724E-02 1.47675E-02 4.68267E-02
 -1      2676-3.41009E-01-3.87652E-01 7.39428E-02 1.20868E-01-1.65708E-01-1.52777E-01
 -1      2677 2.81226E-02 6.44681E-02 2.43438E-02 2.77008E-02 3.27303E-01 3.44110E-01
 -1      2678 7.61131E-01 2.34271E-01-1.27488E-01-3.87867E-01-8.46177E-02-1.19311E-01
 -1      2679-6.63643E-01-7.64062E-02-3.51116E-03 6.67548E-02 2.74053E-01-6.33806E-03
 -1      2680-7.42935E-01-1.91377E-01-1.78956E-01-5.18049E-02 1.43426E-01 2.54213E-01
 -1      2681-2.82037E-01-9.31740E-02-1.36221E-01-1.99919E-02 1.21504E-01-1.49542E-02
 -1      2682-3.11472E-01-1.65346E-01-1.78885E-01-4.69875E-01 9.15706E-02-1.92978E-01
 -1      2683 2.66609E-01-8.95192E-02 5.69450E-02 4.03732E-02 1.06009E-02-1.36394E-01
 -1      2684 6.64856E-01 3.50405E-01 1.70695E-01 2.80451E-01-3.22262E-02 9.93190E-02
 -1      2685-4.88714E-01-3.28573E-01 3.99863E-02 2.95829E-01-1.35258E-01-1.54226E-01
 -1      2686-5.82122E-01-3.78047E-01 2.87875E-01 3.49003E-01-3.53313E-02-6.90418E-02
 -1      2687 2.12599E-01-1.44768E-02-1.81675E-01 2.01676E-01 3.67065E-01 4.50062E-01
 -1      2688 2.72065E-01 1.45181E-01 1.14380E-01 1.79748E-01 4.87596E-01 6.51702E-02
 -1      2689-1.34364E+00-4.56894E-01 5.30932E-03-1.34359E-01 3.08211E-01 1.36035E-01
 -1      2690-8.38680E-02 2.36070E-01 2.91319E-01-1.13800E-01 1.92253E-01 6.48751E-01
 -1      2691 3.56318E-01 1.84092E-01 5.80637E-02 2.77209E-01 2.05034E-02-8.19164E-02
 -1      2692 9.63103E-02-1.09426E-01-1.56128E-01 8.67942E-02 6.35291E-01 6.67248E-01
 -1      2693 2.69868E-01 5.73251E-02-7.28006E-02-2.26562E-01 2.11134E-01 3.85520E-01
 -1      2694 7.43986E-01 3.21863E-01 5.83894E-02 2.76912E-01-2.96251E-02-1.64504E-01
 -1      2695 3.07541E-02-9.75735E-02-2.48654E-01 1.81265E-01-6.48172E-02-2.16115E-01
 -1      2696-7.79744E-02 1.24271E-02 5.75328E-02-9.99040E-02-3.39961E-02-4.20140E-01
 -1      2697 4.34570E-01 3.33340E-01 1.48995E-01 7.79599E-03 4.93744E-03-4.60765E-01
 -1      2698-2.30696E-01-1.85983E-01-3.41367E-02 3.26698E-02-1.83526E-02-4.74671E-01
 -1      2699-8.10923E-01-5.05349E-01-2.03436E-01 1.16545E-01 8.27864E-02-5.03543E-01
 -1      2700-3.06310E-02 3.07279E-01 1.79142E-01 2.54140E-01-1.24840E-01 5.85267E-01
 -1      2701-9.52750E-01-4.28281E-01-2.06084E-01 2.82258E-01-8.58902E-02-1.89762E-01
 -1      2702 1.57150E+00 8.37923E-01 1.33420E-01-3.81412E-02-4.20960E-02-1.44665E-01
 -1      2703-7.67092E-01-4.17344E-01-1.75127E-01 3.14872E-01 1.13557E-01-1.44934E-01
 -1      2704-1.19461E-01-1.13748E-01-1.45240E-01-2.44256E-01 2.64076E-01 4.40343E-01
 -1      2705 7.65352E-02-1.05005E-02-6.14222E-02 4.33530E-01 5.86549E-02-3.36450E-01
 -1      2706 1.88692E-01 1.51035E-01-3.71090E-02 2.64942E-01 5.20223E-02-1.94975E-01
 -1      2707 5.97128E-02-2.10167E-01 1.37200E-01-1.63227E-02 5.21504E-01 7.03125E-01
 -1      2708-8.25841E-01-2.50225E-01-2.03015E-01 1.29467E-01 1.01473E-02-1.81192E-01
 -1      2709 1.11997E+00 5.29662E-01 1.05103E-02 8.57851E-02 5.52007E-02-3.84178E-01
 -1      2710 1.02161E+00 3.38424E-01 2.07594E-01 1.34908E-01 4.43882E-01 9.46760E-01
 -1      2711-8.02565E-02-9.83926E-02 2.28896E-01-1.28984E-01 1.15834E-01 6.39160E-02
 -1      2712 3.63282E-02-3.40829E-02-1.73308E-02 3.35857E-01 9.68418E-02-1.25233E-02
 -1      2713 8.64595E-02 1.49948E-01 6.84910E-02 1.05022E-01 2.49223E-02-2.43261E-02
 -1      2714-3.13727E-01-7.32296E-02-2.35514E-01 2.88241E-01 4.25220E-02 2.93286E-02
 -1      2715-1.04141E+00-3.40810E-01-9.43396E-03-5.81805E-02 1.67370E-01 1.78674E-01
 -1      2716 2.81498E-01 1.49901E-02 5.41702E-02 1.26466E-01 1.73292E-01 1.54121E-01
 -1      2717-1.19361E-01 7.98883E-03 5.81708E-01-2.28545E-02 8.51912E-01 6.60584E-01
 -1      2718-5.45868E-01-3.43405E-01-4.27814E-02 2.28963E-01 6.98218E-02 1.89149E-03
 -1      2719-4.18020E-01-4.88887E-02 4.92550E-02-8.62492E-02 3.54651E-01 3.96074E-01
 -1      2720-2.64060E-01-3.04568E-01-2.97111E-01-2.71864E-01 4.42096E-01 6.49194E-01
 -1      2721-9.99732E-01-1.57248E+00-4.18349E-01-7.54508E-01 7.13170E-01 1.08619E+00
 -1      2722 1.48938E-01 5.24569E-01 1.59684E-01 6.68148E-02 4.71350E-01 1.44635E-01
 -1      2723 1.17212E+00 5.05606E-01-2.63748E-02 1.26739E-01-8.78609E-02 1.08831E-01
 -1      2724-7.97798E-01-2.97810E-01-2.07168E-02 1.05972E-01 4.35442E-03-3.60209E-01
 -1      2725 3.73890E-02-4.55417E-03 7.17003E-02 9.33350E-02 1.27098E-01-9.16454E-02
 -1      2726 2.98877E-01 8.10720E-02 1.25746E-01-4.45808E-01-8.75781E-02-2.76038E-01
 -1      2727-1.45913E+00-5.58939E-01-1.48596E-01 1.79928E-01-6.56331E-02 3.67539E-02
 -1      2728 5.50007E-01 3.96659E-01-1.33888E-01 1.06227E-01 1.90354E-01 4.28626E-01
 -1      2729 2.66558E-01 1.92450E-01-2.37440E-02 2.71037E-01 8.73173E-02-8.89613E-02
 -1      2730 2.19492E-01 3.93965E-02-1.66425E-02 1.72422E-01 3.84442E-01 5.51903E-01
 -1      2731-1.45794E+00-6.07040E-01 3.86224E-01 6.18450E-01-2.78596E-01-1.80701E-01
 -1      2732-9.45193E-01-4.64933E-01 1.59665E-01 8.02049E-02-2.72396E-01 7.61276E-02
 -1      2733 1.47384E+00 5.21228E-01 1.41956E-02-7.96413E-02 9.17588E-02 2.76852E-02
 -1      2734-4.21314E-02 3.29852E-02-5.51476E-03-2.01344E-01-3.76270E-02 8.87322E-01
 -1      2735-1.30549E-02 1.57619E-03-1.01998E-02-4.33581E-01-9.25472E-03-1.71876E-01
 -1      2736-3.09710E-01-1.19901E-02 4.85482E-02-1.09609E-01 2.82656E-01 1.69029E-01
 -1      2737 3.52808E-02-1.52856E-01 1.64899E-01 2.59610E-02-1.70124E-01 1.58408E-01
 -1      2738-7.01216E-01-2.50393E-01-2.07824E-01-2.02741E-01 4.19861E-02-2.15569E-02
 -1      2739 2.09235E-01 5.11899E-01 3.17828E-01 1.85794E-01 4.20043E-01 8.82822E-01
 -1      2740 2.70848E-01 2.09413E-01 1.41086E-01-2.82567E-01-1.64274E-03-1.19848E-01
 -1      2741-5.11111E-02-4.35179E-02 1.44437E-01-2.60737E-01 4.20502E-02-4.89167E-02
 -1      2742-9.46288E-02-6.32798E-02-1.10836E-01-2.08689E-01-6.75905E-03 4.13194E-02
 -1      2743 1.97025E-03-1.28670E-01 1.83536E-01-3.10626E-02 3.07584E-01 3.66551E-01
 -1      2744 6.80244E-01 1.50571E-01 2.13418E-01-3.15315E-01 3.64364E-02 1.17987E-02
 -1      2745 7.34451E-01 5.39502E-01 5.21561E-02 2.01505E-01 2.95772E-02-5.34866E-02
 -1      2746-4.10020E-01 5.34100E-03 6.54119E-02 8.43277E-02 1.14020E-01 3.15324E-01
 -1      2747-1.03118E+00-6.01463E-01-1.87273E-01 1.99524E-01-4.09291E-02-1.28372E-01
 -1      2748 7.71730E-01 4.03347E-01 7.87733E-03 9.21489E-02 6.49697E-02-6.67602E-02
 -1      2749 3.54160E-01 2.99348E-01 1.55998E-01 1.65182E-01 1.08121E-01 3.15455E-01
 -1      2750 1.46024E+00 6.89969E-01 3.00417E-02-1.38310E-01-4.01238E-02-1.34028E-01
 -1      2751-1.15474E+00-4.96655E-01-2.51126E-01-7.25513E-02 3.58945E-02-1.88638E-01
 -1      2752-3.32038E-02 6.14179E-01-2.62121E-01-9.47055E-03 3.63467E-01 4.08249E-01
 -1      2753 4.27672E-01 9.30180E-02-2.07699E-01-4.31008E-01 8.77806E-03-1.41825E-01
 -1      2754 2.92753E-01 2.09276E-01-3.84467E-02-1.06854E-01 3.36326E-01 3.67310E-01
 -1      2755 9.77003E-01 2.74235E-01 1.21593E-01 3.47776E-02 2.94780E-01-1.04365E-01
 -1      2756-1.56929E+00-4.73518E-01-1.00779E-01-9.48242E-03-7.91593E-02 1.63595E-02
 -1      2757-8.48025E-01-3.84068E-01-1.98837E-01-1.29663E-01 2.45221E-02 1.14788E-01
 -1      2758-2.64056E-01-9.28386E-02 4.98863E-02-1.56709E-01 1.67661E-01-2.24180E-02
 -1      2759-9.17251E-01-6.21046E-01 6.33935E-02 8.12324E-02 3.93973E-02 1.82139E-01
 -1      2760 8.76725E-01 3.42815E-01 1.47700E-01-2.94834E-01-5.12165E-02-3.25677E-02
 -1      2761 6.09108E-02 2.93058E-04 5.06925E-03 3.06036E-01-2.24785E-02-2.85422E-01
 -1      2762-1.73602E+00-7.78795E-01 9.25089E-02-1.15296E-01-1.17979E-01 2.05569E-01
 -1      2763-1.71751E-02-1.53702E-01-1.57779E-01 1.23776E-01-1.60232E-01 6.77201E-02
 -1      2764-3.24467E-01-3.89735E-01-2.43634E-01-3.26326E-01-1.38994E-01-2.44387E-02
 -1      2765 1.78582E-01-7.27432E-02 1.19605E-01-6.92230E-02 7.08237E-02 3.29912E-02
 -1      2766-3.25853E-01-1.41095E-01-1.77453E-02-4.28223E-01-2.13196E-02-1.15833E-01
 -1      2767 1.88081E-01 1.81188E-01 9.79505E-02-2.75986E-01-1.07257E-02-2.90125E-02
 -1      2768-6.74805E-01-4.97864E-01 2.06022E-01 3.43436E-01-6.79915E-01 4.65523E-01
 -1      2769-1.06626E+00-2.69427E-01-1.51549E-01 8.41865E-02 3.52820E-03-8.54969E-02
 -1      2770 6.66212E-01 1.36102E-01-3.87823E-02 7.43174E-02 9.34545E-02 8.35899E-01
 -1      2771 1.54943E-01-2.56745E-01-9.96787E-03 3.84297E-02 1.13748E-01 8.17426E-01
 -1      2772-7.99397E-01-4.42608E-01-3.45745E-01-2.28609E-01 1.53959E-01 3.48534E-01
 -1      2773 5.20219E-02-2.40484E-01 9.00221E-02 1.22956E-01 5.76449E-02-3.29337E-02
 -1      2774-6.98188E-01-4.84278E-01-1.73405E-01 4.81897E-03 3.59692E-02-3.50223E-01
 -1      2775 8.04578E-02-5.42307E-02-3.01449E-01-2.55510E-01-3.07310E-02-1.88270E-01
 -1      2776-5.54285E-01 6.13940E-02-6.98765E-01 2.42180E-01 4.55287E-01 7.79273E-01
 -1      2777 5.31097E-01 6.53387E-02 1.84067E-02-4.65651E-01 1.43907E-02-1.74566E-01
 -1      2778 4.27024E-01 2.40761E-01 4.69676E-03 2.90535E-01 1.54036E-01-1.76653E-01
 -1      2779 1.38593E+00 6.81755E-01 4.22791E-01 2.44210E-01 1.12653E-01-8.36696E-02
 -1      2780 4.47029E-02 1.08343E-01-6.92999E-02-1.50990E-01-2.87827E-01 2.42756E-01
 -1      2781-7.47348E-01-2.96412E-01-5.38513E-02-2.58414E-01 1.36090E-01-5.97528E-02
 -1      2782-1.61400E-01 3.93131E-01-1.81409E-02 1.87515E-01-1.71686E-01 5.46761E-02
 -1      2783-1.77412E+00-6.28602E-01 3.16489E-02-2.02803E-01 1.09534E-01-1.03753E-01
 -1      2784 1.20289E+00 5.54089E-01 1.57016E-01 5.16123E-01 5.10029E-02-5.64730E-02
 -1      2785-2.37893E-02-5.16547E-02-2.08000E-01 6.87585E-02 3.21616E-01 9.16217E-02
 -1      2786-8.45335E-01-4.43846E-01 1.09604E-02-3.24857E-01-3.10642E-02-8.24879E-02
 -1      2787 1.10247E+00 5.40291E-01 1.55659E-01-4.48111E-01 8.31783E-02-7.74535E-02
 -1      2788 3.34196E-01 6.81217E-02 2.78717E-01-1.78278E-01-3.91474E-02 2.44440E-04
 -1      2789-4.99770E-01-3.69816E-01-9.45253E-02 2.27720E-01-1.02126E-01-3.83713E-02
 -1      2790 2.11545E-02-3.70068E-01-3.58063E-02-1.99357E-01-8.01382E-02 7.81495E-02
 -1      2791 3.76116E-02 2.59612E-01 4.11647E-02-1.08711E-01 6.22828E-02-2.38160E-02
 -1      2792-5.27069E-01-3.05967E-01-7.30453E-02-3.36688E-01 7.90596E-02-7.96844E-02
 -1      2793 8.24580E-01 5.26517E-01 9.05383E-02-2.12222E-01-1.91627E-02 1.23753E-01
 -1      2794-2.24124E-01-7.65847E-02-2.24021E-02-1.28744E-01 2.10705E-03 6.00217E-01
 -1      2795 1.66367E-01 1.05532E-01 2.24301E-01-2.29413E-02 1.52663E-01 7.40767E-01
 -1      2796-1.62190E-01-9.49427E-02-1.81715E-02-2.65372E-02-1.57314E-01 4.61219E-02
 -1      2797-3.25085E-01-4.00291E-02-1.07110E-01-2.45694E-01 5.95551E-02 5.30600E-02
 -1      2798 9.02043E-01 2.56935E-01-1.81956E-01 2.17590E-01 3.66036E-02-1.78059E-01
 -1      2799-6.80438E-01-3.42505E-01 1.44266E-01 3.40487E-01-5.93156E-02-7.87190E-02
 -1      2800 4.23507E-01-2.58256E-01 9.76624E-01 1.67250E-01-6.50724E-01 6.11088E-01
 -1      2801-1.06420E+00-2.83177E-01-7.39705E-02 2.69941E-01-4.75363E-02-5.90230E-02
 -1      2802 1.40913E-01-3.45940E-02 1.03116E-01 1.40236E-02 1.97391E-01 1.55231E-01
 -1      2803 3.44983E-01 2.21624E-01 1.44835E-01 3.66627E-01-9.93934E-02-1.92808E-01
 -1      2804-7.88736E-01-2.43243E-01 8.82831E-02 2.64245E-01 1.01541E-01-6.79628E-02
 -1      2805-1.08050E-01-5.60693E-02-5.32502E-02 1.66407E-01-3.29735E-02 7.95264E-02
 -1      2806-9.14792E-02-9.87865E-03 2.20584E-01 1.15348E-01 2.67554E-01 2.83512E-01
 -1      2807 3.95525E-01 1.53330E-01-5.83064E-02-3.10219E-01-8.38369E-02-7.59604E-02
 -1      2808-1.46893E+00-5.26303E-01-2.18323E-01-6.30697E-02 3.63945E-03 1.13370E-01
 -1      2809-8.88310E-02 8.63330E-02-3.43608E-02 2.90319E-03 3.47546E-01 6.82978E-02
 -1      2810 6.62114E-01 2.34955E-01 1.13738E-01 3.68366E-01 1.18835E-01-1.41402E-01
 -1      2811 1.02429E-02 1.31129E-01-8.30165E-03-1.60171E-01 7.71185E-02-1.56567E-01
 -1      2812 1.35491E+00 6.89995E-01 1.87234E-01 1.96929E-01 8.66909E-02 3.48935E-02
 -1      2813-9.92859E-01-5.22093E-01 1.14315E-01-3.42000E-01 1.04784E-02-6.80835E-02
 -1      2814 1.50282E+00 6.64837E-01 3.06269E-01-4.36952E-01-7.95170E-02-2.24078E-01
 -1      2815-1.19192E+00-6.48217E-01-1.77642E-01-1.41697E-01 6.13670E-02 7.96213E-02
 -1      2816 3.70773E-01-1.52951E-01 9.18865E-03-2.01590E-01 2.49937E-01 3.25909E-01
 -1      2817 6.63181E-01 3.99384E-01 4.01539E-02-1.18949E-01-3.00994E-02-1.16167E-02
 -1      2818-1.10731E-01-2.12551E-02-1.23148E-01-1.30333E-01-3.71723E-02-5.28713E-02
 -1      2819-1.42326E-01 2.90869E-01 1.82200E-02 2.38584E-01 3.52277E-01 5.88233E-02
 -1      2820-1.17275E+00-2.95439E-01-3.10109E-01 3.03213E-03-4.52005E-02 9.70691E-02
 -1      2821 4.17039E-01 2.19537E-01-1.49421E-01-1.04811E-01 6.05481E-03-9.86774E-02
 -1      2822-3.18051E-01-1.12180E-01 2.60263E-01 4.16500E-01-2.02389E-01-4.33938E-01
 -1      2823 1.17134E+00 4.26259E-01 3.72230E-02 1.53383E-01-1.63647E-02-5.82457E-02
 -1      2824 1.65997E-03 1.46806E-01 2.73685E-01-1.98009E-01 1.10732E-01-7.70751E-02
 -1      2825 8.74548E-02 3.88173E-01 9.65634E-01 3.30634E-01-9.61636E-02 3.54660E-01
 -1      2826-5.83580E-02-2.34753E-01-1.91410E-01-1.83948E-02 3.30416E-01 1.91793E-01
 -1      2827-9.77314E-01-3.63585E-01-1.63443E-01 2.35082E-01 1.34784E-01-6.41143E-02
 -1      2828 4.09867E-01 3.32594E-01-3.12603E-02 6.36579E-02 7.32251E-02 8.39387E-02
 -1      2829-2.32525E-01 2.87182E-01-3.39427E-02 1.28846E-01 1.00910E-01-1.13324E-01
 -1      2830 1.12058E+00 4.59003E-01 4.81180E-01 2.05733E-01 9.37927E-02-9.51656E-02
 -1      2831-6.73870E-01-2.99026E-01 1.45714E-01 3.93190E-01-1.67059E-01 1.31142E-02
 -1      2832 4.97530E-01 1.22369E-01-6.05141E-02 2.13141E-01 1.19367E-01-1.80973E-01
 -1      2833 8.34438E-01 2.00786E-01 4.58363E-01 8.87158E-02 4.46169E-01 4.52517E-01
 -1      2834 1.34539E-01 1.84543E-01-2.02116E-01-6.69320E-02-5.29019E-02-5.69951E-01
 -1      2835 1.91238E-01 4.82003E-01 1.17342E-01-1.23894E-01-4.01816E-02-4.45202E-01
 -1      2836-8.98052E-01-2.97205E-01-1.19989E-01-1.58768E-01 1.45967E-01 2.69897E-01
 -1      2837-1.21449E+00-5.11283E-01-4.69156E-01-4.30335E-02 2.35851E-02 1.16133E-01
 -1      2838-5.32030E-01-2.08293E-01 1.26825E-02 2.31559E-01 3.57400E-02 3.18934E-02
 -1      2839 1.16222E-01 2.22171E-01 2.08419E-02 1.84606E-02 8.73439E-03-4.63629E-02
 -1      2840-1.57047E+00-3.69076E-01-1.95423E-02 2.48893E-02-2.10204E-02-3.92204E-03
 -1      2841 1.24229E-02 9.01118E-02 9.89136E-02-1.00953E-01 3.01786E-01 3.83547E-01
 -1      2842-6.31306E-01-5.06011E-01-1.83601E-01 1.73223E-01-1.47302E-01-3.76159E-02
 -1      2843 1.98790E-01 1.36139E-01 1.20120E-01-4.68501E-01-6.60159E-02-1.39561E-01
 -1      2844-1.11539E+00-3.49617E-01-6.25992E-02-2.08654E-01 5.37400E-02 7.26742E-02
 -1      2845 2.02083E-01 3.46628E-02-9.88856E-02-4.86049E-01-1.31277E-02-1.63802E-01
 -1      2846-4.40070E-01 1.25714E-02 2.77620E-02 6.01126E-02-1.30481E-03 2.04504E-02
 -1      2847-3.54920E-02-1.18867E-01-1.11383E-01-4.74194E-01-2.49000E-02-1.53919E-01
 -1      2848-5.49303E-01-4.97225E-01-1.22679E-01 2.28369E-01-1.74682E-01-9.75253E-02
 -1      2849 1.28659E+00 5.74279E-01 3.61407E-01-4.20502E-01-3.11821E-02-2.82627E-02
 -1      2850-1.09580E+00-3.95114E-01-2.17594E-01 3.05098E-02-1.41720E-01 2.09902E-01
 -1      2851-2.31490E-01-2.69718E-02 7.95718E-03-2.66243E-01-2.09556E-02 3.79764E-02
 -1      2852 1.27554E-01-7.17753E-02 2.95506E-02-4.26121E-02-3.90707E-02 1.01094E-01
 -1      2853-4.67141E-01-4.19008E-01 6.13522E-02-2.88897E-01 1.26556E-01 4.15314E-02
 -1      2854-1.19112E+00-3.10000E-01-1.61652E-01 3.85181E-02-3.06211E-02-1.20433E-01
 -1      2855-1.91364E-01-1.15883E-01 1.56615E-01 2.31424E-01 7.51610E-02 7.96750E-02
 -1      2856 3.49634E-01 1.28379E-01 2.22726E-02-3.62577E-01 1.99712E-02-2.18698E-01
 -1      2857 1.23563E+00 8.55974E-01 4.01783E-01 7.30646E-02 6.63645E-02 7.44763E-02
 -1      2858 6.38470E-01 4.93450E-01 2.91491E-01 2.46316E-01 1.55859E-02 2.89907E-02
 -1      2859 1.74633E-01 1.22750E-01 1.69674E-01-1.04945E-01 8.20644E-02-1.24199E-01
 -1      2860 3.46976E-01 8.53538E-02 3.23044E-02 1.26529E-01 1.17320E-02-1.11850E-01
 -1      2861-6.12701E-02 1.42232E-01-1.53968E-01 8.30587E-02 2.02028E-01-8.17080E-02
 -1      2862 4.65243E-01 2.54126E-01-2.70090E-02 3.37528E-01 6.58159E-02-2.01184E-01
 -1      2863 2.80483E-02-9.96077E-02 5.79872E-02 4.78423E-02 2.08487E-01-2.39041E-02
 -1      2864-9.11234E-01-4.78391E-01 1.46170E-01-1.96308E-01-2.53544E-02-2.14518E-02
 -1      2865 6.05224E-02 4.26717E-02-6.32661E-02-2.85400E-02 2.01336E-02-1.01949E-01
 -1      2866 1.53177E+00 8.63966E-01 5.47815E-02 1.28998E-01 1.87982E-02 2.47687E-02
 -1      2867 2.79485E-01 1.25652E-01 4.96137E-02-1.25955E-01 2.68083E-01 4.54537E-01
 -1      2868 2.27707E-01-4.10958E-01-3.64110E-01 2.21961E-02 4.44974E-01 5.43458E-01
 -1      2869-1.34204E+00-5.40358E-01-2.51506E-01 1.81658E-02 6.89905E-02-2.81449E-02
 -1      2870-4.34040E-01-4.97844E-01-7.46054E-02-1.63808E-01-2.85915E-02 3.16444E-01
 -1      2871 5.08648E-01 2.88831E-01 9.22187E-02-2.52268E-01 6.00808E-02 4.25485E-02
 -1      2872-1.35883E-01-3.02154E-01-3.24574E-01 2.38653E-01 3.41685E-03-3.60501E-01
 -1      2873 9.20457E-01 3.15552E-01 2.78804E-01-2.14138E-01 6.20615E-02 1.40815E-01
 -1      2874-3.01334E-01-2.31015E-01-6.42326E-03-1.44641E-01 9.86866E-02-5.47703E-02
 -1      2875 1.26903E-02-2.33256E-01 7.15743E-02-1.32234E-01 1.11103E-01 1.91807E-01
 -1      2876 9.80357E-01 4.35381E-01 5.41456E-02-1.77393E-01 2.67328E-01 2.73669E-01
 -1      2877 1.07497E-01 7.84039E-02 1.88859E-01 1.39931E-01 3.26821E-02-3.33198E-01
 -1      2878 1.84770E-01-1.41469E-02-1.44722E-01-3.61349E-02-3.27907E-02-4.43214E-01
 -1      2879-7.84168E-01-4.53956E-01-1.94788E-01-4.45402E-01 1.54865E-01-2.95153E-01
 -1      2880 9.56522E-02 9.78668E-04 1.16171E-01-1.00272E-01 3.80093E-02-4.19175E-01
 -1      2881 1.62507E+00 7.22226E-01 9.74088E-02 3.99849E-01 4.20956E-01-2.09502E-01
 -1      2882-2.01341E+00-1.02858E+00-1.01857E-01 1.70445E-01-1.27124E-01-1.82833E-03
 -1      2883-1.47141E+00-8.40314E-01-1.36780E-01-3.74854E-02-8.36835E-02-5.31786E-01
 -1      2884 1.13825E+00 3.65460E-01 7.83828E-02 9.04889E-03-1.38074E-01-4.04750E-01
 -1      2885 1.34175E-01 1.32435E-01-6.97604E-02-4.20532E-01 1.21665E-01-4.52604E-01
 -1      2886 4.75311E-01 1.01216E-01 1.32295E-01-5.71172E-02-5.52546E-02-4.21061E-01
 -1      2887 5.52348E-01 3.61916E-01 2.50242E-02 2.93561E-01 5.69036E-02-4.15092E-01
 -1      2888 8.86265E-01 4.09613E-01 1.49969E-01 6.18653E-01 1.22923E-01-4.44493E-01
 -1      2889-5.12280E-01-1.46930E-01-1.05227E-01-1.56969E-01 3.22810E-02-4.96108E-01
 -1      2890 4.64313E-01 5.99423E-01 2.27169E-01-1.76639E-01 6.47879E-02-5.29192E-01
 -1      2891-2.85303E+00-1.39994E+00 1.79004E-01-4.55694E-02 2.08377E-02 1.16954E-01
 -1      2892 3.40654E-01 2.90015E-01 9.69799E-02-5.35219E-01-2.78640E-01-7.45706E-01
 -1      2893-1.71968E+00-7.51917E-01 6.99926E-02-5.79189E-01 3.70277E-01-3.85052E-02
 -1      2894 1.06809E+00 7.35493E-01 5.27335E-01 5.40206E-02-5.35656E-02-4.56399E-01
 -1      2895 5.61877E-01 2.94123E-01 9.40888E-03-6.24995E-02-4.22079E-02-3.22829E-01
 -1      2896 9.20194E-01 5.14619E-01-7.18025E-02 7.82253E-02 9.49184E-02-2.39175E-01
 -1      2897-3.45610E-01-2.72276E-01-5.35084E-02 1.00372E-01-1.81815E-03-3.74872E-01
 -1      2898-1.41127E+00-4.93446E-01 2.16860E-02-1.39993E-01 5.02326E-02-2.94959E-01
 -1      2899 4.31730E-01 5.12091E-01 1.95831E-01-1.93784E-01 9.99970E-02-5.00296E-01
 -1      2900 1.40691E+00 6.21395E-01-2.23528E-01-4.40177E-01-1.87904E-01-1.80251E-01
 -1      2901-1.81846E+00-6.94250E-01-1.48114E-01-1.16152E-02-4.81819E-02-1.70447E-01
 -1      2902 4.74197E-01 2.50405E-01 1.82660E-01-2.14879E-01 4.73031E-02-4.18820E-01
 -1      2903 3.10710E-01 2.81260E-01 1.65331E-01 7.64075E-01 2.22095E-01-4.37436E-01
 -1      2904-6.87301E-01-2.95083E-01 1.58659E-01-2.33393E-01 9.04256E-02-4.59068E-01
 -1      2905 2.34691E+00 8.98303E-01-2.70906E-01 1.42104E-01-1.99548E-02-9.91286E-02
 -1      2906 1.14859E+00 9.11300E-01 4.76750E-01-3.74069E-01 1.41497E-01-5.22916E-01
 -1      2907 6.93187E-01 3.59124E-01-1.11596E-01-7.48466E-01-2.19977E-01-2.97438E-01
 -1      2908 9.29530E-01 4.23109E-01 4.35500E-02 2.45041E-01-5.52091E-02-4.71406E-01
 -1      2909-2.73512E-02-9.16795E-02-1.24558E-01 4.68002E-01-2.03148E-01-6.69971E-01
 -1      2910 8.84700E-01 4.22847E-01-1.78140E-01-5.21978E-01-2.60414E-01-3.10283E-01
 -1      2911-1.61467E+00-5.56377E-01 2.31393E-01 1.33881E-01-2.21264E-01 1.76863E-01
 -1      2912 6.45885E-01 3.45991E-01 1.41596E-01 1.44607E-01-4.68147E-02-4.78427E-01
 -1      2913-1.50725E+00-8.99235E-01 1.03338E-01-6.72837E-01 4.39656E-02-3.81807E-01
 -1      2914-5.25732E-01-3.42426E-01-4.95909E-02-1.79885E-01-3.40251E-02-3.77779E-01
 -1      2915 1.52678E+00 8.58616E-01 1.57826E-01 2.65004E-01 2.83234E-01-1.30597E-01
 -1      2916-6.59949E-01-5.74721E-01-3.53433E-01 1.42890E-03-9.42263E-02-4.49717E-01
 -1      2917-2.41239E+00-1.79622E+00-4.30650E-01-1.98763E-01-1.95652E-01-4.02228E-01
 -1      2918-3.92670E-01-1.36301E-01-1.87045E-02 5.29312E-01-2.31546E-01-2.95328E-01
 -1      2919-4.96157E-01 1.36366E-02 6.98491E-02-5.23573E-01 1.19365E-01-3.87354E-01
 -1      2920-5.38248E-01-1.62503E-01 4.84547E-02 4.12935E-01-4.01265E-01-2.37247E-01
 -1      2921-1.18420E+00-9.84894E-01-1.31847E-01 2.25658E-01-1.87894E-02-4.14409E-01
 -1      2922 1.52284E+00 6.30967E-01-2.63015E-01-2.37076E-01-9.35101E-02-2.65986E-01
 -1      2923 1.77990E+00 1.23977E+00 5.82404E-01-3.78173E-01 1.41825E-01-6.02923E-01
 -1      2924-5.79912E-01-2.56368E-01-2.12243E-01-3.21108E-01 3.97749E-01-5.09797E-01
 -1      2925 2.17359E+00 1.41631E+00-9.08931E-02 5.69212E-01 3.15941E-01-4.79665E-01
 -1      2926 2.63360E+00 1.41322E+00-2.03125E-01 5.45475E-01-8.34294E-02-7.20937E-01
 -1      2927 1.82399E+00 7.77220E-01-7.85588E-02 4.45880E-01 2.35462E-01-3.44716E-01
 -1      2928-5.95998E-01-4.65316E-01-1.96913E-01-1.46713E-01-1.05774E-01-4.31609E-01
 -1      2929-1.65515E+00-7.73257E-01-2.27826E-01-3.88421E-01-2.05429E-03-3.96371E-01
 -1      2930 1.90811E+00 7.48717E-01-5.46148E-01-6.06980E-02-1.08501E-01-5.33824E-02
 -1      2931-1.63640E+00-1.06024E+00-1.38489E-01 1.92470E-01 8.35966E-02-4.29723E-01
 -1      2932 2.09190E+00 7.17902E-01-2.64520E-01-9.71058E-02-2.91353E-01-1.43890E-01
 -1      2933 1.07682E+00 2.24818E-01-2.68189E-01-6.13548E-02-1.34545E-01 2.04293E-01
 -1      2934 2.83766E+00 1.28659E+00-2.83180E-01-2.43841E-01-1.52207E-01 1.40630E-01
 -1      2935-2.97391E+00-1.65242E+00-2.01952E-01 9.55787E-02-1.90215E-01 2.61676E-02
 -1      2936-1.23442E+00-7.50548E-01-4.20042E-02 2.58034E-01 2.31314E-02-2.43011E-01
 -1      2937 4.86293E-02 2.34654E-02 6.66601E-02 2.29748E-01 5.70846E-02-3.86024E-01
 -1      2938-7.65228E-02 1.51172E-02-5.58712E-02-1.08796E-01 2.81717E-02-3.83594E-01
 -1      2939-3.21569E-01-2.68166E-01-1.08130E-01 3.88139E-01-2.54662E-02-4.43730E-01
 -1      2940 1.99769E+00 1.47915E+00 2.80047E-01-2.67663E-01 1.47972E-01-7.26367E-01
 -1      2941-3.81382E-01-2.79433E-01 4.54237E-02-4.14279E-01-7.91523E-02-4.50595E-01
 -1      2942 1.13848E+00 8.30069E-01 1.84922E-01 1.28655E-01-3.33129E-02-5.25583E-01
 -1      2943-2.13480E+00-8.71559E-01-4.47584E-02-6.25266E-02 2.48654E-01-4.04487E-01
 -1      2944-9.48065E-01-3.96457E-01-1.13728E-01 2.16618E-01 5.12719E-02-3.64370E-01
 -1      2945-1.36283E+00-9.25001E-01-4.31576E-01 1.03504E-01-3.86771E-02-3.54393E-01
 -1      2946-2.03794E+00-1.18169E+00-4.93165E-01 5.51857E-01-1.05316E-02-7.13891E-01
 -1      2947-3.10831E-01-1.77173E-01-7.68697E-02 2.12820E-01-1.11577E-01-2.69917E-01
 -1      2948 1.13318E-01 3.68504E-02-1.24871E-01 1.22485E-01-8.45577E-02-1.64965E-01
 -1      2949-6.67273E-01-1.36817E-01 4.48037E-02-5.27781E-01 2.85194E-01-2.02828E-01
 -1      2950-1.35873E+00-3.41069E-01 1.11528E-01 3.22773E-01-2.95556E-01-2.31903E-01
 -1      2951-1.47470E+00-8.47888E-01-1.93673E-01-9.23346E-02-9.27747E-02-3.75208E-01
 -1      2952-5.75235E-02-1.50030E-01-2.20219E-01 5.32567E-01 8.08636E-02-3.13206E-01
 -1      2953 1.52545E+00 7.66401E-01-2.14286E-01 5.17100E-01 2.31840E-01-3.79808E-01
 -1      2954 1.44206E+00 7.67513E-01 5.72862E-02-4.03703E-01-1.93666E-01-2.35546E-01
 -1      2955-3.82436E+00-1.99665E+00-4.60537E-01-4.63574E-01-2.35242E-01-8.65834E-01
 -1      2956-1.91287E+00-8.23311E-01 1.14021E-01 6.12147E-01-1.10595E-01-3.06605E-01
 -1      2957 1.69773E+00 8.31187E-01 4.46559E-02 3.94038E-01-2.57649E-03-5.68290E-01
 -1      2958-1.34297E+00-3.54692E-01-1.91217E-01-2.08095E-01 3.36606E-01-4.79925E-02
 -1      2959 1.13370E+00 9.69222E-01 6.67509E-01-1.20417E-01 8.81688E-03-3.89339E-01
 -1      2960-2.41651E+00-8.41584E-01 8.48162E-02 4.75077E-03 3.03786E-03 1.39061E-01
 -1      2961 6.98218E-01 6.47729E-01 4.10064E-01-2.90557E-01 7.18522E-02-5.57953E-01
 -1      2962 4.35859E-01 1.75139E-01 8.31245E-02 5.49085E-02-1.18009E-01-4.76441E-01
 -1      2963 3.84033E-01 2.31488E-01 8.83332E-01-3.92002E-02-9.86410E-02-6.28953E-01
 -1      2964 3.23003E+00 2.38059E+00 1.07867E+00-9.22785E-02 9.03537E-02-8.43440E-01
 -1      2965 4.63767E-01 2.23315E-01 4.92269E-01 2.83866E-02-7.15419E-02-6.71407E-01
 -1      2966-1.55180E-01-3.39579E-02 1.79044E-01 1.39104E-01 6.06749E-03-2.88491E-01
 -1      2967 3.77226E+00 2.29889E+00 1.06941E+00-5.25643E-02-3.95981E-01-8.43495E-01
 -1      2968 5.26603E-01 2.76016E-01 3.83306E-01 2.79065E-02 7.72312E-02-6.31983E-01
 -1      2969 2.78820E+00 1.70943E+00 9.47250E-01-1.14906E-01-5.73116E-02-4.64870E-01
 -1      2970 1.99420E+00 8.56480E-01 3.53156E-01 1.37235E-01 1.34593E-01 2.21707E-02
 -1      2971-4.35642E-01-1.82087E-01-2.64628E-01 1.08332E-01 1.85849E-01-3.96420E-01
 -1      2972-3.03208E-01-1.72014E-01-6.29076E-01 2.99662E-02 1.60003E-01-4.72704E-01
 -1      2973-4.83789E-01-2.10585E-01-2.41059E-01-6.54863E-02-1.25979E-01-4.69815E-01
 -1      2974-2.42613E-01-2.43652E-01-9.69737E-01-5.77293E-04-1.59579E-01-6.33541E-01
 -1      2975 2.54467E-01 9.01456E-02-5.06139E-02 6.93237E-02-1.76476E-01-2.99919E-01
 -1      2976 4.81892E-01 2.56305E-01 5.54600E-01 6.67876E-02-2.52243E-01-5.88764E-01
 -1      2977-2.07948E+00-7.73229E-01 1.92739E-01 2.57102E-01-2.31395E-01 8.07109E-02
 -1      2978-9.41541E-02-1.25223E-01 1.54539E-01 3.04492E-01 4.05767E-02-5.48559E-01
 -1      2979 6.07553E-01 3.31874E-01 3.26847E-01-5.60628E-01-1.03197E-01-3.97995E-01
 -1      2980-1.54919E-01-3.99726E-02 2.60089E-02 7.69192E-01 8.29024E-02-3.83633E-01
 -1      2981 1.10459E+00 9.09214E-01 1.44530E+00 7.64782E-02-7.41484E-02-9.81912E-01
 -1      2982-1.15679E+00-5.87106E-01-1.54445E-01 4.97677E-01-3.19458E-01-9.45939E-02
 -1      2983 1.84490E-01 3.19915E-02 3.65563E-01 9.13101E-02-1.26186E-01-3.12452E-01
 -1      2984 9.10860E-01 7.20838E-01 6.06831E-01 2.36390E-01 9.05787E-03-4.74815E-01
 -1      2985-1.77210E-01-2.77692E-02-2.62162E-01 9.26141E-02 8.23126E-02-3.41090E-01
 -1      2986-3.20428E+00-1.75725E+00-6.91901E-01-1.91146E-01-8.00053E-03-5.86150E-01
 -1      2987-5.25076E-01-2.16122E-01-3.58558E-02 6.08609E-02 1.22324E-01-4.83105E-01
 -1      2988 1.85515E-01 3.37233E-02-1.87632E-01-9.43134E-02 1.13190E-01-2.51912E-01
 -1      2989 2.91397E-01 1.66163E-01 7.15528E-01-5.68012E-03 2.33638E-01-4.67617E-01
 -1      2990-3.45182E+00-2.56341E+00-1.16711E+00 1.09637E-01 8.00140E-02-8.42105E-01
 -1      2991 5.89794E-02 9.06509E-02 2.33425E-01-9.93561E-02 7.52789E-02-1.11584E-01
 -1      2992-6.82842E-03 1.38741E-02-8.47027E-03-9.17185E-02 4.26677E-02-2.48057E-01
 -1      2993-9.80013E-01-6.47049E-01-1.52712E-01-9.00902E-01 1.00249E-01-7.87478E-01
 -1      2994 1.11472E+00 1.40649E-01-3.11794E-01-2.86428E-01-3.84148E-01 2.90445E-02
 -1      2995-2.75576E-01-1.57467E-01-2.35080E-01-1.60843E-01-1.30682E-01-2.29197E-01
 -1      2996-2.93292E+00-1.83039E+00-8.16600E-01-4.90379E-01-1.48897E-01-6.68633E-01
 -1      2997-1.52594E+00-1.38588E+00-3.61111E-01 2.51761E-01-3.99231E-02-4.75276E-01
 -1      2998-5.33788E-01-2.74396E-01-8.39874E-01-1.60893E-01-1.76300E-01-5.77019E-01
 -1      2999 1.45871E+00 6.45198E-01 3.30582E-02-2.45052E-02 3.31519E-02 1.35572E-01
 -1      3000 6.39131E-01 5.25934E-01 4.76125E-01 5.54681E-01-7.72456E-02-4.54512E-01
 -1      3001 6.88294E-01 2.55529E-01 2.17065E-01-1.70655E-02 4.81150E-02-6.15656E-01
 -1      3002 9.69310E-01 2.53274E-01 8.57636E-02-8.36793E-01-1.20926E-01-8.17024E-01
 -1      3003-1.93494E-01-1.75969E-02-2.01983E-01-6.09766E-02-4.75066E-02-3.19921E-01
 -1      3004 2.08271E-01-1.77036E-03-1.92530E-01-6.79434E-02 3.06604E-02-2.00111E-01
 -1      3005 7.83576E-01 3.90016E-01 4.48012E-01 3.47397E-02-1.87667E-01-5.13977E-01
 -1      3006-2.58430E-01-2.06691E-01-3.34444E-01 1.82403E-01 1.85351E-01-2.37919E-01
 -1      3007 8.24339E-01 5.37753E-01 7.80068E-01-2.83891E-02-2.22274E-01-7.22654E-01
 -1      3008-3.19818E+00-2.07208E+00-1.07603E+00 1.21817E-01-9.53433E-02-8.91771E-01
 -1      3009 3.27419E+00 2.50962E+00 1.23841E+00 1.29975E-01-8.97465E-03-5.50579E-01
 -1      3010-9.22362E-02-1.31885E-01-3.82150E-01-1.21067E-01-1.02859E-01-2.18225E-01
 -1      3011 4.17293E-01 2.58729E-01 2.75478E-01-1.44327E-01 1.43528E-01-3.29960E-01
 -1      3012-6.20323E-02-1.03478E-01-5.18658E-01-2.47272E-01-6.43876E-02-3.13752E-01
 -1      3013-3.33452E-01 6.17066E-02 2.62616E-01 1.25250E-01-2.94304E-02-3.33672E-01
 -1      3014 7.41687E-01 4.07056E-01 3.43167E-01-1.17016E-01 2.55742E-01-3.89723E-01
 -1      3015 3.38092E-01 2.15652E-01 8.03314E-01 6.29184E-02 8.75481E-02-5.55472E-01
 -1      3016 4.30848E-01 1.29518E-01 6.08416E-01 4.00977E-02-1.33347E-01-4.48981E-01
 -1      3017-4.27509E-01-1.69289E-01-1.82710E-01-8.85372E-02-1.73613E-01-5.35235E-01
 -1      3018-1.10127E+00-7.71609E-01-7.34074E-01-3.88250E-02-1.63025E-01-5.94463E-01
 -1      3019 2.58062E-01 2.37584E-01 3.09199E-01-1.50989E-01 2.08411E-01-2.56905E-01
 -1      3020-3.13196E+00-1.27778E+00-9.48177E-01-5.32255E-01 4.06798E-01-1.05237E+00
 -1      3021-3.50992E-01-2.74758E-01-1.01731E+00-6.23840E-02 1.24256E-01-6.81805E-01
 -1      3022 2.36109E+00 1.23104E+00 5.50176E-01-5.01911E-01 3.45922E-01-8.87984E-01
 -1      3023-3.29002E-01-1.11290E-01 7.06768E-02 1.28545E-01 1.23924E-01-4.16641E-01
 -1      3024-7.05199E-01-6.16905E-01-1.18447E+00 1.01304E-01 2.36440E-01-7.03432E-01
 -1      3025-5.27263E-01-4.84661E-01-1.67736E-01 9.84593E-01 1.42046E-01-9.38242E-01
 -1      3026-1.14425E-01-1.15085E-01-2.67259E-01 1.72989E-01 5.51861E-02-1.75995E-01
 -1      3027-9.93794E-02-8.17864E-02 1.35241E-01 2.12754E-01-1.43947E-01-3.15169E-01
 -1      3028 3.28226E-01 5.83926E-02-2.30771E-01 1.68398E-01-2.34046E-02-1.97917E-01
 -1      3029 3.24028E+00 1.95379E+00 2.95391E-01 3.73575E-01-2.58739E-02-8.15293E-01
 -1      3030 3.23684E-01 2.91595E-01 8.12898E-01 2.01671E-02 1.69528E-02-6.01415E-01
 -1      3031 2.81791E-01 1.96650E-01 4.80732E-01 1.72929E-01-2.09352E-01-3.58691E-01
 -1      3032-2.79107E-01-1.52124E-01-7.71058E-01 4.01778E-02-1.72365E-01-5.20108E-01
 -1      3033-3.91181E-01-2.66930E-01-7.46649E-01 1.12847E-01 2.52836E-01-4.48859E-01
 -1      3034 6.99365E-01 5.45850E-01 1.02976E+00 2.60392E-01-2.93483E-01-4.76819E-01
 -1      3035 4.45666E-01 2.38192E-01 2.42539E-01-1.16765E-01 2.27007E-01-3.66220E-01
 -1      3036 8.34313E-01 5.43878E-01 9.71056E-01-2.05452E-02 2.98854E-01-5.89239E-01
 -1      3037-7.92242E-01-6.47864E-01-1.21278E+00-8.20515E-02-1.34324E-01-8.40470E-01
 -1      3038 8.58345E-02 2.23053E-01 6.25604E-01-1.77407E-01 2.89868E-01-2.94603E-01
 -1      3039-3.93802E+00-3.04607E+00-9.39188E-01-4.74914E-01-1.38102E-01-6.49278E-01
 -1      3040-5.71544E-01-2.24994E-01-1.88091E-01-1.89489E-02 1.97211E-02-5.36569E-01
 -1      3041-2.63471E-01-3.28331E-01-1.01991E+00-5.03342E-03-3.31744E-02-6.86588E-01
 -1      3042 5.02847E-01 6.51363E-02 2.38015E-01 9.66487E-01 1.95484E-01-9.03346E-01
 -1      3043-1.73442E-01 9.00854E-03 2.45156E-01-1.40617E-01 5.56016E-02-2.65684E-01
 -1      3044-6.23884E-01-4.66982E-01-8.69678E-01-1.56373E-01-1.43578E-01-4.20299E-01
 -1      3045-3.29831E-01-2.30755E-02 2.69611E-01-9.75065E-02 1.07047E-01-2.26114E-01
 -1      3046 1.38595E+00 1.22884E+00 2.28991E+00 2.30872E-01-3.29700E-01-1.16766E+00
 -1      3047 6.48741E-01 4.38434E-01 8.72245E-01-1.19401E-01 3.67222E-01-4.60387E-01
 -1      3048-9.11915E-01-5.44803E-01-3.06396E-01 1.02273E-01 1.20602E-01-4.23248E-01
 -1      3049 1.15962E+00 9.05396E-01 1.24919E+00-1.86863E-02-2.52862E-02-6.86212E-01
 -1      3050 4.34857E-01 1.44763E-01 1.03389E-01-5.99370E-02 1.35463E-01-4.45143E-01
 -1      3051-6.36361E-02-3.56937E-02 7.42337E-02 1.72918E-01-4.81040E-03-3.54965E-01
 -1      3052-8.60435E-01-7.17842E-01-6.31031E-01-8.19936E-03 1.64305E-01-5.49156E-01
 -1      3053-5.26320E-01-2.31998E-01-5.16874E-01 6.14519E-02 7.68856E-02-6.40839E-01
 -1      3054-1.08414E+00-8.97225E-01-1.41861E+00 5.16571E-02-2.54534E-02-7.71231E-01
 -1      3055-3.70488E-01-1.80561E-01-8.03370E-02-1.22052E-01-1.61387E-01-3.27606E-01
 -1      3056-7.10413E-01-3.38388E-01-1.33224E-01-3.82846E-02-1.62044E-01-3.00107E-01
 -1      3057-9.28959E-01-5.88286E-01-9.38449E-01-7.23786E-02-1.68796E-01-5.58340E-01
 -1      3058 1.35725E+00 1.02646E+00 1.26062E+00 9.06702E-02 1.39074E-01-7.03252E-01
 -1      3059 6.58363E-01 4.41858E-01 3.47180E-01 3.15523E-02-4.25705E-02-6.70767E-01
 -1      3060-5.16633E-01-2.51231E-01-4.43367E-01-2.79880E-02-8.82905E-02-6.40630E-01
 -1      3061-7.28011E-01-7.37873E-01-7.99195E-01-2.84523E-02 7.52664E-02-5.99250E-01
 -1      3062-1.33630E+00-1.13167E+00-1.38188E+00 1.42660E-02-2.21967E-01-7.60333E-01
 -1      3063 7.28376E-01 4.99638E-01 7.54910E-01 7.61364E-02 1.74835E-01-6.10354E-01
 -1      3064-1.59462E-01-1.88827E-01-2.66955E-01 2.18676E-01 3.42176E-02-3.94200E-01
 -1      3065 1.28619E-01 3.57673E-02 9.95862E-01 2.59650E-01-8.94552E-02-5.32501E-01
 -1      3066 8.92502E-01 8.86990E-01 8.76588E-01 1.09236E-02-1.63163E-01-5.13705E-01
 -1      3067 6.62862E-02 2.81074E-01 4.79209E-01 1.78222E-01-4.43441E-01-2.08669E-01
 -1      3068-1.10543E-01-1.55157E-01-7.08467E-01-1.56484E-01-4.21431E-01-4.11802E-01
 -1      3069-5.89578E-01-5.39298E-01-2.87399E-01-4.00681E-02-1.44360E-03-2.28414E-01
 -1      3070 3.63774E-02-5.71026E-01-5.71872E-01 1.77613E-03 1.83535E-01 1.15195E-01
 -1      3071-1.88883E-01-3.88190E-02 1.93616E-01-2.72261E-02 1.87769E-01-8.97590E-01
 -1      3072-3.44508E-01-3.08671E-01-3.55151E-01 6.16638E-02-2.35842E-02-4.49870E-01
 -1      3073-3.60893E-01 1.82383E-01 4.31803E-01-1.94584E-02 1.95054E-01 1.50155E-01
 -1      3074-9.34957E-03 2.37242E-01 5.03278E-01 1.36563E-02-4.51552E-03-9.59911E-02
 -1      3075 3.69518E-01-2.23423E-01-8.14391E-01-1.18279E-02-1.63581E-01-4.94321E-02
 -1      3076-2.14615E-01-1.55416E-01-2.40818E-01 2.85837E-01-1.51180E-01-4.45747E-01
 -1      3077-1.69881E-01-2.12332E-01-2.25824E-01-2.15388E-02-8.74625E-02-3.07290E-01
 -1      3078-8.73884E-01-1.28098E-01 1.88457E-01-2.74382E-02-1.33639E-02-2.23283E-01
 -1      3079-1.10537E+00-5.50687E-01-8.06863E-01 7.63976E-02-3.33113E-01-6.40476E-01
 -1      3080-3.53569E-01 7.09368E-02 2.15210E-01-1.98440E-01 5.08422E-01 3.51598E-02
 -1      3081-5.53175E-01-2.79745E-01-1.42913E-01-2.56544E-01 3.16594E-01-4.95798E-01
 -1      3082 6.46479E-01 2.44593E-01 5.13595E-01 2.09100E-01-5.32164E-01-6.06507E-01
 -1      3083 5.88157E-02 6.84753E-02-1.11331E-01-3.20014E-01-2.63044E-02-5.00758E-01
 -1      3084 8.83943E-02-2.17610E-01-3.95298E-01-7.52063E-02-1.50123E-02-2.06924E-01
 -1      3085 2.49355E+00 7.60124E-01 9.69584E-01-8.58108E-02-4.35912E-01-1.24276E+00
 -1      3086-1.31503E+00-1.34729E+00-1.14675E+00-3.97054E-02-1.07571E-01-3.44583E-01
 -1      3087-6.39201E-01-4.70299E-01-4.17070E-01 2.61691E-01 5.34751E-01-2.19529E-01
 -1      3088 4.89029E-02 1.95252E-01 1.10178E-01 2.69512E-02 3.25076E-01-7.43829E-01
 -1      3089-1.81281E+00-1.58777E+00-7.62631E-01-1.47157E-02 1.35802E-01-1.87420E-01
 -1      3090-5.74772E-02-7.86054E-02 4.62401E-02 1.21446E-01 1.13916E-01-4.15263E-01
 -1      3091 2.96113E-01 3.84949E-01 5.40955E-01 3.95223E-02-1.50680E-01-3.28864E-01
 -1      3092 1.48636E+00 5.62953E-01 6.47758E-01 1.11848E-01 7.82374E-01-8.50134E-01
 -1      3093 4.27633E-02 2.64745E-02 7.16070E-03-2.32464E-02 1.84012E-02-3.61236E-01
 -1      3094-4.90579E-01-2.52050E-01-1.15209E-01-3.80169E-01 2.28071E-01-9.56904E-01
 -1      3095-3.06548E+00-1.79395E+00-9.51611E-01-1.20337E-01 8.24391E-02-7.17385E-01
 -1      3096 5.21014E-02 3.92573E-01 3.96969E-01 1.16446E-02 2.70085E-01 1.26242E-01
 -1      3097 7.25765E-02-9.24317E-02-6.06934E-01-2.09805E-01 5.06998E-01-9.25423E-02
 -1      3098-9.88142E-02-3.13637E-01-7.82980E-01-2.94645E-01-4.00097E-01-1.10365E-01
 -1      3099-3.79024E-01-4.97298E-01-5.16676E-01-7.74990E-02-1.34346E-01-3.00630E-01
 -1      3100-4.83789E-01-3.02859E-01-3.57621E-01 7.82590E-02 4.09893E-01-6.12501E-01
 -1      3101-1.75101E+00-1.19697E+00-1.17268E+00-1.85368E-01-2.96095E-01-5.06432E-01
 -1      3102 1.22003E+00 1.38330E+00 9.96849E-01 1.22787E-02 1.24348E-01-1.35651E-01
 -1      3103 1.51667E+00 1.14776E+00 1.03261E+00 2.50469E-01-5.18929E-01-5.07586E-01
 -1      3104 4.87501E-01 7.79316E-01 7.64965E-01-1.28480E-02-2.07232E-01 1.98861E-01
 -1      3105-3.40022E-01-5.39090E-02-2.41056E-01 8.76786E-02 2.00348E-01-4.56034E-01
 -1      3106-1.79254E+00-7.14176E-01-8.09437E-01-1.29749E-01 4.74015E-01-8.67231E-01
 -1      3107 1.16306E+00 6.29601E-01 5.64648E-01-2.03804E-01 4.37044E-02-6.18405E-01
 -1      3108 1.06156E+00 4.81832E-01 4.59027E-01 7.23238E-02 2.20001E-01-5.48897E-01
 -1      3109 6.36767E-02 3.67512E-01 7.04836E-01-5.87345E-02 2.81686E-01-1.90723E-01
 -1      3110-1.39711E-01 4.91175E-02 3.67301E-02-1.97801E-01-3.77637E-01-2.74916E-01
 -1      3111-1.16474E-03-6.20597E-02 1.61662E-01 6.00146E-03 9.77948E-02-4.91403E-01
 -1      3112 1.92295E+00 1.59531E+00 1.03131E+00-1.07018E-01 7.09082E-01-8.65043E-02
 -1      3113 7.94796E-01 1.22491E+00 1.02611E+00 5.16614E-02-1.23328E-01-1.01890E-01
 -1      3114 1.86741E-01 1.19405E-01 1.19504E-01 4.18257E-01 1.61946E-01-7.53473E-01
 -1      3115 2.13642E-01 2.16257E-01 1.68891E-01 1.57715E-01-1.60091E-01-1.76622E-01
 -1      3116-5.29958E-02-2.57990E-01-1.34337E-01 8.90947E-02 1.34159E-01 6.20139E-02
 -1      3117-1.36998E-01 6.90055E-02 1.32704E-01 1.17387E-01 1.83592E-01-4.13144E-01
 -1      3118-1.49715E-01-2.96010E-01-2.96523E-01 9.26934E-02 1.41916E-01-4.15260E-01
 -1      3119 4.10246E-01 5.88439E-01 6.08845E-01 2.23408E-02 1.77724E-03-9.69026E-03
 -1      3120-1.68803E-01-2.71454E-01-4.61704E-01 4.39006E-02 1.31837E-01-3.32787E-01
 -1      3121 2.91677E-01 4.66871E-01 6.76121E-01-2.31157E-02-2.56207E-01-2.47945E-02
 -1      3122 5.70709E-02 3.15018E-01 4.31881E-01 6.05755E-02-5.16650E-02-3.75632E-01
 -1      3123-2.17046E-01-2.54027E-01-1.28713E-01 1.30023E-01-9.90748E-02-9.14225E-01
 -1      3124-1.39551E-01 2.09379E-02 1.87265E-01 1.94944E-01-2.60198E-01-3.97891E-01
 -1      3125 4.16233E-01 2.14402E-01 1.37464E-01-3.60662E-01-1.94768E-01-1.04309E+00
 -1      3126 1.81743E-02-3.35321E-01-6.42774E-01-1.19471E-01-9.79684E-02-7.79620E-02
 -1      3127 1.32038E-02-4.28232E-01-6.68057E-01 5.59440E-03-2.80252E-02-1.17066E-01
 -1      3128-1.89138E-01-3.04940E-01-2.30010E-01-1.64469E-01-2.30458E-01-8.78661E-02
 -1      3129 1.26456E-01 3.06299E-01 5.24264E-01 8.33573E-02 3.10468E-02-4.56306E-01
 -1      3130-5.22130E-01-4.83026E-01-9.67258E-02 5.99410E-01 1.04770E-01-7.91707E-01
 -1      3131 2.76828E-01-5.95206E-02 1.17457E-02-3.64765E-01-1.76688E-01-7.04077E-01
 -1      3132 1.32194E+00 1.06753E+00 8.27619E-01 1.16751E-01 1.38028E-01-4.23508E-01
 -3
 9999
