    1C
    1U meshsolid_t.inp                                                  
    1UUSER                                                              
    1UDATE              11.july.2016                                    
    1UTIME              01:49:01                                        
    1UHOST                                                              
    1UPGM               CalculiX                                        
    1UVERSION           Version 2.10                             
    1UCOMPILETIME       Sa 5. MÃ¤r 12:23:33 CET 2016                    
    1UDIR                                                               
    1UDBN                                                               
    1UMAT    1PDMS                                                      
    2C                          2745                                     1
 -1         1 2.32070E+00-4.50000E-01 5.00000E-01
 -1         2 2.32070E+00 4.50000E-01 1.45000E+00
 -1         3 2.32070E+00-4.50000E-01 1.45000E+00
 -1         4 8.13414E+00 9.00000E-01 1.45000E+00
 -1         5 5.28227E+00 4.50000E-01 1.45000E+00
 -1         6 8.13414E+00-9.00000E-01 1.45000E+00
 -1         7 1.10957E+01 4.50000E-01 1.45000E+00
 -1         8 8.13414E+00 4.50000E-01 1.45000E+00
 -1         9 1.10957E+01-4.50000E-01 1.45000E+00
 -1        10 5.28227E+00 4.50000E-01 5.00000E-01
 -1        11 2.32070E+00 4.50000E-01 5.00000E-01
 -1        12 5.28227E+00-4.50000E-01 1.45000E+00
 -1        13 1.10957E+01-4.50000E-01 5.00000E-01
 -1        14 5.28227E+00-4.50000E-01 5.00000E-01
 -1        15 8.13414E+00-4.50000E-01 1.45000E+00
 -1        16 8.13414E+00 4.50000E-01 5.00000E-01
 -1        17 5.28227E+00-9.00000E-01 1.45000E+00
 -1        18 8.13414E+00-9.00000E-01 5.00000E-01
 -1        19 5.28227E+00 9.00000E-01 1.45000E+00
 -1        20 2.31626E+00 4.72349E-01 5.00000E-01
 -1        21 7.68717E+00 2.69706E+00 1.45000E+00
 -1        22 1.00789E+01 4.66189E+00 1.45000E+00
 -1        23 7.85938E+00 2.28131E+00 1.45000E+00
 -1        24 7.34276E+00 3.52855E+00 1.45000E+00
 -1        25 4.70797E+00 2.43718E+00 1.45000E+00
 -1        26 5.22459E+00 1.18994E+00 1.45000E+00
 -1        27 7.17055E+00 3.94429E+00 1.45000E+00
 -1        28 1.00789E+01 4.66189E+00 5.00000E-01
 -1        29 1.04233E+01 3.83040E+00 1.45000E+00
 -1        30 1.97184E+00 1.30384E+00 1.45000E+00
 -1        31 4.70797E+00 2.43718E+00 5.00000E-01
 -1        32 2.31626E+00 4.72349E-01 1.45000E+00
 -1        33 5.05239E+00 1.60569E+00 1.45000E+00
 -1        34 5.05239E+00 1.60569E+00 5.00000E-01
 -1        35 4.53576E+00 2.85293E+00 1.45000E+00
 -1        36 7.68717E+00 2.69706E+00 5.00000E-01
 -1        37 7.17055E+00 3.94429E+00 5.00000E-01
 -1        38 7.34276E+00 3.52855E+00 5.00000E-01
 -1        39 5.43351E+00 6.06990E+00 1.45000E+00
 -1        40 6.06990E+00 5.43351E+00 1.45000E+00
 -1        41 6.38810E+00 5.11531E+00 1.45000E+00
 -1        42 8.16405E+00 7.52765E+00 1.45000E+00
 -1        43 7.52765E+00 8.16405E+00 5.00000E-01
 -1        44 7.52765E+00 8.16405E+00 1.45000E+00
 -1        45 5.43351E+00 6.06990E+00 5.00000E-01
 -1        46 3.41693E+00 4.05332E+00 5.00000E-01
 -1        47 1.32279E+00 1.95918E+00 1.45000E+00
 -1        48 1.95918E+00 1.32279E+00 1.45000E+00
 -1        49 4.05332E+00 3.41693E+00 1.45000E+00
 -1        50 6.06990E+00 5.43351E+00 5.00000E-01
 -1        51 4.37152E+00 3.09873E+00 1.45000E+00
 -1        52 3.09873E+00 4.37152E+00 1.45000E+00
 -1        53 3.41693E+00 4.05332E+00 1.45000E+00
 -1        54 5.11531E+00 6.38810E+00 1.45000E+00
 -1        55 6.38810E+00 5.11531E+00 5.00000E-01
 -1        56 4.37152E+00 3.09873E+00 5.00000E-01
 -1        57 5.11531E+00 6.38810E+00 5.00000E-01
 -1        58 3.09873E+00 4.37152E+00 5.00000E-01
 -1        59 2.28131E+00 7.85938E+00 1.45000E+00
 -1        60 3.52855E+00 7.34276E+00 1.45000E+00
 -1        61 2.69706E+00 7.68717E+00 1.45000E+00
 -1        62 2.43718E+00 4.70797E+00 1.45000E+00
 -1        63 1.30384E+00 1.97184E+00 1.45000E+00
 -1        64 4.72349E-01 2.31626E+00 1.45000E+00
 -1        65 3.83040E+00 1.04233E+01 1.45000E+00
 -1        66 2.69706E+00 7.68717E+00 5.00000E-01
 -1        67 3.83040E+00 1.04233E+01 5.00000E-01
 -1        68 1.60569E+00 5.05239E+00 1.45000E+00
 -1        69 4.72349E-01 2.31626E+00 5.00000E-01
 -1        70 1.30384E+00 1.97184E+00 5.00000E-01
 -1        71 4.66189E+00 1.00789E+01 1.45000E+00
 -1        72 2.43718E+00 4.70797E+00 5.00000E-01
 -1        73 3.94429E+00 7.17055E+00 1.45000E+00
 -1        74 2.85293E+00 4.53576E+00 1.45000E+00
 -1        75 1.18994E+00 5.22459E+00 1.45000E+00
 -1        76-4.50000E-01 8.13414E+00 1.45000E+00
 -1        77 4.50000E-01 1.10957E+01 1.45000E+00
 -1        78-4.50000E-01 5.28227E+00 1.45000E+00
 -1        79 4.50000E-01 8.13414E+00 1.45000E+00
 -1        80-4.50000E-01 1.10957E+01 1.45000E+00
 -1        81-4.50000E-01 2.32070E+00 5.00000E-01
 -1        82-4.50000E-01 5.28227E+00 5.00000E-01
 -1        83-4.50000E-01 2.32070E+00 1.45000E+00
 -1        84 4.50000E-01 2.32070E+00 1.45000E+00
 -1        85 4.50000E-01 1.10957E+01 5.00000E-01
 -1        86 4.50000E-01 8.13414E+00 5.00000E-01
 -1        87 4.50000E-01 5.28227E+00 1.45000E+00
 -1        88 4.50000E-01 5.28227E+00 5.00000E-01
 -1        89 9.00000E-01 5.28227E+00 5.00000E-01
 -1        90-9.00000E-01 5.28227E+00 5.00000E-01
 -1        91 9.00000E-01 8.13414E+00 5.00000E-01
 -1        92-4.50000E-01 8.13414E+00 5.00000E-01
 -1        93 9.00000E-01 5.28227E+00 1.45000E+00
 -1        94 9.00000E-01 8.13414E+00 1.45000E+00
 -1        95-9.00000E-01 8.13414E+00 5.00000E-01
 -1        96-9.00000E-01 8.13414E+00 1.45000E+00
 -1        97-9.00000E-01 5.28227E+00 1.45000E+00
 -1        98-4.72349E-01 2.31626E+00 1.45000E+00
 -1        99-1.30384E+00 1.97184E+00 1.45000E+00
 -1       100-1.60569E+00 5.05239E+00 1.45000E+00
 -1       101-2.28131E+00 7.85938E+00 1.45000E+00
 -1       102-2.43718E+00 4.70797E+00 1.45000E+00
 -1       103-2.85293E+00 4.53576E+00 1.45000E+00
 -1       104-3.52855E+00 7.34276E+00 1.45000E+00
 -1       105-3.94429E+00 7.17055E+00 1.45000E+00
 -1       106-3.83040E+00 1.04233E+01 5.00000E-01
 -1       107-3.83040E+00 1.04233E+01 1.45000E+00
 -1       108-4.66189E+00 1.00789E+01 1.45000E+00
 -1       109-1.30384E+00 1.97184E+00 5.00000E-01
 -1       110-2.43718E+00 4.70797E+00 5.00000E-01
 -1       111-1.60569E+00 5.05239E+00 5.00000E-01
 -1       112-2.69706E+00 7.68717E+00 1.45000E+00
 -1       113-2.69706E+00 7.68717E+00 5.00000E-01
 -1       114-1.18994E+00 5.22459E+00 1.45000E+00
 -1       115-3.52855E+00 7.34276E+00 5.00000E-01
 -1       116-2.85293E+00 4.53576E+00 5.00000E-01
 -1       117-1.95918E+00 1.32279E+00 1.45000E+00
 -1       118-3.41693E+00 4.05332E+00 1.45000E+00
 -1       119-7.52765E+00 8.16405E+00 1.45000E+00
 -1       120-6.06990E+00 5.43351E+00 5.00000E-01
 -1       121-8.16405E+00 7.52765E+00 1.45000E+00
 -1       122-6.06990E+00 5.43351E+00 1.45000E+00
 -1       123-4.05332E+00 3.41693E+00 1.45000E+00
 -1       124-1.32279E+00 1.95918E+00 1.45000E+00
 -1       125-5.43351E+00 6.06990E+00 1.45000E+00
 -1       126-5.43351E+00 6.06990E+00 5.00000E-01
 -1       127-3.41693E+00 4.05332E+00 5.00000E-01
 -1       128-4.37152E+00 3.09873E+00 5.00000E-01
 -1       129-4.37152E+00 3.09873E+00 1.45000E+00
 -1       130-5.11531E+00 6.38810E+00 1.45000E+00
 -1       131-5.11531E+00 6.38810E+00 5.00000E-01
 -1       132-6.38810E+00 5.11531E+00 1.45000E+00
 -1       133-3.09873E+00 4.37152E+00 1.45000E+00
 -1       134-1.97184E+00 1.30384E+00 5.00000E-01
 -1       135-1.04233E+01 3.83040E+00 1.45000E+00
 -1       136-7.34276E+00 3.52855E+00 1.45000E+00
 -1       137-4.70797E+00 2.43718E+00 1.45000E+00
 -1       138-5.22459E+00 1.18994E+00 1.45000E+00
 -1       139-7.85938E+00 2.28131E+00 1.45000E+00
 -1       140-2.31626E+00 4.72349E-01 1.45000E+00
 -1       141-1.04233E+01 3.83040E+00 5.00000E-01
 -1       142-1.97184E+00 1.30384E+00 1.45000E+00
 -1       143-1.00789E+01 4.66189E+00 1.45000E+00
 -1       144-4.70797E+00 2.43718E+00 5.00000E-01
 -1       145-5.05239E+00 1.60569E+00 1.45000E+00
 -1       146-5.05239E+00 1.60569E+00 5.00000E-01
 -1       147-7.17055E+00 3.94429E+00 1.45000E+00
 -1       148-7.34276E+00 3.52855E+00 5.00000E-01
 -1       149-7.85938E+00 2.28131E+00 5.00000E-01
 -1       150-7.68717E+00 2.69706E+00 1.45000E+00
 -1       151-4.53576E+00 2.85293E+00 1.45000E+00
 -1       152-5.28227E+00 4.50000E-01 1.45000E+00
 -1       153-8.13414E+00 4.50000E-01 1.45000E+00
 -1       154-5.28227E+00 9.00000E-01 1.45000E+00
 -1       155-5.28227E+00-4.50000E-01 1.45000E+00
 -1       156-8.13414E+00-4.50000E-01 1.45000E+00
 -1       157-5.28227E+00-9.00000E-01 1.45000E+00
 -1       158-2.32070E+00-4.50000E-01 1.45000E+00
 -1       159-1.10957E+01 4.50000E-01 1.45000E+00
 -1       160-1.10957E+01-4.50000E-01 1.45000E+00
 -1       161-2.32070E+00 4.50000E-01 1.45000E+00
 -1       162-5.28227E+00 4.50000E-01 5.00000E-01
 -1       163-8.13414E+00 9.00000E-01 1.45000E+00
 -1       164-8.13414E+00-4.50000E-01 5.00000E-01
 -1       165-8.13414E+00-9.00000E-01 1.45000E+00
 -1       166-5.28227E+00-9.00000E-01 5.00000E-01
 -1       167-2.31626E+00-4.72349E-01 5.00000E-01
 -1       168-2.31626E+00-4.72349E-01 1.45000E+00
 -1       169-4.70797E+00-2.43718E+00 1.45000E+00
 -1       170-7.68717E+00-2.69706E+00 1.45000E+00
 -1       171-7.34276E+00-3.52855E+00 1.45000E+00
 -1       172-7.85938E+00-2.28131E+00 1.45000E+00
 -1       173-1.04233E+01-3.83040E+00 1.45000E+00
 -1       174-1.00789E+01-4.66189E+00 1.45000E+00
 -1       175-7.34276E+00-3.52855E+00 5.00000E-01
 -1       176-1.97184E+00-1.30384E+00 1.45000E+00
 -1       177-5.05239E+00-1.60569E+00 5.00000E-01
 -1       178-7.68717E+00-2.69706E+00 5.00000E-01
 -1       179-5.05239E+00-1.60569E+00 1.45000E+00
 -1       180-5.22459E+00-1.18994E+00 5.00000E-01
 -1       181-4.53576E+00-2.85293E+00 1.45000E+00
 -1       182-7.17055E+00-3.94429E+00 1.45000E+00
 -1       183-5.22459E+00-1.18994E+00 1.45000E+00
 -1       184-1.32279E+00-1.95918E+00 1.45000E+00
 -1       185-4.05332E+00-3.41693E+00 1.45000E+00
 -1       186-4.37152E+00-3.09873E+00 1.45000E+00
 -1       187-5.43351E+00-6.06990E+00 1.45000E+00
 -1       188-7.52765E+00-8.16405E+00 5.00000E-01
 -1       189-5.43351E+00-6.06990E+00 5.00000E-01
 -1       190-7.52765E+00-8.16405E+00 1.45000E+00
 -1       191-3.41693E+00-4.05332E+00 1.45000E+00
 -1       192-3.41693E+00-4.05332E+00 5.00000E-01
 -1       193-4.05332E+00-3.41693E+00 5.00000E-01
 -1       194-1.95918E+00-1.32279E+00 1.45000E+00
 -1       195-6.06990E+00-5.43351E+00 1.45000E+00
 -1       196-6.06990E+00-5.43351E+00 5.00000E-01
 -1       197-8.16405E+00-7.52765E+00 1.45000E+00
 -1       198-3.09873E+00-4.37152E+00 5.00000E-01
 -1       199-6.38810E+00-5.11531E+00 5.00000E-01
 -1       200-6.38810E+00-5.11531E+00 1.45000E+00
 -1       201-5.11531E+00-6.38810E+00 1.45000E+00
 -1       202-3.09873E+00-4.37152E+00 1.45000E+00
 -1       203-1.30384E+00-1.97184E+00 1.45000E+00
 -1       204-1.30384E+00-1.97184E+00 5.00000E-01
 -1       205-2.85293E+00-4.53576E+00 1.45000E+00
 -1       206-3.52855E+00-7.34276E+00 1.45000E+00
 -1       207-4.72349E-01-2.31626E+00 1.45000E+00
 -1       208-1.60569E+00-5.05239E+00 1.45000E+00
 -1       209-2.43718E+00-4.70797E+00 1.45000E+00
 -1       210-2.69706E+00-7.68717E+00 1.45000E+00
 -1       211-3.83040E+00-1.04233E+01 1.45000E+00
 -1       212-1.18994E+00-5.22459E+00 1.45000E+00
 -1       213-4.72349E-01-2.31626E+00 5.00000E-01
 -1       214-4.66189E+00-1.00789E+01 1.45000E+00
 -1       215-1.18994E+00-5.22459E+00 5.00000E-01
 -1       216-2.69706E+00-7.68717E+00 5.00000E-01
 -1       217-2.28131E+00-7.85938E+00 1.45000E+00
 -1       218-3.94429E+00-7.17055E+00 5.00000E-01
 -1       219-2.85293E+00-4.53576E+00 5.00000E-01
 -1       220-3.94429E+00-7.17055E+00 1.45000E+00
 -1       221-4.50000E-01-2.32070E+00 1.45000E+00
 -1       222 4.50000E-01-2.32070E+00 1.45000E+00
 -1       223 4.50000E-01-8.13414E+00 1.45000E+00
 -1       224 9.00000E-01-8.13414E+00 1.45000E+00
 -1       225 4.50000E-01-1.10957E+01 1.45000E+00
 -1       226 4.50000E-01-1.10957E+01 5.00000E-01
 -1       227 4.50000E-01-8.13414E+00 5.00000E-01
 -1       228 4.50000E-01-5.28227E+00 1.45000E+00
 -1       229-4.50000E-01-1.10957E+01 1.45000E+00
 -1       230-4.50000E-01-5.28227E+00 5.00000E-01
 -1       231-9.00000E-01-5.28227E+00 1.45000E+00
 -1       232-4.50000E-01-5.28227E+00 1.45000E+00
 -1       233 9.00000E-01-5.28227E+00 1.45000E+00
 -1       234-4.50000E-01-8.13414E+00 1.45000E+00
 -1       235-9.00000E-01-8.13414E+00 1.45000E+00
 -1       236-4.50000E-01-8.13414E+00 5.00000E-01
 -1       237 9.00000E-01-5.28227E+00 5.00000E-01
 -1       238 4.72349E-01-2.31626E+00 5.00000E-01
 -1       239 3.94429E+00-7.17055E+00 1.45000E+00
 -1       240 4.66189E+00-1.00789E+01 1.45000E+00
 -1       241 2.85293E+00-4.53576E+00 1.45000E+00
 -1       242 2.69706E+00-7.68717E+00 1.45000E+00
 -1       243 2.28131E+00-7.85938E+00 1.45000E+00
 -1       244 3.83040E+00-1.04233E+01 5.00000E-01
 -1       245 3.83040E+00-1.04233E+01 1.45000E+00
 -1       246 3.52855E+00-7.34276E+00 1.45000E+00
 -1       247 3.52855E+00-7.34276E+00 5.00000E-01
 -1       248 1.30384E+00-1.97184E+00 1.45000E+00
 -1       249 2.43718E+00-4.70797E+00 1.45000E+00
 -1       250 4.72349E-01-2.31626E+00 1.45000E+00
 -1       251 1.60569E+00-5.05239E+00 5.00000E-01
 -1       252 1.18994E+00-5.22459E+00 1.45000E+00
 -1       253 1.60569E+00-5.05239E+00 1.45000E+00
 -1       254 2.28131E+00-7.85938E+00 5.00000E-01
 -1       255 2.69706E+00-7.68717E+00 5.00000E-01
 -1       256 1.18994E+00-5.22459E+00 5.00000E-01
 -1       257 3.41693E+00-4.05332E+00 1.45000E+00
 -1       258 1.95918E+00-1.32279E+00 1.45000E+00
 -1       259 4.05332E+00-3.41693E+00 1.45000E+00
 -1       260 6.06990E+00-5.43351E+00 1.45000E+00
 -1       261 7.52765E+00-8.16405E+00 1.45000E+00
 -1       262 8.16405E+00-7.52765E+00 1.45000E+00
 -1       263 1.32279E+00-1.95918E+00 1.45000E+00
 -1       264 3.41693E+00-4.05332E+00 5.00000E-01
 -1       265 5.43351E+00-6.06990E+00 1.45000E+00
 -1       266 3.09873E+00-4.37152E+00 5.00000E-01
 -1       267 3.09873E+00-4.37152E+00 1.45000E+00
 -1       268 4.37152E+00-3.09873E+00 1.45000E+00
 -1       269 5.11531E+00-6.38810E+00 1.45000E+00
 -1       270 6.38810E+00-5.11531E+00 1.45000E+00
 -1       271 4.37152E+00-3.09873E+00 5.00000E-01
 -1       272 2.31626E+00-4.72349E-01 1.45000E+00
 -1       273 1.97184E+00-1.30384E+00 1.45000E+00
 -1       274 5.05239E+00-1.60569E+00 1.45000E+00
 -1       275 7.34276E+00-3.52855E+00 1.45000E+00
 -1       276 1.04233E+01-3.83040E+00 1.45000E+00
 -1       277 1.00789E+01-4.66189E+00 1.45000E+00
 -1       278 7.68717E+00-2.69706E+00 1.45000E+00
 -1       279 4.70797E+00-2.43718E+00 1.45000E+00
 -1       280 4.70797E+00-2.43718E+00 5.00000E-01
 -1       281 4.53576E+00-2.85293E+00 1.45000E+00
 -1       282 7.34276E+00-3.52855E+00 5.00000E-01
 -1       283 7.85938E+00-2.28131E+00 1.45000E+00
 -1       284 7.17055E+00-3.94429E+00 1.45000E+00
 -1       285 7.85938E+00-2.28131E+00 5.00000E-01
 -1       286 5.22459E+00-1.18994E+00 1.45000E+00
 -1       287 1.50000E+01 0.00000E+00-5.00000E-01
 -1       288-5.74025E+00-1.38582E+01 5.00000E-01
 -1       289-2.92635E+00-1.47118E+01 5.00000E-01
 -1       290-5.74025E+00-1.38582E+01-5.00000E-01
 -1       291 1.06066E+01 1.06066E+01-5.00000E-01
 -1       292 1.24720E+01 8.33355E+00-5.00000E-01
 -1       293-1.38582E+01 5.74025E+00-5.00000E-01
 -1       294 1.06066E+01-1.06066E+01 5.00000E-01
 -1       295 8.33355E+00 1.24720E+01-5.00000E-01
 -1       296 5.74025E+00 1.38582E+01-5.00000E-01
 -1       297 0.00000E+00 1.50000E+01 5.00000E-01
 -1       298-1.50000E+01 0.00000E+00-5.00000E-01
 -1       299-1.06066E+01 1.06066E+01-5.00000E-01
 -1       300-1.06066E+01 1.06066E+01 5.00000E-01
 -1       301-1.24720E+01 8.33355E+00-5.00000E-01
 -1       302-5.74025E+00 1.38582E+01-5.00000E-01
 -1       303 1.47118E+01 2.92635E+00-5.00000E-01
 -1       304 1.47118E+01-2.92635E+00-5.00000E-01
 -1       305 5.74025E+00-1.38582E+01 5.00000E-01
 -1       306 2.92635E+00-1.47118E+01-5.00000E-01
 -1       307 5.74025E+00-1.38582E+01-5.00000E-01
 -1       308 8.33355E+00-1.24720E+01 5.00000E-01
 -1       309 0.00000E+00-1.50000E+01 5.00000E-01
 -1       310-8.33355E+00-1.24720E+01 5.00000E-01
 -1       311-1.38582E+01-5.74025E+00 5.00000E-01
 -1       312 1.38582E+01 5.74025E+00-5.00000E-01
 -1       313 8.33355E+00-1.24720E+01-5.00000E-01
 -1       314 2.92635E+00 1.47118E+01-5.00000E-01
 -1       315 0.00000E+00-1.50000E+01-5.00000E-01
 -1       316 0.00000E+00 1.50000E+01-5.00000E-01
 -1       317-2.92635E+00-1.47118E+01-5.00000E-01
 -1       318-2.92635E+00 1.47118E+01-5.00000E-01
 -1       319-8.33355E+00-1.24720E+01-5.00000E-01
 -1       320-8.33355E+00 1.24720E+01-5.00000E-01
 -1       321-1.24720E+01-8.33355E+00-5.00000E-01
 -1       322-1.47118E+01-2.92635E+00-5.00000E-01
 -1       323-1.06066E+01-1.06066E+01-5.00000E-01
 -1       324-7.68717E+00 2.69706E+00 5.00000E-01
 -1       325-8.13414E+00 9.00000E-01 5.00000E-01
 -1       326-1.10957E+01 4.50000E-01 5.00000E-01
 -1       327-8.13414E+00 4.50000E-01 5.00000E-01
 -1       328-1.00789E+01 4.66189E+00 5.00000E-01
 -1       329-1.04233E+01-3.83040E+00 5.00000E-01
 -1       330-7.85938E+00-2.28131E+00 5.00000E-01
 -1       331-8.13414E+00-9.00000E-01 5.00000E-01
 -1       332-1.24720E+01-8.33355E+00 5.00000E-01
 -1       333-1.10957E+01-4.50000E-01 5.00000E-01
 -1       334-1.50000E+01 0.00000E+00 5.00000E-01
 -1       335-8.16405E+00 7.52765E+00 5.00000E-01
 -1       336-1.24720E+01 8.33355E+00 5.00000E-01
 -1       337-5.28227E+00 9.00000E-01 5.00000E-01
 -1       338-5.22459E+00 1.18994E+00 5.00000E-01
 -1       339-7.17055E+00-3.94429E+00 5.00000E-01
 -1       340-8.16405E+00-7.52765E+00 5.00000E-01
 -1       341-1.06066E+01-1.06066E+01 5.00000E-01
 -1       342-1.00789E+01-4.66189E+00 5.00000E-01
 -1       343-4.53576E+00 2.85293E+00 5.00000E-01
 -1       344-6.38810E+00 5.11531E+00 5.00000E-01
 -1       345-7.17055E+00 3.94429E+00 5.00000E-01
 -1       346-3.52855E+00-7.34276E+00 5.00000E-01
 -1       347-4.53576E+00-2.85293E+00 5.00000E-01
 -1       348-3.94429E+00 7.17055E+00 5.00000E-01
 -1       349-3.09873E+00 4.37152E+00 5.00000E-01
 -1       350-2.31626E+00 4.72349E-01 5.00000E-01
 -1       351-1.95918E+00 1.32279E+00 5.00000E-01
 -1       352-1.95918E+00-1.32279E+00 5.00000E-01
 -1       353-4.05332E+00 3.41693E+00 5.00000E-01
 -1       354-4.50000E-01-2.32070E+00 5.00000E-01
 -1       355-9.00000E-01-5.28227E+00 5.00000E-01
 -1       356-1.60569E+00-5.05239E+00 5.00000E-01
 -1       357-1.32279E+00 1.95918E+00 5.00000E-01
 -1       358-1.32279E+00-1.95918E+00 5.00000E-01
 -1       359-2.43718E+00-4.70797E+00 5.00000E-01
 -1       360-4.37152E+00-3.09873E+00 5.00000E-01
 -1       361-1.97184E+00-1.30384E+00 5.00000E-01
 -1       362-4.70797E+00-2.43718E+00 5.00000E-01
 -1       363-2.32070E+00 4.50000E-01 5.00000E-01
 -1       364-2.32070E+00-4.50000E-01 5.00000E-01
 -1       365-5.28227E+00-4.50000E-01 5.00000E-01
 -1       366-5.11531E+00-6.38810E+00 5.00000E-01
 -1       367-4.72349E-01 2.31626E+00 5.00000E-01
 -1       368 4.50000E-01 2.32070E+00 5.00000E-01
 -1       369 4.50000E-01-2.32070E+00 5.00000E-01
 -1       370 4.50000E-01-5.28227E+00 5.00000E-01
 -1       371 1.18994E+00 5.22459E+00 5.00000E-01
 -1       372 1.60569E+00 5.05239E+00 5.00000E-01
 -1       373 3.52855E+00 7.34276E+00 5.00000E-01
 -1       374 3.94429E+00 7.17055E+00 5.00000E-01
 -1       375 4.05332E+00-3.41693E+00 5.00000E-01
 -1       376 1.95918E+00 1.32279E+00 5.00000E-01
 -1       377 1.97184E+00-1.30384E+00 5.00000E-01
 -1       378 1.95918E+00-1.32279E+00 5.00000E-01
 -1       379 1.32279E+00 1.95918E+00 5.00000E-01
 -1       380 3.94429E+00-7.17055E+00 5.00000E-01
 -1       381 2.85293E+00 4.53576E+00 5.00000E-01
 -1       382 5.11531E+00-6.38810E+00 5.00000E-01
 -1       383 4.66189E+00-1.00789E+01 5.00000E-01
 -1       384 5.28227E+00-9.00000E-01 5.00000E-01
 -1       385 5.05239E+00-1.60569E+00 5.00000E-01
 -1       386 2.31626E+00-4.72349E-01 5.00000E-01
 -1       387 4.53576E+00-2.85293E+00 5.00000E-01
 -1       388 7.17055E+00-3.94429E+00 5.00000E-01
 -1       389 6.38810E+00-5.11531E+00 5.00000E-01
 -1       390 5.22459E+00-1.18994E+00 5.00000E-01
 -1       391 8.13414E+00 9.00000E-01 5.00000E-01
 -1       392 7.85938E+00 2.28131E+00 5.00000E-01
 -1       393 4.66189E+00 1.00789E+01 5.00000E-01
 -1       394 8.33355E+00 1.24720E+01 5.00000E-01
 -1       395 5.74025E+00 1.38582E+01 5.00000E-01
 -1       396 2.28131E+00 7.85938E+00 5.00000E-01
 -1       397 2.92635E+00 1.47118E+01 5.00000E-01
 -1       398-4.50000E-01 1.10957E+01 5.00000E-01
 -1       399-2.28131E+00 7.85938E+00 5.00000E-01
 -1       400-1.18994E+00 5.22459E+00 5.00000E-01
 -1       401-5.74025E+00 1.38582E+01 5.00000E-01
 -1       402-2.92635E+00 1.47118E+01 5.00000E-01
 -1       403-4.66189E+00 1.00789E+01 5.00000E-01
 -1       404-7.52765E+00 8.16405E+00 5.00000E-01
 -1       405-8.33355E+00 1.24720E+01 5.00000E-01
 -1       406 1.38582E+01 5.74025E+00 5.00000E-01
 -1       407 8.16405E+00 7.52765E+00 5.00000E-01
 -1       408 1.04233E+01 3.83040E+00 5.00000E-01
 -1       409 1.47118E+01 2.92635E+00 5.00000E-01
 -1       410 1.24720E+01 8.33355E+00 5.00000E-01
 -1       411 1.50000E+01 0.00000E+00 5.00000E-01
 -1       412 1.47118E+01-2.92635E+00 5.00000E-01
 -1       413 1.06066E+01 1.06066E+01 5.00000E-01
 -1       414 1.10957E+01 4.50000E-01 5.00000E-01
 -1       415 1.04233E+01-3.83040E+00 5.00000E-01
 -1       416 1.00789E+01-4.66189E+00 5.00000E-01
 -1       417 8.13414E+00-4.50000E-01 5.00000E-01
 -1       418 7.68717E+00-2.69706E+00 5.00000E-01
 -1       419 8.16405E+00-7.52765E+00 5.00000E-01
 -1       420 7.52765E+00-8.16405E+00 5.00000E-01
 -1       421 6.06990E+00-5.43351E+00 5.00000E-01
 -1       422 5.43351E+00-6.06990E+00 5.00000E-01
 -1       423 9.00000E-01-8.13414E+00 5.00000E-01
 -1       424 2.92635E+00-1.47118E+01 5.00000E-01
 -1       425-3.83040E+00-1.04233E+01 5.00000E-01
 -1       426-4.50000E-01-1.10957E+01 5.00000E-01
 -1       427-9.00000E-01-8.13414E+00 5.00000E-01
 -1       428-2.28131E+00-7.85938E+00 5.00000E-01
 -1       429-4.66189E+00-1.00789E+01 5.00000E-01
 -1       430 5.28227E+00 9.00000E-01 5.00000E-01
 -1       431 5.22459E+00 1.18994E+00 5.00000E-01
 -1       432 4.53576E+00 2.85293E+00 5.00000E-01
 -1       433 4.05332E+00 3.41693E+00 5.00000E-01
 -1       434 1.97184E+00 1.30384E+00 5.00000E-01
 -1       435 1.32279E+00-1.95918E+00 5.00000E-01
 -1       436 2.85293E+00-4.53576E+00 5.00000E-01
 -1       437 2.43718E+00-4.70797E+00 5.00000E-01
 -1       438 1.30384E+00-1.97184E+00 5.00000E-01
 -1       439-1.38582E+01 5.74025E+00 5.00000E-01
 -1       440-1.47118E+01 2.92635E+00-5.00000E-01
 -1       441-1.47118E+01 2.92635E+00 5.00000E-01
 -1       442 1.24720E+01-8.33355E+00-5.00000E-01
 -1       443 1.24720E+01-8.33355E+00 5.00000E-01
 -1       444 1.06066E+01-1.06066E+01-5.00000E-01
 -1       445 1.38582E+01-5.74025E+00 5.00000E-01
 -1       446 1.38582E+01-5.74025E+00-5.00000E-01
 -1       447-1.47118E+01-2.92635E+00 5.00000E-01
 -1       448-1.38582E+01-5.74025E+00-5.00000E-01
 -1       449 3.80149E+00 4.50000E-01 1.45000E+00
 -1       450 3.80149E+00-4.50000E-01 1.45000E+00
 -1       451 6.70821E+00 9.00000E-01 1.45000E+00
 -1       452 6.70821E+00-9.00000E-01 1.45000E+00
 -1       453 9.61492E+00 4.50000E-01 1.45000E+00
 -1       454 9.61492E+00-4.50000E-01 1.45000E+00
 -1       455 9.61492E+00 4.50000E-01 5.00000E-01
 -1       456 3.80149E+00 4.50000E-01 5.00000E-01
 -1       457 3.80149E+00-4.50000E-01 5.00000E-01
 -1       458 9.61492E+00-4.50000E-01 5.00000E-01
 -1       459 6.70821E+00-9.00000E-01 5.00000E-01
 -1       460 6.70821E+00 9.00000E-01 5.00000E-01
 -1       461 9.05523E+00 3.26373E+00 1.45000E+00
 -1       462 8.71083E+00 4.09522E+00 1.45000E+00
 -1       463 6.54199E+00 1.73563E+00 1.45000E+00
 -1       464 5.85316E+00 3.39861E+00 1.45000E+00
 -1       465 3.68432E+00 1.03902E+00 1.45000E+00
 -1       466 3.33991E+00 1.87051E+00 1.45000E+00
 -1       467 8.71083E+00 4.09522E+00 5.00000E-01
 -1       468 3.33991E+00 1.87051E+00 5.00000E-01
 -1       469 3.68432E+00 1.03902E+00 5.00000E-01
 -1       470 9.05523E+00 3.26373E+00 5.00000E-01
 -1       471 6.54199E+00 1.73563E+00 5.00000E-01
 -1       472 5.85316E+00 3.39861E+00 5.00000E-01
 -1       473 7.11697E+00 6.48058E+00 1.45000E+00
 -1       474 6.48058E+00 7.11697E+00 1.45000E+00
 -1       475 5.37981E+00 4.10702E+00 1.45000E+00
 -1       476 4.10702E+00 5.37981E+00 1.45000E+00
 -1       477 3.00625E+00 2.36986E+00 1.45000E+00
 -1       478 2.36986E+00 3.00625E+00 1.45000E+00
 -1       479 6.48058E+00 7.11697E+00 5.00000E-01
 -1       480 2.36986E+00 3.00625E+00 5.00000E-01
 -1       481 3.00625E+00 2.36986E+00 5.00000E-01
 -1       482 7.11697E+00 6.48058E+00 5.00000E-01
 -1       483 5.37981E+00 4.10702E+00 5.00000E-01
 -1       484 4.10702E+00 5.37981E+00 5.00000E-01
 -1       485 1.73563E+00 6.54199E+00 1.45000E+00
 -1       486 4.09522E+00 8.71083E+00 1.45000E+00
 -1       487 3.26373E+00 9.05523E+00 1.45000E+00
 -1       488 1.87051E+00 3.33991E+00 1.45000E+00
 -1       489 1.03902E+00 3.68432E+00 1.45000E+00
 -1       490 3.39861E+00 5.85316E+00 1.45000E+00
 -1       491 3.26373E+00 9.05523E+00 5.00000E-01
 -1       492 1.03902E+00 3.68432E+00 5.00000E-01
 -1       493 1.87051E+00 3.33991E+00 5.00000E-01
 -1       494 4.09522E+00 8.71083E+00 5.00000E-01
 -1       495 3.39861E+00 5.85316E+00 5.00000E-01
 -1       496 1.73563E+00 6.54199E+00 5.00000E-01
 -1       497-9.00000E-01 6.70821E+00 1.45000E+00
 -1       498 4.50000E-01 9.61492E+00 1.45000E+00
 -1       499-4.50000E-01 9.61492E+00 1.45000E+00
 -1       500 4.50000E-01 3.80149E+00 1.45000E+00
 -1       501-4.50000E-01 3.80149E+00 1.45000E+00
 -1       502 9.00000E-01 6.70821E+00 1.45000E+00
 -1       503-4.50000E-01 9.61492E+00 5.00000E-01
 -1       504-4.50000E-01 3.80149E+00 5.00000E-01
 -1       505 4.50000E-01 3.80149E+00 5.00000E-01
 -1       506 4.50000E-01 9.61492E+00 5.00000E-01
 -1       507 9.00000E-01 6.70821E+00 5.00000E-01
 -1       508-9.00000E-01 6.70821E+00 5.00000E-01
 -1       509-1.73563E+00 6.54199E+00 1.45000E+00
 -1       510-1.03902E+00 3.68432E+00 1.45000E+00
 -1       511-1.87051E+00 3.33991E+00 1.45000E+00
 -1       512-3.26373E+00 9.05523E+00 1.45000E+00
 -1       513-4.09522E+00 8.71083E+00 1.45000E+00
 -1       514-3.39861E+00 5.85316E+00 1.45000E+00
 -1       515-4.09522E+00 8.71083E+00 5.00000E-01
 -1       516-1.87051E+00 3.33991E+00 5.00000E-01
 -1       517-1.03902E+00 3.68432E+00 5.00000E-01
 -1       518-3.26373E+00 9.05523E+00 5.00000E-01
 -1       519-1.73563E+00 6.54199E+00 5.00000E-01
 -1       520-3.39861E+00 5.85316E+00 5.00000E-01
 -1       521-6.48058E+00 7.11697E+00 1.45000E+00
 -1       522-7.11697E+00 6.48058E+00 1.45000E+00
 -1       523-4.10702E+00 5.37981E+00 1.45000E+00
 -1       524-5.37981E+00 4.10702E+00 1.45000E+00
 -1       525-2.36986E+00 3.00625E+00 1.45000E+00
 -1       526-3.00625E+00 2.36986E+00 1.45000E+00
 -1       527-7.11697E+00 6.48058E+00 5.00000E-01
 -1       528-3.00625E+00 2.36986E+00 5.00000E-01
 -1       529-2.36986E+00 3.00625E+00 5.00000E-01
 -1       530-6.48058E+00 7.11697E+00 5.00000E-01
 -1       531-4.10702E+00 5.37981E+00 5.00000E-01
 -1       532-5.37981E+00 4.10702E+00 5.00000E-01
 -1       533-8.71083E+00 4.09522E+00 1.45000E+00
 -1       534-9.05523E+00 3.26373E+00 1.45000E+00
 -1       535-5.85316E+00 3.39861E+00 1.45000E+00
 -1       536-6.54199E+00 1.73563E+00 1.45000E+00
 -1       537-3.33991E+00 1.87051E+00 1.45000E+00
 -1       538-3.68432E+00 1.03902E+00 1.45000E+00
 -1       539-9.05523E+00 3.26373E+00 5.00000E-01
 -1       540-3.68432E+00 1.03902E+00 5.00000E-01
 -1       541-3.33991E+00 1.87051E+00 5.00000E-01
 -1       542-8.71083E+00 4.09522E+00 5.00000E-01
 -1       543-5.85316E+00 3.39861E+00 5.00000E-01
 -1       544-6.54199E+00 1.73563E+00 5.00000E-01
 -1       545-9.61492E+00 4.50000E-01 1.45000E+00
 -1       546-9.61492E+00-4.50000E-01 1.45000E+00
 -1       547-6.70821E+00 9.00000E-01 1.45000E+00
 -1       548-6.70821E+00-9.00000E-01 1.45000E+00
 -1       549-3.80149E+00 4.50000E-01 1.45000E+00
 -1       550-3.80149E+00-4.50000E-01 1.45000E+00
 -1       551-9.61492E+00-4.50000E-01 5.00000E-01
 -1       552-3.80149E+00-4.50000E-01 5.00000E-01
 -1       553-3.80149E+00 4.50000E-01 5.00000E-01
 -1       554-9.61492E+00 4.50000E-01 5.00000E-01
 -1       555-6.70821E+00 9.00000E-01 5.00000E-01
 -1       556-6.70821E+00-9.00000E-01 5.00000E-01
 -1       557-3.33991E+00-1.87051E+00 1.45000E+00
 -1       558-3.68432E+00-1.03902E+00 1.45000E+00
 -1       559-5.85316E+00-3.39861E+00 1.45000E+00
 -1       560-6.54199E+00-1.73563E+00 1.45000E+00
 -1       561-8.71083E+00-4.09522E+00 1.45000E+00
 -1       562-9.05523E+00-3.26373E+00 1.45000E+00
 -1       563-8.71083E+00-4.09522E+00 5.00000E-01
 -1       564-3.33991E+00-1.87051E+00 5.00000E-01
 -1       565-3.68432E+00-1.03902E+00 5.00000E-01
 -1       566-9.05523E+00-3.26373E+00 5.00000E-01
 -1       567-6.54199E+00-1.73563E+00 5.00000E-01
 -1       568-5.85316E+00-3.39861E+00 5.00000E-01
 -1       569-2.36986E+00-3.00625E+00 1.45000E+00
 -1       570-3.00625E+00-2.36986E+00 1.45000E+00
 -1       571-4.10702E+00-5.37981E+00 1.45000E+00
 -1       572-5.37981E+00-4.10702E+00 1.45000E+00
 -1       573-6.48058E+00-7.11697E+00 1.45000E+00
 -1       574-7.11697E+00-6.48058E+00 1.45000E+00
 -1       575-6.48058E+00-7.11697E+00 5.00000E-01
 -1       576-2.36986E+00-3.00625E+00 5.00000E-01
 -1       577-3.00625E+00-2.36986E+00 5.00000E-01
 -1       578-7.11697E+00-6.48058E+00 5.00000E-01
 -1       579-5.37981E+00-4.10702E+00 5.00000E-01
 -1       580-4.10702E+00-5.37981E+00 5.00000E-01
 -1       581-3.39861E+00-5.85316E+00 1.45000E+00
 -1       582-1.03902E+00-3.68432E+00 1.45000E+00
 -1       583-1.87051E+00-3.33991E+00 1.45000E+00
 -1       584-3.26373E+00-9.05523E+00 1.45000E+00
 -1       585-4.09522E+00-8.71083E+00 1.45000E+00
 -1       586-1.73563E+00-6.54199E+00 1.45000E+00
 -1       587-3.26373E+00-9.05523E+00 5.00000E-01
 -1       588-1.03902E+00-3.68432E+00 5.00000E-01
 -1       589-1.87051E+00-3.33991E+00 5.00000E-01
 -1       590-4.09522E+00-8.71083E+00 5.00000E-01
 -1       591-3.39861E+00-5.85316E+00 5.00000E-01
 -1       592-1.73563E+00-6.54199E+00 5.00000E-01
 -1       593-9.00000E-01-6.70821E+00 1.45000E+00
 -1       594 4.50000E-01-3.80149E+00 1.45000E+00
 -1       595-4.50000E-01-3.80149E+00 1.45000E+00
 -1       596 4.50000E-01-9.61492E+00 1.45000E+00
 -1       597-4.50000E-01-9.61492E+00 1.45000E+00
 -1       598 9.00000E-01-6.70821E+00 1.45000E+00
 -1       599 4.50000E-01-9.61492E+00 5.00000E-01
 -1       600 4.50000E-01-3.80149E+00 5.00000E-01
 -1       601-4.50000E-01-3.80149E+00 5.00000E-01
 -1       602-4.50000E-01-9.61492E+00 5.00000E-01
 -1       603-9.00000E-01-6.70821E+00 5.00000E-01
 -1       604 9.00000E-01-6.70821E+00 5.00000E-01
 -1       605 3.39861E+00-5.85316E+00 1.45000E+00
 -1       606 4.09522E+00-8.71083E+00 1.45000E+00
 -1       607 3.26373E+00-9.05523E+00 1.45000E+00
 -1       608 1.87051E+00-3.33991E+00 1.45000E+00
 -1       609 1.03902E+00-3.68432E+00 1.45000E+00
 -1       610 1.73563E+00-6.54199E+00 1.45000E+00
 -1       611 4.09522E+00-8.71083E+00 5.00000E-01
 -1       612 1.87051E+00-3.33991E+00 5.00000E-01
 -1       613 1.03902E+00-3.68432E+00 5.00000E-01
 -1       614 3.26373E+00-9.05523E+00 5.00000E-01
 -1       615 1.73563E+00-6.54199E+00 5.00000E-01
 -1       616 3.39861E+00-5.85316E+00 5.00000E-01
 -1       617 3.00625E+00-2.36986E+00 1.45000E+00
 -1       618 2.36986E+00-3.00625E+00 1.45000E+00
 -1       619 5.37981E+00-4.10702E+00 1.45000E+00
 -1       620 4.10702E+00-5.37981E+00 1.45000E+00
 -1       621 7.11697E+00-6.48058E+00 1.45000E+00
 -1       622 6.48058E+00-7.11697E+00 1.45000E+00
 -1       623 7.11697E+00-6.48058E+00 5.00000E-01
 -1       624 3.00625E+00-2.36986E+00 5.00000E-01
 -1       625 2.36986E+00-3.00625E+00 5.00000E-01
 -1       626 6.48058E+00-7.11697E+00 5.00000E-01
 -1       627 4.10702E+00-5.37981E+00 5.00000E-01
 -1       628 5.37981E+00-4.10702E+00 5.00000E-01
 -1       629 3.68432E+00-1.03902E+00 1.45000E+00
 -1       630 3.33991E+00-1.87051E+00 1.45000E+00
 -1       631 6.54199E+00-1.73563E+00 1.45000E+00
 -1       632 5.85316E+00-3.39861E+00 1.45000E+00
 -1       633 9.05523E+00-3.26373E+00 1.45000E+00
 -1       634 8.71083E+00-4.09522E+00 1.45000E+00
 -1       635 9.05523E+00-3.26373E+00 5.00000E-01
 -1       636 3.68432E+00-1.03902E+00 5.00000E-01
 -1       637 3.33991E+00-1.87051E+00 5.00000E-01
 -1       638 8.71083E+00-4.09522E+00 5.00000E-01
 -1       639 5.85316E+00-3.39861E+00 5.00000E-01
 -1       640 6.54199E+00-1.73563E+00 5.00000E-01
 -1       641 9.47007E+00 1.15393E+01 5.00000E-01
 -1       642 9.47007E+00 1.15393E+01-5.00000E-01
 -1       643 1.48559E+01-1.46318E+00 5.00000E-01
 -1       644 1.48559E+01-1.46318E+00-5.00000E-01
 -1       645-4.33330E+00-1.42850E+01 5.00000E-01
 -1       646-4.33330E+00-1.42850E+01-5.00000E-01
 -1       647 1.15393E+01 9.47007E+00 5.00000E-01
 -1       648 1.15393E+01 9.47007E+00-5.00000E-01
 -1       649-4.33330E+00 1.42850E+01 5.00000E-01
 -1       650-4.33330E+00 1.42850E+01-5.00000E-01
 -1       651-1.31651E+01 7.03690E+00-5.00000E-01
 -1       652-1.31651E+01 7.03690E+00 5.00000E-01
 -1       653 9.47007E+00-1.15393E+01 5.00000E-01
 -1       654 9.47007E+00-1.15393E+01-5.00000E-01
 -1       655 1.31651E+01 7.03690E+00 5.00000E-01
 -1       656 1.31651E+01 7.03690E+00-5.00000E-01
 -1       657 7.03690E+00 1.31651E+01 5.00000E-01
 -1       658 7.03690E+00 1.31651E+01-5.00000E-01
 -1       659 1.46318E+00 1.48559E+01 5.00000E-01
 -1       660 1.46318E+00 1.48559E+01-5.00000E-01
 -1       661-1.48559E+01 1.46318E+00-5.00000E-01
 -1       662-1.48559E+01 1.46318E+00 5.00000E-01
 -1       663-1.15393E+01 9.47007E+00-5.00000E-01
 -1       664-1.15393E+01 9.47007E+00 5.00000E-01
 -1       665-7.03690E+00 1.31651E+01 5.00000E-01
 -1       666-7.03690E+00 1.31651E+01-5.00000E-01
 -1       667-1.46318E+00 1.48559E+01 5.00000E-01
 -1       668-1.46318E+00 1.48559E+01-5.00000E-01
 -1       669-9.47007E+00 1.15393E+01 5.00000E-01
 -1       670-9.47007E+00 1.15393E+01-5.00000E-01
 -1       671 1.48559E+01 1.46318E+00 5.00000E-01
 -1       672 1.48559E+01 1.46318E+00-5.00000E-01
 -1       673 1.46318E+00-1.48559E+01 5.00000E-01
 -1       674 1.46318E+00-1.48559E+01-5.00000E-01
 -1       675 1.42850E+01-4.33330E+00 5.00000E-01
 -1       676 1.42850E+01-4.33330E+00-5.00000E-01
 -1       677 4.33330E+00-1.42850E+01 5.00000E-01
 -1       678 4.33330E+00-1.42850E+01-5.00000E-01
 -1       679 7.03690E+00-1.31651E+01 5.00000E-01
 -1       680 7.03690E+00-1.31651E+01-5.00000E-01
 -1       681-1.46318E+00-1.48559E+01 5.00000E-01
 -1       682-1.46318E+00-1.48559E+01-5.00000E-01
 -1       683-9.47007E+00-1.15393E+01 5.00000E-01
 -1       684-9.47007E+00-1.15393E+01-5.00000E-01
 -1       685-1.31651E+01-7.03690E+00-5.00000E-01
 -1       686-1.31651E+01-7.03690E+00 5.00000E-01
 -1       687-1.48559E+01-1.46318E+00-5.00000E-01
 -1       688-1.48559E+01-1.46318E+00 5.00000E-01
 -1       689 1.42850E+01 4.33330E+00-5.00000E-01
 -1       690 1.31651E+01-7.03690E+00-5.00000E-01
 -1       691 1.15393E+01-9.47007E+00-5.00000E-01
 -1       692 4.33330E+00 1.42850E+01-5.00000E-01
 -1       693-7.03690E+00-1.31651E+01-5.00000E-01
 -1       694-1.15393E+01-9.47007E+00-5.00000E-01
 -1       695-1.42850E+01-4.33330E+00-5.00000E-01
 -1       696-1.42850E+01 4.33330E+00-5.00000E-01
 -1       697-1.15393E+01-9.47007E+00 5.00000E-01
 -1       698 1.42850E+01 4.33330E+00 5.00000E-01
 -1       699 4.33330E+00 1.42850E+01 5.00000E-01
 -1       700-1.42850E+01 4.33330E+00 5.00000E-01
 -1       701-1.42850E+01-4.33330E+00 5.00000E-01
 -1       702 1.31651E+01-7.03690E+00 5.00000E-01
 -1       703 1.15393E+01-9.47007E+00 5.00000E-01
 -1       704-7.03690E+00-1.31651E+01 5.00000E-01
 -1       705 4.54188E+00 4.50000E-01 1.45000E+00
 -1       706 3.06109E+00 4.50000E-01 1.45000E+00
 -1       707 4.54188E+00-4.50000E-01 1.45000E+00
 -1       708 5.99524E+00 9.00000E-01 1.45000E+00
 -1       709 8.87453E+00 4.50000E-01 1.45000E+00
 -1       710 1.03553E+01-4.50000E-01 1.45000E+00
 -1       711 4.54188E+00-4.50000E-01 5.00000E-01
 -1       712 5.99524E+00 9.00000E-01 5.00000E-01
 -1       713 3.00029E+00 7.55684E-01 1.45000E+00
 -1       714 4.36836E+00 1.32235E+00 1.45000E+00
 -1       715 2.65587E+00 1.58718E+00 1.45000E+00
 -1       716 4.36836E+00 1.32235E+00 5.00000E-01
 -1       717 6.51185E+00 3.67145E+00 5.00000E-01
 -1       718 5.19446E+00 3.12577E+00 5.00000E-01
 -1       719 2.48271E+00 1.84633E+00 1.45000E+00
 -1       720 3.52978E+00 2.89339E+00 1.45000E+00
 -1       721 1.84633E+00 2.48271E+00 1.45000E+00
 -1       722 7.64051E+00 7.00412E+00 5.00000E-01
 -1       723 4.61117E+00 5.88396E+00 5.00000E-01
 -1       724 3.60287E+00 4.87567E+00 5.00000E-01
 -1       725 7.55684E-01 3.00029E+00 1.45000E+00
 -1       726 3.12577E+00 5.19446E+00 1.45000E+00
 -1       727 3.67145E+00 6.51185E+00 1.45000E+00
 -1       728 1.46278E+00 5.88329E+00 5.00000E-01
 -1       729 4.50000E-01 3.06109E+00 1.45000E+00
 -1       730 4.50000E-01 4.54188E+00 1.45000E+00
 -1       731-4.50000E-01 3.06109E+00 1.45000E+00
 -1       732 9.00000E-01 7.42117E+00 1.45000E+00
 -1       733-3.81189E+00 8.02680E+00 1.45000E+00
 -1       734-3.67145E+00 6.51185E+00 1.45000E+00
 -1       735-3.12577E+00 5.19446E+00 1.45000E+00
 -1       736-3.54707E+00 9.73927E+00 5.00000E-01
 -1       737-3.67145E+00 6.51185E+00 5.00000E-01
 -1       738-3.12577E+00 5.19446E+00 5.00000E-01
 -1       739-1.84633E+00 2.48271E+00 1.45000E+00
 -1       740-2.89339E+00 3.52978E+00 1.45000E+00
 -1       741-2.48271E+00 1.84633E+00 1.45000E+00
 -1       742-2.89339E+00 3.52978E+00 5.00000E-01
 -1       743-5.88396E+00 4.61117E+00 5.00000E-01
 -1       744-4.87567E+00 3.60287E+00 5.00000E-01
 -1       745-2.65587E+00 1.58718E+00 1.45000E+00
 -1       746-4.02394E+00 2.15385E+00 1.45000E+00
 -1       747-3.00029E+00 7.55684E-01 1.45000E+00
 -1       748-4.02394E+00 2.15385E+00 5.00000E-01
 -1       749-7.20068E+00 2.00847E+00 5.00000E-01
 -1       750-5.88329E+00 1.46278E+00 5.00000E-01
 -1       751-3.06109E+00 4.50000E-01 1.45000E+00
 -1       752-4.54188E+00 4.50000E-01 1.45000E+00
 -1       753-3.06109E+00-4.50000E-01 1.45000E+00
 -1       754-4.54188E+00 4.50000E-01 5.00000E-01
 -1       755-7.42117E+00-9.00000E-01 5.00000E-01
 -1       756-5.99524E+00-9.00000E-01 5.00000E-01
 -1       757-2.65587E+00-1.58718E+00 1.45000E+00
 -1       758-4.36836E+00-1.32235E+00 1.45000E+00
 -1       759-5.88329E+00-1.46278E+00 1.45000E+00
 -1       760-7.20068E+00-2.00847E+00 1.45000E+00
 -1       761-9.73927E+00-3.54707E+00 1.45000E+00
 -1       762-4.36836E+00-1.32235E+00 5.00000E-01
 -1       763-1.84633E+00-2.48271E+00 1.45000E+00
 -1       764-3.52978E+00-2.89339E+00 1.45000E+00
 -1       765-4.87567E+00-3.60287E+00 1.45000E+00
 -1       766-5.88396E+00-4.61117E+00 1.45000E+00
 -1       767-7.64051E+00-7.00412E+00 1.45000E+00
 -1       768-7.55684E-01-3.00029E+00 1.45000E+00
 -1       769-2.15385E+00-4.02394E+00 1.45000E+00
 -1       770-1.46278E+00-5.88329E+00 1.45000E+00
 -1       771-2.15385E+00-4.02394E+00 5.00000E-01
 -1       772-1.46278E+00-5.88329E+00 5.00000E-01
 -1       773 4.50000E-01-3.06109E+00 1.45000E+00
 -1       774-4.50000E-01-4.54188E+00 1.45000E+00
 -1       775 4.50000E-01-8.87453E+00 1.45000E+00
 -1       776-4.50000E-01-1.03553E+01 1.45000E+00
 -1       777 9.00000E-01-5.99524E+00 5.00000E-01
 -1       778 1.58718E+00-2.65587E+00 1.45000E+00
 -1       779 1.32235E+00-4.36836E+00 1.45000E+00
 -1       780 1.46278E+00-5.88329E+00 1.45000E+00
 -1       781 2.00847E+00-7.20068E+00 1.45000E+00
 -1       782 1.32235E+00-4.36836E+00 5.00000E-01
 -1       783 2.48271E+00-1.84633E+00 1.45000E+00
 -1       784 2.89339E+00-3.52978E+00 1.45000E+00
 -1       785 4.87567E+00-3.60287E+00 1.45000E+00
 -1       786 6.59344E+00-5.95705E+00 1.45000E+00
 -1       787 7.00412E+00-7.64051E+00 1.45000E+00
 -1       788 2.89339E+00-3.52978E+00 5.00000E-01
 -1       789 3.00029E+00-7.55684E-01 1.45000E+00
 -1       790 4.02394E+00-2.15385E+00 1.45000E+00
 -1       791 5.88329E+00-1.46278E+00 1.45000E+00
 -1       792 8.37120E+00-2.98040E+00 1.45000E+00
 -1       793 9.39487E+00-4.37855E+00 1.45000E+00
 -1       794 4.02394E+00-2.15385E+00 5.00000E-01
 -1       795 7.20068E+00-2.00847E+00 5.00000E-01
 -1       796 5.88329E+00-1.46278E+00 5.00000E-01
 -1       797 1.00383E+01 1.10730E+01 5.00000E-01
 -1       798-5.03678E+00-1.40716E+01 5.00000E-01
 -1       799 1.20056E+01 8.90181E+00 5.00000E-01
 -1       800-3.62983E+00 1.44984E+01 5.00000E-01
 -1       801 8.90181E+00-1.20056E+01 5.00000E-01
 -1       802 1.35117E+01 6.38858E+00 5.00000E-01
 -1       803 6.38858E+00 1.35117E+01 5.00000E-01
 -1       804 7.68523E+00 1.28186E+01 5.00000E-01
 -1       805 6.38858E+00 1.35117E+01-5.00000E-01
 -1       806-1.20056E+01 8.90181E+00-5.00000E-01
 -1       807-1.10730E+01 1.00383E+01 5.00000E-01
 -1       808-7.68523E+00 1.28186E+01 5.00000E-01
 -1       809-6.38858E+00 1.35117E+01 5.00000E-01
 -1       810-7.68523E+00 1.28186E+01-5.00000E-01
 -1       811-2.19476E+00 1.47838E+01 5.00000E-01
 -1       812-7.31588E-01 1.49279E+01 5.00000E-01
 -1       813-2.19476E+00 1.47838E+01-5.00000E-01
 -1       814-1.00383E+01 1.10730E+01 5.00000E-01
 -1       815-8.90181E+00 1.20056E+01 5.00000E-01
 -1       816-1.00383E+01 1.10730E+01-5.00000E-01
 -1       817 1.49279E+01 7.31588E-01 5.00000E-01
 -1       818 1.47838E+01 2.19476E+00-5.00000E-01
 -1       819 7.31588E-01-1.49279E+01 5.00000E-01
 -1       820 1.40716E+01-5.03678E+00 5.00000E-01
 -1       821 5.03678E+00-1.40716E+01 5.00000E-01
 -1       822 3.62983E+00-1.44984E+01 5.00000E-01
 -1       823 5.03678E+00-1.40716E+01-5.00000E-01
 -1       824 6.38858E+00-1.35117E+01 5.00000E-01
 -1       825 7.68523E+00-1.28186E+01-5.00000E-01
 -1       826-7.31588E-01-1.49279E+01 5.00000E-01
 -1       827-2.19476E+00-1.47838E+01 5.00000E-01
 -1       828-7.31588E-01-1.49279E+01-5.00000E-01
 -1       829-1.00383E+01-1.10730E+01 5.00000E-01
 -1       830-1.47838E+01-2.19476E+00-5.00000E-01
 -1       831 1.40716E+01 5.03678E+00-5.00000E-01
 -1       832 1.44984E+01 3.62983E+00-5.00000E-01
 -1       833 1.28186E+01-7.68523E+00-5.00000E-01
 -1       834 1.20056E+01-8.90181E+00-5.00000E-01
 -1       835 1.10730E+01-1.00383E+01-5.00000E-01
 -1       836 3.62983E+00 1.44984E+01-5.00000E-01
 -1       837 5.03678E+00 1.40716E+01-5.00000E-01
 -1       838-6.38858E+00-1.35117E+01-5.00000E-01
 -1       839-7.68523E+00-1.28186E+01-5.00000E-01
 -1       840-1.10730E+01-1.00383E+01-5.00000E-01
 -1       841-1.20056E+01-8.90181E+00-5.00000E-01
 -1       842-1.44984E+01-3.62983E+00-5.00000E-01
 -1       843-1.40716E+01 5.03678E+00-5.00000E-01
 -1       844-1.20056E+01-8.90181E+00 5.00000E-01
 -1       845 1.44984E+01 3.62983E+00 5.00000E-01
 -1       846 5.03678E+00 1.40716E+01 5.00000E-01
 -1       847-1.44984E+01 3.62983E+00 5.00000E-01
 -1       848-1.40716E+01-5.03678E+00 5.00000E-01
 -1       849 1.35117E+01-6.38858E+00 5.00000E-01
 -1       850 1.20056E+01-8.90181E+00 5.00000E-01
 -1       851-6.38858E+00-1.35117E+01 5.00000E-01
 -1       852 3.06109E+00-4.50000E-01 1.45000E+00
 -1       853 7.42117E+00 9.00000E-01 1.45000E+00
 -1       854 7.42117E+00-9.00000E-01 1.45000E+00
 -1       855 5.99524E+00-9.00000E-01 1.45000E+00
 -1       856 1.03553E+01 4.50000E-01 1.45000E+00
 -1       857 8.87453E+00-4.50000E-01 1.45000E+00
 -1       858 8.87453E+00 4.50000E-01 5.00000E-01
 -1       859 1.03553E+01 4.50000E-01 5.00000E-01
 -1       860 3.06109E+00 4.50000E-01 5.00000E-01
 -1       861 4.54188E+00 4.50000E-01 5.00000E-01
 -1       862 3.06109E+00-4.50000E-01 5.00000E-01
 -1       863 1.03553E+01-4.50000E-01 5.00000E-01
 -1       864 8.87453E+00-4.50000E-01 5.00000E-01
 -1       865 7.42117E+00 9.00000E-01 5.00000E-01
 -1       866 7.42117E+00-9.00000E-01 5.00000E-01
 -1       867 5.99524E+00-9.00000E-01 5.00000E-01
 -1       868 8.02680E+00 3.81189E+00 1.45000E+00
 -1       869 9.73927E+00 3.54707E+00 1.45000E+00
 -1       870 8.37120E+00 2.98040E+00 1.45000E+00
 -1       871 9.39487E+00 4.37855E+00 1.45000E+00
 -1       872 7.20068E+00 2.00847E+00 1.45000E+00
 -1       873 5.88329E+00 1.46278E+00 1.45000E+00
 -1       874 5.19446E+00 3.12577E+00 1.45000E+00
 -1       875 6.51185E+00 3.67145E+00 1.45000E+00
 -1       876 4.02394E+00 2.15385E+00 1.45000E+00
 -1       877 8.02680E+00 3.81189E+00 5.00000E-01
 -1       878 9.39487E+00 4.37855E+00 5.00000E-01
 -1       879 2.65587E+00 1.58718E+00 5.00000E-01
 -1       880 4.02394E+00 2.15385E+00 5.00000E-01
 -1       881 3.00029E+00 7.55684E-01 5.00000E-01
 -1       882 9.73927E+00 3.54707E+00 5.00000E-01
 -1       883 8.37120E+00 2.98040E+00 5.00000E-01
 -1       884 7.20068E+00 2.00847E+00 5.00000E-01
 -1       885 5.88329E+00 1.46278E+00 5.00000E-01
 -1       886 5.88396E+00 4.61117E+00 1.45000E+00
 -1       887 7.64051E+00 7.00412E+00 1.45000E+00
 -1       888 6.59344E+00 5.95705E+00 1.45000E+00
 -1       889 5.95705E+00 6.59344E+00 1.45000E+00
 -1       890 7.00412E+00 7.64051E+00 1.45000E+00
 -1       891 4.87567E+00 3.60287E+00 1.45000E+00
 -1       892 3.60287E+00 4.87567E+00 1.45000E+00
 -1       893 4.61117E+00 5.88396E+00 1.45000E+00
 -1       894 2.89339E+00 3.52978E+00 1.45000E+00
 -1       895 5.95705E+00 6.59344E+00 5.00000E-01
 -1       896 7.00412E+00 7.64051E+00 5.00000E-01
 -1       897 1.84633E+00 2.48271E+00 5.00000E-01
 -1       898 2.89339E+00 3.52978E+00 5.00000E-01
 -1       899 3.52978E+00 2.89339E+00 5.00000E-01
 -1       900 2.48271E+00 1.84633E+00 5.00000E-01
 -1       901 6.59344E+00 5.95705E+00 5.00000E-01
 -1       902 5.88396E+00 4.61117E+00 5.00000E-01
 -1       903 4.87567E+00 3.60287E+00 5.00000E-01
 -1       904 2.15385E+00 4.02394E+00 1.45000E+00
 -1       905 1.58718E+00 2.65587E+00 1.45000E+00
 -1       906 1.46278E+00 5.88329E+00 1.45000E+00
 -1       907 2.00847E+00 7.20068E+00 1.45000E+00
 -1       908 4.37855E+00 9.39487E+00 1.45000E+00
 -1       909 3.81189E+00 8.02680E+00 1.45000E+00
 -1       910 2.98040E+00 8.37120E+00 1.45000E+00
 -1       911 3.54707E+00 9.73927E+00 1.45000E+00
 -1       912 1.32235E+00 4.36836E+00 1.45000E+00
 -1       913 2.98040E+00 8.37120E+00 5.00000E-01
 -1       914 3.54707E+00 9.73927E+00 5.00000E-01
 -1       915 7.55684E-01 3.00029E+00 5.00000E-01
 -1       916 1.32235E+00 4.36836E+00 5.00000E-01
 -1       917 2.15385E+00 4.02394E+00 5.00000E-01
 -1       918 1.58718E+00 2.65587E+00 5.00000E-01
 -1       919 4.37855E+00 9.39487E+00 5.00000E-01
 -1       920 3.81189E+00 8.02680E+00 5.00000E-01
 -1       921 2.00847E+00 7.20068E+00 5.00000E-01
 -1       922 3.67145E+00 6.51185E+00 5.00000E-01
 -1       923 3.12577E+00 5.19446E+00 5.00000E-01
 -1       924-9.00000E-01 5.99524E+00 1.45000E+00
 -1       925-9.00000E-01 7.42117E+00 1.45000E+00
 -1       926 4.50000E-01 1.03553E+01 1.45000E+00
 -1       927 4.50000E-01 8.87453E+00 1.45000E+00
 -1       928-4.50000E-01 8.87453E+00 1.45000E+00
 -1       929-4.50000E-01 1.03553E+01 1.45000E+00
 -1       930-4.50000E-01 4.54188E+00 1.45000E+00
 -1       931 9.00000E-01 5.99524E+00 1.45000E+00
 -1       932-4.50000E-01 8.87453E+00 5.00000E-01
 -1       933-4.50000E-01 1.03553E+01 5.00000E-01
 -1       934-4.50000E-01 3.06109E+00 5.00000E-01
 -1       935-4.50000E-01 4.54188E+00 5.00000E-01
 -1       936 4.50000E-01 4.54188E+00 5.00000E-01
 -1       937 4.50000E-01 3.06109E+00 5.00000E-01
 -1       938 4.50000E-01 1.03553E+01 5.00000E-01
 -1       939 4.50000E-01 8.87453E+00 5.00000E-01
 -1       940-1.32235E+00 4.36836E+00 1.45000E+00
 -1       941-9.00000E-01 5.99524E+00 5.00000E-01
 -1       942-9.00000E-01 7.42117E+00 5.00000E-01
 -1       943 9.00000E-01 7.42117E+00 5.00000E-01
 -1       944 9.00000E-01 5.99524E+00 5.00000E-01
 -1       945-7.55684E-01 3.00029E+00 1.45000E+00
 -1       946-2.00847E+00 7.20068E+00 1.45000E+00
 -1       947-1.46278E+00 5.88329E+00 1.45000E+00
 -1       948-1.58718E+00 2.65587E+00 1.45000E+00
 -1       949-2.15385E+00 4.02394E+00 1.45000E+00
 -1       950-3.54707E+00 9.73927E+00 1.45000E+00
 -1       951-2.98040E+00 8.37120E+00 1.45000E+00
 -1       952-4.37855E+00 9.39487E+00 1.45000E+00
 -1       953-3.81189E+00 8.02680E+00 5.00000E-01
 -1       954-4.37855E+00 9.39487E+00 5.00000E-01
 -1       955-1.58718E+00 2.65587E+00 5.00000E-01
 -1       956-2.15385E+00 4.02394E+00 5.00000E-01
 -1       957-1.32235E+00 4.36836E+00 5.00000E-01
 -1       958-7.55684E-01 3.00029E+00 5.00000E-01
 -1       959-2.98040E+00 8.37120E+00 5.00000E-01
 -1       960-2.00847E+00 7.20068E+00 5.00000E-01
 -1       961-1.46278E+00 5.88329E+00 5.00000E-01
 -1       962-4.61117E+00 5.88396E+00 1.45000E+00
 -1       963-7.00412E+00 7.64051E+00 1.45000E+00
 -1       964-5.95705E+00 6.59344E+00 1.45000E+00
 -1       965-6.59344E+00 5.95705E+00 1.45000E+00
 -1       966-7.64051E+00 7.00412E+00 1.45000E+00
 -1       967-3.60287E+00 4.87567E+00 1.45000E+00
 -1       968-4.87567E+00 3.60287E+00 1.45000E+00
 -1       969-5.88396E+00 4.61117E+00 1.45000E+00
 -1       970-3.52978E+00 2.89339E+00 1.45000E+00
 -1       971-6.59344E+00 5.95705E+00 5.00000E-01
 -1       972-7.64051E+00 7.00412E+00 5.00000E-01
 -1       973-2.48271E+00 1.84633E+00 5.00000E-01
 -1       974-3.52978E+00 2.89339E+00 5.00000E-01
 -1       975-1.84633E+00 2.48271E+00 5.00000E-01
 -1       976-7.00412E+00 7.64051E+00 5.00000E-01
 -1       977-5.95705E+00 6.59344E+00 5.00000E-01
 -1       978-4.61117E+00 5.88396E+00 5.00000E-01
 -1       979-3.60287E+00 4.87567E+00 5.00000E-01
 -1       980-6.51185E+00 3.67145E+00 1.45000E+00
 -1       981-9.39487E+00 4.37855E+00 1.45000E+00
 -1       982-8.02680E+00 3.81189E+00 1.45000E+00
 -1       983-8.37120E+00 2.98040E+00 1.45000E+00
 -1       984-9.73927E+00 3.54707E+00 1.45000E+00
 -1       985-5.19446E+00 3.12577E+00 1.45000E+00
 -1       986-5.88329E+00 1.46278E+00 1.45000E+00
 -1       987-7.20068E+00 2.00847E+00 1.45000E+00
 -1       988-4.36836E+00 1.32235E+00 1.45000E+00
 -1       989-8.37120E+00 2.98040E+00 5.00000E-01
 -1       990-9.73927E+00 3.54707E+00 5.00000E-01
 -1       991-3.00029E+00 7.55684E-01 5.00000E-01
 -1       992-4.36836E+00 1.32235E+00 5.00000E-01
 -1       993-2.65587E+00 1.58718E+00 5.00000E-01
 -1       994-9.39487E+00 4.37855E+00 5.00000E-01
 -1       995-8.02680E+00 3.81189E+00 5.00000E-01
 -1       996-6.51185E+00 3.67145E+00 5.00000E-01
 -1       997-5.19446E+00 3.12577E+00 5.00000E-01
 -1       998-7.42117E+00 9.00000E-01 1.45000E+00
 -1       999-1.03553E+01 4.50000E-01 1.45000E+00
 -1      1000-8.87453E+00 4.50000E-01 1.45000E+00
 -1      1001-8.87453E+00-4.50000E-01 1.45000E+00
 -1      1002-1.03553E+01-4.50000E-01 1.45000E+00
 -1      1003-5.99524E+00 9.00000E-01 1.45000E+00
 -1      1004-5.99524E+00-9.00000E-01 1.45000E+00
 -1      1005-7.42117E+00-9.00000E-01 1.45000E+00
 -1      1006-4.54188E+00-4.50000E-01 1.45000E+00
 -1      1007-8.87453E+00-4.50000E-01 5.00000E-01
 -1      1008-1.03553E+01-4.50000E-01 5.00000E-01
 -1      1009-3.06109E+00-4.50000E-01 5.00000E-01
 -1      1010-4.54188E+00-4.50000E-01 5.00000E-01
 -1      1011-3.06109E+00 4.50000E-01 5.00000E-01
 -1      1012-1.03553E+01 4.50000E-01 5.00000E-01
 -1      1013-8.87453E+00 4.50000E-01 5.00000E-01
 -1      1014-7.42117E+00 9.00000E-01 5.00000E-01
 -1      1015-5.99524E+00 9.00000E-01 5.00000E-01
 -1      1016-4.02394E+00-2.15385E+00 1.45000E+00
 -1      1017-3.00029E+00-7.55684E-01 1.45000E+00
 -1      1018-5.19446E+00-3.12577E+00 1.45000E+00
 -1      1019-6.51185E+00-3.67145E+00 1.45000E+00
 -1      1020-8.02680E+00-3.81189E+00 1.45000E+00
 -1      1021-9.39487E+00-4.37855E+00 1.45000E+00
 -1      1022-8.37120E+00-2.98040E+00 1.45000E+00
 -1      1023-8.02680E+00-3.81189E+00 5.00000E-01
 -1      1024-9.39487E+00-4.37855E+00 5.00000E-01
 -1      1025-2.65587E+00-1.58718E+00 5.00000E-01
 -1      1026-4.02394E+00-2.15385E+00 5.00000E-01
 -1      1027-3.00029E+00-7.55684E-01 5.00000E-01
 -1      1028-9.73927E+00-3.54707E+00 5.00000E-01
 -1      1029-8.37120E+00-2.98040E+00 5.00000E-01
 -1      1030-5.19446E+00-3.12577E+00 5.00000E-01
 -1      1031-6.51185E+00-3.67145E+00 5.00000E-01
 -1      1032-7.20068E+00-2.00847E+00 5.00000E-01
 -1      1033-5.88329E+00-1.46278E+00 5.00000E-01
 -1      1034-2.89339E+00-3.52978E+00 1.45000E+00
 -1      1035-2.48271E+00-1.84633E+00 1.45000E+00
 -1      1036-3.60287E+00-4.87567E+00 1.45000E+00
 -1      1037-4.61117E+00-5.88396E+00 1.45000E+00
 -1      1038-5.95705E+00-6.59344E+00 1.45000E+00
 -1      1039-7.00412E+00-7.64051E+00 1.45000E+00
 -1      1040-6.59344E+00-5.95705E+00 1.45000E+00
 -1      1041-3.52978E+00-2.89339E+00 5.00000E-01
 -1      1042-5.95705E+00-6.59344E+00 5.00000E-01
 -1      1043-7.00412E+00-7.64051E+00 5.00000E-01
 -1      1044-1.84633E+00-2.48271E+00 5.00000E-01
 -1      1045-2.89339E+00-3.52978E+00 5.00000E-01
 -1      1046-2.48271E+00-1.84633E+00 5.00000E-01
 -1      1047-7.64051E+00-7.00412E+00 5.00000E-01
 -1      1048-6.59344E+00-5.95705E+00 5.00000E-01
 -1      1049-3.60287E+00-4.87567E+00 5.00000E-01
 -1      1050-4.61117E+00-5.88396E+00 5.00000E-01
 -1      1051-5.88396E+00-4.61117E+00 5.00000E-01
 -1      1052-4.87567E+00-3.60287E+00 5.00000E-01
 -1      1053-1.32235E+00-4.36836E+00 1.45000E+00
 -1      1054-3.67145E+00-6.51185E+00 1.45000E+00
 -1      1055-3.12577E+00-5.19446E+00 1.45000E+00
 -1      1056-1.58718E+00-2.65587E+00 1.45000E+00
 -1      1057-4.37855E+00-9.39487E+00 1.45000E+00
 -1      1058-2.98040E+00-8.37120E+00 1.45000E+00
 -1      1059-3.54707E+00-9.73927E+00 1.45000E+00
 -1      1060-3.81189E+00-8.02680E+00 1.45000E+00
 -1      1061-2.00847E+00-7.20068E+00 1.45000E+00
 -1      1062-2.98040E+00-8.37120E+00 5.00000E-01
 -1      1063-3.54707E+00-9.73927E+00 5.00000E-01
 -1      1064-7.55684E-01-3.00029E+00 5.00000E-01
 -1      1065-1.32235E+00-4.36836E+00 5.00000E-01
 -1      1066-1.58718E+00-2.65587E+00 5.00000E-01
 -1      1067-4.37855E+00-9.39487E+00 5.00000E-01
 -1      1068-3.81189E+00-8.02680E+00 5.00000E-01
 -1      1069-2.00847E+00-7.20068E+00 5.00000E-01
 -1      1070-3.67145E+00-6.51185E+00 5.00000E-01
 -1      1071-3.12577E+00-5.19446E+00 5.00000E-01
 -1      1072 4.50000E-01-4.54188E+00 1.45000E+00
 -1      1073-9.00000E-01-7.42117E+00 1.45000E+00
 -1      1074-9.00000E-01-5.99524E+00 1.45000E+00
 -1      1075-4.50000E-01-3.06109E+00 1.45000E+00
 -1      1076 4.50000E-01-1.03553E+01 1.45000E+00
 -1      1077-4.50000E-01-8.87453E+00 1.45000E+00
 -1      1078 9.00000E-01-5.99524E+00 1.45000E+00
 -1      1079 9.00000E-01-7.42117E+00 1.45000E+00
 -1      1080-4.50000E-01-4.54188E+00 5.00000E-01
 -1      1081 4.50000E-01-8.87453E+00 5.00000E-01
 -1      1082 4.50000E-01-1.03553E+01 5.00000E-01
 -1      1083 4.50000E-01-3.06109E+00 5.00000E-01
 -1      1084 4.50000E-01-4.54188E+00 5.00000E-01
 -1      1085-4.50000E-01-3.06109E+00 5.00000E-01
 -1      1086-4.50000E-01-1.03553E+01 5.00000E-01
 -1      1087-4.50000E-01-8.87453E+00 5.00000E-01
 -1      1088 9.00000E-01-7.42117E+00 5.00000E-01
 -1      1089-9.00000E-01-7.42117E+00 5.00000E-01
 -1      1090-9.00000E-01-5.99524E+00 5.00000E-01
 -1      1091 2.15385E+00-4.02394E+00 1.45000E+00
 -1      1092 3.12577E+00-5.19446E+00 1.45000E+00
 -1      1093 3.67145E+00-6.51185E+00 1.45000E+00
 -1      1094 3.81189E+00-8.02680E+00 1.45000E+00
 -1      1095 4.37855E+00-9.39487E+00 1.45000E+00
 -1      1096 3.54707E+00-9.73927E+00 1.45000E+00
 -1      1097 2.98040E+00-8.37120E+00 1.45000E+00
 -1      1098 7.55684E-01-3.00029E+00 1.45000E+00
 -1      1099 3.81189E+00-8.02680E+00 5.00000E-01
 -1      1100 4.37855E+00-9.39487E+00 5.00000E-01
 -1      1101 1.58718E+00-2.65587E+00 5.00000E-01
 -1      1102 2.15385E+00-4.02394E+00 5.00000E-01
 -1      1103 7.55684E-01-3.00029E+00 5.00000E-01
 -1      1104 3.54707E+00-9.73927E+00 5.00000E-01
 -1      1105 2.98040E+00-8.37120E+00 5.00000E-01
 -1      1106 3.12577E+00-5.19446E+00 5.00000E-01
 -1      1107 3.67145E+00-6.51185E+00 5.00000E-01
 -1      1108 2.00847E+00-7.20068E+00 5.00000E-01
 -1      1109 1.46278E+00-5.88329E+00 5.00000E-01
 -1      1110 3.52978E+00-2.89339E+00 1.45000E+00
 -1      1111 1.84633E+00-2.48271E+00 1.45000E+00
 -1      1112 5.88396E+00-4.61117E+00 1.45000E+00
 -1      1113 4.61117E+00-5.88396E+00 1.45000E+00
 -1      1114 3.60287E+00-4.87567E+00 1.45000E+00
 -1      1115 7.64051E+00-7.00412E+00 1.45000E+00
 -1      1116 5.95705E+00-6.59344E+00 1.45000E+00
 -1      1117 6.59344E+00-5.95705E+00 5.00000E-01
 -1      1118 7.64051E+00-7.00412E+00 5.00000E-01
 -1      1119 2.48271E+00-1.84633E+00 5.00000E-01
 -1      1120 3.52978E+00-2.89339E+00 5.00000E-01
 -1      1121 1.84633E+00-2.48271E+00 5.00000E-01
 -1      1122 7.00412E+00-7.64051E+00 5.00000E-01
 -1      1123 5.95705E+00-6.59344E+00 5.00000E-01
 -1      1124 4.87567E+00-3.60287E+00 5.00000E-01
 -1      1125 5.88396E+00-4.61117E+00 5.00000E-01
 -1      1126 4.61117E+00-5.88396E+00 5.00000E-01
 -1      1127 3.60287E+00-4.87567E+00 5.00000E-01
 -1      1128 4.36836E+00-1.32235E+00 1.45000E+00
 -1      1129 2.65587E+00-1.58718E+00 1.45000E+00
 -1      1130 7.20068E+00-2.00847E+00 1.45000E+00
 -1      1131 6.51185E+00-3.67145E+00 1.45000E+00
 -1      1132 5.19446E+00-3.12577E+00 1.45000E+00
 -1      1133 9.73927E+00-3.54707E+00 1.45000E+00
 -1      1134 8.02680E+00-3.81189E+00 1.45000E+00
 -1      1135 8.37120E+00-2.98040E+00 5.00000E-01
 -1      1136 9.73927E+00-3.54707E+00 5.00000E-01
 -1      1137 3.00029E+00-7.55684E-01 5.00000E-01
 -1      1138 4.36836E+00-1.32235E+00 5.00000E-01
 -1      1139 2.65587E+00-1.58718E+00 5.00000E-01
 -1      1140 9.39487E+00-4.37855E+00 5.00000E-01
 -1      1141 8.02680E+00-3.81189E+00 5.00000E-01
 -1      1142 6.51185E+00-3.67145E+00 5.00000E-01
 -1      1143 5.19446E+00-3.12577E+00 5.00000E-01
 -1      1144 8.90181E+00 1.20056E+01 5.00000E-01
 -1      1145 8.90181E+00 1.20056E+01-5.00000E-01
 -1      1146 1.00383E+01 1.10730E+01-5.00000E-01
 -1      1147 1.47838E+01-2.19476E+00 5.00000E-01
 -1      1148 1.49279E+01-7.31588E-01 5.00000E-01
 -1      1149 1.49279E+01-7.31588E-01-5.00000E-01
 -1      1150 1.47838E+01-2.19476E+00-5.00000E-01
 -1      1151-3.62983E+00-1.44984E+01 5.00000E-01
 -1      1152-3.62983E+00-1.44984E+01-5.00000E-01
 -1      1153-5.03678E+00-1.40716E+01-5.00000E-01
 -1      1154 1.10730E+01 1.00383E+01 5.00000E-01
 -1      1155 1.10730E+01 1.00383E+01-5.00000E-01
 -1      1156 1.20056E+01 8.90181E+00-5.00000E-01
 -1      1157-5.03678E+00 1.40716E+01 5.00000E-01
 -1      1158-5.03678E+00 1.40716E+01-5.00000E-01
 -1      1159-3.62983E+00 1.44984E+01-5.00000E-01
 -1      1160-1.35117E+01 6.38858E+00-5.00000E-01
 -1      1161-1.28186E+01 7.68523E+00-5.00000E-01
 -1      1162-1.28186E+01 7.68523E+00 5.00000E-01
 -1      1163-1.35117E+01 6.38858E+00 5.00000E-01
 -1      1164 1.00383E+01-1.10730E+01 5.00000E-01
 -1      1165 1.00383E+01-1.10730E+01-5.00000E-01
 -1      1166 8.90181E+00-1.20056E+01-5.00000E-01
 -1      1167 1.28186E+01 7.68523E+00 5.00000E-01
 -1      1168 1.28186E+01 7.68523E+00-5.00000E-01
 -1      1169 1.35117E+01 6.38858E+00-5.00000E-01
 -1      1170 7.68523E+00 1.28186E+01-5.00000E-01
 -1      1171 2.19476E+00 1.47838E+01 5.00000E-01
 -1      1172 7.31588E-01 1.49279E+01 5.00000E-01
 -1      1173 7.31588E-01 1.49279E+01-5.00000E-01
 -1      1174 2.19476E+00 1.47838E+01-5.00000E-01
 -1      1175-1.49279E+01 7.31588E-01-5.00000E-01
 -1      1176-1.47838E+01 2.19476E+00-5.00000E-01
 -1      1177-1.47838E+01 2.19476E+00 5.00000E-01
 -1      1178-1.49279E+01 7.31588E-01 5.00000E-01
 -1      1179-1.10730E+01 1.00383E+01-5.00000E-01
 -1      1180-1.20056E+01 8.90181E+00 5.00000E-01
 -1      1181-6.38858E+00 1.35117E+01-5.00000E-01
 -1      1182-7.31588E-01 1.49279E+01-5.00000E-01
 -1      1183-8.90181E+00 1.20056E+01-5.00000E-01
 -1      1184 1.47838E+01 2.19476E+00 5.00000E-01
 -1      1185 1.49279E+01 7.31588E-01-5.00000E-01
 -1      1186 2.19476E+00-1.47838E+01 5.00000E-01
 -1      1187 2.19476E+00-1.47838E+01-5.00000E-01
 -1      1188 7.31588E-01-1.49279E+01-5.00000E-01
 -1      1189 1.44984E+01-3.62983E+00 5.00000E-01
 -1      1190 1.44984E+01-3.62983E+00-5.00000E-01
 -1      1191 1.40716E+01-5.03678E+00-5.00000E-01
 -1      1192 3.62983E+00-1.44984E+01-5.00000E-01
 -1      1193 7.68523E+00-1.28186E+01 5.00000E-01
 -1      1194 6.38858E+00-1.35117E+01-5.00000E-01
 -1      1195-2.19476E+00-1.47838E+01-5.00000E-01
 -1      1196-8.90181E+00-1.20056E+01 5.00000E-01
 -1      1197-8.90181E+00-1.20056E+01-5.00000E-01
 -1      1198-1.00383E+01-1.10730E+01-5.00000E-01
 -1      1199-1.28186E+01-7.68523E+00-5.00000E-01
 -1      1200-1.35117E+01-6.38858E+00-5.00000E-01
 -1      1201-1.35117E+01-6.38858E+00 5.00000E-01
 -1      1202-1.28186E+01-7.68523E+00 5.00000E-01
 -1      1203-1.49279E+01-7.31588E-01-5.00000E-01
 -1      1204-1.49279E+01-7.31588E-01 5.00000E-01
 -1      1205-1.47838E+01-2.19476E+00 5.00000E-01
 -1      1206 1.35117E+01-6.38858E+00-5.00000E-01
 -1      1207-1.40716E+01-5.03678E+00-5.00000E-01
 -1      1208-1.44984E+01 3.62983E+00-5.00000E-01
 -1      1209-1.10730E+01-1.00383E+01 5.00000E-01
 -1      1210 1.40716E+01 5.03678E+00 5.00000E-01
 -1      1211 3.62983E+00 1.44984E+01 5.00000E-01
 -1      1212-1.40716E+01 5.03678E+00 5.00000E-01
 -1      1213-1.44984E+01-3.62983E+00 5.00000E-01
 -1      1214 1.28186E+01-7.68523E+00 5.00000E-01
 -1      1215 1.10730E+01-1.00383E+01 5.00000E-01
 -1      1216-7.68523E+00-1.28186E+01 5.00000E-01
 -1      1217-2.22095E+00 1.58456E+00 5.00000E-01
 -1      1218-2.28372E+00 1.43302E+00 5.00000E-01
 -1      1219-2.65828E+00-6.14017E-01 5.00000E-01
 -1      1220-2.65828E+00-4.50000E-01 5.00000E-01
 -1      1221-2.32070E+00 4.50000E-01 9.75000E-01
 -1      1222-2.32070E+00 0.00000E+00 5.00000E-01
 -1      1223 2.22095E+00 1.58456E+00 5.00000E-01
 -1      1224 2.28372E+00 1.43302E+00 5.00000E-01
 -1      1225-1.58456E+00 2.22095E+00 5.00000E-01
 -1      1226-1.43302E+00 2.28372E+00 5.00000E-01
 -1      1227-6.14017E-01 2.65828E+00 5.00000E-01
 -1      1228-4.50000E-01 2.65828E+00 5.00000E-01
 -1      1229 0.00000E+00 2.32070E+00 5.00000E-01
 -1      1230-6.14017E-01-2.65828E+00 5.00000E-01
 -1      1231-4.50000E-01-2.65828E+00 5.00000E-01
 -1      1232 2.22095E+00-1.58456E+00 5.00000E-01
 -1      1233 2.28372E+00-1.43302E+00 5.00000E-01
 -1      1234 2.65828E+00-6.14017E-01 5.00000E-01
 -1      1235 2.65828E+00-4.50000E-01 5.00000E-01
 -1      1236 6.14017E-01-2.65828E+00 5.00000E-01
 -1      1237 4.50000E-01-2.65828E+00 5.00000E-01
 -1      1238 2.32070E+00 0.00000E+00 5.00000E-01
 -1      1239-1.97184E+00 1.30384E+00 9.75000E-01
 -1      1240-2.48727E+00-5.43183E-01 5.00000E-01
 -1      1241-2.48727E+00-4.50000E-01 5.00000E-01
 -1      1242 0.00000E+00-2.32070E+00 5.00000E-01
 -1      1243 1.58456E+00-2.22095E+00 5.00000E-01
 -1      1244 1.43302E+00-2.28372E+00 5.00000E-01
 -1      1245 1.58456E+00 2.22095E+00 5.00000E-01
 -1      1246 1.43302E+00 2.28372E+00 5.00000E-01
 -1      1247-2.14405E+00-8.88094E-01 5.00000E-01
 -1      1248 1.64099E+00-1.64099E+00 5.00000E-01
 -1      1249-1.58456E+00-2.22095E+00 5.00000E-01
 -1      1250-1.43302E+00-2.28372E+00 5.00000E-01
 -1      1251 2.31626E+00 4.72349E-01 9.75000E-01
 -1      1252-1.30384E+00 1.97184E+00 9.75000E-01
 -1      1253-8.88094E-01-2.14405E+00 5.00000E-01
 -1      1254 2.65828E+00 6.14017E-01 5.00000E-01
 -1      1255 2.65828E+00 4.50000E-01 5.00000E-01
 -1      1256 1.64099E+00 1.64099E+00 5.00000E-01
 -1      1257-2.25000E-01 2.32070E+00 5.00000E-01
 -1      1258-2.14405E+00 8.88094E-01 5.00000E-01
 -1      1259-1.64099E+00-1.64099E+00 5.00000E-01
 -1      1260-5.43183E-01-2.48727E+00 5.00000E-01
 -1      1261-4.50000E-01-2.48727E+00 5.00000E-01
 -1      1262-5.43183E-01 2.48727E+00 5.00000E-01
 -1      1263-4.50000E-01 2.48727E+00 5.00000E-01
 -1      1264 1.97184E+00-1.30384E+00 9.75000E-01
 -1      1265-2.32070E+00-4.50000E-01 9.75000E-01
 -1      1266-4.50000E-01 2.32070E+00 9.75000E-01
 -1      1267 4.72349E-01-2.31626E+00 9.75000E-01
 -1      1268-4.50000E-01-2.32070E+00 9.75000E-01
 -1      1269-2.22095E+00-1.58456E+00 5.00000E-01
 -1      1270-2.28372E+00-1.43302E+00 5.00000E-01
 -1      1271-2.65828E+00 6.14017E-01 5.00000E-01
 -1      1272-2.65828E+00 4.50000E-01 5.00000E-01
 -1      1273 2.48727E+00-5.43183E-01 5.00000E-01
 -1      1274 2.48727E+00-4.50000E-01 5.00000E-01
 -1      1275-8.88094E-01 2.14405E+00 5.00000E-01
 -1      1276 2.32070E+00-4.50000E-01 9.75000E-01
 -1      1277 4.50000E-01-2.32070E+00 9.75000E-01
 -1      1278 2.14405E+00-8.88094E-01 5.00000E-01
 -1      1279 1.80008E+00 1.48189E+00 5.00000E-01
 -1      1280-1.45367E+00 2.09006E+00 5.00000E-01
 -1      1281-1.36758E+00 2.12572E+00 5.00000E-01
 -1      1282-2.09006E+00 1.45367E+00 5.00000E-01
 -1      1283-2.12572E+00 1.36758E+00 5.00000E-01
 -1      1284-1.32279E+00 1.95918E+00 9.75000E-01
 -1      1285-1.64099E+00 1.64099E+00 5.00000E-01
 -1      1286-2.31626E+00 4.72349E-01 9.75000E-01
 -1      1287 0.00000E+00 2.32070E+00 1.45000E+00
 -1      1288 1.95918E+00 1.32279E+00 9.75000E-01
 -1      1289-2.40176E+00-5.07766E-01 5.00000E-01
 -1      1290-2.40176E+00-4.50000E-01 5.00000E-01
 -1      1291 2.09006E+00 1.45367E+00 5.00000E-01
 -1      1292 2.12572E+00 1.36758E+00 5.00000E-01
 -1      1293-1.45367E+00-2.09006E+00 5.00000E-01
 -1      1294-1.36758E+00-2.12572E+00 5.00000E-01
 -1      1295 6.14017E-01 2.65828E+00 5.00000E-01
 -1      1296 4.50000E-01 2.65828E+00 5.00000E-01
 -1      1297-1.09597E+00-2.05795E+00 5.00000E-01
 -1      1298 4.72349E-01 2.31626E+00 9.75000E-01
 -1      1299 2.14405E+00 8.88094E-01 5.00000E-01
 -1      1300-2.31626E+00-4.72349E-01 9.75000E-01
 -1      1301-2.32070E+00-2.25000E-01 5.00000E-01
 -1      1302-1.48189E+00-1.80008E+00 5.00000E-01
 -1      1303 1.45367E+00 2.09006E+00 5.00000E-01
 -1      1304 1.36758E+00 2.12572E+00 5.00000E-01
 -1      1305-2.25000E-01-2.32070E+00 5.00000E-01
 -1      1306 8.88094E-01-2.14405E+00 5.00000E-01
 -1      1307 1.45367E+00-2.09006E+00 5.00000E-01
 -1      1308 1.36758E+00-2.12572E+00 5.00000E-01
 -1      1309 1.32279E+00-1.95918E+00 9.75000E-01
 -1      1310 1.30384E+00-1.97184E+00 9.75000E-01
 -1      1311-2.14405E+00-8.88094E-01 1.45000E+00
 -1      1312 5.43183E-01-2.48727E+00 5.00000E-01
 -1      1313 4.50000E-01-2.48727E+00 5.00000E-01
 -1      1314-1.97184E+00-1.30384E+00 9.75000E-01
 -1      1315-2.31626E+00-4.72349E-01 7.37500E-01
 -1      1316-2.23015E+00-6.80222E-01 5.00000E-01
 -1      1317-2.48727E+00 5.43183E-01 5.00000E-01
 -1      1318-2.48727E+00 4.50000E-01 5.00000E-01
 -1      1319-2.23015E+00 6.80222E-01 5.00000E-01
 -1      1320-2.02462E+00 1.38823E+00 5.00000E-01
 -1      1321-2.04673E+00 1.33486E+00 5.00000E-01
 -1      1322 4.50000E-01 2.32070E+00 9.75000E-01
 -1      1323-1.97184E+00 1.30384E+00 7.37500E-01
 -1      1324-2.05795E+00 1.09597E+00 5.00000E-01
 -1      1325 1.64099E+00-1.64099E+00 1.45000E+00
 -1      1326 8.88094E-01-2.14405E+00 1.45000E+00
 -1      1327-4.72349E-01-2.31626E+00 9.75000E-01
 -1      1328 8.88094E-01 2.14405E+00 5.00000E-01
 -1      1329 2.48949E+00 4.50000E-01 5.00000E-01
 -1      1330 2.45622E+00 5.30321E-01 5.00000E-01
 -1      1331 1.38823E+00-2.02462E+00 5.00000E-01
 -1      1332 1.33486E+00-2.04673E+00 5.00000E-01
 -1      1333 1.09597E+00-2.05795E+00 5.00000E-01
 -1      1334 2.32070E+00 4.50000E-01 9.75000E-01
 -1      1335-6.80222E-01 2.23015E+00 5.00000E-01
 -1      1336 2.09006E+00-1.45367E+00 5.00000E-01
 -1      1337 2.12572E+00-1.36758E+00 5.00000E-01
 -1      1338-1.95918E+00 1.32279E+00 9.75000E-01
 -1      1339-4.72349E-01 2.31626E+00 9.75000E-01
 -1      1340 1.95918E+00-1.32279E+00 9.75000E-01
 -1      1341 2.02462E+00 1.38823E+00 5.00000E-01
 -1      1342 2.04673E+00 1.33486E+00 5.00000E-01
 -1      1343-1.48189E+00 1.80008E+00 5.00000E-01
 -1      1344 1.80008E+00-1.48189E+00 5.00000E-01
 -1      1345 2.05795E+00 1.09597E+00 5.00000E-01
 -1      1346-4.50000E-01 2.40398E+00 5.00000E-01
 -1      1347-5.00091E-01 2.38324E+00 5.00000E-01
 -1      1348-1.19990E+00-2.01489E+00 5.00000E-01
 -1      1349-2.32070E+00 2.25000E-01 5.00000E-01
 -1      1350-2.32070E+00-4.50000E-01 7.37500E-01
 -1      1351 1.38823E+00 2.02462E+00 5.00000E-01
 -1      1352 1.33486E+00 2.04673E+00 5.00000E-01
 -1      1353 2.31626E+00-4.72349E-01 9.75000E-01
 -1      1354 1.48189E+00 1.80008E+00 5.00000E-01
 -1      1355 2.31626E+00 4.72349E-01 7.37500E-01
 -1      1356-1.32279E+00-1.95918E+00 9.75000E-01
 -1      1357 1.64099E+00 1.64099E+00 1.45000E+00
 -1      1358-2.09006E+00-1.45367E+00 5.00000E-01
 -1      1359-2.12572E+00-1.36758E+00 5.00000E-01
 -1      1360-4.72349E-01 2.31626E+00 7.37500E-01
 -1      1361-4.50000E-01 2.32070E+00 7.37500E-01
 -1      1362 1.30384E+00 1.97184E+00 9.75000E-01
 -1      1363-1.95918E+00-1.32279E+00 9.75000E-01
 -1      1364-1.30384E+00-1.97184E+00 9.75000E-01
 -1      1365 2.40509E+00 4.50000E-01 5.00000E-01
 -1      1366 2.38418E+00 5.00484E-01 5.00000E-01
 -1      1367 1.09597E+00 2.05795E+00 5.00000E-01
 -1      1368-1.38823E+00-2.02462E+00 5.00000E-01
 -1      1369-1.33486E+00-2.04673E+00 5.00000E-01
 -1      1370 2.32070E+00 2.25000E-01 5.00000E-01
 -1      1371 1.95918E+00 1.32279E+00 7.37500E-01
 -1      1372 1.48189E+00-1.80008E+00 5.00000E-01
 -1      1373 2.40176E+00-5.07766E-01 5.00000E-01
 -1      1374 2.40176E+00-4.50000E-01 5.00000E-01
 -1      1375 2.23015E+00-6.80222E-01 5.00000E-01
 -1      1376-1.80008E+00 1.48189E+00 5.00000E-01
 -1      1377 5.43183E-01 2.48727E+00 5.00000E-01
 -1      1378 4.50000E-01 2.48727E+00 5.00000E-01
 -1      1379-1.87963E+00 1.40234E+00 5.00000E-01
 -1      1380 1.32279E+00 1.95918E+00 9.75000E-01
 -1      1381 1.32279E+00 1.95918E+00 7.37500E-01
 -1      1382-1.40234E+00-1.87963E+00 5.00000E-01
 -1      1383-2.40176E+00 5.07766E-01 5.00000E-01
 -1      1384-2.40176E+00 4.50000E-01 5.00000E-01
 -1      1385-2.31626E+00 4.72349E-01 7.37500E-01
 -1      1386-2.01489E+00 1.19990E+00 5.00000E-01
 -1      1387-2.32070E+00 4.50000E-01 7.37500E-01
 -1      1388-2.27321E+00 5.76285E-01 5.00000E-01
 -1      1389 1.40234E+00 1.87963E+00 5.00000E-01
 -1      1390-2.35901E+00-4.90057E-01 5.00000E-01
 -1      1391-2.35901E+00-4.50000E-01 5.00000E-01
 -1      1392 2.32070E+00-2.25000E-01 5.00000E-01
 -1      1393-2.32070E+00-3.37500E-01 5.00000E-01
 -1      1394-2.27321E+00-5.76285E-01 5.00000E-01
 -1      1395 2.32070E+00 3.37500E-01 5.00000E-01
 -1      1396 1.30384E+00-1.97184E+00 7.37500E-01
 -1      1397 2.32070E+00 4.50000E-01 7.37500E-01
 -1      1398-1.30384E+00-1.97184E+00 7.37500E-01
 -1      1399-1.38823E+00 2.02462E+00 5.00000E-01
 -1      1400-1.33486E+00 2.04673E+00 5.00000E-01
 -1      1401-1.32279E+00 1.95918E+00 7.37500E-01
 -1      1402-1.09597E+00 2.05795E+00 5.00000E-01
 -1      1403 1.97184E+00 1.30384E+00 9.75000E-01
 -1      1404-2.32070E+00-3.93750E-01 5.00000E-01
 -1      1405-4.72349E-01 2.31626E+00 6.18750E-01
 -1      1406 2.05795E+00-1.09597E+00 5.00000E-01
 -1      1407-6.80222E-01-2.23015E+00 5.00000E-01
 -1      1408-2.32070E+00 3.37500E-01 5.00000E-01
 -1      1409 2.23015E+00 6.80222E-01 5.00000E-01
 -1      1410-1.99190E+00 1.35551E+00 5.00000E-01
 -1      1411-2.00723E+00 1.31850E+00 5.00000E-01
 -1      1412-3.37500E-01-2.32070E+00 5.00000E-01
 -1      1413-5.07766E-01-2.40176E+00 5.00000E-01
 -1      1414-4.50000E-01-2.40176E+00 5.00000E-01
 -1      1415-5.76285E-01 2.27321E+00 5.00000E-01
 -1      1416-3.37500E-01 2.32070E+00 5.00000E-01
 -1      1417 1.35551E+00 1.99190E+00 5.00000E-01
 -1      1418 1.31850E+00 2.00723E+00 5.00000E-01
 -1      1419 1.19990E+00 2.01489E+00 5.00000E-01
 -1      1420-1.95918E+00 1.32279E+00 7.37500E-01
 -1      1421-2.31626E+00-4.72349E-01 6.18750E-01
 -1      1422-2.35901E+00 4.90057E-01 5.00000E-01
 -1      1423-2.35901E+00 4.50000E-01 5.00000E-01
 -1      1424-1.95918E+00 1.32279E+00 6.18750E-01
 -1      1425-2.02462E+00-1.38823E+00 5.00000E-01
 -1      1426-2.04673E+00-1.33486E+00 5.00000E-01
 -1      1427-2.31626E+00 4.72349E-01 6.18750E-01
 -1      1428 1.30384E+00 1.97184E+00 7.37500E-01
 -1      1429-2.32070E+00-4.50000E-01 6.18750E-01
 -1      1430-1.30384E+00 1.97184E+00 7.37500E-01
 -1      1431-2.32070E+00 3.93750E-01 5.00000E-01
 -1      1432-4.50000E-01-2.32070E+00 7.37500E-01
 -1      1433 2.31626E+00-4.72349E-01 7.37500E-01
 -1      1434 1.32279E+00-1.95918E+00 7.37500E-01
 -1      1435 2.35901E+00-4.90057E-01 5.00000E-01
 -1      1436 2.35901E+00-4.50000E-01 5.00000E-01
 -1      1437-1.80008E+00-1.48189E+00 5.00000E-01
 -1      1438 1.30384E+00 1.97184E+00 6.18750E-01
 -1      1439-2.05795E+00-1.09597E+00 5.00000E-01
 -1      1440 2.32070E+00-4.50000E-01 7.37500E-01
 -1      1441 2.27321E+00-5.76285E-01 5.00000E-01
 -1      1442 5.07766E-01 2.40176E+00 5.00000E-01
 -1      1443 4.50000E-01 2.40176E+00 5.00000E-01
 -1      1444 2.02462E+00-1.38823E+00 5.00000E-01
 -1      1445 2.04673E+00-1.33486E+00 5.00000E-01
 -1      1446 1.32279E+00 1.95918E+00 6.18750E-01
 -1      1447 1.99190E+00 1.35551E+00 5.00000E-01
 -1      1448 2.00723E+00 1.31850E+00 5.00000E-01
 -1      1449-1.32279E+00-1.95918E+00 7.37500E-01
 -1      1450 2.01489E+00 1.19990E+00 5.00000E-01
 -1      1451-5.76285E-01-2.27321E+00 5.00000E-01
 -1      1452 1.87963E+00 1.40234E+00 5.00000E-01
 -1      1453 2.25000E-01 2.32070E+00 5.00000E-01
 -1      1454 4.90057E-01 2.35901E+00 5.00000E-01
 -1      1455 4.50000E-01 2.35901E+00 5.00000E-01
 -1      1456 2.32070E+00-3.37500E-01 5.00000E-01
 -1      1457 6.80222E-01 2.23015E+00 5.00000E-01
 -1      1458 4.50000E-01 2.32070E+00 7.37500E-01
 -1      1459 3.37500E-01 2.32070E+00 5.00000E-01
 -1      1460 6.80222E-01-2.23015E+00 5.00000E-01
 -1      1461 1.35551E+00-1.99190E+00 5.00000E-01
 -1      1462 1.31850E+00-2.00723E+00 5.00000E-01
 -1      1463 1.40234E+00-1.87963E+00 5.00000E-01
 -1      1464 1.95918E+00-1.32279E+00 7.37500E-01
 -1      1465-2.32070E+00 4.50000E-01 6.18750E-01
 -1      1466 1.97184E+00-1.30384E+00 7.37500E-01
 -1      1467 5.07766E-01-2.40176E+00 5.00000E-01
 -1      1468 4.50000E-01-2.40176E+00 5.00000E-01
 -1      1469 1.19990E+00-2.01489E+00 5.00000E-01
 -1      1470 5.76285E-01 2.27321E+00 5.00000E-01
 -1      1471 2.31626E+00 4.72349E-01 6.18750E-01
 -1      1472-1.97184E+00 1.30384E+00 6.18750E-01
 -1      1473-4.90057E-01-2.35901E+00 5.00000E-01
 -1      1474-4.50000E-01-2.35901E+00 5.00000E-01
 -1      1475 4.50000E-01-2.32070E+00 7.37500E-01
 -1      1476-4.72349E-01-2.31626E+00 7.37500E-01
 -1      1477 2.01489E+00-1.19990E+00 5.00000E-01
 -1      1478-1.95918E+00-1.32279E+00 7.37500E-01
 -1      1479-1.97184E+00-1.30384E+00 7.37500E-01
 -1      1480-1.87963E+00-1.40234E+00 5.00000E-01
 -1      1481-4.50000E-01-2.32070E+00 6.18750E-01
 -1      1482-1.35551E+00-1.99190E+00 5.00000E-01
 -1      1483-1.31850E+00-2.00723E+00 5.00000E-01
 -1      1484 2.31626E+00-4.72349E-01 6.18750E-01
 -1      1485-4.72349E-01-2.31626E+00 6.18750E-01
 -1      1486 2.25000E-01-2.32070E+00 5.00000E-01
 -1      1487 1.97184E+00 1.30384E+00 7.37500E-01
 -1      1488 4.72349E-01 2.31626E+00 7.37500E-01
 -1      1489 1.95918E+00 1.32279E+00 6.18750E-01
 -1      1490-1.30384E+00-1.97184E+00 6.18750E-01
 -1      1491 2.32070E+00-4.50000E-01 6.18750E-01
 -1      1492 1.87963E+00-1.40234E+00 5.00000E-01
 -1      1493 4.50000E-01 2.32070E+00 6.18750E-01
 -1      1494-1.35551E+00 1.99190E+00 5.00000E-01
 -1      1495-1.31850E+00 2.00723E+00 5.00000E-01
 -1      1496-1.40234E+00 1.87963E+00 5.00000E-01
 -1      1497 1.32279E+00-1.95918E+00 6.18750E-01
 -1      1498-1.19990E+00 2.01489E+00 5.00000E-01
 -1      1499 1.30384E+00-1.97184E+00 6.18750E-01
 -1      1500 4.90057E-01-2.35901E+00 5.00000E-01
 -1      1501 4.50000E-01-2.35901E+00 5.00000E-01
 -1      1502 4.72349E-01-2.31626E+00 7.37500E-01
 -1      1503 5.76285E-01-2.27321E+00 5.00000E-01
 -1      1504 1.97184E+00 1.30384E+00 6.18750E-01
 -1      1505 1.99190E+00-1.35551E+00 5.00000E-01
 -1      1506 2.00723E+00-1.31850E+00 5.00000E-01
 -1      1507 3.37500E-01-2.32070E+00 5.00000E-01
 -1      1508 1.95918E+00-1.32279E+00 6.18750E-01
 -1      1509 2.27321E+00 5.76285E-01 5.00000E-01
 -1      1510-1.32279E+00-1.95918E+00 6.18750E-01
 -1      1511 4.72349E-01 2.31626E+00 6.18750E-01
 -1      1512-2.01489E+00-1.19990E+00 5.00000E-01
 -1      1513 4.50000E-01-2.32070E+00 6.18750E-01
 -1      1514-1.32279E+00 1.95918E+00 6.18750E-01
 -1      1515-1.30384E+00 1.97184E+00 6.18750E-01
 -1      1516 4.72349E-01-2.31626E+00 6.18750E-01
 -1      1517 1.97184E+00-1.30384E+00 6.18750E-01
 -1      1518-4.30523E+00-1.03939E+01-5.00000E-01
 -1      1519-7.95528E+00 7.95528E+00-5.00000E-01
 -1      1520-1.69425E+00 8.51758E+00-5.00000E-01
 -1      1521 6.24987E+00-9.35357E+00-5.00000E-01
 -1      1522 0.00000E+00-1.12497E+01-5.00000E-01
 -1      1523-6.59290E+00-2.80056E-01-5.00000E-01
 -1      1524 4.81323E+00 8.43470E-01-5.00000E-01
 -1      1525-1.20307E+01 4.98325E+00 5.00000E-01
 -1      1526-1.23742E+01-2.46139E+00 5.00000E-01
 -1      1527-1.23742E+01 2.46139E+00 5.00000E-01
 -1      1528 1.10341E+01 2.19481E+00-5.00000E-01
 -1      1529-1.30219E+01 0.00000E+00 5.00000E-01
 -1      1530-1.01187E+01 4.99173E+00-5.00000E-01
 -1      1531-9.20789E+00 9.20789E+00 5.00000E-01
 -1      1532 8.87666E+00 5.93121E+00-5.00000E-01
 -1      1533-1.04904E+01 7.00943E+00 5.00000E-01
 -1      1534-1.04904E+01-7.00943E+00 5.00000E-01
 -1      1535-1.20307E+01-4.98325E+00 5.00000E-01
 -1      1536 0.00000E+00 0.00000E+00 5.00000E-01
 -1      1537 9.20789E+00 9.20789E+00 5.00000E-01
 -1      1538 7.00943E+00 1.04904E+01 5.00000E-01
 -1      1539 4.98325E+00 1.20307E+01 5.00000E-01
 -1      1540 2.46139E+00 1.23742E+01 5.00000E-01
 -1      1541 0.00000E+00 1.30219E+01 5.00000E-01
 -1      1542-2.90761E-02 1.15450E+01-5.00000E-01
 -1      1543-2.46139E+00 1.23742E+01 5.00000E-01
 -1      1544-4.98325E+00 1.20307E+01 5.00000E-01
 -1      1545 3.08368E+00 1.14318E+01-5.00000E-01
 -1      1546-7.00943E+00 1.04904E+01 5.00000E-01
 -1      1547 1.20307E+01 4.98325E+00 5.00000E-01
 -1      1548 1.04904E+01 7.00943E+00 5.00000E-01
 -1      1549-1.29160E+01-3.81952E+00 5.00000E-01
 -1      1550 1.30219E+01 0.00000E+00 5.00000E-01
 -1      1551 5.72676E+00 1.09059E+01 5.00000E-01
 -1      1552 1.23742E+01-2.46139E+00 5.00000E-01
 -1      1553 1.23742E+01 2.46139E+00 5.00000E-01
 -1      1554 1.20307E+01-4.98325E+00 5.00000E-01
 -1      1555 9.98512E+00 1.98617E+00 5.00000E-01
 -1      1556 1.04904E+01-7.00943E+00 5.00000E-01
 -1      1557 9.20789E+00-9.20789E+00 5.00000E-01
 -1      1558 7.00943E+00-1.04904E+01 5.00000E-01
 -1      1559 4.98325E+00-1.20307E+01 5.00000E-01
 -1      1560 2.46139E+00-1.23742E+01 5.00000E-01
 -1      1561 0.00000E+00-1.30219E+01 5.00000E-01
 -1      1562-2.46139E+00-1.23742E+01 5.00000E-01
 -1      1563-4.98325E+00-1.20307E+01 5.00000E-01
 -1      1564-7.00943E+00-1.04904E+01 5.00000E-01
 -1      1565-9.20789E+00-9.20789E+00 5.00000E-01
 -1      1566-3.19864E+00 1.13167E+01-5.00000E-01
 -1      1567 1.28369E+01 2.74170E+00-5.00000E-01
 -1      1568-5.76765E+00 4.08683E+00-5.00000E-01
 -1      1569-1.10341E+01-2.19481E+00-5.00000E-01
 -1      1570 9.06712E+00 6.10104E+00 5.00000E-01
 -1      1571-3.66219E+00 1.17611E+01 5.00000E-01
 -1      1572-3.81952E+00-1.29160E+01 5.00000E-01
 -1      1573 5.93006E+00 1.03147E+01-5.00000E-01
 -1      1574-1.16492E+01 2.25539E+00-5.00000E-01
 -1      1575 1.10609E+01 6.32891E+00-5.00000E-01
 -1      1576 1.17611E+01-3.66219E+00 5.00000E-01
 -1      1577 6.73503E+00 1.18307E+01 5.00000E-01
 -1      1578-1.32058E+01 1.67001E+00-5.00000E-01
 -1      1579-8.47492E+00 2.27618E+00-5.00000E-01
 -1      1580-2.74963E-01 3.12495E+00-5.00000E-01
 -1      1581 5.96576E+00 1.19409E+01-5.00000E-01
 -1      1582-6.77108E+00 1.03287E+01-5.00000E-01
 -1      1583-2.12747E+00 1.06955E+01 5.00000E-01
 -1      1584 8.31047E+00-4.02517E+00-5.00000E-01
 -1      1585 5.72676E+00-1.09059E+01 5.00000E-01
 -1      1586-1.01203E+01 7.83009E+00-5.00000E-01
 -1      1587-9.35357E+00-6.24987E+00-5.00000E-01
 -1      1588-2.12747E+00-1.06955E+01 5.00000E-01
 -1      1589-7.88420E+00 9.46435E+00 5.00000E-01
 -1      1590 6.73503E+00-1.18307E+01 5.00000E-01
 -1      1591 1.12742E+01 1.74858E+00 5.00000E-01
 -1      1592 4.61823E+00 1.11570E+01-5.00000E-01
 -1      1593-2.71301E+00 5.36636E+00-5.00000E-01
 -1      1594-1.07117E+01 2.16677E+00 5.00000E-01
 -1      1595 8.80907E+00-8.65595E+00-5.00000E-01
 -1      1596-3.60322E+00 1.31279E+01 5.00000E-01
 -1      1597-1.20261E+01 5.17774E+00-5.00000E-01
 -1      1598-3.41109E+00 1.38007E+00-5.00000E-01
 -1      1599-1.28369E+01-2.74170E+00-5.00000E-01
 -1      1600-1.07547E+01 8.35066E+00 5.00000E-01
 -1      1601-9.06720E+00-6.05851E+00 5.00000E-01
 -1      1602-7.96363E+00 4.44098E+00-5.00000E-01
 -1      1603 9.21712E-01 1.31082E+01-5.00000E-01
 -1      1604-1.41395E+00 1.33945E+01 5.00000E-01
 -1      1605-1.33945E+01 1.41395E+00 5.00000E-01
 -1      1606 1.13164E+01-3.81688E+00-5.00000E-01
 -1      1607 7.13816E+00-1.10154E+01-5.00000E-01
 -1      1608 5.97554E+00-9.48653E+00 5.00000E-01
 -1      1609-5.24400E+00 1.17596E+01-5.00000E-01
 -1      1610-9.46435E+00-7.88420E+00 5.00000E-01
 -1      1611-9.12655E+00 9.42743E+00-5.00000E-01
 -1      1612-1.28048E+01 3.50018E+00-5.00000E-01
 -1      1613 3.66219E+00 1.17611E+01 5.00000E-01
 -1      1614 2.09736E+00 1.07255E+01 5.00000E-01
 -1      1615 9.46435E+00-7.88420E+00 5.00000E-01
 -1      1616 9.83714E-01 1.37378E+01 5.00000E-01
 -1      1617 1.11734E+00 1.22673E+01 5.00000E-01
 -1      1618-1.83889E+00 9.24473E+00 5.00000E-01
 -1      1619 7.70390E+00-9.64466E+00-5.00000E-01
 -1      1620-1.16684E+01-3.53010E+00 5.00000E-01
 -1      1621 9.06059E+00-1.00491E+01-5.00000E-01
 -1      1622-8.66207E+00 6.19980E+00-5.00000E-01
 -1      1623-7.80548E+00 5.21545E+00 5.00000E-01
 -1      1624-9.98512E+00-1.98617E+00 5.00000E-01
 -1      1625 6.85331E+00-6.52429E+00-5.00000E-01
 -1      1626-9.20720E+00 1.83143E+00 5.00000E-01
 -1      1627-1.09059E+01-5.72676E+00 5.00000E-01
 -1      1628 1.05278E+01-7.21348E+00-5.00000E-01
 -1      1629 1.28499E+01-2.74566E+00-5.00000E-01
 -1      1630 1.23319E+01-1.32123E-01-5.00000E-01
 -1      1631 7.29819E+00-8.07914E+00-5.00000E-01
 -1      1632-9.32164E+00 3.61894E+00-5.00000E-01
 -1      1633 7.93493E+00 1.02481E+01-5.00000E-01
 -1      1634 1.11734E+00-1.22673E+01 5.00000E-01
 -1      1635-4.64352E+00 9.58850E+00-5.00000E-01
 -1      1636 1.17611E+01 3.66219E+00 5.00000E-01
 -1      1637 9.06720E+00-6.05851E+00 5.00000E-01
 -1      1638 9.01849E+00-1.04096E+01 5.00000E-01
 -1      1639 9.90759E+00-5.27962E+00-5.00000E-01
 -1      1640-1.02879E+01-7.96759E+00-5.00000E-01
 -1      1641 5.57596E+00-7.73084E+00-5.00000E-01
 -1      1642 7.88420E+00 9.46435E+00 5.00000E-01
 -1      1643-1.33945E+01-1.41395E+00 5.00000E-01
 -1      1644 5.02571E+00-1.17417E+01-5.00000E-01
 -1      1645 2.81013E+00 1.30625E+01-5.00000E-01
 -1      1646 2.31557E+00-1.22603E+01-5.00000E-01
 -1      1647-3.96430E+00 1.27250E+01-5.00000E-01
 -1      1648 4.26859E+00 1.28055E+01-5.00000E-01
 -1      1649-9.46435E+00 7.88420E+00 5.00000E-01
 -1      1650 1.23113E+01 5.33017E+00-5.00000E-01
 -1      1651 7.65906E+00 2.73713E+00-5.00000E-01
 -1      1652-1.21311E+01 1.20391E+00 5.00000E-01
 -1      1653 3.18170E+00-9.44557E+00-5.00000E-01
 -1      1654 6.87375E+00-1.20802E+01-5.00000E-01
 -1      1655-2.42089E+00-1.21713E+01-5.00000E-01
 -1      1656 5.97554E+00 9.48653E+00 5.00000E-01
 -1      1657 1.31317E+01 3.59935E+00 5.00000E-01
 -1      1658-7.05596E+00 3.08382E+00-5.00000E-01
 -1      1659-9.06010E+00 8.27829E+00-5.00000E-01
 -1      1660 2.92560E+00-3.64552E+00-5.00000E-01
 -1      1661-1.17611E+01 3.66219E+00 5.00000E-01
 -1      1662 1.36745E+01-2.38800E-01-5.00000E-01
 -1      1663-3.53010E+00-1.16684E+01 5.00000E-01
 -1      1664 2.94099E+00 1.34939E+01 5.00000E-01
 -1      1665-8.23906E+00 3.36325E+00-5.00000E-01
 -1      1666 9.80291E+00-3.76897E+00-5.00000E-01
 -1      1667-6.68526E+00 1.17674E+01-5.00000E-01
 -1      1668 1.11769E+01 7.74621E+00-5.00000E-01
 -1      1669 9.56717E+00 3.83887E+00-5.00000E-01
 -1      1670-8.47152E+00-1.04711E+01 5.00000E-01
 -1      1671-7.63109E-02-9.22873E-01-5.00000E-01
 -1      1672 1.91923E+00 1.20384E+00-5.00000E-01
 -1      1673-6.43215E+00-1.18338E+01 5.00000E-01
 -1      1674-6.05851E+00-9.06720E+00 5.00000E-01
 -1      1675-3.50420E+00-2.32070E+00-5.00000E-01
 -1      1676-6.06790E-01-4.52400E+00-5.00000E-01
 -1      1677-4.37434E+00 1.08315E+01-5.00000E-01
 -1      1678-1.17508E+00 1.05199E+00-5.00000E-01
 -1      1679-1.41395E+00-1.33945E+01 5.00000E-01
 -1      1680-8.35275E+00 1.07498E+01 5.00000E-01
 -1      1681-2.95421E+00 9.64424E+00-5.00000E-01
 -1      1682-2.07883E+00 2.67632E+00-5.00000E-01
 -1      1683 3.81952E+00-1.29160E+01 5.00000E-01
 -1      1684-1.09708E+01 8.52807E+00-5.00000E-01
 -1      1685 8.71700E+00-6.72781E+00-5.00000E-01
 -1      1686 1.17639E+01-5.65770E+00-5.00000E-01
 -1      1687 7.88420E+00-9.46435E+00 5.00000E-01
 -1      1688 1.18338E+01-6.43215E+00 5.00000E-01
 -1      1689 3.16175E+00 7.44598E+00-5.00000E-01
 -1      1690 9.64379E-01 9.02689E+00-5.00000E-01
 -1      1691 1.33945E+01 1.41395E+00 5.00000E-01
 -1      1692-5.28027E+00 2.13193E+00-5.00000E-01
 -1      1693 1.33945E+01-1.41395E+00 5.00000E-01
 -1      1694 1.06955E+01-2.12747E+00 5.00000E-01
 -1      1695 1.31317E+01-3.59935E+00 5.00000E-01
 -1      1696-1.35352E+01 2.25081E-01-5.00000E-01
 -1      1697 1.06277E+01-1.64477E+00-5.00000E-01
 -1      1698-3.80001E+00 3.11256E+00-5.00000E-01
 -1      1699 1.18338E+01 6.43215E+00 5.00000E-01
 -1      1700 1.04711E+01 8.47152E+00 5.00000E-01
 -1      1701-1.11978E+01 3.79910E+00-5.00000E-01
 -1      1702-1.03552E+01 2.71488E+00-5.00000E-01
 -1      1703 1.00620E+01-9.14904E+00-5.00000E-01
 -1      1704-7.02245E+00 1.37463E+00-5.00000E-01
 -1      1705 9.42925E+00 7.72666E+00 5.00000E-01
 -1      1706-6.43215E+00 1.18338E+01 5.00000E-01
 -1      1707-6.05851E+00 9.06720E+00 5.00000E-01
 -1      1708-6.56745E-01-9.82730E-01 5.00000E-01
 -1      1709-8.51342E-01 8.51342E-01 5.00000E-01
 -1      1710-1.00516E+00 2.21011E+00-5.00000E-01
 -1      1711-1.07547E+01-8.35066E+00 5.00000E-01
 -1      1712-1.18338E+01 6.43215E+00 5.00000E-01
 -1      1713-9.68964E+00-9.37860E+00-5.00000E-01
 -1      1714-7.73892E+00 9.32944E+00-5.00000E-01
 -1      1715-7.97408E+00-1.02958E+01-5.00000E-01
 -1      1716 1.15246E+01 3.82283E+00-5.00000E-01
 -1      1717-8.27809E+00-7.94780E+00-5.00000E-01
 -1      1718 1.69491E+00-1.35075E+01 5.00000E-01
 -1      1719-1.33339E+01-1.29311E+00-5.00000E-01
 -1      1720-6.09995E+00-8.85945E+00-5.00000E-01
 -1      1721 2.13914E-01 6.10339E+00-5.00000E-01
 -1      1722-7.93089E+00-3.28454E+00-5.00000E-01
 -1      1723-4.95657E+00 3.25084E+00-5.00000E-01
 -1      1724 1.20536E+01 6.85953E+00-5.00000E-01
 -1      1725 5.83014E+00-1.06462E+01-5.00000E-01
 -1      1726-4.20235E+00 2.11234E+00-5.00000E-01
 -1      1727 8.54385E+00-5.37196E+00-5.00000E-01
 -1      1728-6.09985E+00 8.36725E+00-5.00000E-01
 -1      1729 9.37100E+00 9.68038E+00-5.00000E-01
 -1      1730 1.84113E+00 1.20616E+01-5.00000E-01
 -1      1731-3.95856E+00-5.92493E+00-5.00000E-01
 -1      1732 4.72094E+00-9.57161E+00-5.00000E-01
 -1      1733-1.31317E+01 3.59935E+00 5.00000E-01
 -1      1734-9.04621E+00 4.69666E+00-5.00000E-01
 -1      1735 2.92013E+00-6.55144E+00-5.00000E-01
 -1      1736 3.57808E-01 1.41860E+00-5.00000E-01
 -1      1737 8.35275E+00 1.07498E+01 5.00000E-01
 -1      1738-8.47343E+00-9.16676E+00-5.00000E-01
 -1      1739-1.71076E-01 7.76029E+00-5.00000E-01
 -1      1740-1.36091E+01 2.71737E+00-5.00000E-01
 -1      1741 3.84549E+00-1.08010E+01-5.00000E-01
 -1      1742 7.89431E+00 5.27481E+00 5.00000E-01
 -1      1743 9.78363E+00 7.14688E+00-5.00000E-01
 -1      1744 3.81955E+00-1.27792E+01-5.00000E-01
 -1      1745-1.84671E-01-1.31249E+01-5.00000E-01
 -1      1746 1.09558E+01-4.87935E+00-5.00000E-01
 -1      1747 1.35970E+01 1.70853E+00-5.00000E-01
 -1      1748-1.19215E+01 6.17197E-01-5.00000E-01
 -1      1749-9.15101E+00 6.47762E+00 5.00000E-01
 -1      1750 1.69320E+00-1.05281E+01-5.00000E-01
 -1      1751-9.23676E+00-2.55655E-01-5.00000E-01
 -1      1752 1.69853E+00-1.34954E+01-5.00000E-01
 -1      1753-6.87842E+00 4.18467E+00-5.00000E-01
 -1      1754 2.38404E-01 1.19715E+00 5.00000E-01
 -1      1755-3.72936E+00 7.50953E+00-5.00000E-01
 -1      1756-1.30151E+01 4.61729E+00-5.00000E-01
 -1      1757-1.21311E+01-1.20391E+00 5.00000E-01
 -1      1758 8.65060E-01-2.90118E+00-5.00000E-01
 -1      1759 1.41080E+00-5.09564E+00-5.00000E-01
 -1      1760-1.00665E+01 6.41094E+00-5.00000E-01
 -1      1761-5.47804E+00-3.90263E+00-5.00000E-01
 -1      1762-5.19336E+00-1.20554E+01-5.00000E-01
 -1      1763-7.90995E+00 2.61142E-01-5.00000E-01
 -1      1764-7.87385E+00-5.26113E+00 5.00000E-01
 -1      1765 5.43396E+00-8.13250E+00 5.00000E-01
 -1      1766-2.13539E+00-7.75405E-01-5.00000E-01
 -1      1767-1.62340E+00-1.33999E+01-5.00000E-01
 -1      1768 1.05550E+01 4.93936E+00-5.00000E-01
 -1      1769 1.28473E+01 4.09142E+00-5.00000E-01
 -1      1770 7.51287E+00 7.89485E+00-5.00000E-01
 -1      1771 1.05410E+01 3.23128E+00-5.00000E-01
 -1      1772-4.24945E+00 4.74835E+00-5.00000E-01
 -1      1773-5.23672E+00 7.83731E+00 5.00000E-01
 -1      1774-1.37210E+01 2.45943E+00 5.00000E-01
 -1      1775-3.79138E+00-1.17366E+01-5.00000E-01
 -1      1776 1.03813E+01 8.81349E+00-5.00000E-01
 -1      1777-2.39424E+00 5.26641E-01-5.00000E-01
 -1      1778-1.16090E+01 6.68852E+00-5.00000E-01
 -1      1779 9.77884E+00-6.38728E+00-5.00000E-01
 -1      1780 9.25387E-01-1.22875E+01-5.00000E-01
 -1      1781 5.93543E-01-4.13379E+00-5.00000E-01
 -1      1782-2.91387E+00 8.42150E+00-5.00000E-01
 -1      1783-1.56136E+00 1.07019E+01-5.00000E-01
 -1      1784-1.20391E+00 1.21311E+01 5.00000E-01
 -1      1785-1.12177E+01-2.03279E+00 5.00000E-01
 -1      1786-4.24790E+00-1.29714E+01-5.00000E-01
 -1      1787 6.89721E+00 9.21973E+00-5.00000E-01
 -1      1788-1.63170E+00 1.28169E+01-5.00000E-01
 -1      1789-3.07341E+00 2.36577E+00-5.00000E-01
 -1      1790 1.07498E+01-8.35275E+00 5.00000E-01
 -1      1791-4.35269E-01 9.13937E+00-5.00000E-01
 -1      1792 1.04073E+01 3.19849E-01-5.00000E-01
 -1      1793 4.34838E+00 1.30685E+01 5.00000E-01
 -1      1794 4.59458E+00 1.10923E+01 5.00000E-01
 -1      1795-1.62136E+00 6.75372E+00-5.00000E-01
 -1      1796 7.53999E+00-1.69140E-01-5.00000E-01
 -1      1797-7.32388E+00-8.72585E+00-5.00000E-01
 -1      1798 1.11837E+00-8.17317E+00-5.00000E-01
 -1      1799-9.97067E+00-4.12986E+00-5.00000E-01
 -1      1800-5.74683E+00 8.22671E-01-5.00000E-01
 -1      1801-2.67019E+00 3.95668E+00-5.00000E-01
 -1      1802 3.57729E-01 1.02426E+01-5.00000E-01
 -1      1803 3.52005E+00 9.44669E+00-5.00000E-01
 -1      1804 8.04170E+00-1.11405E+01 5.00000E-01
 -1      1805 3.71404E+00 1.05299E+01-5.00000E-01
 -1      1806 2.12747E+00-1.06955E+01 5.00000E-01
 -1      1807-1.05572E+01 1.23215E+00-5.00000E-01
 -1      1808-3.95958E+00-8.17276E+00-5.00000E-01
 -1      1809-2.65525E+00-1.05322E+01-5.00000E-01
 -1      1810 9.27028E+00 1.99122E+00-5.00000E-01
 -1      1811-5.46852E+00 6.40754E+00-5.00000E-01
 -1      1812 8.90632E+00 8.30435E+00-5.00000E-01
 -1      1813 5.58604E+00 5.25930E+00-5.00000E-01
 -1      1814-1.15323E+00 1.17741E+01-5.00000E-01
 -1      1815-5.99807E+00-1.05571E+01-5.00000E-01
 -1      1816 8.54869E+00 7.12206E+00-5.00000E-01
 -1      1817-7.06613E+00 5.81547E+00-5.00000E-01
 -1      1818 2.88885E+00-1.35218E+01-5.00000E-01
 -1      1819-4.81785E+00-9.17663E+00-5.00000E-01
 -1      1820-1.51967E+00-7.04996E+00-5.00000E-01
 -1      1821-1.08276E+01-5.83637E-01-5.00000E-01
 -1      1822-9.24158E+00-2.05368E+00-5.00000E-01
 -1      1823-1.15502E+01-3.73819E+00-5.00000E-01
 -1      1824 2.70893E+00-1.11411E+01-5.00000E-01
 -1      1825-3.47504E-01-3.28029E+00-5.00000E-01
 -1      1826-1.01734E+01 5.85515E+00 5.00000E-01
 -1      1827 2.84517E-01-5.22449E+00-5.00000E-01
 -1      1828-5.50073E+00-7.04814E+00-5.00000E-01
 -1      1829-1.25255E+01-4.13487E-01-5.00000E-01
 -1      1830-1.00746E+01-2.92726E+00-5.00000E-01
 -1      1831 1.33670E+00 2.75210E+00-5.00000E-01
 -1      1832-1.87014E-01 3.08632E-01-5.00000E-01
 -1      1833 4.88105E+00-5.71572E+00-5.00000E-01
 -1      1834 5.33544E+00 7.68851E+00-5.00000E-01
 -1      1835-1.30600E+01 4.67223E+00 5.00000E-01
 -1      1836 1.02297E+01 1.42146E+00-5.00000E-01
 -1      1837 9.14095E+00 6.80803E-01-5.00000E-01
 -1      1838-1.28631E+01-4.28608E+00-5.00000E-01
 -1      1839-8.47905E+00-4.84549E+00-5.00000E-01
 -1      1840-9.05931E+00-3.44531E+00-5.00000E-01
 -1      1841-7.63075E+00-6.34820E+00-5.00000E-01
 -1      1842 2.34269E+00 8.62510E+00-5.00000E-01
 -1      1843-3.67504E+00-4.12992E+00-5.00000E-01
 -1      1844-6.35034E+00-2.18824E+00-5.00000E-01
 -1      1845 1.34084E+01-3.68327E+00-5.00000E-01
 -1      1846-6.93559E+00-4.51078E+00-5.00000E-01
 -1      1847 4.28987E+00-7.04697E+00-5.00000E-01
 -1      1848 2.31280E+00 1.02219E+01-5.00000E-01
 -1      1849-4.20841E+00-4.51427E-01-5.00000E-01
 -1      1850 6.54428E+00 1.32723E+00-5.00000E-01
 -1      1851 2.19550E+00-1.05497E+00-5.00000E-01
 -1      1852 1.88083E+00 1.37009E+01-5.00000E-01
 -1      1853 4.97494E+00 1.20940E+01-5.00000E-01
 -1      1854-1.18751E+00-1.98935E+00-5.00000E-01
 -1      1855-9.19340E-01-5.83898E+00-5.00000E-01
 -1      1856-3.12211E+00-2.94812E-01-5.00000E-01
 -1      1857-4.54299E+00 9.50632E-01-5.00000E-01
 -1      1858-4.78963E+00 8.28378E+00-5.00000E-01
 -1      1859 1.05894E+01-2.85215E+00-5.00000E-01
 -1      1860-2.86320E+00 6.60771E+00-5.00000E-01
 -1      1861 8.75506E+00-2.13991E+00-5.00000E-01
 -1      1862-7.72666E+00-9.42925E+00 5.00000E-01
 -1      1863-1.00774E+00 4.77456E+00-5.00000E-01
 -1      1864-2.12775E+00 1.58552E+00-5.00000E-01
 -1      1865 8.83792E-01 4.46409E+00-5.00000E-01
 -1      1866 3.34685E+00 4.19979E+00-5.00000E-01
 -1      1867 8.30319E+00-7.71383E+00-5.00000E-01
 -1      1868-1.84747E+00-9.28785E+00 5.00000E-01
 -1      1869-1.18307E+01-6.73503E+00 5.00000E-01
 -1      1870 9.44953E+00-7.61507E+00-5.00000E-01
 -1      1871-5.85003E+00 9.54830E+00-5.00000E-01
 -1      1872 7.01377E+00-4.94348E+00-5.00000E-01
 -1      1873 1.15757E+01 9.71511E-01-5.00000E-01
 -1      1874-5.23672E+00-7.83731E+00 5.00000E-01
 -1      1875-5.84345E+00-1.02402E+01 5.00000E-01
 -1      1876-1.21678E+01-1.70257E+00-5.00000E-01
 -1      1877 1.01360E+00-6.61055E+00-5.00000E-01
 -1      1878-9.28849E+00-7.39822E+00-5.00000E-01
 -1      1879-9.12132E+00-1.03786E+01-5.00000E-01
 -1      1880-8.29000E+00 1.06807E+01-5.00000E-01
 -1      1881-1.16056E+01 7.56655E+00 5.00000E-01
 -1      1882 5.31153E-01-1.06577E+00 5.00000E-01
 -1      1883-7.56768E+00 1.16022E+01 5.00000E-01
 -1      1884 5.63831E+00 3.18924E+00-5.00000E-01
 -1      1885 1.20615E+01-1.54383E+00-5.00000E-01
 -1      1886 1.72769E+00-3.73741E+00-5.00000E-01
 -1      1887 1.09705E+01-8.52781E+00-5.00000E-01
 -1      1888-4.68669E+00-4.89003E+00-5.00000E-01
 -1      1889 1.14268E+01 7.75290E+00 5.00000E-01
 -1      1890-2.37651E+00-1.94071E+00-5.00000E-01
 -1      1891 1.22315E+01-9.64343E-01 5.00000E-01
 -1      1892-9.77281E-03-2.10434E+00-5.00000E-01
 -1      1893-1.02476E+01-6.87655E+00-5.00000E-01
 -1      1894 1.36000E+01-1.70883E+00-5.00000E-01
 -1      1895-2.55168E+00 1.36151E+01 5.00000E-01
 -1      1896-7.73568E+00 1.15904E+01-5.00000E-01
 -1      1897-2.42439E-01 1.37114E+01-5.00000E-01
 -1      1898-1.06543E+00-1.20915E+01-5.00000E-01
 -1      1899-2.99828E+00-7.04928E+00-5.00000E-01
 -1      1900 1.85227E+00 9.31198E+00 5.00000E-01
 -1      1901 9.40027E+00-7.91428E-01-5.00000E-01
 -1      1902 1.36178E+01-2.54930E+00 5.00000E-01
 -1      1903 1.36178E+01 2.54930E+00 5.00000E-01
 -1      1904 1.22368E+01 9.62962E-01 5.00000E-01
 -1      1905-5.35527E+00 5.21331E+00-5.00000E-01
 -1      1906 5.23672E+00 7.83730E+00 5.00000E-01
 -1      1907 4.77738E+00 9.96218E+00-5.00000E-01
 -1      1908 1.17784E+01-6.93821E+00-5.00000E-01
 -1      1909 2.97858E+00-1.36178E+01 5.00000E-01
 -1      1910 3.53010E+00-1.16684E+01 5.00000E-01
 -1      1911 6.53979E+00 2.47645E+00-5.00000E-01
 -1      1912-1.20391E+00-1.21311E+01 5.00000E-01
 -1      1913-4.13604E+00-7.04877E+00-5.00000E-01
 -1      1914 3.45987E+00-5.09949E+00-5.00000E-01
 -1      1915 3.26644E+00 2.22316E-01-5.00000E-01
 -1      1916 5.25136E+00-3.40730E+00-5.00000E-01
 -1      1917 2.13441E+00 8.38621E-02-5.00000E-01
 -1      1918-7.76232E+00-1.39822E+00-5.00000E-01
 -1      1919 8.32132E+00-1.09738E+01-5.00000E-01
 -1      1920 4.43732E+00-8.32091E+00-5.00000E-01
 -1      1921 1.07469E+01 5.75463E+00 5.00000E-01
 -1      1922 3.05473E-01-9.61923E+00-5.00000E-01
 -1      1923-6.73068E+00-3.32741E+00-5.00000E-01
 -1      1924-6.27427E+00-5.81120E+00-5.00000E-01
 -1      1925-8.87099E+00-1.76455E+00 5.00000E-01
 -1      1926-4.46639E+00-3.14251E+00-5.00000E-01
 -1      1927 2.39708E+00-4.60967E+00-5.00000E-01
 -1      1928 1.15312E+00-1.70628E+00-5.00000E-01
 -1      1929 5.66852E+00 9.10909E+00-5.00000E-01
 -1      1930 6.92468E+00 9.02843E+00 5.00000E-01
 -1      1931 7.39337E+00 1.14928E+01-5.00000E-01
 -1      1932 7.93602E+00 4.46067E+00-5.00000E-01
 -1      1933-8.98038E+00 1.04774E+00-5.00000E-01
 -1      1934 2.03995E+00-2.55224E+00-5.00000E-01
 -1      1935-2.44675E+00-5.60599E+00-5.00000E-01
 -1      1936-1.15030E+01-7.37645E+00-5.00000E-01
 -1      1937-2.92696E+00 1.34476E+01-5.00000E-01
 -1      1938 2.08161E+00 5.91008E+00-5.00000E-01
 -1      1939 3.93086E+00 5.86146E+00-5.00000E-01
 -1      1940 5.68429E+00-6.56610E+00-5.00000E-01
 -1      1941 7.87385E+00-5.26113E+00 5.00000E-01
 -1      1942 4.51929E+00 8.80058E+00-5.00000E-01
 -1      1943 1.07469E+01-5.75463E+00 5.00000E-01
 -1      1944 5.07637E+00 6.43425E+00-5.00000E-01
 -1      1945 1.71544E+00 7.31536E+00-5.00000E-01
 -1      1946-7.12494E+00-1.14765E+01-5.00000E-01
 -1      1947 9.20720E+00-1.83143E+00 5.00000E-01
 -1      1948 2.06475E+00 3.86061E+00-5.00000E-01
 -1      1949-1.65642E+00 5.65815E+00-5.00000E-01
 -1      1950 6.72273E+00 6.45039E+00-5.00000E-01
 -1      1951 2.96012E+00 2.47920E+00-5.00000E-01
 -1      1952 1.84469E+00 4.88723E+00-5.00000E-01
 -1      1953-3.80566E+00 5.86392E+00-5.00000E-01
 -1      1954-1.13887E+00-1.01925E+01-5.00000E-01
 -1      1955-5.75463E+00 1.07469E+01 5.00000E-01
 -1      1956 1.07469E+01-5.90492E+00-5.00000E-01
 -1      1957 3.85849E+00-1.98444E+00-5.00000E-01
 -1      1958 1.99009E+00-7.32990E+00-5.00000E-01
 -1      1959-2.93815E+00-1.33801E+01-5.00000E-01
 -1      1960-2.78989E+00-1.35239E+01 5.00000E-01
 -1      1961 6.94162E+00 1.05561E+01-5.00000E-01
 -1      1962-5.24136E+00-8.13872E+00-5.00000E-01
 -1      1963 7.93462E+00 1.37358E+00-5.00000E-01
 -1      1964-9.53229E+00 1.99304E+00-5.00000E-01
 -1      1965-6.59177E+00-7.69197E+00-5.00000E-01
 -1      1966-1.16301E+01 7.72632E+00-5.00000E-01
 -1      1967 4.05367E+00-3.18656E+00-5.00000E-01
 -1      1968 3.52105E+00-1.17860E+01-5.00000E-01
 -1      1969-1.01695E+01 2.46387E-01-5.00000E-01
 -1      1970 1.27284E+01 9.50431E-01-5.00000E-01
 -1      1971-2.23649E+00 7.61174E+00-5.00000E-01
 -1      1972 8.93308E+00-3.17694E+00-5.00000E-01
 -1      1973 1.12102E+01-5.84757E-01-5.00000E-01
 -1      1974-1.83982E+00 9.62263E+00-5.00000E-01
 -1      1975 1.02766E+01-9.31725E+00 5.00000E-01
 -1      1976 1.16022E+01-7.56768E+00 5.00000E-01
 -1      1977-3.53658E+00-1.26561E+00-5.00000E-01
 -1      1978-3.39103E+00-9.39868E+00-5.00000E-01
 -1      1979 1.88897E+00-9.23271E+00-5.00000E-01
 -1      1980-5.39746E+00-3.21322E-01-5.00000E-01
 -1      1981-3.88778E+00 8.84333E+00-5.00000E-01
 -1      1982 1.84747E+00-9.28785E+00 5.00000E-01
 -1      1983-6.63821E+00 7.11227E+00-5.00000E-01
 -1      1984 8.05212E+00 9.09205E+00-5.00000E-01
 -1      1985 8.76810E+00 3.01959E+00-5.00000E-01
 -1      1986 6.23726E+00-5.66321E+00-5.00000E-01
 -1      1987 2.70283E+00-8.32187E+00-5.00000E-01
 -1      1988-1.87429E+00-8.68728E+00-5.00000E-01
 -1      1989 8.91044E+00 2.04870E+00 5.00000E-01
 -1      1990 4.46065E+00 4.74180E+00-5.00000E-01
 -1      1991 3.35245E+00-9.37408E-01-5.00000E-01
 -1      1992 3.05130E+00 1.34234E+00-5.00000E-01
 -1      1993 4.44306E+00 2.29166E+00-5.00000E-01
 -1      1994-6.90570E+00-9.81865E+00-5.00000E-01
 -1      1995-2.25929E+00-7.74683E+00-5.00000E-01
 -1      1996 2.98975E+00 5.25876E+00-5.00000E-01
 -1      1997 6.01184E+00-1.06527E-01-5.00000E-01
 -1      1998 1.24119E+01-4.52538E+00-5.00000E-01
 -1      1999 1.34291E+00 1.09536E+01-5.00000E-01
 -1      2000-1.51755E+00 3.71230E+00-5.00000E-01
 -1      2001 7.62310E+00-2.86802E+00-5.00000E-01
 -1      2002 4.79577E+00-8.85647E-01-5.00000E-01
 -1      2003-5.50591E+00 1.06427E+01-5.00000E-01
 -1      2004-2.35322E-01-6.93237E+00-5.00000E-01
 -1      2005-6.36721E+00 5.06971E+00-5.00000E-01
 -1      2006-6.15967E-02 1.26355E+01-5.00000E-01
 -1      2007-2.66904E+00 1.23320E+01-5.00000E-01
 -1      2008-1.05767E+01-5.45607E+00-5.00000E-01
 -1      2009-2.04940E+00-3.61445E+00-5.00000E-01
 -1      2010-3.34255E+00-5.10233E+00-5.00000E-01
 -1      2011-5.11137E+00-5.96242E+00-5.00000E-01
 -1      2012 8.26980E+00-1.07913E+00-5.00000E-01
 -1      2013 4.57172E+00-4.48219E+00-5.00000E-01
 -1      2014 5.13710E+00-2.12596E+00-5.00000E-01
 -1      2015-7.48634E-01-9.06958E+00-5.00000E-01
 -1      2016-5.94803E+00-4.82693E+00-5.00000E-01
 -1      2017 6.75801E+00-1.54394E+00-5.00000E-01
 -1      2018 6.82270E+00 3.76072E+00-5.00000E-01
 -1      2019-1.57122E+00-4.98940E+00-5.00000E-01
 -1      2020-1.20977E+01-6.04954E+00-5.00000E-01
 -1      2021 8.73246E-01 7.96635E+00-5.00000E-01
 -1      2022 4.28378E+00 7.25185E+00-5.00000E-01
 -1      2023-6.31344E+00-1.22808E+01-5.00000E-01
 -1      2024-7.75290E+00-1.14268E+01 5.00000E-01
 -1      2025 6.86776E+00 5.17405E+00-5.00000E-01
 -1      2026 6.44810E+00 7.53895E+00-5.00000E-01
 -1      2027-4.93951E+00-1.73897E+00-5.00000E-01
 -1      2028-7.73627E+00 6.84708E+00-5.00000E-01
 -1      2029-6.02545E+00-1.17743E+00-5.00000E-01
 -1      2030 5.86480E+00-4.48260E+00-5.00000E-01
 -1      2031 3.35046E+00-7.50281E+00-5.00000E-01
 -1      2032 5.38297E+00 4.21848E+00-5.00000E-01
 -1      2033 4.36774E+00 3.51733E+00-5.00000E-01
 -1      2034 5.48293E+00 1.78606E+00-5.00000E-01
 -1      2035-2.98297E+00-8.46463E+00-5.00000E-01
 -1      2036 7.23505E+00-3.88127E+00-5.00000E-01
 -1      2037-7.91634E-01-7.92900E+00-5.00000E-01
 -1      2038-3.05121E+00-3.27615E+00-5.00000E-01
 -1      2039 6.35023E+00-2.75501E+00-5.00000E-01
 -1      2040 5.75177E+00-1.28968E+00-5.00000E-01
 -1      2041-1.16569E+01-4.93344E+00-5.00000E-01
 -1      2042-2.48926E+00-4.53805E+00-5.00000E-01
 -1      2043 7.87968E+00 5.53282E+00-5.00000E-01
 -1      2044-6.77491E-01 5.69693E+00-5.00000E-01
 -1      2045-1.24931E+00-7.50257E-02-5.00000E-01
 -1      2046-1.29891E+00-1.23505E-01 5.00000E-01
 -1      2047-1.68573E+00 2.11219E+00-5.00000E-01
 -1      2048-3.31440E+00 4.64260E+00-5.00000E-01
 -1      2049 5.11424E+00-1.46513E+00-5.00000E-01
 -1      2050-4.81946E-01 1.54181E+00-5.00000E-01
 -1      2051-6.55330E-01 1.58212E+00 5.00000E-01
 -1      2052-6.46217E-01 3.94759E+00-5.00000E-01
 -1      2053 6.80976E-01-2.22463E+00-5.00000E-01
 -1      2054-2.91734E-02 1.80587E+00 5.00000E-01
 -1      2055 2.87177E+00 3.40281E+00-5.00000E-01
 -1      2056 2.71907E+00-4.55832E-01-5.00000E-01
 -1      2057-1.90656E-01 2.30883E+00-5.00000E-01
 -1      2058 1.10976E+00 1.10976E+00 5.00000E-01
 -1      2059 1.19153E+00-7.66993E-02 5.00000E-01
 -1      2060 1.02013E+00 4.50438E-01-5.00000E-01
 -1      2061 5.32191E+00-9.73741E-01-5.00000E-01
 -1      2062-2.84819E+00-9.85641E-01-5.00000E-01
 -1      2063-1.58212E+00 6.55330E-01 5.00000E-01
 -1      2064 2.34688E+00-3.95522E+00-5.00000E-01
 -1      2065 2.41306E+00 1.86324E+00-5.00000E-01
 -1      2066-3.62475E+00-6.54093E-01-5.00000E-01
 -1      2067 2.41009E-01-2.70766E+00-5.00000E-01
 -1      2068-1.21273E+00-1.03200E+00-5.00000E-01
 -1      2069-1.81204E+00-2.69923E+00-5.00000E-01
 -1      2070-2.60690E+00-4.90247E-01-5.00000E-01
 -1      2071-6.48147E-01 2.67398E+00-5.00000E-01
 -1      2072-1.06170E+00 1.62688E+00-5.00000E-01
 -1      2073 4.74828E+00 9.44490E-01 5.00000E-01
 -1      2074-6.12631E+00 1.69566E+00-5.00000E-01
 -1      2075 4.74284E+00-2.80688E+00-5.00000E-01
 -1      2076-2.80807E+00 1.72418E+00-5.00000E-01
 -1      2077 4.45120E-01-1.53560E+00-5.00000E-01
 -1      2078-9.44490E-01-4.74828E+00 5.00000E-01
 -1      2079-6.48487E-01-2.55737E+00-5.00000E-01
 -1      2080-4.02539E+00 2.68968E+00 5.00000E-01
 -1      2081 1.20852E+00 1.82016E+00-5.00000E-01
 -1      2082 2.48237E+00 1.29672E+00-5.00000E-01
 -1      2083-1.58038E+00-5.66870E-01-5.00000E-01
 -1      2084 3.14208E+00-4.39112E+00-5.00000E-01
 -1      2085-2.68968E+00 4.02539E+00 5.00000E-01
 -1      2086-3.71165E+00 4.65837E-01-5.00000E-01
 -1      2087 1.01296E+00 5.47339E+00-5.00000E-01
 -1      2088-7.38606E+00-2.38254E+00-5.00000E-01
 -1      2089 5.36201E-01 2.14257E+00-5.00000E-01
 -1      2090 3.67269E-01-3.43774E+00-5.00000E-01
 -1      2091 9.18125E-01-5.77599E+00-5.00000E-01
 -1      2092 1.30734E+00-4.35542E+00-5.00000E-01
 -1      2093-8.33360E+00-6.12797E-01-5.00000E-01
 -1      2094-3.06511E+00 7.59802E-01-5.00000E-01
 -1      2095-2.60415E+00 4.66418E+00-5.00000E-01
 -1      2096-4.42592E+00 2.78330E+00-5.00000E-01
 -1      2097-1.01783E-01-1.58193E+00 5.00000E-01
 -1      2098-1.16118E+00-3.19495E+00-5.00000E-01
 -1      2099 1.58375E+00 5.46380E-01 5.00000E-01
 -1      2100 2.19145E+00 2.87171E+00-5.00000E-01
 -1      2101 1.79747E+00 2.21394E+00-5.00000E-01
 -1      2102 6.58094E-01 3.48848E+00-5.00000E-01
 -1      2103-3.13531E+00-4.48842E+00-5.00000E-01
 -1      2104-5.19565E+00 1.36402E+00-5.00000E-01
 -1      2105-4.86256E+00-9.31321E-01-5.00000E-01
 -1      2106 1.92616E+00-1.78370E+00-5.00000E-01
 -1      2107-1.78718E+00-2.09144E+00-5.00000E-01
 -1      2108-4.74828E+00 9.44490E-01 5.00000E-01
 -1      2109-9.44490E-01 4.74828E+00 5.00000E-01
 -1      2110 9.44490E-01 4.74828E+00 5.00000E-01
 -1      2111 2.64659E+00 5.93262E-01-5.00000E-01
 -1      2112-1.93075E+00-1.42535E+00-5.00000E-01
 -1      2113-3.05886E+00-1.77899E+00-5.00000E-01
 -1      2114 3.88375E+00 9.21575E-01-5.00000E-01
 -1      2115-5.49363E-01-1.54212E+00-5.00000E-01
 -1      2116-5.49208E+00-2.83066E+00-5.00000E-01
 -1      2117-4.33862E+00-2.31793E+00-5.00000E-01
 -1      2118 1.19964E+00-6.20952E-01-5.00000E-01
 -1      2119 1.23741E+00-1.23741E+00 5.00000E-01
 -1      2120 3.69202E+00 4.90588E+00-5.00000E-01
 -1      2121 1.55061E+00-3.05703E+00-5.00000E-01
 -1      2122 1.36424E+00-2.37278E+00-5.00000E-01
 -1      2123 2.70214E+00 4.04402E+00-5.00000E-01
 -1      2124 2.87657E+00-2.03568E+00-5.00000E-01
 -1      2125 4.02539E+00-2.68968E+00 5.00000E-01
 -1      2126-1.85565E+00 9.54068E-01-5.00000E-01
 -1      2127 5.73023E+00 9.01150E-01-5.00000E-01
 -1      2128 3.76223E+00 2.86497E+00-5.00000E-01
 -1      2129 2.89964E+00 4.63867E+00-5.00000E-01
 -1      2130 4.37579E+00 2.90268E+00-5.00000E-01
 -1      2131 4.74828E+00-9.44490E-01 5.00000E-01
 -1      2132-5.12994E+00 7.45848E-01-5.00000E-01
 -1      2133-5.23280E-01-2.05713E+00-5.00000E-01
 -1      2134-5.39453E+00-1.28812E+00-5.00000E-01
 -1      2135-2.69493E+00-3.87356E+00-5.00000E-01
 -1      2136-1.15387E+00 5.34719E+00-5.00000E-01
 -1      2137 2.48938E+00-1.57772E+00-5.00000E-01
 -1      2138-9.43705E-01 3.31824E+00-5.00000E-01
 -1      2139 2.68968E+00 4.02539E+00 5.00000E-01
 -1      2140 1.54868E+00-1.17957E+00-5.00000E-01
 -1      2141 1.62504E+00-6.40826E-01 5.00000E-01
 -1      2142 1.58158E+00 1.02564E+00 5.00000E-01
 -1      2143 2.68968E+00-4.02539E+00 5.00000E-01
 -1      2144-1.77987E+00 3.05542E-01-5.00000E-01
 -1      2145 5.24838E+00 1.24350E+00-5.00000E-01
 -1      2146-2.48216E+00-1.39888E+00-5.00000E-01
 -1      2147 2.98198E+00 1.90887E+00-5.00000E-01
 -1      2148 1.67923E+00 5.77070E-01-5.00000E-01
 -1      2149-1.38423E+00-8.56854E-01 5.00000E-01
 -1      2150 4.63024E+00-3.41781E+00-5.00000E-01
 -1      2151 4.15400E+00-2.55337E+00-5.00000E-01
 -1      2152 5.14599E-01-1.69162E+00 5.00000E-01
 -1      2153 9.80538E-01-1.63086E+00 5.00000E-01
 -1      2154 1.05275E+00 1.57548E+00 5.00000E-01
 -1      2155-2.03083E+00-2.10857E-01-5.00000E-01
 -1      2156 1.24095E+00 6.44137E+00-5.00000E-01
 -1      2157 8.06777E-01-4.80272E+00-5.00000E-01
 -1      2158 6.60459E-01 2.80979E+00-5.00000E-01
 -1      2159 5.26796E-01 1.76116E+00 5.00000E-01
 -1      2160 1.05077E+00-3.57266E+00-5.00000E-01
 -1      2161-8.99689E-01-5.14901E+00-5.00000E-01
 -1      2162-8.16618E-01-3.83137E+00-5.00000E-01
 -1      2163-4.74828E+00-9.44490E-01 5.00000E-01
 -1      2164-1.22979E+00 1.34453E+00 5.00000E-01
 -1      2165 1.25231E+00 4.92984E+00-5.00000E-01
 -1      2166-1.42484E+00 2.71300E+00-5.00000E-01
 -1      2167 2.24414E+00-3.23976E+00-5.00000E-01
 -1      2168-4.20696E-01 1.91351E+00 5.00000E-01
 -1      2169 1.84364E+00-5.02787E-01-5.00000E-01
 -1      2170-3.92302E+00-2.80452E+00-5.00000E-01
 -1      2171 3.30499E+00 8.10399E-01-5.00000E-01
 -1      2172-5.09323E+00-3.36151E+00-5.00000E-01
 -1      2173-9.85061E-01-1.47417E+00 5.00000E-01
 -1      2174 4.96804E+00 3.21781E+00-5.00000E-01
 -1      2175 4.02539E+00 2.68968E+00 5.00000E-01
 -1      2176-4.02539E+00-2.68968E+00 5.00000E-01
 -1      2177-2.68968E+00-4.02539E+00 5.00000E-01
 -1      2178 1.62332E+00-1.06393E+00 5.00000E-01
 -1      2179-5.76946E-01-1.80281E+00 5.00000E-01
 -1      2180-1.78776E+00-3.55739E-01 5.00000E-01
 -1      2181-1.58730E+00 1.09264E+00 5.00000E-01
 -1      2182-1.78325E+00 1.19155E+00 5.00000E-01
 -1      2183-2.08877E-01-1.97308E+00 5.00000E-01
 -1      2184 9.44490E-01-4.74828E+00 5.00000E-01
 -1      2185 2.67071E-01 2.01055E+00 5.00000E-01
 -1      2186 1.18311E+00 1.77061E+00 5.00000E-01
 -1      2187 1.31087E+00-1.62906E+00 5.00000E-01
 -1      2188 2.25000E-01-1.97974E+00 5.00000E-01
 -1      2189-1.14925E+00-1.71993E+00 5.00000E-01
 -1      2190-1.03449E+00 1.68561E+00 5.00000E-01
 -1      2191-1.86032E+00 2.25000E-01 5.00000E-01
 -1      2192 1.88498E+00-2.25000E-01 5.00000E-01
 -1      2193-2.05324E+00-4.08480E-01 5.00000E-01
 -1      2194-4.66841E-01-2.04776E+00 5.00000E-01
 -1      2195-3.37500E-01 2.12415E+00 5.00000E-01
 -1      2196 1.91743E+00 2.32182E-01 5.00000E-01
 -1      2197-4.50000E-01 2.83713E+00 9.84564E-01
 -1      2198-1.96746E+00 5.71407E-01 5.00000E-01
 -1      2199-2.32070E+00 0.00000E+00 9.50658E-01
 -1      2200-1.23140E+00-1.84290E+00 5.00000E-01
 -1      2201 2.83713E+00-4.50000E-01 9.84564E-01
 -1      2202-1.50147E+00 2.44896E+00 9.84562E-01
 -1      2203-1.55367E+00-1.23547E+00 5.00000E-01
 -1      2204 2.58218E+00-4.50000E-01 8.03376E-01
 -1      2205 0.00000E+00-2.32070E+00 9.50658E-01
 -1      2206-1.27260E+00-1.90457E+00 5.00000E-01
 -1      2207 1.40030E+00-2.20472E+00 7.96686E-01
 -1      2208 5.40354E-01-2.00711E+00 5.00000E-01
 -1      2209 1.68458E+00-2.32097E+00 9.92005E-01
 -1      2210-2.08701E+00 3.44657E-01 5.00000E-01
 -1      2211-2.85968E+00-4.50000E-01 9.75000E-01
 -1      2212-2.14405E+00-8.88094E-01 9.50659E-01
 -1      2213-2.57277E+00-5.78600E-01 7.63008E-01
 -1      2214-2.14405E+00 8.88094E-01 9.50659E-01
 -1      2215 2.32097E+00 1.68458E+00 9.92005E-01
 -1      2216-2.14072E+00 5.17868E-01 5.00000E-01
 -1      2217-2.85968E+00 4.50000E-01 9.75000E-01
 -1      2218-2.16286E+00-5.30576E-01 5.00000E-01
 -1      2219 3.70985E-01-2.12812E+00 5.00000E-01
 -1      2220-2.59019E+00 4.50000E-01 8.09069E-01
 -1      2221-1.68458E+00 2.32097E+00 9.92005E-01
 -1      2222 0.00000E+00 2.32070E+00 9.50658E-01
 -1      2223-2.20121E+00-3.37500E-01 5.00000E-01
 -1      2224-1.80807E+00-9.92465E-01 5.00000E-01
 -1      2225 2.32070E+00 0.00000E+00 9.50658E-01
 -1      2226-8.88094E-01 2.14405E+00 9.50659E-01
 -1      2227 4.50000E-01-2.85968E+00 9.75000E-01
 -1      2228 4.50000E-01-2.59019E+00 8.09069E-01
 -1      2229-1.87462E+00 1.25260E+00 5.00000E-01
 -1      2230-2.59019E+00-4.50000E-01 8.09069E-01
 -1      2231 1.71803E+00 1.24074E+00 5.00000E-01
 -1      2232-4.34207E-01-2.18274E+00 5.00000E-01
 -1      2233-2.07280E+00 1.06010E+00 7.62112E-01
 -1      2234-2.20070E+00 4.04338E-01 5.00000E-01
 -1      2235 2.32097E+00-1.68458E+00 9.92005E-01
 -1      2236-2.82928E+00 6.84850E-01 9.75000E-01
 -1      2237 2.85968E+00 4.50000E-01 9.75000E-01
 -1      2238 1.73876E+00-1.26147E+00 5.00000E-01
 -1      2239-1.40390E+00 2.21342E+00 8.03377E-01
 -1      2240-6.84850E-01 2.82928E+00 9.75000E-01
 -1      2241-1.86174E-01 2.32070E+00 7.62112E-01
 -1      2242-5.87757E-01 2.59488E+00 8.00305E-01
 -1      2243 2.59019E+00 4.50000E-01 8.09069E-01
 -1      2244 1.97385E+00-5.69712E-01 5.00000E-01
 -1      2245-1.86290E+00-6.72029E-01 5.00000E-01
 -1      2246-1.97957E+00-8.47995E-02 5.00000E-01
 -1      2247-4.50000E-01-2.85968E+00 9.75000E-01
 -1      2248-2.32070E+00-1.86174E-01 7.62112E-01
 -1      2249-4.50000E-01-2.59019E+00 8.09069E-01
 -1      2250 2.09382E+00-3.54971E-01 5.00000E-01
 -1      2251-2.32097E+00 1.68458E+00 9.92005E-01
 -1      2252 2.20472E+00-1.40030E+00 7.96686E-01
 -1      2253-2.46979E+00 1.51010E+00 9.75000E-01
 -1      2254-1.64099E+00 1.64099E+00 9.50654E-01
 -1      2255 1.64099E+00-1.64099E+00 9.50654E-01
 -1      2256-5.20675E-01 2.13896E+00 5.00000E-01
 -1      2257-4.23099E-01 2.20562E+00 5.00000E-01
 -1      2258-3.08430E-01 2.32070E+00 6.46290E-01
 -1      2259-1.92056E+00 1.28329E+00 5.00000E-01
 -1      2260-2.02602E+00 1.17305E+00 6.46290E-01
 -1      2261 2.14684E+00-5.23943E-01 5.00000E-01
 -1      2262 5.48296E-01 2.04349E+00 5.00000E-01
 -1      2263-2.57277E+00 5.78600E-01 8.09629E-01
 -1      2264 1.24837E+00 1.86829E+00 5.00000E-01
 -1      2265 1.64099E+00 1.64099E+00 9.50654E-01
 -1      2266-2.32097E+00-1.68458E+00 9.92005E-01
 -1      2267-2.18710E+00-7.84158E-01 7.25329E-01
 -1      2268 1.94074E+00 5.91232E-01 5.00000E-01
 -1      2269 6.68151E-01-2.78897E+00 9.92005E-01
 -1      2270 1.28115E+00 1.91736E+00 5.00000E-01
 -1      2271-2.48196E+00-4.50000E-01 6.73439E-01
 -1      2272 5.72540E-01-2.55814E+00 8.03458E-01
 -1      2273-1.68458E+00-2.32097E+00 9.92005E-01
 -1      2274-8.88094E-01-2.14405E+00 9.50659E-01
 -1      2275 1.14661E+00-1.79716E+00 5.00000E-01
 -1      2276-2.18710E+00 7.84158E-01 7.25329E-01
 -1      2277-2.46979E+00-1.51010E+00 9.75000E-01
 -1      2278-2.22082E+00-1.40697E+00 8.09069E-01
 -1      2279-2.25168E+00-6.28254E-01 6.68833E-01
 -1      2280 2.20258E+00-4.13644E-01 5.00000E-01
 -1      2281 4.50000E-01 2.85968E+00 9.75000E-01
 -1      2282-2.32070E+00 1.86174E-01 7.62112E-01
 -1      2283 8.88094E-01 2.14405E+00 9.50659E-01
 -1      2284 4.50000E-01 2.59019E+00 8.09069E-01
 -1      2285 2.15551E+00 1.51912E+00 7.63007E-01
 -1      2286-2.48196E+00 4.50000E-01 6.73439E-01
 -1      2287-1.25969E+00 1.73698E+00 5.00000E-01
 -1      2288 2.78897E+00 6.68151E-01 9.92005E-01
 -1      2289 1.85336E+00 1.23839E+00 5.00000E-01
 -1      2290-2.22744E+00 4.91076E-01 5.00000E-01
 -1      2291-4.47782E-01-2.25107E+00 5.00000E-01
 -1      2292-1.53058E+00 2.16697E+00 7.88285E-01
 -1      2293-7.84158E-01 2.18710E+00 7.25329E-01
 -1      2294-2.25804E+00 4.34146E-01 5.00000E-01
 -1      2295 6.84850E-01 2.82928E+00 9.75000E-01
 -1      2296-2.21657E+00-4.40898E-01 5.00000E-01
 -1      2297 1.88047E+00-1.14422E+00 5.00000E-01
 -1      2298-1.77155E+00-1.20890E+00 5.00000E-01
 -1      2299 1.51912E+00 2.15551E+00 7.63007E-01
 -1      2300 2.14405E+00 8.88094E-01 9.50659E-01
 -1      2301 1.72053E+00 1.56144E+00 7.25327E-01
 -1      2302 2.46979E+00 1.51010E+00 9.75000E-01
 -1      2303 2.22082E+00 1.40697E+00 8.09069E-01
 -1      2304 1.56144E+00 1.72053E+00 6.96914E-01
 -1      2305 1.44211E+00 1.83986E+00 6.62729E-01
 -1      2306-2.44452E+00-5.25474E-01 6.31504E-01
 -1      2307-3.25532E-01 2.22242E+00 5.00000E-01
 -1      2308-5.06778E-01 2.22336E+00 5.00000E-01
 -1      2309-4.55864E-01 2.25732E+00 5.00000E-01
 -1      2310-7.81707E-02 2.06689E+00 5.00000E-01
 -1      2311-1.56144E+00-1.72053E+00 8.44077E-01
 -1      2312-1.12500E-01-2.32070E+00 7.25329E-01
 -1      2313 9.92031E-01-2.10100E+00 8.31909E-01
 -1      2314-2.14431E+00-1.50792E+00 8.03458E-01
 -1      2315-1.72053E+00 1.56144E+00 7.25327E-01
 -1      2316-4.50000E-01-2.48196E+00 6.73439E-01
 -1      2317 2.78897E+00-6.68151E-01 9.92005E-01
 -1      2318 1.53058E+00-2.16697E+00 7.88285E-01
 -1      2319 2.15551E+00-1.51912E+00 7.92948E-01
 -1      2320-6.84850E-01-2.82928E+00 9.75000E-01
 -1      2321-5.78600E-01-2.57277E+00 8.09629E-01
 -1      2322 2.55652E+00-5.71868E-01 8.56250E-01
 -1      2323 1.36120E+00-2.11033E+00 6.65468E-01
 -1      2324-1.14415E+00 1.88028E+00 5.00000E-01
 -1      2325 1.84142E+00 1.44055E+00 6.69938E-01
 -1      2326-2.41767E+00-4.50000E-01 5.97905E-01
 -1      2327 5.78600E-01 2.57277E+00 8.09629E-01
 -1      2328-1.54132E+00 1.74065E+00 7.39533E-01
 -1      2329-2.25122E+00 6.29364E-01 6.68232E-01
 -1      2330 2.47679E+00-4.50000E-01 6.69813E-01
 -1      2331 2.08644E+00 4.01491E-01 5.00000E-01
 -1      2332-2.27885E+00-5.62665E-01 5.98698E-01
 -1      2333 1.36811E+00 2.12700E+00 6.78125E-01
 -1      2334 3.93893E-01 2.14477E+00 5.00000E-01
 -1      2335 4.42818E-01 2.22608E+00 5.00000E-01
 -1      2336 1.14794E+00 2.03642E+00 6.65954E-01
 -1      2337 2.20107E+00 4.37848E-01 5.00000E-01
 -1      2338 2.26277E+00 8.74555E-01-5.00000E-01
 -1      2339 2.32070E+00 1.12500E-01 7.25329E-01
 -1      2340 2.48198E+00 4.50000E-01 6.73389E-01
 -1      2341 4.52130E-01 2.27296E+00 5.00000E-01
 -1      2342-1.51010E+00-2.46979E+00 9.75000E-01
 -1      2343-1.06010E+00-2.07280E+00 7.62112E-01
 -1      2344-1.40030E+00-2.20472E+00 7.37123E-01
 -1      2345-1.43765E+00 2.07404E+00 6.73213E-01
 -1      2346 1.52360E+00 2.50238E+00 9.75000E-01
 -1      2347-2.32070E+00 2.81250E-01 6.42264E-01
 -1      2348 1.21438E+00 2.00890E+00 5.97821E-01
 -1      2349-5.37236E-01 2.47291E+00 6.78768E-01
 -1      2350 2.21530E+00 7.16093E-01 7.62112E-01
 -1      2351-1.36357E+00 2.11605E+00 6.69813E-01
 -1      2352 2.10100E+00-9.92031E-01 8.31909E-01
 -1      2353 2.11033E+00-1.36120E+00 6.65468E-01
 -1      2354 1.34245E+00 2.06505E+00 6.00579E-01
 -1      2355-2.44452E+00 5.25474E-01 6.31504E-01
 -1      2356-2.26813E+00-4.51172E-01 5.00000E-01
 -1      2357 1.90984E+00 1.27612E+00 5.00000E-01
 -1      2358 1.85765E+00-1.26091E+00 5.00000E-01
 -1      2359-1.26136E+00 1.85657E+00 5.00000E-01
 -1      2360-2.15551E+00 1.51912E+00 7.63007E-01
 -1      2361-1.83986E+00 1.44211E+00 6.65952E-01
 -1      2362-2.27877E+00 5.62854E-01 5.98891E-01
 -1      2363-2.05734E+00 1.42095E+00 6.31504E-01
 -1      2364-1.06010E+00 2.07280E+00 7.62112E-01
 -1      2365-2.00266E+00 1.22943E+00 5.82385E-01
 -1      2366-2.44452E+00 4.50000E-01 5.85493E-01
 -1      2367-2.81250E-01-2.32070E+00 6.65954E-01
 -1      2368 2.25612E+00 6.17540E-01 6.43982E-01
 -1      2369 2.48272E+00-5.41301E-01 6.87046E-01
 -1      2370-7.84158E-01-2.18710E+00 7.25329E-01
 -1      2371-5.35975E-01-2.46987E+00 6.74276E-01
 -1      2372 1.24644E+00-1.86541E+00 5.00000E-01
 -1      2373 2.23133E+00-4.97402E-01 5.00000E-01
 -1      2374-1.46252E+00-1.81945E+00 6.99383E-01
 -1      2375 7.84158E-01 2.18710E+00 7.25329E-01
 -1      2376 1.42095E+00 2.05734E+00 6.31504E-01
 -1      2377 1.72053E+00-1.56144E+00 7.25327E-01
 -1      2378-1.04718E+00-1.87705E+00 5.00000E-01
 -1      2379-3.53168E-01-2.32070E+00 5.97821E-01
 -1      2380 1.84142E+00-1.44055E+00 6.69938E-01
 -1      2381 2.32070E+00-2.81250E-01 6.65954E-01
 -1      2382 2.03642E+00 1.14794E+00 6.72040E-01
 -1      2383 9.66724E-01 2.40758E+00-5.00000E-01
 -1      2384 5.35292E-01 2.46822E+00 6.74809E-01
 -1      2385 4.50000E-01 2.48196E+00 6.73439E-01
 -1      2386 2.32070E+00-3.53168E-01 5.97821E-01
 -1      2387 4.50000E-01-2.48196E+00 6.73439E-01
 -1      2388-1.90179E+00-1.11958E+00 5.00000E-01
 -1      2389 5.11971E-01-2.14642E+00 5.00000E-01
 -1      2390 1.14794E+00-2.03642E+00 6.65954E-01
 -1      2391-1.89071E+00 1.39126E+00 5.97820E-01
 -1      2392-2.09011E+00-1.01832E+00 7.39536E-01
 -1      2393 1.93526E+00-1.22780E+00 5.00000E-01
 -1      2394-2.32070E+00 3.60149E-01 5.91208E-01
 -1      2395-2.12083E+00-1.36555E+00 6.73439E-01
 -1      2396-2.03117E+00-1.16060E+00 6.59057E-01
 -1      2397-6.28254E-01-2.25168E+00 6.65954E-01
 -1      2398-1.75893E+00-1.52304E+00 7.80468E-01
 -1      2399 2.25876E+00-4.41177E-01 5.00000E-01
 -1      2400 2.25168E+00-6.28254E-01 6.65954E-01
 -1      2401-1.83986E+00-1.44211E+00 6.57947E-01
 -1      2402-1.84924E+00-1.29240E+00 5.00000E-01
 -1      2403 1.39054E+00 1.89143E+00 5.96854E-01
 -1      2404 2.81250E-01-2.21172E+00 5.00000E-01
 -1      2405 2.05734E+00 1.42095E+00 6.31504E-01
 -1      2406-1.35842E+00-2.10361E+00 6.42610E-01
 -1      2407-1.16229E+00-2.03047E+00 6.51235E-01
 -1      2408-4.50000E-01-2.41767E+00 5.97905E-01
 -1      2409 2.05734E+00-1.42095E+00 6.31504E-01
 -1      2410 2.81250E-01 2.32070E+00 6.65954E-01
 -1      2411 3.53168E-01 2.32070E+00 5.97821E-01
 -1      2412 1.43944E+00-2.07583E+00 6.72255E-01
 -1      2413-1.16229E+00 2.03047E+00 6.51235E-01
 -1      2414 1.44211E+00-1.83986E+00 6.65952E-01
 -1      2415 2.41460E+00-4.50000E-01 5.95808E-01
 -1      2416 1.32668E+00-2.02698E+00 5.72449E-01
 -1      2417-1.22749E+00 1.93451E+00 5.00000E-01
 -1      2418 3.81256E-01-2.22911E+00 5.00000E-01
 -1      2419 2.26030E+00 4.49617E-01 5.00000E-01
 -1      2420 7.33004E-01-2.20829E+00 7.79454E-01
 -1      2421-1.28397E+00 1.91272E+00 5.00000E-01
 -1      2422 2.08623E+00 1.35122E+00 6.16224E-01
 -1      2423 2.00965E+00 1.21255E+00 5.99693E-01
 -1      2424 2.03642E+00-1.14794E+00 6.65954E-01
 -1      2425 2.00890E+00-1.21438E+00 5.97821E-01
 -1      2426 1.89031E+00-1.39166E+00 5.98359E-01
 -1      2427-1.22388E+00 2.00496E+00 5.88082E-01
 -1      2428 1.91330E+00-1.28384E+00 5.00000E-01
 -1      2429-5.10086E-01-2.40736E+00 6.00164E-01
 -1      2430 6.28254E-01-2.25168E+00 6.57067E-01
 -1      2431-1.42095E+00-2.05734E+00 6.31504E-01
 -1      2432 2.41554E+00-5.13473E-01 6.07063E-01
 -1      2433 1.28018E+00-1.91591E+00 5.00000E-01
 -1      2434 2.27920E+00-5.61810E-01 5.97821E-01
 -1      2435-1.86261E+00-1.20207E+00 5.00000E-01
 -1      2436 6.28254E-01 2.25168E+00 6.65954E-01
 -1      2437-1.91448E+00-1.25590E+00 5.00000E-01
 -1      2438-1.22388E+00-2.00496E+00 5.88082E-01
 -1      2439 1.89031E+00 1.39166E+00 5.98359E-01
 -1      2440 2.81250E-01-2.32070E+00 6.65954E-01
 -1      2441 3.53168E-01-2.32070E+00 5.97821E-01
 -1      2442 4.50000E-01-2.41767E+00 5.97905E-01
 -1      2443-1.44211E+00 1.83986E+00 6.54247E-01
 -1      2444 4.50000E-01 2.41767E+00 5.97905E-01
 -1      2445 1.39126E+00-1.89071E+00 5.97820E-01
 -1      2446 4.71067E-01-2.22642E+00 5.00000E-01
 -1      2447 5.25474E-01-2.44452E+00 6.31504E-01
 -1      2448 2.02820E+00 1.32719E+00 5.73352E-01
 -1      2449 2.05515E+00-1.33835E+00 5.93261E-01
 -1      2450-5.61810E-01-2.27920E+00 5.97821E-01
 -1      2451-1.40501E+00-1.87696E+00 6.16245E-01
 -1      2452 5.09939E-01 2.40701E+00 5.99866E-01
 -1      2453-1.39138E+00 2.02777E+00 5.98907E-01
 -1      2454 4.27311E-01-2.26614E+00 5.00000E-01
 -1      2455 5.59259E-01-2.28026E+00 5.95206E-01
 -1      2456-1.37476E+00-2.01115E+00 5.80596E-01
 -1      2457 5.61810E-01 2.27920E+00 5.97821E-01
 -1      2458-1.38871E+00 1.89326E+00 5.94407E-01
 -1      2459-4.78030E+00 3.19410E+00 7.09517E-02
 -1      2460-2.28124E+00 1.52425E+00 5.84978E-02
 -1      2461 2.16809E+00 1.44865E+00-3.11883E-02
 -1      2462-1.12162E+00-5.63874E+00 4.75894E-02
 -1      2463-1.29911E+00 1.94425E+00-7.81526E-02
 -1      2464 5.63874E+00-1.12162E+00 6.75867E-02
 -1      2465-2.84454E+00 4.25715E+00-2.14942E-02
 -1      2466-3.19410E+00 4.78030E+00 7.13806E-02
 -1      2467-3.86602E-01 1.94311E+00-1.17718E-02
 -1      2468 2.69090E+00-5.35161E-01 6.86055E-02
 -1      2469 1.97437E+00 3.92812E-01 1.07494E-03
 -1      2470 5.35161E-01-2.69090E+00 2.87455E-02
 -1      2471-5.35161E-01 2.69090E+00 6.56229E-02
 -1      2472-2.69090E+00-5.35161E-01 6.76123E-02
 -1      2473 1.90164E+00-1.27064E+00-6.34193E-02
 -1      2474-4.59269E-01 2.30889E+00 1.08464E-01
 -1      2475-5.63874E+00 1.12162E+00 3.75678E-02
 -1      2476-5.35161E-01-2.69090E+00 5.68133E-02
 -1      2477 3.19410E+00-4.78030E+00 1.10155E-02
 -1      2478-3.43129E+00 6.82520E-01 3.27780E-02
 -1      2479 4.03726E-01 2.02931E+00 2.83359E-02
 -1      2480 1.12162E+00-5.63874E+00 5.79714E-02
 -1      2481-2.69090E+00 5.35161E-01 2.81095E-02
 -1      2482 1.18311E+00 1.77061E+00 2.59845E-02
 -1      2483 1.52425E+00 2.28124E+00 3.25628E-02
 -1      2484 1.17981E+00-1.76568E+00 2.68224E-02
 -1      2485 1.49536E+00-2.23800E+00 3.60803E-02
 -1      2486-1.52425E+00-2.28124E+00 1.95755E-02
 -1      2487-3.19410E+00-4.78030E+00 4.37729E-02
 -1      2488 3.97395E-01-1.99744E+00-1.23850E-02
 -1      2489 2.69090E+00 5.35161E-01 6.94795E-02
 -1      2490-4.34287E-01-2.18314E+00-2.31373E-03
 -1      2491-1.14925E+00-1.71993E+00 6.65317E-03
 -1      2492-2.15939E+00 4.29570E-01-1.90688E-02
 -1      2493-1.61325E+00 1.07798E+00 5.27433E-02
 -1      2494 3.19410E+00 4.78030E+00 3.47155E-02
 -1      2495 5.63874E+00 1.12162E+00 5.96063E-02
 -1      2496-5.63874E+00-1.12162E+00 4.44148E-02
 -1      2497-4.95148E-01 2.48949E+00 2.99920E-01
 -1      2498-1.12162E+00 5.63874E+00 4.50729E-02
 -1      2499-2.84454E+00-4.25715E+00-3.01693E-02
 -1      2500-2.16444E+00-4.30572E-01-2.06660E-02
 -1      2501-2.48949E+00-4.95148E-01 2.70348E-01
 -1      2502-6.82520E-01 3.43129E+00 5.50570E-02
 -1      2503-2.40963E+00 4.79283E-01 1.86212E-01
 -1      2504 2.48949E+00-4.95148E-01 2.70813E-01
 -1      2505-2.28124E+00-1.52425E+00 4.41125E-02
 -1      2506-4.80828E-01-2.41741E+00 2.02314E-01
 -1      2507 1.76587E+00 1.17994E+00 6.85455E-02
 -1      2508-2.11049E+00 1.41017E+00 2.66066E-01
 -1      2509-1.41017E+00 2.11049E+00 2.02760E-01
 -1      2510-1.65740E+00-1.10747E+00-1.91659E-02
 -1      2511 4.78030E+00-3.19410E+00 5.18155E-02
 -1      2512-2.40398E+00-4.78161E-01 3.85456E-01
 -1      2513 1.12162E+00 5.63874E+00 6.85201E-02
 -1      2514 6.82520E-01-3.43129E+00 4.58432E-02
 -1      2515 5.35161E-01 2.69090E+00 5.72308E-02
 -1      2516 1.35284E+00 2.02467E+00 1.69995E-01
 -1      2517 2.11049E+00 1.41017E+00 2.58627E-01
 -1      2518 2.43841E+00 1.58587E+00 1.92414E-01
 -1      2519-6.82520E-01-3.43129E+00 2.80370E-02
 -1      2520 1.33623E+00-1.99980E+00 1.81572E-01
 -1      2521-1.33539E+00-1.99855E+00 1.41270E-01
 -1      2522 4.64930E-01-2.33738E+00 1.27078E-01
 -1      2523 2.32458E+00 4.62387E-01 1.22944E-01
 -1      2524-1.96241E+00-1.31125E+00 1.10967E-01
 -1      2525 1.94367E+00-2.90890E+00 2.73172E-02
 -1      2526-4.78030E+00-3.19410E+00 3.74974E-02
 -1      2527 4.78030E+00 3.19410E+00 7.01921E-02
 -1      2528-1.23140E+00-1.84290E+00 3.02286E-01
 -1      2529-1.33139E+00-1.99257E+00 3.22220E-01
 -1      2530 1.78945E+00-1.19569E+00 2.42036E-01
 -1      2531-4.56817E-01 2.29655E+00 3.04834E-01
 -1      2532 2.43841E+00-1.58587E+00 2.23136E-02
 -1      2533 2.09862E+00-1.44512E+00 1.87376E-01
 -1      2534 2.57277E+00-1.62523E-01 3.25146E-01
 -1      2535-1.13041E+00-2.33152E+00 2.38364E-01
 -1      2536-4.34207E-01-2.18274E+00 2.87399E-01
 -1      2537-1.58587E+00 2.43841E+00 1.98121E-01
 -1      2538-1.13471E+00 2.31473E+00 3.04883E-01
 -1      2539-1.23407E+00 1.84689E+00 2.16780E-01
 -1      2540-2.57277E+00-1.62523E-01 3.25036E-01
 -1      2541 2.06498E+00-4.10813E-01 1.22759E-01
 -1      2542 2.03800E+00 1.36174E+00 3.79582E-01
 -1      2543-1.87462E+00 1.25260E+00 2.36870E-01
 -1      2544 2.25311E+00-4.48189E-01 2.68675E-01
 -1      2545 2.30164E+00-8.37032E-01-5.40037E-02
 -1      2546 4.68561E-01 2.35566E+00 1.48468E-01
 -1      2547-1.27623E+00-1.91000E+00 3.96277E-01
 -1      2548-2.38742E+00-7.87044E-01 3.28168E-01
 -1      2549 1.24837E+00 1.86829E+00 3.02316E-01
 -1      2550-1.73205E+00 1.94257E+00 2.96618E-01
 -1      2551 1.36174E+00-2.03800E+00 3.49610E-01
 -1      2552-4.96591E-01-2.57277E+00 3.26121E-01
 -1      2553 0.00000E+00-2.78942E+00 2.00727E-01
 -1      2554-2.36123E+00-4.69668E-01 4.43295E-01
 -1      2555-2.30867E+00-2.55636E-01 1.91255E-01
 -1      2556-4.78161E-01 2.40398E+00 4.00284E-01
 -1      2557-2.18686E+00 4.35026E-01 2.89809E-01
 -1      2558-2.34244E+00 4.65934E-01 3.36785E-01
 -1      2559 2.48949E+00 4.95148E-01 3.14470E-01
 -1      2560 2.30353E+00 4.58205E-01 3.11341E-01
 -1      2561-2.14897E+00-5.42815E-01 2.51799E-01
 -1      2562-2.03800E+00 1.36174E+00 3.83311E-01
 -1      2563-2.31473E+00 1.13471E+00 3.23953E-01
 -1      2564-2.57277E+00 4.96591E-01 3.15327E-01
 -1      2565-1.29345E+00-1.93578E+00 4.50294E-01
 -1      2566 8.56815E-01-2.45753E+00 2.21349E-01
 -1      2567-1.90557E+00 1.64334E+00 3.26718E-01
 -1      2568-1.44335E+00-2.18689E+00 2.96323E-01
 -1      2569-4.58964E-01 2.30735E+00 4.02768E-01
 -1      2570 1.75099E+00-1.96141E+00 2.17612E-01
 -1      2571-1.91997E+00 1.28289E+00 3.68730E-01
 -1      2572 1.96350E+00-1.31198E+00 2.86355E-01
 -1      2573-1.32464E+00 1.98246E+00 3.12420E-01
 -1      2574-4.78161E-01-2.40398E+00 3.63825E-01
 -1      2575 2.40398E+00-4.78161E-01 3.85690E-01
 -1      2576 1.81264E+00 1.45965E+00 1.91831E-01
 -1      2577 1.34043E+00 2.00609E+00 3.38046E-01
 -1      2578-4.52794E-01-2.27630E+00 3.76954E-01
 -1      2579-2.44452E+00-3.07494E-01 4.05037E-01
 -1      2580-2.11049E+00-1.41017E+00 3.03963E-01
 -1      2581-4.66491E-01-2.34524E+00 4.21953E-01
 -1      2582 1.69828E+00 1.92849E+00 2.70390E-01
 -1      2583 1.33753E+00 2.00175E+00 4.25206E-01
 -1      2584 2.39512E+00 4.76399E-01 3.99088E-01
 -1      2585 1.95088E+00 1.52742E+00 3.97324E-01
 -1      2586-1.94780E+00-1.30149E+00 3.05836E-01
 -1      2587-2.29504E+00-3.54906E-01 3.32175E-01
 -1      2588-4.68785E-01 2.35679E+00 4.46832E-01
 -1      2589 1.44335E+00 2.18689E+00 3.14674E-01
 -1      2590-8.03745E-01-2.38808E+00 2.86543E-01
 -1      2591 2.48475E+00 1.95123E-01 3.39718E-01
 -1      2592-3.23560E-01 2.38437E+00 3.97399E-01
 -1      2593-1.24381E+00-2.13072E+00 3.79015E-01
 -1      2594-1.12500E-01 2.15645E+00 1.71612E-01
 -1      2595 2.31473E+00-1.13471E+00 2.58751E-01
 -1      2596-1.88616E+00-1.95757E+00 1.81302E-01
 -1      2597-6.17532E-01 2.33891E+00 4.10521E-01
 -1      2598-2.14076E+00 1.21957E+00 4.04635E-01
 -1      2599 1.21895E+00 2.14321E+00 3.84566E-01
 -1      2600 1.28115E+00 1.91736E+00 4.17024E-01
 -1      2601-2.00175E+00 1.33753E+00 4.42212E-01
 -1      2602 2.00175E+00 1.33753E+00 4.40330E-01
 -1      2603-2.25273E+00 4.48112E-01 4.06931E-01
 -1      2604-2.44452E+00 4.78883E-01 3.94112E-01
 -1      2605-2.27876E+00-5.95683E-01 3.55493E-01
 -1      2606-9.07327E-01 2.48445E+00 5.17173E-01
 -1      2607-7.06357E-01 1.99928E+00 1.93887E-01
 -1      2608-4.59137E-01 2.30822E+00 4.52610E-01
 -1      2609 4.96591E-01-2.56386E+00 2.54200E-01
 -1      2610 2.35747E+00 4.68920E-01 4.50717E-01
 -1      2611 4.29148E-01 2.15727E+00 3.04651E-01
 -1      2612-2.40071E+00 7.26966E-01 2.95062E-01
 -1      2613-2.85807E+00 1.65525E-01 2.17715E-01
 -1      2614-2.54275E+00 2.34773E-01 3.53379E-01
 -1      2615 1.92895E+00 1.14484E+00 2.74076E-01
 -1      2616 1.87233E+00 1.38595E+00 3.36400E-01
 -1      2617 1.19642E+00-2.33190E+00 2.17612E-01
 -1      2618 1.21957E+00-2.14076E+00 3.96081E-01
 -1      2619 1.33753E+00-2.00175E+00 4.25237E-01
 -1      2620 4.40075E-01-2.21227E+00 3.07618E-01
 -1      2621-3.07771E-01-2.36990E+00 3.55087E-01
 -1      2622 4.63462E-01 2.32999E+00 3.23640E-01
 -1      2623 1.27740E+00 2.56618E+00 2.25507E-01
 -1      2624 2.03800E+00-1.36174E+00 3.92484E-01
 -1      2625 2.28566E+00-4.54655E-01 3.84657E-01
 -1      2626-1.37791E+00 2.07517E+00 3.82832E-01
 -1      2627-1.52742E+00 1.95088E+00 3.85973E-01
 -1      2628 2.14076E+00 1.21957E+00 4.03917E-01
 -1      2629 1.90984E+00 1.27612E+00 4.06422E-01
 -1      2630-2.02985E+00-1.35630E+00 3.93598E-01
 -1      2631 2.29578E+00 5.97015E-01 3.84207E-01
 -1      2632-1.95503E+00 1.42510E+00 4.39525E-01
 -1      2633-2.31473E+00-1.13471E+00 3.31481E-01
 -1      2634-1.89753E+00-1.62407E+00 3.38219E-01
 -1      2635-2.33320E+00 4.64099E-01 4.19209E-01
 -1      2636 1.26196E+00 2.05379E+00 4.42188E-01
 -1      2637-4.54662E-01-2.28570E+00 4.45355E-01
 -1      2638 1.30825E+00 1.95793E+00 4.45455E-01
 -1      2639-1.21957E+00 2.14076E+00 4.10525E-01
 -1      2640 1.42510E+00 1.95503E+00 4.38203E-01
 -1      2641 2.36123E+00-4.69668E-01 4.43413E-01
 -1      2642 1.52742E+00-1.95088E+00 3.90802E-01
 -1      2643 2.31613E+00-6.10844E-01 3.85461E-01
 -1      2644 1.37460E+00-1.83032E+00 3.04567E-01
 -1      2645 1.94727E+00-1.30113E+00 3.93715E-01
 -1      2646 1.95092E+00 1.30356E+00 4.42510E-01
 -1      2647-1.12500E-01 2.63945E+00 4.71340E-01
 -1      2648 2.40378E+00-3.22172E-01 4.07902E-01
 -1      2649-1.33753E+00-2.00175E+00 4.32235E-01
 -1      2650 2.46755E+00-9.00326E-01 4.34323E-01
 -1      2651 1.22510E+00-1.93019E+00 3.04567E-01
 -1      2652 2.30180E+00-4.57862E-01 4.42970E-01
 -1      2653 4.96591E-01 2.57277E+00 2.71886E-01
 -1      2654-2.14076E+00-1.21957E+00 4.05153E-01
 -1      2655-2.05379E+00 1.26196E+00 4.44683E-01
 -1      2656-1.55590E+00-1.95365E+00 3.46817E-01
 -1      2657-1.94403E+00 1.29897E+00 4.36309E-01
 -1      2658 1.95003E+00 1.96663E+00 8.04048E-01
 -1      2659 4.69668E-01 2.36123E+00 4.14699E-01
 -1      2660 4.78161E-01-2.40398E+00 3.40136E-01
 -1      2661 3.07494E-01 2.44452E+00 3.92281E-01
 -1      2662-2.35158E+00-5.68465E-01 4.39454E-01
 -1      2663 2.39549E+00 1.11401E+00 6.50919E-01
 -1      2664 4.52130E-01 2.27296E+00 4.23257E-01
 -1      2665-1.09429E+00-2.62574E+00 7.01178E-01
 -1      2666-2.28709E+00 4.54939E-01 4.53068E-01
 -1      2667-2.35158E+00 5.68465E-01 4.28494E-01
 -1      2668 4.61430E-01 2.31977E+00 4.47645E-01
 -1      2669-1.33753E+00 2.00175E+00 4.20118E-01
 -1      2670-2.38039E+00 3.94269E-01 4.37697E-01
 -1      2671 1.20514E+00 2.22141E+00 5.88865E-01
 -1      2672-2.26813E+00-4.51172E-01 4.16583E-01
 -1      2673-1.94843E+00-1.30191E+00 4.04337E-01
 -1      2674 1.99306E+00-1.33172E+00 4.38366E-01
 -1      2675 2.02208E+00 1.23667E+00 3.60525E-01
 -1      2676 2.35975E+00-1.13031E+00 6.60226E-01
 -1      2677 6.64582E-01-2.38690E+00 3.88065E-01
 -1      2678-2.85919E-01 2.16773E+00 2.96765E-01
 -1      2679-2.46335E+00-8.08017E-01 6.01779E-01
 -1      2680 1.95503E+00 1.42510E+00 4.39580E-01
 -1      2681-2.00175E+00-1.33753E+00 4.50972E-01
 -1      2682 2.61015E+00-1.24395E-01 6.72943E-01
 -1      2683-2.30943E+00-4.59377E-01 4.48951E-01
 -1      2684 1.90836E+00-1.45738E+00 3.82856E-01
 -1      2685 2.05666E+00-7.30127E-01 2.29004E-01
 -1      2686 1.94749E+00-1.30127E+00 4.49679E-01
 -1      2687 1.12755E+00-2.36871E+00 6.54600E-01
 -1      2688 4.57125E-01-2.29809E+00 3.85372E-01
 -1      2689 2.24679E+00-1.12500E-01 1.79848E-01
 -1      2690-2.49576E+00-2.62227E-01 5.96566E-01
 -1      2691 4.69668E-01-2.36123E+00 4.33465E-01
 -1      2692-1.25920E+00-2.01106E+00 4.46263E-01
 -1      2693-2.61028E+00 1.67466E-01 6.49634E-01
 -1      2694 2.16356E+00 1.17146E+00 1.35228E-01
 -1      2695 6.38273E-01 2.43591E+00 3.26489E-01
 -1      2696-1.96678E+00 1.69088E+00 6.02239E-01
 -1      2697-1.96039E+00-1.30990E+00 4.51964E-01
 -1      2698 2.05379E+00 1.26196E+00 4.44575E-01
 -1      2699-3.79947E-01-2.38039E+00 4.39446E-01
 -1      2700 4.58364E-01-2.30433E+00 4.43983E-01
 -1      2701 3.12768E-01-2.42988E+00 3.93788E-01
 -1      2702 2.47802E+00 9.04661E-01 3.72803E-01
 -1      2703 2.26030E+00 4.49617E-01 4.12804E-01
 -1      2704 3.79947E-01 2.38039E+00 4.39457E-01
 -1      2705-1.25920E+00 2.01106E+00 4.43216E-01
 -1      2706 1.42510E+00-1.95503E+00 4.38208E-01
 -1      2707 2.49981E+00-2.66559E-01 5.78423E-01
 -1      2708 1.26196E+00-2.05379E+00 4.42195E-01
 -1      2709-2.47157E+00 8.22922E-01 6.06460E-01
 -1      2710 2.30286E+00 4.58072E-01 4.47803E-01
 -1      2711 5.68465E-01 2.35158E+00 4.35948E-01
 -1      2712-1.12006E+00 1.96911E+00 3.60223E-01
 -1      2713-1.28570E+00 1.92418E+00 4.21854E-01
 -1      2714-2.26321E-01-2.55416E+00 4.75571E-01
 -1      2715-5.68465E-01-2.35158E+00 4.33840E-01
 -1      2716 2.35211E+00 3.68366E-01 3.92163E-01
 -1      2717-1.11972E+00-1.96831E+00 3.55122E-01
 -1      2718-1.31189E+00 1.96338E+00 4.47579E-01
 -1      2719 1.70523E+00 1.96939E+00 6.06460E-01
 -1      2720 1.94811E+00-1.78902E+00 4.61394E-01
 -1      2721 2.05224E+00 5.26034E-01 2.70322E-01
 -1      2722 2.12386E+00 2.85719E-01 2.80497E-01
 -1      2723-1.42510E+00-1.95503E+00 4.39186E-01
 -1      2724 1.28018E+00-1.91591E+00 4.16000E-01
 -1      2725-1.85013E+00-1.95406E+00 6.66401E-01
 -1      2726-1.96030E+00-9.78338E-01 1.93795E-01
 -1      2727 3.79947E-01-2.38039E+00 4.43794E-01
 -1      2728 1.12500E-01-2.23632E+00 1.74818E-01
 -1      2729-1.39189E+00 1.90872E+00 3.93366E-01
 -1      2730-1.69879E+00-1.35449E+00 3.04226E-01
 -1      2731 1.12500E-01-2.62764E+00 6.68188E-01
 -1      2732-1.52551E+00 1.68461E+00 1.98903E-01
 -1      2733 5.68465E-01-2.35158E+00 4.39295E-01
 -1      2734-8.22321E-01-1.77495E+00 2.03744E-01
 -1      2735 2.05379E+00-1.26196E+00 4.43303E-01
 -1      2736 1.30765E+00-1.95703E+00 4.44834E-01
 -1      2737-1.16514E+00-2.31797E+00 6.09552E-01
 -1      2738 2.66559E-01-2.49981E+00 5.78423E-01
 -1      2739 2.67676E-01 2.49985E+00 5.79602E-01
 -1      2740 1.98689E+00-1.12833E+00 3.26793E-01
 -1      2741-7.11481E-01-2.41861E+00 5.88261E-01
 -1      2742-1.81120E+00-1.12710E+00 2.97831E-01
 -1      2743 2.41002E+00-7.09740E-01 5.78424E-01
 -1      2744 2.19782E+00-1.21409E+00 5.84366E-01
 -1      2745 7.11349E-01 2.41892E+00 5.88763E-01
 -3
    3C                          8950                                     1
 -1         1    3    0    1
 -2      1318      1272      2564      2614
 -1         2    3    0    1
 -2      1708      1536      1832      2045
 -1         3    3    0    1
 -2        80       933       398        77
 -1         4    3    0    1
 -2       170       760      1031      1032
 -1         5    3    0    1
 -2      1586      1622      1659      1749
 -1         6    3    0    1
 -2       571      1049       580       579
 -1         7    3    0    1
 -2      2581      2574      1413      2715
 -1         8    3    0    1
 -2       298      1204      1203      1696
 -1         9    3    0    1
 -2      1586      1749      1533      1760
 -1        10    3    0    1
 -2       216       346       206      1070
 -1        11    3    0    1
 -2       509       960       519       737
 -1        12    3    0    1
 -2       262      1118       261      1115
 -1        13    3    0    1
 -2       915      1295      2623      2745
 -1        14    3    0    1
 -2       643      1150      1147      1894
 -1        15    3    0    1
 -2        46       724      1990      2120
 -1        16    3    0    1
 -2       489       916       912       904
 -1        17    3    0    1
 -2       836      1211      1664      1793
 -1        18    3    0    1
 -2      1595      1619      1621      1687
 -1        19    3    0    1
 -2      2063      2144      2492      2493
 -1        20    3    0    1
 -2       230      1080      1676      2078
 -1        21    3    0    1
 -2       716       469       880      2114
 -1        22    3    0    1
 -2       150       749       980       987
 -1        23    3    0    1
 -2       638      1584      1727      1941
 -1        24    3    0    1
 -2      1086       602      1922      1954
 -1        25    3    0    1
 -2        15       866       417         6
 -1        26    3    0    1
 -2       463       885       718       471
 -1        27    3    0    1
 -2       214      1067      1057       211
 -1        28    3    0    1
 -2       490       922       495       485
 -1        29    3    0    1
 -2       391       858      1837      1989
 -1        30    3    0    1
 -2      1274      2504      2575      2648
 -1        31    3    0    1
 -2       441       440       847      1740
 -1        32    3    0    1
 -2      1102       437       782      1927
 -1        33    3    0    1
 -2       647      1156       799      1700
 -1        34    3    0    1
 -2      1165      1164      1621      1638
 -1        35    3    0    1
 -2       595      1080       601       594
 -1        36    3    0    1
 -2       466       880       465       468
 -1        37    3    0    1
 -2      1105       246      1099       247
 -1        38    3    0    1
 -2      1579       325      1626      1933
 -1        39    3    0    1
 -2       326       333      1529      1748
 -1        40    3    0    1
 -2      1560      1646      1744      1818
 -1        41    3    0    1
 -2      1551      1581      1592      1853
 -1        42    3    0    1
 -2       180       177      1033      2496
 -1        43    3    0    1
 -2       116       102       110       738
 -1        44    3    0    1
 -2        29       882       878       408
 -1        45    3    0    1
 -2       141       328      1530      1701
 -1        46    3    0    1
 -2       880        31       716      1993
 -1        47    3    0    1
 -2      2597      2569      2608      1415
 -1        48    3    0    1
 -2        77       398        85       933
 -1        49    3    0    1
 -2       593       603       604      1088
 -1        50    3    0    1
 -2       570      1041       577       569
 -1        51    3    0    1
 -2      1209       323       840      1713
 -1        52    3    0    1
 -2       749       996       544      1658
 -1        53    3    0    1
 -2       174      1024       342       173
 -1        54    3    0    1
 -2       610      1108      1107       781
 -1        55    3    0    1
 -2       788      1660      2064      2167
 -1        56    3    0    1
 -2      2669      2713      2718      2729
 -1        57    3    0    1
 -2       370       777      2091      2480
 -1        58    3    0    1
 -2      1851      2140      2473      2169
 -1        59    3    0    1
 -2       964       120       965       971
 -1        60    3    0    1
 -2       462       882       869       461
 -1        61    3    0    1
 -2      1104       244      1806      1824
 -1        62    3    0    1
 -2       942      1520      1795      1971
 -1        63    3    0    1
 -2      1596      1647      1937      2007
 -1        64    3    0    1
 -2       631       640       639      1143
 -1        65    3    0    1
 -2       682      1679       827       681
 -1        66    3    0    1
 -2       878        28      1669      1768
 -1        67    3    0    1
 -2       523       531       532       743
 -1        68    3    0    1
 -2      1565      1209      1711      1713
 -1        69    3    0    1
 -2       452       867       855       451
 -1        70    3    0    1
 -2      1284      2254      2292      2328
 -1        71    3    0    1
 -2      1109      1106      1735      1927
 -1        72    3    0    1
 -2       314       397      1171      1852
 -1        73    3    0    1
 -2       971       977      1811      1983
 -1        74    3    0    1
 -2       503       506      1791      1802
 -1        75    3    0    1
 -2        67      1545      1613      1805
 -1        76    3    0    1
 -2      1733       847      1740      1774
 -1        77    3    0    1
 -2      1049       571       765      1052
 -1        78    3    0    1
 -2       110       100       111       738
 -1        79    3    0    1
 -2       531       523       532       744
 -1        80    3    0    1
 -2      1572      1563      1663      1775
 -1        81    3    0    1
 -2       641      1145       642      1737
 -1        82    3    0    1
 -2       771      2009      2019      2042
 -1        83    3    0    1
 -2      1572      1151      1959      1960
 -1        84    3    0    1
 -2       917       898      1948      2139
 -1        85    3    0    1
 -2       677       823       678      1683
 -1        86    3    0    1
 -2       593      1078       598       777
 -1        87    3    0    1
 -2       840       694      1711      1713
 -1        88    3    0    1
 -2       325       327      1013      1933
 -1        89    3    0    1
 -2       422       421       260      1123
 -1        90    3    0    1
 -2        49       899       720        46
 -1        91    3    0    1
 -2      1586      1622      1749      1760
 -1        92    3    0    1
 -2      1204      1529      1643      1696
 -1        93    3    0    1
 -2      1226      1281      2626      2639
 -1        94    3    0    1
 -2       239      1107       380       247
 -1        95    3    0    1
 -2       149       324       749      1658
 -1        96    3    0    1
 -2       437      1106      1927      2477
 -1        97    3    0    1
 -2      1887       442      1908      1976
 -1        98    3    0    1
 -2       490       923       726       485
 -1        99    3    0    1
 -2       541      1598      1726      1789
 -1       100    3    0    1
 -2      1883       810       405       808
 -1       101    3    0    1
 -2       230       232       231      1074
 -1       102    3    0    1
 -2      1084       774       594      1080
 -1       103    3    0    1
 -2       288       851      1762      2023
 -1       104    3    0    1
 -2       880      1993      2128      2175
 -1       105    3    0    1
 -2       891        49        46       903
 -1       106    3    0    1
 -2      1924       196      2011      2016
 -1       107    3    0    1
 -2       160      1008       333       159
 -1       108    3    0    1
 -2        90       400      1863      2109
 -1       109    3    0    1
 -2       106       736       952       954
 -1       110    3    0    1
 -2       898        46      2123      2139
 -1       111    3    0    1
 -2      1140      1584      1666      1727
 -1       112    3    0    1
 -2       141       990      1594      1702
 -1       113    3    0    1
 -2       532       531       744      1772
 -1       114    3    0    1
 -2       125       120       122       964
 -1       115    3    0    1
 -2      1634      1646      1718      1752
 -1       116    3    0    1
 -2        61       913       910        60
 -1       117    3    0    1
 -2       192       185       193      1052
 -1       118    3    0    1
 -2      1567      1553      1873      1970
 -1       119    3    0    1
 -2        61       921       727       907
 -1       120    3    0    1
 -2      1553      1528      1591      1636
 -1       121    3    0    1
 -2       278       283       795      1130
 -1       122    3    0    1
 -2      1526      1569      1599      1876
 -1       123    3    0    1
 -2      2620      2522      2701      2728
 -1       124    3    0    1
 -2      1688      1556      1908      1976
 -1       125    3    0    1
 -2      2555      2223      2193      2246
 -1       126    3    0    1
 -2      1644      1559      1741      1910
 -1       127    3    0    1
 -2      1585       383      1608      1725
 -1       128    3    0    1
 -2       816       669       814      1680
 -1       129    3    0    1
 -2      1031      1761      1846      1923
 -1       130    3    0    1
 -2      1204       298       334      1696
 -1       131    3    0    1
 -2      1525      1163      1597      1835
 -1       132    3    0    1
 -2       421       389      1986      2030
 -1       133    3    0    1
 -2      1578      1176      1605      1774
 -1       134    3    0    1
 -2       474       896       473       479
 -1       135    3    0    1
 -2        14        10         5       867
 -1       136    3    0    1
 -2       830      1205      1599      1643
 -1       137    3    0    1
 -2       580       591      1050      1731
 -1       138    3    0    1
 -2       247       255      1107      1735
 -1       139    3    0    1
 -2      1346      2588      2592      1416
 -1       140    3    0    1
 -2       330       755      1032      1918
 -1       141    3    0    1
 -2       601      1064      1085      2519
 -1       142    3    0    1
 -2      2601       134      2655      2657
 -1       143    3    0    1
 -2      1546      1667      1706      1955
 -1       144    3    0    1
 -2      1720      1815      1819      1875
 -1       145    3    0    1
 -2       178       170      1031      1032
 -1       146    3    0    1
 -2       137       146       144       992
 -1       147    3    0    1
 -2        66        60       373       913
 -1       148    3    0    1
 -2       514       738       509       735
 -1       149    3    0    1
 -2       796      2017      2039      2040
 -1       150    3    0    1
 -2      1520       959      1618      1782
 -1       151    3    0    1
 -2      1632       539      1702      1964
 -1       152    3    0    1
 -2      1344      2380      2720      2409
 -1       153    3    0    1
 -2      1779      1639      1943      1956
 -1       154    3    0    1
 -2      1067       429      1674      1819
 -1       155    3    0    1
 -2      1105      1099       614      1987
 -1       156    3    0    1
 -2       690       702      1688      1908
 -1       157    3    0    1
 -2       626      1625      1631      1641
 -1       158    3    0    1
 -2      1886       612      2167      2525
 -1       159    3    0    1
 -2       513       512       736       950
 -1       160    3    0    1
 -2       423       227      1088      1798
 -1       161    3    0    1
 -2      2121      1886      2167      2525
 -1       162    3    0    1
 -2      2568      1294      2593      2649
 -1       163    3    0    1
 -2      1123       382      1641      1765
 -1       164    3    0    1
 -2       330       178      1029      1722
 -1       165    3    0    1
 -2      1100       244      1095      1104
 -1       166    3    0    1
 -2       324       150       749       996
 -1       167    3    0    1
 -2      1721       508      1739      1795
 -1       168    3    0    1
 -2       290       288      1762      2023
 -1       169    3    0    1
 -2       398       933      1542      1802
 -1       170    3    0    1
 -2      1455      1443      2411      2444
 -1       171    3    0    1
 -2      1548      1570      1705      1743
 -1       172    3    0    1
 -2      1640       841      1711      1936
 -1       173    3    0    1
 -2      1613      1545      1645      1648
 -1       174    3    0    1
 -2      1224      1292      2628      2663
 -1       175    3    0    1
 -2      1695      1629      1845      1998
 -1       176    3    0    1
 -2       359       771      2042      2499
 -1       177    3    0    1
 -2      2051      2072      2190      2539
 -1       178    3    0    1
 -2       385       390       274       796
 -1       179    3    0    1
 -2       501       935       930       500
 -1       180    3    0    1
 -2       561      1023       563       566
 -1       181    3    0    1
 -2      1535      1627      2020      2041
 -1       182    3    0    1
 -2      1340      2319      2377      2380
 -1       183    3    0    1
 -2       195      1048       196       187
 -1       184    3    0    1
 -2       190       188       197       767
 -1       185    3    0    1
 -2      1109      1106       615      1735
 -1       186    3    0    1
 -2      1540      1545      1613      1614
 -1       187    3    0    1
 -2      1508      1444      2409      2426
 -1       188    3    0    1
 -2       605      1107       615       616
 -1       189    3    0    1
 -2       785       257      1124      1127
 -1       190    3    0    1
 -2       120       122       964       965
 -1       191    3    0    1
 -2      1572      1563      1775      1786
 -1       192    3    0    1
 -2       504       936       935       500
 -1       193    3    0    1
 -2       861        10       711      1524
 -1       194    3    0    1
 -2       612      1102      1886      2064
 -1       195    3    0    1
 -2        71       919       908        65
 -1       196    3    0    1
 -2      1013      1751      1763      2093
 -1       197    3    0    1
 -2      1799      1024      1839      1840
 -1       198    3    0    1
 -2       122       120       962       969
 -1       199    3    0    1
 -2      1750      1806      1979      1982
 -1       200    3    0    1
 -2       616       627      1126      1833
 -1       201    3    0    1
 -2      1621      1619      1638      1687
 -1       202    3    0    1
 -2       942      1520      1739      1795
 -1       203    3    0    1
 -2       266       264       257      1127
 -1       204    3    0    1
 -2       591      1070      1731      1899
 -1       205    3    0    1
 -2      1839      1764      1841      1846
 -1       206    3    0    1
 -2      1136       415      1666      1859
 -1       207    3    0    1
 -2      1849      1010      1980      2105
 -1       208    3    0    1
 -2      2501      1220      1241      2579
 -1       209    3    0    1
 -2       422       382      1126      1833
 -1       210    3    0    1
 -2       742       528       974      1789
 -1       211    3    0    1
 -2       734       960       112       946
 -1       212    3    0    1
 -2      1008      1751      1821      1969
 -1       213    3    0    1
 -2      1180       663       664      1684
 -1       214    3    0    1
 -2      2500      1766      2510      2726
 -1       215    3    0    1
 -2      1967      2075      2151      2511
 -1       216    3    0    1
 -2      1546      1582      1880      1896
 -1       217    3    0    1
 -2       228       230       232       774
 -1       218    3    0    1
 -2      2205      2228      2731      2440
 -1       219    3    0    1
 -2      1631      1122      1641      1765
 -1       220    3    0    1
 -2       198       219      2487      2499
 -1       221    3    0    1
 -2       152       365       162      1010
 -1       222    3    0    1
 -2       127       349      2465      2466
 -1       223    3    0    1
 -2       551      1013       554       545
 -1       224    3    0    1
 -2      1528      1553      1567      1716
 -1       225    3    0    1
 -2      2564      1272      2613      2614
 -1       226    3    0    1
 -2       621      1118      1115       787
 -1       227    3    0    1
 -2       541       537      2236      2253
 -1       228    3    0    1
 -2       337       162       152      1015
 -1       229    3    0    1
 -2      2485      1244      2551      2617
 -1       230    3    0    1
 -2      1566      1571      1647      1677
 -1       231    3    0    1
 -2      1576      1554      1606      1998
 -1       232    3    0    1
 -2       121       972       335       119
 -1       233    3    0    1
 -2      1124       627      1127      2013
 -1       234    3    0    1
 -2       120       126       978      1905
 -1       235    3    0    1
 -2       192       198      2487      2499
 -1       236    3    0    1
 -2       555       547       556       756
 -1       237    3    0    1
 -2       125       977       126       120
 -1       238    3    0    1
 -2      1169      1650      1699      1724
 -1       239    3    0    1
 -2       557      1026       565       564
 -1       240    3    0    1
 -2      1915       860      2489      2534
 -1       241    3    0    1
 -2       551      1012      1008       545
 -1       242    3    0    1
 -2       353       128       123       744
 -1       243    3    0    1
 -2      1556      1615      1779      1870
 -1       244    3    0    1
 -2      1533      1586      1600      1649
 -1       245    3    0    1
 -2      1560      1634      1646      1718
 -1       246    3    0    1
 -2      1183       815      1680      1896
 -1       247    3    0    1
 -2       455       859      1792      1836
 -1       248    3    0    1
 -2      1646      1750      1806      1824
 -1       249    3    0    1
 -2      2441      1507      2442      2738
 -1       250    3    0    1
 -2       607      1105      1099       614
 -1       251    3    0    1
 -2       862      1915      1991      2468
 -1       252    3    0    1
 -2      1670      1715      1738      1862
 -1       253    3    0    1
 -2       622      1123      1116       621
 -1       254    3    0    1
 -2       562      1028       566       561
 -1       255    3    0    1
 -2      1693      1552      1885      1894
 -1       256    3    0    1
 -2       393      1573      1656      1907
 -1       257    3    0    1
 -2        78        90       924       941
 -1       258    3    0    1
 -2       827      1767       682      1195
 -1       259    3    0    1
 -2       632      1142       639       631
 -1       260    3    0    1
 -2       916       917       492      1948
 -1       261    3    0    1
 -2       106       736       954      1635
 -1       262    3    0    1
 -2      1572      1152      1786      1959
 -1       263    3    0    1
 -2       847       441      1740      1774
 -1       264    3    0    1
 -2       192       191       185      1049
 -1       265    3    0    1
 -2      1550      1630      1904      1970
 -1       266    3    0    1
 -2       296       837      1648      1793
 -1       267    3    0    1
 -2      1553      1528      1567      1873
 -1       268    3    0    1
 -2      1214      1688      1908      1976
 -1       269    3    0    1
 -2        88        89      1865      2087
 -1       270    3    0    1
 -2       475       892       476       724
 -1       271    3    0    1
 -2      2491      2173      2510      2203
 -1       272    3    0    1
 -2       475       903       724       483
 -1       273    3    0    1
 -2       104       115       113       737
 -1       274    3    0    1
 -2      1138       385      2014      2049
 -1       275    3    0    1
 -2       338       138       146       750
 -1       276    3    0    1
 -2       859         7       710       863
 -1       277    3    0    1
 -2        52        53        46       892
 -1       278    3    0    1
 -2      1604       813      1788      1895
 -1       279    3    0    1
 -2      2523      2489      2591      2689
 -1       280    3    0    1
 -2        30       715      2300      2302
 -1       281    3    0    1
 -2        89       371      2165      2513
 -1       282    3    0    1
 -2       520       519       738      1593
 -1       283    3    0    1
 -2      1915       457      1991      2002
 -1       284    3    0    1
 -2       529       742      1682      1789
 -1       285    3    0    1
 -2        49       894        46       720
 -1       286    3    0    1
 -2      1574      1527      1594      1661
 -1       287    3    0    1
 -2       976       335       404      1519
 -1       288    3    0    1
 -2       265      1123       422       260
 -1       289    3    0    1
 -2       392        36       883      1651
 -1       290    3    0    1
 -2      1100      1104      1653      1732
 -1       291    3    0    1
 -2       210      1062      1058       206
 -1       292    3    0    1
 -2      1347      2556      1346      2588
 -1       293    3    0    1
 -2      1615      1557      1703      1975
 -1       294    3    0    1
 -2       514       738       520       509
 -1       295    3    0    1
 -2       106       403      1544      1677
 -1       296    3    0    1
 -2        67       393      1592      1794
 -1       297    3    0    1
 -2       515       512       518       736
 -1       298    3    0    1
 -2       281      1143       387       279
 -1       299    3    0    1
 -2      1547      1650      1768      1921
 -1       300    3    0    1
 -2      1154      1537      1729      1776
 -1       301    3    0    1
 -2      1609      1181      1667      1706
 -1       302    3    0    1
 -2       617      1120       788       624
 -1       303    3    0    1
 -2       141       328       994      1632
 -1       304    3    0    1
 -2       596      1082       776      1086
 -1       305    3    0    1
 -2      1979       254      1982      1987
 -1       306    3    0    1
 -2      1042      1828      1924      2011
 -1       307    3    0    1
 -2       187       766      1050      1051
 -1       308    3    0    1
 -2      1008      1624      1785      1821
 -1       309    3    0    1
 -2       175       339      1023      1722
 -1       310    3    0    1
 -2       527       976       972       521
 -1       311    3    0    1
 -2      1210      1547      1650      1769
 -1       312    3    0    1
 -2      1107       615       616      1735
 -1       313    3    0    1
 -2       317      1960      1151       289
 -1       314    3    0    1
 -2      1556      1628      1908      1976
 -1       315    3    0    1
 -2      1528      1555      1810      1836
 -1       316    3    0    1
 -2      1187       673      1186      1718
 -1       317    3    0    1
 -2       491       914      1803      1848
 -1       318    3    0    1
 -2      1066       589      2069      2098
 -1       319    3    0    1
 -2       191       198      1036      1049
 -1       320    3    0    1
 -2       462       882       878       869
 -1       321    3    0    1
 -2        95       932      1520      1618
 -1       322    3    0    1
 -2      2510      2500      2245      2083
 -1       323    3    0    1
 -2      1532      1570      1768      1921
 -1       324    3    0    1
 -2      2672      1394      2356      2683
 -1       325    3    0    1
 -2      1122      1521      1608      1765
 -1       326    3    0    1
 -2      1278      2643      2650      2685
 -1       327    3    0    1
 -2      2297      2530      2645      2358
 -1       328    3    0    1
 -2      1615      1556      1628      1870
 -1       329    3    0    1
 -2       640       639      1143      2039
 -1       330    3    0    1
 -2      1602      1623      1753      1817
 -1       331    3    0    1
 -2       420      1122      1521      1608
 -1       332    3    0    1
 -2      2571      2182      1376      1379
 -1       333    3    0    1
 -2       560      1031       567       559
 -1       334    3    0    1
 -2      1178       298      1175      1696
 -1       335    3    0    1
 -2      2551      1308      2619      2708
 -1       336    3    0    1
 -2      1735      1107      1847      1914
 -1       337    3    0    1
 -2       555      1015      1523      1800
 -1       338    3    0    1
 -2       408       882      1669      1771
 -1       339    3    0    1
 -2       233       228       777      1078
 -1       340    3    0    1
 -2       201      1050       187      1037
 -1       341    3    0    1
 -2       362       177       169       762
 -1       342    3    0    1
 -2       728       496       923      1938
 -1       343    3    0    1
 -2      1145       641      1144      1737
 -1       344    3    0    1
 -2      1229      2185      2594      1453
 -1       345    3    0    1
 -2      1014       325      1704      1763
 -1       346    3    0    1
 -2        74       923        62       726
 -1       347    3    0    1
 -2       883       868       461       877
 -1       348    3    0    1
 -2       244      1653      1732      1741
 -1       349    3    0    1
 -2       749       536       980       987
 -1       350    3    0    1
 -2       635      1136      1859      1947
 -1       351    3    0    1
 -2       698       689      1657      1769
 -1       352    3    0    1
 -2      1026      2117      2170      2176
 -1       353    3    0    1
 -2       774      1084       228      1080
 -1       354    3    0    1
 -2      1170       657       658      1577
 -1       355    3    0    1
 -2      1868      1809      1978      1988
 -1       356    3    0    1
 -2      2126      2492      2493      2543
 -1       357    3    0    1
 -2        15       866         8       417
 -1       358    3    0    1
 -2       758      1026      1016       169
 -1       359    3    0    1
 -2      1816       722      1950      2043
 -1       360    3    0    1
 -2      1564      1815      1946      1994
 -1       361    3    0    1
 -2        43      1537      1812      1984
 -1       362    3    0    1
 -2       451       712       459       867
 -1       363    3    0    1
 -2       127       744       979      1772
 -1       364    3    0    1
 -2      1165       653      1164      1638
 -1       365    3    0    1
 -2       646       645      1572      1786
 -1       366    3    0    1
 -2       159      1012      1008       326
 -1       367    3    0    1
 -2       827      1679      1767      1960
 -1       368    3    0    1
 -2      1614      1617      1730      1999
 -1       369    3    0    1
 -2       251       249       437       782
 -1       370    3    0    1
 -2       475       476       484       724
 -1       371    3    0    1
 -2       850       691       703      1887
 -1       372    3    0    1
 -2       417        18      1796      2012
 -1       373    3    0    1
 -2       279      1138       274       280
 -1       374    3    0    1
 -2       269      1126      1113       265
 -1       375    3    0    1
 -2        41       902        40        55
 -1       376    3    0    1
 -2      1033      1844      2027      2116
 -1       377    3    0    1
 -2       118       127       744       979
 -1       378    3    0    1
 -2      1575      1548      1699      1889
 -1       379    3    0    1
 -2      1414      1412      2379      2408
 -1       380    3    0    1
 -2      1777      2155      2492      2555
 -1       381    3    0    1
 -2       996       743      1568      1753
 -1       382    3    0    1
 -2       242      1105       255       247
 -1       383    3    0    1
 -2      1561      1188       309      1745
 -1       384    3    0    1
 -2      1569      1624      1785      1830
 -1       385    3    0    1
 -2       282       418      1135      2001
 -1       386    3    0    1
 -2      1584       638      1666      1972
 -1       387    3    0    1
 -2       920       487       913       909
 -1       388    3    0    1
 -2      1554       415      1576      1746
 -1       389    3    0    1
 -2       547       548       556       756
 -1       390    3    0    1
 -2        16       417       866      1796
 -1       391    3    0    1
 -2       696       847      1208      1733
 -1       392    3    0    1
 -2        16       417         8       866
 -1       393    3    0    1
 -2       847       440      1208      1740
 -1       394    3    0    1
 -2       353       123       118       744
 -1       395    3    0    1
 -2      1557      1595      1615      1703
 -1       396    3    0    1
 -2       626       621       623      1123
 -1       397    3    0    1
 -2      2337      2631      2703      2721
 -1       398    3    0    1
 -2       918      2483      1245      2589
 -1       399    3    0    1
 -2      1617      1540      1730      1852
 -1       400    3    0    1
 -2       244       245       240      1095
 -1       401    3    0    1
 -2       157       155       756      1004
 -1       402    3    0    1
 -2      1625       623      1685      1727
 -1       403    3    0    1
 -2       459       865       866      1796
 -1       404    3    0    1
 -2       977      1773      1811      1983
 -1       405    3    0    1
 -2       353       127       974      1698
 -1       406    3    0    1
 -2       917       489       916       492
 -1       407    3    0    1
 -2       462       878       871       869
 -1       408    3    0    1
 -2      1013       554      1626      1933
 -1       409    3    0    1
 -2        42        43       722       896
 -1       410    3    0    1
 -2        25        34        31       718
 -1       411    3    0    1
 -2       782       251      1759      2092
 -1       412    3    0    1
 -2       400       111      1863      2109
 -1       413    3    0    1
 -2       919      1656      1906      1929
 -1       414    3    0    1
 -2       582      1065       771       588
 -1       415    3    0    1
 -2       365       155       152       756
 -1       416    3    0    1
 -2       607      1104       614       606
 -1       417    3    0    1
 -2       323       829      1198      1879
 -1       418    3    0    1
 -2       939        86      1739      2021
 -1       419    3    0    1
 -2       651      1163      1160      1712
 -1       420    3    0    1
 -2       520       737      1860      1953
 -1       421    3    0    1
 -2      1138      1957      1991      2002
 -1       422    3    0    1
 -2      1143       639      1916      2039
 -1       423    3    0    1
 -2        56      2128      2130      2175
 -1       424    3    0    1
 -2       586      1071       592       581
 -1       425    3    0    1
 -2       503       938       933       498
 -1       426    3    0    1
 -2      1020      1029       562      1022
 -1       427    3    0    1
 -2      1803       914      1805      1848
 -1       428    3    0    1
 -2       693       851       838      2023
 -1       429    3    0    1
 -2       724       381       923      2494
 -1       430    3    0    1
 -2      2629      2646      1450      2675
 -1       431    3    0    1
 -2       463       464       472       718
 -1       432    3    0    1
 -2      1718      1646      1818      1752
 -1       433    3    0    1
 -2      1834      1906      1929      1942
 -1       434    3    0    1
 -2      1192       822      1683      1909
 -1       435    3    0    1
 -2      1106      1914      1927      2477
 -1       436    3    0    1
 -2       675      1191       820      1845
 -1       437    3    0    1
 -2       589       588      2009      2098
 -1       438    3    0    1
 -2       670      1183      1680      1880
 -1       439    3    0    1
 -2       265      1123       260      1116
 -1       440    3    0    1
 -2        49       894        53        46
 -1       441    3    0    1
 -2      1632       141      1701      1702
 -1       442    3    0    1
 -2       884       471       717      1911
 -1       443    3    0    1
 -2         7       859       710       856
 -1       444    3    0    1
 -2        23       884        21       392
 -1       445    3    0    1
 -2       610      1107       615       605
 -1       446    3    0    1
 -2      2467      2054      2479      2594
 -1       447    3    0    1
 -2      1563       425      1663      1775
 -1       448    3    0    1
 -2      1668       799       292      1156
 -1       449    3    0    1
 -2      1161      1162      1712      1778
 -1       450    3    0    1
 -2       521       976       972       963
 -1       451    3    0    1
 -2      1012      1008       326      1821
 -1       452    3    0    1
 -2       571      1050       579       580
 -1       453    3    0    1
 -2      1526      1569      1620      1823
 -1       454    3    0    1
 -2      1125       260      1112      1126
 -1       455    3    0    1
 -2       306       822      1192      1909
 -1       456    3    0    1
 -2       632      1143      1132       631
 -1       457    3    0    1
 -2       736      1583      1618      1681
 -1       458    3    0    1
 -2        89      1865      2087      2165
 -1       459    3    0    1
 -2       191      1045       192       185
 -1       460    3    0    1
 -2      1592        67      1613      1805
 -1       461    3    0    1
 -2       895       479      1834      1906
 -1       462    3    0    1
 -2       997       544       543      1692
 -1       463    3    0    1
 -2      1707       954      1773      1858
 -1       464    3    0    1
 -2       210      1054      1069      1070
 -1       465    3    0    1
 -2      1166       313      1804      1919
 -1       466    3    0    1
 -2       845       303       409      1903
 -1       467    3    0    1
 -2       610      1109      1106       615
 -1       468    3    0    1
 -2       508       942      1739      1795
 -1       469    3    0    1
 -2       894        46       720       898
 -1       470    3    0    1
 -2      1029      1023       566      1840
 -1       471    3    0    1
 -2       429      1518      1563      1815
 -1       472    3    0    1
 -2        13       863      1792      1973
 -1       473    3    0    1
 -2       836       314      1645      1664
 -1       474    3    0    1
 -2      1137       862      1991      2468
 -1       475    3    0    1
 -2      1832      1709      2045      2046
 -1       476    3    0    1
 -2      1637      1615      1685      1870
 -1       477    3    0    1
 -2       471       463       472       718
 -1       478    3    0    1
 -2      1714      1707      1728      1871
 -1       479    3    0    1
 -2       326       159       333      1008
 -1       480    3    0    1
 -2       227      1081      1087      2015
 -1       481    3    0    1
 -2       370       228       230       777
 -1       482    3    0    1
 -2       508       507      1721      1739
 -1       483    3    0    1
 -2      1547      1650      1716      1768
 -1       484    3    0    1
 -2      1275      2606      1402      2364
 -1       485    3    0    1
 -2       130       978       125       131
 -1       486    3    0    1
 -2       799      1156      1668      1700
 -1       487    3    0    1
 -2       863       458      1697      1947
 -1       488    3    0    1
 -2      1080       230      1676      1827
 -1       489    3    0    1
 -2       146       144       992      1726
 -1       490    3    0    1
 -2       590      1819      1874      1962
 -1       491    3    0    1
 -2       718        33       873       874
 -1       492    3    0    1
 -2      2718      2713      2417      2421
 -1       493    3    0    1
 -2       487       914       486       491
 -1       494    3    0    1
 -2       249       251       253       779
 -1       495    3    0    1
 -2       102       957       110       100
 -1       496    3    0    1
 -2       339       175      1031      1923
 -1       497    3    0    1
 -2       428       427      1988      1995
 -1       498    3    0    1
 -2       463       885       873       718
 -1       499    3    0    1
 -2       559      1031       567       568
 -1       500    3    0    1
 -2       672       671       818      1747
 -1       501    3    0    1
 -2      1099       380      1765      1920
 -1       502    3    0    1
 -2       877       883        38      1651
 -1       503    3    0    1
 -2      1833       382      1847      1940
 -1       504    3    0    1
 -2      2062      1025      2113      2146
 -1       505    3    0    1
 -2        15       864         8       857
 -1       506    3    0    1
 -2      1067       590      1819      1874
 -1       507    3    0    1
 -2        74       923       381        62
 -1       508    3    0    1
 -2       163      1014       998       153
 -1       509    3    0    1
 -2      1790      1703      1887      1975
 -1       510    3    0    1
 -2       485       726       728       923
 -1       511    3    0    1
 -2      1122       626      1625      1631
 -1       512    3    0    1
 -2      1635       954      1707      1858
 -1       513    3    0    1
 -2       328      1525      1530      1701
 -1       514    3    0    1
 -2       547      1015      1003       756
 -1       515    3    0    1
 -2       563      1722      1839      1840
 -1       516    3    0    1
 -2       726        68       728       923
 -1       517    3    0    1
 -2      2652      1435         1       386
 -1       518    3    0    1
 -2       246      1107       242      1093
 -1       519    3    0    1
 -2       738       979      1953      2466
 -1       520    3    0    1
 -2      2684      2674      1492      1505
 -1       521    3    0    1
 -2        49       892        46        53
 -1       522    3    0    1
 -2       309      1188       315      1745
 -1       523    3    0    1
 -2      1578      1527      1605      1652
 -1       524    3    0    1
 -2       607      1099      1094       606
 -1       525    3    0    1
 -2        29       878       869       871
 -1       526    3    0    1
 -2      1705      1700      1776      1812
 -1       527    3    0    1
 -2      1757       333      1785      1821
 -1       528    3    0    1
 -2      1186      1187      1718      1818
 -1       529    3    0    1
 -2      1556      1628      1779      1956
 -1       530    3    0    1
 -2       504       936       500       505
 -1       531    3    0    1
 -2      1597      1160      1712      1778
 -1       532    3    0    1
 -2       474       895       479       473
 -1       533    3    0    1
 -2      1559      1585      1590      1644
 -1       534    3    0    1
 -2       842      1213      1549      1599
 -1       535    3    0    1
 -2       223      1073      1088      1089
 -1       536    3    0    1
 -2       833      1214      1908      1976
 -1       537    3    0    1
 -2      1231      2476      1230      2552
 -1       538    3    0    1
 -2       134      1386      1411      2655
 -1       539    3    0    1
 -2       340      1587      1841      1878
 -1       540    3    0    1
 -2       797      1146      1729      1737
 -1       541    3    0    1
 -2      1564      1670      1715      2024
 -1       542    3    0    1
 -2       226      1522      1750      1780
 -1       543    3    0    1
 -2       382      1126      1833      1847
 -1       544    3    0    1
 -2       784      1120       257       788
 -1       545    3    0    1
 -2      1923       178      1722       175
 -1       546    3    0    1
 -2        42       890        43       896
 -1       547    3    0    1
 -2       147       996       136       345
 -1       548    3    0    1
 -2       475       483       484       723
 -1       549    3    0    1
 -2        75        68       728       906
 -1       550    3    0    1
 -2      1881      1161       336      1966
 -1       551    3    0    1
 -2      1606      1552      1629      1859
 -1       552    3    0    1
 -2      1640      1610      1711      1713
 -1       553    3    0    1
 -2      1188      1561       309       819
 -1       554    3    0    1
 -2       996      1568      1658      1753
 -1       555    3    0    1
 -2      1182       812      1604      1897
 -1       556    3    0    1
 -2       474       895       473       889
 -1       557    3    0    1
 -2      1569      1620      1823      1830
 -1       558    3    0    1
 -2      1049      1071      2010      2487
 -1       559    3    0    1
 -2       622      1122       621       787
 -1       560    3    0    1
 -2       452       867       451       459
 -1       561    3    0    1
 -2      1318      1349      1408      2366
 -1       562    3    0    1
 -2        41       902       886        40
 -1       563    3    0    1
 -2      1109      1877      1735       615
 -1       564    3    0    1
 -2        86        76       942       943
 -1       565    3    0    1
 -2      1260      1261      2552      2574
 -1       566    3    0    1
 -2       882       470       467      1669
 -1       567    3    0    1
 -2       525       742       528       974
 -1       568    3    0    1
 -2      1559       244      1644      1741
 -1       569    3    0    1
 -2      2517      2461      2576      2585
 -1       570    3    0    1
 -2      1587      1534      1627      1893
 -1       571    3    0    1
 -2       622      1122       626       621
 -1       572    3    0    1
 -2        95        76        96       925
 -1       573    3    0    1
 -2       593      1078       777      1074
 -1       574    3    0    1
 -2      1567      1636      1657      1769
 -1       575    3    0    1
 -2       483       475       484       724
 -1       576    3    0    1
 -2       476       475       484       723
 -1       577    3    0    1
 -2      1549      1599      1620      1823
 -1       578    3    0    1
 -2       497       942       732       943
 -1       579    3    0    1
 -2       551      1008      1751      1821
 -1       580    3    0    1
 -2       638      1141      1584      1941
 -1       581    3    0    1
 -2       375       264      1660      1967
 -1       582    3    0    1
 -2       939       503       506      1791
 -1       583    3    0    1
 -2       586      1070      1069      1054
 -1       584    3    0    1
 -2      1382      1302      2723      2451
 -1       585    3    0    1
 -2        21        24        38       717
 -1       586    3    0    1
 -2        78        87        88       944
 -1       587    3    0    1
 -2      1708      1671      2097      2115
 -1       588    3    0    1
 -2       592      1855      1935      2462
 -1       589    3    0    1
 -2       515       953      1858      1981
 -1       590    3    0    1
 -2       735       961       738       509
 -1       591    3    0    1
 -2      1700      1537      1776      1812
 -1       592    3    0    1
 -2       485       921       727       922
 -1       593    3    0    1
 -2       534       995       539       533
 -1       594    3    0    1
 -2       456       449       457       711
 -1       595    3    0    1
 -2      1531      1589      1611      1680
 -1       596    3    0    1
 -2        33       716       714        25
 -1       597    3    0    1
 -2       865        16       866      1796
 -1       598    3    0    1
 -2      1869      1627      1936      2020
 -1       599    3    0    1
 -2       497       941       507       944
 -1       600    3    0    1
 -2      1150       643       644      1894
 -1       601    3    0    1
 -2        35        25       718       874
 -1       602    3    0    1
 -2       546      1008      1002       545
 -1       603    3    0    1
 -2      1566       106      1677      1681
 -1       604    3    0    1
 -2       777      1877      2091      2480
 -1       605    3    0    1
 -2       156       165       755      1005
 -1       606    3    0    1
 -2      1522      1086      1922      1954
 -1       607    3    0    1
 -2       470       461       467       877
 -1       608    3    0    1
 -2      1992       468      2114      2147
 -1       609    3    0    1
 -2      2506      2476      2552      2590
 -1       610    3    0    1
 -2       597      1086       602       596
 -1       611    3    0    1
 -2      1011      2481      1271      2564
 -1       612    3    0    1
 -2       897       918      2100      2483
 -1       613    3    0    1
 -2      1023      1764      1839      1846
 -1       614    3    0    1
 -2       865       451       459       866
 -1       615    3    0    1
 -2        25       880        31       716
 -1       616    3    0    1
 -2        25       432        35       718
 -1       617    3    0    1
 -2       216       346      1070      1899
 -1       618    3    0    1
 -2      1750      1653      1806      1824
 -1       619    3    0    1
 -2        25        33       718       874
 -1       620    3    0    1
 -2       638       633       635      1141
 -1       621    3    0    1
 -2        39       895       889       888
 -1       622    3    0    1
 -2      1118      1122      1625      1631
 -1       623    3    0    1
 -2       189       366      1828      2011
 -1       624    3    0    1
 -2      2068      2112      2491      2510
 -1       625    3    0    1
 -2      1843       193      1926      2526
 -1       626    3    0    1
 -2      1834      1906      1942      2022
 -1       627    3    0    1
 -2      1553      1528      1636      1716
 -1       628    3    0    1
 -2      1247      2548      2633      2679
 -1       629    3    0    1
 -2      1633      1642      1787      1984
 -1       630    3    0    1
 -2       657      1170       804      1577
 -1       631    3    0    1
 -2       327       325      1014      1763
 -1       632    3    0    1
 -2       674      1188      1718      1752
 -1       633    3    0    1
 -2      1007       551      1751      1925
 -1       634    3    0    1
 -2      1643      1203      1696      1719
 -1       635    3    0    1
 -2      1906       920      1942      2022
 -1       636    3    0    1
 -2       485       921       907       727
 -1       637    3    0    1
 -2       192       198      1049      2487
 -1       638    3    0    1
 -2       499       933       929       498
 -1       639    3    0    1
 -2      1527      1574      1578      1740
 -1       640    3    0    1
 -2      1551      1539      1577      1581
 -1       641    3    0    1
 -2         7       859       414        13
 -1       642    3    0    1
 -2      1551      1539      1581      1853
 -1       643    3    0    1
 -2       496       495       485       923
 -1       644    3    0    1
 -2       530       976      1728      1983
 -1       645    3    0    1
 -2       744       997      1723      2459
 -1       646    3    0    1
 -2      1042       189      1828      2011
 -1       647    3    0    1
 -2        24        27       717       875
 -1       648    3    0    1
 -2       413      1154      1537      1729
 -1       649    3    0    1
 -2      1554      1576      1606      1746
 -1       650    3    0    1
 -2      2552      2553      2621      2714
 -1       651    3    0    1
 -2       152       162       756      1015
 -1       652    3    0    1
 -2      1787      1656      1929      1930
 -1       653    3    0    1
 -2      1622      1530      1734      1826
 -1       654    3    0    1
 -2       543       996      1568      1658
 -1       655    3    0    1
 -2      2562      1320      1321      2601
 -1       656    3    0    1
 -2       552      1856      2478      2613
 -1       657    3    0    1
 -2       635      1135      1861      1972
 -1       658    3    0    1
 -2       696       700       847      1733
 -1       659    3    0    1
 -2      2530      2238      2645      2358
 -1       660    3    0    1
 -2       480       899       898       477
 -1       661    3    0    1
 -2      1154       291      1155      1729
 -1       662    3    0    1
 -2       328       141      1525      1701
 -1       663    3    0    1
 -2        15       864       417         8
 -1       664    3    0    1
 -2       345       996      1658      1753
 -1       665    3    0    1
 -2      1716       408      1768      1771
 -1       666    3    0    1
 -2      1567      1553      1636      1716
 -1       667    3    0    1
 -2       480       899       477       481
 -1       668    3    0    1
 -2       189      1042      1048      1924
 -1       669    3    0    1
 -2      1697      1694      1859      1885
 -1       670    3    0    1
 -2       898       480      1948      2055
 -1       671    3    0    1
 -2       259      1120       375       257
 -1       672    3    0    1
 -2       262      1118       419       261
 -1       673    3    0    1
 -2      1644       383      1725      1741
 -1       674    3    0    1
 -2       478       898       477       480
 -1       675    3    0    1
 -2      1204       334      1529      1696
 -1       676    3    0    1
 -2       632      1143       631       639
 -1       677    3    0    1
 -2       618       788       625       617
 -1       678    3    0    1
 -2       976       527       972      1983
 -1       679    3    0    1
 -2       277      1140       793       276
 -1       680    3    0    1
 -2       803       657      1577      1581
 -1       681    3    0    1
 -2      1064      1066       589      2665
 -1       682    3    0    1
 -2       453       859       710       863
 -1       683    3    0    1
 -2      1627      1587      1893      2008
 -1       684    3    0    1
 -2      1731      1050      1888      2011
 -1       685    3    0    1
 -2       274      1138       385       280
 -1       686    3    0    1
 -2       655       802      1699      1724
 -1       687    3    0    1
 -2       257       264      1124      1127
 -1       688    3    0    1
 -2       201      1050       366       187
 -1       689    3    0    1
 -2      1614      1545      1848      1999
 -1       690    3    0    1
 -2       494       491       486       914
 -1       691    3    0    1
 -2       169       177       179       758
 -1       692    3    0    1
 -2       208       356       772      1071
 -1       693    3    0    1
 -2       463       718       873       874
 -1       694    3    0    1
 -2       520       531       978      1953
 -1       695    3    0    1
 -2      2582      1303      2640      2719
 -1       696    3    0    1
 -2       523       524       532       744
 -1       697    3    0    1
 -2      1205       447      1599      1643
 -1       698    3    0    1
 -2       463       464       718       874
 -1       699    3    0    1
 -2       153      1005       755       998
 -1       700    3    0    1
 -2      1156       647       648      1700
 -1       701    3    0    1
 -2      1602       148      1665      1753
 -1       702    3    0    1
 -2        86        79        76       943
 -1       703    3    0    1
 -2       522       972       966       521
 -1       704    3    0    1
 -2      2122      1928      2484      2485
 -1       705    3    0    1
 -2      1613      1539      1648      1793
 -1       706    3    0    1
 -2      2185      1229      2594      2310
 -1       707    3    0    1
 -2       509       961       738       519
 -1       708    3    0    1
 -2      2474      2497      2531      2592
 -1       709    3    0    1
 -2       362       347      1030      2526
 -1       710    3    0    1
 -2      1574      1527      1612      1740
 -1       711    3    0    1
 -2       150       989       136       324
 -1       712    3    0    1
 -2       373       374       922      1689
 -1       713    3    0    1
 -2      2483      2516      2582      2589
 -1       714    3    0    1
 -2      2243      2225      2339      2682
 -1       715    3    0    1
 -2      1071       359      1935      2487
 -1       716    3    0    1
 -2       538       748       746       537
 -1       717    3    0    1
 -2       177       179       759      1018
 -1       718    3    0    1
 -2      1141      1135      1584      2001
 -1       719    3    0    1
 -2      1634      1752      1561      1780
 -1       720    3    0    1
 -2      1161      1162      1778      1881
 -1       721    3    0    1
 -2       961       735       100       947
 -1       722    3    0    1
 -2       148       324       136       989
 -1       723    3    0    1
 -2      1667      1609      1706      1955
 -1       724    3    0    1
 -2       743       120      1905      2005
 -1       725    3    0    1
 -2       122       132       120       969
 -1       726    3    0    1
 -2      1162      1712      1778      1881
 -1       727    3    0    1
 -2      1080      1084      1676      1781
 -1       728    3    0    1
 -2       541       748       974      1789
 -1       729    3    0    1
 -2      1622       335      1659      1749
 -1       730    3    0    1
 -2      1597       293      1756      1835
 -1       731    3    0    1
 -2      1749      1586      1533      1649
 -1       732    3    0    1
 -2       866        15         8       854
 -1       733    3    0    1
 -2      1689       922      1939      2022
 -1       734    3    0    1
 -2       270      1125       260      1112
 -1       735    3    0    1
 -2      1256      2582      1354      2719
 -1       736    3    0    1
 -2      1539      1613      1648      1853
 -1       737    3    0    1
 -2        58        52        46       724
 -1       738    3    0    1
 -2      1539       395      1581      1853
 -1       739    3    0    1
 -2       750       145       985       986
 -1       740    3    0    1
 -2      2333      1428      2336      2354
 -1       741    3    0    1
 -2       112       960       737       113
 -1       742    3    0    1
 -2       157       155       166       756
 -1       743    3    0    1
 -2      1554      1576      1695      1998
 -1       744    3    0    1
 -2      1547       802      1650      1699
 -1       745    3    0    1
 -2       453       859       856       710
 -1       746    3    0    1
 -2      2154      1736      2159      2482
 -1       747    3    0    1
 -2      1591       408      1636      1771
 -1       748    3    0    1
 -2      1521       420      1608      1687
 -1       749    3    0    1
 -2       964       120       971       977
 -1       750    3    0    1
 -2      1629      1695      1845      1902
 -1       751    3    0    1
 -2       514       737       734       509
 -1       752    3    0    1
 -2       696      1208      1612      1733
 -1       753    3    0    1
 -2       196       189       187      1048
 -1       754    3    0    1
 -2      2470      1083      1236      2609
 -1       755    3    0    1
 -2      1186      1818       306      1187
 -1       756    3    0    1
 -2       118       353       127       974
 -1       757    3    0    1
 -2      2212      2213      2267      2679
 -1       758    3    0    1
 -2      1520        95      1739      1791
 -1       759    3    0    1
 -2      2515      2471      2594      2647
 -1       760    3    0    1
 -2      1614      1848      1900      1999
 -1       761    3    0    1
 -2      1523       555      1704      1763
 -1       762    3    0    1
 -2       130       978       962       125
 -1       763    3    0    1
 -2       574      1047       578       573
 -1       764    3    0    1
 -2      1707       404      1714      1728
 -1       765    3    0    1
 -2       961       738       519      1593
 -1       766    3    0    1
 -2      1122       420      1521      1631
 -1       767    3    0    1
 -2      1773      1755       953       348
 -1       768    3    0    1
 -2        18       417       864      2012
 -1       769    3    0    1
 -2       112       960       101       946
 -1       770    3    0    1
 -2      1589      1531      1611      1714
 -1       771    3    0    1
 -2      1213       695       842      1549
 -1       772    3    0    1
 -2       932      1520      1618      1791
 -1       773    3    0    1
 -2       131       348       737      1953
 -1       774    3    0    1
 -2       215      2019      2078      2161
 -1       775    3    0    1
 -2         9       863       710         7
 -1       776    3    0    1
 -2       440      1176      1740      1774
 -1       777    3    0    1
 -2      2164      2072      2493      2732
 -1       778    3    0    1
 -2      1426      2630      2654      2681
 -1       779    3    0    1
 -2      1522      1082      1750      1922
 -1       780    3    0    1
 -2       120       743       962       969
 -1       781    3    0    1
 -2       661      1578      1605      1696
 -1       782    3    0    1
 -2       525       742       529       528
 -1       783    3    0    1
 -2       526       974       970       525
 -1       784    3    0    1
 -2       602       599      1086      1922
 -1       785    3    0    1
 -2      1045      1041       576      2038
 -1       786    3    0    1
 -2       223       234      1073      1089
 -1       787    3    0    1
 -2      1529      1605      1652      1696
 -1       788    3    0    1
 -2      1773      1755      1811      1858
 -1       789    3    0    1
 -2      1286      2263      2276      2329
 -1       790    3    0    1
 -2       817       411      1550      1662
 -1       791    3    0    1
 -2        79       939        86        76
 -1       792    3    0    1
 -2      1633      1642      1729      1737
 -1       793    3    0    1
 -2       143       994       981       135
 -1       794    3    0    1
 -2       120       971       977      1811
 -1       795    3    0    1
 -2       489       917       916       904
 -1       796    3    0    1
 -2        82        90      1863      2109
 -1       797    3    0    1
 -2      1029       566      1822      1840
 -1       798    3    0    1
 -2      1237      1313      2701      2738
 -1       799    3    0    1
 -2       867      1997      2040      2464
 -1       800    3    0    1
 -2      1291      2517      2542      2585
 -1       801    3    0    1
 -2      1595       420      1619      1687
 -1       802    3    0    1
 -2       547      1005       755       548
 -1       803    3    0    1
 -2      1797      1043      1717       188
 -1       804    3    0    1
 -2       589       588       771      2009
 -1       805    3    0    1
 -2        34      1993      2034      2145
 -1       806    3    0    1
 -2      1813       723      1939      1990
 -1       807    3    0    1
 -2       935        78       730       936
 -1       808    3    0    1
 -2      1795       961      1949      2498
 -1       809    3    0    1
 -2       353       118       127       744
 -1       810    3    0    1
 -2      1694      1552      1859      1885
 -1       811    3    0    1
 -2       995       534       989       982
 -1       812    3    0    1
 -2       724        46       891       892
 -1       813    3    0    1
 -2      1125       619       627      1126
 -1       814    3    0    1
 -2       407        43      1537      1812
 -1       815    3    0    1
 -2      1049       580       579      1888
 -1       816    3    0    1
 -2       920      1689      1942      2022
 -1       817    3    0    1
 -2       166       155       365       756
 -1       818    3    0    1
 -2      2588      2569      2592      2608
 -1       819    3    0    1
 -2       919      1803      1907      1942
 -1       820    3    0    1
 -2      1550      1630      1662      1891
 -1       821    3    0    1
 -2      1538      1551      1573      1656
 -1       822    3    0    1
 -2       279      1138      1128       274
 -1       823    3    0    1
 -2      1755       348      1811      1953
 -1       824    3    0    1
 -2      1527      1578      1605      1774
 -1       825    3    0    1
 -2      2524      2505      2596      2634
 -1       826    3    0    1
 -2       454       863       458       453
 -1       827    3    0    1
 -2       750       544      1692      2074
 -1       828    3    0    1
 -2       214      1067       211       429
 -1       829    3    0    1
 -2       736       513       950       952
 -1       830    3    0    1
 -2       598      1088       593       604
 -1       831    3    0    1
 -2      1671      1536      1708      1882
 -1       832    3    0    1
 -2       190       188       767      1039
 -1       833    3    0    1
 -2        10        14         5       711
 -1       834    3    0    1
 -2      2101      2081      2483      2383
 -1       835    3    0    1
 -2       560      1032      1031       760
 -1       836    3    0    1
 -2      2045      1708      2046      2149
 -1       837    3    0    1
 -2      1283      1321      1472      2365
 -1       838    3    0    1
 -2      1837       458      1792       455
 -1       839    3    0    1
 -2       152      1004       756       155
 -1       840    3    0    1
 -2       171      1029       170       175
 -1       841    3    0    1
 -2       172      1032       170       330
 -1       842    3    0    1
 -2       108       954       403       106
 -1       843    3    0    1
 -2       144       146      1692      1726
 -1       844    3    0    1
 -2      1181       665       666      1706
 -1       845    3    0    1
 -2       113       960      1860      1971
 -1       846    3    0    1
 -2      1188      1561      1718      1752
 -1       847    3    0    1
 -2      2484      2520      2570      2644
 -1       848    3    0    1
 -2      1049       580      1888      2010
 -1       849    3    0    1
 -2       115       953       959      1755
 -1       850    3    0    1
 -2       399       113      1782      1971
 -1       851    3    0    1
 -2      1386      1321      1283      2365
 -1       852    3    0    1
 -2       634      1141      1134       633
 -1       853    3    0    1
 -2      2288      1251      2300      2350
 -1       854    3    0    1
 -2      1567      1553      1747      1903
 -1       855    3    0    1
 -2       665       808      1667      1706
 -1       856    3    0    1
 -2       307       823      1559      1644
 -1       857    3    0    1
 -2       451       865       459       460
 -1       858    3    0    1
 -2       955       958      2240      2606
 -1       859    3    0    1
 -2       961       519      1795      1949
 -1       860    3    0    1
 -2       878        28      1532      1570
 -1       861    3    0    1
 -2      1032       567      1031      1844
 -1       862    3    0    1
 -2      1383      1384      2604      2635
 -1       863    3    0    1
 -2       333       326      1008      1821
 -1       864    3    0    1
 -2       478       898       894       477
 -1       865    3    0    1
 -2         5        10       712       867
 -1       866    3    0    1
 -2      2713      2359      2417      2421
 -1       867    3    0    1
 -2       230       228       232      1074
 -1       868    3    0    1
 -2      1518       425      1563      1775
 -1       869    3    0    1
 -2      1608      1521      1725      1732
 -1       870    3    0    1
 -2       196      1888      2011      2016
 -1       871    3    0    1
 -2       959       953       518      1981
 -1       872    3    0    1
 -2      1308      2323      1469      2390
 -1       873    3    0    1
 -2       482       722      1742      2043
 -1       874    3    0    1
 -2       561      1024      1021       761
 -1       875    3    0    1
 -2       810       665       808      1667
 -1       876    3    0    1
 -2       585      1063       590       584
 -1       877    3    0    1
 -2      1535       342      1627      2041
 -1       878    3    0    1
 -2       571      1049       765      1036
 -1       879    3    0    1
 -2       823      1559      1644      1744
 -1       880    3    0    1
 -2      1827       777      2004      2091
 -1       881    3    0    1
 -2      2152      2077      2484      2488
 -1       882    3    0    1
 -2      1210       312       831      1650
 -1       883    3    0    1
 -2      2622      1457      2695      2711
 -1       884    3    0    1
 -2       421       260      1125      1126
 -1       885    3    0    1
 -2        76       932        86        92
 -1       886    3    0    1
 -2       677      1192       822      1683
 -1       887    3    0    1
 -2       516       529       742      1801
 -1       888    3    0    1
 -2       244      1806      1824      1910
 -1       889    3    0    1
 -2       393        67      1592      1805
 -1       890    3    0    1
 -2      1599      1526      1620      1823
 -1       891    3    0    1
 -2       340       188      1565      1717
 -1       892    3    0    1
 -2        66       396       913      1842
 -1       893    3    0    1
 -2       960       942      1795      1971
 -1       894    3    0    1
 -2       461       882       470       467
 -1       895    3    0    1
 -2         2       706      2225      2237
 -1       896    3    0    1
 -2       583       771       589       582
 -1       897    3    0    1
 -2       584      1063       590       587
 -1       898    3    0    1
 -2       499       932       503       498
 -1       899    3    0    1
 -2      1652      1529      1696      1748
 -1       900    3    0    1
 -2       145       992       146       137
 -1       901    3    0    1
 -2       408        28      1547      1768
 -1       902    3    0    1
 -2       384       390      2002      2061
 -1       903    3    0    1
 -2       177       169       179      1018
 -1       904    3    0    1
 -2       573      1043      1039       767
 -1       905    3    0    1
 -2      1101       612      2121      2525
 -1       906    3    0    1
 -2        34        25        31       716
 -1       907    3    0    1
 -2      1041      1675      2170      2176
 -1       908    3    0    1
 -2       562      1023      1020       561
 -1       909    3    0    1
 -2       197      1047       767       188
 -1       910    3    0    1
 -2      1571      1544      1609      1677
 -1       911    3    0    1
 -2       534       995       989       539
 -1       912    3    0    1
 -2       802      1169      1650      1699
 -1       913    3    0    1
 -2       692       846       699      1793
 -1       914    3    0    1
 -2       209      1071       208      1055
 -1       915    3    0    1
 -2       571      1050       766      1051
 -1       916    3    0    1
 -2       832       845      1657      1903
 -1       917    3    0    1
 -2      1781      1084      1827      2157
 -1       918    3    0    1
 -2      2212      1314      2277      2278
 -1       919    3    0    1
 -2      1050       571       579      1051
 -1       920    3    0    1
 -2      1617      1542      1730      1999
 -1       921    3    0    1
 -2       313      1607      1804      1919
 -1       922    3    0    1
 -2       150       989       983       136
 -1       923    3    0    1
 -2       218       346      1808      1913
 -1       924    3    0    1
 -2       199       196      1924      2016
 -1       925    3    0    1
 -2      2067      2079      2476      2490
 -1       926    3    0    1
 -2       661      1178      1175      1605
 -1       927    3    0    1
 -2        24       883       870        21
 -1       928    3    0    1
 -2       162       365      1523      1980
 -1       929    3    0    1
 -2      1136       276       793      1140
 -1       930    3    0    1
 -2      2144      2063      2492      2191
 -1       931    3    0    1
 -2      1653       611      1920      1987
 -1       932    3    0    1
 -2      1550       817      1662      1691
 -1       933    3    0    1
 -2      1557       420      1595      1687
 -1       934    3    0    1
 -2       454       864       857       453
 -1       935    3    0    1
 -2       166       180      2105      2163
 -1       936    3    0    1
 -2       126       131       978      1811
 -1       937    3    0    1
 -2      1570      1532      1742      2043
 -1       938    3    0    1
 -2      1107       610       781      1093
 -1       939    3    0    1
 -2       863        13      1694      1697
 -1       940    3    0    1
 -2       617       788       625       624
 -1       941    3    0    1
 -2      1083      1103      2470      1236
 -1       942    3    0    1
 -2      1564      1673      1815      1875
 -1       943    3    0    1
 -2      1522       226      1561      1634
 -1       944    3    0    1
 -2       247       255      1735      2031
 -1       945    3    0    1
 -2        62       372        72       916
 -1       946    3    0    1
 -2      1636      1547      1657      1769
 -1       947    3    0    1
 -2       542       995      1602      1623
 -1       948    3    0    1
 -2      1952        72      2123      2129
 -1       949    3    0    1
 -2      1307      1243      2551      2642
 -1       950    3    0    1
 -2      1519       404      1589      1659
 -1       951    3    0    1
 -2       244       245      1095      1096
 -1       952    3    0    1
 -2      1023       563      1722      1839
 -1       953    3    0    1
 -2      1163       651       652      1712
 -1       954    3    0    1
 -2      1935       359      2042      2487
 -1       955    3    0    1
 -2      1272      1317      1318      2564
 -1       956    3    0    1
 -2       373        66       913      1689
 -1       957    3    0    1
 -2       462       877       467       461
 -1       958    3    0    1
 -2      1071       770       208      1055
 -1       959    3    0    1
 -2      1003       152       756      1015
 -1       960    3    0    1
 -2       293      1163       439      1597
 -1       961    3    0    1
 -2      2077      1882      2152      2153
 -1       962    3    0    1
 -2       950       106       736       952
 -1       963    3    0    1
 -2      1528      1555      1591      1771
 -1       964    3    0    1
 -2      1675      1026      2117      2170
 -1       965    3    0    1
 -2       513       954       952       736
 -1       966    3    0    1
 -2      1012       326      1807      1969
 -1       967    3    0    1
 -2      1571      1544      1596      1647
 -1       968    3    0    1
 -2       249       251       779       782
 -1       969    3    0    1
 -2       958       955       516      2502
 -1       970    3    0    1
 -2      1603      1541      1616      1897
 -1       971    3    0    1
 -2      2669      1400      1495      2705
 -1       972    3    0    1
 -2      1567       832      1657      1903
 -1       973    3    0    1
 -2       240      1100       383       244
 -1       974    3    0    1
 -2       824      1194      1559      1654
 -1       975    3    0    1
 -2      1556      1615      1637      1779
 -1       976    3    0    1
 -2       647       648      1700      1776
 -1       977    3    0    1
 -2       534       990       984       533
 -1       978    3    0    1
 -2       555       556       755      1523
 -1       979    3    0    1
 -2       509       519       520       737
 -1       980    3    0    1
 -2      1216       839      1946      2023
 -1       981    3    0    1
 -2       236       223       227      1089
 -1       982    3    0    1
 -2      2234      2216      2603      2290
 -1       983    3    0    1
 -2      1559       244      1741      1910
 -1       984    3    0    1
 -2       455       859       863      1792
 -1       985    3    0    1
 -2      1809      1588      1898      1954
 -1       986    3    0    1
 -2       500       936       935       730
 -1       987    3    0    1
 -2       170      1029       178       175
 -1       988    3    0    1
 -2       807      1179      1531      1684
 -1       989    3    0    1
 -2       162       754      1980      2132
 -1       990    3    0    1
 -2      1046      2505      1269      2596
 -1       991    3    0    1
 -2      1532      1575      1743      1921
 -1       992    3    0    1
 -2       223       236       227      1087
 -1       993    3    0    1
 -2       342       329      1024      1799
 -1       994    3    0    1
 -2      1532       878      1669      1768
 -1       995    3    0    1
 -2      2057      1710      2467      2474
 -1       996    3    0    1
 -2       293      1212       843      1835
 -1       997    3    0    1
 -2       630       794       637       629
 -1       998    3    0    1
 -2       920      1689      1803      1942
 -1       999    3    0    1
 -2      1715      1738      1862      1994
 -1      1000    3    0    1
 -2      2643      1375      2650      2743
 -1      1001    3    0    1
 -2       309       826      1561      1745
 -1      1002    3    0    1
 -2       458       453       455       864
 -1      1003    3    0    1
 -2       503       939       932      1791
 -1      1004    3    0    1
 -2      1352      1419      2348      2354
 -1      1005    3    0    1
 -2      1545      1614      1730      1999
 -1      1006    3    0    1
 -2       267       266       257      1114
 -1      1007    3    0    1
 -2       726       485       728       906
 -1      1008    3    0    1
 -2      2472      1009      2540      2613
 -1      1009    3    0    1
 -2       210      1062       206       216
 -1      1010    3    0    1
 -2       914       919      1803      1907
 -1      1011    3    0    1
 -2       994      1530      1826      1734
 -1      1012    3    0    1
 -2      1916      1143      2075      2511
 -1      1013    3    0    1
 -2       633      1136       638       635
 -1      1014    3    0    1
 -2      1197       684      1670      1879
 -1      1015    3    0    1
 -2       398      1783      1784      1814
 -1      1016    3    0    1
 -2       903       433      1990      2033
 -1      1017    3    0    1
 -2       519       960      1795      1860
 -1      1018    3    0    1
 -2       489       917       488       492
 -1      1019    3    0    1
 -2       546      1007       551       545
 -1      1020    3    0    1
 -2       266       257      1114      1127
 -1      1021    3    0    1
 -2      2425      2353      2449      2744
 -1      1022    3    0    1
 -2      1607      1558      1804      1919
 -1      1023    3    0    1
 -2       102       957       956       110
 -1      1024    3    0    1
 -2       169       177       758       762
 -1      1025    3    0    1
 -2       236       427       234      1089
 -1      1026    3    0    1
 -2       849      1554      1686      1688
 -1      1027    3    0    1
 -2       599      1750      1922      1979
 -1      1028    3    0    1
 -2       991      1011      2478      2481
 -1      1029    3    0    1
 -2       414        13      1792      1973
 -1      1030    3    0    1
 -2      1715      1197      1946      2024
 -1      1031    3    0    1
 -2      1678      2051      2072      2164
 -1      1032    3    0    1
 -2       828       681       826      1679
 -1      1033    3    0    1
 -2        33       716        25        34
 -1      1034    3    0    1
 -2       665      1181       809      1706
 -1      1035    3    0    1
 -2      1539      1648      1793      1853
 -1      1036    3    0    1
 -2       920       373       913      1689
 -1      1037    3    0    1
 -2       602       596       599      1087
 -1      1038    3    0    1
 -2      1650      1575      1699      1724
 -1      1039    3    0    1
 -2       229      1086       776       225
 -1      1040    3    0    1
 -2       623      1118      1625      1685
 -1      1041    3    0    1
 -2       841       694      1640      1711
 -1      1042    3    0    1
 -2      1673      1564      1946      2024
 -1      1043    3    0    1
 -2      1843      1049      2010      2487
 -1      1044    3    0    1
 -2      1792       455      1836      1837
 -1      1045    3    0    1
 -2       225      1082       776      1076
 -1      1046    3    0    1
 -2       593      1090      1074       777
 -1      1047    3    0    1
 -2       515       954      1635      1858
 -1      1048    3    0    1
 -2      1679      1745      1898      1912
 -1      1049    3    0    1
 -2       264       257       375      1120
 -1      1050    3    0    1
 -2      1653       614      1979      1982
 -1      1051    3    0    1
 -2      1558      1585      1608      1725
 -1      1052    3    0    1
 -2      1646      1718      1818      1560
 -1      1053    3    0    1
 -2       475       893       723       476
 -1      1054    3    0    1
 -2       148       995      1602      1665
 -1      1055    3    0    1
 -2        56       433       903      2527
 -1      1056    3    0    1
 -2       346       216       206      1062
 -1      1057    3    0    1
 -2       748       974      1789      2080
 -1      1058    3    0    1
 -2        73       922        60       374
 -1      1059    3    0    1
 -2      2273      1249      2725      2431
 -1      1060    3    0    1
 -2       458       864      1901      1947
 -1      1061    3    0    1
 -2       649      1158       650      1647
 -1      1062    3    0    1
 -2       626      1123      1641      1765
 -1      1063    3    0    1
 -2      1204       687      1203      1643
 -1      1064    3    0    1
 -2        62       917       916        72
 -1      1065    3    0    1
 -2       445       446      1554      1998
 -1      1066    3    0    1
 -2      2547      2565      2649      2692
 -1      1067    3    0    1
 -2      1653      1104      1806      1824
 -1      1068    3    0    1
 -2       755       153       998      1014
 -1      1069    3    0    1
 -2      1757      1719      1829      1876
 -1      1070    3    0    1
 -2       487       920       491       486
 -1      1071    3    0    1
 -2       487       920       913       491
 -1      1072    3    0    1
 -2       593      1090       777       603
 -1      1073    3    0    1
 -2      1166       308       801      1804
 -1      1074    3    0    1
 -2       960       737       113      1860
 -1      1075    3    0    1
 -2       473       890       722       896
 -1      1076    3    0    1
 -2       862       860      1915      2534
 -1      1077    3    0    1
 -2      1823      1549      1535      1620
 -1      1078    3    0    1
 -2      1094      1105       607      1097
 -1      1079    3    0    1
 -2       586      1071       581      1055
 -1      1080    3    0    1
 -2      1063       585      1057      1059
 -1      1081    3    0    1
 -2       899       880      2128      2175
 -1      1082    3    0    1
 -2      1683      1559      1744      1910
 -1      1083    3    0    1
 -2       513       953       515       512
 -1      1084    3    0    1
 -2       456       860       881      2171
 -1      1085    3    0    1
 -2      1177       440       441      1774
 -1      1086    3    0    1
 -2      1501      1513      2441      2442
 -1      1087    3    0    1
 -2       573      1043       767      1047
 -1      1088    3    0    1
 -2       206       210       216      1070
 -1      1089    3    0    1
 -2      1065       356      2019      2078
 -1      1090    3    0    1
 -2      1619      1687      1804      1919
 -1      1091    3    0    1
 -2      2072      2164      2190      2539
 -1      1092    3    0    1
 -2      2140      2473      2169      2530
 -1      1093    3    0    1
 -2       141      1530      1632      1701
 -1      1094    3    0    1
 -2      1709      1678      2063      2493
 -1      1095    3    0    1
 -2      1570      1705      1743      1816
 -1      1096    3    0    1
 -2       502       943       507       497
 -1      1097    3    0    1
 -2       395       803      1539      1581
 -1      1098    3    0    1
 -2        76       732       942       943
 -1      1099    3    0    1
 -2      2091      1759      2157      2480
 -1      1100    3    0    1
 -2      1673      1216      1946      2023
 -1      1101    3    0    1
 -2       480      1948      2055      2100
 -1      1102    3    0    1
 -2       182      1031       339       171
 -1      1103    3    0    1
 -2       723        39       886       902
 -1      1104    3    0    1
 -2      1171       397      1664      1852
 -1      1105    3    0    1
 -2       967       118       744       979
 -1      1106    3    0    1
 -2        42       890        44        43
 -1      1107    3    0    1
 -2        78       935        82       936
 -1      1108    3    0    1
 -2       153       156       164       755
 -1      1109    3    0    1
 -2        39       895       888       901
 -1      1110    3    0    1
 -2       236       227      1087      2015
 -1      1111    3    0    1
 -2       499       932       498       928
 -1      1112    3    0    1
 -2       712       708         5       867
 -1      1113    3    0    1
 -2       362       177      2027      2116
 -1      1114    3    0    1
 -2       468       465       469       880
 -1      1115    3    0    1
 -2      1180       664      1600      1684
 -1      1116    3    0    1
 -2       347       360      2170      2176
 -1      1117    3    0    1
 -2       340      1047      1717      1841
 -1      1118    3    0    1
 -2      1815      1564      1875      1994
 -1      1119    3    0    1
 -2      1024       342      1587      1601
 -1      1120    3    0    1
 -2       475       903       891       724
 -1      1121    3    0    1
 -2       607      1104       606      1096
 -1      1122    3    0    1
 -2       865         8       853       866
 -1      1123    3    0    1
 -2      1615      1637      1779      1870
 -1      1124    3    0    1
 -2      1735      1106      1914      1927
 -1      1125    3    0    1
 -2      2723      1382      2451      2456
 -1      1126    3    0    1
 -2      1120       788       624      1660
 -1      1127    3    0    1
 -2       359       356      1071      1935
 -1      1128    3    0    1
 -2      1192      1683      1818      1909
 -1      1129    3    0    1
 -2      2532      2473      2533      2595
 -1      1130    3    0    1
 -2      1263      1347      1262      2556
 -1      1131    3    0    1
 -2      2509      1225      2550      2627
 -1      1132    3    0    1
 -2      1589      1582      1880      1546
 -1      1133    3    0    1
 -2       442       850       443      1976
 -1      1134    3    0    1
 -2      1818      1186       306      1909
 -1      1135    3    0    1
 -2      1692      1723      2459      2096
 -1      1136    3    0    1
 -2       878        28       408      1669
 -1      1137    3    0    1
 -2       120       125       122       962
 -1      1138    3    0    1
 -2      1167       655      1699      1724
 -1      1139    3    0    1
 -2       479       473       722       896
 -1      1140    3    0    1
 -2       404      1531      1589      1659
 -1      1141    3    0    1
 -2       700      1756       843      1835
 -1      1142    3    0    1
 -2      1084      1080       600      1781
 -1      1143    3    0    1
 -2      1176      1578      1740      1774
 -1      1144    3    0    1
 -2      1120       784       257      1110
 -1      1145    3    0    1
 -2       653      1165       654      1638
 -1      1146    3    0    1
 -2      1573      1551      1581      1592
 -1      1147    3    0    1
 -2      1950       901      2025      2043
 -1      1148    3    0    1
 -2       278      1135       275       418
 -1      1149    3    0    1
 -2       777       237      1109      2480
 -1      1150    3    0    1
 -2      1026       564      1041      1675
 -1      1151    3    0    1
 -2      1550      1630      1891      1904
 -1      1152    3    0    1
 -2       188       767      1043      1047
 -1      1153    3    0    1
 -2       845       689       832      1657
 -1      1154    3    0    1
 -2      1545        67      1614      1805
 -1      1155    3    0    1
 -2      1559       823      1683      1744
 -1      1156    3    0    1
 -2        76       932       927       939
 -1      1157    3    0    1
 -2      1163      1525      1597      1712
 -1      1158    3    0    1
 -2      1213       447      1549      1599
 -1      1159    3    0    1
 -2        67      1614      1805      1848
 -1      1160    3    0    1
 -2       994       328      1530      1632
 -1      1161    3    0    1
 -2        25        33        34       718
 -1      1162    3    0    1
 -2       403      1544      1677      1955
 -1      1163    3    0    1
 -2      1741       244      1824      1910
 -1      1164    3    0    1
 -2      1543      1566      1571      2007
 -1      1165    3    0    1
 -2      1090       603      1855      2004
 -1      1166    3    0    1
 -2        22       878        28       408
 -1      1167    3    0    1
 -2       606      1099       611       614
 -1      1168    3    0    1
 -2      1162       651      1161      1712
 -1      1169    3    0    1
 -2       624      1120      1660      2124
 -1      1170    3    0    1
 -2      1694       863      1697      1947
 -1      1171    3    0    1
 -2      1318      2564      2604      2614
 -1      1172    3    0    1
 -2      1790      1703      1870      1887
 -1      1173    3    0    1
 -2      2056      1915      2489      2534
 -1      1174    3    0    1
 -2      1722      1023      1839      1846
 -1      1175    3    0    1
 -2       883        36        38      1651
 -1      1176    3    0    1
 -2       188       767      1039      1043
 -1      1177    3    0    1
 -2       417        16         8       864
 -1      1178    3    0    1
 -2       953       959      1755      1782
 -1      1179    3    0    1
 -2        79        91       732       943
 -1      1180    3    0    1
 -2      2490      2476      2506      2590
 -1      1181    3    0    1
 -2      1380      2299      2304      2305
 -1      1182    3    0    1
 -2       542       539       990      1632
 -1      1183    3    0    1
 -2      2202       955      2240      2606
 -1      1184    3    0    1
 -2        21       883        36        38
 -1      1185    3    0    1
 -2      1170       804      1577      1931
 -1      1186    3    0    1
 -2        15       866         6       854
 -1      1187    3    0    1
 -2       866       417        18      1796
 -1      1188    3    0    1
 -2       372        68        62       923
 -1      1189    3    0    1
 -2       464       463       717       875
 -1      1190    3    0    1
 -2      1195       289       827      1960
 -1      1191    3    0    1
 -2       113       112       104       737
 -1      1192    3    0    1
 -2       303      1567      1747      1903
 -1      1193    3    0    1
 -2       588       601      2162      2519
 -1      1194    3    0    1
 -2        95       942      1520      1739
 -1      1195    3    0    1
 -2      1521      1558      1607      1619
 -1      1196    3    0    1
 -2       404      1589      1707      1714
 -1      1197    3    0    1
 -2      2482      1256      2582      2549
 -1      1198    3    0    1
 -2       246      1105       242       247
 -1      1199    3    0    1
 -2      1045      2038      2135      2499
 -1      1200    3    0    1
 -2      2576      2517      2585      2616
 -1      1201    3    0    1
 -2      1538      1633      1787      1961
 -1      1202    3    0    1
 -2      1158       649      1157      1647
 -1      1203    3    0    1
 -2      1065       771       588      2009
 -1      1204    3    0    1
 -2       170       171       175      1031
 -1      1205    3    0    1
 -2      1378      1296      2661      2739
 -1      1206    3    0    1
 -2       593      1089      1088      1073
 -1      1207    3    0    1
 -2      2483      2081      2516      2383
 -1      1208    3    0    1
 -2        10       430      1524      2073
 -1      1209    3    0    1
 -2       532       744       997      1723
 -1      1210    3    0    1
 -2       118       968       744       123
 -1      1211    3    0    1
 -2       128       353      1698      2459
 -1      1212    3    0    1
 -2       475       893       886       723
 -1      1213    3    0    1
 -2       445      1206       849      1554
 -1      1214    3    0    1
 -2      1620       329      1823      1830
 -1      1215    3    0    1
 -2      1560      1646      1806      1824
 -1      1216    3    0    1
 -2       612      1886      2121      2525
 -1      1217    3    0    1
 -2       558      1026       565       557
 -1      1218    3    0    1
 -2      1656      1573      1787      1929
 -1      1219    3    0    1
 -2      1214       690       833      1908
 -1      1220    3    0    1
 -2      1099       380      1847      2031
 -1      1221    3    0    1
 -2       518       515       736      1981
 -1      1222    3    0    1
 -2      2118      2059      2141      2541
 -1      1223    3    0    1
 -2       345      1602      1623      1753
 -1      1224    3    0    1
 -2      2286      2347      2366      2394
 -1      1225    3    0    1
 -2       234      1087       236       223
 -1      1226    3    0    1
 -2       356       208       359      1071
 -1      1227    3    0    1
 -2      1108       615      1735      1958
 -1      1228    3    0    1
 -2      2509      1225      2537      2550
 -1      1229    3    0    1
 -2       446      1206      1554      1686
 -1      1230    3    0    1
 -2       206       218      1054      1070
 -1      1231    3    0    1
 -2       723        45       902      1813
 -1      1232    3    0    1
 -2      1592      1545      1613      1648
 -1      1233    3    0    1
 -2       516      1682      2000      2166
 -1      1234    3    0    1
 -2       425       429      1518      1563
 -1      1235    3    0    1
 -2      1136       638       635      1666
 -1      1236    3    0    1
 -2      1743      1705      1776      1812
 -1      1237    3    0    1
 -2       941       507       944      1721
 -1      1238    3    0    1
 -2      1089       603      1088      2004
 -1      1239    3    0    1
 -2       621      1118       787      1122
 -1      1240    3    0    1
 -2       392      1810      1985      1989
 -1      1241    3    0    1
 -2      1590      1607      1654      1725
 -1      1242    3    0    1
 -2       372        62        72       923
 -1      1243    3    0    1
 -2      1140       416      1637      1639
 -1      1244    3    0    1
 -2       144       748      1726      2080
 -1      1245    3    0    1
 -2      1959      1151       317      1960
 -1      1246    3    0    1
 -2       312       802      1169      1650
 -1      1247    3    0    1
 -2      1414      1412      1474      2379
 -1      1248    3    0    1
 -2       919       494       914      1803
 -1      1249    3    0    1
 -2      1751       551      1822      1925
 -1      1250    3    0    1
 -2       694       844       697      1711
 -1      1251    3    0    1
 -2        95        76       925       942
 -1      1252    3    0    1
 -2       902       723      1813      1990
 -1      1253    3    0    1
 -2      1347      1262      1415      2349
 -1      1254    3    0    1
 -2       994      1623      1734      1749
 -1      1255    3    0    1
 -2      1639      1140      1666      1727
 -1      1256    3    0    1
 -2      1709      1754      2050      2051
 -1      1257    3    0    1
 -2      1775      1572      1786      1959
 -1      1258    3    0    1
 -2      2512      2554      2662      2672
 -1      1259    3    0    1
 -2        77       938       933        85
 -1      1260    3    0    1
 -2       900      1951      2065      2100
 -1      1261    3    0    1
 -2        87       936       730        78
 -1      1262    3    0    1
 -2      2553      1242      2701      2728
 -1      1263    3    0    1
 -2      2159      2479      2185      2611
 -1      1264    3    0    1
 -2      1688      1686      1908      1956
 -1      1265    3    0    1
 -2       544       555       749      1704
 -1      1266    3    0    1
 -2      1337      2624      1444      1445
 -1      1267    3    0    1
 -2      2688      2691      2700      2727
 -1      1268    3    0    1
 -2      1609      1544      1706      1955
 -1      1269    3    0    1
 -2       572      1051       579       571
 -1      1270    3    0    1
 -2      2118      2141      2178      2530
 -1      1271    3    0    1
 -2      2524      2505      2580      2633
 -1      1272    3    0    1
 -2      1806      1653      1979      1982
 -1      1273    3    0    1
 -2       973       993      2460      1217
 -1      1274    3    0    1
 -2      1030       568       567      1844
 -1      1275    3    0    1
 -2       621       626       623      1122
 -1      1276    3    0    1
 -2      2244      2541      2261      2685
 -1      1277    3    0    1
 -2      2045      2046      2144      2180
 -1      1278    3    0    1
 -2       419      1122      1118      1631
 -1      1279    3    0    1
 -2       324       149       989      1579
 -1      1280    3    0    1
 -2       649      1159       800      1596
 -1      1281    3    0    1
 -2       149       989      1579      1626
 -1      1282    3    0    1
 -2      1086      1082      1522      1922
 -1      1283    3    0    1
 -2      1157       649      1596      1647
 -1      1284    3    0    1
 -2      1404      2672      2356      2683
 -1      1285    3    0    1
 -2        55        37       717      2018
 -1      1286    3    0    1
 -2      1583       398      1783      1784
 -1      1287    3    0    1
 -2       599       602      1087      1922
 -1      1288    3    0    1
 -2        38       877      1651      1932
 -1      1289    3    0    1
 -2       617      1111       783      2209
 -1      1290    3    0    1
 -2       959       399      1520      1618
 -1      1291    3    0    1
 -2      1664      1648      1613      1645
 -1      1292    3    0    1
 -2      1761      1031      1846      2016
 -1      1293    3    0    1
 -2      2542      1342      2602      2698
 -1      1294    3    0    1
 -2       746       992       748       538
 -1      1295    3    0    1
 -2       666       665      1667      1706
 -1      1296    3    0    1
 -2       429      1518      1815      1819
 -1      1297    3    0    1
 -2       524       523       532       743
 -1      1298    3    0    1
 -2      1674      1720      1874      1962
 -1      1299    3    0    1
 -2       501       935       500       504
 -1      1300    3    0    1
 -2      1129      2252      2352      2676
 -1      1301    3    0    1
 -2      1544      1157      1596      1647
 -1      1302    3    0    1
 -2       743       543       996      1568
 -1      1303    3    0    1
 -2      2191      2210      2557      2246
 -1      1304    3    0    1
 -2       103       738       102       116
 -1      1305    3    0    1
 -2       218      1808      1874      1913
 -1      1306    3    0    1
 -2      1553      1567      1657      1903
 -1      1307    3    0    1
 -2       859      1555      1591      1836
 -1      1308    3    0    1
 -2      1939       922      1944      2022
 -1      1309    3    0    1
 -2      2557      2603      1388      2667
 -1      1310    3    0    1
 -2       528       541       974      1789
 -1      1311    3    0    1
 -2      2192      2141      2541      2244
 -1      1312    3    0    1
 -2      2072      1678      2164      2493
 -1      1313    3    0    1
 -2       734       960       946       509
 -1      1314    3    0    1
 -2       975       528       529      1682
 -1      1315    3    0    1
 -2       572      1052       765       571
 -1      1316    3    0    1
 -2       556       567      1918      2029
 -1      1317    3    0    1
 -2      1045      2135      2177      2499
 -1      1318    3    0    1
 -2       458       864      1837      1901
 -1      1319    3    0    1
 -2       537       748       541       540
 -1      1320    3    0    1
 -2       551      1624      1821      1822
 -1      1321    3    0    1
 -2       542       539       533       990
 -1      1322    3    0    1
 -2       224      1088       223      1079
 -1      1323    3    0    1
 -2       549       754       553       552
 -1      1324    3    0    1
 -2      2269      1326      2313      2420
 -1      1325    3    0    1
 -2       941       508       507      1721
 -1      1326    3    0    1
 -2       553       991      1011      2478
 -1      1327    3    0    1
 -2      2207      1326      2313      2687
 -1      1328    3    0    1
 -2      1594      1574      1661      1701
 -1      1329    3    0    1
 -2      2278      2633      2679      2392
 -1      1330    3    0    1
 -2       691       850       834      1887
 -1      1331    3    0    1
 -2      1612      1597      1661      1701
 -1      1332    3    0    1
 -2       420      1595      1619      1631
 -1      1333    3    0    1
 -2      1095       244      1096      1104
 -1      1334    3    0    1
 -2      1194       307      1559      1644
 -1      1335    3    0    1
 -2       882       878       408      1669
 -1      1336    3    0    1
 -2      2098      2079      2486      2535
 -1      1337    3    0    1
 -2      1951       480      2055      2100
 -1      1338    3    0    1
 -2       196       195       187      1051
 -1      1339    3    0    1
 -2      1562      1655      1767      1959
 -1      1340    3    0    1
 -2       770      1071       208       772
 -1      1341    3    0    1
 -2       559      1030       568       567
 -1      1342    3    0    1
 -2       550      1010      1006       549
 -1      1343    3    0    1
 -2       393      1551      1592      1794
 -1      1344    3    0    1
 -2       976       404      1707      1728
 -1      1345    3    0    1
 -2      1546      1880      1883      1896
 -1      1346    3    0    1
 -2       598      1088      1079       593
 -1      1347    3    0    1
 -2      2551      2642      2644      2706
 -1      1348    3    0    1
 -2       582       589       588       771
 -1      1349    3    0    1
 -2      1697        13      1885      1973
 -1      1350    3    0    1
 -2       619      1124       628       627
 -1      1351    3    0    1
 -2        43       407      1770      1812
 -1      1352    3    0    1
 -2       742       529      1682      1801
 -1      1353    3    0    1
 -2      1800       162      1980      2132
 -1      1354    3    0    1
 -2      1108       615      1107      1735
 -1      1355    3    0    1
 -2      1135      1861      1972      2001
 -1      1356    3    0    1
 -2      1751      1013      1763      1933
 -1      1357    3    0    1
 -2       613      1103      2121      2514
 -1      1358    3    0    1
 -2      1625      1117      1872      1986
 -1      1359    3    0    1
 -2       335       976       972      1519
 -1      1360    3    0    1
 -2       330       331      1918      1925
 -1      1361    3    0    1
 -2       246      1107      1093       239
 -1      1362    3    0    1
 -2       227       223      1088      1089
 -1      1363    3    0    1
 -2       347       362      2117      2526
 -1      1364    3    0    1
 -2      1579       324      1658      1665
 -1      1365    3    0    1
 -2        45        50       902      1813
 -1      1366    3    0    1
 -2       863        13      1697      1973
 -1      1367    3    0    1
 -2       464       463       472       717
 -1      1368    3    0    1
 -2      1460      2620      1503      2389
 -1      1369    3    0    1
 -2       771      1065       359      2019
 -1      1370    3    0    1
 -2      1050       579       580      1888
 -1      1371    3    0    1
 -2       629       637       636       794
 -1      1372    3    0    1
 -2        36        21        38       717
 -1      1373    3    0    1
 -2       324       149      1579      1658
 -1      1374    3    0    1
 -2       325      1704      1763      1933
 -1      1375    3    0    1
 -2      1781      1084      2157      2184
 -1      1376    3    0    1
 -2       820      1695      1845      1998
 -1      1377    3    0    1
 -2      2517      1292      2542      2628
 -1      1378    3    0    1
 -2      1177       661      1176      1605
 -1      1379    3    0    1
 -2      1152       645      1151      1572
 -1      1380    3    0    1
 -2       659      1174      1171      1852
 -1      1381    3    0    1
 -2       867       459      2017      2040
 -1      1382    3    0    1
 -2         9       863         7        13
 -1      1383    3    0    1
 -2      1587      1534      1601      1627
 -1      1384    3    0    1
 -2      1341      2542      1342      2602
 -1      1385    3    0    1
 -2         7       859        13       863
 -1      1386    3    0    1
 -2      1678      1709      1832      2050
 -1      1387    3    0    1
 -2      1882      2077      2118      2484
 -1      1388    3    0    1
 -2      1678      2126      2144      2493
 -1      1389    3    0    1
 -2       328       141      1530      1632
 -1      1390    3    0    1
 -2      2189      2528      2200      1302
 -1      1391    3    0    1
 -2      1566      1543      1571      1583
 -1      1392    3    0    1
 -2       230       228      1074      1090
 -1      1393    3    0    1
 -2       882      1669      1771      1985
 -1      1394    3    0    1
 -2      1811       978      1905      1953
 -1      1395    3    0    1
 -2       235      1089       234       427
 -1      1396    3    0    1
 -2       586      1069      1061      1054
 -1      1397    3    0    1
 -2      1519       335      1622      2028
 -1      1398    3    0    1
 -2      1736      2089      2479      2482
 -1      1399    3    0    1
 -2       532       744      1723      1772
 -1      1400    3    0    1
 -2       497       942       507       508
 -1      1401    3    0    1
 -2      2555      1222      2557      2614
 -1      1402    3    0    1
 -2      1590      1193      1654      1804
 -1      1403    3    0    1
 -2       828      1679      1745      1767
 -1      1404    3    0    1
 -2       100       111       738       961
 -1      1405    3    0    1
 -2       489       917       904       488
 -1      1406    3    0    1
 -2       513       954       736       515
 -1      1407    3    0    1
 -2       522       972       521       527
 -1      1408    3    0    1
 -2      1084       370      1827      2157
 -1      1409    3    0    1
 -2      1604      1788      1897      2006
 -1      1410    3    0    1
 -2       148       324       989      1665
 -1      1411    3    0    1
 -2      1525      1597      1661      1756
 -1      1412    3    0    1
 -2         5        10       430       712
 -1      1413    3    0    1
 -2      1423      1431      1465      2394
 -1      1414    3    0    1
 -2       375       264      1120      1660
 -1      1415    3    0    1
 -2       976       530      1728      1773
 -1      1416    3    0    1
 -2       814      1531      1611      1680
 -1      1417    3    0    1
 -2       149       749      1014      1704
 -1      1418    3    0    1
 -2       419      1557      1595      1615
 -1      1419    3    0    1
 -2       811       318       813      1895
 -1      1420    3    0    1
 -2      1540      1545      1614      1730
 -1      1421    3    0    1
 -2      1031       560       760      1019
 -1      1422    3    0    1
 -2      1857       992      2104      2108
 -1      1423    3    0    1
 -2      1568       743      1905      2005
 -1      1424    3    0    1
 -2      1843      1049      1888      2010
 -1      1425    3    0    1
 -2      1607      1590      1654      1804
 -1      1426    3    0    1
 -2       296       395      1793      1853
 -1      1427    3    0    1
 -2       422      1123      1940      1986
 -1      1428    3    0    1
 -2      1176      1177      1605      1774
 -1      1429    3    0    1
 -2      1569      1526      1599      1823
 -1      1430    3    0    1
 -2       467       878      1532      1742
 -1      1431    3    0    1
 -2       291       797      1146      1729
 -1      1432    3    0    1
 -2      1621       654      1638      1919
 -1      1433    3    0    1
 -2       634      1140       638      1136
 -1      1434    3    0    1
 -2      1136       634       793      1133
 -1      1435    3    0    1
 -2       917       493       492      1948
 -1      1436    3    0    1
 -2       309       828       826      1745
 -1      1437    3    0    1
 -2       692       836      1648      1793
 -1      1438    3    0    1
 -2      1209       694       697      1711
 -1      1439    3    0    1
 -2      1194       305       824      1559
 -1      1440    3    0    1
 -2       989       324      1579      1665
 -1      1441    3    0    1
 -2       126       120      1811      1905
 -1      1442    3    0    1
 -2       282       418       275      1135
 -1      1443    3    0    1
 -2       634      1136       638       633
 -1      1444    3    0    1
 -2       494       920      1803      1942
 -1      1445    3    0    1
 -2      1718      1186      1818      1909
 -1      1446    3    0    1
 -2       278      1135       792       275
 -1      1447    3    0    1
 -2       671      1185       817      1691
 -1      1448    3    0    1
 -2       255       242       247      1107
 -1      1449    3    0    1
 -2       495       496       485       922
 -1      1450    3    0    1
 -2      1813       483      1990      2032
 -1      1451    3    0    1
 -2       580      1049      1071      2010
 -1      1452    3    0    1
 -2      1590      1585      1607      1725
 -1      1453    3    0    1
 -2       110       102       100       738
 -1      1454    3    0    1
 -2      2492      2063      2493      2198
 -1      1455    3    0    1
 -2       575      1042      1828      1924
 -1      1456    3    0    1
 -2       898        46      1866      2123
 -1      1457    3    0    1
 -2      1612      1661      1756      1835
 -1      1458    3    0    1
 -2       611      1732      1765      1100
 -1      1459    3    0    1
 -2       115       104       113       959
 -1      1460    3    0    1
 -2       114       961       400       100
 -1      1461    3    0    1
 -2       814       299       816      1611
 -1      1462    3    0    1
 -2      1698       353      1772      2459
 -1      1463    3    0    1
 -2       878       882       467      1669
 -1      1464    3    0    1
 -2       169      1026       362       762
 -1      1465    3    0    1
 -2       742       529       528      1789
 -1      1466    3    0    1
 -2      1532      1570      1743      1816
 -1      1467    3    0    1
 -2       235      1089      1073       234
 -1      1468    3    0    1
 -2       308       313       825      1654
 -1      1469    3    0    1
 -2      1566      1583      1681      1783
 -1      1470    3    0    1
 -2      1159       649       650      1596
 -1      1471    3    0    1
 -2       837       692      1648      1793
 -1      1472    3    0    1
 -2      1578      1574      1652      1748
 -1      1473    3    0    1
 -2      1029      1020       562      1023
 -1      1474    3    0    1
 -2       903       724       483      1990
 -1      1475    3    0    1
 -2      2319      2255      2377      2720
 -1      1476    3    0    1
 -2       458      1837      1792      1901
 -1      1477    3    0    1
 -2      1552      1576      1606      1629
 -1      1478    3    0    1
 -2       244      1104      1653      1824
 -1      1479    3    0    1
 -2        86        76        92       942
 -1      1480    3    0    1
 -2      1594      1574      1701      1702
 -1      1481    3    0    1
 -2        78        82        88       936
 -1      1482    3    0    1
 -2       865      1796      1850      1963
 -1      1483    3    0    1
 -2      1667      1609      1955      2003
 -1      1484    3    0    1
 -2       191       198       202      1036
 -1      1485    3    0    1
 -2       664       663       807      1684
 -1      1486    3    0    1
 -2       432        56      2130      2175
 -1      1487    3    0    1
 -2      1600      1180      1684      1881
 -1      1488    3    0    1
 -2      1047      1043      1717      1965
 -1      1489    3    0    1
 -2      1696      1529      1719      1829
 -1      1490    3    0    1
 -2       274       385       796      1143
 -1      1491    3    0    1
 -2      1689       913      1803      1842
 -1      1492    3    0    1
 -2       187       366       189      1050
 -1      1493    3    0    1
 -2      2463      2509      2539      2712
 -1      1494    3    0    1
 -2       393      1551      1573      1907
 -1      1495    3    0    1
 -2      1088       227      1089      2004
 -1      1496    3    0    1
 -2        60        66       373       922
 -1      1497    3    0    1
 -2      1157       302      1158      1544
 -1      1498    3    0    1
 -2      1291      2517      1292      2542
 -1      1499    3    0    1
 -2       534       990       533       539
 -1      1500    3    0    1
 -2      2099      2060      2148      2469
 -1      1501    3    0    1
 -2       392      1651      1810      1963
 -1      1502    3    0    1
 -2      1565      1610      1717      1738
 -1      1503    3    0    1
 -2       494       919      1906      1942
 -1      1504    3    0    1
 -2      1570        28      1768      1921
 -1      1505    3    0    1
 -2      1743      1705      1812      1816
 -1      1506    3    0    1
 -2      1041       185       192      1045
 -1      1507    3    0    1
 -2       540       754       992      1857
 -1      1508    3    0    1
 -2       565       762      1849      1977
 -1      1509    3    0    1
 -2       477       899       898       720
 -1      1510    3    0    1
 -2      1399      1280      2626      2627
 -1      1511    3    0    1
 -2      2231      2616      2289      2629
 -1      1512    3    0    1
 -2      1687      1638      1804      1919
 -1      1513    3    0    1
 -2       355       230      2462      2161
 -1      1514    3    0    1
 -2      1089      1069      1820      1995
 -1      1515    3    0    1
 -2        68       726       728       906
 -1      1516    3    0    1
 -2      1050       591      1070      1731
 -1      1517    3    0    1
 -2       818       671      1184      1747
 -1      1518    3    0    1
 -2       517       516       510       956
 -1      1519    3    0    1
 -2      1196      1197      1670      2024
 -1      1520    3    0    1
 -2       657       658      1577      1581
 -1      1521    3    0    1
 -2       543       997      1692      1723
 -1      1522    3    0    1
 -2      1523       755      1763      2093
 -1      1523    3    0    1
 -2       817      1185      1662      1691
 -1      1524    3    0    1
 -2       407      1537      1705      1812
 -1      1525    3    0    1
 -2        14      1524      1997      2002
 -1      1526    3    0    1
 -2       679       824      1590      1654
 -1      1527    3    0    1
 -2       144       146       997      1692
 -1      1528    3    0    1
 -2      2116      1030      2172      2526
 -1      1529    3    0    1
 -2       365       152       162       756
 -1      1530    3    0    1
 -2       102       957       100       940
 -1      1531    3    0    1
 -2      1568       532      1772      1905
 -1      1532    3    0    1
 -2       197      1047       188       340
 -1      1533    3    0    1
 -2       324       148      1658      1665
 -1      1534    3    0    1
 -2      1533      1586      1778      1966
 -1      1535    3    0    1
 -2       335      1519      1622      1659
 -1      1536    3    0    1
 -2      1197       310       319      2024
 -1      1537    3    0    1
 -2       181      1030       169       347
 -1      1538    3    0    1
 -2       338       146      2104      2475
 -1      1539    3    0    1
 -2       164       153       755      1014
 -1      1540    3    0    1
 -2       694      1640      1711      1713
 -1      1541    3    0    1
 -2      2223      1301      2587      1393
 -1      1542    3    0    1
 -2      1214       442       443      1976
 -1      1543    3    0    1
 -2       561      1024       761      1028
 -1      1544    3    0    1
 -2      1646      1634      1750      1780
 -1      1545    3    0    1
 -2       146       137       144       997
 -1      1546    3    0    1
 -2       685       686      1869      2020
 -1      1547    3    0    1
 -2       365       166      1980      2105
 -1      1548    3    0    1
 -2      2467      2051      2168      2607
 -1      1549    3    0    1
 -2       143       994       135       328
 -1      1550    3    0    1
 -2      1071       592       591      1935
 -1      1551    3    0    1
 -2       816       670      1680      1880
 -1      1552    3    0    1
 -2      1172      1173      1616      1897
 -1      1553    3    0    1
 -2       173      1028      1024       329
 -1      1554    3    0    1
 -2      1561       826      1679      1745
 -1      1555    3    0    1
 -2      1585      1558      1590      1607
 -1      1556    3    0    1
 -2       385       274       280      1143
 -1      1557    3    0    1
 -2       943        91      1945      2021
 -1      1558    3    0    1
 -2      1106       616       615      1735
 -1      1559    3    0    1
 -2       149      1579      1658      1704
 -1      1560    3    0    1
 -2        51       903        49       891
 -1      1561    3    0    1
 -2       823       821      1559      1683
 -1      1562    3    0    1
 -2      1151      1152      1572      1959
 -1      1563    3    0    1
 -2       242       781      1107      1108
 -1      1564    3    0    1
 -2        82        90       941      2498
 -1      1565    3    0    1
 -2       867        14      1997      2464
 -1      1566    3    0    1
 -2       353       128       744      2459
 -1      1567    3    0    1
 -2      1736      2057      2467      2479
 -1      1568    3    0    1
 -2       343       144       997      2459
 -1      1569    3    0    1
 -2       450       711       449       707
 -1      1570    3    0    1
 -2       375       259       257      1124
 -1      1571    3    0    1
 -2      1187       674      1718      1752
 -1      1572    3    0    1
 -2      2677      1236      2430      2447
 -1      1573    3    0    1
 -2      1138       790       629       794
 -1      1574    3    0    1
 -2       687      1204       688      1643
 -1      1575    3    0    1
 -2      1272      1011      2564      2613
 -1      1576    3    0    1
 -2      2045      2046      2063      2144
 -1      1577    3    0    1
 -2      1599       830      1643      1719
 -1      1578    3    0    1
 -2      2700       238      1503      2446
 -1      1579    3    0    1
 -2       689       832      1657      1769
 -1      1580    3    0    1
 -2      1530       994      1632      1734
 -1      1581    3    0    1
 -2       317      1195      1959      1960
 -1      1582    3    0    1
 -2      1611       816      1680      1880
 -1      1583    3    0    1
 -2      1640      1610      1713      1878
 -1      1584    3    0    1
 -2       470       882      1555      1810
 -1      1585    3    0    1
 -2      1518       425      1775      1809
 -1      1586    3    0    1
 -2       779      1102      1091       249
 -1      1587    3    0    1
 -2        88        82       944      1721
 -1      1588    3    0    1
 -2      1610      1565      1711      1713
 -1      1589    3    0    1
 -2       549       754       552      1010
 -1      1590    3    0    1
 -2       178       170       175      1031
 -1      1591    3    0    1
 -2       177       180      2134      2496
 -1      1592    3    0    1
 -2       690       849      1206      1688
 -1      1593    3    0    1
 -2      1596       800      1895      1937
 -1      1594    3    0    1
 -2       566      1028      1830      1840
 -1      1595    3    0    1
 -2       977       126       120      1811
 -1      1596    3    0    1
 -2      1668       799      1700      1889
 -1      1597    3    0    1
 -2       113       115       959      1755
 -1      1598    3    0    1
 -2      1544      1181      1609      1706
 -1      1599    3    0    1
 -2      1084       230      1080      1827
 -1      1600    3    0    1
 -2      1084       370      2157      2184
 -1      1601    3    0    1
 -2      1948       898      2123      2139
 -1      1602    3    0    1
 -2       595      1080       594       774
 -1      1603    3    0    1
 -2      1678      1709      2050      2051
 -1      1604    3    0    1
 -2       994       542       990      1632
 -1      1605    3    0    1
 -2       154      1015       152      1003
 -1      1606    3    0    1
 -2       564       577      1675      2113
 -1      1607    3    0    1
 -2      1031      1032      1844      1923
 -1      1608    3    0    1
 -2      2505      1025      1269      1270
 -1      1609    3    0    1
 -2       188      1565      1717      1738
 -1      1610    3    0    1
 -2      1594      1574      1702      1807
 -1      1611    3    0    1
 -2      1831       915      2102      2158
 -1      1612    3    0    1
 -2       507       942       943      1739
 -1      1613    3    0    1
 -2      1574      1527      1578      1652
 -1      1614    3    0    1
 -2        89        87        93       931
 -1      1615    3    0    1
 -2      1588      1655      1663      1809
 -1      1616    3    0    1
 -2      1100      1608      1732      1765
 -1      1617    3    0    1
 -2      1652       326      1748      1807
 -1      1618    3    0    1
 -2      1520       399      1782      1971
 -1      1619    3    0    1
 -2      1197      1670      1715      1879
 -1      1620    3    0    1
 -2       422       265       260      1126
 -1      1621    3    0    1
 -2       640       631       639      1142
 -1      1622    3    0    1
 -2      1670      1197      1715      2024
 -1      1623    3    0    1
 -2      2121      2122      2485      2525
 -1      1624    3    0    1
 -2       690      1206      1686      1688
 -1      1625    3    0    1
 -2      1184       671      1691      1747
 -1      1626    3    0    1
 -2      1700      1548      1705      1743
 -1      1627    3    0    1
 -2       450       711       457       449
 -1      1628    3    0    1
 -2       115       348       953      1755
 -1      1629    3    0    1
 -2      1306      1333      2618      2651
 -1      1630    3    0    1
 -2       397       314      1664      1852
 -1      1631    3    0    1
 -2        14       384      2002      2061
 -1      1632    3    0    1
 -2       932        95      1520      1791
 -1      1633    3    0    1
 -2        67      1592      1613      1794
 -1      1634    3    0    1
 -2       382      1641      1847      1940
 -1      1635    3    0    1
 -2       180       166      2105      2496
 -1      1636    3    0    1
 -2      1164       294      1621      1638
 -1      1637    3    0    1
 -2       648      1156      1700      1776
 -1      1638    3    0    1
 -2      1561      1188      1745      1752
 -1      1639    3    0    1
 -2       541       537       540      2236
 -1      1640    3    0    1
 -2       326      1529      1652      1748
 -1      1641    3    0    1
 -2       451       712       460       459
 -1      1642    3    0    1
 -2        12       711       707         5
 -1      1643    3    0    1
 -2      1884       903      2174      2527
 -1      1644    3    0    1
 -2      2468      1234      1235      2504
 -1      1645    3    0    1
 -2      2268      2507      2615      2721
 -1      1646    3    0    1
 -2       230      1084       370      1827
 -1      1647    3    0    1
 -2      1694      1552      1885      1891
 -1      1648    3    0    1
 -2      1611      1589      1714      1880
 -1      1649    3    0    1
 -2      2332      1240      1289      2662
 -1      1650    3    0    1
 -2        19       712         5       430
 -1      1651    3    0    1
 -2      1673      1563      1762      1815
 -1      1652    3    0    1
 -2        19       712       708         5
 -1      1653    3    0    1
 -2      1227      2497      1262      2597
 -1      1654    3    0    1
 -2         5        12        14       867
 -1      1655    3    0    1
 -2       937      2515      1295      2653
 -1      1656    3    0    1
 -2      1849       754      1857      2132
 -1      1657    3    0    1
 -2      1462      2619      2708      2736
 -1      1658    3    0    1
 -2        16       858       864      1837
 -1      1659    3    0    1
 -2       629      1138       794       636
 -1      1660    3    0    1
 -2       329      1569      1785      1830
 -1      1661    3    0    1
 -2        12       711         5        14
 -1      1662    3    0    1
 -2         5       707       705       711
 -1      1663    3    0    1
 -2         5       861        10       711
 -1      1664    3    0    1
 -2       707       449       705       711
 -1      1665    3    0    1
 -2       449       861       705       711
 -1      1666    3    0    1
 -2      2485      2520      2551      2642
 -1      1667    3    0    1
 -2      1928      2106      2484      2485
 -1      1668    3    0    1
 -2        85       398      1542      1802
 -1      1669    3    0    1
 -2       816       814      1611      1680
 -1      1670    3    0    1
 -2       718       903      1884      2527
 -1      1671    3    0    1
 -2      2642      1463      2644      2706
 -1      1672    3    0    1
 -2      2473      2106      2532      2533
 -1      1673    3    0    1
 -2       955       958       516      2240
 -1      1674    3    0    1
 -2      1590      1559      1644      1654
 -1      1675    3    0    1
 -2      1615       419      1685      1870
 -1      1676    3    0    1
 -2      1062       587      1808      2035
 -1      1677    3    0    1
 -2       695      1213       701      1549
 -1      1678    3    0    1
 -2       463       471       472       717
 -1      1679    3    0    1
 -2        33       885       718       873
 -1      1680    3    0    1
 -2        37        24        27       717
 -1      1681    3    0    1
 -2        38        24        37       717
 -1      1682    3    0    1
 -2       466       880       876       465
 -1      1683    3    0    1
 -2        25        31       432       718
 -1      1684    3    0    1
 -2       590      1068      1808      1874
 -1      1685    3    0    1
 -2      1182       667       668      1604
 -1      1686    3    0    1
 -2       479       473       482       722
 -1      1687    3    0    1
 -2        42       890       722       887
 -1      1688    3    0    1
 -2        42        43       407       722
 -1      1689    3    0    1
 -2       474       896       890       473
 -1      1690    3    0    1
 -2        40       901        50        39
 -1      1691    3    0    1
 -2        46        49       433       903
 -1      1692    3    0    1
 -2        57        45        39       723
 -1      1693    3    0    1
 -2        39        54        57       723
 -1      1694    3    0    1
 -2      1149      1148      1662      1693
 -1      1695    3    0    1
 -2       473       890       887       722
 -1      1696    3    0    1
 -2        39       723       886       893
 -1      1697    3    0    1
 -2        39        54       723       893
 -1      1698    3    0    1
 -2        52        46       724       892
 -1      1699    3    0    1
 -2        73       922       727        60
 -1      1700    3    0    1
 -2       112       960       113       101
 -1      1701    3    0    1
 -2        90        97        78       924
 -1      1702    3    0    1
 -2      1574      1652      1748      1807
 -1      1703    3    0    1
 -2       372       371        68       728
 -1      1704    3    0    1
 -2        68       371        75       728
 -1      1705    3    0    1
 -2       627      1833      1914      2013
 -1      1706    3    0    1
 -2        80       933        77       929
 -1      1707    3    0    1
 -2        94        79        91       732
 -1      1708    3    0    1
 -2       145       750       985       997
 -1      1709    3    0    1
 -2       514       737       509       520
 -1      1710    3    0    1
 -2       105       737       348       104
 -1      1711    3    0    1
 -2       519       509       520       738
 -1      1712    3    0    1
 -2       103       738       735       102
 -1      1713    3    0    1
 -2      2625      2641      2648      2652
 -1      1714    3    0    1
 -2       513       512       515       736
 -1      1715    3    0    1
 -2      1571      1609      1647      1677
 -1      1716    3    0    1
 -2       512       515       518       953
 -1      1717    3    0    1
 -2      1707       976      1728      1773
 -1      1718    3    0    1
 -2      1597      1612      1661      1756
 -1      1719    3    0    1
 -2       743       120       978      1905
 -1      1720    3    0    1
 -2       101       960       113       399
 -1      1721    3    0    1
 -2       735       961       100       738
 -1      1722    3    0    1
 -2       105       737       104       734
 -1      1723    3    0    1
 -2       104       348       115       737
 -1      1724    3    0    1
 -2       771      1045      2009      2135
 -1      1725    3    0    1
 -2       104       112       734       737
 -1      1726    3    0    1
 -2       100       102       735       738
 -1      1727    3    0    1
 -2      1470      1457      2745      2457
 -1      1728    3    0    1
 -2      2244      2541      2250      2261
 -1      1729    3    0    1
 -2       723       484      1939      1990
 -1      1730    3    0    1
 -2       345       148      1602      1753
 -1      1731    3    0    1
 -2       782       613      1886      2092
 -1      1732    3    0    1
 -2       860       456       862      1915
 -1      1733    3    0    1
 -2        89        88      1865      2110
 -1      1734    3    0    1
 -2      1404      2223      2296      2672
 -1      1735    3    0    1
 -2       314      1645      1664      1852
 -1      1736    3    0    1
 -2      1540      1645      1730      1852
 -1      1737    3    0    1
 -2       850       834      1887      1976
 -1      1738    3    0    1
 -2       523       979       967       744
 -1      1739    3    0    1
 -2      1691      1553      1747      1970
 -1      1740    3    0    1
 -2       344       120       132       743
 -1      1741    3    0    1
 -2      1043       188      1047      1717
 -1      1742    3    0    1
 -2       442       833      1908      1976
 -1      1743    3    0    1
 -2       436      1927      2084      2477
 -1      1744    3    0    1
 -2       589      2009      2069      2098
 -1      1745    3    0    1
 -2      1556      1615      1628      1790
 -1      1746    3    0    1
 -2       120       132       743       969
 -1      1747    3    0    1
 -2       128       968       129       123
 -1      1748    3    0    1
 -2       128       968       123       744
 -1      1749    3    0    1
 -2       419      1615      1867      1870
 -1      1750    3    0    1
 -2       292      1668      1724      1889
 -1      1751    3    0    1
 -2       335       976       119       972
 -1      1752    3    0    1
 -2      2205      1277      2227      2228
 -1      1753    3    0    1
 -2       538       748       537       540
 -1      1754    3    0    1
 -2       997       536       750       985
 -1      1755    3    0    1
 -2       324       139       149       749
 -1      1756    3    0    1
 -2       150       139       324       749
 -1      1757    3    0    1
 -2        56       433      2128      2175
 -1      1758    3    0    1
 -2       992       746       137       988
 -1      1759    3    0    1
 -2       145       146       138       750
 -1      1760    3    0    1
 -2       150       139       749       987
 -1      1761    3    0    1
 -2       138       145       750       986
 -1      1762    3    0    1
 -2       536       750       985       986
 -1      1763    3    0    1
 -2       551      1012       545       554
 -1      1764    3    0    1
 -2      2069      1066      2098      2486
 -1      1765    3    0    1
 -2      1951       900      2147       481
 -1      1766    3    0    1
 -2       538       992       748       540
 -1      1767    3    0    1
 -2      1329      1330      2584      1365
 -1      1768    3    0    1
 -2      1655      1562      1767      1912
 -1      1769    3    0    1
 -2      1352      1418      1419      2636
 -1      1770    3    0    1
 -2       548       547       556       755
 -1      1771    3    0    1
 -2       163      1014       153       325
 -1      1772    3    0    1
 -2       547       555       556       755
 -1      1773    3    0    1
 -2       954       736       515      1981
 -1      1774    3    0    1
 -2       345       344       996      1753
 -1      1775    3    0    1
 -2       331       156       165       755
 -1      1776    3    0    1
 -2       156       331       164       755
 -1      1777    3    0    1
 -2       545      1012      1008       999
 -1      1778    3    0    1
 -2       644       643      1693      1894
 -1      1779    3    0    1
 -2       160      1008       159      1002
 -1      1780    3    0    1
 -2       180       177       183       759
 -1      1781    3    0    1
 -2       177       179       183       759
 -1      1782    3    0    1
 -2       172      1032       760       170
 -1      1783    3    0    1
 -2       759       177      1030      1033
 -1      1784    3    0    1
 -2       653       801      1804      1919
 -1      1785    3    0    1
 -2      1790       850      1887      1976
 -1      1786    3    0    1
 -2      2460       991       993      2094
 -1      1787    3    0    1
 -2       749       555      1014      1704
 -1      1788    3    0    1
 -2       738       520      1593      1953
 -1      1789    3    0    1
 -2      1648       296      1793      1853
 -1      1790    3    0    1
 -2      1108       254      1798      1958
 -1      1791    3    0    1
 -2       563       561       566      1028
 -1      1792    3    0    1
 -2      2472      1009      1219      1220
 -1      1793    3    0    1
 -2      1534      1601      1610      1878
 -1      1794    3    0    1
 -2      1731       591      1899      1935
 -1      1795    3    0    1
 -2       186      1052       360       185
 -1      1796    3    0    1
 -2       769      1065      1053       209
 -1      1797    3    0    1
 -2       199       200       195       766
 -1      1798    3    0    1
 -2      2060      2099      2148      2507
 -1      1799    3    0    1
 -2       585      1068      1060       584
 -1      1800    3    0    1
 -2       249      1102       437       782
 -1      1801    3    0    1
 -2       609      1102       613       608
 -1      1802    3    0    1
 -2       797       413      1537      1729
 -1      1803    3    0    1
 -2       990       141      1632      1702
 -1      1804    3    0    1
 -2       212       772       208       215
 -1      1805    3    0    1
 -2        90        82      2044      2498
 -1      1806    3    0    1
 -2       212       772       770       208
 -1      1807    3    0    1
 -2       596      1082      1076       776
 -1      1808    3    0    1
 -2       199      1048      1846      1924
 -1      1809    3    0    1
 -2      1866        46      1990      2120
 -1      1810    3    0    1
 -2       583       771       582       769
 -1      1811    3    0    1
 -2       581      1070       591       592
 -1      1812    3    0    1
 -2      1518      1563      1762      1775
 -1      1813    3    0    1
 -2       209      1071       205       359
 -1      1814    3    0    1
 -2      2226      2606      2293      2364
 -1      1815    3    0    1
 -2       341       323      1713      1879
 -1      1816    3    0    1
 -2       215       208       356       772
 -1      1817    3    0    1
 -2      1258      2563      2612      2709
 -1      1818    3    0    1
 -2       597      1087      1077       596
 -1      1819    3    0    1
 -2       921      1689      1938      1945
 -1      1820    3    0    1
 -2       416      1639      1746      1943
 -1      1821    3    0    1
 -2       784      1120       788       617
 -1      1822    3    0    1
 -2       593       598       604       777
 -1      1823    3    0    1
 -2       603       593       604       777
 -1      1824    3    0    1
 -2       374       922      1689      2022
 -1      1825    3    0    1
 -2       323      1209       341      1713
 -1      1826    3    0    1
 -2       370       237       228       777
 -1      1827    3    0    1
 -2       228       237       233       777
 -1      1828    3    0    1
 -2      1352      2583      1418      2636
 -1      1829    3    0    1
 -2      2044      1949      2136      2498
 -1      1830    3    0    1
 -2       255       242      1107      1108
 -1      1831    3    0    1
 -2       252       251       253       780
 -1      1832    3    0    1
 -2       252      1109       256       251
 -1      1833    3    0    1
 -2       243      1108       781       242
 -1      1834    3    0    1
 -2       780       251      1106      1109
 -1      1835    3    0    1
 -2       594      1084      1080       600
 -1      1836    3    0    1
 -2      1537      1642      1729      1984
 -1      1837    3    0    1
 -2       144       343      2080      2096
 -1      1838    3    0    1
 -2       972       335      1519      2028
 -1      1839    3    0    1
 -2       941       961      1795      2498
 -1      1840    3    0    1
 -2      2472      1220      2501      2540
 -1      1841    3    0    1
 -2       654      1165      1621      1638
 -1      1842    3    0    1
 -2       605      1106       616       615
 -1      1843    3    0    1
 -2       619      1124       627      1127
 -1      1844    3    0    1
 -2       249      1106       251       437
 -1      1845    3    0    1
 -2       620      1127      1114       619
 -1      1846    3    0    1
 -2       268      1124       785       259
 -1      1847    3    0    1
 -2       680       679       825      1654
 -1      1848    3    0    1
 -2      1562      1572      1959      1960
 -1      1849    3    0    1
 -2      1610       340      1717      1878
 -1      1850    3    0    1
 -2      1526      1757      1785      1876
 -1      1851    3    0    1
 -2       407      1770      1812      1816
 -1      1852    3    0    1
 -2      1324      2182      2571      1386
 -1      1853    3    0    1
 -2       618       788       617       784
 -1      1854    3    0    1
 -2      1279      2231      2616      1452
 -1      1855    3    0    1
 -2       286       796       274       390
 -1      1856    3    0    1
 -2       286       796       791       274
 -1      1857    3    0    1
 -2      1566      1543      1583      2007
 -1      1858    3    0    1
 -2       277      1140       276       416
 -1      1859    3    0    1
 -2       631       795      1131      1142
 -1      1860    3    0    1
 -2       777      1090      1827      2004
 -1      1861    3    0    1
 -2      1521      1631      1641      1765
 -1      1862    3    0    1
 -2      2515      2546      2653      2661
 -1      1863    3    0    1
 -2       158       753      2199      2211
 -1      1864    3    0    1
 -2      1289      2512      1290      2554
 -1      1865    3    0    1
 -2       807       663      1179      1684
 -1      1866    3    0    1
 -2      1680      1546      1880      1883
 -1      1867    3    0    1
 -2       630       794       629       790
 -1      1868    3    0    1
 -2      1938       728      2156      2513
 -1      1869    3    0    1
 -2       301      1180       336      1966
 -1      1870    3    0    1
 -2       285       278       283       795
 -1      1871    3    0    1
 -2       418       278       285       795
 -1      1872    3    0    1
 -2       148       345      1658      1753
 -1      1873    3    0    1
 -2       401       302      1157      1544
 -1      1874    3    0    1
 -2       645      1152       646      1572
 -1      1875    3    0    1
 -2      1545      1540      1645      1730
 -1      1876    3    0    1
 -2       230       370       777      1827
 -1      1877    3    0    1
 -2      1135      1141      1584      1972
 -1      1878    3    0    1
 -2      1764      1841      1846      1924
 -1      1879    3    0    1
 -2      1569       329      1620      1830
 -1      1880    3    0    1
 -2      1575      1532      1768      1921
 -1      1881    3    0    1
 -2       920       373      1689      2022
 -1      1882    3    0    1
 -2       565       552      1027      2066
 -1      1883    3    0    1
 -2      1770        43      1787      1930
 -1      1884    3    0    1
 -2       408      1669      1768      1771
 -1      1885    3    0    1
 -2      2159      1736      2479      2482
 -1      1886    3    0    1
 -2        16       391      1837      1963
 -1      1887    3    0    1
 -2       228       777      1074      1090
 -1      1888    3    0    1
 -2       703      1790      1887      1975
 -1      1889    3    0    1
 -2       490       923       485       495
 -1      1890    3    0    1
 -2       497       941       508       507
 -1      1891    3    0    1
 -2      1118       419      1631      1867
 -1      1892    3    0    1
 -2      1032       567      1844      1918
 -1      1893    3    0    1
 -2      1029       178       175      1722
 -1      1894    3    0    1
 -2       502       944       497       507
 -1      1895    3    0    1
 -2       673      1188       819      1718
 -1      1896    3    0    1
 -2       642      1633      1729      1737
 -1      1897    3    0    1
 -2      1703      1615      1790      1870
 -1      1898    3    0    1
 -2      1819      1674      1874      1962
 -1      1899    3    0    1
 -2       526       974       525       528
 -1      1900    3    0    1
 -2      1861        18      1947      2012
 -1      1901    3    0    1
 -2      1656      1906      1929      1930
 -1      1902    3    0    1
 -2       522       971       521       965
 -1      1903    3    0    1
 -2      1551      1539      1592      1794
 -1      1904    3    0    1
 -2       285       418       795      2001
 -1      1905    3    0    1
 -2      1540      1616      1664      1852
 -1      1906    3    0    1
 -2       505      1580      2052      2102
 -1      1907    3    0    1
 -2       687      1205       830      1643
 -1      1908    3    0    1
 -2       668      1604      1788      1897
 -1      1909    3    0    1
 -2      1720      1815      1875      1994
 -1      1910    3    0    1
 -2       398      1542      1783      1814
 -1      1911    3    0    1
 -2       672      1185      1691      1747
 -1      1912    3    0    1
 -2      1823      1535      1838      2041
 -1      1913    3    0    1
 -2       511       956       510       516
 -1      1914    3    0    1
 -2      1808       346      1899      1913
 -1      1915    3    0    1
 -2       919       393      1656      1929
 -1      1916    3    0    1
 -2      1808       587      1978      2035
 -1      1917    3    0    1
 -2      1531      1586      1611      1659
 -1      1918    3    0    1
 -2       942       497       507       943
 -1      1919    3    0    1
 -2      1050       580      1731      1888
 -1      1920    3    0    1
 -2      1602       542      1623      1734
 -1      1921    3    0    1
 -2      2059      2060      2099      2469
 -1      1922    3    0    1
 -2      1541      1603      1616      1617
 -1      1923    3    0    1
 -2      1624      1569      1821      1822
 -1      1924    3    0    1
 -2      1024       342      1799      1839
 -1      1925    3    0    1
 -2      1533      1712      1778      1826
 -1      1926    3    0    1
 -2       111       110       738      1593
 -1      1927    3    0    1
 -2       523       979       744       531
 -1      1928    3    0    1
 -2      1105      1099      1987      2031
 -1      1929    3    0    1
 -2       414       859      1591      1836
 -1      1930    3    0    1
 -2      2504      2544      2575      2648
 -1      1931    3    0    1
 -2      1676       601      1781      2162
 -1      1932    3    0    1
 -2      1547      1636      1716      1769
 -1      1933    3    0    1
 -2       736       106      1583      1681
 -1      1934    3    0    1
 -2      1533      1586      1760      1778
 -1      1935    3    0    1
 -2      1566       106      1571      1677
 -1      1936    3    0    1
 -2      1562      1588      1655      1663
 -1      1937    3    0    1
 -2       418       282       275      1142
 -1      1938    3    0    1
 -2       420       419      1557      1595
 -1      1939    3    0    1
 -2       913       920      1689      1803
 -1      1940    3    0    1
 -2      1152       646      1572      1786
 -1      1941    3    0    1
 -2       268      1124       259       271
 -1      1942    3    0    1
 -2         5       861       711       705
 -1      1943    3    0    1
 -2       862      2468      1234      1235
 -1      1944    3    0    1
 -2      1585      1558      1607      1725
 -1      1945    3    0    1
 -2       241      1106       437       436
 -1      1946    3    0    1
 -2      1543      1596      1937      2007
 -1      1947    3    0    1
 -2      2318      2255      2377      2414
 -1      1948    3    0    1
 -2       230       777      1090      1827
 -1      1949    3    0    1
 -2       148       345       996      1658
 -1      1950    3    0    1
 -2      1587       340      1601      1878
 -1      1951    3    0    1
 -2      2148      2099      2469      2507
 -1      1952    3    0    1
 -2       305       823       821      1559
 -1      1953    3    0    1
 -2       669       816       670      1680
 -1      1954    3    0    1
 -2      1537      1729      1776      1812
 -1      1955    3    0    1
 -2      1203      1643      1696      1204
 -1      1956    3    0    1
 -2      1141       282      1135      2001
 -1      1957    3    0    1
 -2      1662      1149      1693      1894
 -1      1958    3    0    1
 -2       300       299       814      1611
 -1      1959    3    0    1
 -2      1105      1094       607      1099
 -1      1960    3    0    1
 -2      1820      1069      1899      1995
 -1      1961    3    0    1
 -2       608      1102       613       612
 -1      1962    3    0    1
 -2       551      1624      1822      1925
 -1      1963    3    0    1
 -2      1751       551      1821      1822
 -1      1964    3    0    1
 -2      1190       675      1189      1845
 -1      1965    3    0    1
 -2      1555      1528      1591      1836
 -1      1966    3    0    1
 -2       728       944      2156      2513
 -1      1967    3    0    1
 -2        85       938      1802      1999
 -1      1968    3    0    1
 -2       226      1634      1750      1806
 -1      1969    3    0    1
 -2       539      1579      1626      1964
 -1      1970    3    0    1
 -2       659      1171      1616      1852
 -1      1971    3    0    1
 -2       977       527       530      1983
 -1      1972    3    0    1
 -2       992       748       540      1598
 -1      1973    3    0    1
 -2       180       177       759      1033
 -1      1974    3    0    1
 -2       550      1010       549       552
 -1      1975    3    0    1
 -2      1529      1643      1719      1829
 -1      1976    3    0    1
 -2      1712      1597      1778      1826
 -1      1977    3    0    1
 -2      2133      2115      2491      2734
 -1      1978    3    0    1
 -2      2472      1766      2500      2548
 -1      1979    3    0    1
 -2       679      1194       824      1654
 -1      1980    3    0    1
 -2       743       532      1568      1905
 -1      1981    3    0    1
 -2       302      1544      1609      1647
 -1      1982    3    0    1
 -2      1253      2535      1297      2717
 -1      1983    3    0    1
 -2      1048      1764      1846      1924
 -1      1984    3    0    1
 -2       748       541       540      1598
 -1      1985    3    0    1
 -2       106      1566      1571      1583
 -1      1986    3    0    1
 -2       475       902       483       723
 -1      1987    3    0    1
 -2      1637      1556      1779      1943
 -1      1988    3    0    1
 -2       527       972      1622      1623
 -1      1989    3    0    1
 -2       995       539       542      1665
 -1      1990    3    0    1
 -2       131       737       978      1953
 -1      1991    3    0    1
 -2       366      1042      1828      1874
 -1      1992    3    0    1
 -2       140       747      2214      2236
 -1      1993    3    0    1
 -2       149       325      1579      1704
 -1      1994    3    0    1
 -2      1537      1729      1812      1984
 -1      1995    3    0    1
 -2       828       309       315      1745
 -1      1996    3    0    1
 -2       269      1126       265       382
 -1      1997    3    0    1
 -2       619      1125       627       628
 -1      1998    3    0    1
 -2      1521      1122      1631      1765
 -1      1999    3    0    1
 -2       790      1138      1128       279
 -1      2000    3    0    1
 -2      1808       590      1874      1962
 -1      2001    3    0    1
 -2       824      1559      1590      1654
 -1      2002    3    0    1
 -2      1531      1589      1659      1714
 -1      2003    3    0    1
 -2       196       189      1048      1924
 -1      2004    3    0    1
 -2       389      1117      1872      1941
 -1      2005    3    0    1
 -2      1765       380      1847      1920
 -1      2006    3    0    1
 -2       281      1143       279      1132
 -1      2007    3    0    1
 -2       274       279       280      1143
 -1      2008    3    0    1
 -2       447      1526      1549      1599
 -1      2009    3    0    1
 -2       407       722      1770      1816
 -1      2010    3    0    1
 -2      2361      2363      2696      2391
 -1      2011    3    0    1
 -2      1701      1594       141      1661
 -1      2012    3    0    1
 -2      1707      1635       403       954
 -1      2013    3    0    1
 -2      1467      2691      1500      2733
 -1      2014    3    0    1
 -2       323       341       829      1879
 -1      2015    3    0    1
 -2      1610      1565      1713      1738
 -1      2016    3    0    1
 -2        61       913        60        66
 -1      2017    3    0    1
 -2      1668      1548      1700      1743
 -1      2018    3    0    1
 -2       643      1149       644      1693
 -1      2019    3    0    1
 -2      1686      1688      1943      1956
 -1      2020    3    0    1
 -2       882       408      1555      1771
 -1      2021    3    0    1
 -2       340      1565      1610      1717
 -1      2022    3    0    1
 -2      1023      1029      1722      1840
 -1      2023    3    0    1
 -2       296       846       837      1793
 -1      2024    3    0    1
 -2      1558      1607      1619      1919
 -1      2025    3    0    1
 -2       228       230       777      1090
 -1      2026    3    0    1
 -2        43      1787      1930      1984
 -1      2027    3    0    1
 -2      1663      1655      1775      1809
 -1      2028    3    0    1
 -2      2486      1066      2535      2568
 -1      2029    3    0    1
 -2      1636       408      1716      1771
 -1      2030    3    0    1
 -2       852       706      2201      2225
 -1      2031    3    0    1
 -2      1715      1670      1738      1879
 -1      2032    3    0    1
 -2       291       413       797      1729
 -1      2033    3    0    1
 -2      2545      2595      2650      2685
 -1      2034    3    0    1
 -2      1634      1646      1752      1780
 -1      2035    3    0    1
 -2       195       199       766      1051
 -1      2036    3    0    1
 -2      1538      1633      1642      1787
 -1      2037    3    0    1
 -2       569      1045      1041       576
 -1      2038    3    0    1
 -2      2059      1882      2118      2119
 -1      2039    3    0    1
 -2       585      1068       584       590
 -1      2040    3    0    1
 -2       231      1090       230      1074
 -1      2041    3    0    1
 -2       689      1210       831      1769
 -1      2042    3    0    1
 -2      1636      1567      1716      1769
 -1      2043    3    0    1
 -2       690       702       849      1688
 -1      2044    3    0    1
 -2      1674      1067      1819      1874
 -1      2045    3    0    1
 -2        91       396      1842      1900
 -1      2046    3    0    1
 -2       571      1049       579      1052
 -1      2047    3    0    1
 -2      1533      1778      1881      1966
 -1      2048    3    0    1
 -2      1558      1619      1687      1804
 -1      2049    3    0    1
 -2       496       507      1945      2156
 -1      2050    3    0    1
 -2       566       563      1028      1840
 -1      2051    3    0    1
 -2       341      1209      1565      1713
 -1      2052    3    0    1
 -2       560      1033      1030       567
 -1      2053    3    0    1
 -2      1698       128      2459      2096
 -1      2054    3    0    1
 -2      1592      1539      1613      1794
 -1      2055    3    0    1
 -2       156      1007       153       164
 -1      2056    3    0    1
 -2       570      1041       569       764
 -1      2057    3    0    1
 -2      1784      1543      1788      1814
 -1      2058    3    0    1
 -2       547      1005       998       755
 -1      2059    3    0    1
 -2       153      1005       156       755
 -1      2060    3    0    1
 -2      1117       623      1872      1941
 -1      2061    3    0    1
 -2       288       851      1563      1762
 -1      2062    3    0    1
 -2      1140       638      1136      1666
 -1      2063    3    0    1
 -2      1572      1562      1655      1663
 -1      2064    3    0    1
 -2       660       659      1616      1852
 -1      2065    3    0    1
 -2       188      1565      1738      1862
 -1      2066    3    0    1
 -2       828       682      1679      1767
 -1      2067    3    0    1
 -2      1530       994      1826       328
 -1      2068    3    0    1
 -2      1967       375      2150      2511
 -1      2069    3    0    1
 -2      1323      1218      2233      2253
 -1      2070    3    0    1
 -2       452       866       459       451
 -1      2071    3    0    1
 -2         8       865        16       866
 -1      2072    3    0    1
 -2        17       867       384        12
 -1      2073    3    0    1
 -2       463       884       471       717
 -1      2074    3    0    1
 -2         8       865       853         4
 -1      2075    3    0    1
 -2         4       865       391        16
 -1      2076    3    0    1
 -2      2540      2555      2613      2614
 -1      2077    3    0    1
 -2      1595      1557      1621      1703
 -1      2078    3    0    1
 -2      1606      1554      1746      1998
 -1      2079    3    0    1
 -2       428       216      1995      2035
 -1      2080    3    0    1
 -2       484       495       723      1939
 -1      2081    3    0    1
 -2      1689       396      1842      1945
 -1      2082    3    0    1
 -2       460       471       884      1850
 -1      2083    3    0    1
 -2       642      1145      1633      1737
 -1      2084    3    0    1
 -2       461       883       877       470
 -1      2085    3    0    1
 -2       678      1192      1683      1744
 -1      2086    3    0    1
 -2      1194       679       680      1654
 -1      2087    3    0    1
 -2       614       611      1104      1653
 -1      2088    3    0    1
 -2         8       865         4        16
 -1      2089    3    0    1
 -2       322      1213       842      1599
 -1      2090    3    0    1
 -2      2001       795      2017      2039
 -1      2091    3    0    1
 -2       700      1733      1756      1835
 -1      2092    3    0    1
 -2      1561      1522      1898      1912
 -1      2093    3    0    1
 -2      1156      1668      1700      1776
 -1      2094    3    0    1
 -2       938        85      1614      1999
 -1      2095    3    0    1
 -2      2578      2637      1451      2715
 -1      2096    3    0    1
 -2      2111      1917      2489      2523
 -1      2097    3    0    1
 -2       428       216      1069      1995
 -1      2098    3    0    1
 -2       339      1023      1722      1846
 -1      2099    3    0    1
 -2       449       861       711       456
 -1      2100    3    0    1
 -2      1545      1592      1613      1805
 -1      2101    3    0    1
 -2      2359      1496      2713      2729
 -1      2102    3    0    1
 -2      2580      2586      2630      2634
 -1      2103    3    0    1
 -2      1226      2509      2537      2538
 -1      2104    3    0    1
 -2      1160      1163      1597      1712
 -1      2105    3    0    1
 -2       453       458       455       863
 -1      2106    3    0    1
 -2       689       845       698      1657
 -1      2107    3    0    1
 -2       454       863       453       710
 -1      2108    3    0    1
 -2       859       453       455       863
 -1      2109    3    0    1
 -2       916       492      1865      1948
 -1      2110    3    0    1
 -2       516      1682      1801      2000
 -1      2111    3    0    1
 -2       454       864       453       458
 -1      2112    3    0    1
 -2       453       857       709       864
 -1      2113    3    0    1
 -2       858       453       709       864
 -1      2114    3    0    1
 -2       453       858       455       864
 -1      2115    3    0    1
 -2       857         8       709       864
 -1      2116    3    0    1
 -2         8       858       709       864
 -1      2117    3    0    1
 -2       858         8        16       864
 -1      2118    3    0    1
 -2      1537      1700      1705      1812
 -1      2119    3    0    1
 -2       433        56      2128      2130
 -1      2120    3    0    1
 -2         6       866       417        18
 -1      2121    3    0    1
 -2       854       451       853       866
 -1      2122    3    0    1
 -2       451       865       853       866
 -1      2123    3    0    1
 -2         8       854       853       866
 -1      2124    3    0    1
 -2       452       866       451       854
 -1      2125    3    0    1
 -2        17       867        12       855
 -1      2126    3    0    1
 -2        14        12       384       867
 -1      2127    3    0    1
 -2         5       855        12       867
 -1      2128    3    0    1
 -2       451       855       708       867
 -1      2129    3    0    1
 -2       712       451       708       867
 -1      2130    3    0    1
 -2       855         5       708       867
 -1      2131    3    0    1
 -2       868       883       870        24
 -1      2132    3    0    1
 -2        29       878       871        22
 -1      2133    3    0    1
 -2       714       880       876        25
 -1      2134    3    0    1
 -2        23       884       872        21
 -1      2135    3    0    1
 -2      2549      1256      2582      1354
 -1      2136    3    0    1
 -2        33       885       873        26
 -1      2137    3    0    1
 -2        26       885       431        34
 -1      2138    3    0    1
 -2       717       463       872       875
 -1      2139    3    0    1
 -2        21       717       872       875
 -1      2140    3    0    1
 -2        21        24       717       875
 -1      2141    3    0    1
 -2       366      1050      1913      2011
 -1      2142    3    0    1
 -2       714       880       465       876
 -1      2143    3    0    1
 -2      1784      1542      1814      2006
 -1      2144    3    0    1
 -2      1547      1210      1657      1769
 -1      2145    3    0    1
 -2      1555       408      1591      1771
 -1      2146    3    0    1
 -2       754       552      1010      1849
 -1      2147    3    0    1
 -2       462       877       461       868
 -1      2148    3    0    1
 -2       868       883       461       870
 -1      2149    3    0    1
 -2        29       878        22       408
 -1      2150    3    0    1
 -2        29       882       869       878
 -1      2151    3    0    1
 -2      2591      1370      1395      2716
 -1      2152    3    0    1
 -2       354      1412      1474      2699
 -1      2153    3    0    1
 -2      1206       445       446      1554
 -1      2154    3    0    1
 -2       312       406       802      1650
 -1      2155    3    0    1
 -2       914      1803      1805      1907
 -1      2156    3    0    1
 -2       958      2138      2471      2166
 -1      2157    3    0    1
 -2        49       899        46       433
 -1      2158    3    0    1
 -2      2098       588      2162      2519
 -1      2159    3    0    1
 -2       714       880        25       716
 -1      2160    3    0    1
 -2       880       714       465       716
 -1      2161    3    0    1
 -2       465       716       469       880
 -1      2162    3    0    1
 -2      1823      1535       329      1620
 -1      2163    3    0    1
 -2       462       882       461       467
 -1      2164    3    0    1
 -2       882       462       878       467
 -1      2165    3    0    1
 -2      1726       748      1789      2080
 -1      2166    3    0    1
 -2      1635       515      1858      1981
 -1      2167    3    0    1
 -2        24       883        21        38
 -1      2168    3    0    1
 -2       883        24       877        38
 -1      2169    3    0    1
 -2       868       883        24       877
 -1      2170    3    0    1
 -2       552       565      1849      2066
 -1      2171    3    0    1
 -2      1531      1179       300      1611
 -1      2172    3    0    1
 -2      1797      1674      1862      1994
 -1      2173    3    0    1
 -2        36        21       717       884
 -1      2174    3    0    1
 -2       717        21       872       884
 -1      2175    3    0    1
 -2       463       884       717       872
 -1      2176    3    0    1
 -2        36       392        21       884
 -1      2177    3    0    1
 -2        33       885        26        34
 -1      2178    3    0    1
 -2       885        33       718        34
 -1      2179    3    0    1
 -2        46       724       891       903
 -1      2180    3    0    1
 -2      1545        67      1613      1614
 -1      2181    3    0    1
 -2       641      1146       797      1737
 -1      2182    3    0    1
 -2       890        42       722       896
 -1      2183    3    0    1
 -2       973       528      1682      1789
 -1      2184    3    0    1
 -2        57        45       723      1944
 -1      2185    3    0    1
 -2       488       917       493       492
 -1      2186    3    0    1
 -2      2587      2512      2605      2672
 -1      2187    3    0    1
 -2        49       892       891        46
 -1      2188    3    0    1
 -2       475       892       724       891
 -1      2189    3    0    1
 -2        51       903        56        49
 -1      2190    3    0    1
 -2        13       414      1630      1973
 -1      2191    3    0    1
 -2      1180      1684      1881      1966
 -1      2192    3    0    1
 -2       479       901       482       473
 -1      2193    3    0    1
 -2       486       920       491       494
 -1      2194    3    0    1
 -2       664       807      1600      1684
 -1      2195    3    0    1
 -2       336      1966      1161       301
 -1      2196    3    0    1
 -2       106      1544      1571      1677
 -1      2197    3    0    1
 -2        50        40        39       902
 -1      2198    3    0    1
 -2       972      1622      1623      1749
 -1      2199    3    0    1
 -2       889       473       888       895
 -1      2200    3    0    1
 -2       473       901       888       895
 -1      2201    3    0    1
 -2      1122       626      1631      1641
 -1      2202    3    0    1
 -2      1612      1527      1733      1740
 -1      2203    3    0    1
 -2      1623      1622      1734      1749
 -1      2204    3    0    1
 -2      1593       520      1860      1953
 -1      2205    3    0    1
 -2      1082       226      1750      1806
 -1      2206    3    0    1
 -2      1777      2070      2555      2613
 -1      2207    3    0    1
 -2      2676      2252      2424      2744
 -1      2208    3    0    1
 -2      2193      2223      2587      2672
 -1      2209    3    0    1
 -2       625       624      1934      2525
 -1      2210    3    0    1
 -2      2517      1223      2518      2585
 -1      2211    3    0    1
 -2      1525      1530      1597      1826
 -1      2212    3    0    1
 -2        55        37      2018      2025
 -1      2213    3    0    1
 -2      1628      1556      1779      1870
 -1      2214    3    0    1
 -2       238      2691      1500      1501
 -1      2215    3    0    1
 -2      1426      1359      2396      1512
 -1      2216    3    0    1
 -2       477       894       720       898
 -1      2217    3    0    1
 -2        46       720       898       899
 -1      2218    3    0    1
 -2      1223      1224      2517      2518
 -1      2219    3    0    1
 -2       415      1576      1606      1859
 -1      2220    3    0    1
 -2        45        39        50       901
 -1      2221    3    0    1
 -2       627      1125      1126      2013
 -1      2222    3    0    1
 -2       748       541      1726      1789
 -1      2223    3    0    1
 -2       479       901       473       895
 -1      2224    3    0    1
 -2       895        39        45       901
 -1      2225    3    0    1
 -2        40       901        39       888
 -1      2226    3    0    1
 -2        45        39       723       902
 -1      2227    3    0    1
 -2        39        45        50       902
 -1      2228    3    0    1
 -2       659      1173       660      1616
 -1      2229    3    0    1
 -2       335      1649      1659      1749
 -1      2230    3    0    1
 -2       475       902       723       886
 -1      2231    3    0    1
 -2        50        55        40       902
 -1      2232    3    0    1
 -2        39        40       886       902
 -1      2233    3    0    1
 -2        56       433        49       903
 -1      2234    3    0    1
 -2       484       483       724      1990
 -1      2235    3    0    1
 -2       300      1611      1179       299
 -1      2236    3    0    1
 -2        61       921       907        59
 -1      2237    3    0    1
 -2        59       921       396        66
 -1      2238    3    0    1
 -2        68       916       372        62
 -1      2239    3    0    1
 -2      1754      2050      2051      2467
 -1      2240    3    0    1
 -2        71       919        65       393
 -1      2241    3    0    1
 -2       487       914       911       486
 -1      2242    3    0    1
 -2      1510      2431      2451      2456
 -1      2243    3    0    1
 -2       106      1635      1677      1681
 -1      2244    3    0    1
 -2      1213       322       447      1599
 -1      2245    3    0    1
 -2      1028       329      1624      1830
 -1      2246    3    0    1
 -2       673      1187       674      1718
 -1      2247    3    0    1
 -2      2138       958      2471      2502
 -1      2248    3    0    1
 -2      1731       591      1935      2010
 -1      2249    3    0    1
 -2      1542       933      1783      1802
 -1      2250    3    0    1
 -2       353       744      1772      2459
 -1      2251    3    0    1
 -2      1978      1868      1988      2035
 -1      2252    3    0    1
 -2       305      1194       307      1559
 -1      2253    3    0    1
 -2       306       424       822      1909
 -1      2254    3    0    1
 -2       487       913       909       910
 -1      2255    3    0    1
 -2       909        60       910       913
 -1      2256    3    0    1
 -2        60       920       373       913
 -1      2257    3    0    1
 -2       932        76        86       939
 -1      2258    3    0    1
 -2        65       914       908       911
 -1      2259    3    0    1
 -2       393      1805       914        67
 -1      2260    3    0    1
 -2       908       486       911       914
 -1      2261    3    0    1
 -2       486       919       494       914
 -1      2262    3    0    1
 -2      1594       990      1626      1702
 -1      2263    3    0    1
 -2      1558      1521      1607      1725
 -1      2264    3    0    1
 -2      2392      2278      2395      2396
 -1      2265    3    0    1
 -2      1293      1294      2568      2649
 -1      2266    3    0    1
 -2       932        86        92      1739
 -1      2267    3    0    1
 -2      1856      1009      2066      2472
 -1      2268    3    0    1
 -2       568      1761      1923      2116
 -1      2269    3    0    1
 -2      2591      1329      1370      2340
 -1      2270    3    0    1
 -2       657       805       658      1581
 -1      2271    3    0    1
 -2      1011      1271      1272      2564
 -1      2272    3    0    1
 -2        87       936        78        88
 -1      2273    3    0    1
 -2      1318      1317      1383      2604
 -1      2274    3    0    1
 -2      1369      2649      1482      1483
 -1      2275    3    0    1
 -2      2575      1373      1374      2641
 -1      2276    3    0    1
 -2        68       916        62       912
 -1      2277    3    0    1
 -2        62       904       912       916
 -1      2278    3    0    1
 -2        62       917       904       916
 -1      2279    3    0    1
 -2      1350      2230      2248      2271
 -1      2280    3    0    1
 -2       456       469      2114      2171
 -1      2281    3    0    1
 -2       914        65       908       919
 -1      2282    3    0    1
 -2      1916      2075      2150      2511
 -1      2283    3    0    1
 -2       486       919       914       908
 -1      2284    3    0    1
 -2       393       914       919        65
 -1      2285    3    0    1
 -2      1254      2559      1329      1330
 -1      2286    3    0    1
 -2      1736      1754      1832      2060
 -1      2287    3    0    1
 -2      1573      1656      1907      1929
 -1      2288    3    0    1
 -2       487       920       486       909
 -1      2289    3    0    1
 -2        60       920       913       909
 -1      2290    3    0    1
 -2      1582      1589      1880      1714
 -1      2291    3    0    1
 -2       844       694       841      1711
 -1      2292    3    0    1
 -2      2058      2059      2060      2099
 -1      2293    3    0    1
 -2        68       372       728       923
 -1      2294    3    0    1
 -2       395       296      1581      1853
 -1      2295    3    0    1
 -2        61       921        59        66
 -1      2296    3    0    1
 -2        61       921        66       922
 -1      2297    3    0    1
 -2       921        61       727       922
 -1      2298    3    0    1
 -2        60        61        66       922
 -1      2299    3    0    1
 -2       490       922       485       727
 -1      2300    3    0    1
 -2        60       373       374       922
 -1      2301    3    0    1
 -2        61        60       727       922
 -1      2302    3    0    1
 -2       921       485       496       922
 -1      2303    3    0    1
 -2        62       381        72       923
 -1      2304    3    0    1
 -2        62        68       726       923
 -1      2305    3    0    1
 -2       496       485       728       923
 -1      2306    3    0    1
 -2      2063      2492      2191      2198
 -1      2307    3    0    1
 -2      1015       162      1523      1800
 -1      2308    3    0    1
 -2       502       944       931       497
 -1      2309    3    0    1
 -2       331       755      1918      2093
 -1      2310    3    0    1
 -2      1570      1532      1743      1921
 -1      2311    3    0    1
 -2       755       556      1032      1918
 -1      2312    3    0    1
 -2       957       102       956       940
 -1      2313    3    0    1
 -2       512       959       953       518
 -1      2314    3    0    1
 -2       503       939       506       498
 -1      2315    3    0    1
 -2       302       401       809      1544
 -1      2316    3    0    1
 -2      1575      1548      1668      1743
 -1      2317    3    0    1
 -2       523       978       531       743
 -1      2318    3    0    1
 -2       928       498       927       932
 -1      2319    3    0    1
 -2       498       939       927       932
 -1      2320    3    0    1
 -2       932        76       927       928
 -1      2321    3    0    1
 -2       499       933       498       503
 -1      2322    3    0    1
 -2       498       929       926       933
 -1      2323    3    0    1
 -2       929        77       926       933
 -1      2324    3    0    1
 -2        77       938       926       933
 -1      2325    3    0    1
 -2       329      1569      1620      1785
 -1      2326    3    0    1
 -2      2493      2063      1258      2198
 -1      2327    3    0    1
 -2      1258      2492      2198      2557
 -1      2328    3    0    1
 -2      1028      1799      1830      1840
 -1      2329    3    0    1
 -2      1075       221      2205      2247
 -1      2330    3    0    1
 -2       100       957       110       111
 -1      2331    3    0    1
 -2       885       718       471      1911
 -1      2332    3    0    1
 -2       346      1808      1899      2035
 -1      2333    3    0    1
 -2        78       935       730       930
 -1      2334    3    0    1
 -2       500       930       730       935
 -1      2335    3    0    1
 -2       324       148       996      1658
 -1      2336    3    0    1
 -2      1569      1526      1620      1785
 -1      2337    3    0    1
 -2      1536      1832      2045      2046
 -1      2338    3    0    1
 -2      1622      1734      1749      1826
 -1      2339    3    0    1
 -2      2115      1708      2491      2734
 -1      2340    3    0    1
 -2       503       938       498       506
 -1      2341    3    0    1
 -2       498       938       933       926
 -1      2342    3    0    1
 -2      1099      1920      1987      2031
 -1      2343    3    0    1
 -2       995       542      1602      1665
 -1      2344    3    0    1
 -2       503       939       498       932
 -1      2345    3    0    1
 -2      1176       661      1578      1605
 -1      2346    3    0    1
 -2        79       939        76       927
 -1      2347    3    0    1
 -2      1166       653       654      1919
 -1      2348    3    0    1
 -2       523       969       743       524
 -1      2349    3    0    1
 -2      1146       642      1729      1737
 -1      2350    3    0    1
 -2       511       956       949       510
 -1      2351    3    0    1
 -2      1306      2522      2566      2620
 -1      2352    3    0    1
 -2        82        90        78       941
 -1      2353    3    0    1
 -2      1611      1531      1659      1714
 -1      2354    3    0    1
 -2        89        87       931       944
 -1      2355    3    0    1
 -2       502       943       497       732
 -1      2356    3    0    1
 -2        95        92        76       942
 -1      2357    3    0    1
 -2        76       732       925       942
 -1      2358    3    0    1
 -2       942       497       732       925
 -1      2359    3    0    1
 -2        91        79        86       943
 -1      2360    3    0    1
 -2        76        79       732       943
 -1      2361    3    0    1
 -2      1603      1173      1616      1852
 -1      2362    3    0    1
 -2        78        82       941       944
 -1      2363    3    0    1
 -2        82        78        88       944
 -1      2364    3    0    1
 -2       924        78       941       944
 -1      2365    3    0    1
 -2        89        88        87       944
 -1      2366    3    0    1
 -2        78       931        87       944
 -1      2367    3    0    1
 -2       931        78       924       944
 -1      2368    3    0    1
 -2       497       931       924       944
 -1      2369    3    0    1
 -2       941       497       924       944
 -1      2370    3    0    1
 -2       523       969       962       743
 -1      2371    3    0    1
 -2       566      1624      1822      1830
 -1      2372    3    0    1
 -2       302       809      1181      1544
 -1      2373    3    0    1
 -2      2060      2081      2482      2507
 -1      2374    3    0    1
 -2       112       959       113       104
 -1      2375    3    0    1
 -2       733       959       104       953
 -1      2376    3    0    1
 -2       106       950       107       952
 -1      2377    3    0    1
 -2       107       108       106       952
 -1      2378    3    0    1
 -2       146       750       997      1692
 -1      2379    3    0    1
 -2       895        57      1834      1944
 -1      2380    3    0    1
 -2      1163       293      1160      1597
 -1      2381    3    0    1
 -2       519       520       737      1860
 -1      2382    3    0    1
 -2       675      1190       676      1845
 -1      2383    3    0    1
 -2      1627       342      2008      2041
 -1      2384    3    0    1
 -2       513       953       512       733
 -1      2385    3    0    1
 -2       733       959       953       512
 -1      2386    3    0    1
 -2       959       733       104       951
 -1      2387    3    0    1
 -2       734       960       509       737
 -1      2388    3    0    1
 -2       108       954       106       952
 -1      2389    3    0    1
 -2      1066      1064       589      2098
 -1      2390    3    0    1
 -2      2490      2097      2179      2183
 -1      2391    3    0    1
 -2      1322      2284      1458      2410
 -1      2392    3    0    1
 -2      2688      2660      2691      2727
 -1      2393    3    0    1
 -2      1788      1543      1895      1937
 -1      2394    3    0    1
 -2      1107      1735      1847      2031
 -1      2395    3    0    1
 -2       716      1524      1993      2145
 -1      2396    3    0    1
 -2        10       712      1997      2127
 -1      2397    3    0    1
 -2       102       956       940       949
 -1      2398    3    0    1
 -2       940       510       949       956
 -1      2399    3    0    1
 -2       510       957       517       956
 -1      2400    3    0    1
 -2       510       957       956       940
 -1      2401    3    0    1
 -2       349       116      2465      2466
 -1      2402    3    0    1
 -2      1447      1341      1452      2439
 -1      2403    3    0    1
 -2       733       959       512       951
 -1      2404    3    0    1
 -2       953       104       115       959
 -1      2405    3    0    1
 -2      1526      1643      1757      1876
 -1      2406    3    0    1
 -2       112       959       104       951
 -1      2407    3    0    1
 -2       960       734       112       737
 -1      2408    3    0    1
 -2       735       961       509       947
 -1      2409    3    0    1
 -2       111       100       400       961
 -1      2410    3    0    1
 -2       114       961       100       947
 -1      2411    3    0    1
 -2       522       971       527       521
 -1      2412    3    0    1
 -2      2209      1325      2235      2255
 -1      2413    3    0    1
 -2       164       327      1014      1763
 -1      2414    3    0    1
 -2       523       968       524       744
 -1      2415    3    0    1
 -2      1014       555      1523      1763
 -1      2416    3    0    1
 -2       145       146       750       997
 -1      2417    3    0    1
 -2       118       968       967       744
 -1      2418    3    0    1
 -2       523       968       744       967
 -1      2419    3    0    1
 -2       133       979       349       118
 -1      2420    3    0    1
 -2       535       996       543       544
 -1      2421    3    0    1
 -2       123       974       353       118
 -1      2422    3    0    1
 -2       298      1178       334      1696
 -1      2423    3    0    1
 -2       527       977       530       521
 -1      2424    3    0    1
 -2      1192       677       678      1683
 -1      2425    3    0    1
 -2       864      1796      1837      2012
 -1      2426    3    0    1
 -2       392       391       865      1963
 -1      2427    3    0    1
 -2       381        72       923      2494
 -1      2428    3    0    1
 -2       533       995       539       542
 -1      2429    3    0    1
 -2       303       832      1567      1903
 -1      2430    3    0    1
 -2       521       977       964       971
 -1      2431    3    0    1
 -2       965       521       964       971
 -1      2432    3    0    1
 -2      1149       643      1148      1693
 -1      2433    3    0    1
 -2        46       724       903      1990
 -1      2434    3    0    1
 -2       722       479       896      1950
 -1      2435    3    0    1
 -2       121       972       119       966
 -1      2436    3    0    1
 -2       966       119       963       972
 -1      2437    3    0    1
 -2       521       966       963       972
 -1      2438    3    0    1
 -2       441       440      1740      1774
 -1      2439    3    0    1
 -2       978       126      1811      1905
 -1      2440    3    0    1
 -2       119       976       963       972
 -1      2441    3    0    1
 -2       335       976       404       119
 -1      2442    3    0    1
 -2      2485      1243      2570      2642
 -1      2443    3    0    1
 -2      1545      1540      1613      1645
 -1      2444    3    0    1
 -2       819      1188      1561      1718
 -1      2445    3    0    1
 -2      1521      1732      1765      1920
 -1      2446    3    0    1
 -2       123       974       118       970
 -1      2447    3    0    1
 -2       742       118       127       974
 -1      2448    3    0    1
 -2       118       742       740       974
 -1      2449    3    0    1
 -2       970       118       740       974
 -1      2450    3    0    1
 -2       742       525       740       974
 -1      2451    3    0    1
 -2       525       970       740       974
 -1      2452    3    0    1
 -2       527       976       521       530
 -1      2453    3    0    1
 -2      2503      2481      2564      2612
 -1      2454    3    0    1
 -2      1538      1551      1577      1961
 -1      2455    3    0    1
 -2      1148      1550      1662      1693
 -1      2456    3    0    1
 -2       829       341      1565      1879
 -1      2457    3    0    1
 -2       527       977       521       971
 -1      2458    3    0    1
 -2      1685       419      1867      1870
 -1      2459    3    0    1
 -2       125       977       120       964
 -1      2460    3    0    1
 -2       743       120       962       978
 -1      2461    3    0    1
 -2       126       125       120       978
 -1      2462    3    0    1
 -2       120       125       962       978
 -1      2463    3    0    1
 -2      1189      1190      1845      1902
 -1      2464    3    0    1
 -2       523       978       743       962
 -1      2465    3    0    1
 -2       131       125       126       978
 -1      2466    3    0    1
 -2       133       979       118       967
 -1      2467    3    0    1
 -2       349       127       118       979
 -1      2468    3    0    1
 -2       536       996       980       535
 -1      2469    3    0    1
 -2       147       996       980       136
 -1      2470    3    0    1
 -2       146       145       137       997
 -1      2471    3    0    1
 -2       536       996       749       980
 -1      2472    3    0    1
 -2       706      2201      2225      2237
 -1      2473    3    0    1
 -2       416      1639      1666      1746
 -1      2474    3    0    1
 -2       535       997       544       543
 -1      2475    3    0    1
 -2       547      1014       555       755
 -1      2476    3    0    1
 -2       536       997       544       535
 -1      2477    3    0    1
 -2       151       997       343       137
 -1      2478    3    0    1
 -2       536       997       750       544
 -1      2479    3    0    1
 -2       746       992       137       748
 -1      2480    3    0    1
 -2      1528      1636      1716      1771
 -1      2481    3    0    1
 -2       324       148       136       996
 -1      2482    3    0    1
 -2       954       515      1635      1981
 -1      2483    3    0    1
 -2       153      1013      1007      1000
 -1      2484    3    0    1
 -2       534       989       982       983
 -1      2485    3    0    1
 -2       373       374      1689      2022
 -1      2486    3    0    1
 -2       982       136       983       989
 -1      2487    3    0    1
 -2       136       995       148       989
 -1      2488    3    0    1
 -2      1151      1959       317      1152
 -1      2489    3    0    1
 -2       425      1063      1809      1978
 -1      2490    3    0    1
 -2       135       990       981       984
 -1      2491    3    0    1
 -2       981       533       984       990
 -1      2492    3    0    1
 -2       533       994       542       990
 -1      2493    3    0    1
 -2       990       135       981       994
 -1      2494    3    0    1
 -2       457       456       862      2237
 -1      2495    3    0    1
 -2       395       296       803      1581
 -1      2496    3    0    1
 -2      2033      2130      2174      2527
 -1      2497    3    0    1
 -2       746       992       538       988
 -1      2498    3    0    1
 -2       748       137       144       992
 -1      2499    3    0    1
 -2       145       992       137       988
 -1      2500    3    0    1
 -2       431      1524      2073      2145
 -1      2501    3    0    1
 -2       431       430      1524      2145
 -1      2502    3    0    1
 -2      1856      2094      2478      2613
 -1      2503    3    0    1
 -2       959       113      1755      1782
 -1      2504    3    0    1
 -2       795       640      2017      2039
 -1      2505    3    0    1
 -2      1653       244      1732      1104
 -1      2506    3    0    1
 -2       953       959      1782      1981
 -1      2507    3    0    1
 -2      1301      2540      2555      2579
 -1      2508    3    0    1
 -2       533       994       990       981
 -1      2509    3    0    1
 -2       135       990       141       994
 -1      2510    3    0    1
 -2       135       141       328       994
 -1      2511    3    0    1
 -2       534       995       533       982
 -1      2512    3    0    1
 -2       136       995       989       982
 -1      2513    3    0    1
 -2       749       150       980       996
 -1      2514    3    0    1
 -2       136       150       324       996
 -1      2515    3    0    1
 -2       536       996       535       544
 -1      2516    3    0    1
 -2       996       536       749       544
 -1      2517    3    0    1
 -2       345       136       148       996
 -1      2518    3    0    1
 -2       150       136       980       996
 -1      2519    3    0    1
 -2       536       997       535       985
 -1      2520    3    0    1
 -2       137       343       144       997
 -1      2521    3    0    1
 -2       137       145       985       997
 -1      2522    3    0    1
 -2       151       997       137       985
 -1      2523    3    0    1
 -2       156      1007      1001       153
 -1      2524    3    0    1
 -2       547      1004       548       756
 -1      2525    3    0    1
 -2       547      1015       756       555
 -1      2526    3    0    1
 -2       152      1004      1003       756
 -1      2527    3    0    1
 -2       547      1004       756      1003
 -1      2528    3    0    1
 -2       154      1015       337       152
 -1      2529    3    0    1
 -2      1766      2505      2524      2633
 -1      2530    3    0    1
 -2       155      1010       365       152
 -1      2531    3    0    1
 -2       356       772      1935      2462
 -1      2532    3    0    1
 -2      2053      2067      2470      2522
 -1      2533    3    0    1
 -2      1612      1527      1661      1733
 -1      2534    3    0    1
 -2      1556      1779      1943      1956
 -1      2535    3    0    1
 -2       164      1013      1007       153
 -1      2536    3    0    1
 -2      1216       693       839      2023
 -1      2537    3    0    1
 -2       562      1029      1023       566
 -1      2538    3    0    1
 -2       882       470      1669      1985
 -1      2539    3    0    1
 -2      1699      1167      1724      1889
 -1      2540    3    0    1
 -2       546      1007       545      1001
 -1      2541    3    0    1
 -2      1001       545      1000      1007
 -1      2542    3    0    1
 -2       153      1001      1000      1007
 -1      2543    3    0    1
 -2       545      1013      1000      1007
 -1      2544    3    0    1
 -2       546      1008       545       551
 -1      2545    3    0    1
 -2       545      1002       999      1008
 -1      2546    3    0    1
 -2      1615      1628      1790      1870
 -1      2547    3    0    1
 -2      1002       159       999      1008
 -1      2548    3    0    1
 -2       159      1012       999      1008
 -1      2549    3    0    1
 -2      2486      2521      2596      2656
 -1      2550    3    0    1
 -2      1381      1446      2376      2403
 -1      2551    3    0    1
 -2      2628      2542      2675      2698
 -1      2552    3    0    1
 -2       650      1596      1647      1937
 -1      2553    3    0    1
 -2      1825      2514      2553      2519
 -1      2554    3    0    1
 -2       562      1028       561       761
 -1      2555    3    0    1
 -2      1679       682       827      1767
 -1      2556    3    0    1
 -2       529       516      1682      1801
 -1      2557    3    0    1
 -2      1597      1530      1778      1826
 -1      2558    3    0    1
 -2       155      1010       152      1006
 -1      2559    3    0    1
 -2       754       152       162      1010
 -1      2560    3    0    1
 -2       152       754       752      1010
 -1      2561    3    0    1
 -2      1006       152       752      1010
 -1      2562    3    0    1
 -2       754       549       752      1010
 -1      2563    3    0    1
 -2       549      1006       752      1010
 -1      2564    3    0    1
 -2      1548      1570      1743      1921
 -1      2565    3    0    1
 -2       314      1211       397      1664
 -1      2566    3    0    1
 -2       303      1184       409      1903
 -1      2567    3    0    1
 -2      1564      1715      1946      2024
 -1      2568    3    0    1
 -2       551      1013       545      1007
 -1      2569    3    0    1
 -2       164      1013       153       327
 -1      2570    3    0    1
 -2       153       164       327      1014
 -1      2571    3    0    1
 -2       547      1014       755       998
 -1      2572    3    0    1
 -2       325       153       327      1014
 -1      2573    3    0    1
 -2       758      1026       558      1016
 -1      2574    3    0    1
 -2       558      1026       762       565
 -1      2575    3    0    1
 -2        28       408      1669      1768
 -1      2576    3    0    1
 -2       560      1030      1018       559
 -1      2577    3    0    1
 -2       185       192      1049      1052
 -1      2578    3    0    1
 -2        31        34      1993      2034
 -1      2579    3    0    1
 -2       181      1030      1018       169
 -1      2580    3    0    1
 -2       765       185      1049      1052
 -1      2581    3    0    1
 -2       560      1030       759      1018
 -1      2582    3    0    1
 -2      1175       661      1605      1696
 -1      2583    3    0    1
 -2       560      1032       567      1031
 -1      2584    3    0    1
 -2       171      1029      1022       170
 -1      2585    3    0    1
 -2      1020      1029      1022       171
 -1      2586    3    0    1
 -2        95        92       942      1739
 -1      2587    3    0    1
 -2       177       362       169      1030
 -1      2588    3    0    1
 -2      1065       769       582       771
 -1      2589    3    0    1
 -2      1047      1717      1841      1965
 -1      2590    3    0    1
 -2      1025      1977      2062      2113
 -1      2591    3    0    1
 -2       195      1048       187      1040
 -1      2592    3    0    1
 -2       562      1023       561       566
 -1      2593    3    0    1
 -2       177       169      1018      1030
 -1      2594    3    0    1
 -2        72       372       923      1938
 -1      2595    3    0    1
 -2      1906       919      1929      1942
 -1      2596    3    0    1
 -2      1787      1642      1930      1984
 -1      2597    3    0    1
 -2      1637      1685      1727      1779
 -1      2598    3    0    1
 -2       174      1024       173      1021
 -1      2599    3    0    1
 -2       342       329       173      1024
 -1      2600    3    0    1
 -2       173       761      1021      1024
 -1      2601    3    0    1
 -2       173      1028       761      1024
 -1      2602    3    0    1
 -2      1642      1537      1729      1737
 -1      2603    3    0    1
 -2      1624      1569      1785      1821
 -1      2604    3    0    1
 -2      2542      1291      2585      2680
 -1      2605    3    0    1
 -2       447      1526      1599      1643
 -1      2606    3    0    1
 -2      1181       666      1667      1706
 -1      2607    3    0    1
 -2       758      1026       169       762
 -1      2608    3    0    1
 -2       558      1026       557      1016
 -1      2609    3    0    1
 -2      1026       758       558       762
 -1      2610    3    0    1
 -2      1679      1562      1767      1960
 -1      2611    3    0    1
 -2      1530      1525      1597      1701
 -1      2612    3    0    1
 -2      2141      2541      2244      2685
 -1      2613    3    0    1
 -2      1024       561       563      1028
 -1      2614    3    0    1
 -2      1029       171      1023       175
 -1      2615    3    0    1
 -2      1020      1029       171      1023
 -1      2616    3    0    1
 -2       586      1070      1054       581
 -1      2617    3    0    1
 -2       208      1065       356       359
 -1      2618    3    0    1
 -2      2558      2557      2612      2667
 -1      2619    3    0    1
 -2       759       177      1018      1030
 -1      2620    3    0    1
 -2      1551       393      1592      1907
 -1      2621    3    0    1
 -2       560      1030       559       567
 -1      2622    3    0    1
 -2       560      1033       759      1030
 -1      2623    3    0    1
 -2       347       169       362      1030
 -1      2624    3    0    1
 -2      1683      1560      1744      1818
 -1      2625    3    0    1
 -2       560      1031       559      1019
 -1      2626    3    0    1
 -2       339       175       171      1031
 -1      2627    3    0    1
 -2       171       170      1019      1031
 -1      2628    3    0    1
 -2       170       760      1019      1031
 -1      2629    3    0    1
 -2       182      1031       171      1019
 -1      2630    3    0    1
 -2       178       330       170      1032
 -1      2631    3    0    1
 -2       572      1051       571       766
 -1      2632    3    0    1
 -2       858       455       864      1837
 -1      2633    3    0    1
 -2       365       756      1980      2496
 -1      2634    3    0    1
 -2       574      1048      1040       573
 -1      2635    3    0    1
 -2      1764      1048      1841      1924
 -1      2636    3    0    1
 -2       723      1813      1939      1944
 -1      2637    3    0    1
 -2       803       296       805      1581
 -1      2638    3    0    1
 -2       417       864      1796      1837
 -1      2639    3    0    1
 -2       483       484       723      1990
 -1      2640    3    0    1
 -2       577       576       569      1041
 -1      2641    3    0    1
 -2      1796       459      1997      2017
 -1      2642    3    0    1
 -2       185      1041       192       193
 -1      2643    3    0    1
 -2      1247      1316      2561      2605
 -1      2644    3    0    1
 -2       764      1045      1041       569
 -1      2645    3    0    1
 -2      1045       764       185      1034
 -1      2646    3    0    1
 -2       764      1045       185      1041
 -1      2647    3    0    1
 -2        72       917      2123      2139
 -1      2648    3    0    1
 -2       651      1161      1712      1778
 -1      2649    3    0    1
 -2      1785      1757      1821      1876
 -1      2650    3    0    1
 -2       578       573       575      1048
 -1      2651    3    0    1
 -2      1202       685       686      1869
 -1      2652    3    0    1
 -2      1690      1802      1900      1999
 -1      2653    3    0    1
 -2      1462       438      1469      2416
 -1      2654    3    0    1
 -2      1612       696      1733      1756
 -1      2655    3    0    1
 -2      1563      1518      1762      1815
 -1      2656    3    0    1
 -2        43      1770      1787      1984
 -1      2657    3    0    1
 -2       764      1045       569      1034
 -1      2658    3    0    1
 -2       191      1045       185      1034
 -1      2659    3    0    1
 -2      1247      2548      1316      2605
 -1      2660    3    0    1
 -2      2548      1247      2561      2605
 -1      2661    3    0    1
 -2      1345      1299      2628      2663
 -1      2662    3    0    1
 -2      1831      2515      2383      2623
 -1      2663    3    0    1
 -2       376      2602      1447      1448
 -1      2664    3    0    1
 -2       995       345      1602      1623
 -1      2665    3    0    1
 -2       573       578       575      1047
 -1      2666    3    0    1
 -2       342      1024      1587      1839
 -1      2667    3    0    1
 -2       574      1047       573       767
 -1      2668    3    0    1
 -2      1043       573       575      1047
 -1      2669    3    0    1
 -2      1692       750      2074      2475
 -1      2670    3    0    1
 -2       574      1048       573       578
 -1      2671    3    0    1
 -2       573      1042       575      1048
 -1      2672    3    0    1
 -2      1042       187       189      1048
 -1      2673    3    0    1
 -2       573      1040      1038      1048
 -1      2674    3    0    1
 -2      1042       573      1038      1048
 -1      2675    3    0    1
 -2      1040       187      1038      1048
 -1      2676    3    0    1
 -2       187      1042      1038      1048
 -1      2677    3    0    1
 -2       769      1065       582      1053
 -1      2678    3    0    1
 -2       572      1052       571       579
 -1      2679    3    0    1
 -2       209      1065      1053       208
 -1      2680    3    0    1
 -2       192       198       191      1049
 -1      2681    3    0    1
 -2      1036       185       191      1049
 -1      2682    3    0    1
 -2       185      1036       765      1049
 -1      2683    3    0    1
 -2       187       766      1037      1050
 -1      2684    3    0    1
 -2      1050       571       766      1037
 -1      2685    3    0    1
 -2      1717       340      1841      1878
 -1      2686    3    0    1
 -2       189       187      1050      1051
 -1      2687    3    0    1
 -2       189       196       187      1051
 -1      2688    3    0    1
 -2       195       196       199      1051
 -1      2689    3    0    1
 -2       187       195       766      1051
 -1      2690    3    0    1
 -2      1062       587      1068      1808
 -1      2691    3    0    1
 -2       193       185       360      1052
 -1      2692    3    0    1
 -2       186      1052       185       765
 -1      2693    3    0    1
 -2       218       220       206      1054
 -1      2694    3    0    1
 -2      1639      1746      1943      1956
 -1      2695    3    0    1
 -2       581      1071       592       591
 -1      2696    3    0    1
 -2       209      1071      1055       205
 -1      2697    3    0    1
 -2       205      1071       219       359
 -1      2698    3    0    1
 -2       770      1071       772       586
 -1      2699    3    0    1
 -2       586      1071       772       592
 -1      2700    3    0    1
 -2      1525       141      1661      1701
 -1      2701    3    0    1
 -2       216       346      1899      2035
 -1      2702    3    0    1
 -2       585      1067       590      1063
 -1      2703    3    0    1
 -2      1210       689       698      1769
 -1      2704    3    0    1
 -2       217      1069       428       210
 -1      2705    3    0    1
 -2       234      1087       223      1077
 -1      2706    3    0    1
 -2      1042       575      1048      1924
 -1      2707    3    0    1
 -2      1070       586      1069       592
 -1      2708    3    0    1
 -2      1142       388      1872      2036
 -1      2709    3    0    1
 -2      1058      1068       584      1060
 -1      2710    3    0    1
 -2      1058      1068      1060       206
 -1      2711    3    0    1
 -2       206      1068       346      1062
 -1      2712    3    0    1
 -2        86        91       943      2021
 -1      2713    3    0    1
 -2       585      1063       584      1059
 -1      2714    3    0    1
 -2       590       584       587      1068
 -1      2715    3    0    1
 -2       211      1063      1057      1059
 -1      2716    3    0    1
 -2      1082       225       776      1086
 -1      2717    3    0    1
 -2      1670      1565      1738      1879
 -1      2718    3    0    1
 -2      2623      1328      2671      2745
 -1      2719    3    0    1
 -2      1308      1307      2551      1331
 -1      2720    3    0    1
 -2       788       625       624      1660
 -1      2721    3    0    1
 -2       209      1065       208       359
 -1      2722    3    0    1
 -2      1065       209       771       359
 -1      2723    3    0    1
 -2       769      1065       209       771
 -1      2724    3    0    1
 -2      1603      1616      1617      1852
 -1      2725    3    0    1
 -2      1063       211      1057      1067
 -1      2726    3    0    1
 -2       585      1067      1063      1057
 -1      2727    3    0    1
 -2       211      1063       425      1067
 -1      2728    3    0    1
 -2       429       211       425      1067
 -1      2729    3    0    1
 -2      1569      1526      1785      1876
 -1      2730    3    0    1
 -2        82       941      1721      2044
 -1      2731    3    0    1
 -2      1068       218      1808      1874
 -1      2732    3    0    1
 -2       805       657       803      1581
 -1      2733    3    0    1
 -2      1058      1068       206      1062
 -1      2734    3    0    1
 -2      1068      1058       584      1062
 -1      2735    3    0    1
 -2       584      1062       587      1068
 -1      2736    3    0    1
 -2       344       120       743      2005
 -1      2737    3    0    1
 -2      1632       542      1665      1734
 -1      2738    3    0    1
 -2       217      1069       210      1061
 -1      2739    3    0    1
 -2       216       210       428      1069
 -1      2740    3    0    1
 -2      1573      1551      1592      1907
 -1      2741    3    0    1
 -2       210      1054      1061      1069
 -1      2742    3    0    1
 -2       216       210      1069      1070
 -1      2743    3    0    1
 -2       346       218       206      1070
 -1      2744    3    0    1
 -2       586      1070       581       592
 -1      2745    3    0    1
 -2       210       206      1054      1070
 -1      2746    3    0    1
 -2       770      1071       586      1055
 -1      2747    3    0    1
 -2      1071       209       208       359
 -1      2748    3    0    1
 -2       231      1090       355       230
 -1      2749    3    0    1
 -2       920       494      1906      1942
 -1      2750    3    0    1
 -2       777       228      1074      1078
 -1      2751    3    0    1
 -2       224      1088       423       223
 -1      2752    3    0    1
 -2       236       234       223      1089
 -1      2753    3    0    1
 -2       416      1637      1639      1943
 -1      2754    3    0    1
 -2       188      1043      1674      1797
 -1      2755    3    0    1
 -2       601       600       594      1080
 -1      2756    3    0    1
 -2      2077      1882      2153      2484
 -1      2757    3    0    1
 -2      2463      1710      2537      2538
 -1      2758    3    0    1
 -2      1755       348      1773      1811
 -1      2759    3    0    1
 -2      1686       690      1688      1908
 -1      2760    3    0    1
 -2      1361      1228      2241      2258
 -1      2761    3    0    1
 -2      1725       383      1732      1741
 -1      2762    3    0    1
 -2       694      1209       840      1711
 -1      2763    3    0    1
 -2       228       230       774      1080
 -1      2764    3    0    1
 -2       230      1084      1080       228
 -1      2765    3    0    1
 -2       774      1084       594      1072
 -1      2766    3    0    1
 -2       230      1084       228       370
 -1      2767    3    0    1
 -2       774      1084      1072       228
 -1      2768    3    0    1
 -2       754       992      1857      2108
 -1      2769    3    0    1
 -2       396      1842      1945      2021
 -1      2770    3    0    1
 -2       229      1086       225       426
 -1      2771    3    0    1
 -2      1193       679      1590      1654
 -1      2772    3    0    1
 -2       669      1183       815      1680
 -1      2773    3    0    1
 -2       400       111       961      2498
 -1      2774    3    0    1
 -2        90       400       961      2498
 -1      2775    3    0    1
 -2      2569      2608      1415      2308
 -1      2776    3    0    1
 -2       649       650      1596      1647
 -1      2777    3    0    1
 -2       611       606       614      1104
 -1      2778    3    0    1
 -2      1317      2604      2612      2667
 -1      2779    3    0    1
 -2      1318      1383      1384      2604
 -1      2780    3    0    1
 -2        83      1266      2197      1287
 -1      2781    3    0    1
 -2       596       602       599      1086
 -1      2782    3    0    1
 -2       597      1086       596       776
 -1      2783    3    0    1
 -2      1082       596       599      1086
 -1      2784    3    0    1
 -2       426       225       226      1086
 -1      2785    3    0    1
 -2       225      1082       226      1086
 -1      2786    3    0    1
 -2       685      1202      1199      1869
 -1      2787    3    0    1
 -2      1591       414      1836      1873
 -1      2788    3    0    1
 -2      1594      1701       141      1702
 -1      2789    3    0    1
 -2      1159       800      1596      1937
 -1      2790    3    0    1
 -2       668      1182      1604      1897
 -1      2791    3    0    1
 -2       597      1087       596       602
 -1      2792    3    0    1
 -2       596      1081       599      1087
 -1      2793    3    0    1
 -2      1081       223       227      1087
 -1      2794    3    0    1
 -2       596      1077       775      1087
 -1      2795    3    0    1
 -2      1081       596       775      1087
 -1      2796    3    0    1
 -2      1077       223       775      1087
 -1      2797    3    0    1
 -2       223      1081       775      1087
 -1      2798    3    0    1
 -2       223       423       227      1088
 -1      2799    3    0    1
 -2       223      1073      1079      1088
 -1      2800    3    0    1
 -2      1536      1671      1708      1832
 -1      2801    3    0    1
 -2       593      1079      1073      1088
 -1      2802    3    0    1
 -2       593      1089       603      1088
 -1      2803    3    0    1
 -2       779      1102       609      1091
 -1      2804    3    0    1
 -2       609      1102       782       613
 -1      2805    3    0    1
 -2      1720      1674      1797      1994
 -1      2806    3    0    1
 -2       610      1106      1092       605
 -1      2807    3    0    1
 -2       251       253       780      1092
 -1      2808    3    0    1
 -2       251       249       253      1092
 -1      2809    3    0    1
 -2       249      1106       437       241
 -1      2810    3    0    1
 -2      1106       249       251      1092
 -1      2811    3    0    1
 -2       610      1106       780      1092
 -1      2812    3    0    1
 -2       610      1108       615      1107
 -1      2813    3    0    1
 -2       246      1105      1097       242
 -1      2814    3    0    1
 -2      1094      1105      1097       246
 -1      2815    3    0    1
 -2      1623       527      1817      2028
 -1      2816    3    0    1
 -2       825       679      1193      1654
 -1      2817    3    0    1
 -2      1206       849      1554      1686
 -1      2818    3    0    1
 -2       663      1180       806      1684
 -1      2819    3    0    1
 -2       972       335      1622      1749
 -1      2820    3    0    1
 -2      1619      1638      1687      1919
 -1      2821    3    0    1
 -2       607      1099       606       614
 -1      2822    3    0    1
 -2       922       495      1938      1939
 -1      2823    3    0    1
 -2      1571      1566      1647      2007
 -1      2824    3    0    1
 -2       993       991      1598      2094
 -1      2825    3    0    1
 -2      1709      1678      2045      2063
 -1      2826    3    0    1
 -2       555      1014      1704      1763
 -1      2827    3    0    1
 -2      1173       659      1172      1616
 -1      2828    3    0    1
 -2      2453      2443      1401      2345
 -1      2829    3    0    1
 -2       240      1100       244      1095
 -1      2830    3    0    1
 -2       162       337      2132      2475
 -1      2831    3    0    1
 -2       255      1108      1735      1958
 -1      2832    3    0    1
 -2      1728      1707      1773      1858
 -1      2833    3    0    1
 -2      1806      1560      1824      1910
 -1      2834    3    0    1
 -2      1155      1154      1729      1776
 -1      2835    3    0    1
 -2       359       771      2019      2042
 -1      2836    3    0    1
 -2      1031       178      1032      1923
 -1      2837    3    0    1
 -2       779      1102       249       782
 -1      2838    3    0    1
 -2       609      1102       608      1091
 -1      2839    3    0    1
 -2      1102       779       609       782
 -1      2840    3    0    1
 -2      1065       771      2009      2019
 -1      2841    3    0    1
 -2      2646      1450      2675      2698
 -1      2842    3    0    1
 -2      1460      2677      2687      2430
 -1      2843    3    0    1
 -2      2531      2474      2592      2678
 -1      2844    3    0    1
 -2       606      1095      1096      1104
 -1      2845    3    0    1
 -2       606      1100      1095      1104
 -1      2846    3    0    1
 -2      1100       606       611      1104
 -1      2847    3    0    1
 -2      1094      1105       246      1099
 -1      2848    3    0    1
 -2      1705       407      1812      1816
 -1      2849    3    0    1
 -2      1811       971      1817      2005
 -1      2850    3    0    1
 -2       780       251      1092      1106
 -1      2851    3    0    1
 -2      1736      1754      2159      2479
 -1      2852    3    0    1
 -2       610      1106       605       615
 -1      2853    3    0    1
 -2       249      1106       241      1092
 -1      2854    3    0    1
 -2       610      1109       780      1106
 -1      2855    3    0    1
 -2       243      1108       242       254
 -1      2856    3    0    1
 -2       801      1166      1804      1919
 -1      2857    3    0    1
 -2       246      1107       239       247
 -1      2858    3    0    1
 -2       610      1107       605      1093
 -1      2859    3    0    1
 -2       242       781      1093      1107
 -1      2860    3    0    1
 -2      1592       393      1805      1907
 -1      2861    3    0    1
 -2      1107       246       242       247
 -1      2862    3    0    1
 -2       254       242       255      1108
 -1      2863    3    0    1
 -2       252      1109       251       780
 -1      2864    3    0    1
 -2       620      1126       627       619
 -1      2865    3    0    1
 -2       421       422       260      1126
 -1      2866    3    0    1
 -2      1576       415      1606      1746
 -1      2867    3    0    1
 -2      1180       301       806      1966
 -1      2868    3    0    1
 -2      1531      1179      1611      1684
 -1      2869    3    0    1
 -2       270      1125       389       260
 -1      2870    3    0    1
 -2      1142       282      2036      2039
 -1      2871    3    0    1
 -2      1708      1536      2045      2046
 -1      2872    3    0    1
 -2       864      1837      1901      2012
 -1      2873    3    0    1
 -2       830       687      1643      1719
 -1      2874    3    0    1
 -2       257       264       375      1124
 -1      2875    3    0    1
 -2      1773      1728      1811      1983
 -1      2876    3    0    1
 -2       634      1141       633       638
 -1      2877    3    0    1
 -2       823       305       307      1559
 -1      2878    3    0    1
 -2       995       989       539      1665
 -1      2879    3    0    1
 -2       684       683      1670      1879
 -1      2880    3    0    1
 -2       344       743       996      1753
 -1      2881    3    0    1
 -2      1115       261       787      1118
 -1      2882    3    0    1
 -2       736       954      1635      1981
 -1      2883    3    0    1
 -2       261      1122       787      1118
 -1      2884    3    0    1
 -2       419      1122       420       261
 -1      2885    3    0    1
 -2        10       430       712      2495
 -1      2886    3    0    1
 -2      1548      1668      1700      1889
 -1      2887    3    0    1
 -2      1844       568      1923      2116
 -1      2888    3    0    1
 -2      1063       590       587      1978
 -1      2889    3    0    1
 -2      1605      1578      1652      1696
 -1      2890    3    0    1
 -2       990       539      1626      1702
 -1      2891    3    0    1
 -2       403      1635      1871      2003
 -1      2892    3    0    1
 -2       784      1120       617      1110
 -1      2893    3    0    1
 -2       788       257       264      1120
 -1      2894    3    0    1
 -2       259      1120       257      1110
 -1      2895    3    0    1
 -2      1349      2234      2603      1408
 -1      2896    3    0    1
 -2      2604      1383      2635      2667
 -1      2897    3    0    1
 -2      1461       435      1497      2445
 -1      2898    3    0    1
 -2      1081       599      1979      1982
 -1      2899    3    0    1
 -2       836      1645      1648      1664
 -1      2900    3    0    1
 -2       419      1122       261      1118
 -1      2901    3    0    1
 -2      1118       621       623      1122
 -1      2902    3    0    1
 -2       356      1935      2019      2462
 -1      2903    3    0    1
 -2      2543      1864      2567      2732
 -1      2904    3    0    1
 -2       622      1123       621       626
 -1      2905    3    0    1
 -2      1536      1709      1754      1832
 -1      2906    3    0    1
 -2       621      1116       786      1123
 -1      2907    3    0    1
 -2      1117       621       786      1123
 -1      2908    3    0    1
 -2       621      1117       623      1123
 -1      2909    3    0    1
 -2      1116       260       786      1123
 -1      2910    3    0    1
 -2       260      1117       786      1123
 -1      2911    3    0    1
 -2      1117       260       421      1123
 -1      2912    3    0    1
 -2       723        45      1813      1944
 -1      2913    3    0    1
 -2       259       375       271      1124
 -1      2914    3    0    1
 -2      1063      1588      1809      1868
 -1      2915    3    0    1
 -2       620      1127       619       627
 -1      2916    3    0    1
 -2       257       259       785      1124
 -1      2917    3    0    1
 -2       790      1138       629      1128
 -1      2918    3    0    1
 -2       421       260       389      1125
 -1      2919    3    0    1
 -2      1553      1691      1747      1903
 -1      2920    3    0    1
 -2      1628      1887      1908      1976
 -1      2921    3    0    1
 -2       620      1126       619      1113
 -1      2922    3    0    1
 -2       265       422       382      1126
 -1      2923    3    0    1
 -2      1113       260       265      1126
 -1      2924    3    0    1
 -2      1113       619      1112      1126
 -1      2925    3    0    1
 -2       619      1125      1112      1126
 -1      2926    3    0    1
 -2       260      1113      1112      1126
 -1      2927    3    0    1
 -2       257       785      1114      1127
 -1      2928    3    0    1
 -2       619      1114       785      1127
 -1      2929    3    0    1
 -2      1124       619       785      1127
 -1      2930    3    0    1
 -2       796       791       274      1143
 -1      2931    3    0    1
 -2       795       278      1130      1131
 -1      2932    3    0    1
 -2       941        90       961      2498
 -1      2933    3    0    1
 -2      1828       366      1874      1913
 -1      2934    3    0    1
 -2       216      1899      1995      2035
 -1      2935    3    0    1
 -2       284      1142       275       388
 -1      2936    3    0    1
 -2       284      1142      1131       275
 -1      2937    3    0    1
 -2       631       795      1130      1131
 -1      2938    3    0    1
 -2       251       256      1759      2480
 -1      2939    3    0    1
 -2       846       296       395      1793
 -1      2940    3    0    1
 -2      1090       230      1855      2462
 -1      2941    3    0    1
 -2      1529      1696      1748      1829
 -1      2942    3    0    1
 -2       539       990      1632      1702
 -1      2943    3    0    1
 -2       496       495       923      1938
 -1      2944    3    0    1
 -2       418       278       795      1142
 -1      2945    3    0    1
 -2       542       539      1632      1665
 -1      2946    3    0    1
 -2       415      1606      1666      1859
 -1      2947    3    0    1
 -2       792      1141       633      1134
 -1      2948    3    0    1
 -2       792      1141      1134       275
 -1      2949    3    0    1
 -2       275      1141       282      1135
 -1      2950    3    0    1
 -2       795       278      1131      1142
 -1      2951    3    0    1
 -2      1033      1030       567      1844
 -1      2952    3    0    1
 -2       634      1136       633      1133
 -1      2953    3    0    1
 -2      1065      1080      1676      2162
 -1      2954    3    0    1
 -2       276      1136       793      1133
 -1      2955    3    0    1
 -2      2594      1229      1453      2661
 -1      2956    3    0    1
 -2       862      1915      2468      2534
 -1      2957    3    0    1
 -2       957       517      2000      2052
 -1      2958    3    0    1
 -2      2274      2321      2665      2370
 -1      2959    3    0    1
 -2      1263      1257      2258      1416
 -1      2960    3    0    1
 -2      1138       279       794       280
 -1      2961    3    0    1
 -2       790      1138       279       794
 -1      2962    3    0    1
 -2       280       387      2075      2511
 -1      2963    3    0    1
 -2      1580      2071      2471      2502
 -1      2964    3    0    1
 -2      1241      1240      2512      1289
 -1      2965    3    0    1
 -2       494       491       914      1803
 -1      2966    3    0    1
 -2       634      1140      1136       793
 -1      2967    3    0    1
 -2       276      1136       415      1140
 -1      2968    3    0    1
 -2       415       416       276      1140
 -1      2969    3    0    1
 -2      1140       638      1584      1727
 -1      2970    3    0    1
 -2      1106       616      1735      1914
 -1      2971    3    0    1
 -2       178       330      1032      2088
 -1      2972    3    0    1
 -2       792      1141       275      1135
 -1      2973    3    0    1
 -2      1141       792       633      1135
 -1      2974    3    0    1
 -2       633      1135       635      1141
 -1      2975    3    0    1
 -2       275       278       418      1142
 -1      2976    3    0    1
 -2       632      1142       631      1131
 -1      2977    3    0    1
 -2       282       388       275      1142
 -1      2978    3    0    1
 -2       278       275      1131      1142
 -1      2979    3    0    1
 -2       631       640       795      1142
 -1      2980    3    0    1
 -2       387       280       279      1143
 -1      2981    3    0    1
 -2       279       274      1132      1143
 -1      2982    3    0    1
 -2       791       631      1132      1143
 -1      2983    3    0    1
 -2       631       796       640      1143
 -1      2984    3    0    1
 -2       274       791      1132      1143
 -1      2985    3    0    1
 -2       796       631       791      1143
 -1      2986    3    0    1
 -2       919      1907      1929      1942
 -1      2987    3    0    1
 -2       917       916        72      1952
 -1      2988    3    0    1
 -2       282      2001      2036      2039
 -1      2989    3    0    1
 -2      1938        72      1952      1996
 -1      2990    3    0    1
 -2      1023      1029       175      1722
 -1      2991    3    0    1
 -2       839      1216      1946      2024
 -1      2992    3    0    1
 -2       193       192      1052      1843
 -1      2993    3    0    1
 -2       381        72      2123      2139
 -1      2994    3    0    1
 -2       794      1120      1957      2125
 -1      2995    3    0    1
 -2      2013       264      2084      2477
 -1      2996    3    0    1
 -2       437       251       782      1927
 -1      2997    3    0    1
 -2      1844      1032      1918      2088
 -1      2998    3    0    1
 -2        66       913      1689      1842
 -1      2999    3    0    1
 -2      1014       555       755      1523
 -1      3000    3    0    1
 -2      1041      1675      2038      2170
 -1      3001    3    0    1
 -2       408      1547      1636      1716
 -1      3002    3    0    1
 -2      1136      1694      1859      1947
 -1      3003    3    0    1
 -2       882      1771      1810      1985
 -1      3004    3    0    1
 -2      1546      1707      1871      1955
 -1      3005    3    0    1
 -2       551      1013      1007      1751
 -1      3006    3    0    1
 -2      1800       162      2132      2475
 -1      3007    3    0    1
 -2      1668      1575      1724      1889
 -1      3008    3    0    1
 -2       810      1667      1883      1896
 -1      3009    3    0    1
 -2      1205       322       830      1599
 -1      3010    3    0    1
 -2       371       372      2110      2165
 -1      3011    3    0    1
 -2      1683      1560      1818      1909
 -1      3012    3    0    1
 -2      1542      1603      1617      1730
 -1      3013    3    0    1
 -2      1606       415      1666      1746
 -1      3014    3    0    1
 -2       425      1588      1663      1809
 -1      3015    3    0    1
 -2       244       383      1644      1741
 -1      3016    3    0    1
 -2       603      1090      1855      2462
 -1      3017    3    0    1
 -2       266       264      1127      2477
 -1      3018    3    0    1
 -2       416       415      1554      1746
 -1      3019    3    0    1
 -2      1573      1538      1656      1961
 -1      3020    3    0    1
 -2        86       932       939      1739
 -1      3021    3    0    1
 -2      1051       579      1888      2016
 -1      3022    3    0    1
 -2       506      1690      1791      1802
 -1      3023    3    0    1
 -2       439       293      1597      1835
 -1      3024    3    0    1
 -2      1047       188       340      1717
 -1      3025    3    0    1
 -2      1532       878      1570      1742
 -1      3026    3    0    1
 -2       413       291      1154      1729
 -1      3027    3    0    1
 -2      1173      1603      1616      1897
 -1      3028    3    0    1
 -2       410       292      1167      1889
 -1      3029    3    0    1
 -2       762      1010      1849      2163
 -1      3030    3    0    1
 -2      1532       467      1742      1932
 -1      3031    3    0    1
 -2      1210       698      1657      1769
 -1      3032    3    0    1
 -2      1562      1572      1655      1959
 -1      3033    3    0    1
 -2      1639      1637      1727      1779
 -1      3034    3    0    1
 -2      1099      1105       247      2031
 -1      3035    3    0    1
 -2      1642        43      1930      1984
 -1      3036    3    0    1
 -2       992       748      1598      1726
 -1      3037    3    0    1
 -2      1574      1612      1661      1701
 -1      3038    3    0    1
 -2       807      1531      1600      1684
 -1      3039    3    0    1
 -2      1735      1759      2091      2480
 -1      3040    3    0    1
 -2       722      1570      1742      2043
 -1      3041    3    0    1
 -2       683       829      1670      1879
 -1      3042    3    0    1
 -2       440      1177      1176      1774
 -1      3043    3    0    1
 -2       527       971      1623      1817
 -1      3044    3    0    1
 -2       503       938       506      1802
 -1      3045    3    0    1
 -2       756       556      1523      2029
 -1      3046    3    0    1
 -2      1939       495      1996      2120
 -1      3047    3    0    1
 -2      1670      1564      1715      1862
 -1      3048    3    0    1
 -2      1655      1572      1663      1775
 -1      3049    3    0    1
 -2       383      1608      1725      1732
 -1      3050    3    0    1
 -2      1565      1713      1738      1879
 -1      3051    3    0    1
 -2       528       975       973      1682
 -1      3052    3    0    1
 -2      1081      1798      1922      2015
 -1      3053    3    0    1
 -2       996       543       544      1658
 -1      3054    3    0    1
 -2      1028      1024       329      1799
 -1      3055    3    0    1
 -2      1625       623      1727      1941
 -1      3056    3    0    1
 -2      1195       827      1767      1960
 -1      3057    3    0    1
 -2       800       402      1895      1937
 -1      3058    3    0    1
 -2       106      1566      1583      1681
 -1      3059    3    0    1
 -2       387       280      1143      2511
 -1      3060    3    0    1
 -2      1884       717      1911      2018
 -1      3061    3    0    1
 -2      1178       661       662      1605
 -1      3062    3    0    1
 -2       287       411       817      1662
 -1      3063    3    0    1
 -2       846       692       837      1793
 -1      3064    3    0    1
 -2        10        14       711      1524
 -1      3065    3    0    1
 -2       111       957      1863      2109
 -1      3066    3    0    1
 -2       687      1203      1643      1719
 -1      3067    3    0    1
 -2       782      1102      1927      2092
 -1      3068    3    0    1
 -2       335       404      1519      1659
 -1      3069    3    0    1
 -2      1185       671       672      1691
 -1      3070    3    0    1
 -2       748       541      1598      1726
 -1      3071    3    0    1
 -2       237       256      2157      2184
 -1      3072    3    0    1
 -2       426      1522      1561      1912
 -1      3073    3    0    1
 -2      1529      1178      1605      1696
 -1      3074    3    0    1
 -2      1916      1143      2014      2075
 -1      3075    3    0    1
 -2       427      1089      1820      1995
 -1      3076    3    0    1
 -2      1586      1531      1600      1649
 -1      3077    3    0    1
 -2      1726       144      2080      2096
 -1      3078    3    0    1
 -2      1146       641       642      1737
 -1      3079    3    0    1
 -2       540       541       991      1598
 -1      3080    3    0    1
 -2      1067      1518      1819      1978
 -1      3081    3    0    1
 -2        18       285      1861      1947
 -1      3082    3    0    1
 -2       411       287      1148      1662
 -1      3083    3    0    1
 -2       308       825      1193      1654
 -1      3084    3    0    1
 -2      1637      1140      1639      1727
 -1      3085    3    0    1
 -2       448       311      1535      1838
 -1      3086    3    0    1
 -2       683      1198       829      1879
 -1      3087    3    0    1
 -2       333      1748      1821      1829
 -1      3088    3    0    1
 -2      2027       362      2116      2117
 -1      3089    3    0    1
 -2       264       788      1120      1660
 -1      3090    3    0    1
 -2      1557      1621      1638      1687
 -1      3091    3    0    1
 -2      1609      1677      1955      2003
 -1      3092    3    0    1
 -2      1211       692       699      1793
 -1      3093    3    0    1
 -2       285      1135      1861      1947
 -1      3094    3    0    1
 -2       419      1118      1637      1685
 -1      3095    3    0    1
 -2      1122       419       420      1631
 -1      3096    3    0    1
 -2      1570       407      1705      1816
 -1      3097    3    0    1
 -2       971       344      1623      1817
 -1      3098    3    0    1
 -2       539      1579      1632      1665
 -1      3099    3    0    1
 -2       920       491       494      1803
 -1      3100    3    0    1
 -2      1736      1754      2154      2159
 -1      3101    3    0    1
 -2      1529      1643      1696      1719
 -1      3102    3    0    1
 -2      1561      1522      1745      1898
 -1      3103    3    0    1
 -2       993       991       541      1598
 -1      3104    3    0    1
 -2       696       700      1733      1756
 -1      3105    3    0    1
 -2      1610      1717      1738      1878
 -1      3106    3    0    1
 -2      1539      1551      1592      1853
 -1      3107    3    0    1
 -2      1559       383      1585      1644
 -1      3108    3    0    1
 -2       427      1868      1988      2015
 -1      3109    3    0    1
 -2       851      1563      1762      2023
 -1      3110    3    0    1
 -2      1719      1643      1757      1829
 -1      3111    3    0    1
 -2      1013       551       554      1751
 -1      3112    3    0    1
 -2       938       506      1802      1900
 -1      3113    3    0    1
 -2       954       403       106      1635
 -1      3114    3    0    1
 -2      1136       415      1140      1666
 -1      3115    3    0    1
 -2      1675      1026      1977      2117
 -1      3116    3    0    1
 -2      1767      1562      1959      1960
 -1      3117    3    0    1
 -2       516       742       956      1801
 -1      3118    3    0    1
 -2      1202      1199      1869      1936
 -1      3119    3    0    1
 -2       384       390      2061      2464
 -1      3120    3    0    1
 -2       333      1008      1785      1821
 -1      3121    3    0    1
 -2      1622      1602      1623      1734
 -1      3122    3    0    1
 -2       396        91      1842      2021
 -1      3123    3    0    1
 -2      1050       189      1888      2011
 -1      3124    3    0    1
 -2      1552      1576      1629      1695
 -1      3125    3    0    1
 -2      1667      1546      1706      1883
 -1      3126    3    0    1
 -2      1591       414      1873      1904
 -1      3127    3    0    1
 -2      1578      1652      1696      1748
 -1      3128    3    0    1
 -2       532       543      1568      1723
 -1      3129    3    0    1
 -2        28       878      1532      1768
 -1      3130    3    0    1
 -2      1206       849      1686      1688
 -1      3131    3    0    1
 -2       542       994      1623      1734
 -1      3132    3    0    1
 -2       251       782      1927      2092
 -1      3133    3    0    1
 -2       471       884      1850      1911
 -1      3134    3    0    1
 -2      1169       655       656      1724
 -1      3135    3    0    1
 -2      1555      1810      1836      1837
 -1      3136    3    0    1
 -2       959       518      1782      1981
 -1      3137    3    0    1
 -2       430      1524      2145      2495
 -1      3138    3    0    1
 -2      1648       836      1664      1793
 -1      3139    3    0    1
 -2       421       422      1126      1833
 -1      3140    3    0    1
 -2      1102       613       612      1886
 -1      3141    3    0    1
 -2      1578      1527      1740      1774
 -1      3142    3    0    1
 -2       320       815      1183      1896
 -1      3143    3    0    1
 -2      1561      1522      1634      1780
 -1      3144    3    0    1
 -2      1358      2580      2630      2634
 -1      3145    3    0    1
 -2      1892      2097      2115      2490
 -1      3146    3    0    1
 -2       953      1755      1858      1981
 -1      3147    3    0    1
 -2       419       420      1631      1867
 -1      3148    3    0    1
 -2      2532      2468      2545      2595
 -1      3149    3    0    1
 -2      1090       355       230      2462
 -1      3150    3    0    1
 -2      1197       683      1196      1670
 -1      3151    3    0    1
 -2       823       678      1683      1744
 -1      3152    3    0    1
 -2       314      1171      1174      1852
 -1      3153    3    0    1
 -2      1615      1595      1867      1870
 -1      3154    3    0    1
 -2      1143       280      2014      2075
 -1      3155    3    0    1
 -2       414      1630      1873      1904
 -1      3156    3    0    1
 -2       192      1049      1052      1843
 -1      3157    3    0    1
 -2       408      1547      1716      1768
 -1      3158    3    0    1
 -2      1553      1567      1636      1657
 -1      3159    3    0    1
 -2       695       842      1549      1838
 -1      3160    3    0    1
 -2      1553      1591      1873      1904
 -1      3161    3    0    1
 -2      1147      1693      1894      1902
 -1      3162    3    0    1
 -2      1551      1538      1573      1961
 -1      3163    3    0    1
 -2        37      1932      2018      2025
 -1      3164    3    0    1
 -2       470       882      1810      1985
 -1      3165    3    0    1
 -2       580      1731      1888      2010
 -1      3166    3    0    1
 -2       692      1211       836      1793
 -1      3167    3    0    1
 -2       671       672      1691      1747
 -1      3168    3    0    1
 -2      1140       416      1639      1666
 -1      3169    3    0    1
 -2      1522      1561      1745      1780
 -1      3170    3    0    1
 -2      1559      1194      1644      1654
 -1      3171    3    0    1
 -2       468      1951      2128      2147
 -1      3172    3    0    1
 -2      1080      1065      1676      2078
 -1      3173    3    0    1
 -2       106       736      1635      1681
 -1      3174    3    0    1
 -2      1081       599      1922      1979
 -1      3175    3    0    1
 -2      1667      1546      1883      1896
 -1      3176    3    0    1
 -2      1531      1586      1600      1684
 -1      3177    3    0    1
 -2       226       426      1522      1561
 -1      3178    3    0    1
 -2      1070       591       592      1899
 -1      3179    3    0    1
 -2       555      1800      2074      2475
 -1      3180    3    0    1
 -2      1554      1686      1688      1943
 -1      3181    3    0    1
 -2       847      1208      1733      1740
 -1      3182    3    0    1
 -2       742      1682      1789      1801
 -1      3183    3    0    1
 -2      1541      1603      1617      2006
 -1      3184    3    0    1
 -2      1586      1531      1611      1684
 -1      3185    3    0    1
 -2       429      1674      1819      1875
 -1      3186    3    0    1
 -2       310      1197      1196      2024
 -1      3187    3    0    1
 -2       771      2009      2042      2135
 -1      3188    3    0    1
 -2        38        37      1932      2018
 -1      3189    3    0    1
 -2      1183       669       670      1680
 -1      3190    3    0    1
 -2       402       318       811      1895
 -1      3191    3    0    1
 -2       539       989      1579      1665
 -1      3192    3    0    1
 -2       404       335      1531      1659
 -1      3193    3    0    1
 -2      1745      1561      1752      1780
 -1      3194    3    0    1
 -2        28      1547      1768      1921
 -1      3195    3    0    1
 -2      1158      1157      1544      1647
 -1      3196    3    0    1
 -2       337       162      1015      2475
 -1      3197    3    0    1
 -2       110       116       738      2466
 -1      3198    3    0    1
 -2       813       667       811      1604
 -1      3199    3    0    1
 -2      1542      1541      1617      2006
 -1      3200    3    0    1
 -2      1189       675      1695      1845
 -1      3201    3    0    1
 -2       539      1626      1702      1964
 -1      3202    3    0    1
 -2      1104      1653      1806      1982
 -1      3203    3    0    1
 -2       395      1539      1793      1853
 -1      3204    3    0    1
 -2       995       148       989      1665
 -1      3205    3    0    1
 -2      1135       635      1141      1972
 -1      3206    3    0    1
 -2       939        91      1690      1900
 -1      3207    3    0    1
 -2       383       244      1732      1741
 -1      3208    3    0    1
 -2      1539      1592      1613      1853
 -1      3209    3    0    1
 -2       482       479       722      1950
 -1      3210    3    0    1
 -2      1544      1609      1677      1955
 -1      3211    3    0    1
 -2      1118      1625      1685      1867
 -1      3212    3    0    1
 -2       339      1031      1846      1923
 -1      3213    3    0    1
 -2       425      1063      1588      1809
 -1      3214    3    0    1
 -2       456       457       862      1915
 -1      3215    3    0    1
 -2       226       426      1086      1522
 -1      3216    3    0    1
 -2       655      1168       656      1724
 -1      3217    3    0    1
 -2       903       433      2033      2527
 -1      3218    3    0    1
 -2       302      1158      1544      1647
 -1      3219    3    0    1
 -2       343       128      2080      2096
 -1      3220    3    0    1
 -2       146       338      2104      2108
 -1      3221    3    0    1
 -2      1541      1604      1897      2006
 -1      3222    3    0    1
 -2      1525      1597      1712      1826
 -1      3223    3    0    1
 -2      1802       938      1900      1999
 -1      3224    3    0    1
 -2      1728      1707      1858      1871
 -1      3225    3    0    1
 -2      2072      1864      2493      2732
 -1      3226    3    0    1
 -2       404       976      1519      1728
 -1      3227    3    0    1
 -2       404      1519      1714      1728
 -1      3228    3    0    1
 -2       583      2320       582      2665
 -1      3229    3    0    1
 -2      1191       675       676      1845
 -1      3230    3    0    1
 -2       865       459       460      1796
 -1      3231    3    0    1
 -2      1630      1873      1904      1970
 -1      3232    3    0    1
 -2      1674      1043      1720      1797
 -1      3233    3    0    1
 -2      1521      1558      1619      1687
 -1      3234    3    0    1
 -2      1589      1519      1659      1714
 -1      3235    3    0    1
 -2       427       428      1089      1995
 -1      3236    3    0    1
 -2      1537       797      1729      1737
 -1      3237    3    0    1
 -2        85       398      1541      1542
 -1      3238    3    0    1
 -2        28      1532      1570      1768
 -1      3239    3    0    1
 -2      1705      1700      1743      1776
 -1      3240    3    0    1
 -2       601       600      1781      2090
 -1      3241    3    0    1
 -2      1135       285      1861      2001
 -1      3242    3    0    1
 -2       370       237      2157      2184
 -1      3243    3    0    1
 -2       148      1658      1665      1753
 -1      3244    3    0    1
 -2       553       552      2086      2478
 -1      3245    3    0    1
 -2      1553      1567      1747      1970
 -1      3246    3    0    1
 -2       271      1967      2125      2151
 -1      3247    3    0    1
 -2       704      1216      1673      2023
 -1      3248    3    0    1
 -2       429      1067      1518      1819
 -1      3249    3    0    1
 -2      1658       543      1692      1723
 -1      3250    3    0    1
 -2       884       865      1850      1963
 -1      3251    3    0    1
 -2      1624      1569      1822      1830
 -1      3252    3    0    1
 -2      1595       419      1615      1867
 -1      3253    3    0    1
 -2       532       543       743      1568
 -1      3254    3    0    1
 -2       330       178      1722      2088
 -1      3255    3    0    1
 -2      1967      1120      2125      2151
 -1      3256    3    0    1
 -2       455      1555      1837      1989
 -1      3257    3    0    1
 -2       287       817      1185      1662
 -1      3258    3    0    1
 -2       665       810       666      1667
 -1      3259    3    0    1
 -2        90        82      1863      2136
 -1      3260    3    0    1
 -2      2478      2094      2481      2613
 -1      3261    3    0    1
 -2       942       507       508      1739
 -1      3262    3    0    1
 -2      1597      1525      1661      1701
 -1      3263    3    0    1
 -2      1540      1613      1645      1664
 -1      3264    3    0    1
 -2       955      1226      2538      2606
 -1      3265    3    0    1
 -2       196       199      1051      2016
 -1      3266    3    0    1
 -2      1678      2045      2063      2144
 -1      3267    3    0    1
 -2       802      1169      1699      1724
 -1      3268    3    0    1
 -2      1193       308      1654      1804
 -1      3269    3    0    1
 -2      1543      1604      1788      1895
 -1      3270    3    0    1
 -2        46       433      1866      2033
 -1      3271    3    0    1
 -2      1603      1617      1730      1852
 -1      3272    3    0    1
 -2        50      1813      1950      2025
 -1      3273    3    0    1
 -2       921        66       922      1689
 -1      3274    3    0    1
 -2      1707      1635      1858      1871
 -1      3275    3    0    1
 -2       717        38      1911      2018
 -1      3276    3    0    1
 -2       528       529      1682      1789
 -1      3277    3    0    1
 -2      1568       532      1723      1772
 -1      3278    3    0    1
 -2      1184       818      1747      1903
 -1      3279    3    0    1
 -2      1618       518      1681      1782
 -1      3280    3    0    1
 -2      1531       335      1649      1659
 -1      3281    3    0    1
 -2      1185      1662      1691      1747
 -1      3282    3    0    1
 -2       325       149      1014      1704
 -1      3283    3    0    1
 -2       424       306      1186      1909
 -1      3284    3    0    1
 -2       370       237      1827      2157
 -1      3285    3    0    1
 -2      1521      1558      1608      1725
 -1      3286    3    0    1
 -2      1102       782       613      1886
 -1      3287    3    0    1
 -2      1722       339      1846      1923
 -1      3288    3    0    1
 -2      2051      2054      2467      2168
 -1      3289    3    0    1
 -2      1521       420      1619      1631
 -1      3290    3    0    1
 -2      1541        85      1542      1617
 -1      3291    3    0    1
 -2      1529       333      1757      1829
 -1      3292    3    0    1
 -2      1526      1549      1599      1620
 -1      3293    3    0    1
 -2       348       115       737      1755
 -1      3294    3    0    1
 -2      1135       635      1861      1947
 -1      3295    3    0    1
 -2      1585      1590      1644      1725
 -1      3296    3    0    1
 -2      1100       244      1104      1732
 -1      3297    3    0    1
 -2      1583      1543      1784      1814
 -1      3298    3    0    1
 -2      1650      1547      1716      1769
 -1      3299    3    0    1
 -2      1783       933      1791      1802
 -1      3300    3    0    1
 -2      1028      1024      1799      1840
 -1      3301    3    0    1
 -2      1568       543      1658      1723
 -1      3302    3    0    1
 -2       749       324       996      1658
 -1      3303    3    0    1
 -2       831      1210      1650      1769
 -1      3304    3    0    1
 -2        57      1834      1944      2022
 -1      3305    3    0    1
 -2      1707       403      1871      1955
 -1      3306    3    0    1
 -2       626       623      1122      1625
 -1      3307    3    0    1
 -2       623      1118      1122      1625
 -1      3308    3    0    1
 -2      1064      2098      2476      2519
 -1      3309    3    0    1
 -2      1024       563      1839      1840
 -1      3310    3    0    1
 -2      1549      1599      1823      1838
 -1      3311    3    0    1
 -2      1544      1571      1609      1647
 -1      3312    3    0    1
 -2      1577      1551      1581      1961
 -1      3313    3    0    1
 -2       667       813       668      1604
 -1      3314    3    0    1
 -2       414      1792      1836      1873
 -1      3315    3    0    1
 -2      1174       659       660      1852
 -1      3316    3    0    1
 -2       933       503      1783      1791
 -1      3317    3    0    1
 -2       681       828       682      1679
 -1      3318    3    0    1
 -2      1550      1662      1693      1891
 -1      3319    3    0    1
 -2      1148       287      1149      1662
 -1      3320    3    0    1
 -2       976       972      1519      2028
 -1      3321    3    0    1
 -2      1603      1541      1897      2006
 -1      3322    3    0    1
 -2       922       723      1939      1944
 -1      3323    3    0    1
 -2      1117       623      1123      1625
 -1      3324    3    0    1
 -2       623       626      1123      1625
 -1      3325    3    0    1
 -2      1809      1868      1954      1988
 -1      3326    3    0    1
 -2       978       531      1772      1953
 -1      3327    3    0    1
 -2       312      1210       406      1650
 -1      3328    3    0    1
 -2       406      1210      1547      1650
 -1      3329    3    0    1
 -2      1702      1594      1807      1964
 -1      3330    3    0    1
 -2      1168       655      1167      1724
 -1      3331    3    0    1
 -2      1736      1754      2054      2467
 -1      3332    3    0    1
 -2      1013       164      1007      2093
 -1      3333    3    0    1
 -2       471       460       712      1850
 -1      3334    3    0    1
 -2      1805       393       914      1907
 -1      3335    3    0    1
 -2      1872       388      1941      2036
 -1      3336    3    0    1
 -2      1698       742      1789      1801
 -1      3337    3    0    1
 -2      1637      1140      1727      1941
 -1      3338    3    0    1
 -2       399        95      1520      1618
 -1      3339    3    0    1
 -2       577      1046      1890      2113
 -1      3340    3    0    1
 -2      1661      1525      1756      1835
 -1      3341    3    0    1
 -2       329       342      1535      2041
 -1      3342    3    0    1
 -2       722      1770      1816      1950
 -1      3343    3    0    1
 -2      2083      2068      2149      2510
 -1      3344    3    0    1
 -2       859       414      1792      1836
 -1      3345    3    0    1
 -2       422       382      1833      1940
 -1      3346    3    0    1
 -2       683      1197       684      1670
 -1      3347    3    0    1
 -2      1770        43      1812      1984
 -1      3348    3    0    1
 -2       355       215      2078      2161
 -1      3349    3    0    1
 -2      2397      2429      1476      2371
 -1      3350    3    0    1
 -2       675       820      1695      1845
 -1      3351    3    0    1
 -2      1563      1673      1762      2023
 -1      3352    3    0    1
 -2       322      1205       447      1599
 -1      3353    3    0    1
 -2      1551       393      1573      1656
 -1      3354    3    0    1
 -2      1849      1010      2105      2163
 -1      3355    3    0    1
 -2       542      1602      1665      1734
 -1      3356    3    0    1
 -2       392       865       884      1963
 -1      3357    3    0    1
 -2       599      1750      1979      1982
 -1      3358    3    0    1
 -2      1717       188      1738      1797
 -1      3359    3    0    1
 -2      1693      1630      1885      1891
 -1      3360    3    0    1
 -2       742       974      1698      1789
 -1      3361    3    0    1
 -2      1834        57      1906      2022
 -1      3362    3    0    1
 -2      1594      1626      1807      1964
 -1      3363    3    0    1
 -2      1071       772       592      1935
 -1      3364    3    0    1
 -2       556       567      1032      1918
 -1      3365    3    0    1
 -2       626      1625      1641      1940
 -1      3366    3    0    1
 -2       360       193      1052      2526
 -1      3367    3    0    1
 -2      1563      1762      1775      1786
 -1      3368    3    0    1
 -2       318       800      1159      1937
 -1      3369    3    0    1
 -2      2512      1241      1289      1290
 -1      3370    3    0    1
 -2      2647      2515      2653      2661
 -1      3371    3    0    1
 -2       638      1140      1584      1666
 -1      3372    3    0    1
 -2      1783      1583      1784      1814
 -1      3373    3    0    1
 -2        36       392       884      1651
 -1      3374    3    0    1
 -2       591       580      1071      2010
 -1      3375    3    0    1
 -2       520       519      1593      1860
 -1      3376    3    0    1
 -2      1069       216      1899      1995
 -1      3377    3    0    1
 -2      1178      1175      1605      1696
 -1      3378    3    0    1
 -2      1821      1757      1829      1876
 -1      3379    3    0    1
 -2      1653       611      1732      1920
 -1      3380    3    0    1
 -2       300       814      1531      1611
 -1      3381    3    0    1
 -2       318       813      1895      1937
 -1      3382    3    0    1
 -2      2534      1238      2591      2689
 -1      3383    3    0    1
 -2      1542        85      1802      1999
 -1      3384    3    0    1
 -2       370       777      1827      2091
 -1      3385    3    0    1
 -2      2033        56      2130      2527
 -1      3386    3    0    1
 -2       345       148       995      1602
 -1      3387    3    0    1
 -2       460       712      1850      2127
 -1      3388    3    0    1
 -2      1551      1573      1581      1961
 -1      3389    3    0    1
 -2      1619      1621      1638      1919
 -1      3390    3    0    1
 -2      1610      1534      1640      1711
 -1      3391    3    0    1
 -2       933       503      1791      1802
 -1      3392    3    0    1
 -2        10       712      2127      2495
 -1      3393    3    0    1
 -2      1602      1622      1623      1817
 -1      3394    3    0    1
 -2       353       128      1698      2080
 -1      3395    3    0    1
 -2       576      2009      2038      2069
 -1      3396    3    0    1
 -2       611      1099      1765      1920
 -1      3397    3    0    1
 -2      1637      1685      1779      1870
 -1      3398    3    0    1
 -2       308       313      1654      1804
 -1      3399    3    0    1
 -2       543       532       997      1723
 -1      3400    3    0    1
 -2       655      1169       802      1724
 -1      3401    3    0    1
 -2       425      1663      1775      1809
 -1      3402    3    0    1
 -2      1582      1546      1589      1707
 -1      3403    3    0    1
 -2      1873      1553      1904      1970
 -1      3404    3    0    1
 -2      1618      1520      1782      1974
 -1      3405    3    0    1
 -2      1575      1650      1699      1921
 -1      3406    3    0    1
 -2      1614      1545      1805      1848
 -1      3407    3    0    1
 -2      1025      1046      2505      1269
 -1      3408    3    0    1
 -2      1615       419      1637      1685
 -1      3409    3    0    1
 -2      1540      1614      1617      1730
 -1      3410    3    0    1
 -2       997      1692      1723      2459
 -1      3411    3    0    1
 -2      1616      1540      1617      1852
 -1      3412    3    0    1
 -2      1868      1062      1988      2035
 -1      3413    3    0    1
 -2       749       149      1658      1704
 -1      3414    3    0    1
 -2      1584      1135      1972      2001
 -1      3415    3    0    1
 -2      1015       756       555      1523
 -1      3416    3    0    1
 -2       162       756      1015      1523
 -1      3417    3    0    1
 -2       755      1014      1523      1763
 -1      3418    3    0    1
 -2       938       933        85      1802
 -1      3419    3    0    1
 -2       826       828      1679      1745
 -1      3420    3    0    1
 -2        85      1542      1617      1999
 -1      3421    3    0    1
 -2        82       941       944      1721
 -1      3422    3    0    1
 -2       425       429      1067      1518
 -1      3423    3    0    1
 -2      1532       722      1570      1816
 -1      3424    3    0    1
 -2      1107       255      1108      1735
 -1      3425    3    0    1
 -2      1211       314       836      1664
 -1      3426    3    0    1
 -2      1809      1063      1868      1978
 -1      3427    3    0    1
 -2       722       407      1570      1816
 -1      3428    3    0    1
 -2      1595      1615      1703      1870
 -1      3429    3    0    1
 -2      1603      1542      1617      2006
 -1      3430    3    0    1
 -2       602      1922      1954      2015
 -1      3431    3    0    1
 -2      1645      1540      1664      1852
 -1      3432    3    0    1
 -2       403       106      1635      1677
 -1      3433    3    0    1
 -2      1042       575      1828      1874
 -1      3434    3    0    1
 -2       325       149      1579      1626
 -1      3435    3    0    1
 -2      1628      1556      1790      1976
 -1      3436    3    0    1
 -2      1679      1745      1767      1898
 -1      3437    3    0    1
 -2      1082       226      1086      1522
 -1      3438    3    0    1
 -2      1543      1788      1814      2007
 -1      3439    3    0    1
 -2      1582      1546      1707      1871
 -1      3440    3    0    1
 -2        57       895      1834      1906
 -1      3441    3    0    1
 -2      1063       425      1067      1518
 -1      3442    3    0    1
 -2       180       177      2105      2163
 -1      3443    3    0    1
 -2      1644      1590      1654      1725
 -1      3444    3    0    1
 -2      2042       771      2135      2499
 -1      3445    3    0    1
 -2      1549       842      1599      1838
 -1      3446    3    0    1
 -2       329      1028      1799      1830
 -1      3447    3    0    1
 -2      1527      1574      1612      1661
 -1      3448    3    0    1
 -2       942        86       943      1739
 -1      3449    3    0    1
 -2       192      1041      1045      2038
 -1      3450    3    0    1
 -2      2578      2581      2637      2715
 -1      3451    3    0    1
 -2       244      1653      1741      1824
 -1      3452    3    0    1
 -2      1798      1081      1922      1979
 -1      3453    3    0    1
 -2      1648      1664      1613      1793
 -1      3454    3    0    1
 -2      1633      1538      1642      1737
 -1      3455    3    0    1
 -2      1197       319      1946      2024
 -1      3456    3    0    1
 -2       661      1177       662      1605
 -1      3457    3    0    1
 -2      1700      1668      1743      1776
 -1      3458    3    0    1
 -2      1608      1521      1732      1765
 -1      3459    3    0    1
 -2      1824      1741      1910      1968
 -1      3460    3    0    1
 -2      1065       588      1080      2162
 -1      3461    3    0    1
 -2       492       493      1831      1948
 -1      3462    3    0    1
 -2       881       468       469      1992
 -1      3463    3    0    1
 -2      1165       294       444      1621
 -1      3464    3    0    1
 -2       495      1938      1939      1996
 -1      3465    3    0    1
 -2      1712      1533      1778      1881
 -1      3466    3    0    1
 -2       484       495      1939      2120
 -1      3467    3    0    1
 -2       162       754      1010      1980
 -1      3468    3    0    1
 -2       383      1100      1608      1732
 -1      3469    3    0    1
 -2       175       178      1031      1923
 -1      3470    3    0    1
 -2       859       455      1555      1836
 -1      3471    3    0    1
 -2       491      1803      1842      1848
 -1      3472    3    0    1
 -2      1558      1590      1607      1804
 -1      3473    3    0    1
 -2       823       677       821      1683
 -1      3474    3    0    1
 -2      2097      2077      2152      2488
 -1      3475    3    0    1
 -2      1633      1538      1931      1961
 -1      3476    3    0    1
 -2       383      1585      1644      1725
 -1      3477    3    0    1
 -2      1650      1547      1699      1921
 -1      3478    3    0    1
 -2       427      1087      1868      2015
 -1      3479    3    0    1
 -2      1649      1586      1659      1749
 -1      3480    3    0    1
 -2       832      1567      1657      1769
 -1      3481    3    0    1
 -2       932       939      1739      1791
 -1      3482    3    0    1
 -2       802       406      1547      1650
 -1      3483    3    0    1
 -2       994       542      1632      1734
 -1      3484    3    0    1
 -2      1122       626      1641      1765
 -1      3485    3    0    1
 -2       555      1523      1704      1800
 -1      3486    3    0    1
 -2        92        86       942      1739
 -1      3487    3    0    1
 -2      1614        85      1617      1999
 -1      3488    3    0    1
 -2        66       373       922      1689
 -1      3489    3    0    1
 -2       127       742       974      1698
 -1      3490    3    0    1
 -2       326      1012      1821      1969
 -1      3491    3    0    1
 -2       896       722      1950      2026
 -1      3492    3    0    1
 -2      1850       885      2034      2495
 -1      3493    3    0    1
 -2       495       923      1996      2120
 -1      3494    3    0    1
 -2       111       400      1863      2136
 -1      3495    3    0    1
 -2      1010       754      1849      1980
 -1      3496    3    0    1
 -2      2580      1270      1359      2654
 -1      3497    3    0    1
 -2       396       913      1842      1900
 -1      3498    3    0    1
 -2       344       345      1623      1753
 -1      3499    3    0    1
 -2      1558      1521      1608      1687
 -1      3500    3    0    1
 -2      1051       199      1846      2016
 -1      3501    3    0    1
 -2       989       539      1579      1626
 -1      3502    3    0    1
 -2       415       416      1140      1666
 -1      3503    3    0    1
 -2       110      2095      2465      2466
 -1      3504    3    0    1
 -2       244       383      1559      1644
 -1      3505    3    0    1
 -2      1527      1733      1740      1774
 -1      3506    3    0    1
 -2      1613      1592      1648      1853
 -1      3507    3    0    1
 -2      1205       687       688      1643
 -1      3508    3    0    1
 -2       647      1155       648      1776
 -1      3509    3    0    1
 -2       415       416      1666      1746
 -1      3510    3    0    1
 -2      1179      1531       300       807
 -1      3511    3    0    1
 -2       614       611      1653      1987
 -1      3512    3    0    1
 -2       398      1541      1542      1784
 -1      3513    3    0    1
 -2       144       748       992      1726
 -1      3514    3    0    1
 -2       651      1162       652      1712
 -1      3515    3    0    1
 -2      2050      1678      2051      2072
 -1      3516    3    0    1
 -2      1029       330      1722      1822
 -1      3517    3    0    1
 -2       957       517       956      2000
 -1      3518    3    0    1
 -2      1031      1051      1846      2016
 -1      3519    3    0    1
 -2      1027      1025      1977      2062
 -1      3520    3    0    1
 -2      1555      1810      1837      1989
 -1      3521    3    0    1
 -2       178      1923      1722      2088
 -1      3522    3    0    1
 -2       614      1653      1979      1987
 -1      3523    3    0    1
 -2      1528      1591      1636      1771
 -1      3524    3    0    1
 -2      1957      1138      2014      2049
 -1      3525    3    0    1
 -2       392       391      1963      1989
 -1      3526    3    0    1
 -2      1630      1693      1885      1894
 -1      3527    3    0    1
 -2      1584      1872      1941      2036
 -1      3528    3    0    1
 -2       653      1166       801      1919
 -1      3529    3    0    1
 -2       639       640      1142      2039
 -1      3530    3    0    1
 -2      1728      1773      1811      1858
 -1      3531    3    0    1
 -2       901       482      1742      2043
 -1      3532    3    0    1
 -2      1138       794       636      1957
 -1      3533    3    0    1
 -2       404      1519      1589      1714
 -1      3534    3    0    1
 -2      2014       796      2039      2040
 -1      3535    3    0    1
 -2        13      1694      1697      1885
 -1      3536    3    0    1
 -2       997       750       544      1692
 -1      3537    3    0    1
 -2      1586      1531      1649      1659
 -1      3538    3    0    1
 -2      1557      1595      1621      1687
 -1      3539    3    0    1
 -2      1576      1629      1695      1998
 -1      3540    3    0    1
 -2      1542       398      1784      1814
 -1      3541    3    0    1
 -2       398        85       933      1802
 -1      3542    3    0    1
 -2      1634       226      1750      1780
 -1      3543    3    0    1
 -2      1100       383       244      1732
 -1      3544    3    0    1
 -2      1525       328      1530      1826
 -1      3545    3    0    1
 -2       325      1013      1626      1933
 -1      3546    3    0    1
 -2       611      1100      1104      1653
 -1      3547    3    0    1
 -2       564       577      1041      1675
 -1      3548    3    0    1
 -2      1589      1611      1680      1880
 -1      3549    3    0    1
 -2       667      1182       812      1604
 -1      3550    3    0    1
 -2       334      1178      1529      1696
 -1      3551    3    0    1
 -2       111       738       961      1593
 -1      3552    3    0    1
 -2      1689       922      1938      1939
 -1      3553    3    0    1
 -2      1755      1773       953      1858
 -1      3554    3    0    1
 -2       755       164      1014      1763
 -1      3555    3    0    1
 -2      1638       653      1804      1919
 -1      3556    3    0    1
 -2       563      1024      1028      1840
 -1      3557    3    0    1
 -2      1693      1552      1894      1902
 -1      3558    3    0    1
 -2      1527      1574      1594      1652
 -1      3559    3    0    1
 -2      1757       333      1821      1829
 -1      3560    3    0    1
 -2       356       215       772      2462
 -1      3561    3    0    1
 -2       162       365       756      1523
 -1      3562    3    0    1
 -2       556       555       756      1523
 -1      3563    3    0    1
 -2      1755       953      1782      1981
 -1      3564    3    0    1
 -2       518       736      1618      1681
 -1      3565    3    0    1
 -2       724        46      1866      2120
 -1      3566    3    0    1
 -2      1043      1720      1797      1965
 -1      3567    3    0    1
 -2       479      1834      1906      2026
 -1      3568    3    0    1
 -2      1208      1612      1733      1740
 -1      3569    3    0    1
 -2       809      1181      1544      1706
 -1      3570    3    0    1
 -2       960       519       737      1860
 -1      3571    3    0    1
 -2       420      1595      1631      1867
 -1      3572    3    0    1
 -2       294      1165      1164      1621
 -1      3573    3    0    1
 -2       954       515      1773      1858
 -1      3574    3    0    1
 -2       329      1799      1823      1830
 -1      3575    3    0    1
 -2      1198       683       684      1879
 -1      3576    3    0    1
 -2      1127       627      1914      2013
 -1      3577    3    0    1
 -2       979       744       531      1772
 -1      3578    3    0    1
 -2       917      1948      2123      2139
 -1      3579    3    0    1
 -2       422       421      1123      1986
 -1      3580    3    0    1
 -2      1082       226      1522      1750
 -1      3581    3    0    1
 -2      1188       673       674      1718
 -1      3582    3    0    1
 -2       933       398      1542      1783
 -1      3583    3    0    1
 -2       864       417      1796      2012
 -1      3584    3    0    1
 -2       637       636      1957      1991
 -1      3585    3    0    1
 -2      1622      1623      1817      2028
 -1      3586    3    0    1
 -2       939       506      1690      1791
 -1      3587    3    0    1
 -2      1031       567       568      1844
 -1      3588    3    0    1
 -2      2155      2144      2492      2500
 -1      3589    3    0    1
 -2       420      1521      1619      1687
 -1      3590    3    0    1
 -2      1539       803      1577      1581
 -1      3591    3    0    1
 -2       650      1159      1596      1937
 -1      3592    3    0    1
 -2      1534      1610      1640      1893
 -1      3593    3    0    1
 -2       411      1148      1550      1662
 -1      3594    3    0    1
 -2      1181       302      1544      1609
 -1      3595    3    0    1
 -2       829      1565      1670      1879
 -1      3596    3    0    1
 -2      1884       717      2032       472
 -1      3597    3    0    1
 -2      1209       840      1711      1713
 -1      3598    3    0    1
 -2      1650      1575      1768      1921
 -1      3599    3    0    1
 -2      1589      1582      1707      1714
 -1      3600    3    0    1
 -2       611      1100      1653      1732
 -1      3601    3    0    1
 -2       990       141       994      1632
 -1      3602    3    0    1
 -2      1720      1674      1819      1962
 -1      3603    3    0    1
 -2      1640      1610      1878      1893
 -1      3604    3    0    1
 -2      1084      1676      1781      1827
 -1      3605    3    0    1
 -2      1084      1080      1676      1827
 -1      3606    3    0    1
 -2      1686      1554      1746      1943
 -1      3607    3    0    1
 -2      1173       660      1616      1852
 -1      3608    3    0    1
 -2      1616      1171      1664      1852
 -1      3609    3    0    1
 -2      1778      1161      1881      1966
 -1      3610    3    0    1
 -2       237       370      1827      2480
 -1      3611    3    0    1
 -2       937      1580      2102      2515
 -1      3612    3    0    1
 -2      1671      1708      2045      2068
 -1      3613    3    0    1
 -2      1752      1634      1561      1718
 -1      3614    3    0    1
 -2      1522       226      1634      1780
 -1      3615    3    0    1
 -2       393       919      1907      1929
 -1      3616    3    0    1
 -2      1639      1637      1779      1943
 -1      3617    3    0    1
 -2      1628      1790      1870      1887
 -1      3618    3    0    1
 -2      1530      1622      1760      1826
 -1      3619    3    0    1
 -2      1662      1630      1693      1891
 -1      3620    3    0    1
 -2      1336      1337      2624      1444
 -1      3621    3    0    1
 -2      2094       991      2478      2481
 -1      3622    3    0    1
 -2       613       782      1781      2092
 -1      3623    3    0    1
 -2      1684      1881      1533      1600
 -1      3624    3    0    1
 -2       399       959      1520      1782
 -1      3625    3    0    1
 -2      1565       341      1713      1879
 -1      3626    3    0    1
 -2      1140       638      1727      1941
 -1      3627    3    0    1
 -2      1848      1690      1900      1999
 -1      3628    3    0    1
 -2       579      1030      1052      1761
 -1      3629    3    0    1
 -2       568       579      1051      1761
 -1      3630    3    0    1
 -2       579       568      1030      1761
 -1      3631    3    0    1
 -2       553       754      1857      2086
 -1      3632    3    0    1
 -2      1031       568      1051      1761
 -1      3633    3    0    1
 -2      1106       251       437      1927
 -1      3634    3    0    1
 -2      1090       230      1827      1855
 -1      3635    3    0    1
 -2       772       592      1935      2462
 -1      3636    3    0    1
 -2      1160       651      1712      1778
 -1      3637    3    0    1
 -2      1626       554      1807      1964
 -1      3638    3    0    1
 -2      1760      1533      1778      1826
 -1      3639    3    0    1
 -2      1713      1610      1738      1878
 -1      3640    3    0    1
 -2       540       992      1598      1857
 -1      3641    3    0    1
 -2      1698      1726      2080      2096
 -1      3642    3    0    1
 -2       347      1926      2117      2170
 -1      3643    3    0    1
 -2       974      1698      1789      2080
 -1      3644    3    0    1
 -2      1536      1709      1832      2046
 -1      3645    3    0    1
 -2       820       445      1554      1998
 -1      3646    3    0    1
 -2       344      1623      1817      2005
 -1      3647    3    0    1
 -2      1915      2111      2489      2171
 -1      3648    3    0    1
 -2      1749      1533      1760      1826
 -1      3649    3    0    1
 -2       883       392      1651      1985
 -1      3650    3    0    1
 -2        43       722       896      1770
 -1      3651    3    0    1
 -2      1564      1674      1875      1994
 -1      3652    3    0    1
 -2       506       939      1690      1900
 -1      3653    3    0    1
 -2      1212       293       439      1835
 -1      3654    3    0    1
 -2        43       407       722      1770
 -1      3655    3    0    1
 -2      1537        43      1642      1984
 -1      3656    3    0    1
 -2       372       728       923      1938
 -1      3657    3    0    1
 -2      1107       616      1126      1833
 -1      3658    3    0    1
 -2       624       637      1957      2124
 -1      3659    3    0    1
 -2      1525      1597      1756      1835
 -1      3660    3    0    1
 -2        18       866      1796      2012
 -1      3661    3    0    1
 -2      1642      1633      1729      1984
 -1      3662    3    0    1
 -2       813       668      1604      1788
 -1      3663    3    0    1
 -2      1588      1655      1809      1898
 -1      3664    3    0    1
 -2       293       843      1756      1835
 -1      3665    3    0    1
 -2       601      1825      2090      2162
 -1      3666    3    0    1
 -2        50        55       902      1813
 -1      3667    3    0    1
 -2       353       127      1698      1772
 -1      3668    3    0    1
 -2       879       468      1992      2147
 -1      3669    3    0    1
 -2       938       503       933      1802
 -1      3670    3    0    1
 -2      1138      1957      2002      2049
 -1      3671    3    0    1
 -2      2503      2557      2558      2614
 -1      3672    3    0    1
 -2       127       353       744      1772
 -1      3673    3    0    1
 -2      1810       470      1985      1989
 -1      3674    3    0    1
 -2      1588      1809      1868      1954
 -1      3675    3    0    1
 -2      1155       647      1154      1776
 -1      3676    3    0    1
 -2      1537      1154      1700      1776
 -1      3677    3    0    1
 -2      1154       647      1700      1776
 -1      3678    3    0    1
 -2       972       527      1622      2028
 -1      3679    3    0    1
 -2      1671      1708      1832      2045
 -1      3680    3    0    1
 -2      1262      1335      2597      1415
 -1      3681    3    0    1
 -2      1102       437      1927      2143
 -1      3682    3    0    1
 -2      1807       554      1933      1964
 -1      3683    3    0    1
 -2      1598       992      1726      1857
 -1      3684    3    0    1
 -2       390      2049      2061      2464
 -1      3685    3    0    1
 -2       460       865      1796      1850
 -1      3686    3    0    1
 -2       554      1626      1933      1964
 -1      3687    3    0    1
 -2       553       540       991      2478
 -1      3688    3    0    1
 -2      2506      2552      2553      2621
 -1      3689    3    0    1
 -2      2047      1864      2463      2732
 -1      3690    3    0    1
 -2       382       422      1123      1940
 -1      3691    3    0    1
 -2      2144      2046      2191      2246
 -1      3692    3    0    1
 -2       318       402       800      1937
 -1      3693    3    0    1
 -2      1530      1760      1778      1826
 -1      3694    3    0    1
 -2      1622      1749      1760      1826
 -1      3695    3    0    1
 -2       601       600      1080      1781
 -1      3696    3    0    1
 -2       601      1080      1676      1781
 -1      3697    3    0    1
 -2        14       384      2061      2464
 -1      3698    3    0    1
 -2      1560      1718      1818      1909
 -1      3699    3    0    1
 -2       331       164       755      2093
 -1      3700    3    0    1
 -2      1734       994      1749      1826
 -1      3701    3    0    1
 -2      1628      1790      1887      1976
 -1      3702    3    0    1
 -2       600       613      1084      1781
 -1      3703    3    0    1
 -2       613       782      1084      1781
 -1      3704    3    0    1
 -2       399       113       959      1782
 -1      3705    3    0    1
 -2       959       518      1618      1782
 -1      3706    3    0    1
 -2        91      1690      1842      2021
 -1      3707    3    0    1
 -2       398       933      1583      1783
 -1      3708    3    0    1
 -2      1583       933      1618      1783
 -1      3709    3    0    1
 -2      1615      1703      1790      1975
 -1      3710    3    0    1
 -2       288       290      1762      1786
 -1      3711    3    0    1
 -2      1563       288      1762      1786
 -1      3712    3    0    1
 -2      1153       645       646      1786
 -1      3713    3    0    1
 -2       645      1153       798      1786
 -1      3714    3    0    1
 -2       288      1153       290      1786
 -1      3715    3    0    1
 -2       798      1563      1572      1786
 -1      3716    3    0    1
 -2       645       798      1572      1786
 -1      3717    3    0    1
 -2      1153       288       798      1786
 -1      3718    3    0    1
 -2       798       288      1563      1786
 -1      3719    3    0    1
 -2       658      1577      1581      1931
 -1      3720    3    0    1
 -2      1633      1538      1737      1931
 -1      3721    3    0    1
 -2      1163       439      1597      1835
 -1      3722    3    0    1
 -2      1661      1612      1733      1835
 -1      3723    3    0    1
 -2       658      1170      1577      1931
 -1      3724    3    0    1
 -2      1756       700       843       696
 -1      3725    3    0    1
 -2      1070      1731      1899      1913
 -1      3726    3    0    1
 -2      1183      1680      1880      1896
 -1      3727    3    0    1
 -2      1069       216      1070      1899
 -1      3728    3    0    1
 -2      1582      1546      1667      1896
 -1      3729    3    0    1
 -2      1543      1604      1784      1788
 -1      3730    3    0    1
 -2      1788      1543      1937      2007
 -1      3731    3    0    1
 -2      1880      1680      1883      1896
 -1      3732    3    0    1
 -2       251      1106      1109      1927
 -1      3733    3    0    1
 -2       566      1029      1822      1925
 -1      3734    3    0    1
 -2      1052       579      1761      1888
 -1      3735    3    0    1
 -2       189      1042      1924      2011
 -1      3736    3    0    1
 -2      1835       843       700      1212
 -1      3737    3    0    1
 -2      1733      1612      1756      1835
 -1      3738    3    0    1
 -2        92       932      1739      1791
 -1      3739    3    0    1
 -2        95        92      1739      1791
 -1      3740    3    0    1
 -2       503       932      1618      1791
 -1      3741    3    0    1
 -2        92        95       932      1791
 -1      3742    3    0    1
 -2       227       423      1081      1798
 -1      3743    3    0    1
 -2      1655      1572      1775      1959
 -1      3744    3    0    1
 -2       365       756      1523      1980
 -1      3745    3    0    1
 -2       458       455       863      1792
 -1      3746    3    0    1
 -2      1695      1189      1845      1902
 -1      3747    3    0    1
 -2      1031       568      1761      1923
 -1      3748    3    0    1
 -2      1681      1618      1782      1974
 -1      3749    3    0    1
 -2      1520      1618      1791      1974
 -1      3750    3    0    1
 -2       859        13       863      1792
 -1      3751    3    0    1
 -2       859       414        13      1792
 -1      3752    3    0    1
 -2      1583      1618      1681      1974
 -1      3753    3    0    1
 -2      1579       539      1632      1964
 -1      3754    3    0    1
 -2       389       421      1125      2030
 -1      3755    3    0    1
 -2      1558      1619      1804      1919
 -1      3756    3    0    1
 -2      1842       491      1848      1900
 -1      3757    3    0    1
 -2      1624       329      1785      1830
 -1      3758    3    0    1
 -2      1560      1824      1910      1968
 -1      3759    3    0    1
 -2      1303      1304      2577      2583
 -1      3760    3    0    1
 -2       923      1996      2120      2494
 -1      3761    3    0    1
 -2       635       638      1141      1972
 -1      3762    3    0    1
 -2       343       144      2459      2096
 -1      3763    3    0    1
 -2       496       921      1938      1945
 -1      3764    3    0    1
 -2      1528      1553      1591      1873
 -1      3765    3    0    1
 -2       508       519       960      1795
 -1      3766    3    0    1
 -2       942       508       960      1795
 -1      3767    3    0    1
 -2       519       941       961      1795
 -1      3768    3    0    1
 -2       519       508       941      1795
 -1      3769    3    0    1
 -2      2481      1271      2564      2612
 -1      3770    3    0    1
 -2       144      1692      2459      2096
 -1      3771    3    0    1
 -2       808       810      1667      1883
 -1      3772    3    0    1
 -2      1554      1686      1746      1998
 -1      3773    3    0    1
 -2      2688      2700      2446      2454
 -1      3774    3    0    1
 -2      1626      1579      1933      1964
 -1      3775    3    0    1
 -2       701       695      1549      1838
 -1      3776    3    0    1
 -2      1149       644      1693      1894
 -1      3777    3    0    1
 -2      1082       599      1750      1922
 -1      3778    3    0    1
 -2      1732       611      1765      1920
 -1      3779    3    0    1
 -2      1641      1765      1847      1920
 -1      3780    3    0    1
 -2      1674       188      1797      1862
 -1      3781    3    0    1
 -2      1528      1591      1836      1873
 -1      3782    3    0    1
 -2       483       902      1813      1990
 -1      3783    3    0    1
 -2      1627      2008      2020      2041
 -1      3784    3    0    1
 -2      1656      1538      1787      1961
 -1      3785    3    0    1
 -2       196      1051      1888      2016
 -1      3786    3    0    1
 -2       615      1108      1877      1958
 -1      3787    3    0    1
 -2      1559      1644      1744      1968
 -1      3788    3    0    1
 -2      1610      1534      1878      1893
 -1      3789    3    0    1
 -2      1107       247      1735      2031
 -1      3790    3    0    1
 -2      1629      1552      1695      1902
 -1      3791    3    0    1
 -2       236       427      1089      2037
 -1      3792    3    0    1
 -2      1191       820      1845      1998
 -1      3793    3    0    1
 -2       445      1191       446      1998
 -1      3794    3    0    1
 -2      1088      1108      1798      1958
 -1      3795    3    0    1
 -2      1033       177      2134      2496
 -1      3796    3    0    1
 -2       326       333      1748      1821
 -1      3797    3    0    1
 -2       162      1523      1800      1980
 -1      3798    3    0    1
 -2       254       423      1088      1798
 -1      3799    3    0    1
 -2       254      1088      1108      1798
 -1      3800    3    0    1
 -2      1601       340      1610      1878
 -1      3801    3    0    1
 -2       920       913       491      1803
 -1      3802    3    0    1
 -2       540       553       754      1857
 -1      3803    3    0    1
 -2       308      1166       313      1804
 -1      3804    3    0    1
 -2      1641      1521      1765      1920
 -1      3805    3    0    1
 -2       313      1607      1654      1804
 -1      3806    3    0    1
 -2      1523       556      1918      2029
 -1      3807    3    0    1
 -2       685      1869      1936      2020
 -1      3808    3    0    1
 -2      1634      1560      1646      1806
 -1      3809    3    0    1
 -2      1634      1646      1750      1806
 -1      3810    3    0    1
 -2      1552      1629      1885      1894
 -1      3811    3    0    1
 -2       723       495       922      1939
 -1      3812    3    0    1
 -2      1868       602      1954      2015
 -1      3813    3    0    1
 -2      1574      1594      1652      1807
 -1      3814    3    0    1
 -2       554      1012      1626      1807
 -1      3815    3    0    1
 -2      1030      1052      2172      2526
 -1      3816    3    0    1
 -2      1012      1594      1626      1807
 -1      3817    3    0    1
 -2      1012       326      1594      1807
 -1      3818    3    0    1
 -2      1594       326      1652      1807
 -1      3819    3    0    1
 -2      2485      2484      2520      2570
 -1      3820    3    0    1
 -2       458       863      1697      1901
 -1      3821    3    0    1
 -2       587       590      1068      1808
 -1      3822    3    0    1
 -2       902       483       723      1990
 -1      3823    3    0    1
 -2      1833       422      1940      1986
 -1      3824    3    0    1
 -2      1635       403      1677      2003
 -1      3825    3    0    1
 -2       566      1028      1624      1830
 -1      3826    3    0    1
 -2      1881      1684      1533      1966
 -1      3827    3    0    1
 -2      1630      1662      1693      1894
 -1      3828    3    0    1
 -2       976      1519      1728      1983
 -1      3829    3    0    1
 -2      1555       882      1771      1810
 -1      3830    3    0    1
 -2       762      1026      2027      2117
 -1      3831    3    0    1
 -2      1690        91      1842      1900
 -1      3832    3    0    1
 -2      1008       551      1624      1821
 -1      3833    3    0    1
 -2       808      1667      1706      1883
 -1      3834    3    0    1
 -2      1626      1594      1702      1964
 -1      3835    3    0    1
 -2       218       346      1068      1808
 -1      3836    3    0    1
 -2      1102       782      1886      2092
 -1      3837    3    0    1
 -2       695       848      1207      1838
 -1      3838    3    0    1
 -2       333      1529      1748      1829
 -1      3839    3    0    1
 -2      1643      1529      1757      1829
 -1      3840    3    0    1
 -2      1528      1555      1771      1810
 -1      3841    3    0    1
 -2      1735       255      1958      2031
 -1      3842    3    0    1
 -2      1192      1683      1744      1818
 -1      3843    3    0    1
 -2      1718      1187      1752      1818
 -1      3844    3    0    1
 -2       426      1086      1522      1954
 -1      3845    3    0    1
 -2       131       126       977      1811
 -1      3846    3    0    1
 -2       131       977      1773      1811
 -1      3847    3    0    1
 -2       527       976       530      1983
 -1      3848    3    0    1
 -2       348       131      1773      1811
 -1      3849    3    0    1
 -2       902       483      1813      2032
 -1      3850    3    0    1
 -2      2148      1917      2469      2169
 -1      3851    3    0    1
 -2       993      1598      2076      2094
 -1      3852    3    0    1
 -2      1746      1686      1943      1956
 -1      3853    3    0    1
 -2       939      1739      1791      2021
 -1      3854    3    0    1
 -2       175       339      1722      1923
 -1      3855    3    0    1
 -2       960      1795      1860      1971
 -1      3856    3    0    1
 -2       330       331       755      1918
 -1      3857    3    0    1
 -2       455      1555      1836      1837
 -1      3858    3    0    1
 -2       863       458      1792      1901
 -1      3859    3    0    1
 -2       568      1031      1844      1923
 -1      3860    3    0    1
 -2      1117       623      1625      1872
 -1      3861    3    0    1
 -2      1288      2265      2285      2301
 -1      3862    3    0    1
 -2      1317      1383      2604      2667
 -1      3863    3    0    1
 -2      1735      1109      1759      2480
 -1      3864    3    0    1
 -2      1618      1583      1783      1974
 -1      3865    3    0    1
 -2       554      1013      1751      1933
 -1      3866    3    0    1
 -2       359       356      1935      2019
 -1      3867    3    0    1
 -2       325      1579      1704      1933
 -1      3868    3    0    1
 -2      1552      1629      1859      1885
 -1      3869    3    0    1
 -2        31      1884      2034      2174
 -1      3870    3    0    1
 -2       420       419      1595      1867
 -1      3871    3    0    1
 -2      1635      1707       403      1871
 -1      3872    3    0    1
 -2      1125       421      1126      1833
 -1      3873    3    0    1
 -2       913       491      1842      1900
 -1      3874    3    0    1
 -2      1828       366      1913      2011
 -1      3875    3    0    1
 -2       901       479       482      1950
 -1      3876    3    0    1
 -2        66       396      1689      1945
 -1      3877    3    0    1
 -2      1107      1833      1847      1914
 -1      3878    3    0    1
 -2       482       901      1950      2043
 -1      3879    3    0    1
 -2       921       396        66      1945
 -1      3880    3    0    1
 -2      1901      1861      1947      2012
 -1      3881    3    0    1
 -2       491       914      1848      1900
 -1      3882    3    0    1
 -2      1541      1542      1784      2006
 -1      3883    3    0    1
 -2        88      1865      2044      2087
 -1      3884    3    0    1
 -2       914      1614      1848      1900
 -1      3885    3    0    1
 -2       506      1690      1802      1900
 -1      3886    3    0    1
 -2       600       613      1781      2514
 -1      3887    3    0    1
 -2       391      1837      1963      1989
 -1      3888    3    0    1
 -2      1232      1233      2532      2533
 -1      3889    3    0    1
 -2       495       923      1938      1996
 -1      3890    3    0    1
 -2      1069       603      1089      1820
 -1      3891    3    0    1
 -2      1101       612      1103      2121
 -1      3892    3    0    1
 -2       592       603      1069      1820
 -1      3893    3    0    1
 -2      2123        46        58      2139
 -1      3894    3    0    1
 -2      1808       590      1819      1978
 -1      3895    3    0    1
 -2       592       603      1820      1855
 -1      3896    3    0    1
 -2      1534      1587      1601      1878
 -1      3897    3    0    1
 -2       783       617      2209      2235
 -1      3898    3    0    1
 -2       777      1877      2004      2091
 -1      3899    3    0    1
 -2      2510      1766      2524      2726
 -1      3900    3    0    1
 -2       469       456       881      2171
 -1      3901    3    0    1
 -2      1935       359      2019      2042
 -1      3902    3    0    1
 -2      1543      1596      1895      1937
 -1      3903    3    0    1
 -2      1202       321      1199      1936
 -1      3904    3    0    1
 -2      1386      1321      1411      2655
 -1      3905    3    0    1
 -2      1917      2111      2469      2523
 -1      3906    3    0    1
 -2       918      1831      2100      2483
 -1      3907    3    0    1
 -2      1822       566      1830      1840
 -1      3908    3    0    1
 -2       396        66      1689      1842
 -1      3909    3    0    1
 -2      1575      1699      1724      1889
 -1      3910    3    0    1
 -2      1023       563       566      1840
 -1      3911    3    0    1
 -2      1601      1587      1839      1841
 -1      3912    3    0    1
 -2       563      1023      1722      1840
 -1      3913    3    0    1
 -2      1722      1029      1822      1840
 -1      3914    3    0    1
 -2      1643      1719      1757      1876
 -1      3915    3    0    1
 -2      1563       429      1815      1875
 -1      3916    3    0    1
 -2      1764      1601      1839      1841
 -1      3917    3    0    1
 -2      1674      1720      1819      1875
 -1      3918    3    0    1
 -2       189       366      1042      1828
 -1      3919    3    0    1
 -2      1526      1599      1643      1876
 -1      3920    3    0    1
 -2      1673      1563      1815      1875
 -1      3921    3    0    1
 -2       913       491      1803      1842
 -1      3922    3    0    1
 -2      1643      1599      1719      1876
 -1      3923    3    0    1
 -2      1569      1785      1821      1876
 -1      3924    3    0    1
 -2      1815       429      1819      1875
 -1      3925    3    0    1
 -2       402       318      1895      1937
 -1      3926    3    0    1
 -2      1044      1066      2069      2486
 -1      3927    3    0    1
 -2      2130      1993      2174      2527
 -1      3928    3    0    1
 -2      1628      1556      1908      1956
 -1      3929    3    0    1
 -2      1977      1027      2062      2066
 -1      3930    3    0    1
 -2      1997        14      2002      2061
 -1      3931    3    0    1
 -2       264       266      2084      2477
 -1      3932    3    0    1
 -2      1582      1707      1714      1871
 -1      3933    3    0    1
 -2        82        90      2044      2136
 -1      3934    3    0    1
 -2      1102      1927      2064      2143
 -1      3935    3    0    1
 -2      1865       916      1948      1952
 -1      3936    3    0    1
 -2      1137       636       637      1991
 -1      3937    3    0    1
 -2      1546      1582      1667      1955
 -1      3938    3    0    1
 -2      1625      1118      1631      1867
 -1      3939    3    0    1
 -2       623      1625      1872      1941
 -1      3940    3    0    1
 -2       419      1118      1685      1867
 -1      3941    3    0    1
 -2      1480      2673      2697      2402
 -1      3942    3    0    1
 -2       919       494      1803      1942
 -1      3943    3    0    1
 -2      1865       505      2052      2102
 -1      3944    3    0    1
 -2       712       885      1850      2495
 -1      3945    3    0    1
 -2      1443      1455      1459      2704
 -1      3946    3    0    1
 -2       505       937      1580      2102
 -1      3947    3    0    1
 -2      1052       193      1843      2526
 -1      3948    3    0    1
 -2      1254      2489      1255      2559
 -1      3949    3    0    1
 -2        16       417      1796      1837
 -1      3950    3    0    1
 -2       417        16       864      1837
 -1      3951    3    0    1
 -2       455       458       864      1837
 -1      3952    3    0    1
 -2        16       391       858      1837
 -1      3953    3    0    1
 -2      1207       311       448      1838
 -1      3954    3    0    1
 -2       311      1207       848      1838
 -1      3955    3    0    1
 -2       695       701       848      1838
 -1      3956    3    0    1
 -2       848       701      1549      1838
 -1      3957    3    0    1
 -2      1535       848      1549      1838
 -1      3958    3    0    1
 -2      1549      1823      1535      1838
 -1      3959    3    0    1
 -2       311       848      1535      1838
 -1      3960    3    0    1
 -2      1587      1024      1601      1839
 -1      3961    3    0    1
 -2      1673      1564      1815      1946
 -1      3962    3    0    1
 -2      1582      1546      1871      1955
 -1      3963    3    0    1
 -2       515       518       953      1981
 -1      3964    3    0    1
 -2      1024       563      1764      1839
 -1      3965    3    0    1
 -2       563      1023      1764      1839
 -1      3966    3    0    1
 -2       515       953      1773      1858
 -1      3967    3    0    1
 -2      1081       599      1087      1922
 -1      3968    3    0    1
 -2      1601      1024      1764      1839
 -1      3969    3    0    1
 -2      1684      1533      1966      1586
 -1      3970    3    0    1
 -2      1180       806      1684      1966
 -1      3971    3    0    1
 -2      1575      1548      1743      1921
 -1      3972    3    0    1
 -2       718       885        34      2034
 -1      3973    3    0    1
 -2       340      1587      1601      1841
 -1      3974    3    0    1
 -2      1048       578      1764      1841
 -1      3975    3    0    1
 -2       578      1047      1764      1841
 -1      3976    3    0    1
 -2       382      1641      1765      1847
 -1      3977    3    0    1
 -2      1126      1107      1833      1847
 -1      3978    3    0    1
 -2      1047      1601      1764      1841
 -1      3979    3    0    1
 -2      1047       340      1601      1841
 -1      3980    3    0    1
 -2       131       978      1811      1953
 -1      3981    3    0    1
 -2       755      1523      1918      2093
 -1      3982    3    0    1
 -2      1109      1735      1759      1927
 -1      3983    3    0    1
 -2      1167      1168      1724      1889
 -1      3984    3    0    1
 -2       799      1668       292      1889
 -1      3985    3    0    1
 -2      1548      1575      1668      1889
 -1      3986    3    0    1
 -2       292       410       799      1889
 -1      3987    3    0    1
 -2       251      1109      1759      1927
 -1      3988    3    0    1
 -2       331      1918      1925      2093
 -1      3989    3    0    1
 -2       915       492      1831      2102
 -1      3990    3    0    1
 -2       591      1071      1935      2010
 -1      3991    3    0    1
 -2       196       189      1924      2011
 -1      3992    3    0    1
 -2       901      1742      2025      2043
 -1      3993    3    0    1
 -2      1143      1916      2014      2039
 -1      3994    3    0    1
 -2      2154      2482      1256      2576
 -1      3995    3    0    1
 -2       285        18      1861      2012
 -1      3996    3    0    1
 -2      1161      1881       336      1162
 -1      3997    3    0    1
 -2       427      1988      1995      2037
 -1      3998    3    0    1
 -2       389      1125      1872      2030
 -1      3999    3    0    1
 -2       654       653      1638      1919
 -1      4000    3    0    1
 -2       339       199      1764      1846
 -1      4001    3    0    1
 -2       199       339      1031      1846
 -1      4002    3    0    1
 -2       199      1048      1764      1846
 -1      4003    3    0    1
 -2       199      1031      1051      1846
 -1      4004    3    0    1
 -2      1023       339      1764      1846
 -1      4005    3    0    1
 -2       382       380      1107      1847
 -1      4006    3    0    1
 -2       380       382      1765      1847
 -1      4007    3    0    1
 -2       483       903      1990      2032
 -1      4008    3    0    1
 -2      1548      1575      1699      1921
 -1      4009    3    0    1
 -2       382      1107      1126      1847
 -1      4010    3    0    1
 -2       914        67      1805      1848
 -1      4011    3    0    1
 -2      1583      1681      1783      1974
 -1      4012    3    0    1
 -2      1125       627       628      2013
 -1      4013    3    0    1
 -2        67       914      1614      1848
 -1      4014    3    0    1
 -2       754       553       552      1849
 -1      4015    3    0    1
 -2      1997        14      2061      2464
 -1      4016    3    0    1
 -2       762      1977      2027      2105
 -1      4017    3    0    1
 -2      1067      1063      1518      1978
 -1      4018    3    0    1
 -2       736      1635      1681      1981
 -1      4019    3    0    1
 -2       935      1863      2052      2109
 -1      4020    3    0    1
 -2       601       600      2090      2514
 -1      4021    3    0    1
 -2       518       736      1681      1981
 -1      4022    3    0    1
 -2       384        14       867      2464
 -1      4023    3    0    1
 -2       754      1849      1857      2086
 -1      4024    3    0    1
 -2      1063       425      1518      1978
 -1      4025    3    0    1
 -2      1721        88      2044      2087
 -1      4026    3    0    1
 -2      1010       365      1980      2105
 -1      4027    3    0    1
 -2       552       565      1010      1849
 -1      4028    3    0    1
 -2       518      1681      1782      1981
 -1      4029    3    0    1
 -2       565       762      1010      1849
 -1      4030    3    0    1
 -2      1754      1736      2050      2467
 -1      4031    3    0    1
 -2      1598      2086      2094      2478
 -1      4032    3    0    1
 -2       335       972      1622      2028
 -1      4033    3    0    1
 -2      2014       796      2040      2464
 -1      4034    3    0    1
 -2       471       712       885      1850
 -1      4035    3    0    1
 -2       865       460       884      1850
 -1      4036    3    0    1
 -2      1534      1587      1878      1893
 -1      4037    3    0    1
 -2      1863       111      1949      2095
 -1      4038    3    0    1
 -2       884      1850      1911      1963
 -1      4039    3    0    1
 -2      1651       884      1911      1963
 -1      4040    3    0    1
 -2      1559      1744      1910      1968
 -1      4041    3    0    1
 -2      1808      1874      1913      1962
 -1      4042    3    0    1
 -2       392       884      1651      1963
 -1      4043    3    0    1
 -2       577       564      1046      2113
 -1      4044    3    0    1
 -2      1535       448      1838      2020
 -1      4045    3    0    1
 -2       624       625      1934      2167
 -1      4046    3    0    1
 -2       860      1915      2489      2171
 -1      4047    3    0    1
 -2       636      1138      1991      2002
 -1      4048    3    0    1
 -2      2522      2470      2566      2609
 -1      4049    3    0    1
 -2      1552      1693      1885      1891
 -1      4050    3    0    1
 -2        13      1694      1885      1891
 -1      4051    3    0    1
 -2       841       844      1711      1936
 -1      4052    3    0    1
 -2      1869      1627      1893      1936
 -1      4053    3    0    1
 -2      2493      1376      2181      2732
 -1      4054    3    0    1
 -2       935        82      1863      2109
 -1      4055    3    0    1
 -2      1576      1552      1606      1859
 -1      4056    3    0    1
 -2      1565      1670      1738      1862
 -1      4057    3    0    1
 -2       188      1738      1797      1862
 -1      4058    3    0    1
 -2       415      1136      1694      1859
 -1      4059    3    0    1
 -2      1576       415      1694      1859
 -1      4060    3    0    1
 -2       737      1755      1860      1953
 -1      4061    3    0    1
 -2      1552      1576      1694      1859
 -1      4062    3    0    1
 -2       858       455      1837      1989
 -1      4063    3    0    1
 -2       638       635      1666      1972
 -1      4064    3    0    1
 -2       115       737      1755      1860
 -1      4065    3    0    1
 -2       113       115      1755      1860
 -1      4066    3    0    1
 -2       115       113       737      1860
 -1      4067    3    0    1
 -2       602      1086      1868      1954
 -1      4068    3    0    1
 -2      1653      1750      1806      1979
 -1      4069    3    0    1
 -2       426      1522      1898      1954
 -1      4070    3    0    1
 -2       602      1087      1922      2015
 -1      4071    3    0    1
 -2      1150      1147      1894      1902
 -1      4072    3    0    1
 -2       916       917      1948      1952
 -1      4073    3    0    1
 -2      1552      1629      1894      1902
 -1      4074    3    0    1
 -2       628      1124      1916      2013
 -1      4075    3    0    1
 -2      1593       738      1953      2466
 -1      4076    3    0    1
 -2       737       520       978      1953
 -1      4077    3    0    1
 -2       427       236      1087      2015
 -1      4078    3    0    1
 -2      2065       897      2100      2101
 -1      4079    3    0    1
 -2       372        72       916      1952
 -1      4080    3    0    1
 -2       737       348      1755      1953
 -1      4081    3    0    1
 -2       348       131      1811      1953
 -1      4082    3    0    1
 -2      1137       862      2468      1234
 -1      4083    3    0    1
 -2      1958       255      1987      2031
 -1      4084    3    0    1
 -2      1124       628       627      2013
 -1      4085    3    0    1
 -2        88       936      1865      2110
 -1      4086    3    0    1
 -2       936       916      1865      2110
 -1      4087    3    0    1
 -2      1676      1065      2019      2078
 -1      4088    3    0    1
 -2      2523      2560      2721      2722
 -1      4089    3    0    1
 -2       356       215      2019      2078
 -1      4090    3    0    1
 -2       128       343      2459      2096
 -1      4091    3    0    1
 -2       755       164      1763      2093
 -1      4092    3    0    1
 -2       264       266      1660      2084
 -1      4093    3    0    1
 -2        82       935      1863      1865
 -1      4094    3    0    1
 -2       935        82       936      1865
 -1      4095    3    0    1
 -2      1709      1678      1832      2045
 -1      4096    3    0    1
 -2        82        88       936      1865
 -1      4097    3    0    1
 -2       971      1811      1817      1983
 -1      4098    3    0    1
 -2      2267      2212      2679      2392
 -1      4099    3    0    1
 -2       916       492       936      1865
 -1      4100    3    0    1
 -2       492       505       936      1865
 -1      4101    3    0    1
 -2      2054      2467      2168      2678
 -1      4102    3    0    1
 -2       519      1593      1860      1949
 -1      4103    3    0    1
 -2       531       979      1772      1953
 -1      4104    3    0    1
 -2      2516      2482      2549      2599
 -1      4105    3    0    1
 -2      1090       777       603      2004
 -1      4106    3    0    1
 -2       961       111      1593      1949
 -1      4107    3    0    1
 -2      1798      1088      1877      2004
 -1      4108    3    0    1
 -2       626      1123      1625      1940
 -1      4109    3    0    1
 -2      2590      1253      2737      2741
 -1      4110    3    0    1
 -2       956      1801      2085      2465
 -1      4111    3    0    1
 -2      1795       519      1860      1949
 -1      4112    3    0    1
 -2       811       813      1604      1895
 -1      4113    3    0    1
 -2      1013      1007      1751      2093
 -1      4114    3    0    1
 -2      1032       330      1918      2088
 -1      4115    3    0    1
 -2      1846       199      1924      2016
 -1      4116    3    0    1
 -2      1684      1533      1586      1600
 -1      4117    3    0    1
 -2       599      1082      1086      1922
 -1      4118    3    0    1
 -2       380      1099      1847      1920
 -1      4119    3    0    1
 -2      1583      1543      1814      2007
 -1      4120    3    0    1
 -2       389      1125      1142      1872
 -1      4121    3    0    1
 -2       388       389      1142      1872
 -1      4122    3    0    1
 -2      1085      1064      2476      2519
 -1      4123    3    0    1
 -2      1233      1337      2595      2624
 -1      4124    3    0    1
 -2       120       344       971      2005
 -1      4125    3    0    1
 -2       120      1811      1905      2005
 -1      4126    3    0    1
 -2      1623       344      1753      2005
 -1      4127    3    0    1
 -2      1623      1753      1817      2005
 -1      4128    3    0    1
 -2      1596      1571      1647      2007
 -1      4129    3    0    1
 -2      1604      1541      1784      2006
 -1      4130    3    0    1
 -2       344       743      1753      2005
 -1      4131    3    0    1
 -2       971       344      1817      2005
 -1      4132    3    0    1
 -2      1604      1784      1788      2006
 -1      4133    3    0    1
 -2       743      1568      1753      2005
 -1      4134    3    0    1
 -2       615       604       777      1877
 -1      4135    3    0    1
 -2       604       615      1108      1877
 -1      4136    3    0    1
 -2      1088       604      1108      1877
 -1      4137    3    0    1
 -2       615       777      1109      1877
 -1      4138    3    0    1
 -2      1546      1589      1680      1880
 -1      4139    3    0    1
 -2        37        38       717      2018
 -1      4140    3    0    1
 -2      1120       375      1660      1967
 -1      4141    3    0    1
 -2      1120      1957      2125      2151
 -1      4142    3    0    1
 -2      1299      2628      2663      2702
 -1      4143    3    0    1
 -2      1125      1142      1872      2030
 -1      4144    3    0    1
 -2       480       493      1948      2100
 -1      4145    3    0    1
 -2      2430      2677      2447      2455
 -1      4146    3    0    1
 -2       556       755      1523      1918
 -1      4147    3    0    1
 -2      1820       427      1995      2037
 -1      4148    3    0    1
 -2      1882      2119      2153      2484
 -1      4149    3    0    1
 -2      1745      1561      1898      1912
 -1      4150    3    0    1
 -2       426      1588      1898      1912
 -1      4151    3    0    1
 -2       885        34      2034      2495
 -1      4152    3    0    1
 -2      1065       356       359      2019
 -1      4153    3    0    1
 -2      1013       327      1763      1933
 -1      4154    3    0    1
 -2       327       325      1763      1933
 -1      4155    3    0    1
 -2       456       861      1915      2114
 -1      4156    3    0    1
 -2        14       711      2002      2131
 -1      4157    3    0    1
 -2      1522       426      1898      1912
 -1      4158    3    0    1
 -2       433        46      1990      2033
 -1      4159    3    0    1
 -2      1191       445       820      1998
 -1      4160    3    0    1
 -2      1562      1679      1767      1912
 -1      4161    3    0    1
 -2      1679      1561      1745      1912
 -1      4162    3    0    1
 -2      1767      1679      1898      1912
 -1      4163    3    0    1
 -2       483       718       903      1884
 -1      4164    3    0    1
 -2       483       472       718      1884
 -1      4165    3    0    1
 -2      1380      2265      2299      2658
 -1      4166    3    0    1
 -2      1330      1366      1471      2368
 -1      4167    3    0    1
 -2       850       703      1790      1887
 -1      4168    3    0    1
 -2      1049      1052      1843      1888
 -1      4169    3    0    1
 -2      1049       579      1052      1888
 -1      4170    3    0    1
 -2       579      1050      1051      1888
 -1      4171    3    0    1
 -2       459       867      1997      2040
 -1      4172    3    0    1
 -2      1050       189      1051      1888
 -1      4173    3    0    1
 -2      1029       330      1822      1925
 -1      4174    3    0    1
 -2      1624       566      1822      1925
 -1      4175    3    0    1
 -2       189       196      1051      1888
 -1      4176    3    0    1
 -2      1822       330      1918      1925
 -1      4177    3    0    1
 -2      1167       292      1168      1889
 -1      4178    3    0    1
 -2      1168       292      1724      1889
 -1      4179    3    0    1
 -2       592       603      1855      2462
 -1      4180    3    0    1
 -2      1709      2045      2046      2063
 -1      4181    3    0    1
 -2      1025       564      1977      2113
 -1      4182    3    0    1
 -2      2474      2471      2538      2597
 -1      4183    3    0    1
 -2      2592      1257      2307      2678
 -1      4184    3    0    1
 -2        18       285       866      2012
 -1      4185    3    0    1
 -2       285      1861      2001      2012
 -1      4186    3    0    1
 -2       587       590      1808      1978
 -1      4187    3    0    1
 -2      1518       425      1809      1978
 -1      4188    3    0    1
 -2       722       482      1950      2043
 -1      4189    3    0    1
 -2       580       591      1731      2010
 -1      4190    3    0    1
 -2      1715      1564      1946      1994
 -1      4191    3    0    1
 -2      1027      2472      1219      2548
 -1      4192    3    0    1
 -2      1050      1731      1913      2011
 -1      4193    3    0    1
 -2      1627      1893      1936      2020
 -1      4194    3    0    1
 -2      1656       393      1907      1929
 -1      4195    3    0    1
 -2       813      1788      1895      1937
 -1      4196    3    0    1
 -2      1627      1534      1869      1893
 -1      4197    3    0    1
 -2      1691      1184      1747      1903
 -1      4198    3    0    1
 -2       643      1147      1693      1894
 -1      4199    3    0    1
 -2      1123       626      1641      1940
 -1      4200    3    0    1
 -2       519       961      1593      1949
 -1      4201    3    0    1
 -2      1896       405       810       320
 -1      4202    3    0    1
 -2       815       405      1883      1896
 -1      4203    3    0    1
 -2       320       405       815      1896
 -1      4204    3    0    1
 -2      1680       815      1883      1896
 -1      4205    3    0    1
 -2       810      1883       405      1896
 -1      4206    3    0    1
 -2       297      1182       316      1897
 -1      4207    3    0    1
 -2       812      1541      1604      1897
 -1      4208    3    0    1
 -2      1182       297       812      1897
 -1      4209    3    0    1
 -2      1173       297       316      1897
 -1      4210    3    0    1
 -2       812       297      1541      1897
 -1      4211    3    0    1
 -2      1541       297      1616      1897
 -1      4212    3    0    1
 -2       297      1173      1172      1897
 -1      4213    3    0    1
 -2       297      1172      1616      1897
 -1      4214    3    0    1
 -2       898      1866      2055      2123
 -1      4215    3    0    1
 -2      2616      2542      2629      2675
 -1      4216    3    0    1
 -2       282       388      1142      2036
 -1      4217    3    0    1
 -2      1534      1640      1711      1936
 -1      4218    3    0    1
 -2      1534      1869      1893      1936
 -1      4219    3    0    1
 -2      1069       592      1820      1899
 -1      4220    3    0    1
 -2      1069      1070       592      1899
 -1      4221    3    0    1
 -2       625       624      1660      2167
 -1      4222    3    0    1
 -2       530      1728      1773      1983
 -1      4223    3    0    1
 -2      1640      1534      1893      1936
 -1      4224    3    0    1
 -2      1199       685      1869      1936
 -1      4225    3    0    1
 -2      1810       392      1963      1989
 -1      4226    3    0    1
 -2      1690      1842      1848      1900
 -1      4227    3    0    1
 -2       304      1629      1845      1902
 -1      4228    3    0    1
 -2      1629       304      1894      1902
 -1      4229    3    0    1
 -2       412       304      1189      1902
 -1      4230    3    0    1
 -2       304       412      1147      1902
 -1      4231    3    0    1
 -2      1189       304      1190      1902
 -1      4232    3    0    1
 -2       304      1147      1150      1902
 -1      4233    3    0    1
 -2      1190       304      1845      1902
 -1      4234    3    0    1
 -2       304      1150      1894      1902
 -1      4235    3    0    1
 -2      1184       303       818      1903
 -1      4236    3    0    1
 -2       303       845       832      1903
 -1      4237    3    0    1
 -2       818       303      1747      1903
 -1      4238    3    0    1
 -2       414        13      1630      1904
 -1      4239    3    0    1
 -2      1630        13      1891      1904
 -1      4240    3    0    1
 -2       113      1755      1782      1971
 -1      4241    3    0    1
 -2      1755       113      1860      1971
 -1      4242    3    0    1
 -2      1588       426      1898      1954
 -1      4243    3    0    1
 -2      1788      1784      1814      2006
 -1      4244    3    0    1
 -2       531       978      1772      1905
 -1      4245    3    0    1
 -2       978       531       743      1905
 -1      4246    3    0    1
 -2       532       531      1772      1905
 -1      4247    3    0    1
 -2       531       532       743      1905
 -1      4248    3    0    1
 -2       896        43      1770      1930
 -1      4249    3    0    1
 -2      1538      1656      1787      1930
 -1      4250    3    0    1
 -2      1554       416      1746      1943
 -1      4251    3    0    1
 -2      1642      1538      1787      1930
 -1      4252    3    0    1
 -2      2631      1299      2694      2721
 -1      4253    3    0    1
 -2       914      1907       393       919
 -1      4254    3    0    1
 -2       702      1214      1688      1908
 -1      4255    3    0    1
 -2       690      1214       702      1908
 -1      4256    3    0    1
 -2      1622       527      1623      2028
 -1      4257    3    0    1
 -2       567      1844      1918      2029
 -1      4258    3    0    1
 -2       944        88      1721      2513
 -1      4259    3    0    1
 -2       306      1192      1818      1909
 -1      4260    3    0    1
 -2       554      1012      1807      1969
 -1      4261    3    0    1
 -2      1012      1008      1821      1969
 -1      4262    3    0    1
 -2      1674      1564      1862      1994
 -1      4263    3    0    1
 -2       472       718      1884      1911
 -1      4264    3    0    1
 -2       472       471       718      1911
 -1      4265    3    0    1
 -2       471       472       717      1911
 -1      4266    3    0    1
 -2       717       472      1884      1911
 -1      4267    3    0    1
 -2       717        36       884      1911
 -1      4268    3    0    1
 -2       884        36      1651      1911
 -1      4269    3    0    1
 -2       722      1532      1570      2043
 -1      4270    3    0    1
 -2        36        38      1651      1911
 -1      4271    3    0    1
 -2        38        36       717      1911
 -1      4272    3    0    1
 -2      1588      1562      1655      1912
 -1      4273    3    0    1
 -2      1588      1655      1898      1912
 -1      4274    3    0    1
 -2      1655      1767      1898      1912
 -1      4275    3    0    1
 -2      1070      1050      1731      1913
 -1      4276    3    0    1
 -2       346       218      1070      1913
 -1      4277    3    0    1
 -2       346      1070      1899      1913
 -1      4278    3    0    1
 -2       366       218      1874      1913
 -1      4279    3    0    1
 -2       218       366      1070      1913
 -1      4280    3    0    1
 -2       366      1050      1070      1913
 -1      4281    3    0    1
 -2       993       973      2460      2076
 -1      4282    3    0    1
 -2      1560      1646      1824      1968
 -1      4283    3    0    1
 -2      2488      2152      2188      2208
 -1      4284    3    0    1
 -2       356       772      1071      1935
 -1      4285    3    0    1
 -2      1927       436      2084      2143
 -1      4286    3    0    1
 -2       591       592      1899      1935
 -1      4287    3    0    1
 -2       616       627      1833      1914
 -1      4288    3    0    1
 -2      1107       616      1833      1914
 -1      4289    3    0    1
 -2       616      1107      1735      1914
 -1      4290    3    0    1
 -2       627      1106      1127      1914
 -1      4291    3    0    1
 -2       627       616      1106      1914
 -1      4292    3    0    1
 -2       865       391        16      1963
 -1      4293    3    0    1
 -2       881       879       468      1992
 -1      4294    3    0    1
 -2       457       456       711      1915
 -1      4295    3    0    1
 -2        31        34       716      1993
 -1      4296    3    0    1
 -2      1062       428      1988      2035
 -1      4297    3    0    1
 -2       624       625      1121      2525
 -1      4298    3    0    1
 -2      1195      1767      1959      1960
 -1      4299    3    0    1
 -2      1671      2077      2097      2115
 -1      4300    3    0    1
 -2       861       711       456      1915
 -1      4301    3    0    1
 -2      1064      1085      2476      1230
 -1      4302    3    0    1
 -2       993      2460      1217      1218
 -1      4303    3    0    1
 -2       360       193      2170      2176
 -1      4304    3    0    1
 -2       568      1030      1761      2172
 -1      4305    3    0    1
 -2      1849       565      1977      2066
 -1      4306    3    0    1
 -2      1573      1656      1787      1961
 -1      4307    3    0    1
 -2       590      1808      1819      1962
 -1      4308    3    0    1
 -2       459      1997      2017      2040
 -1      4309    3    0    1
 -2       255       254      1958      1987
 -1      4310    3    0    1
 -2      1796        16      1837      1963
 -1      4311    3    0    1
 -2        14       711      1524      2002
 -1      4312    3    0    1
 -2      1087      1081      1922      2015
 -1      4313    3    0    1
 -2       711       457      1915      2002
 -1      4314    3    0    1
 -2      1735       615      1877      1958
 -1      4315    3    0    1
 -2      1874      1828      1913      1962
 -1      4316    3    0    1
 -2       865        16      1796      1963
 -1      4317    3    0    1
 -2      1538      1577      1931      1961
 -1      4318    3    0    1
 -2      1099      1847      1920      2031
 -1      4319    3    0    1
 -2      1868      1954      1988      2015
 -1      4320    3    0    1
 -2       457       636      1991      2002
 -1      4321    3    0    1
 -2        38      1651      1911      2018
 -1      4322    3    0    1
 -2      1801       956      2000      2095
 -1      4323    3    0    1
 -2       628      1124      1143      1916
 -1      4324    3    0    1
 -2       289      1195       317      1960
 -1      4325    3    0    1
 -2       639       628      1143      1916
 -1      4326    3    0    1
 -2       923        72      1938      1996
 -1      4327    3    0    1
 -2       864      1901      1947      2012
 -1      4328    3    0    1
 -2       744      1723      1772      2459
 -1      4329    3    0    1
 -2      1030       568      1844      2116
 -1      4330    3    0    1
 -2       578       575      1841      1924
 -1      4331    3    0    1
 -2       575       578      1048      1924
 -1      4332    3    0    1
 -2      1048       578      1841      1924
 -1      4333    3    0    1
 -2       199       196      1048      1924
 -1      4334    3    0    1
 -2       972       976      1983      2028
 -1      4335    3    0    1
 -2      1026       762      1977      2117
 -1      4336    3    0    1
 -2       527       972      1983      2028
 -1      4337    3    0    1
 -2       567      1033      1844      2029
 -1      4338    3    0    1
 -2      1817       527      1983      2028
 -1      4339    3    0    1
 -2      1992       881      2489      2171
 -1      4340    3    0    1
 -2      2584      1365      1366      2610
 -1      4341    3    0    1
 -2       189       196      1888      2011
 -1      4342    3    0    1
 -2      2193      2218      2296      2672
 -1      4343    3    0    1
 -2       588      2009      2098      2162
 -1      4344    3    0    1
 -2      2097      1892      2488      2490
 -1      4345    3    0    1
 -2       193      1041      2170      2176
 -1      4346    3    0    1
 -2       366       189      1050      2011
 -1      4347    3    0    1
 -2      1675      1026      2170      2176
 -1      4348    3    0    1
 -2      2119      2118      2141      2178
 -1      4349    3    0    1
 -2      1145      1633      1737      1931
 -1      4350    3    0    1
 -2      1144      1145      1737      1931
 -1      4351    3    0    1
 -2       295       804      1170      1931
 -1      4352    3    0    1
 -2      1538      1577      1737      1931
 -1      4353    3    0    1
 -2       295       394       804      1931
 -1      4354    3    0    1
 -2      1144       295      1145      1931
 -1      4355    3    0    1
 -2       804       394      1577      1931
 -1      4356    3    0    1
 -2      1577       394      1737      1931
 -1      4357    3    0    1
 -2       394       295      1144      1931
 -1      4358    3    0    1
 -2       394      1144      1737      1931
 -1      4359    3    0    1
 -2       421       422      1833      1986
 -1      4360    3    0    1
 -2       878      1532      1669      1932
 -1      4361    3    0    1
 -2       467       878      1669      1932
 -1      4362    3    0    1
 -2       878       467      1532      1932
 -1      4363    3    0    1
 -2       895       479      1950      2026
 -1      4364    3    0    1
 -2       877        37      1742      1932
 -1      4365    3    0    1
 -2        58       381       724      2494
 -1      4366    3    0    1
 -2       711      1138      2002      2131
 -1      4367    3    0    1
 -2        38        37       877      1932
 -1      4368    3    0    1
 -2       467       877      1742      1932
 -1      4369    3    0    1
 -2      1524       716      1993      2114
 -1      4370    3    0    1
 -2       255       254      1108      1958
 -1      4371    3    0    1
 -2       120       971      1811      2005
 -1      4372    3    0    1
 -2       365       162      1010      1980
 -1      4373    3    0    1
 -2      1577      1581      1931      1961
 -1      4374    3    0    1
 -2      1948       898      2055      2123
 -1      4375    3    0    1
 -2       192      1049      1843      2487
 -1      4376    3    0    1
 -2       362      1030      2116      2526
 -1      4377    3    0    1
 -2      1088      1798      1877      1958
 -1      4378    3    0    1
 -2      1926       347      2117      2526
 -1      4379    3    0    1
 -2       432        31      1993      2130
 -1      4380    3    0    1
 -2      1108      1088      1877      1958
 -1      4381    3    0    1
 -2      1996        72      2129      2494
 -1      4382    3    0    1
 -2       592      1820      1899      1935
 -1      4383    3    0    1
 -2      1820       592      1855      1935
 -1      4384    3    0    1
 -2      1534      1711      1869      1936
 -1      4385    3    0    1
 -2       332      1202      1869      1936
 -1      4386    3    0    1
 -2       321      1202       332      1936
 -1      4387    3    0    1
 -2      1711       332      1869      1936
 -1      4388    3    0    1
 -2       321       844       841      1936
 -1      4389    3    0    1
 -2       844       332      1711      1936
 -1      4390    3    0    1
 -2       844       321       332      1936
 -1      4391    3    0    1
 -2        55       902      1813      2025
 -1      4392    3    0    1
 -2        50        55      1813      2025
 -1      4393    3    0    1
 -2      1216      1673      1946      2024
 -1      4394    3    0    1
 -2       495       496       922      1938
 -1      4395    3    0    1
 -2       382      1123      1641      1940
 -1      4396    3    0    1
 -2      1032      1844      1923      2088
 -1      4397    3    0    1
 -2       330      1722      1822      2088
 -1      4398    3    0    1
 -2       496       921       922      1938
 -1      4399    3    0    1
 -2       922       921      1689      1938
 -1      4400    3    0    1
 -2       330      1822      1918      2088
 -1      4401    3    0    1
 -2      1141       282      2001      2036
 -1      4402    3    0    1
 -2       839       310      1216      2024
 -1      4403    3    0    1
 -2      1118      1637      1685      1941
 -1      4404    3    0    1
 -2      1685      1637      1727      1941
 -1      4405    3    0    1
 -2       623      1118      1685      1941
 -1      4406    3    0    1
 -2       623      1685      1727      1941
 -1      4407    3    0    1
 -2       388       389      1872      1941
 -1      4408    3    0    1
 -2      1727      1584      1872      1941
 -1      4409    3    0    1
 -2      1625      1727      1872      1941
 -1      4410    3    0    1
 -2      1808      1062       346      1068
 -1      4411    3    0    1
 -2       433       899      2055      2128
 -1      4412    3    0    1
 -2       565      1027      1977      2066
 -1      4413    3    0    1
 -2       428      1069      1089      1995
 -1      4414    3    0    1
 -2       903      2174      2033      2032
 -1      4415    3    0    1
 -2       718      1884      1911      2034
 -1      4416    3    0    1
 -2      1762      1673      1815      2023
 -1      4417    3    0    1
 -2        45        57       895      1944
 -1      4418    3    0    1
 -2      1815      1673      1946      2023
 -1      4419    3    0    1
 -2       921        66      1689      1945
 -1      4420    3    0    1
 -2       921       507       943      1945
 -1      4421    3    0    1
 -2       396       921       943      1945
 -1      4422    3    0    1
 -2       496       507       921      1945
 -1      4423    3    0    1
 -2        91       396       943      1945
 -1      4424    3    0    1
 -2       902        55      2018      2025
 -1      4425    3    0    1
 -2       771      1045      2135      2177
 -1      4426    3    0    1
 -2       901        50      1950      2025
 -1      4427    3    0    1
 -2        37      1742      1932      2025
 -1      4428    3    0    1
 -2        46      1866      1990      2033
 -1      4429    3    0    1
 -2      1697       458      1901      1947
 -1      4430    3    0    1
 -2      1694      1697      1859      1947
 -1      4431    3    0    1
 -2      1861      1697      1901      1947
 -1      4432    3    0    1
 -2      1859      1697      1861      1947
 -1      4433    3    0    1
 -2       978      1772      1905      1953
 -1      4434    3    0    1
 -2       146      1692      2104      2475
 -1      4435    3    0    1
 -2       917        72      1948      1952
 -1      4436    3    0    1
 -2      1710      2057      2071      2474
 -1      4437    3    0    1
 -2        72       372      1938      1952
 -1      4438    3    0    1
 -2      1120       624      1957      2124
 -1      4439    3    0    1
 -2       898       493       917      1948
 -1      4440    3    0    1
 -2      1119       624      1934      2124
 -1      4441    3    0    1
 -2       480       493       898      1948
 -1      4442    3    0    1
 -2      1109       256       251      2480
 -1      4443    3    0    1
 -2       479       896      1950      2026
 -1      4444    3    0    1
 -2        45      1813      1944      1950
 -1      4445    3    0    1
 -2       895        45      1944      1950
 -1      4446    3    0    1
 -2       479       901       895      1950
 -1      4447    3    0    1
 -2        45       895       901      1950
 -1      4448    3    0    1
 -2      1944       895      1950      2026
 -1      4449    3    0    1
 -2       362       177       762      2027
 -1      4450    3    0    1
 -2       146       750      1692      2475
 -1      4451    3    0    1
 -2        45        50      1813      1950
 -1      4452    3    0    1
 -2        50        45       901      1950
 -1      4453    3    0    1
 -2       722       896      1770      2026
 -1      4454    3    0    1
 -2      1834       895      1944      2026
 -1      4455    3    0    1
 -2       479       895      1834      2026
 -1      4456    3    0    1
 -2      2497      1228      1262      1263
 -1      4457    3    0    1
 -2      1766      2146      2505      2633
 -1      4458    3    0    1
 -2      1674      1720      1875      1994
 -1      4459    3    0    1
 -2       531       520       738      1953
 -1      4460    3    0    1
 -2       531       738       979      1953
 -1      4461    3    0    1
 -2      1086       426      1588      1954
 -1      4462    3    0    1
 -2      1086      1588      1868      1954
 -1      4463    3    0    1
 -2       603      1089      1820      2004
 -1      4464    3    0    1
 -2       603      1820      1855      2004
 -1      4465    3    0    1
 -2      1556      1688      1908      1956
 -1      4466    3    0    1
 -2      1688      1556      1943      1956
 -1      4467    3    0    1
 -2      1253      2590      1407      2741
 -1      4468    3    0    1
 -2       637       636       794      1957
 -1      4469    3    0    1
 -2      1272      1271      1317      2564
 -1      4470    3    0    1
 -2       820      1554      1695      1998
 -1      4471    3    0    1
 -2      1240      2501      1241      2512
 -1      4472    3    0    1
 -2      2564      2503      2604      2614
 -1      4473    3    0    1
 -2      2063      1709      2493      2181
 -1      4474    3    0    1
 -2       601       588      1064      2519
 -1      4475    3    0    1
 -2      1009       552      1856      2066
 -1      4476    3    0    1
 -2      1015       555      2074      2475
 -1      4477    3    0    1
 -2      1744      1910      1560      1683
 -1      4478    3    0    1
 -2      1644      1559      1910      1968
 -1      4479    3    0    1
 -2      1910      1744      1560      1968
 -1      4480    3    0    1
 -2       750      1015      2074      2475
 -1      4481    3    0    1
 -2      2556      2531      2569      2597
 -1      4482    3    0    1
 -2       956       516      1801      2000
 -1      4483    3    0    1
 -2       938      1614      1900      1999
 -1      4484    3    0    1
 -2       517       516       956      2000
 -1      4485    3    0    1
 -2      1224      1223      2517      1291
 -1      4486    3    0    1
 -2      1741      1644      1910      1968
 -1      4487    3    0    1
 -2       637       794      1120      1957
 -1      4488    3    0    1
 -2      1742      1932      2025      2043
 -1      4489    3    0    1
 -2       624       637      1120      1957
 -1      4490    3    0    1
 -2      1646      1560      1744      1968
 -1      4491    3    0    1
 -2      1554       446      1686      1998
 -1      4492    3    0    1
 -2      1120       375      1967      2125
 -1      4493    3    0    1
 -2      1043      1797      1717      1965
 -1      4494    3    0    1
 -2       575      1043      1047      1965
 -1      4495    3    0    1
 -2       575      1841      1924      1965
 -1      4496    3    0    1
 -2      1828       575      1924      1965
 -1      4497    3    0    1
 -2      1841       575      1047      1965
 -1      4498    3    0    1
 -2       575      1841      1047       578
 -1      4499    3    0    1
 -2      1043      1674      1720      1965
 -1      4500    3    0    1
 -2      1720      1674      1874      1965
 -1      4501    3    0    1
 -2      1720      1874      1962      1965
 -1      4502    3    0    1
 -2       575      1828      1874      1965
 -1      4503    3    0    1
 -2      1874      1828      1962      1965
 -1      4504    3    0    1
 -2      1043       575      1874      1965
 -1      4505    3    0    1
 -2      1674      1043      1874      1965
 -1      4506    3    0    1
 -2       336      1180      1881      1966
 -1      4507    3    0    1
 -2       881       860      2489      2171
 -1      4508    3    0    1
 -2        55       717       902      2018
 -1      4509    3    0    1
 -2      1651        38      1932      2018
 -1      4510    3    0    1
 -2      1884       903      2032      2174
 -1      4511    3    0    1
 -2      1012       551      1008      1969
 -1      4512    3    0    1
 -2      1008       551      1751      1969
 -1      4513    3    0    1
 -2       551       554      1751      1969
 -1      4514    3    0    1
 -2       551      1012       554      1969
 -1      4515    3    0    1
 -2       554      1807      1933      1969
 -1      4516    3    0    1
 -2      1751       554      1933      1969
 -1      4517    3    0    1
 -2      1748       326      1821      1969
 -1      4518    3    0    1
 -2       326      1748      1807      1969
 -1      4519    3    0    1
 -2      1630      1550      1662      1970
 -1      4520    3    0    1
 -2      1662      1691      1747      1970
 -1      4521    3    0    1
 -2      1662      1550      1691      1970
 -1      4522    3    0    1
 -2      1691      1550      1904      1970
 -1      4523    3    0    1
 -2      1553      1691      1904      1970
 -1      4524    3    0    1
 -2       960       113       399      1971
 -1      4525    3    0    1
 -2        95       399      1520      1971
 -1      4526    3    0    1
 -2       942        95      1520      1971
 -1      4527    3    0    1
 -2       399       942       960      1971
 -1      4528    3    0    1
 -2       399        95       942      1971
 -1      4529    3    0    1
 -2      1141       638      1584      1972
 -1      4530    3    0    1
 -2      1136       635      1859      1972
 -1      4531    3    0    1
 -2       635      1136      1666      1972
 -1      4532    3    0    1
 -2      1666      1136      1859      1972
 -1      4533    3    0    1
 -2      1861      1859      1947      1972
 -1      4534    3    0    1
 -2       635      1861      1947      1972
 -1      4535    3    0    1
 -2      1859       635      1947      1972
 -1      4536    3    0    1
 -2      1792       863      1901      1973
 -1      4537    3    0    1
 -2       863      1697      1901      1973
 -1      4538    3    0    1
 -2       414      1792      1873      1973
 -1      4539    3    0    1
 -2      1630       414      1873      1973
 -1      4540    3    0    1
 -2      1885        13      1891      1973
 -1      4541    3    0    1
 -2      1630      1885      1891      1973
 -1      4542    3    0    1
 -2        13      1630      1891      1973
 -1      4543    3    0    1
 -2       503      1783      1791      1974
 -1      4544    3    0    1
 -2      1618       503      1791      1974
 -1      4545    3    0    1
 -2      1783       503      1618      1974
 -1      4546    3    0    1
 -2       503      1783      1618       933
 -1      4547    3    0    1
 -2       294      1621      1638      1975
 -1      4548    3    0    1
 -2      1557      1621      1703      1975
 -1      4549    3    0    1
 -2      1621      1557      1638      1975
 -1      4550    3    0    1
 -2       691       703      1887      1975
 -1      4551    3    0    1
 -2       294       444      1621      1975
 -1      4552    3    0    1
 -2       835       294      1215      1975
 -1      4553    3    0    1
 -2       691      1215       703      1975
 -1      4554    3    0    1
 -2       835       691      1703      1975
 -1      4555    3    0    1
 -2      1215       691       835      1975
 -1      4556    3    0    1
 -2       444       835      1703      1975
 -1      4557    3    0    1
 -2       444       294       835      1975
 -1      4558    3    0    1
 -2      1703       691      1887      1975
 -1      4559    3    0    1
 -2      1621       444      1703      1975
 -1      4560    3    0    1
 -2       442      1214       833      1976
 -1      4561    3    0    1
 -2       850       442       834      1976
 -1      4562    3    0    1
 -2       834       442      1887      1976
 -1      4563    3    0    1
 -2       976      1519      1983      2028
 -1      4564    3    0    1
 -2      1026       762       565      1977
 -1      4565    3    0    1
 -2       916      1865      2110      2165
 -1      4566    3    0    1
 -2       484      1939      1990      2120
 -1      4567    3    0    1
 -2      2188      2620      2404      2728
 -1      4568    3    0    1
 -2       564       565      1027      1977
 -1      4569    3    0    1
 -2      1026       564      1675      1977
 -1      4570    3    0    1
 -2      1026       565       564      1977
 -1      4571    3    0    1
 -2       460      1850      1997      2127
 -1      4572    3    0    1
 -2      1030       568      2116      2172
 -1      4573    3    0    1
 -2      1025       564      1027      1977
 -1      4574    3    0    1
 -2       590      1067      1819      1978
 -1      4575    3    0    1
 -2      1067       590      1063      1978
 -1      4576    3    0    1
 -2       883       392      1985      1989
 -1      4577    3    0    1
 -2      1837      1810      1963      1989
 -1      4578    3    0    1
 -2      1555       470      1810      1989
 -1      4579    3    0    1
 -2      1063       587      1868      1978
 -1      4580    3    0    1
 -2       470       883      1985      1989
 -1      4581    3    0    1
 -2       389      1872      1986      2030
 -1      4582    3    0    1
 -2      1104       614      1653      1982
 -1      4583    3    0    1
 -2       599      1082      1750      1982
 -1      4584    3    0    1
 -2      1750      1082      1806      1982
 -1      4585    3    0    1
 -2       423      1081      1798      1982
 -1      4586    3    0    1
 -2      1798      1081      1979      1982
 -1      4587    3    0    1
 -2       254       423      1798      1982
 -1      4588    3    0    1
 -2       254      1798      1979      1982
 -1      4589    3    0    1
 -2      1227      2471      1228      2497
 -1      4590    3    0    1
 -2       527       971      1817      1983
 -1      4591    3    0    1
 -2       527       977       971      1983
 -1      4592    3    0    1
 -2       977       530      1773      1983
 -1      4593    3    0    1
 -2      1651       392      1810      1985
 -1      4594    3    0    1
 -2       883       877       470      1985
 -1      4595    3    0    1
 -2       877      1651      1932      1985
 -1      4596    3    0    1
 -2       877       883      1651      1985
 -1      4597    3    0    1
 -2       470       467      1669      1985
 -1      4598    3    0    1
 -2       467       470       877      1985
 -1      4599    3    0    1
 -2       467       877      1932      1985
 -1      4600    3    0    1
 -2      1669       467      1932      1985
 -1      4601    3    0    1
 -2      1123      1625      1940      1986
 -1      4602    3    0    1
 -2      1123      1117      1625      1986
 -1      4603    3    0    1
 -2       421      1117      1123      1986
 -1      4604    3    0    1
 -2      1117       389      1872      1986
 -1      4605    3    0    1
 -2       421       389      1117      1986
 -1      4606    3    0    1
 -2      1798       254      1979      1987
 -1      4607    3    0    1
 -2       254      1798      1958      1987
 -1      4608    3    0    1
 -2       614      1979      1982      1987
 -1      4609    3    0    1
 -2       903       483      1884      2032
 -1      4610    3    0    1
 -2       611      1099      1920      1987
 -1      4611    3    0    1
 -2      1099       611       614      1987
 -1      4612    3    0    1
 -2       381        58      2123      2494
 -1      4613    3    0    1
 -2      1911       885      1850       471
 -1      4614    3    0    1
 -2       254       255      1105      1987
 -1      4615    3    0    1
 -2       254      1105      1982      1987
 -1      4616    3    0    1
 -2      1105       614      1982      1987
 -1      4617    3    0    1
 -2      1062       428      1868      1988
 -1      4618    3    0    1
 -2       428       427      1868      1988
 -1      4619    3    0    1
 -2      1051      1031      1761      2016
 -1      4620    3    0    1
 -2      1142      1872      2030      2036
 -1      4621    3    0    1
 -2       579      1761      1888      2016
 -1      4622    3    0    1
 -2      2256      2531      2257      2678
 -1      4623    3    0    1
 -2       433        46       903      1990
 -1      4624    3    0    1
 -2      1576      1606      1629      1998
 -1      4625    3    0    1
 -2      1677       403      1955      2003
 -1      4626    3    0    1
 -2       636      1138      1957      1991
 -1      4627    3    0    1
 -2       457       862      1915      1991
 -1      4628    3    0    1
 -2      1139      1137       637      1991
 -1      4629    3    0    1
 -2       457       636      1137      1991
 -1      4630    3    0    1
 -2       862       457      1137      1991
 -1      4631    3    0    1
 -2      1564      1715      1862      1994
 -1      4632    3    0    1
 -2      1584      1141      2001      2036
 -1      4633    3    0    1
 -2      1738      1797      1862      1994
 -1      4634    3    0    1
 -2      1671      1708      2068      2115
 -1      4635    3    0    1
 -2      1678      1709      2051      2164
 -1      4636    3    0    1
 -2      2047      2509      2537      2550
 -1      4637    3    0    1
 -2       885       718      1911      2034
 -1      4638    3    0    1
 -2        46        58       724      2494
 -1      4639    3    0    1
 -2       899      1951      2055      2128
 -1      4640    3    0    1
 -2      1988       428      1995      2035
 -1      4641    3    0    1
 -2       587      1868      1978      2035
 -1      4642    3    0    1
 -2       346       216      1062      2035
 -1      4643    3    0    1
 -2        72      1952      1996      2129
 -1      4644    3    0    1
 -2       431       430      2145      2495
 -1      4645    3    0    1
 -2       724       923      2120      2494
 -1      4646    3    0    1
 -2      1877      1109      1735      2480
 -1      4647    3    0    1
 -2      2092      1781      2157      2184
 -1      4648    3    0    1
 -2       579      1051      1761      2016
 -1      4649    3    0    1
 -2        10       712       867      1997
 -1      4650    3    0    1
 -2       712       459       867      1997
 -1      4651    3    0    1
 -2      1796       460      1850      1997
 -1      4652    3    0    1
 -2        10        14      1524      1997
 -1      4653    3    0    1
 -2        14        10       867      1997
 -1      4654    3    0    1
 -2      1582      1667      1955      2003
 -1      4655    3    0    1
 -2       227       236      1089      2004
 -1      4656    3    0    1
 -2      1871      1582      1955      2003
 -1      4657    3    0    1
 -2      2562      1282      1320      2632
 -1      4658    3    0    1
 -2       385       390      2049      2131
 -1      4659    3    0    1
 -2       712       460       459      1997
 -1      4660    3    0    1
 -2       459       460      1796      1997
 -1      4661    3    0    1
 -2      1915       456      2114      2171
 -1      4662    3    0    1
 -2       903      1990      2032      2033
 -1      4663    3    0    1
 -2       227      1088      1798      2004
 -1      4664    3    0    1
 -2        58       381      2123      2139
 -1      4665    3    0    1
 -2      1660       624      2124      2167
 -1      4666    3    0    1
 -2      1708      2068      2115      2491
 -1      4667    3    0    1
 -2      1692       144      1726      2096
 -1      4668    3    0    1
 -2      1723      1698      2459      2096
 -1      4669    3    0    1
 -2       128      1698      2080      2096
 -1      4670    3    0    1
 -2       403      1871      1955      2003
 -1      4671    3    0    1
 -2       390      2002      2049      2131
 -1      4672    3    0    1
 -2      1089       427      1820      2037
 -1      4673    3    0    1
 -2       427       236      2015      2037
 -1      4674    3    0    1
 -2      1089      1820      2004      2037
 -1      4675    3    0    1
 -2      1988       427      2015      2037
 -1      4676    3    0    1
 -2      1081       227      1798      2015
 -1      4677    3    0    1
 -2       418       285      1135      2001
 -1      4678    3    0    1
 -2      1838      1535      2020      2041
 -1      4679    3    0    1
 -2       754      1849      1980      2132
 -1      4680    3    0    1
 -2       636       711      1138      2002
 -1      4681    3    0    1
 -2       636       457       711      2002
 -1      4682    3    0    1
 -2      1827      1090      1855      2004
 -1      4683    3    0    1
 -2       603       604      1088      2004
 -1      4684    3    0    1
 -2      1088       604      1877      2004
 -1      4685    3    0    1
 -2       604       777      1877      2004
 -1      4686    3    0    1
 -2       604       603       777      2004
 -1      4687    3    0    1
 -2      1566      1583      1783      2007
 -1      4688    3    0    1
 -2      1783      1583      1814      2007
 -1      4689    3    0    1
 -2      1543      1571      1596      2007
 -1      4690    3    0    1
 -2       342      1799      1839      2008
 -1      4691    3    0    1
 -2      1587       342      1839      2008
 -1      4692    3    0    1
 -2      1598       540      1857      2478
 -1      4693    3    0    1
 -2        86       943      1739      2021
 -1      4694    3    0    1
 -2       342      1587      1601      2008
 -1      4695    3    0    1
 -2      1601      1587      1627      2008
 -1      4696    3    0    1
 -2        31       432       718      2527
 -1      4697    3    0    1
 -2        91       396      1945      2021
 -1      4698    3    0    1
 -2        91       939      1690      2021
 -1      4699    3    0    1
 -2       540       553      1857      2478
 -1      4700    3    0    1
 -2      2540      1222      2555      2614
 -1      4701    3    0    1
 -2       342      1601      1627      2008
 -1      4702    3    0    1
 -2      1690       939      1791      2021
 -1      4703    3    0    1
 -2      2017       796      2039       640
 -1      4704    3    0    1
 -2       860      2489      2534      2591
 -1      4705    3    0    1
 -2      1742      1532      1932      2043
 -1      4706    3    0    1
 -2      1893      1627      2008      2020
 -1      4707    3    0    1
 -2       146      1692      1726      2104
 -1      4708    3    0    1
 -2       576       589      1045      2009
 -1      4709    3    0    1
 -2       589       771      1045      2009
 -1      4710    3    0    1
 -2      1219      2472      2501      2548
 -1      4711    3    0    1
 -2      1532       722      1816      2043
 -1      4712    3    0    1
 -2        18       864      1947      2012
 -1      4713    3    0    1
 -2       285       795       866      2012
 -1      4714    3    0    1
 -2       722      1770      1950      2026
 -1      4715    3    0    1
 -2      1126      1125      1833      2013
 -1      4716    3    0    1
 -2       627      1126      1833      2013
 -1      4717    3    0    1
 -2       742       956      1801      2085
 -1      4718    3    0    1
 -2       264      1124      1127      2013
 -1      4719    3    0    1
 -2       375       264      1967      2013
 -1      4720    3    0    1
 -2       264       375      1124      2013
 -1      4721    3    0    1
 -2       342      1799      2008      2041
 -1      4722    3    0    1
 -2       385       796      1143      2014
 -1      4723    3    0    1
 -2      1682       973      1789      2076
 -1      4724    3    0    1
 -2      1138       385       280      2014
 -1      4725    3    0    1
 -2       280       385      1143      2014
 -1      4726    3    0    1
 -2      1682      1864      2460      2076
 -1      4727    3    0    1
 -2       973      1682      2460      2076
 -1      4728    3    0    1
 -2       794       280      1957      2014
 -1      4729    3    0    1
 -2      1138       794      1957      2014
 -1      4730    3    0    1
 -2       794      1138       280      2014
 -1      4731    3    0    1
 -2      1087       602      1868      2015
 -1      4732    3    0    1
 -2      1799       329      1823      2041
 -1      4733    3    0    1
 -2       342       329      1799      2041
 -1      4734    3    0    1
 -2       266       264      1660      2143
 -1      4735    3    0    1
 -2       285       795      2012      2017
 -1      4736    3    0    1
 -2       795       285      2001      2017
 -1      4737    3    0    1
 -2      2001       285      2012      2017
 -1      4738    3    0    1
 -2       866      1796      2012      2017
 -1      4739    3    0    1
 -2       866       459      1796      2017
 -1      4740    3    0    1
 -2       795       866      2012      2017
 -1      4741    3    0    1
 -2       640       796       867      2017
 -1      4742    3    0    1
 -2       459       640       867      2017
 -1      4743    3    0    1
 -2       640       459       795      2017
 -1      4744    3    0    1
 -2       795       459       866      2017
 -1      4745    3    0    1
 -2      1247      2224      1439      2726
 -1      4746    3    0    1
 -2       992       146      2104      2108
 -1      4747    3    0    1
 -2       311       448      1535      2020
 -1      4748    3    0    1
 -2      1201      1535      1869      2020
 -1      4749    3    0    1
 -2      1535      1627      1869      2020
 -1      4750    3    0    1
 -2      1201       685      1200      2020
 -1      4751    3    0    1
 -2      1201       311      1535      2020
 -1      4752    3    0    1
 -2      1200       311      1201      2020
 -1      4753    3    0    1
 -2       686      1201      1869      2020
 -1      4754    3    0    1
 -2       685      1201       686      2020
 -1      4755    3    0    1
 -2       448       311      1200      2020
 -1      4756    3    0    1
 -2      2077      1928      2118      2484
 -1      4757    3    0    1
 -2        91        86       939      2021
 -1      4758    3    0    1
 -2      1944       922        57      2022
 -1      4759    3    0    1
 -2       374       920      1906      2022
 -1      4760    3    0    1
 -2        57       374      1906      2022
 -1      4761    3    0    1
 -2       374       373       920      2022
 -1      4762    3    0    1
 -2       374        57       922      2022
 -1      4763    3    0    1
 -2       922      1944        57       723
 -1      4764    3    0    1
 -2       693      1216       704      2023
 -1      4765    3    0    1
 -2      1563       851      1673      2023
 -1      4766    3    0    1
 -2       288       838       851      2023
 -1      4767    3    0    1
 -2       851       704      1673      2023
 -1      4768    3    0    1
 -2       851       693       704      2023
 -1      4769    3    0    1
 -2       288       290       838      2023
 -1      4770    3    0    1
 -2       319       839      1946      2024
 -1      4771    3    0    1
 -2       319       310       839      2024
 -1      4772    3    0    1
 -2       941       508      1721      2044
 -1      4773    3    0    1
 -2      2072      1864      2126      2493
 -1      4774    3    0    1
 -2        55        50       901      2025
 -1      4775    3    0    1
 -2        55       901      1742      2025
 -1      4776    3    0    1
 -2        37        55      1742      2025
 -1      4777    3    0    1
 -2      1906      1834      1929      2026
 -1      4778    3    0    1
 -2      1787      1770      1930      2026
 -1      4779    3    0    1
 -2      1770       896      1930      2026
 -1      4780    3    0    1
 -2      1906      1929      1930      2026
 -1      4781    3    0    1
 -2      1929      1787      1930      2026
 -1      4782    3    0    1
 -2       896       479      1906      2026
 -1      4783    3    0    1
 -2       896      1906      1930      2026
 -1      4784    3    0    1
 -2        72      1948      1952      2123
 -1      4785    3    0    1
 -2      1041      1026      1675      2176
 -1      4786    3    0    1
 -2        72       917      1948      2123
 -1      4787    3    0    1
 -2       236      1089      2004      2037
 -1      4788    3    0    1
 -2      2017       867      2040      2464
 -1      4789    3    0    1
 -2      1026       362      2027      2117
 -1      4790    3    0    1
 -2      1026       362       762      2027
 -1      4791    3    0    1
 -2       567       556       756      2029
 -1      4792    3    0    1
 -2       796       867      2017      2464
 -1      4793    3    0    1
 -2       567       756      1033      2029
 -1      4794    3    0    1
 -2       796      2017      2040      2464
 -1      4795    3    0    1
 -2      1125      1833      2013      2030
 -1      4796    3    0    1
 -2       628      1125      2013      2030
 -1      4797    3    0    1
 -2      1916       628      2013      2030
 -1      4798    3    0    1
 -2      1125       421      1833      2030
 -1      4799    3    0    1
 -2      1833       421      1986      2030
 -1      4800    3    0    1
 -2       639       628      1916      2030
 -1      4801    3    0    1
 -2      1125       639      1142      2030
 -1      4802    3    0    1
 -2       628       639      1125      2030
 -1      4803    3    0    1
 -2       255      1105      1987      2031
 -1      4804    3    0    1
 -2      1105       255       247      2031
 -1      4805    3    0    1
 -2       380      1107      1847      2031
 -1      4806    3    0    1
 -2      1107       380       247      2031
 -1      4807    3    0    1
 -2       247       380      1099      2031
 -1      4808    3    0    1
 -2       433       899      2128      2175
 -1      4809    3    0    1
 -2      2018       902      2025      2032
 -1      4810    3    0    1
 -2       902      1813      2025      2032
 -1      4811    3    0    1
 -2       483       472      1884      2032
 -1      4812    3    0    1
 -2       885      1911      1850      2034
 -1      4813    3    0    1
 -2       717       902      2018      2032
 -1      4814    3    0    1
 -2       717      1884      2032      2018
 -1      4815    3    0    1
 -2       472       483       902      2032
 -1      4816    3    0    1
 -2       717       472       902      2032
 -1      4817    3    0    1
 -2        72       381      2123      2129
 -1      4818    3    0    1
 -2      2002      1138      2049      2131
 -1      4819    3    0    1
 -2        46       724      1866      2494
 -1      4820    3    0    1
 -2       390       384      2002      2131
 -1      4821    3    0    1
 -2        34        31       718      2034
 -1      4822    3    0    1
 -2       718        31      1884      2034
 -1      4823    3    0    1
 -2       384        14      2002      2131
 -1      4824    3    0    1
 -2      1062      1808       346      2035
 -1      4825    3    0    1
 -2       216       428      1062      2035
 -1      4826    3    0    1
 -2       587      1062      1868      2035
 -1      4827    3    0    1
 -2      1141      1584      1941      2036
 -1      4828    3    0    1
 -2       388       282      1141      2036
 -1      4829    3    0    1
 -2       388      1141      1941      2036
 -1      4830    3    0    1
 -2       227      1798      2015      2037
 -1      4831    3    0    1
 -2       236       227      2015      2037
 -1      4832    3    0    1
 -2       227       236      2004      2037
 -1      4833    3    0    1
 -2      1798       227      2004      2037
 -1      4834    3    0    1
 -2       577      1675      1890      2038
 -1      4835    3    0    1
 -2       576       577      1890      2038
 -1      4836    3    0    1
 -2       577      1041      1675      2038
 -1      4837    3    0    1
 -2       577       576      1041      2038
 -1      4838    3    0    1
 -2      1041       192       193      2038
 -1      4839    3    0    1
 -2       193       192      1843      2038
 -1      4840    3    0    1
 -2       469       881      1992      2171
 -1      4841    3    0    1
 -2      2111      1992      2489      2171
 -1      4842    3    0    1
 -2      1916       639      2030      2039
 -1      4843    3    0    1
 -2       639      1142      2030      2039
 -1      4844    3    0    1
 -2      2030      1142      2036      2039
 -1      4845    3    0    1
 -2       640       795      1142      2039
 -1      4846    3    0    1
 -2       796      1143      2014      2039
 -1      4847    3    0    1
 -2       796       640      1143      2039
 -1      4848    3    0    1
 -2       282       418      2001      2039
 -1      4849    3    0    1
 -2       418       282      1142      2039
 -1      4850    3    0    1
 -2       418       795      2001      2039
 -1      4851    3    0    1
 -2       795       418      1142      2039
 -1      4852    3    0    1
 -2      1535      1823       329      2041
 -1      4853    3    0    1
 -2      1863       957      2052      2109
 -1      4854    3    0    1
 -2      2077      1882      2097      2152
 -1      4855    3    0    1
 -2      1863        82      2044      2136
 -1      4856    3    0    1
 -2      2135       771      2177      2499
 -1      4857    3    0    1
 -2      1721       508      1795      2044
 -1      4858    3    0    1
 -2        88        82      1721      2044
 -1      4859    3    0    1
 -2       178      1032      1923      2088
 -1      4860    3    0    1
 -2       477       478       480      2658
 -1      4861    3    0    1
 -2      1863        82      1865      2044
 -1      4862    3    0    1
 -2        82        88      1865      2044
 -1      4863    3    0    1
 -2      2071      2057      2471      2474
 -1      4864    3    0    1
 -2      1801       956      2095      2465
 -1      4865    3    0    1
 -2       430       431      1524      2073
 -1      4866    3    0    1
 -2      1890       576      2038      2069
 -1      4867    3    0    1
 -2       576       589      2009      2069
 -1      4868    3    0    1
 -2       360       347      1926      2526
 -1      4869    3    0    1
 -2       624      1934      2124      2167
 -1      4870    3    0    1
 -2      1102       788      2064      2167
 -1      4871    3    0    1
 -2      2710        20      1509      2419
 -1      4872    3    0    1
 -2      1772       127      2048      2466
 -1      4873    3    0    1
 -2      1044       576      1890      2069
 -1      4874    3    0    1
 -2      2087        89      2165      2513
 -1      4875    3    0    1
 -2      1766      2070      2472      2500
 -1      4876    3    0    1
 -2       349       127       979      2466
 -1      4877    3    0    1
 -2       127      1698      1772      2048
 -1      4878    3    0    1
 -2      2236       993      2253      2709
 -1      4879    3    0    1
 -2      1263      1346      2592      1416
 -1      4880    3    0    1
 -2      2508      2543      2567      2632
 -1      4881    3    0    1
 -2      1045       576      2009      2135
 -1      4882    3    0    1
 -2       637      1139      1991      2532
 -1      4883    3    0    1
 -2      1536      2058      2059      2060
 -1      4884    3    0    1
 -2      1754      1736      1832      2050
 -1      4885    3    0    1
 -2      1709      1754      1832      2050
 -1      4886    3    0    1
 -2        46      2123        58      1866
 -1      4887    3    0    1
 -2      1863       957      2000      2052
 -1      4888    3    0    1
 -2       935      1863      1865      2052
 -1      4889    3    0    1
 -2       861        10      1524      2073
 -1      4890    3    0    1
 -2      2492      2191      2198      2557
 -1      4891    3    0    1
 -2       111      1863      1949      2136
 -1      4892    3    0    1
 -2       936       935      1865      2052
 -1      4893    3    0    1
 -2       936       504       935      2052
 -1      4894    3    0    1
 -2       504       936       505      2052
 -1      4895    3    0    1
 -2       505       936      1865      2052
 -1      4896    3    0    1
 -2       504       517       935      2052
 -1      4897    3    0    1
 -2       935       517       957      2052
 -1      4898    3    0    1
 -2        56       433      2033      2130
 -1      4899    3    0    1
 -2      1710      2071      2471      2474
 -1      4900    3    0    1
 -2      2152      2077      2153      2484
 -1      4901    3    0    1
 -2      2065      1672      2461      2101
 -1      4902    3    0    1
 -2       899       480       898      2055
 -1      4903    3    0    1
 -2        46       898      1866      2055
 -1      4904    3    0    1
 -2       898        46       899      2055
 -1      4905    3    0    1
 -2       712      1850      2127      2495
 -1      4906    3    0    1
 -2        34       431      2145      2495
 -1      4907    3    0    1
 -2       480       899       481      2055
 -1      4908    3    0    1
 -2       481       899      1951      2055
 -1      4909    3    0    1
 -2       480       481      1951      2055
 -1      4910    3    0    1
 -2       899        46       433      2055
 -1      4911    3    0    1
 -2       433        46      1866      2055
 -1      4912    3    0    1
 -2      2595      1278      2650      2685
 -1      4913    3    0    1
 -2      2058      1736      2154      2482
 -1      4914    3    0    1
 -2      1127       264      2013      2477
 -1      4915    3    0    1
 -2      2255      2318      2377      2720
 -1      4916    3    0    1
 -2      1777      2460      2094      2481
 -1      4917    3    0    1
 -2      1340      2235      2255      2319
 -1      4918    3    0    1
 -2       900      1951      2147      2065
 -1      4919    3    0    1
 -2      2149      2083      2510      2180
 -1      4920    3    0    1
 -2      2320      2274      2321      2665
 -1      4921    3    0    1
 -2      1754      1536      1832      2060
 -1      4922    3    0    1
 -2       480       900       897      2100
 -1      4923    3    0    1
 -2       493      1831      1948      2100
 -1      4924    3    0    1
 -2      1754      1736      2058      2060
 -1      4925    3    0    1
 -2       576      1045      2038      2135
 -1      4926    3    0    1
 -2      1536      1754      2058      2060
 -1      4927    3    0    1
 -2      1934      1121      2485      2525
 -1      4928    3    0    1
 -2       860       456      1915      2171
 -1      4929    3    0    1
 -2       128       343       744      2459
 -1      4930    3    0    1
 -2       997       144      1692      2459
 -1      4931    3    0    1
 -2      2009       576      2038      2135
 -1      4932    3    0    1
 -2      2002       390      2049      2061
 -1      4933    3    0    1
 -2       744       343       997      2459
 -1      4934    3    0    1
 -2      2585      1452      2616      2680
 -1      4935    3    0    1
 -2      1723      1698      1772      2459
 -1      4936    3    0    1
 -2      1882      1671      2077      2097
 -1      4937    3    0    1
 -2       564      1675      1977      2113
 -1      4938    3    0    1
 -2       958       934      2471      2502
 -1      4939    3    0    1
 -2      1009      1027      2066      2472
 -1      4940    3    0    1
 -2      1524        10      1997      2127
 -1      4941    3    0    1
 -2       436       437      1927      2477
 -1      4942    3    0    1
 -2      2059      2469      2192      2541
 -1      4943    3    0    1
 -2      1009      1027      2472      1219
 -1      4944    3    0    1
 -2      1312      1236      2677      2447
 -1      4945    3    0    1
 -2      2111      1917      2469      2338
 -1      4946    3    0    1
 -2      2140      2119      2484      2530
 -1      4947    3    0    1
 -2       993      2460      1218      2563
 -1      4948    3    0    1
 -2      2546      2594      2611      2661
 -1      4949    3    0    1
 -2      2470      2522      2553      2609
 -1      4950    3    0    1
 -2       432        56       903      2527
 -1      4951    3    0    1
 -2      1682      1864      2047      2460
 -1      4952    3    0    1
 -2       564      1025      1046      2113
 -1      4953    3    0    1
 -2      2058      2060      2482      2507
 -1      4954    3    0    1
 -2       552      1009      1027      2066
 -1      4955    3    0    1
 -2       271      1967      2151      2511
 -1      4956    3    0    1
 -2      1708      2045      2068      2149
 -1      4957    3    0    1
 -2      2316      1432      2367      2379
 -1      4958    3    0    1
 -2      2222      2281      2284      2739
 -1      4959    3    0    1
 -2      2501      2472      2540      2555
 -1      4960    3    0    1
 -2      2068      2045      2083      2149
 -1      4961    3    0    1
 -2      2068      1708      2173      2491
 -1      4962    3    0    1
 -2       215       356      2019      2462
 -1      4963    3    0    1
 -2      2068      1708      2149      2173
 -1      4964    3    0    1
 -2       782      1781      2092      2184
 -1      4965    3    0    1
 -2      1709      2164      2493      2181
 -1      4966    3    0    1
 -2       974       353      1698      2080
 -1      4967    3    0    1
 -2      1336      1444      1492      2426
 -1      4968    3    0    1
 -2      1660       788      2064      2143
 -1      4969    3    0    1
 -2       492       505      1865      2102
 -1      4970    3    0    1
 -2       589      1044      1066      2069
 -1      4971    3    0    1
 -2       589       576      1044      2069
 -1      4972    3    0    1
 -2      2490      2536      2621      2728
 -1      4973    3    0    1
 -2      1299      1409      2663      2350
 -1      4974    3    0    1
 -2      1262      2497      2556      2597
 -1      4975    3    0    1
 -2      1396      2207      2313      2390
 -1      4976    3    0    1
 -2       504       937       934      2502
 -1      4977    3    0    1
 -2      2624      2645      2674      2735
 -1      4978    3    0    1
 -2      2199      1265      2230      2248
 -1      4979    3    0    1
 -2       577       576      1046      2266
 -1      4980    3    0    1
 -2       375      1124      2013      2150
 -1      4981    3    0    1
 -2       468       481      1951      2147
 -1      4982    3    0    1
 -2       377      2674      2686      2735
 -1      4983    3    0    1
 -2      1704       555      1800      2074
 -1      4984    3    0    1
 -2       544       555      1704      2074
 -1      4985    3    0    1
 -2       749       544      1704      2074
 -1      4986    3    0    1
 -2       544       749      1658      2074
 -1      4987    3    0    1
 -2      1658       749      1704      2074
 -1      4988    3    0    1
 -2       543      1658      1692      2074
 -1      4989    3    0    1
 -2       544       543      1692      2074
 -1      4990    3    0    1
 -2       543       544      1658      2074
 -1      4991    3    0    1
 -2       544       750      1015      2074
 -1      4992    3    0    1
 -2       555       544      1015      2074
 -1      4993    3    0    1
 -2       338      2104      2132      2475
 -1      4994    3    0    1
 -2      1957       794      2125      2151
 -1      4995    3    0    1
 -2      1777      1864      2460      2126
 -1      4996    3    0    1
 -2       541      1598      1789      2076
 -1      4997    3    0    1
 -2       541       993      1598      2076
 -1      4998    3    0    1
 -2       528       541      1789      2076
 -1      4999    3    0    1
 -2       973       528      1789      2076
 -1      5000    3    0    1
 -2       541       973       993      2076
 -1      5001    3    0    1
 -2       541       528       973      2076
 -1      5002    3    0    1
 -2      1064       588       589      2098
 -1      5003    3    0    1
 -2       361       352      2697      2437
 -1      5004    3    0    1
 -2       588       601      1080      2162
 -1      5005    3    0    1
 -2      2606      2242      2293      2349
 -1      5006    3    0    1
 -2      1676       230      2078      2161
 -1      5007    3    0    1
 -2       256      1759      2157      2184
 -1      5008    3    0    1
 -2       264       788      1660      2143
 -1      5009    3    0    1
 -2      1736      1754      2058      2154
 -1      5010    3    0    1
 -2       230       355      2078      2161
 -1      5011    3    0    1
 -2      2479      2054      2185      2594
 -1      5012    3    0    1
 -2        31       718      1884      2527
 -1      5013    3    0    1
 -2      1708      1671      1882      2097
 -1      5014    3    0    1
 -2      1698      1726      1789      2080
 -1      5015    3    0    1
 -2       492      1865      1948      2102
 -1      5016    3    0    1
 -2       436       266      2084      2143
 -1      5017    3    0    1
 -2      1412       354      1474      2379
 -1      5018    3    0    1
 -2       991      1011      2481      1271
 -1      5019    3    0    1
 -2       367      2588      2608      1415
 -1      5020    3    0    1
 -2       788      1102      2064      2143
 -1      5021    3    0    1
 -2       600      1781      2090      2514
 -1      5022    3    0    1
 -2      1865       916      1952      2165
 -1      5023    3    0    1
 -2      1318      1349      2614      2670
 -1      5024    3    0    1
 -2       437       436      1927      2143
 -1      5025    3    0    1
 -2      1106      1127      1914      2477
 -1      5026    3    0    1
 -2      1827      2091      2157      2480
 -1      5027    3    0    1
 -2       507       944      1721      2156
 -1      5028    3    0    1
 -2       264      1660      1967      2084
 -1      5029    3    0    1
 -2       264      1967      2013      2084
 -1      5030    3    0    1
 -2      1938       496      1945      2156
 -1      5031    3    0    1
 -2       507       943      1945      2156
 -1      5032    3    0    1
 -2      2090      1758      2470      2514
 -1      5033    3    0    1
 -2       754       553      1849      2086
 -1      5034    3    0    1
 -2       111      1593      1949      2095
 -1      5035    3    0    1
 -2       110      1593      2095      2466
 -1      5036    3    0    1
 -2       111       110      1593      2095
 -1      5037    3    0    1
 -2       552      1856      2066      2086
 -1      5038    3    0    1
 -2       553       552      1849      2086
 -1      5039    3    0    1
 -2      1849       552      2066      2086
 -1      5040    3    0    1
 -2       552      1856      2086      2478
 -1      5041    3    0    1
 -2       991      1598      2094      2478
 -1      5042    3    0    1
 -2       613      2121      2160      2514
 -1      5043    3    0    1
 -2      1781       613      2160      2514
 -1      5044    3    0    1
 -2      1391       364      1404      1429
 -1      5045    3    0    1
 -2      1103      1758      2121      2514
 -1      5046    3    0    1
 -2      2209      1309      2255      2318
 -1      5047    3    0    1
 -2      1103      1083      2470      2514
 -1      5048    3    0    1
 -2      1857       553      2086      2478
 -1      5049    3    0    1
 -2       991       540      1598      2478
 -1      5050    3    0    1
 -2      1827       370      2091      2480
 -1      5051    3    0    1
 -2      2385      1458      2411      2444
 -1      5052    3    0    1
 -2      1444      2684      1492      1505
 -1      5053    3    0    1
 -2      2267      2213      2279      2679
 -1      5054    3    0    1
 -2      1274      2575      1374      2648
 -1      5055    3    0    1
 -2      2651      1469      2708      2724
 -1      5056    3    0    1
 -2       613      1886      2092      2160
 -1      5057    3    0    1
 -2      2057      1580      2471      2515
 -1      5058    3    0    1
 -2      1781       613      2092      2160
 -1      5059    3    0    1
 -2      1296      2647      2653      2661
 -1      5060    3    0    1
 -2      1759       251      1927      2092
 -1      5061    3    0    1
 -2      1759       782      2092      2184
 -1      5062    3    0    1
 -2       777      1109      1877      2480
 -1      5063    3    0    1
 -2      1927      1102      2064      2092
 -1      5064    3    0    1
 -2      1102      1886      2064      2092
 -1      5065    3    0    1
 -2       251       782      1759      2184
 -1      5066    3    0    1
 -2      1918      1822      1925      2093
 -1      5067    3    0    1
 -2      1822      1751      1925      2093
 -1      5068    3    0    1
 -2      1751      1007      1925      2093
 -1      5069    3    0    1
 -2       164      1013       327      2093
 -1      5070    3    0    1
 -2       327      1013      1763      2093
 -1      5071    3    0    1
 -2       164       327      1763      2093
 -1      5072    3    0    1
 -2       164       331      1007      2093
 -1      5073    3    0    1
 -2      1007       331      1925      2093
 -1      5074    3    0    1
 -2      1864      1777      2460      2094
 -1      5075    3    0    1
 -2      1864      2460      2076      2094
 -1      5076    3    0    1
 -2      2476      2506      2552      2553
 -1      5077    3    0    1
 -2      2460       993      2076      2094
 -1      5078    3    0    1
 -2       116       110      2465      2466
 -1      5079    3    0    1
 -2      2095      2048      2465      2466
 -1      5080    3    0    1
 -2       957      1863      2000      2095
 -1      5081    3    0    1
 -2       957       111      1863      2095
 -1      5082    3    0    1
 -2       957       110       111      2095
 -1      5083    3    0    1
 -2       956       957      2000      2095
 -1      5084    3    0    1
 -2       957       956       110      2095
 -1      5085    3    0    1
 -2      2048       127      2465      2466
 -1      5086    3    0    1
 -2       979       127      1772      2466
 -1      5087    3    0    1
 -2       979      1772      1953      2466
 -1      5088    3    0    1
 -2      1282      1283      2562      1320
 -1      5089    3    0    1
 -2       177       362      1030      2116
 -1      5090    3    0    1
 -2      2554      2587      1404      2683
 -1      5091    3    0    1
 -2      2557      2198      1319      2216
 -1      5092    3    0    1
 -2       237       256      1109      2480
 -1      5093    3    0    1
 -2       955       516      2138      2166
 -1      5094    3    0    1
 -2      2065      1672      2082      2461
 -1      5095    3    0    1
 -2       266      1660      2084      2143
 -1      5096    3    0    1
 -2       897       900      2065      2100
 -1      5097    3    0    1
 -2       900       480       481      2100
 -1      5098    3    0    1
 -2       481       480      1951      2100
 -1      5099    3    0    1
 -2       900       481      1951      2100
 -1      5100    3    0    1
 -2       788       625      1660      2167
 -1      5101    3    0    1
 -2       493       918      1831      2100
 -1      5102    3    0    1
 -2       493       480       897      2100
 -1      5103    3    0    1
 -2       493       897       918      2100
 -1      5104    3    0    1
 -2      2336      1428      2348      2354
 -1      5105    3    0    1
 -2      2226      2202      2240      2606
 -1      5106    3    0    1
 -2       215       355      2462      2161
 -1      5107    3    0    1
 -2      2019       215      2462      2161
 -1      5108    3    0    1
 -2      1854      2069      2079      2486
 -1      5109    3    0    1
 -2      1831       492      1948      2102
 -1      5110    3    0    1
 -2      1759       256      2157      2480
 -1      5111    3    0    1
 -2      1304      1246      2599      2671
 -1      5112    3    0    1
 -2       505       915       937      2102
 -1      5113    3    0    1
 -2       505       492       915      2102
 -1      5114    3    0    1
 -2       400        90      1863      2136
 -1      5115    3    0    1
 -2      2320      1056       583       768
 -1      5116    3    0    1
 -2      1494       357      1496      2729
 -1      5117    3    0    1
 -2       193      1041      2038      2170
 -1      5118    3    0    1
 -2       992      1726      1857      2104
 -1      5119    3    0    1
 -2       957       935      2052      2109
 -1      5120    3    0    1
 -2       992       146      1726      2104
 -1      5121    3    0    1
 -2       762      1849      1977      2105
 -1      5122    3    0    1
 -2       177       762      2027      2105
 -1      5123    3    0    1
 -2       180       177      2027      2105
 -1      5124    3    0    1
 -2      1071       219       359      2487
 -1      5125    3    0    1
 -2      2569      2588      2597      2608
 -1      5126    3    0    1
 -2       934       937      1580      2502
 -1      5127    3    0    1
 -2      1071      1935      2010      2487
 -1      5128    3    0    1
 -2       375       271      1967      2125
 -1      5129    3    0    1
 -2       337       338      2132      2475
 -1      5130    3    0    1
 -2       555      1015      1800      2475
 -1      5131    3    0    1
 -2      2260      1324      2598      1386
 -1      5132    3    0    1
 -2      1027      2062      2066      2472
 -1      5133    3    0    1
 -2      1914      1127      2013      2477
 -1      5134    3    0    1
 -2      1675       577      1890      2113
 -1      5135    3    0    1
 -2       177       762      2105      2163
 -1      5136    3    0    1
 -2      1010       365      2105      2163
 -1      5137    3    0    1
 -2      1934      2121      2167      2525
 -1      5138    3    0    1
 -2       897      2100      2101      2483
 -1      5139    3    0    1
 -2       215       355       772      2462
 -1      5140    3    0    1
 -2       772       355      1090      2462
 -1      5141    3    0    1
 -2       592       772      1090      2462
 -1      5142    3    0    1
 -2      1935      1855      2019      2462
 -1      5143    3    0    1
 -2      1380      1381      2299      2305
 -1      5144    3    0    1
 -2       603       592      1090      2462
 -1      5145    3    0    1
 -2       601      1825      2162      2519
 -1      5146    3    0    1
 -2      1030      1052      1761      2172
 -1      5147    3    0    1
 -2       879       900      2147      2518
 -1      5148    3    0    1
 -2      2173      2068      2491      2510
 -1      5149    3    0    1
 -2      2070      2472      2540      2613
 -1      5150    3    0    1
 -2      1710      2047      2463      2166
 -1      5151    3    0    1
 -2       955       516      2166      2537
 -1      5152    3    0    1
 -2      2118      2059      2119      2141
 -1      5153    3    0    1
 -2      1225      1226      2509      2537
 -1      5154    3    0    1
 -2      2560      2584      2631      2710
 -1      5155    3    0    1
 -2       731        83      2197      1287
 -1      5156    3    0    1
 -2      1710      2047      2072      2463
 -1      5157    3    0    1
 -2      2047      1864      2072      2463
 -1      5158    3    0    1
 -2       625       612      1121      2525
 -1      5159    3    0    1
 -2      1865        89      2110      2165
 -1      5160    3    0    1
 -2      1220      1219      2501      1240
 -1      5161    3    0    1
 -2       111       400      2136      2498
 -1      5162    3    0    1
 -2       712       460      1997      2127
 -1      5163    3    0    1
 -2        89       371      2110      2165
 -1      5164    3    0    1
 -2       916       372      1952      2165
 -1      5165    3    0    1
 -2       711      1524      2002      2114
 -1      5166    3    0    1
 -2      1915       711      2002      2114
 -1      5167    3    0    1
 -2       468       469      1992      2114
 -1      5168    3    0    1
 -2       469       468       880      2114
 -1      5169    3    0    1
 -2       716       880      1993      2114
 -1      5170    3    0    1
 -2      1524       861      2073      2114
 -1      5171    3    0    1
 -2       716      1524      2073      2114
 -1      5172    3    0    1
 -2       861       711      1915      2114
 -1      5173    3    0    1
 -2       711       861      1524      2114
 -1      5174    3    0    1
 -2      2019      1676      2078      2161
 -1      5175    3    0    1
 -2       400        90      2136      2498
 -1      5176    3    0    1
 -2       469       716       861      2114
 -1      5177    3    0    1
 -2       456       469       861      2114
 -1      5178    3    0    1
 -2       861       716      2073      2114
 -1      5179    3    0    1
 -2       347       360      1926      2170
 -1      5180    3    0    1
 -2      2027       180      2105      2134
 -1      5181    3    0    1
 -2      1477      2686      2645      2735
 -1      5182    3    0    1
 -2       177      1033      2027      2116
 -1      5183    3    0    1
 -2       177      1030      1033      2116
 -1      5184    3    0    1
 -2      1033      1030      1844      2116
 -1      5185    3    0    1
 -2      1977       762      2027      2117
 -1      5186    3    0    1
 -2       469      1992      2114      2171
 -1      5187    3    0    1
 -2       756      1033      2029      2496
 -1      5188    3    0    1
 -2       724       484      1990      2120
 -1      5189    3    0    1
 -2      1671      1882      2077      2118
 -1      5190    3    0    1
 -2      2059      1536      2060      2118
 -1      5191    3    0    1
 -2      1671      1536      1882      2118
 -1      5192    3    0    1
 -2      1536      1671      1832      2118
 -1      5193    3    0    1
 -2      1536      1832      2060      2118
 -1      5194    3    0    1
 -2       381      2123      2129      2494
 -1      5195    3    0    1
 -2        58      1866      2123      2494
 -1      5196    3    0    1
 -2      1882      1536      2059      2118
 -1      5197    3    0    1
 -2      1781       601      2090      2162
 -1      5198    3    0    1
 -2      2469      2059      2169      2541
 -1      5199    3    0    1
 -2       484       724       923      2120
 -1      5200    3    0    1
 -2       495       484       923      2120
 -1      5201    3    0    1
 -2      2174       903      2033      2527
 -1      5202    3    0    1
 -2       612       613      1103      2121
 -1      5203    3    0    1
 -2      2674       377      1506      2735
 -1      5204    3    0    1
 -2      2009      1065      2019      2162
 -1      5205    3    0    1
 -2      2045      2046      2083      2149
 -1      5206    3    0    1
 -2      1225      2509      2626      2627
 -1      5207    3    0    1
 -2      1281      2639      2413      2427
 -1      5208    3    0    1
 -2      2600      2583      2636      2638
 -1      5209    3    0    1
 -2      1219      2472      1220      2501
 -1      5210    3    0    1
 -2       434       376      2602      2646
 -1      5211    3    0    1
 -2      2067      2053      2488      2522
 -1      5212    3    0    1
 -2       934      1580      2471      2502
 -1      5213    3    0    1
 -2       146       338       750      2475
 -1      5214    3    0    1
 -2      1660      1120      1967      2124
 -1      5215    3    0    1
 -2       612      1102      2064      2167
 -1      5216    3    0    1
 -2      1306      1460      2687      2420
 -1      5217    3    0    1
 -2      1957       637      1991      2124
 -1      5218    3    0    1
 -2       109       357      2718      2421
 -1      5219    3    0    1
 -2      2644      1463      2372      2724
 -1      5220    3    0    1
 -2      1736      2058      2060      2482
 -1      5221    3    0    1
 -2      1121      1101      2485      2525
 -1      5222    3    0    1
 -2      1297      2535      2593      2717
 -1      5223    3    0    1
 -2      1309       263      2209      1325
 -1      5224    3    0    1
 -2       612      1101      1121      2525
 -1      5225    3    0    1
 -2      1993       432      2130      2175
 -1      5226    3    0    1
 -2      1866       433      2055      2128
 -1      5227    3    0    1
 -2       433      1866      2033      2128
 -1      5228    3    0    1
 -2      1138       385      2049      2131
 -1      5229    3    0    1
 -2       481       468      1951      2128
 -1      5230    3    0    1
 -2       899       481      1951      2128
 -1      5231    3    0    1
 -2      2117       347      2170      2176
 -1      5232    3    0    1
 -2       880       468       899      2128
 -1      5233    3    0    1
 -2       468       481       899      2128
 -1      5234    3    0    1
 -2       885       431        34      2495
 -1      5235    3    0    1
 -2      2034        34      2145      2495
 -1      5236    3    0    1
 -2      2033       433      2128      2130
 -1      5237    3    0    1
 -2        58        46      1866      2494
 -1      5238    3    0    1
 -2      1866       724      2120      2494
 -1      5239    3    0    1
 -2       923        72      1996      2494
 -1      5240    3    0    1
 -2        72       381      2129      2494
 -1      5241    3    0    1
 -2      1857       754      2108      2132
 -1      5242    3    0    1
 -2      1851      2473      2532      2545
 -1      5243    3    0    1
 -2      2104      1857      2108      2132
 -1      5244    3    0    1
 -2       338      2104      2108      2132
 -1      5245    3    0    1
 -2       754       162      2108      2132
 -1      5246    3    0    1
 -2       162       337      2108      2132
 -1      5247    3    0    1
 -2       337       338      2108      2132
 -1      5248    3    0    1
 -2      1761      1052      1888      2172
 -1      5249    3    0    1
 -2      1844      1033      2027      2134
 -1      5250    3    0    1
 -2       177       180      2027      2134
 -1      5251    3    0    1
 -2      1390      1289      1394      2332
 -1      5252    3    0    1
 -2      1033       177      2027      2134
 -1      5253    3    0    1
 -2       387       271      2151      2511
 -1      5254    3    0    1
 -2      2492      2493      1258      2198
 -1      5255    3    0    1
 -2       271       387      1124      2511
 -1      5256    3    0    1
 -2      2568      2529      2656      2723
 -1      5257    3    0    1
 -2       390       385      2049      2464
 -1      5258    3    0    1
 -2       385       390       796      2464
 -1      5259    3    0    1
 -2       385      2014      2049      2464
 -1      5260    3    0    1
 -2       385       796      2014      2464
 -1      5261    3    0    1
 -2       796       384       867      2464
 -1      5262    3    0    1
 -2       390       384       796      2464
 -1      5263    3    0    1
 -2      2040      1997      2061      2464
 -1      5264    3    0    1
 -2      2049      2040      2061      2464
 -1      5265    3    0    1
 -2      2014      2040      2049      2464
 -1      5266    3    0    1
 -2      2042      2103      2487      2499
 -1      5267    3    0    1
 -2      2485      1101      1243      1244
 -1      5268    3    0    1
 -2      1277       222      2205      2227
 -1      5269    3    0    1
 -2      1045       192      2038      2499
 -1      5270    3    0    1
 -2       359      2042      2487      2499
 -1      5271    3    0    1
 -2       219       359      2487      2499
 -1      5272    3    0    1
 -2      1303      1245      2582      2589
 -1      5273    3    0    1
 -2       956       110      2095      2465
 -1      5274    3    0    1
 -2       127      1698      2048      2465
 -1      5275    3    0    1
 -2      1801       742      2085      2465
 -1      5276    3    0    1
 -2       127       742      1698      2465
 -1      5277    3    0    1
 -2      1698       742      1801      2465
 -1      5278    3    0    1
 -2      2048      1801      2095      2465
 -1      5279    3    0    1
 -2       349       116      2085      2465
 -1      5280    3    0    1
 -2       116       110      2085      2465
 -1      5281    3    0    1
 -2       127       349      2085      2465
 -1      5282    3    0    1
 -2       110       956      2085      2465
 -1      5283    3    0    1
 -2      1698      1801      2048      2465
 -1      5284    3    0    1
 -2       742       127      2085      2465
 -1      5285    3    0    1
 -2       110       738      1593      2466
 -1      5286    3    0    1
 -2       738       116       979      2466
 -1      5287    3    0    1
 -2       116       349       979      2466
 -1      5288    3    0    1
 -2      1953      1772      2048      2466
 -1      5289    3    0    1
 -2      1593      1953      2048      2466
 -1      5290    3    0    1
 -2      1593      2048      2095      2466
 -1      5291    3    0    1
 -2      1052      1843      2172      2526
 -1      5292    3    0    1
 -2       612       625       788      2167
 -1      5293    3    0    1
 -2      1218      2460      2508      2563
 -1      5294    3    0    1
 -2       517       516      2000      2138
 -1      5295    3    0    1
 -2      2539      2287      2713      2729
 -1      5296    3    0    1
 -2      2595      1278      2685      2740
 -1      5297    3    0    1
 -2       612       788      1102      2167
 -1      5298    3    0    1
 -2      1886       612      2064      2167
 -1      5299    3    0    1
 -2       718       432       903      2527
 -1      5300    3    0    1
 -2      2484      2152      2488      2208
 -1      5301    3    0    1
 -2      2467      2054      2594      2678
 -1      5302    3    0    1
 -2      1272      1011      2613      2693
 -1      5303    3    0    1
 -2      2198      2191      2210      2557
 -1      5304    3    0    1
 -2      2539      2287      2359      2713
 -1      5305    3    0    1
 -2      1967       375      2013      2150
 -1      5306    3    0    1
 -2      1279      2585      2301      2325
 -1      5307    3    0    1
 -2      2050      1736      2057      2467
 -1      5308    3    0    1
 -2       256       237      2157      2480
 -1      5309    3    0    1
 -2      1710      2050      2057      2467
 -1      5310    3    0    1
 -2      1754      2051      2054      2467
 -1      5311    3    0    1
 -2      1124      1916      2013      2150
 -1      5312    3    0    1
 -2      2050      1710      2072      2467
 -1      5313    3    0    1
 -2      2138      2071      2471      2166
 -1      5314    3    0    1
 -2        69      2664      2341      2668
 -1      5315    3    0    1
 -2      2072      2050      2467      2607
 -1      5316    3    0    1
 -2      2182      2571      2229      1379
 -1      5317    3    0    1
 -2      1222      2210      2557      1349
 -1      5318    3    0    1
 -2      1991      1915      2056      2468
 -1      5319    3    0    1
 -2      1269      2580      1358      2634
 -1      5320    3    0    1
 -2       516      2000      2138      2166
 -1      5321    3    0    1
 -2       375      1124      2150      2511
 -1      5322    3    0    1
 -2       958       516       517      2502
 -1      5323    3    0    1
 -2      1660      2064      2084      2143
 -1      5324    3    0    1
 -2      2064      1927      2084      2143
 -1      5325    3    0    1
 -2      1106       437       436      2477
 -1      5326    3    0    1
 -2      1945       943      2021      2156
 -1      5327    3    0    1
 -2       516       955      2138      2502
 -1      5328    3    0    1
 -2      2436      2452      2745      2457
 -1      5329    3    0    1
 -2      2488      2097      2490      2728
 -1      5330    3    0    1
 -2      2686      1477      2645      2393
 -1      5331    3    0    1
 -2      1368      1369      2649      1482
 -1      5332    3    0    1
 -2      1424      1320      2363      2391
 -1      5333    3    0    1
 -2        34       716      1993      2145
 -1      5334    3    0    1
 -2      1524       716      2073      2145
 -1      5335    3    0    1
 -2        34       431      2073      2145
 -1      5336    3    0    1
 -2       716        34      2073      2145
 -1      5337    3    0    1
 -2      1221      2199      2217      2220
 -1      5338    3    0    1
 -2       184       763      2266      2273
 -1      5339    3    0    1
 -2      2353      1517      2425      2449
 -1      5340    3    0    1
 -2      1017      1300      2212      2213
 -1      5341    3    0    1
 -2       504       517      2052      2502
 -1      5342    3    0    1
 -2      1303      2640      2719      2403
 -1      5343    3    0    1
 -2      2046      2083      2149      2180
 -1      5344    3    0    1
 -2       601      1825      2514      2090
 -1      5345    3    0    1
 -2      1825      2098      2162      2519
 -1      5346    3    0    1
 -2       880      1993      2114      2147
 -1      5347    3    0    1
 -2       468       880      2114      2147
 -1      5348    3    0    1
 -2       880       468      2128      2147
 -1      5349    3    0    1
 -2      1993       880      2128      2147
 -1      5350    3    0    1
 -2       468       879       900      2147
 -1      5351    3    0    1
 -2       481       468       900      2147
 -1      5352    3    0    1
 -2      1258      2493      2543      1324
 -1      5353    3    0    1
 -2       753       549       751      2217
 -1      5354    3    0    1
 -2      2054      1736      2467      2479
 -1      5355    3    0    1
 -2      1758      2053      2067      2470
 -1      5356    3    0    1
 -2      1119      2532      2570      2720
 -1      5357    3    0    1
 -2       432        31      2130      2527
 -1      5358    3    0    1
 -2       637      1991      2124      2532
 -1      5359    3    0    1
 -2      2634      2630      1425      1480
 -1      5360    3    0    1
 -2      1025      1270      2633      2679
 -1      5361    3    0    1
 -2      2481      2492      2503      2614
 -1      5362    3    0    1
 -2      2380      2319      2720      2409
 -1      5363    3    0    1
 -2       357      1494      2718      2729
 -1      5364    3    0    1
 -2      2506      2490      2621      2728
 -1      5365    3    0    1
 -2      1242      1305      2621      2714
 -1      5366    3    0    1
 -2      2474      2471      2592      2647
 -1      5367    3    0    1
 -2      2467      2474      2607      2678
 -1      5368    3    0    1
 -2      1344      2380      2409      2426
 -1      5369    3    0    1
 -2      1758      2067      2090      2470
 -1      5370    3    0    1
 -2      1458      1493      2411      2444
 -1      5371    3    0    1
 -2      1283      2562      1320      1321
 -1      5372    3    0    1
 -2      2584      2610      2631      2710
 -1      5373    3    0    1
 -2      1101      1121      2485      1243
 -1      5374    3    0    1
 -2      1993        31      2034      2174
 -1      5375    3    0    1
 -2      2057      1580      2071      2471
 -1      5376    3    0    1
 -2      2471       934      1227      1228
 -1      5377    3    0    1
 -2      2062      1766      2070      2472
 -1      5378    3    0    1
 -2      1856      2062      2070      2472
 -1      5379    3    0    1
 -2        81       367      1347      2588
 -1      5380    3    0    1
 -2      2062      1856      2066      2472
 -1      5381    3    0    1
 -2      2119      2118      2140      2484
 -1      5382    3    0    1
 -2        88        89      2087      2513
 -1      5383    3    0    1
 -2      1065      1676      2019      2162
 -1      5384    3    0    1
 -2      1301      2579      2587      1393
 -1      5385    3    0    1
 -2       517       516      2138      2502
 -1      5386    3    0    1
 -2        82       941      2044      2498
 -1      5387    3    0    1
 -2      1360      1339      2242      2293
 -1      5388    3    0    1
 -2      1143       280      2075      2511
 -1      5389    3    0    1
 -2      2508      1218      2563      2598
 -1      5390    3    0    1
 -2      2279      2306      2332      2679
 -1      5391    3    0    1
 -2      2106      1851      2140      2473
 -1      5392    3    0    1
 -2      1851      2106      2137      2473
 -1      5393    3    0    1
 -2      2152      2097      2488      2188
 -1      5394    3    0    1
 -2      1080       601      1676      2162
 -1      5395    3    0    1
 -2       271       375      1967      2511
 -1      5396    3    0    1
 -2      2071      2138      2471      2502
 -1      5397    3    0    1
 -2      2209      1309      1325      2255
 -1      5398    3    0    1
 -2       516      1682      2166      2537
 -1      5399    3    0    1
 -2      1219      2501      1240      2548
 -1      5400    3    0    1
 -2       387       280      2075      2151
 -1      5401    3    0    1
 -2       280       794      1957      2151
 -1      5402    3    0    1
 -2      1120      1967      2124      2151
 -1      5403    3    0    1
 -2      1957      1120      2124      2151
 -1      5404    3    0    1
 -2       280      2014      2075      2151
 -1      5405    3    0    1
 -2       280      1957      2014      2151
 -1      5406    3    0    1
 -2       387       271      2125      2151
 -1      5407    3    0    1
 -2       280       387      2125      2151
 -1      5408    3    0    1
 -2       794       280      2125      2151
 -1      5409    3    0    1
 -2      1015       162      1800      2475
 -1      5410    3    0    1
 -2      2074      1800      2104      2475
 -1      5411    3    0    1
 -2       338       337       750      2475
 -1      5412    3    0    1
 -2      2104      1800      2132      2475
 -1      5413    3    0    1
 -2      1692      2074      2104      2475
 -1      5414    3    0    1
 -2       750       337      1015      2475
 -1      5415    3    0    1
 -2      2169      2118      2530      2685
 -1      5416    3    0    1
 -2       588      1065      2009      2162
 -1      5417    3    0    1
 -2       860       862      2237      2682
 -1      5418    3    0    1
 -2        56       432      2130      2527
 -1      5419    3    0    1
 -2       180      2105      2134      2496
 -1      5420    3    0    1
 -2      1949       111      2136      2498
 -1      5421    3    0    1
 -2        90      2044      2136      2498
 -1      5422    3    0    1
 -2      2528      2521      2529      2656
 -1      5423    3    0    1
 -2      1033      1844      2029      2496
 -1      5424    3    0    1
 -2       365       166      2105      2163
 -1      5425    3    0    1
 -2       762      1849      2105      2163
 -1      5426    3    0    1
 -2      1843       193      2038      2170
 -1      5427    3    0    1
 -2      1825      2067      2079      2476
 -1      5428    3    0    1
 -2      1293      1302      2725      2431
 -1      5429    3    0    1
 -2       166      1980      2105      2496
 -1      5430    3    0    1
 -2       624      1119      1934      2525
 -1      5431    3    0    1
 -2      1825      2079      2098      2476
 -1      5432    3    0    1
 -2       193      1843      1926      2170
 -1      5433    3    0    1
 -2      1754      1736      2054      2479
 -1      5434    3    0    1
 -2      1914      2013      2084      2477
 -1      5435    3    0    1
 -2       266       436      2084      2477
 -1      5436    3    0    1
 -2      1221      2199      2220      2282
 -1      5437    3    0    1
 -2      1766      2083      2500      2510
 -1      5438    3    0    1
 -2      1106       436      1127      2477
 -1      5439    3    0    1
 -2      1927      1914      2084      2477
 -1      5440    3    0    1
 -2       436       266      1127      2477
 -1      5441    3    0    1
 -2       507      1721      1739      2156
 -1      5442    3    0    1
 -2      1758      1103      2470      2514
 -1      5443    3    0    1
 -2       728       496      1938      2156
 -1      5444    3    0    1
 -2      1225      2292      2328      2345
 -1      5445    3    0    1
 -2       943       507      1739      2156
 -1      5446    3    0    1
 -2       943      1739      2021      2156
 -1      5447    3    0    1
 -2       507       496       944      2156
 -1      5448    3    0    1
 -2       496       728       944      2156
 -1      5449    3    0    1
 -2      2086      1856      2094      2478
 -1      5450    3    0    1
 -2      1598      1857      2086      2478
 -1      5451    3    0    1
 -2       358      2649      1482      2723
 -1      5452    3    0    1
 -2      2054      2159      2479      2185
 -1      5453    3    0    1
 -2      2590      1260      2715      2741
 -1      5454    3    0    1
 -2      2552      2574      2590      2715
 -1      5455    3    0    1
 -2      1251        32      2288      2300
 -1      5456    3    0    1
 -2      1427      1383      2355      2362
 -1      5457    3    0    1
 -2      2063      1678      2144      2493
 -1      5458    3    0    1
 -2      1759      2092      2157      2184
 -1      5459    3    0    1
 -2      1109       251      1759      2480
 -1      5460    3    0    1
 -2       370       237       777      2480
 -1      5461    3    0    1
 -2       237      1827      2157      2480
 -1      5462    3    0    1
 -2      1678      1709      2164      2493
 -1      5463    3    0    1
 -2      1244      2551      2617      2618
 -1      5464    3    0    1
 -2       782      1084      1781      2184
 -1      5465    3    0    1
 -2       230      1676      1827      2161
 -1      5466    3    0    1
 -2      1235      2468      2504      2534
 -1      5467    3    0    1
 -2       862      2468      1235      2534
 -1      5468    3    0    1
 -2      2554      1290      1390      1391
 -1      5469    3    0    1
 -2      2538      1275      2597      2606
 -1      5470    3    0    1
 -2      1754      2054      2159      2479
 -1      5471    3    0    1
 -2       230      1855      2462      2161
 -1      5472    3    0    1
 -2      2057      1736      2089      2479
 -1      5473    3    0    1
 -2      1855      2019      2462      2161
 -1      5474    3    0    1
 -2       256       251      1759      2184
 -1      5475    3    0    1
 -2       230      1827      1855      2161
 -1      5476    3    0    1
 -2      1877      1735      2091      2480
 -1      5477    3    0    1
 -2       612       613      2121      2160
 -1      5478    3    0    1
 -2       613       612      1886      2160
 -1      5479    3    0    1
 -2      1886       612      2121      2160
 -1      5480    3    0    1
 -2      1411       134      1472      2365
 -1      5481    3    0    1
 -2      2616      2231      2289      1452
 -1      5482    3    0    1
 -2      2503      2492      2557      2614
 -1      5483    3    0    1
 -2      2625      2643      2652      1441
 -1      5484    3    0    1
 -2      1269      2505      1270      2580
 -1      5485    3    0    1
 -2       625      1934      2167      2525
 -1      5486    3    0    1
 -2       897       918      2483      1245
 -1      5487    3    0    1
 -2       729       731      2197      1287
 -1      5488    3    0    1
 -2      1304      1246      2589      2599
 -1      5489    3    0    1
 -2      1856      1777      2094      2481
 -1      5490    3    0    1
 -2      2558      2557      1349      2614
 -1      5491    3    0    1
 -2       941      1795      2044      2498
 -1      5492    3    0    1
 -2      1882      2118      2119      2484
 -1      5493    3    0    1
 -2      1389      1354      2719      2403
 -1      5494    3    0    1
 -2      2553      1242      2714      2731
 -1      5495    3    0    1
 -2      2559      1255      1329      2591
 -1      5496    3    0    1
 -2      1339      2226      2240      2242
 -1      5497    3    0    1
 -2      2598      1386      2571      2655
 -1      5498    3    0    1
 -2      2460      1217      1218      2508
 -1      5499    3    0    1
 -2      1283      1323      2260      1472
 -1      5500    3    0    1
 -2      2343      2274      2344      2737
 -1      5501    3    0    1
 -2        31      1884      2174      2527
 -1      5502    3    0    1
 -2      1736      2060      2081      2482
 -1      5503    3    0    1
 -2      1736      2081      2089      2482
 -1      5504    3    0    1
 -2      2069      1854      2107      2486
 -1      5505    3    0    1
 -2      2140      2106      2473      2484
 -1      5506    3    0    1
 -2      2277      2212      2278      2679
 -1      5507    3    0    1
 -2      1331      1461      1497      2445
 -1      5508    3    0    1
 -2      2100      1831      2101      2483
 -1      5509    3    0    1
 -2      2486      1044      1249      2596
 -1      5510    3    0    1
 -2      1418        70      2636      2638
 -1      5511    3    0    1
 -2      2698      2422      2628      1292
 -1      5512    3    0    1
 -2      2118      1928      2140      2484
 -1      5513    3    0    1
 -2      1928      2053      2122      2484
 -1      5514    3    0    1
 -2      1928      2106      2140      2484
 -1      5515    3    0    1
 -2      2643      2545      2650      2685
 -1      5516    3    0    1
 -2      2543      1324      2571      2598
 -1      5517    3    0    1
 -2       991       993      2236      2709
 -1      5518    3    0    1
 -2      1328      2546      2611      2695
 -1      5519    3    0    1
 -2      1710      2467      2474      2607
 -1      5520    3    0    1
 -2      2471      2497      2592      2647
 -1      5521    3    0    1
 -2      1263      1347      2556      1346
 -1      5522    3    0    1
 -2      2515      2057      2546      2594
 -1      5523    3    0    1
 -2      2182      2493      1258      1324
 -1      5524    3    0    1
 -2      2493      2182      2543      1324
 -1      5525    3    0    1
 -2      2620      2522      2660      2701
 -1      5526    3    0    1
 -2      2500      2472      2501      2555
 -1      5527    3    0    1
 -2      2106      1928      2122      2485
 -1      5528    3    0    1
 -2      1934      2106      2122      2485
 -1      5529    3    0    1
 -2      2603      2216      1388      2290
 -1      5530    3    0    1
 -2       193       360      1926      2526
 -1      5531    3    0    1
 -2      2079      2069      2098      2486
 -1      5532    3    0    1
 -2      2571      2229      1379      2657
 -1      5533    3    0    1
 -2      1049       219      1071      2487
 -1      5534    3    0    1
 -2       198       219      1049      2487
 -1      5535    3    0    1
 -2      2010      2042      2103      2487
 -1      5536    3    0    1
 -2      1843      2010      2103      2487
 -1      5537    3    0    1
 -2      2010      1935      2042      2487
 -1      5538    3    0    1
 -2      1928      2053      2484      2488
 -1      5539    3    0    1
 -2      2077      1928      2484      2488
 -1      5540    3    0    1
 -2      2097      1892      2115      2488
 -1      5541    3    0    1
 -2      2077      2097      2115      2488
 -1      5542    3    0    1
 -2      1844      1033      2134      2496
 -1      5543    3    0    1
 -2       360       193      1926      2170
 -1      5544    3    0    1
 -2      1892      2053      2077      2488
 -1      5545    3    0    1
 -2      2083      2045      2500      2180
 -1      5546    3    0    1
 -2      1044      1066      2486      2568
 -1      5547    3    0    1
 -2      2053      1892      2067      2488
 -1      5548    3    0    1
 -2      2472      2500      2501      2548
 -1      5549    3    0    1
 -2      1892      2077      2115      2488
 -1      5550    3    0    1
 -2      2053      1928      2077      2488
 -1      5551    3    0    1
 -2      1402      2639      1498      2427
 -1      5552    3    0    1
 -2      1381      2299      2305      2376
 -1      5553    3    0    1
 -2      2534      1235      2682      2707
 -1      5554    3    0    1
 -2      1235      2504      1274      2648
 -1      5555    3    0    1
 -2       161      1221      2199      2217
 -1      5556    3    0    1
 -2       553       549      2211      2217
 -1      5557    3    0    1
 -2      1386      2598      2571      1324
 -1      5558    3    0    1
 -2      2484      2119      2187      2530
 -1      5559    3    0    1
 -2       961       111      1949      2498
 -1      5560    3    0    1
 -2       372       916      2110      2165
 -1      5561    3    0    1
 -2      1364      2274      2342      2344
 -1      5562    3    0    1
 -2      2323      1308      2687      2390
 -1      5563    3    0    1
 -2      1766      2112      2510      2524
 -1      5564    3    0    1
 -2      1064       588      2098      2519
 -1      5565    3    0    1
 -2      2098      1825      2476      2519
 -1      5566    3    0    1
 -2      2059      2118      2169      2541
 -1      5567    3    0    1
 -2      2193      2180      2561      2246
 -1      5568    3    0    1
 -2      1025      1046      2113      2505
 -1      5569    3    0    1
 -2      2280      2544      1456      2625
 -1      5570    3    0    1
 -2      2046      2144      2180      2246
 -1      5571    3    0    1
 -2      1710      2072      2467      2607
 -1      5572    3    0    1
 -2      1268      2205      2247      2249
 -1      5573    3    0    1
 -2       369      2700      1507      2454
 -1      5574    3    0    1
 -2       568      1761      2116      2172
 -1      5575    3    0    1
 -2      1992      2082      2111      2489
 -1      5576    3    0    1
 -2      2056      1915      2111      2489
 -1      5577    3    0    1
 -2      1917      2056      2111      2489
 -1      5578    3    0    1
 -2      2149      2068      2173      2510
 -1      5579    3    0    1
 -2        31      1993      2130      2527
 -1      5580    3    0    1
 -2      2153      2484      2187      2275
 -1      5581    3    0    1
 -2      1228      1227      2497      1262
 -1      5582    3    0    1
 -2       204       358      2649      1483
 -1      5583    3    0    1
 -2      1310      2207      1326      2313
 -1      5584    3    0    1
 -2      2060      2148      2469      2169
 -1      5585    3    0    1
 -2      2059      2060      2469      2169
 -1      5586    3    0    1
 -2      2060      2059      2118      2169
 -1      5587    3    0    1
 -2      2500      2492      2555      2246
 -1      5588    3    0    1
 -2      1892      2115      2133      2490
 -1      5589    3    0    1
 -2      2079      1892      2133      2490
 -1      5590    3    0    1
 -2      1452      1341      2680      2439
 -1      5591    3    0    1
 -2      1854      2079      2133      2490
 -1      5592    3    0    1
 -2      2067      1892      2079      2490
 -1      5593    3    0    1
 -2       372       371       728      2513
 -1      5594    3    0    1
 -2      2609      2522      2660      2677
 -1      5595    3    0    1
 -2      1052      1843      1888      2172
 -1      5596    3    0    1
 -2      1795       941      2044       508
 -1      5597    3    0    1
 -2      2094      1856      2481      2613
 -1      5598    3    0    1
 -2       773      2205      2227      2247
 -1      5599    3    0    1
 -2      2578      2574      2581      2715
 -1      5600    3    0    1
 -2      2489      1255      2559      2591
 -1      5601    3    0    1
 -2       934       958      2471      1227
 -1      5602    3    0    1
 -2      2501      1220      1240      1241
 -1      5603    3    0    1
 -2      2226      2240      2242      2606
 -1      5604    3    0    1
 -2      1854      2068      2112      2491
 -1      5605    3    0    1
 -2      1285      2550      2567      2696
 -1      5606    3    0    1
 -2      2068      1854      2115      2491
 -1      5607    3    0    1
 -2      2107      1854      2112      2491
 -1      5608    3    0    1
 -2        89        88       944      2513
 -1      5609    3    0    1
 -2      1349      2558      2614      2670
 -1      5610    3    0    1
 -2      2115      1854      2133      2491
 -1      5611    3    0    1
 -2      2173      2149      2510      2203
 -1      5612    3    0    1
 -2      2483       897      1245      2582
 -1      5613    3    0    1
 -2       751       161      2199      2217
 -1      5614    3    0    1
 -2      1242      1486      2701      2728
 -1      5615    3    0    1
 -2      1678      2072      2126      2493
 -1      5616    3    0    1
 -2      1347      1262      2556      2597
 -1      5617    3    0    1
 -2      2144      2126      2492      2493
 -1      5618    3    0    1
 -2      1294      1368      1369      2649
 -1      5619    3    0    1
 -2      2264      2600      2270      1389
 -1      5620    3    0    1
 -2      1348      1294      2593      2737
 -1      5621    3    0    1
 -2      2046      2045      2083      2180
 -1      5622    3    0    1
 -2      2126      1777      2144      2492
 -1      5623    3    0    1
 -2      2144      1777      2155      2492
 -1      5624    3    0    1
 -2       860       881      2489      1254
 -1      5625    3    0    1
 -2      2505      1269      2596      2634
 -1      5626    3    0    1
 -2      1124      1143      1916      2511
 -1      5627    3    0    1
 -2      2122      1934      2485      2525
 -1      5628    3    0    1
 -2       612       625      2167      2525
 -1      5629    3    0    1
 -2      1337      2624      1445      2735
 -1      5630    3    0    1
 -2      2555      1301      2223      2246
 -1      5631    3    0    1
 -2      1766      2500      2548      2726
 -1      5632    3    0    1
 -2      1044      2486      1249      2568
 -1      5633    3    0    1
 -2      2506      2536      2590      2715
 -1      5634    3    0    1
 -2      2560      2584      2710      2716
 -1      5635    3    0    1
 -2      2120      1996      2129      2494
 -1      5636    3    0    1
 -2      1866      2120      2129      2494
 -1      5637    3    0    1
 -2      2123      1866      2129      2494
 -1      5638    3    0    1
 -2       430        10      1524      2495
 -1      5639    3    0    1
 -2      1524        10      2127      2495
 -1      5640    3    0    1
 -2       430       431       885      2495
 -1      5641    3    0    1
 -2       712       430       885      2495
 -1      5642    3    0    1
 -2      2127      2034      2145      2495
 -1      5643    3    0    1
 -2      1524      2127      2145      2495
 -1      5644    3    0    1
 -2      1850      2034      2127      2495
 -1      5645    3    0    1
 -2       880        31      1993      2175
 -1      5646    3    0    1
 -2        31       432      1993      2175
 -1      5647    3    0    1
 -2      2128      1993      2130      2175
 -1      5648    3    0    1
 -2       362       347      2117      2176
 -1      5649    3    0    1
 -2      1026       362      2117      2176
 -1      5650    3    0    1
 -2       166       365      1980      2496
 -1      5651    3    0    1
 -2       365       166       756      2496
 -1      5652    3    0    1
 -2      1523       756      2029      2496
 -1      5653    3    0    1
 -2       756      1523      1980      2496
 -1      5654    3    0    1
 -2       756       166      1033      2496
 -1      5655    3    0    1
 -2       166       180      1033      2496
 -1      5656    3    0    1
 -2      2029      1844      2134      2496
 -1      5657    3    0    1
 -2      1980      2029      2134      2496
 -1      5658    3    0    1
 -2      2105      1980      2134      2496
 -1      5659    3    0    1
 -2      1980      1523      2029      2496
 -1      5660    3    0    1
 -2       915       937      2515      1295
 -1      5661    3    0    1
 -2       745       142      2214      2253
 -1      5662    3    0    1
 -2      2210      1222      2557      2246
 -1      5663    3    0    1
 -2      2190      2051      2539      2607
 -1      5664    3    0    1
 -2      1992       879      2147      2518
 -1      5665    3    0    1
 -2      2533      2473      2572      2595
 -1      5666    3    0    1
 -2      2121      1934      2122      2525
 -1      5667    3    0    1
 -2      2060      2058      2099      2507
 -1      5668    3    0    1
 -2       600       601       594      2227
 -1      5669    3    0    1
 -2      2214      1286      2236      2263
 -1      5670    3    0    1
 -2      1085       601      2227      2247
 -1      5671    3    0    1
 -2      1237      1313      2609      2701
 -1      5672    3    0    1
 -2      2082      2065      2461      2518
 -1      5673    3    0    1
 -2      1235      2504      1273      1274
 -1      5674    3    0    1
 -2      2119      2118      2178      2530
 -1      5675    3    0    1
 -2      2595      1278      1406      2744
 -1      5676    3    0    1
 -2      1448       434      1450      2423
 -1      5677    3    0    1
 -2      1119      1121      1934      2525
 -1      5678    3    0    1
 -2       433        56      2033      2527
 -1      5679    3    0    1
 -2      1395      1365      1397      2340
 -1      5680    3    0    1
 -2      1795      1949      2044      2498
 -1      5681    3    0    1
 -2      2283      1362      2333      2346
 -1      5682    3    0    1
 -2       192      1843      2038      2499
 -1      5683    3    0    1
 -2      2103      1843      2487      2499
 -1      5684    3    0    1
 -2      1843       192      2487      2499
 -1      5685    3    0    1
 -2      2103      2042      2135      2499
 -1      5686    3    0    1
 -2       771       359      2177      2499
 -1      5687    3    0    1
 -2       198       192      2177      2499
 -1      5688    3    0    1
 -2       219       198      2177      2499
 -1      5689    3    0    1
 -2       359       219      2177      2499
 -1      5690    3    0    1
 -2      1843      2103      2135      2499
 -1      5691    3    0    1
 -2       192      1045      2177      2499
 -1      5692    3    0    1
 -2      2038      1843      2135      2499
 -1      5693    3    0    1
 -2       576      1044      1046      2266
 -1      5694    3    0    1
 -2      1348      1294      1369      2593
 -1      5695    3    0    1
 -2      2581       354      1474      2699
 -1      5696    3    0    1
 -2      2142      1345      2615      2289
 -1      5697    3    0    1
 -2      2058      2142      2507      2231
 -1      5698    3    0    1
 -2      2517      1224      1292      2628
 -1      5699    3    0    1
 -2      1319      2557      2216      1388
 -1      5700    3    0    1
 -2      1236      2566      2677      2687
 -1      5701    3    0    1
 -2      1302      2374      2725      2431
 -1      5702    3    0    1
 -2      1414      2581      1473      1474
 -1      5703    3    0    1
 -2      1766      2083      2155      2500
 -1      5704    3    0    1
 -2      1124       387      1143      2511
 -1      5705    3    0    1
 -2      2075      1967      2150      2511
 -1      5706    3    0    1
 -2      2083      2045      2155      2500
 -1      5707    3    0    1
 -2      2070      1766      2155      2500
 -1      5708    3    0    1
 -2      1721        88      2087      2513
 -1      5709    3    0    1
 -2       375       271      1124      2511
 -1      5710    3    0    1
 -2      1124      1916      2150      2511
 -1      5711    3    0    1
 -2      2000       517      2138      2502
 -1      5712    3    0    1
 -2       517      2000      2052      2502
 -1      5713    3    0    1
 -2       937       504       505      2502
 -1      5714    3    0    1
 -2       937       505      1580      2502
 -1      5715    3    0    1
 -2       505       504      2052      2502
 -1      5716    3    0    1
 -2      1580       505      2052      2502
 -1      5717    3    0    1
 -2      2138       958       955      2166
 -1      5718    3    0    1
 -2       958      2138       955      2502
 -1      5719    3    0    1
 -2       504       934       958      2502
 -1      5720    3    0    1
 -2       517       504       958      2502
 -1      5721    3    0    1
 -2      1580      2052      2138      2502
 -1      5722    3    0    1
 -2      2071      1580      2138      2502
 -1      5723    3    0    1
 -2      2052      2000      2138      2502
 -1      5724    3    0    1
 -2       577       570       569      2266
 -1      5725    3    0    1
 -2      1121      1119      2570      2720
 -1      5726    3    0    1
 -2      1451       213      1473      2715
 -1      5727    3    0    1
 -2      2558      2503      2604      2612
 -1      5728    3    0    1
 -2      2057      2467      2479      2594
 -1      5729    3    0    1
 -2      2057      2479      2546      2594
 -1      5730    3    0    1
 -2      2512      1241      1290      2579
 -1      5731    3    0    1
 -2      2232      2578      1412      2637
 -1      5732    3    0    1
 -2      2178      2119      2530      2238
 -1      5733    3    0    1
 -2      1374      2641      1436      2648
 -1      5734    3    0    1
 -2      1025      2113      2146      2505
 -1      5735    3    0    1
 -2      2182      2543      2571      1376
 -1      5736    3    0    1
 -2       944      1721      2156      2513
 -1      5737    3    0    1
 -2      2476      1230      2552      2590
 -1      5738    3    0    1
 -2      1046      1890      2113      2505
 -1      5739    3    0    1
 -2      1231      1085      2553      2714
 -1      5740    3    0    1
 -2      2581       213      1473      1474
 -1      5741    3    0    1
 -2      2062      1025      2146      2505
 -1      5742    3    0    1
 -2      1275      2538      2597      2607
 -1      5743    3    0    1
 -2      2453      1496      1494      2458
 -1      5744    3    0    1
 -2      1056       203      2274      2342
 -1      5745    3    0    1
 -2      2557      1349      2234      2603
 -1      5746    3    0    1
 -2      2542      1292      1341      1342
 -1      5747    3    0    1
 -2      1333      1306      2618      2687
 -1      5748    3    0    1
 -2      2219      2620      2389      2446
 -1      5749    3    0    1
 -2      2045      2155      2500      2180
 -1      5750    3    0    1
 -2      2155      2070      2500      2555
 -1      5751    3    0    1
 -2      2360      2315      2361      2696
 -1      5752    3    0    1
 -2      1406      1477      2735      2744
 -1      5753    3    0    1
 -2      1044       576      1046      2596
 -1      5754    3    0    1
 -2      2649       358      1482      1483
 -1      5755    3    0    1
 -2      2199      1265      2211      2230
 -1      5756    3    0    1
 -2      2531      2569      2256      2257
 -1      5757    3    0    1
 -2      2599      1328      2623      2695
 -1      5758    3    0    1
 -2      2236       745      2214      2253
 -1      5759    3    0    1
 -2        48       719      2215      1357
 -1      5760    3    0    1
 -2      2179      2490      2183      2536
 -1      5761    3    0    1
 -2      2546      2479      1328      2611
 -1      5762    3    0    1
 -2      2179      2183      2194      2536
 -1      5763    3    0    1
 -2      1890      2112      2146      2505
 -1      5764    3    0    1
 -2      2327      2283      2375      2745
 -1      5765    3    0    1
 -2      1890      2107      2112      2505
 -1      5766    3    0    1
 -2      2113      1890      2146      2505
 -1      5767    3    0    1
 -2      2561      2587      2605      2672
 -1      5768    3    0    1
 -2      2555      1301      2579      2587
 -1      5769    3    0    1
 -2      2060      1672      2081      2507
 -1      5770    3    0    1
 -2      1672      2060      2148      2507
 -1      5771    3    0    1
 -2        20      1366      2610      1509
 -1      5772    3    0    1
 -2       477       480       481      2658
 -1      5773    3    0    1
 -2      2099      2058      2142      2507
 -1      5774    3    0    1
 -2      1934      1119      2124      2532
 -1      5775    3    0    1
 -2       900       480       897      2658
 -1      5776    3    0    1
 -2      2470      1236      2566      2609
 -1      5777    3    0    1
 -2      2488      2522      1306      2620
 -1      5778    3    0    1
 -2      1269      2505      2580      2634
 -1      5779    3    0    1
 -2      2106      2137      2473      2532
 -1      5780    3    0    1
 -2      1307      1244      1308      2551
 -1      5781    3    0    1
 -2      1330      2559      2584      2631
 -1      5782    3    0    1
 -2      2549      2482      1328      2599
 -1      5783    3    0    1
 -2      2471      1710      2474      2538
 -1      5784    3    0    1
 -2      2541      2544      2250      2261
 -1      5785    3    0    1
 -2      2137      1851      2473      2532
 -1      5786    3    0    1
 -2      2566      1460      2687      1306
 -1      5787    3    0    1
 -2      2376      1303      2719      2403
 -1      5788    3    0    1
 -2      2322      2317      2352      2676
 -1      5789    3    0    1
 -2      2505      2524      2580      2634
 -1      5790    3    0    1
 -2      2509      2463      2537      2538
 -1      5791    3    0    1
 -2      2107      2486      2521      2596
 -1      5792    3    0    1
 -2      2535      1064      2590      2665
 -1      5793    3    0    1
 -2      2083      1766      2112      2510
 -1      5794    3    0    1
 -2      2068      2083      2112      2510
 -1      5795    3    0    1
 -2      1347      2556      2588      2597
 -1      5796    3    0    1
 -2      2075       387      2151      2511
 -1      5797    3    0    1
 -2      2558      2604      2635      2667
 -1      5798    3    0    1
 -2      2669      2573      2705      2713
 -1      5799    3    0    1
 -2      1335      2256      2597      1415
 -1      5800    3    0    1
 -2      2118      2119      2140      2530
 -1      5801    3    0    1
 -2      2681       361      2697      1512
 -1      5802    3    0    1
 -2      2493      2492      1258      2543
 -1      5803    3    0    1
 -2      2574      2581      1413      1414
 -1      5804    3    0    1
 -2      2212      1017      2213      2277
 -1      5805    3    0    1
 -2      2045      2144      2155      2180
 -1      5806    3    0    1
 -2       753       751      2199      2217
 -1      5807    3    0    1
 -2       372       728      1938      2513
 -1      5808    3    0    1
 -2       352      1480      2697      2402
 -1      5809    3    0    1
 -2      2505      1025      1270      2633
 -1      5810    3    0    1
 -2      1993        31      2174      2527
 -1      5811    3    0    1
 -2      1331      2551      2619      2706
 -1      5812    3    0    1
 -2      2472      2070      2540      2555
 -1      5813    3    0    1
 -2       900      2065      2147      2518
 -1      5814    3    0    1
 -2      2548      1027      2633      2679
 -1      5815    3    0    1
 -2      2047      2463      2509      2550
 -1      5816    3    0    1
 -2       937      2281      2647      2739
 -1      5817    3    0    1
 -2      1339      2226      2242      2293
 -1      5818    3    0    1
 -2      1414      2581      1474      2699
 -1      5819    3    0    1
 -2       263      1111      2209      1325
 -1      5820    3    0    1
 -2      1420      2360      2361      2363
 -1      5821    3    0    1
 -2      2474      2471      2497      2592
 -1      5822    3    0    1
 -2      2564      1317      2604      2612
 -1      5823    3    0    1
 -2      2492      2555      2557      2614
 -1      5824    3    0    1
 -2      2106      2484      2485      2570
 -1      5825    3    0    1
 -2      2272      2269      2687      2420
 -1      5826    3    0    1
 -2       371       372      2165      2513
 -1      5827    3    0    1
 -2       372      1938      1952      2513
 -1      5828    3    0    1
 -2       372      1952      2165      2513
 -1      5829    3    0    1
 -2       728        89       944      2513
 -1      5830    3    0    1
 -2       371        89       728      2513
 -1      5831    3    0    1
 -2      2087      1938      2156      2513
 -1      5832    3    0    1
 -2      1721      2087      2156      2513
 -1      5833    3    0    1
 -2      1952      1938      2087      2513
 -1      5834    3    0    1
 -2      1952      2087      2165      2513
 -1      5835    3    0    1
 -2      2119      2153      2484      2187
 -1      5836    3    0    1
 -2      1758      2090      2160      2514
 -1      5837    3    0    1
 -2       613       600      1103      2514
 -1      5838    3    0    1
 -2      2090      1781      2160      2514
 -1      5839    3    0    1
 -2      2121      1758      2160      2514
 -1      5840    3    0    1
 -2       600      1083      1103      2514
 -1      5841    3    0    1
 -2      2681       352      1480      2697
 -1      5842    3    0    1
 -2       915       937      2102      2515
 -1      5843    3    0    1
 -2       915      2102      2158      2515
 -1      5844    3    0    1
 -2      2196      2268      2331      2721
 -1      5845    3    0    1
 -2      1831       915      2158      2515
 -1      5846    3    0    1
 -2      1766      2548      2633      2726
 -1      5847    3    0    1
 -2      2497      2474      2531      2597
 -1      5848    3    0    1
 -2      2489       860      1254      1255
 -1      5849    3    0    1
 -2      2359      2324      2713      2417
 -1      5850    3    0    1
 -2       204       358      2565      2649
 -1      5851    3    0    1
 -2      1119       624      1121      2525
 -1      5852    3    0    1
 -2      2575      2625      2641      2648
 -1      5853    3    0    1
 -2      1580      2057      2158      2515
 -1      5854    3    0    1
 -2      2102      1580      2158      2515
 -1      5855    3    0    1
 -2      2057      2089      2158      2515
 -1      5856    3    0    1
 -2      2628      1345      2663      2382
 -1      5857    3    0    1
 -2      1275      1335      2597      2606
 -1      5858    3    0    1
 -2      2582      1303      2589      2640
 -1      5859    3    0    1
 -2      1302      2547      1382      2723
 -1      5860    3    0    1
 -2      2629      2542      2646      2675
 -1      5861    3    0    1
 -2      2422      2698      2423      2448
 -1      5862    3    0    1
 -2       204      1348      1483      2692
 -1      5863    3    0    1
 -2      2544      2250      2261      2280
 -1      5864    3    0    1
 -2      1240      2512      1289      2662
 -1      5865    3    0    1
 -2      1322      2222      2281      2284
 -1      5866    3    0    1
 -2       745      2236      2214       747
 -1      5867    3    0    1
 -2      2099      2059      2469      2196
 -1      5868    3    0    1
 -2       222       773      2205      2227
 -1      5869    3    0    1
 -2      2268      1299      1409      2721
 -1      5870    3    0    1
 -2      2363      2632      2696      2391
 -1      5871    3    0    1
 -2      2528      2189      1259      1302
 -1      5872    3    0    1
 -2      1280      1225      2626      2627
 -1      5873    3    0    1
 -2      2252      2353      2424      2744
 -1      5874    3    0    1
 -2      1337      2595      2624      2735
 -1      5875    3    0    1
 -2      2540      1222      1301      2555
 -1      5876    3    0    1
 -2      2193      2555      2561      2587
 -1      5877    3    0    1
 -2      2469      2059      2192      2196
 -1      5878    3    0    1
 -2      1294      1369      2593      2649
 -1      5879    3    0    1
 -2       773      1075      2205      2247
 -1      5880    3    0    1
 -2      2565      2547      1348      2692
 -1      5881    3    0    1
 -2      2335      2664      2341      1470
 -1      5882    3    0    1
 -2      2046      2063      2144      2191
 -1      5883    3    0    1
 -2      1226      2538      2606      2639
 -1      5884    3    0    1
 -2      2081      2101      2483      2516
 -1      5885    3    0    1
 -2      2069      1044      2486      2596
 -1      5886    3    0    1
 -2       900       897      2582      2658
 -1      5887    3    0    1
 -2      2562      1320      2601      2632
 -1      5888    3    0    1
 -2      2452      2436      1488      2457
 -1      5889    3    0    1
 -2      2543      2562      2571      2632
 -1      5890    3    0    1
 -2      2611      2546      2622      2695
 -1      5891    3    0    1
 -2       741      2221      2254      2251
 -1      5892    3    0    1
 -2      2473      2530      2572      2740
 -1      5893    3    0    1
 -2      2622      2653      2659      2695
 -1      5894    3    0    1
 -2      2186      2549      1328      1367
 -1      5895    3    0    1
 -2      2198      1258      2557      1319
 -1      5896    3    0    1
 -2      1359      1358      2630      1425
 -1      5897    3    0    1
 -2       900       879      1223      2518
 -1      5898    3    0    1
 -2      2065      2082      2147      2518
 -1      5899    3    0    1
 -2      1223       879      1224      2518
 -1      5900    3    0    1
 -2      2082      1992      2147      2518
 -1      5901    3    0    1
 -2      2164      2493      2181      2732
 -1      5902    3    0    1
 -2       134      1386      2655      2657
 -1      5903    3    0    1
 -2      1231      1260      1261      2552
 -1      5904    3    0    1
 -2       625       624      1121      2209
 -1      5905    3    0    1
 -2      2051      2072      2164      2190
 -1      5906    3    0    1
 -2      1454      1442      1470      2711
 -1      5907    3    0    1
 -2      1365        11      2610      1395
 -1      5908    3    0    1
 -2      1101      2121      2566      2617
 -1      5909    3    0    1
 -2      1227      2242      2606      2349
 -1      5910    3    0    1
 -2      2305      1381      2376      2403
 -1      5911    3    0    1
 -2      1915      2056      2468      2534
 -1      5912    3    0    1
 -2      1917      2148      2469      2338
 -1      5913    3    0    1
 -2      2500      2501      2548      2561
 -1      5914    3    0    1
 -2       168      1017      1300      1311
 -1      5915    3    0    1
 -2      2476      1231      1230      1085
 -1      5916    3    0    1
 -2       363       350      2294      2666
 -1      5917    3    0    1
 -2      2107      1854      2491      2521
 -1      5918    3    0    1
 -2      1854      2107      2486      2521
 -1      5919    3    0    1
 -2      1275      1335      2606      2293
 -1      5920    3    0    1
 -2      2057      2089      2515      2546
 -1      5921    3    0    1
 -2      1290      1289      2554      1390
 -1      5922    3    0    1
 -2      2199      2217      2220      2693
 -1      5923    3    0    1
 -2      2560      2631      2703      2710
 -1      5924    3    0    1
 -2      2154      2186      2549      1328
 -1      5925    3    0    1
 -2      1386      2571      2655      2657
 -1      5926    3    0    1
 -2      1262      2497      1263      2556
 -1      5927    3    0    1
 -2      1111       617       618      2209
 -1      5928    3    0    1
 -2      1417      1351      1446      2403
 -1      5929    3    0    1
 -2       625       617       624      2209
 -1      5930    3    0    1
 -2       537       538       540      2236
 -1      5931    3    0    1
 -2      1892      2067      2488      2522
 -1      5932    3    0    1
 -2      2531      2497      2556      2592
 -1      5933    3    0    1
 -2      2410      2385      2411      2739
 -1      5934    3    0    1
 -2      1309      2255      2318      2414
 -1      5935    3    0    1
 -2       625       618       617      2209
 -1      5936    3    0    1
 -2       624      1119      1121      2209
 -1      5937    3    0    1
 -2      2509      2539      2573      2732
 -1      5938    3    0    1
 -2      2713      1496      2718      2729
 -1      5939    3    0    1
 -2      1374      2575      2641      2648
 -1      5940    3    0    1
 -2      2089      2057      2479      2546
 -1      5941    3    0    1
 -2       434      2646      1450      2357
 -1      5942    3    0    1
 -2      2313      1306      2687      2420
 -1      5943    3    0    1
 -2      2159      2154      2482      1328
 -1      5944    3    0    1
 -2      2603      2558      2635      2667
 -1      5945    3    0    1
 -2      1410      1320      1424      2391
 -1      5946    3    0    1
 -2      2470      2053      2522      2566
 -1      5947    3    0    1
 -2      1399      2669      1494      2729
 -1      5948    3    0    1
 -2      2291      2232      2637      1451
 -1      5949    3    0    1
 -2      2201      2225      2237      2682
 -1      5950    3    0    1
 -2      2566      1306      2620      1460
 -1      5951    3    0    1
 -2      1306      2208      2620      1460
 -1      5952    3    0    1
 -2      2623      1295      2695      2745
 -1      5953    3    0    1
 -2      1393      1404      1429      2326
 -1      5954    3    0    1
 -2      2474      2467      2594      2678
 -1      5955    3    0    1
 -2      2263      2329      2355      2709
 -1      5956    3    0    1
 -2      2531      2569      2257      2678
 -1      5957    3    0    1
 -2      2146      1766      2505      2524
 -1      5958    3    0    1
 -2      2112      2146      2505      2524
 -1      5959    3    0    1
 -2       134       351      2259      2657
 -1      5960    3    0    1
 -2      2571      1379      2632      2657
 -1      5961    3    0    1
 -2      2112      1766      2146      2524
 -1      5962    3    0    1
 -2      1384      2635      1422      1423
 -1      5963    3    0    1
 -2       600      1083      1085      2227
 -1      5964    3    0    1
 -2       601       600      1085      2227
 -1      5965    3    0    1
 -2      2207      2323      2687      2390
 -1      5966    3    0    1
 -2      2164      2190      2539      2287
 -1      5967    3    0    1
 -2      2119      2187      2530      2238
 -1      5968    3    0    1
 -2      2469      2523      2338      2694
 -1      5969    3    0    1
 -2       167       364      2356      2683
 -1      5970    3    0    1
 -2       362      2116      2117      2526
 -1      5971    3    0    1
 -2      1030       347      1052      2526
 -1      5972    3    0    1
 -2       347       360      1052      2526
 -1      5973    3    0    1
 -2      1843      1926      2172      2526
 -1      5974    3    0    1
 -2      1926      2116      2172      2526
 -1      5975    3    0    1
 -2      2116      1926      2117      2526
 -1      5976    3    0    1
 -2      2534      1238      1392      2707
 -1      5977    3    0    1
 -2      1234      1235      2504      1273
 -1      5978    3    0    1
 -2      2398      2314      2401      2725
 -1      5979    3    0    1
 -2       204       358      2206      2565
 -1      5980    3    0    1
 -2      1292      1291      2542      1341
 -1      5981    3    0    1
 -2      1457      1328      2695      2745
 -1      5982    3    0    1
 -2      2274      1327      2321      2370
 -1      5983    3    0    1
 -2      1398      2343      2344      2407
 -1      5984    3    0    1
 -2      2571      2562      2598      2655
 -1      5985    3    0    1
 -2      2579      2587      1393      1404
 -1      5986    3    0    1
 -2      2493      2181      2182      1258
 -1      5987    3    0    1
 -2      2493      2063      2181      1258
 -1      5988    3    0    1
 -2       973      2460      2550      2567
 -1      5989    3    0    1
 -2      1503      2677      2620      1460
 -1      5990    3    0    1
 -2      1710      2166      2537      2538
 -1      5991    3    0    1
 -2      1232      1233      2533      1336
 -1      5992    3    0    1
 -2      2204      1276      2225      2381
 -1      5993    3    0    1
 -2      2482      2154      1256      2549
 -1      5994    3    0    1
 -2      2473      2140      2484      2530
 -1      5995    3    0    1
 -2       719      2215      1357      2658
 -1      5996    3    0    1
 -2       351      2601      2632      2657
 -1      5997    3    0    1
 -2      2471      2474      2497      2597
 -1      5998    3    0    1
 -2      2300      2303      2663      2382
 -1      5999    3    0    1
 -2      1346      1263      2258      1416
 -1      6000    3    0    1
 -2      1371      1288      2285      2325
 -1      6001    3    0    1
 -2      2333      2283      2346      2671
 -1      6002    3    0    1
 -2      2337      2631      2721      1509
 -1      6003    3    0    1
 -2      2472      1009      1220      2540
 -1      6004    3    0    1
 -2      2169      2473      2545      2685
 -1      6005    3    0    1
 -2        70      1419      2636      2638
 -1      6006    3    0    1
 -2      1318      1272      2614      2693
 -1      6007    3    0    1
 -2      1281      1400      2626      2639
 -1      6008    3    0    1
 -2      1408      1349      2347      2366
 -1      6009    3    0    1
 -2      2336      2333      2354      2671
 -1      6010    3    0    1
 -2      2260      1283      1472      2365
 -1      6011    3    0    1
 -2      2645      2297      2358      2393
 -1      6012    3    0    1
 -2      1231      1230      1260      2552
 -1      6013    3    0    1
 -2      2474      2531      2597      2607
 -1      6014    3    0    1
 -2      2072      1710      2463      2607
 -1      6015    3    0    1
 -2      1399      1494      1496      2729
 -1      6016    3    0    1
 -2      1917      2469      2169      2541
 -1      6017    3    0    1
 -2      2615      2231      2289      2629
 -1      6018    3    0    1
 -2      2118      2140      2169      2530
 -1      6019    3    0    1
 -2      2279      2213      2306      2679
 -1      6020    3    0    1
 -2      2306      1240      2332      2679
 -1      6021    3    0    1
 -2      1274      2575      1373      1374
 -1      6022    3    0    1
 -2      1218      2508      1282      1283
 -1      6023    3    0    1
 -2      2238      2530      2297      2358
 -1      6024    3    0    1
 -2      2242      2226      2606      2293
 -1      6025    3    0    1
 -2      1283      2508      2562      2598
 -1      6026    3    0    1
 -2      1454        69      1470      2457
 -1      6027    3    0    1
 -2      1268      2205      2249      2312
 -1      6028    3    0    1
 -2      2520      2485      2551      2617
 -1      6029    3    0    1
 -2      1439      2224      2388      2726
 -1      6030    3    0    1
 -2      1233      2533      1336      2624
 -1      6031    3    0    1
 -2      1856      1009      2472      2613
 -1      6032    3    0    1
 -2      2319      1340      1464      2380
 -1      6033    3    0    1
 -2      1279      1256      2576      2231
 -1      6034    3    0    1
 -2      2295       915      2671      2745
 -1      6035    3    0    1
 -2      2225      1334      2237      2243
 -1      6036    3    0    1
 -2      2542      2602      2675      2698
 -1      6037    3    0    1
 -2      2603      1408      1431      2670
 -1      6038    3    0    1
 -2      2634      1358      1437      1480
 -1      6039    3    0    1
 -2      2212      1314      2278      2392
 -1      6040    3    0    1
 -2      1864      2460      2543      2567
 -1      6041    3    0    1
 -2      2124      1119       637      2532
 -1      6042    3    0    1
 -2       358      2206      2565      1382
 -1      6043    3    0    1
 -2      1139      1137      1991      2532
 -1      6044    3    0    1
 -2      1991      1137      2468      2532
 -1      6045    3    0    1
 -2      2053      2484      2566      2617
 -1      6046    3    0    1
 -2      2197      1266      1361      2241
 -1      6047    3    0    1
 -2      2193      2561      2218      2672
 -1      6048    3    0    1
 -2      2569      2608      2308      2309
 -1      6049    3    0    1
 -2      1335      1275      2597      2607
 -1      6050    3    0    1
 -2      1139      1119      1232      2532
 -1      6051    3    0    1
 -2      1139      1232      1233      2532
 -1      6052    3    0    1
 -2      2106      2124      2137      2532
 -1      6053    3    0    1
 -2       637      1119      1139      2532
 -1      6054    3    0    1
 -2      2124      1991      2137      2532
 -1      6055    3    0    1
 -2      2106      1934      2124      2532
 -1      6056    3    0    1
 -2      1119      2124       637       624
 -1      6057    3    0    1
 -2      2250      1456      2544      1392
 -1      6058    3    0    1
 -2      2288      2300      2302      2663
 -1      6059    3    0    1
 -2      2543      2508      2562      2632
 -1      6060    3    0    1
 -2      1017      1300      1311      2212
 -1      6061    3    0    1
 -2      2512      2501      2587      2605
 -1      6062    3    0    1
 -2      2576      2507      2615      2616
 -1      6063    3    0    1
 -2      2312      2249      2714      2731
 -1      6064    3    0    1
 -2       741       526      2221      2251
 -1      6065    3    0    1
 -2       367      1347      2588      1415
 -1      6066    3    0    1
 -2      2616      2629      2646      1452
 -1      6067    3    0    1
 -2      2559      2523      2560      2631
 -1      6068    3    0    1
 -2      2099      2507      2268      2721
 -1      6069    3    0    1
 -2      2492      2481      2503      2612
 -1      6070    3    0    1
 -2      2508      1282      1283      2562
 -1      6071    3    0    1
 -2      2469      2099      2196      2721
 -1      6072    3    0    1
 -2      2691       238      2733      2700
 -1      6073    3    0    1
 -2      2628      2615      2675      2694
 -1      6074    3    0    1
 -2      2576      2461      2582      2585
 -1      6075    3    0    1
 -2      2149      2224      2245      2726
 -1      6076    3    0    1
 -2      2517      1224      1291      1292
 -1      6077    3    0    1
 -2       386      2652      1441      2373
 -1      6078    3    0    1
 -2       945        98      2226      2240
 -1      6079    3    0    1
 -2      2058      2507      2576      2231
 -1      6080    3    0    1
 -2      2646      2629      1450      2357
 -1      6081    3    0    1
 -2      2479      2159      2262      2611
 -1      6082    3    0    1
 -2      2218      2561      2605      2672
 -1      6083    3    0    1
 -2       706      2201       450       852
 -1      6084    3    0    1
 -2      2187      2275      2644      2372
 -1      6085    3    0    1
 -2      2562      2543      2571      2598
 -1      6086    3    0    1
 -2      1259      2634      1437      2730
 -1      6087    3    0    1
 -2      1460      2677      2430      2455
 -1      6088    3    0    1
 -2      1307      1331      2412      2445
 -1      6089    3    0    1
 -2      2210      2198      2557      2216
 -1      6090    3    0    1
 -2      1217      1218      2508      1282
 -1      6091    3    0    1
 -2      2320      1056      2342      2665
 -1      6092    3    0    1
 -2       958       955      2166      2537
 -1      6093    3    0    1
 -2      2141      2118      2169      2685
 -1      6094    3    0    1
 -2      1369      2649      1483      2692
 -1      6095    3    0    1
 -2      1266      2197      1287      2222
 -1      6096    3    0    1
 -2      2504      1273      2575      2643
 -1      6097    3    0    1
 -2       161       158       751      2199
 -1      6098    3    0    1
 -2       751       158       753      2199
 -1      6099    3    0    1
 -2      1294      1293      1368      2649
 -1      6100    3    0    1
 -2      2460      1864      2550      2567
 -1      6101    3    0    1
 -2      2079      2098      2476      2535
 -1      6102    3    0    1
 -2      2079      1854      2486      2535
 -1      6103    3    0    1
 -2      2486      1854      2521      2535
 -1      6104    3    0    1
 -2      2530      1248      1344      2238
 -1      6105    3    0    1
 -2      2187      1248      2530      2238
 -1      6106    3    0    1
 -2      2630      2586      2654      2673
 -1      6107    3    0    1
 -2      1313      1468      2691      2727
 -1      6108    3    0    1
 -2      1854      2079      2490      2535
 -1      6109    3    0    1
 -2      2098      1064      2476      2535
 -1      6110    3    0    1
 -2      1066      1064      2098      2535
 -1      6111    3    0    1
 -2      1066      2098      2486      2535
 -1      6112    3    0    1
 -2       358      1382      1482      2456
 -1      6113    3    0    1
 -2      1854      2491      2521      2535
 -1      6114    3    0    1
 -2      2698      2448      1448      1450
 -1      6115    3    0    1
 -2      1468      1501      1507      2441
 -1      6116    3    0    1
 -2      2544      2545      2643      2685
 -1      6117    3    0    1
 -2      2183      2536      1305      2232
 -1      6118    3    0    1
 -2      2183      2194      2536      2232
 -1      6119    3    0    1
 -2      1243      2485      1244      2551
 -1      6120    3    0    1
 -2      2463      2047      2509      2537
 -1      6121    3    0    1
 -2      2047      2463      2166      2537
 -1      6122    3    0    1
 -2      1460      2687      2420      2430
 -1      6123    3    0    1
 -2      2463      1710      2166      2537
 -1      6124    3    0    1
 -2      2567      2543      1376      2632
 -1      6125    3    0    1
 -2      1137      2468      2532      2595
 -1      6126    3    0    1
 -2       529       975      1682      2537
 -1      6127    3    0    1
 -2       516       529      1682      2537
 -1      6128    3    0    1
 -2       541       540       991      2236
 -1      6129    3    0    1
 -2       975       955      1225      2537
 -1      6130    3    0    1
 -2      1682      2047      2166      2537
 -1      6131    3    0    1
 -2      1225       955      1226      2537
 -1      6132    3    0    1
 -2       516       955       975      2537
 -1      6133    3    0    1
 -2       529       516       975      2537
 -1      6134    3    0    1
 -2      2673      2697      2402      2437
 -1      6135    3    0    1
 -2       955      1226      2537      2538
 -1      6136    3    0    1
 -2      2565       204      2649      2692
 -1      6137    3    0    1
 -2       958       955      2537      2538
 -1      6138    3    0    1
 -2      1266      2197      2222      2241
 -1      6139    3    0    1
 -2      2471       958      2166      2538
 -1      6140    3    0    1
 -2      2166       958      2537      2538
 -1      6141    3    0    1
 -2      2206      2547      2565      1382
 -1      6142    3    0    1
 -2      2566      2522      2609      2677
 -1      6143    3    0    1
 -2      2262      2611      2334      2335
 -1      6144    3    0    1
 -2      2071      2471      2166      2538
 -1      6145    3    0    1
 -2      2071      1710      2471      2538
 -1      6146    3    0    1
 -2      2554      2512      2579      2587
 -1      6147    3    0    1
 -2      1218      1323      2233      2260
 -1      6148    3    0    1
 -2      2182      2543      1324      2571
 -1      6149    3    0    1
 -2      1218      1283      1323      2260
 -1      6150    3    0    1
 -2      1710      2071      2166      2538
 -1      6151    3    0    1
 -2      2294      2603      1431      2666
 -1      6152    3    0    1
 -2      2528      2491      2656      2730
 -1      6153    3    0    1
 -2      1494       357      1514      2458
 -1      6154    3    0    1
 -2      2559      1329      1330      2584
 -1      6155    3    0    1
 -2      2118      2141      2169      2541
 -1      6156    3    0    1
 -2      2180      2193      2561      2245
 -1      6157    3    0    1
 -2      2591      1370      2339      2340
 -1      6158    3    0    1
 -2      1710      2474      2538      2607
 -1      6159    3    0    1
 -2      1228      2197      1361      2241
 -1      6160    3    0    1
 -2      2269      2313      2687      2420
 -1      6161    3    0    1
 -2      1276      2201      2204      2225
 -1      6162    3    0    1
 -2      2503      2558      2604      2614
 -1      6163    3    0    1
 -2      1419      2600      2636      2638
 -1      6164    3    0    1
 -2      2173      2491      2189      2203
 -1      6165    3    0    1
 -2      2580      1270      1358      1359
 -1      6166    3    0    1
 -2      2301      2304      2658      2719
 -1      6167    3    0    1
 -2       897      2582      2658      2719
 -1      6168    3    0    1
 -2      1243      1244      1307      2551
 -1      6169    3    0    1
 -2      1121      2485      1243      2570
 -1      6170    3    0    1
 -2      2294      2603      1408      1431
 -1      6171    3    0    1
 -2      2216      2557      2603      1388
 -1      6172    3    0    1
 -2      1303      1351      2640      2403
 -1      6173    3    0    1
 -2      2330      1440      2381      2386
 -1      6174    3    0    1
 -2      2062      1025      2505      2633
 -1      6175    3    0    1
 -2      1222      1301      2555      2246
 -1      6176    3    0    1
 -2      2552      2506      2574      2621
 -1      6177    3    0    1
 -2      1321      2601      1411      2655
 -1      6178    3    0    1
 -2      2536      2506      2578      2715
 -1      6179    3    0    1
 -2      1011      2478      2481      2613
 -1      6180    3    0    1
 -2      2149      2224      2726      2742
 -1      6181    3    0    1
 -2         1      1436      1456      2386
 -1      6182    3    0    1
 -2      1046      1890      2505      2596
 -1      6183    3    0    1
 -2      1325      1340      2235      2255
 -1      6184    3    0    1
 -2      1254      1330      1355      2368
 -1      6185    3    0    1
 -2      1443      1459      2411      2444
 -1      6186    3    0    1
 -2      2688      2620      2418      2446
 -1      6187    3    0    1
 -2      1397      2243      2339      2340
 -1      6188    3    0    1
 -2      2468      2504      2544      2545
 -1      6189    3    0    1
 -2      2141      2059      2192      2541
 -1      6190    3    0    1
 -2      2541      2468      2544      2545
 -1      6191    3    0    1
 -2      2137      1851      2532      2545
 -1      6192    3    0    1
 -2      2524      2633      2654      2726
 -1      6193    3    0    1
 -2      2056      1917      2169      2541
 -1      6194    3    0    1
 -2      1831      2101      2483      2383
 -1      6195    3    0    1
 -2      1477      1445      1506      2735
 -1      6196    3    0    1
 -2      1383      1384      2635      1422
 -1      6197    3    0    1
 -2      2249      2316      2367      2714
 -1      6198    3    0    1
 -2      2697       352      2402      2437
 -1      6199    3    0    1
 -2       549       550       552      2211
 -1      6200    3    0    1
 -2      2230      1265      1350      2248
 -1      6201    3    0    1
 -2       221       773      1075      2205
 -1      6202    3    0    1
 -2      2265      2285      2301      2658
 -1      6203    3    0    1
 -2       221       222       773      2205
 -1      6204    3    0    1
 -2      2649       204      1483      2692
 -1      6205    3    0    1
 -2      2532      1232      2533      2720
 -1      6206    3    0    1
 -2      1428      1438      2348      2354
 -1      6207    3    0    1
 -2      2660      1313      1467      2691
 -1      6208    3    0    1
 -2      2182      2493      1376      2181
 -1      6209    3    0    1
 -2      2575      2544      2625      2648
 -1      6210    3    0    1
 -2      2328      2627      2345      2443
 -1      6211    3    0    1
 -2      2190      2539      2287      2324
 -1      6212    3    0    1
 -2        11        20      1366      2610
 -1      6213    3    0    1
 -2      1864      2126      2493      2543
 -1      6214    3    0    1
 -2      1864      2460      2126      2543
 -1      6215    3    0    1
 -2      2215      1288      2265      2285
 -1      6216    3    0    1
 -2      2387      2440      2441      2738
 -1      6217    3    0    1
 -2      1450      1448      2423      2448
 -1      6218    3    0    1
 -2      1377      1442      2659      2711
 -1      6219    3    0    1
 -2        81       367      2588      2608
 -1      6220    3    0    1
 -2      2646       376      1452      2357
 -1      6221    3    0    1
 -2      1283      2598      1386      2365
 -1      6222    3    0    1
 -2      2196      2689      2469      2722
 -1      6223    3    0    1
 -2      2056      2468      2541      2545
 -1      6224    3    0    1
 -2      2107      2069      2486      2596
 -1      6225    3    0    1
 -2      2259      2229      1386      2657
 -1      6226    3    0    1
 -2      1369      1348      2593      2692
 -1      6227    3    0    1
 -2      2473      1851      2169      2545
 -1      6228    3    0    1
 -2      1306      2566      2617      2687
 -1      6229    3    0    1
 -2       778      1101      2269      2687
 -1      6230    3    0    1
 -2      1991      2137      2532      2545
 -1      6231    3    0    1
 -2      2468      1991      2532      2545
 -1      6232    3    0    1
 -2      2169      2056      2541      2545
 -1      6233    3    0    1
 -2      2056      1991      2468      2545
 -1      6234    3    0    1
 -2      1991      1851      2137      2545
 -1      6235    3    0    1
 -2      1851      2056      2169      2545
 -1      6236    3    0    1
 -2      1851      1991      2056      2545
 -1      6237    3    0    1
 -2      1365      1329      1395      2716
 -1      6238    3    0    1
 -2      1224      2628      2694      2702
 -1      6239    3    0    1
 -2      2299      2304      2305      2719
 -1      6240    3    0    1
 -2      2538      1275      1402      2712
 -1      6241    3    0    1
 -2      1225       975      2550      2696
 -1      6242    3    0    1
 -2      2581       213      2637      2715
 -1      6243    3    0    1
 -2      2541      2192      2244      2250
 -1      6244    3    0    1
 -2      1222      2555      2557      2246
 -1      6245    3    0    1
 -2      2503      2564      2604      2612
 -1      6246    3    0    1
 -2      1345      1299      2663      2382
 -1      6247    3    0    1
 -2      2601      1320      1410      2632
 -1      6248    3    0    1
 -2       377      2686      1477      2735
 -1      6249    3    0    1
 -2       386      2652      2373      2399
 -1      6250    3    0    1
 -2       435      1463      2706      2736
 -1      6251    3    0    1
 -2      2504      1273      1274      2575
 -1      6252    3    0    1
 -2      1497      1434      2412      2445
 -1      6253    3    0    1
 -2       167      1390      1394      2332
 -1      6254    3    0    1
 -2      2522      2609      2660      2701
 -1      6255    3    0    1
 -2      2517      2542      2585      2616
 -1      6256    3    0    1
 -2      2603      2234      2294      1408
 -1      6257    3    0    1
 -2      1256      1279      2585      2301
 -1      6258    3    0    1
 -2      2603      1349      2670      2557
 -1      6259    3    0    1
 -2      2231      2142      2615      2289
 -1      6260    3    0    1
 -2      1342      1341      2602      1447
 -1      6261    3    0    1
 -2        32        30       715      2300
 -1      6262    3    0    1
 -2      1890      2107      2505      2596
 -1      6263    3    0    1
 -2      2520      2551      2642      2644
 -1      6264    3    0    1
 -2      2492      2155      2500      2555
 -1      6265    3    0    1
 -2      1300      2212      2213      2267
 -1      6266    3    0    1
 -2       351      1410      1424      2391
 -1      6267    3    0    1
 -2      2142      2099      2507      2615
 -1      6268    3    0    1
 -2      1119      2209      2235      2720
 -1      6269    3    0    1
 -2      2555      2492      2613      2614
 -1      6270    3    0    1
 -2      1288        48      2215      1357
 -1      6271    3    0    1
 -2      2626      1400      2669      2705
 -1      6272    3    0    1
 -2      2154      2186      1256      2549
 -1      6273    3    0    1
 -2      2540      2501      2555      2579
 -1      6274    3    0    1
 -2      1255      1254      2559      1329
 -1      6275    3    0    1
 -2      2637       213      1451      2715
 -1      6276    3    0    1
 -2      2222      2284      2410      2739
 -1      6277    3    0    1
 -2      2585      1223      2285      2405
 -1      6278    3    0    1
 -2      1270      2278      2633      2679
 -1      6279    3    0    1
 -2      2580      2524      2586      2634
 -1      6280    3    0    1
 -2      1257      1263      2592      1416
 -1      6281    3    0    1
 -2      2261      1375      2643      1441
 -1      6282    3    0    1
 -2      2197       729       501       731
 -1      6283    3    0    1
 -2       500       504       505      2281
 -1      6284    3    0    1
 -2      1423      1465      2366      2394
 -1      6285    3    0    1
 -2      1321      1386      1411      2365
 -1      6286    3    0    1
 -2      1496      2713      2718      2421
 -1      6287    3    0    1
 -2      1231      2476      2552      2553
 -1      6288    3    0    1
 -2      1258      2543      2563      1324
 -1      6289    3    0    1
 -2       549      2211       753       550
 -1      6290    3    0    1
 -2      1359      2654      2396      1512
 -1      6291    3    0    1
 -2      2460       973      1217      2567
 -1      6292    3    0    1
 -2      1085      2476      1231      2553
 -1      6293    3    0    1
 -2      1220      2501      2540      2579
 -1      6294    3    0    1
 -2      2664       368      1459      2341
 -1      6295    3    0    1
 -2      2632      2363      2696      1282
 -1      6296    3    0    1
 -2      2481      2503      2564      2614
 -1      6297    3    0    1
 -2      2506      2490      2536      2621
 -1      6298    3    0    1
 -2      2070      2472      2500      2555
 -1      6299    3    0    1
 -2      2608       367      1415      2308
 -1      6300    3    0    1
 -2      1225       975      2537      2550
 -1      6301    3    0    1
 -2      1358      2580      1359      2630
 -1      6302    3    0    1
 -2      2337      1395      2703      2419
 -1      6303    3    0    1
 -2      1864      2047      2460      2550
 -1      6304    3    0    1
 -2      2559      2560      2584      2631
 -1      6305    3    0    1
 -2      2556      2569      2588      2597
 -1      6306    3    0    1
 -2      2549      1328      1367      2599
 -1      6307    3    0    1
 -2        81      1346      2258      1416
 -1      6308    3    0    1
 -2      1682      2047      2537      2550
 -1      6309    3    0    1
 -2      2047      1682      2460      2550
 -1      6310    3    0    1
 -2       975      1682      2537      2550
 -1      6311    3    0    1
 -2      1447       376      1452      2680
 -1      6312    3    0    1
 -2       975       973      1682      2550
 -1      6313    3    0    1
 -2      1682       973      2460      2550
 -1      6314    3    0    1
 -2      2214      1286      2263      2276
 -1      6315    3    0    1
 -2      1365        11      1395      1397
 -1      6316    3    0    1
 -2       213      2291      2637      1451
 -1      6317    3    0    1
 -2      1420      1424      2363      2391
 -1      6318    3    0    1
 -2      1348      2593      2692      2717
 -1      6319    3    0    1
 -2      2051      2072      2539      2607
 -1      6320    3    0    1
 -2      2106      2532      2533      2570
 -1      6321    3    0    1
 -2      2619      2551      2644      2706
 -1      6322    3    0    1
 -2      2463      1710      2538      2607
 -1      6323    3    0    1
 -2      1245      1303      2582      2719
 -1      6324    3    0    1
 -2      2474      2592      2594      2647
 -1      6325    3    0    1
 -2      2484      2488      1306      2208
 -1      6326    3    0    1
 -2      2431      2723      1302      2451
 -1      6327    3    0    1
 -2      2618      1308      1469      2390
 -1      6328    3    0    1
 -2      2611      2594      1453      2661
 -1      6329    3    0    1
 -2      2501      1241      2512      2579
 -1      6330    3    0    1
 -2      1331      1461      1463      2706
 -1      6331    3    0    1
 -2      2153      2152      2484      2208
 -1      6332    3    0    1
 -2      2153      2484      1306      2208
 -1      6333    3    0    1
 -2       778       248      2207      1326
 -1      6334    3    0    1
 -2      2677      2620      2688      2733
 -1      6335    3    0    1
 -2       379      1417      1446      2403
 -1      6336    3    0    1
 -2      1825      2067      2476      2553
 -1      6337    3    0    1
 -2      2476      1085      2519      2553
 -1      6338    3    0    1
 -2      1825      2476      2519      2553
 -1      6339    3    0    1
 -2      1287      1322      2222      2281
 -1      6340    3    0    1
 -2       500       501       504      2281
 -1      6341    3    0    1
 -2       504       937       505      2281
 -1      6342    3    0    1
 -2       937       504       934      2281
 -1      6343    3    0    1
 -2      2067      2090      2470      2553
 -1      6344    3    0    1
 -2       600      1083      2514      2553
 -1      6345    3    0    1
 -2      1083       600      1085      2553
 -1      6346    3    0    1
 -2      2470      2090      2514      2553
 -1      6347    3    0    1
 -2      1083      2470      2514      2553
 -1      6348    3    0    1
 -2      2476      2067      2490      2553
 -1      6349    3    0    1
 -2      2476      2490      2506      2553
 -1      6350    3    0    1
 -2      1825      2514      2090      2553
 -1      6351    3    0    1
 -2      1825       601      2514      2519
 -1      6352    3    0    1
 -2       601      2514      2519      2553
 -1      6353    3    0    1
 -2      1085       601      2519      2553
 -1      6354    3    0    1
 -2       601       600      2514      2553
 -1      6355    3    0    1
 -2       600       601      1085      2553
 -1      6356    3    0    1
 -2      2319      1232      2720      2409
 -1      6357    3    0    1
 -2      1464      2319      2380      2409
 -1      6358    3    0    1
 -2      2639      1402      2413      2427
 -1      6359    3    0    1
 -2      2067      1825      2090      2553
 -1      6360    3    0    1
 -2      2202       945      2226      2240
 -1      6361    3    0    1
 -2      1372      1248      2642      2644
 -1      6362    3    0    1
 -2      1777      2070      2155      2555
 -1      6363    3    0    1
 -2       221      1268      2205      2247
 -1      6364    3    0    1
 -2      1445      2674      1506      2735
 -1      6365    3    0    1
 -2      2530      2178      2297      2740
 -1      6366    3    0    1
 -2      2602      2616      2646      2680
 -1      6367    3    0    1
 -2      2471       958      2538      2606
 -1      6368    3    0    1
 -2      2687      2272      2430      2447
 -1      6369    3    0    1
 -2      1337      2595      2735      2744
 -1      6370    3    0    1
 -2       352      1425      1426      2681
 -1      6371    3    0    1
 -2      2196      2469      2721      2722
 -1      6372    3    0    1
 -2      2211       549       753      2217
 -1      6373    3    0    1
 -2      2562      2571      2601      2655
 -1      6374    3    0    1
 -2      1365        11      1366      2610
 -1      6375    3    0    1
 -2      1437      2634      1480      2730
 -1      6376    3    0    1
 -2      2460      2508      2543      2567
 -1      6377    3    0    1
 -2      1011       552      1009      2211
 -1      6378    3    0    1
 -2       552      1011       553      2211
 -1      6379    3    0    1
 -2       553       549       552      2211
 -1      6380    3    0    1
 -2      1345      2628      1450      2423
 -1      6381    3    0    1
 -2      1265       158      2199      2211
 -1      6382    3    0    1
 -2      2508      1217      1282      2567
 -1      6383    3    0    1
 -2      2460      1217      2508      2567
 -1      6384    3    0    1
 -2      1255      1329      2591      2340
 -1      6385    3    0    1
 -2      2185      2611      1453      2334
 -1      6386    3    0    1
 -2      1458      2284      2385      2410
 -1      6387    3    0    1
 -2      2056      1917      2541      2689
 -1      6388    3    0    1
 -2      1315      1300      2213      2279
 -1      6389    3    0    1
 -2      2501      2500      2555      2561
 -1      6390    3    0    1
 -2      2582      1256      2585      2719
 -1      6391    3    0    1
 -2      2517      2576      2615      2616
 -1      6392    3    0    1
 -2      2347      1408      2366      2394
 -1      6393    3    0    1
 -2       379      1389      1417      2403
 -1      6394    3    0    1
 -2      1446      1351      2376      2403
 -1      6395    3    0    1
 -2      1066      1250      2535      2568
 -1      6396    3    0    1
 -2      2521      2486      2535      2568
 -1      6397    3    0    1
 -2      1290      1391      1404      2326
 -1      6398    3    0    1
 -2      2486      1249      2568      2596
 -1      6399    3    0    1
 -2      1011      2481      2564      2613
 -1      6400    3    0    1
 -2      2554      2512      2587      2672
 -1      6401    3    0    1
 -2      1316      2218      2605      1394
 -1      6402    3    0    1
 -2       456       860       862      2237
 -1      6403    3    0    1
 -2      2201       706       450      2237
 -1      6404    3    0    1
 -2       449       456       457      2237
 -1      6405    3    0    1
 -2       457       450       449      2237
 -1      6406    3    0    1
 -2       364      1404      2356      2683
 -1      6407    3    0    1
 -2      1346        81      1347      2588
 -1      6408    3    0    1
 -2      2689      2196      2469      2192
 -1      6409    3    0    1
 -2       879       881      2663      2702
 -1      6410    3    0    1
 -2       745       140       747      2214
 -1      6411    3    0    1
 -2      2285      1288      2301      2325
 -1      6412    3    0    1
 -2       142       140       745      2214
 -1      6413    3    0    1
 -2      1334         2      2225      2237
 -1      6414    3    0    1
 -2      1271      1317      2564      2612
 -1      6415    3    0    1
 -2      2460      2481       991      2094
 -1      6416    3    0    1
 -2      2460       991      2563       993
 -1      6417    3    0    1
 -2      2481      2460       991      2563
 -1      6418    3    0    1
 -2      1777      2460      2481      2563
 -1      6419    3    0    1
 -2      1011       553      2211      2217
 -1      6420    3    0    1
 -2      2508      2460      2543      2563
 -1      6421    3    0    1
 -2      1856      1777      2481      2613
 -1      6422    3    0    1
 -2      1455       368      1493      2411
 -1      6423    3    0    1
 -2      1494      1514      2453      2458
 -1      6424    3    0    1
 -2      2479      2159      1328      2262
 -1      6425    3    0    1
 -2      2460      1777      2126      2563
 -1      6426    3    0    1
 -2      2070      1856      2472      2613
 -1      6427    3    0    1
 -2      2126      2492      2543      2563
 -1      6428    3    0    1
 -2      2460      2126      2543      2563
 -1      6429    3    0    1
 -2       753      2199      2211      2217
 -1      6430    3    0    1
 -2      2501      2548      2605      2662
 -1      6431    3    0    1
 -2      2461      2517      2518      2585
 -1      6432    3    0    1
 -2      2461      2518      2582      2585
 -1      6433    3    0    1
 -2      2507      2099      2268      2615
 -1      6434    3    0    1
 -2      1223      2517      1291      2585
 -1      6435    3    0    1
 -2       715      2288      2300      2302
 -1      6436    3    0    1
 -2      2518      1223      2582      2585
 -1      6437    3    0    1
 -2      2629      2646      1452      2357
 -1      6438    3    0    1
 -2      1289      2512      2554      2662
 -1      6439    3    0    1
 -2      1103      2470      1236      2566
 -1      6440    3    0    1
 -2      1254      1355      2350      2368
 -1      6441    3    0    1
 -2      1348      1297      2593      2717
 -1      6442    3    0    1
 -2      2488      1306      2208      2620
 -1      6443    3    0    1
 -2      2469      2523      2721      2722
 -1      6444    3    0    1
 -2      2551      2520      2617      2618
 -1      6445    3    0    1
 -2      1369      2593      2649      2692
 -1      6446    3    0    1
 -2      1103      1758      2470      2566
 -1      6447    3    0    1
 -2      2521      2491      2528      2717
 -1      6448    3    0    1
 -2      2680      1341      2405      2439
 -1      6449    3    0    1
 -2      1366      1330      2631      1509
 -1      6450    3    0    1
 -2      1387      2282      2286      2347
 -1      6451    3    0    1
 -2      1758      2053      2470      2566
 -1      6452    3    0    1
 -2      2488      2484      1306      2566
 -1      6453    3    0    1
 -2      2522      2488      1306      2566
 -1      6454    3    0    1
 -2      1758      1103      2121      2566
 -1      6455    3    0    1
 -2      1103      1101      2121      2566
 -1      6456    3    0    1
 -2      2053      2484      2488      2566
 -1      6457    3    0    1
 -2      2053      2488      2522      2566
 -1      6458    3    0    1
 -2      2053      1758      2122      2566
 -1      6459    3    0    1
 -2      2581      1413      1414      1473
 -1      6460    3    0    1
 -2      2543      2563      1324      2598
 -1      6461    3    0    1
 -2      2677      1503      2620      2733
 -1      6462    3    0    1
 -2      1267      2272      1502      2420
 -1      6463    3    0    1
 -2      1267      2269      2272      2420
 -1      6464    3    0    1
 -2      1250      1249      1293      2568
 -1      6465    3    0    1
 -2      1066      1249      1250      2568
 -1      6466    3    0    1
 -2      1250      1293      1294      2568
 -1      6467    3    0    1
 -2      1066      1044      1249      2568
 -1      6468    3    0    1
 -2       248      1310      2207      1326
 -1      6469    3    0    1
 -2      1252      2202      2226      2239
 -1      6470    3    0    1
 -2      2515      1295      2653      2695
 -1      6471    3    0    1
 -2      2072      2463      2539      2607
 -1      6472    3    0    1
 -2      2538      2474      2597      2607
 -1      6473    3    0    1
 -2      2406      1490      2407      2438
 -1      6474    3    0    1
 -2      2482      2154      2549      1328
 -1      6475    3    0    1
 -2      2252      2352      2676      2424
 -1      6476    3    0    1
 -2       576       577       569      2266
 -1      6477    3    0    1
 -2      2512      1290      2554      2579
 -1      6478    3    0    1
 -2      2479      2159      2482      1328
 -1      6479    3    0    1
 -2      2479      2482      2546      1328
 -1      6480    3    0    1
 -2       378       377      2686      2428
 -1      6481    3    0    1
 -2      1317      1318      2564      2604
 -1      6482    3    0    1
 -2       576      1044      1890      2596
 -1      6483    3    0    1
 -2      2619      1461      2706      2736
 -1      6484    3    0    1
 -2       725       905      2283      2295
 -1      6485    3    0    1
 -2      2263      2214      2276      2709
 -1      6486    3    0    1
 -2      1831       915      2515      2623
 -1      6487    3    0    1
 -2      2197      1287      2222      2281
 -1      6488    3    0    1
 -2      2544      2280      1456      2250
 -1      6489    3    0    1
 -2      1247      2267      2679      2392
 -1      6490    3    0    1
 -2      2631      2560      2703      2721
 -1      6491    3    0    1
 -2      1442      1443      2659      1454
 -1      6492    3    0    1
 -2      1218       993      2563      2709
 -1      6493    3    0    1
 -2      2543      2567      1376      2732
 -1      6494    3    0    1
 -2      1329      2591      1370      1395
 -1      6495    3    0    1
 -2      2412      1434      2414      2445
 -1      6496    3    0    1
 -2      2551      1308      1331      2619
 -1      6497    3    0    1
 -2      2553      1237      2609      2701
 -1      6498    3    0    1
 -2      2528      2200      2547      2717
 -1      6499    3    0    1
 -2      2200      2528      2378      2717
 -1      6500    3    0    1
 -2      1395      1397      2339      2340
 -1      6501    3    0    1
 -2      2573      2539      2712      2713
 -1      6502    3    0    1
 -2      2324      2539      2359      2713
 -1      6503    3    0    1
 -2      2473      2106      2533      2570
 -1      6504    3    0    1
 -2      1121      1119      1934      2570
 -1      6505    3    0    1
 -2      1934      1119      2532      2570
 -1      6506    3    0    1
 -2      1121      1934      2485      2570
 -1      6507    3    0    1
 -2      2106      1934      2532      2570
 -1      6508    3    0    1
 -2      1934      2106      2485      2570
 -1      6509    3    0    1
 -2      2153      2484      2275      2651
 -1      6510    3    0    1
 -2      1273      1274      2575      1373
 -1      6511    3    0    1
 -2      1218      1283      2260      2598
 -1      6512    3    0    1
 -2      2106      2473      2484      2570
 -1      6513    3    0    1
 -2      2516      2577      2589      2599
 -1      6514    3    0    1
 -2      2516      2549      2577      2599
 -1      6515    3    0    1
 -2      2577      1304      2589      2599
 -1      6516    3    0    1
 -2      1467      1500      1503      2733
 -1      6517    3    0    1
 -2      2255      1340      2319      2377
 -1      6518    3    0    1
 -2      2224      1247      2245      2726
 -1      6519    3    0    1
 -2      2467      2057      2474      2594
 -1      6520    3    0    1
 -2      1229      1257      2592      2594
 -1      6521    3    0    1
 -2      2282      2220      2286      2693
 -1      6522    3    0    1
 -2      2541      2544      2261      2685
 -1      6523    3    0    1
 -2      2323      1396      1499      2390
 -1      6524    3    0    1
 -2      2118      2141      2530      2685
 -1      6525    3    0    1
 -2      2653      2622      2659      2661
 -1      6526    3    0    1
 -2       529       525       528      2221
 -1      6527    3    0    1
 -2       528       975       529      2221
 -1      6528    3    0    1
 -2       975       528       973      2221
 -1      6529    3    0    1
 -2       525       526       528      2221
 -1      6530    3    0    1
 -2      1348      1369      1483      2692
 -1      6531    3    0    1
 -2       905        63      2283      2346
 -1      6532    3    0    1
 -2      2324      2712      2713      2417
 -1      6533    3    0    1
 -2      2631      1409      2721      1509
 -1      6534    3    0    1
 -2       741       525       739      2221
 -1      6535    3    0    1
 -2      2507      2469      2694      2721
 -1      6536    3    0    1
 -2       525       741       526      2221
 -1      6537    3    0    1
 -2      1294      1250      2593      2737
 -1      6538    3    0    1
 -2      2381      2330      2386      2707
 -1      6539    3    0    1
 -2      2626      2573      2639      2705
 -1      6540    3    0    1
 -2      1378      1442      1443      2659
 -1      6541    3    0    1
 -2      1245      2483      2582      2589
 -1      6542    3    0    1
 -2      1221      2220      1387      2282
 -1      6543    3    0    1
 -2      2482      2546      1328      2695
 -1      6544    3    0    1
 -2       975       973      2550      2696
 -1      6545    3    0    1
 -2       601       595       594      2247
 -1      6546    3    0    1
 -2       594       773      2227      2247
 -1      6547    3    0    1
 -2      1075       594       595      2247
 -1      6548    3    0    1
 -2      2223      2555      2193      2587
 -1      6549    3    0    1
 -2      2148      1672      2507      2338
 -1      6550    3    0    1
 -2      2500      2510      2245      2726
 -1      6551    3    0    1
 -2      1233      2532      2533      2595
 -1      6552    3    0    1
 -2      1349      1318      1408      2670
 -1      6553    3    0    1
 -2      2533      1233      2595      2624
 -1      6554    3    0    1
 -2      1139      1137      2532      2595
 -1      6555    3    0    1
 -2      2551      2520      2618      2651
 -1      6556    3    0    1
 -2      1301      2555      2223      2587
 -1      6557    3    0    1
 -2      2185      2479      2594      2611
 -1      6558    3    0    1
 -2      2497      1228      1263      2592
 -1      6559    3    0    1
 -2      2320      1056      2274      2342
 -1      6560    3    0    1
 -2      1433      2369      2400      2432
 -1      6561    3    0    1
 -2      2561      1316      2218      2605
 -1      6562    3    0    1
 -2      1321      1411      1472      2365
 -1      6563    3    0    1
 -2      1276         3      2201      2225
 -1      6564    3    0    1
 -2      2501      2548      2561      2605
 -1      6565    3    0    1
 -2         2       852         3      2225
 -1      6566    3    0    1
 -2       852         2       706      2225
 -1      6567    3    0    1
 -2         3       852      2201      2225
 -1      6568    3    0    1
 -2       945       948      2202      2226
 -1      6569    3    0    1
 -2      2489       860      1255      2591
 -1      6570    3    0    1
 -2      1439      2586      2726      2742
 -1      6571    3    0    1
 -2      2571      2182      2229      1386
 -1      6572    3    0    1
 -2        99      1252      2202      2226
 -1      6573    3    0    1
 -2      2188      2488      2208      2620
 -1      6574    3    0    1
 -2       945        98       948      2226
 -1      6575    3    0    1
 -2        98        99       948      2226
 -1      6576    3    0    1
 -2       948        99      2202      2226
 -1      6577    3    0    1
 -2      2278      1314      1479      2392
 -1      6578    3    0    1
 -2      2662      1394      2672      2683
 -1      6579    3    0    1
 -2      1388      2603      2666      2667
 -1      6580    3    0    1
 -2      2660      2688      2701      2727
 -1      6581    3    0    1
 -2      1280      2345      2443      2453
 -1      6582    3    0    1
 -2      2573      2539      2713      2729
 -1      6583    3    0    1
 -2      2081      2482      2507      2576
 -1      6584    3    0    1
 -2      1243      2485      2551      2642
 -1      6585    3    0    1
 -2      2154      2058      2482      2576
 -1      6586    3    0    1
 -2      2482      2058      2507      2576
 -1      6587    3    0    1
 -2      1346        81      2588      1416
 -1      6588    3    0    1
 -2      1460      2566      2687      2677
 -1      6589    3    0    1
 -2      1426       361      2681      1512
 -1      6590    3    0    1
 -2      1672      2081      2507      2576
 -1      6591    3    0    1
 -2      2461      1672      2507      2576
 -1      6592    3    0    1
 -2      1917      2489      2523      2689
 -1      6593    3    0    1
 -2      1345      2615      2289      1450
 -1      6594    3    0    1
 -2      1372      2187      2644      1463
 -1      6595    3    0    1
 -2      1304      1351      1352      2583
 -1      6596    3    0    1
 -2      2674      2645      2684      2686
 -1      6597    3    0    1
 -2      1270      1359      2654      2395
 -1      6598    3    0    1
 -2      2620      2566      1460      2677
 -1      6599    3    0    1
 -2      1270      1269      2580      1358
 -1      6600    3    0    1
 -2       601       594      2227      2247
 -1      6601    3    0    1
 -2      1230      1260      2552      2590
 -1      6602    3    0    1
 -2       713       715      2288      2300
 -1      6603    3    0    1
 -2      1672      2461      2101      2576
 -1      6604    3    0    1
 -2      2574      2506      2590      2715
 -1      6605    3    0    1
 -2      2197       729      1287      2281
 -1      6606    3    0    1
 -2      2506      2552      2574      2590
 -1      6607    3    0    1
 -2      2081      1672      2101      2576
 -1      6608    3    0    1
 -2      1448       434      2423      2448
 -1      6609    3    0    1
 -2      2563      1258      1324      2233
 -1      6610    3    0    1
 -2      2265      1380      2299      2304
 -1      6611    3    0    1
 -2      1301      2540      2579      2690
 -1      6612    3    0    1
 -2       993       991      2563      2709
 -1      6613    3    0    1
 -2      2581      1413      1473      2715
 -1      6614    3    0    1
 -2      1248      2473      2530      2684
 -1      6615    3    0    1
 -2      2225      1334      2243      2339
 -1      6616    3    0    1
 -2       357      1494      1495      2718
 -1      6617    3    0    1
 -2      2529      2568      2593      2649
 -1      6618    3    0    1
 -2      2590      2536      1407      2715
 -1      6619    3    0    1
 -2      1281      1400      2639      1498
 -1      6620    3    0    1
 -2      2547      2206      2565      1348
 -1      6621    3    0    1
 -2      2221       741      2254       739
 -1      6622    3    0    1
 -2      2522      2620      2660      2677
 -1      6623    3    0    1
 -2      2547      2200      2206      1348
 -1      6624    3    0    1
 -2      2515      1831      2383      2158
 -1      6625    3    0    1
 -2      1408      1384      1431      2670
 -1      6626    3    0    1
 -2      1328      2611      1457      2695
 -1      6627    3    0    1
 -2      1319      2557      1388      2667
 -1      6628    3    0    1
 -2      2142      2507      2231      2615
 -1      6629    3    0    1
 -2      1320      2632      2363      2391
 -1      6630    3    0    1
 -2      2385      1458      2410      2411
 -1      6631    3    0    1
 -2      2482      1328      2599      2695
 -1      6632    3    0    1
 -2      2664       368      2341      2668
 -1      6633    3    0    1
 -2      1408      1384      2366      2394
 -1      6634    3    0    1
 -2      2474      2531      2607      2678
 -1      6635    3    0    1
 -2      2481      2564      2613      2614
 -1      6636    3    0    1
 -2      2492      2481      2613      2614
 -1      6637    3    0    1
 -2      1139      1137      2595      2650
 -1      6638    3    0    1
 -2      1444      1336      2409      2426
 -1      6639    3    0    1
 -2      2274      1327      2320      2321
 -1      6640    3    0    1
 -2      1501       369      1507      2441
 -1      6641    3    0    1
 -2      1336      1344      2684      2720
 -1      6642    3    0    1
 -2      1283      2260      2598      2365
 -1      6643    3    0    1
 -2      2154      2058      2576      2231
 -1      6644    3    0    1
 -2      1256      2154      2576      2231
 -1      6645    3    0    1
 -2      2501      2561      2587      2605
 -1      6646    3    0    1
 -2      2473      2169      2530      2685
 -1      6647    3    0    1
 -2      1261      2574      1413      1414
 -1      6648    3    0    1
 -2      1223       900      2518      2582
 -1      6649    3    0    1
 -2      2557      2210      2216      2234
 -1      6650    3    0    1
 -2      1256      2482      2582      2576
 -1      6651    3    0    1
 -2      2101      2483      2516      2582
 -1      6652    3    0    1
 -2      2461      2101      2576      2582
 -1      6653    3    0    1
 -2      1399      1280      1496      2453
 -1      6654    3    0    1
 -2      2497      2531      2556      2597
 -1      6655    3    0    1
 -2      2101       897      2483      2582
 -1      6656    3    0    1
 -2      2601      2571      2632      2657
 -1      6657    3    0    1
 -2      2482      2516      2549      2582
 -1      6658    3    0    1
 -2       900      2065      2518      2582
 -1      6659    3    0    1
 -2      2065      2461      2518      2582
 -1      6660    3    0    1
 -2      2461      2065      2101      2582
 -1      6661    3    0    1
 -2       900       897      2065      2582
 -1      6662    3    0    1
 -2      2065       897      2101      2582
 -1      6663    3    0    1
 -2      2210      2557      1349      2234
 -1      6664    3    0    1
 -2      2081      2482      2576      2582
 -1      6665    3    0    1
 -2      2101      2081      2576      2582
 -1      6666    3    0    1
 -2      2081      2101      2516      2582
 -1      6667    3    0    1
 -2      2482      2081      2516      2582
 -1      6668    3    0    1
 -2       354      2581      2637      2699
 -1      6669    3    0    1
 -2      2186      1256      2549      1354
 -1      6670    3    0    1
 -2      1418        70      1419      2636
 -1      6671    3    0    1
 -2      1304      1303      1351      2583
 -1      6672    3    0    1
 -2      2220      1387      2282      2286
 -1      6673    3    0    1
 -2      1256      1279      2576      2585
 -1      6674    3    0    1
 -2      2386      1456      2707      2415
 -1      6675    3    0    1
 -2      2235      2255      2319      2720
 -1      6676    3    0    1
 -2      2660      2688      2691      2733
 -1      6677    3    0    1
 -2      2535      2521      2593      2717
 -1      6678    3    0    1
 -2      1256      2576      2582      2585
 -1      6679    3    0    1
 -2      2209       783      1325      1111
 -1      6680    3    0    1
 -2      2560      2523      2716      2722
 -1      6681    3    0    1
 -2       624      1119      2209      2235
 -1      6682    3    0    1
 -2       617       624      2209      2235
 -1      6683    3    0    1
 -2       258      1325      1340      2235
 -1      6684    3    0    1
 -2       258       783      1325      2235
 -1      6685    3    0    1
 -2       207       768      2274      2320
 -1      6686    3    0    1
 -2        81      1346      1361      2258
 -1      6687    3    0    1
 -2       783      2209      1325      2235
 -1      6688    3    0    1
 -2       897      1245      2582      2719
 -1      6689    3    0    1
 -2      2520      2485      2570      2642
 -1      6690    3    0    1
 -2       364       167      2554      2683
 -1      6691    3    0    1
 -2       991       993       541      2236
 -1      6692    3    0    1
 -2       538       537       747      2236
 -1      6693    3    0    1
 -2      1286       140      2214      2236
 -1      6694    3    0    1
 -2       537       745       747      2236
 -1      6695    3    0    1
 -2      2664        69      2341      1470
 -1      6696    3    0    1
 -2      1230      1260      2590      2741
 -1      6697    3    0    1
 -2       450      2237       706       449
 -1      6698    3    0    1
 -2       450       457      2201      2237
 -1      6699    3    0    1
 -2       457       862      2201      2237
 -1      6700    3    0    1
 -2      1338      1420      2360      2361
 -1      6701    3    0    1
 -2      2216      2557      2234      2603
 -1      6702    3    0    1
 -2      2616      2289      2629      1452
 -1      6703    3    0    1
 -2       376       434      2602      1448
 -1      6704    3    0    1
 -2      2700      2688      2418      2454
 -1      6705    3    0    1
 -2      2523      2560      2631      2721
 -1      6706    3    0    1
 -2      1320      1379      1410      2632
 -1      6707    3    0    1
 -2      2213      1300      2267      2279
 -1      6708    3    0    1
 -2      2646      2616      1452      2680
 -1      6709    3    0    1
 -2      1320      1321      2601      1410
 -1      6710    3    0    1
 -2      2505      1270      2580      2633
 -1      6711    3    0    1
 -2      1282      2508      2567      2632
 -1      6712    3    0    1
 -2      2542      2585      2616      2680
 -1      6713    3    0    1
 -2      1387      2286      1465      2394
 -1      6714    3    0    1
 -2      2555      2501      2561      2587
 -1      6715    3    0    1
 -2      2630      1359      1425      1426
 -1      6716    3    0    1
 -2      1235      2534      2648      2707
 -1      6717    3    0    1
 -2      2501      2555      2579      2587
 -1      6718    3    0    1
 -2      2512      2501      2579      2587
 -1      6719    3    0    1
 -2      1347       367      1405      1415
 -1      6720    3    0    1
 -2       213       354      2581      2637
 -1      6721    3    0    1
 -2       879       881      2302      2663
 -1      6722    3    0    1
 -2      2489      2056      2534      2689
 -1      6723    3    0    1
 -2      1254      2288      2663      2350
 -1      6724    3    0    1
 -2      2516      2577      2582      2589
 -1      6725    3    0    1
 -2      1304      1303      2577      2589
 -1      6726    3    0    1
 -2      2278      1270      2392      2395
 -1      6727    3    0    1
 -2      2463      2072      2539      2732
 -1      6728    3    0    1
 -2       918      1245      1246      2589
 -1      6729    3    0    1
 -2      1246      1245      1303      2589
 -1      6730    3    0    1
 -2      1246      1303      1304      2589
 -1      6731    3    0    1
 -2      1672      2082      2461      2338
 -1      6732    3    0    1
 -2      2541      2169      2545      2685
 -1      6733    3    0    1
 -2      1854      2133      2491      2734
 -1      6734    3    0    1
 -2      2473      2533      2572      2684
 -1      6735    3    0    1
 -2      2688      2700      1507      2727
 -1      6736    3    0    1
 -2      2370      2665      2737      2741
 -1      6737    3    0    1
 -2      1412      1261      2714      2408
 -1      6738    3    0    1
 -2      2490      2506      2536      2590
 -1      6739    3    0    1
 -2      1064      2476      2535      2590
 -1      6740    3    0    1
 -2      2476      1064      1230      2590
 -1      6741    3    0    1
 -2      2079      2490      2535      2590
 -1      6742    3    0    1
 -2      2476      2079      2535      2590
 -1      6743    3    0    1
 -2      2079      2476      2490      2590
 -1      6744    3    0    1
 -2      2288      2300      2663      2350
 -1      6745    3    0    1
 -2      2533      1336      2624      2684
 -1      6746    3    0    1
 -2      2572      2624      2645      2684
 -1      6747    3    0    1
 -2      2050      2051      2467      2607
 -1      6748    3    0    1
 -2      2051      2050      2072      2607
 -1      6749    3    0    1
 -2       918      1831      2483      2623
 -1      6750    3    0    1
 -2      1890      1044      2069      2596
 -1      6751    3    0    1
 -2       589       582       588      2665
 -1      6752    3    0    1
 -2      2523      2489      2559      2591
 -1      6753    3    0    1
 -2      2673      2388      2435      2742
 -1      6754    3    0    1
 -2      1355      1330      1471      2368
 -1      6755    3    0    1
 -2      2202       945       511       948
 -1      6756    3    0    1
 -2       510       511       516      2240
 -1      6757    3    0    1
 -2       516       517       510      2240
 -1      6758    3    0    1
 -2       516       958       517      2240
 -1      6759    3    0    1
 -2      2275      2644      2372      2724
 -1      6760    3    0    1
 -2        98      1339      2226      2240
 -1      6761    3    0    1
 -2       511       510       945      2240
 -1      6762    3    0    1
 -2       955       516      2202      2240
 -1      6763    3    0    1
 -2       945      2202       511      2240
 -1      6764    3    0    1
 -2       516       511      2202      2240
 -1      6765    3    0    1
 -2      2592      1229      2594      2647
 -1      6766    3    0    1
 -2      1344      1248      2684      2720
 -1      6767    3    0    1
 -2       537       745      2236      2253
 -1      6768    3    0    1
 -2       993       541      2236      2253
 -1      6769    3    0    1
 -2      1009      1220      2540      2690
 -1      6770    3    0    1
 -2      2619      2651      2708      2724
 -1      6771    3    0    1
 -2      1056      2320      2274       768
 -1      6772    3    0    1
 -2      1330      2584      1365      1366
 -1      6773    3    0    1
 -2      2283      2295      2671      2745
 -1      6774    3    0    1
 -2      2508      1282      2562      2632
 -1      6775    3    0    1
 -2      2561      2193      2218      2245
 -1      6776    3    0    1
 -2       109      2718      2417      2421
 -1      6777    3    0    1
 -2      1354      2305      2719      2403
 -1      6778    3    0    1
 -2      2620      2688      1503      2389
 -1      6779    3    0    1
 -2       361      2697      1512      2437
 -1      6780    3    0    1
 -2      2510      2149      2180      2245
 -1      6781    3    0    1
 -2      2500      2180      2561      2245
 -1      6782    3    0    1
 -2      1316      2561      2218      2245
 -1      6783    3    0    1
 -2      1316      1247      2561      2245
 -1      6784    3    0    1
 -2      2083      2510      2180      2245
 -1      6785    3    0    1
 -2      2500      2083      2180      2245
 -1      6786    3    0    1
 -2      2205      1277      2228      2440
 -1      6787    3    0    1
 -2      2497      1263      2556      2592
 -1      6788    3    0    1
 -2      2531      2556      2569      2592
 -1      6789    3    0    1
 -2      1358      2634      1437      2401
 -1      6790    3    0    1
 -2      2556      1263      1346      2592
 -1      6791    3    0    1
 -2      2569      2556      2588      2592
 -1      6792    3    0    1
 -2      2556      1346      2588      2592
 -1      6793    3    0    1
 -2      2180      2500      2561      2246
 -1      6794    3    0    1
 -2      2555      2193      2561      2246
 -1      6795    3    0    1
 -2      2500      2555      2561      2246
 -1      6796    3    0    1
 -2      2492      2191      2557      2246
 -1      6797    3    0    1
 -2      2555      2492      2557      2246
 -1      6798    3    0    1
 -2      2492      2144      2191      2246
 -1      6799    3    0    1
 -2      2144      2492      2500      2246
 -1      6800    3    0    1
 -2      2144      2500      2180      2246
 -1      6801    3    0    1
 -2      2500      2144      2180      2155
 -1      6802    3    0    1
 -2       594      1075       773      2247
 -1      6803    3    0    1
 -2      2266       184      2273      2311
 -1      6804    3    0    1
 -2      1386       134      1411      2365
 -1      6805    3    0    1
 -2      1336      1344      2409      2426
 -1      6806    3    0    1
 -2      2695      1377      2711      2745
 -1      6807    3    0    1
 -2      1027      1025      2633      2679
 -1      6808    3    0    1
 -2      1223      2585      2285      2658
 -1      6809    3    0    1
 -2      2548      1316      2605      2662
 -1      6810    3    0    1
 -2      2507      2231      2615      2616
 -1      6811    3    0    1
 -2      1247      2548      2561      2726
 -1      6812    3    0    1
 -2      2561      2193      2587      2672
 -1      6813    3    0    1
 -2      1229      2594      2647      2661
 -1      6814    3    0    1
 -2      1494      2669      2718      2729
 -1      6815    3    0    1
 -2      1250      2535      2568      2593
 -1      6816    3    0    1
 -2      1294      1250      2568      2593
 -1      6817    3    0    1
 -2      2521      2529      2568      2593
 -1      6818    3    0    1
 -2      2535      2521      2568      2593
 -1      6819    3    0    1
 -2      2316      1432      2379      2408
 -1      6820    3    0    1
 -2      1474      1414      2379      2408
 -1      6821    3    0    1
 -2      1247      2561      2245      2726
 -1      6822    3    0    1
 -2       528       973      2221      2251
 -1      6823    3    0    1
 -2       526       528      2221      2251
 -1      6824    3    0    1
 -2      2484      2566      2617      2651
 -1      6825    3    0    1
 -2      2473      2532      2545      2595
 -1      6826    3    0    1
 -2      1469       438      1499      2416
 -1      6827    3    0    1
 -2      1233      1139      2532      2595
 -1      6828    3    0    1
 -2      2261      2544      2280      2625
 -1      6829    3    0    1
 -2      2557      1319      2612      2667
 -1      6830    3    0    1
 -2      1247      2633      1439      2392
 -1      6831    3    0    1
 -2      2504      2544      2545      2643
 -1      6832    3    0    1
 -2      2471      2057      2515      2594
 -1      6833    3    0    1
 -2      2057      2471      2474      2594
 -1      6834    3    0    1
 -2      1219      1027      2548      2679
 -1      6835    3    0    1
 -2      2520      2551      2644      2651
 -1      6836    3    0    1
 -2      2573      2509      2626      2639
 -1      6837    3    0    1
 -2      2189      2528      1259      2730
 -1      6838    3    0    1
 -2      1236      2272      2687      2447
 -1      6839    3    0    1
 -2      2705      2573      2712      2713
 -1      6840    3    0    1
 -2      2491      2189      2203      2730
 -1      6841    3    0    1
 -2      1329      1365      1395      2340
 -1      6842    3    0    1
 -2      1239      1323      2233      2253
 -1      6843    3    0    1
 -2      2214      1239      2233      2253
 -1      6844    3    0    1
 -2       142      1239      2214      2253
 -1      6845    3    0    1
 -2       117      1338      2251      2254
 -1      6846    3    0    1
 -2      2482      2516      2546      2695
 -1      6847    3    0    1
 -2      1333      2618      1469      2390
 -1      6848    3    0    1
 -2       167      2554      2662      1390
 -1      6849    3    0    1
 -2      2317      1129      2352      2676
 -1      6850    3    0    1
 -2      1284       124      2221      2254
 -1      6851    3    0    1
 -2       124       117       739      2254
 -1      6852    3    0    1
 -2       741       117      2251      2254
 -1      6853    3    0    1
 -2      1278      1375      2643      2685
 -1      6854    3    0    1
 -2       124       739      2221      2254
 -1      6855    3    0    1
 -2       739       117       741      2254
 -1      6856    3    0    1
 -2      2572      2533      2595      2624
 -1      6857    3    0    1
 -2      2471       934      1228      2647
 -1      6858    3    0    1
 -2      2471      1228      2497      2647
 -1      6859    3    0    1
 -2      2339      1238      2682      2381
 -1      6860    3    0    1
 -2      1373      2641      2643      1435
 -1      6861    3    0    1
 -2      1269      1046      2596      2725
 -1      6862    3    0    1
 -2      1330      1409      2631      1509
 -1      6863    3    0    1
 -2      1351      1352      2583      1417
 -1      6864    3    0    1
 -2      1346      1263      1361      2258
 -1      6865    3    0    1
 -2      1263      1228      1361      2258
 -1      6866    3    0    1
 -2      2547      2565      1382      2723
 -1      6867    3    0    1
 -2      1461       435      1463      2706
 -1      6868    3    0    1
 -2      2615      2507      2694      2721
 -1      6869    3    0    1
 -2      1242      2312      2731      2440
 -1      6870    3    0    1
 -2      1371      2325      2405      2439
 -1      6871    3    0    1
 -2      2544      2504      2575      2643
 -1      6872    3    0    1
 -2      2484      2520      2644      2651
 -1      6873    3    0    1
 -2      2275      2484      2644      2651
 -1      6874    3    0    1
 -2      2223      2193      2296      2672
 -1      6875    3    0    1
 -2      1218      2508      1283      2598
 -1      6876    3    0    1
 -2      1435       386      2652      1441
 -1      6877    3    0    1
 -2      2641      2625      2643      2652
 -1      6878    3    0    1
 -2      2652      1436      1435      2641
 -1      6879    3    0    1
 -2      2523      2469      2689      2722
 -1      6880    3    0    1
 -2       879      1224      2518      2702
 -1      6881    3    0    1
 -2      1436      2652      1435         1
 -1      6882    3    0    1
 -2      2484      1306      2566      2651
 -1      6883    3    0    1
 -2         1      1436      2652      1456
 -1      6884    3    0    1
 -2      2230      2199      2248      2690
 -1      6885    3    0    1
 -2      2627      1225      2328      2345
 -1      6886    3    0    1
 -2      2259       351      1379      2657
 -1      6887    3    0    1
 -2       134      2259      1386      2657
 -1      6888    3    0    1
 -2      2229      2259      1379      2657
 -1      6889    3    0    1
 -2      2199      2220      2282      2693
 -1      6890    3    0    1
 -2       577       576      1890      2596
 -1      6891    3    0    1
 -2       576       577      1046      2596
 -1      6892    3    0    1
 -2      1046       577      1890      2596
 -1      6893    3    0    1
 -2      2377      1248      2720      2414
 -1      6894    3    0    1
 -2      1303      1351      2583      2640
 -1      6895    3    0    1
 -2      1299      2631      2694      2702
 -1      6896    3    0    1
 -2      2107      2112      2505      2596
 -1      6897    3    0    1
 -2      2505      2112      2524      2596
 -1      6898    3    0    1
 -2      2112      2491      2524      2596
 -1      6899    3    0    1
 -2      2112      2107      2491      2596
 -1      6900    3    0    1
 -2      2491      2107      2521      2596
 -1      6901    3    0    1
 -2      1890      2069      2107      2596
 -1      6902    3    0    1
 -2      2207      1396      2323      2390
 -1      6903    3    0    1
 -2      2571      2562      2601      2632
 -1      6904    3    0    1
 -2      1395        11      2710      2419
 -1      6905    3    0    1
 -2      2592      1257      1416      2307
 -1      6906    3    0    1
 -2      2298      2203      2730      2742
 -1      6907    3    0    1
 -2      2543      2508      2563      2598
 -1      6908    3    0    1
 -2      2508      2543      2562      2598
 -1      6909    3    0    1
 -2      1324      2563      2233      2598
 -1      6910    3    0    1
 -2      2563      1218      2233      2598
 -1      6911    3    0    1
 -2      2233      1218      2260      2598
 -1      6912    3    0    1
 -2      1324      2233      2260      2598
 -1      6913    3    0    1
 -2      1377      1378      2653      2659
 -1      6914    3    0    1
 -2        69      2664      2668      1470
 -1      6915    3    0    1
 -2      2504      1235      2534      2648
 -1      6916    3    0    1
 -2       918       493      1831      2623
 -1      6917    3    0    1
 -2       918       915       493      2623
 -1      6918    3    0    1
 -2      2609      1313      2660      2701
 -1      6919    3    0    1
 -2      2070      2540      2555      2613
 -1      6920    3    0    1
 -2       273       272      2317      2352
 -1      6921    3    0    1
 -2      2550      1343      2627      2328
 -1      6922    3    0    1
 -2       357      1496      2718      2421
 -1      6923    3    0    1
 -2      1475      2387      2441      2442
 -1      6924    3    0    1
 -2      1452      2585      2616      1279
 -1      6925    3    0    1
 -2      2585      1279      1452      2439
 -1      6926    3    0    1
 -2      2533      1232      1336      2684
 -1      6927    3    0    1
 -2      1313      1312      2660      1467
 -1      6928    3    0    1
 -2      1495      1400      1498      2705
 -1      6929    3    0    1
 -2      1321      2601      1410      1411
 -1      6930    3    0    1
 -2      2543      2571      1376      2632
 -1      6931    3    0    1
 -2      1376      2571      1379      2632
 -1      6932    3    0    1
 -2      1270      2580      2633      2654
 -1      6933    3    0    1
 -2       905      2283      2295      2346
 -1      6934    3    0    1
 -2      2292      1225      2328      2696
 -1      6935    3    0    1
 -2      2566      1306      2617      2651
 -1      6936    3    0    1
 -2      1233      1336      1337      2624
 -1      6937    3    0    1
 -2      2569      2592      1416      2307
 -1      6938    3    0    1
 -2      2295       905       489       725
 -1      6939    3    0    1
 -2      1383      1317      1388      2667
 -1      6940    3    0    1
 -2      2523      2631      2694      2721
 -1      6941    3    0    1
 -2      1352      2583      1417      1418
 -1      6942    3    0    1
 -2      2277      2213      1027      1017
 -1      6943    3    0    1
 -2      1299      2615      2694      2721
 -1      6944    3    0    1
 -2      2604      2558      2612      2667
 -1      6945    3    0    1
 -2      2339      2591      1238      1370
 -1      6946    3    0    1
 -2      1404      1391      1429      2326
 -1      6947    3    0    1
 -2      1379       351      2632      2657
 -1      6948    3    0    1
 -2      2200      2547      2206      1382
 -1      6949    3    0    1
 -2      2571      2601      2655      2657
 -1      6950    3    0    1
 -2      2229      2571      1386      2657
 -1      6951    3    0    1
 -2      2547      1302      2200      2528
 -1      6952    3    0    1
 -2      1302      2547      2200      1382
 -1      6953    3    0    1
 -2      2523      2489      2338      2694
 -1      6954    3    0    1
 -2      1413      1451      1473      2715
 -1      6955    3    0    1
 -2      2602      1342      1447      1448
 -1      6956    3    0    1
 -2      2664      1459      2668      2704
 -1      6957    3    0    1
 -2      2576      1279      2231      2616
 -1      6958    3    0    1
 -2      1279      2576      2585      2616
 -1      6959    3    0    1
 -2      2215      1288      1357      2265
 -1      6960    3    0    1
 -2      2633      1247      1439      2726
 -1      6961    3    0    1
 -2      1336      1344      2720      2409
 -1      6962    3    0    1
 -2      2187      2644      1463      2372
 -1      6963    3    0    1
 -2      2330      2386      2707      2415
 -1      6964    3    0    1
 -2      1248      2570      2684      2720
 -1      6965    3    0    1
 -2      2201      2204      2225      2682
 -1      6966    3    0    1
 -2       378      2686      1492      2428
 -1      6967    3    0    1
 -2      2532      2533      2570      2720
 -1      6968    3    0    1
 -2      1517      1506      2425      2449
 -1      6969    3    0    1
 -2      2469      2192      2541      2689
 -1      6970    3    0    1
 -2      2626      1399      2627      2669
 -1      6971    3    0    1
 -2        64       725      2283      2295
 -1      6972    3    0    1
 -2      1285      2567      1376      2696
 -1      6973    3    0    1
 -2      2659      1442      1454      2711
 -1      6974    3    0    1
 -2      2227      2205      2228      2731
 -1      6975    3    0    1
 -2      2585      2285      2301      2325
 -1      6976    3    0    1
 -2      1035       184       763      2266
 -1      6977    3    0    1
 -2       184      1035       194      2266
 -1      6978    3    0    1
 -2      2299      2305      2376      2719
 -1      6979    3    0    1
 -2       569      1035       763      2266
 -1      6980    3    0    1
 -2       361      1426      2396      1512
 -1      6981    3    0    1
 -2      2202      2226      2239      2606
 -1      6982    3    0    1
 -2      1227      2471      2497      2606
 -1      6983    3    0    1
 -2      1035       569       570      2266
 -1      6984    3    0    1
 -2       958      2471      1227      2606
 -1      6985    3    0    1
 -2      1260      2552      2590      2715
 -1      6986    3    0    1
 -2       958       955      2538      2606
 -1      6987    3    0    1
 -2      2507      2576      2231      2616
 -1      6988    3    0    1
 -2      1388       350      1422      2667
 -1      6989    3    0    1
 -2      2588      2597      2608      1415
 -1      6990    3    0    1
 -2      2133      1854      2490      2734
 -1      6991    3    0    1
 -2      2111      2469      2523      2338
 -1      6992    3    0    1
 -2      1421      1315      2306      2332
 -1      6993    3    0    1
 -2       613       609       608      2269
 -1      6994    3    0    1
 -2       612      1101      1103      2269
 -1      6995    3    0    1
 -2       613       608       612      2269
 -1      6996    3    0    1
 -2       613       612      1103      2269
 -1      6997    3    0    1
 -2       778      1098      1326      2269
 -1      6998    3    0    1
 -2       250      1267      1326      2269
 -1      6999    3    0    1
 -2      1098       250      1326      2269
 -1      7000    3    0    1
 -2       778       608      1098      2269
 -1      7001    3    0    1
 -2      1864      2072      2463      2732
 -1      7002    3    0    1
 -2      1495       109      1498      2427
 -1      7003    3    0    1
 -2       608       609      1098      2269
 -1      7004    3    0    1
 -2      1101       608       778      2269
 -1      7005    3    0    1
 -2       608      1101       612      2269
 -1      7006    3    0    1
 -2      1223       900      2582      2658
 -1      7007    3    0    1
 -2      1333      1306      2687      2390
 -1      7008    3    0    1
 -2        11        20      2610      2710
 -1      7009    3    0    1
 -2      2650      1278      2676      2743
 -1      7010    3    0    1
 -2       763       569      2266      2273
 -1      7011    3    0    1
 -2      2488      2522      2620      2728
 -1      7012    3    0    1
 -2       576      1044      2266      2273
 -1      7013    3    0    1
 -2       569       576      2266      2273
 -1      7014    3    0    1
 -2      2303      2663      2382      2422
 -1      7015    3    0    1
 -2      1227      2497      2597      2606
 -1      7016    3    0    1
 -2      2471      2538      2597      2606
 -1      7017    3    0    1
 -2      2497      2471      2597      2606
 -1      7018    3    0    1
 -2      1335      1262      2597      2606
 -1      7019    3    0    1
 -2      1262      1227      2597      2606
 -1      7020    3    0    1
 -2      2240       958      2242      2606
 -1      7021    3    0    1
 -2       958      1227      2242      2606
 -1      7022    3    0    1
 -2      2300      1299      2663      2350
 -1      7023    3    0    1
 -2      1226       955      2202      2606
 -1      7024    3    0    1
 -2      1226      2202      2239      2606
 -1      7025    3    0    1
 -2      2274      2320      2342      2665
 -1      7026    3    0    1
 -2       589       583       582      2665
 -1      7027    3    0    1
 -2      2529      2528      2656      2723
 -1      7028    3    0    1
 -2       207       768      1056      2274
 -1      7029    3    0    1
 -2       203       207      1056      2274
 -1      7030    3    0    1
 -2      2256      1335      2597      2607
 -1      7031    3    0    1
 -2      2531      2256      2597      2607
 -1      7032    3    0    1
 -2      2548      1247      1316      2679
 -1      7033    3    0    1
 -2      2203      2510      2730      2742
 -1      7034    3    0    1
 -2      2051      2190      1275      2607
 -1      7035    3    0    1
 -2      1275      1335      2256      2607
 -1      7036    3    0    1
 -2      2168      2051      1275      2607
 -1      7037    3    0    1
 -2      2168      1275      2256      2607
 -1      7038    3    0    1
 -2      1469      1499      2390      2416
 -1      7039    3    0    1
 -2      1354      2549      1389      2640
 -1      7040    3    0    1
 -2      2213      1315      2279      2306
 -1      7041    3    0    1
 -2      2264      2549      2600      1389
 -1      7042    3    0    1
 -2      2186      2549      2264      1389
 -1      7043    3    0    1
 -2      2549      2186      1354      1389
 -1      7044    3    0    1
 -2      2630      1358      2634      1425
 -1      7045    3    0    1
 -2      1292      2542      2628      2698
 -1      7046    3    0    1
 -2      1083      2470      2553      2609
 -1      7047    3    0    1
 -2      1237      1083      2553      2609
 -1      7048    3    0    1
 -2      1312      1237      1313      2609
 -1      7049    3    0    1
 -2      1236      1237      1312      2609
 -1      7050    3    0    1
 -2      1400      1399      2626      2669
 -1      7051    3    0    1
 -2      1236      1083      1237      2609
 -1      7052    3    0    1
 -2      2423      2698      2628      1450
 -1      7053    3    0    1
 -2       167      2554      1390      1391
 -1      7054    3    0    1
 -2       167       364      2554      1391
 -1      7055    3    0    1
 -2      1405      1347      1415      2349
 -1      7056    3    0    1
 -2      1295      2515      2623      2695
 -1      7057    3    0    1
 -2      2479      2089      2546      2383
 -1      7058    3    0    1
 -2      2185      2262      2611      2334
 -1      7059    3    0    1
 -2      2159      2185      2262      2611
 -1      7060    3    0    1
 -2      2597      2569      1415      2308
 -1      7061    3    0    1
 -2       213      1473      1485      2450
 -1      7062    3    0    1
 -2      2547      2529      2649      2723
 -1      7063    3    0    1
 -2      2314      1358      1478      2401
 -1      7064    3    0    1
 -2      1504      2422      2423      2448
 -1      7065    3    0    1
 -2      2606      1275      2293      2364
 -1      7066    3    0    1
 -2      2302      2300      2303      2663
 -1      7067    3    0    1
 -2      2602      1342      1448      2698
 -1      7068    3    0    1
 -2       881      1254      2663      2702
 -1      7069    3    0    1
 -2      2570      2520      2642      2644
 -1      7070    3    0    1
 -2      1378      1296      2653      2661
 -1      7071    3    0    1
 -2      2384      2327      2436      2745
 -1      7072    3    0    1
 -2      1243      1121      2570      2720
 -1      7073    3    0    1
 -2      2221      1284      2254      2292
 -1      7074    3    0    1
 -2      2617      1306      2618      2651
 -1      7075    3    0    1
 -2      2544      1456      2625      2648
 -1      7076    3    0    1
 -2      1328      2479      2262      2611
 -1      7077    3    0    1
 -2      2479      2546      2594      2611
 -1      7078    3    0    1
 -2      2469      2148      2507      2338
 -1      7079    3    0    1
 -2       564      1025      1027      2277
 -1      7080    3    0    1
 -2      1311      1017      2212      2277
 -1      7081    3    0    1
 -2       565       564      1027      2277
 -1      7082    3    0    1
 -2       565       557       564      2277
 -1      7083    3    0    1
 -2       565       558       557      2277
 -1      7084    3    0    1
 -2       757       557      1017      2277
 -1      7085    3    0    1
 -2      1314      1311      2212      2277
 -1      7086    3    0    1
 -2       176      1311      1314      2277
 -1      7087    3    0    1
 -2       176       757      1311      2277
 -1      7088    3    0    1
 -2       757      1017      1311      2277
 -1      7089    3    0    1
 -2       557       558      1017      2277
 -1      7090    3    0    1
 -2      2602       376      1447      2680
 -1      7091    3    0    1
 -2       558      1027      1017      2277
 -1      7092    3    0    1
 -2      1027       558       565      2277
 -1      7093    3    0    1
 -2      1258      2557      1319      2612
 -1      7094    3    0    1
 -2      2660      1312      2677      2733
 -1      7095    3    0    1
 -2      2312      2249      2367      2714
 -1      7096    3    0    1
 -2       991      2481      2563      2612
 -1      7097    3    0    1
 -2      2481       991      1271      2612
 -1      7098    3    0    1
 -2      1467      2660      2691      2733
 -1      7099    3    0    1
 -2      2481      1777      2563      2612
 -1      7100    3    0    1
 -2      1777      2481      2492      2612
 -1      7101    3    0    1
 -2      1308      2618      1469      2708
 -1      7102    3    0    1
 -2      2557      2503      2558      2612
 -1      7103    3    0    1
 -2       109       357      1495      2718
 -1      7104    3    0    1
 -2      2492      1258      2543      2612
 -1      7105    3    0    1
 -2      2543      1258      2563      2612
 -1      7106    3    0    1
 -2      2492      2543      2563      2612
 -1      7107    3    0    1
 -2      1258      2492      2557      2612
 -1      7108    3    0    1
 -2      2492      2503      2557      2612
 -1      7109    3    0    1
 -2      2126      2492      2563      2612
 -1      7110    3    0    1
 -2      1777      2126      2563      2612
 -1      7111    3    0    1
 -2      2126      1777      2492      2612
 -1      7112    3    0    1
 -2      2275      1333      2651      1469
 -1      7113    3    0    1
 -2      1333      2618      2651      1469
 -1      7114    3    0    1
 -2       369      2691      2727      2700
 -1      7115    3    0    1
 -2      2700      2688      1503      2733
 -1      7116    3    0    1
 -2       552      1009      1856      2613
 -1      7117    3    0    1
 -2       552      1011      1009      2613
 -1      7118    3    0    1
 -2      2481      1777      2492      2613
 -1      7119    3    0    1
 -2      2492      1777      2555      2613
 -1      7120    3    0    1
 -2      1238      2534      2591      2682
 -1      7121    3    0    1
 -2      1384      1423      2366      2394
 -1      7122    3    0    1
 -2      2620      2660      2677      2688
 -1      7123    3    0    1
 -2      1011       552       553      2613
 -1      7124    3    0    1
 -2       553       552      2478      2613
 -1      7125    3    0    1
 -2      1011       553      2478      2613
 -1      7126    3    0    1
 -2      1777      1856      2070      2613
 -1      7127    3    0    1
 -2      2586      2524      2726      2742
 -1      7128    3    0    1
 -2      2557      1222      1349      2614
 -1      7129    3    0    1
 -2      2583      2577      2600      2636
 -1      7130    3    0    1
 -2       363      1423      1431      1465
 -1      7131    3    0    1
 -2      1342      2698      2422      2448
 -1      7132    3    0    1
 -2      1299      2142      1345      2615
 -1      7133    3    0    1
 -2      2231      2615      2616      2629
 -1      7134    3    0    1
 -2      2142      1299      2268      2615
 -1      7135    3    0    1
 -2      2099      2142      2268      2615
 -1      7136    3    0    1
 -2      1066      1064      2535      2665
 -1      7137    3    0    1
 -2      2485      1101      1244      2617
 -1      7138    3    0    1
 -2      2122      2053      2566      2617
 -1      7139    3    0    1
 -2      2484      2485      2520      2617
 -1      7140    3    0    1
 -2      2122      2121      2485      2617
 -1      7141    3    0    1
 -2      2485      2121      2525      2617
 -1      7142    3    0    1
 -2      1101      2485      2525      2617
 -1      7143    3    0    1
 -2      2121      1101      2525      2617
 -1      7144    3    0    1
 -2      2594      2515      2647      2661
 -1      7145    3    0    1
 -2      2551      1307      2642      2706
 -1      7146    3    0    1
 -2      2053      2122      2484      2617
 -1      7147    3    0    1
 -2      2484      2122      2485      2617
 -1      7148    3    0    1
 -2      1758      2122      2566      2617
 -1      7149    3    0    1
 -2      2121      1758      2566      2617
 -1      7150    3    0    1
 -2      1758      2121      2122      2617
 -1      7151    3    0    1
 -2      1436      1374      2648      1456
 -1      7152    3    0    1
 -2      1244      1308      2551      2618
 -1      7153    3    0    1
 -2      1370      1329      1395      2340
 -1      7154    3    0    1
 -2      2299       897      2658      2719
 -1      7155    3    0    1
 -2      1370      1395      2339      2340
 -1      7156    3    0    1
 -2      1428      1362      2333      2336
 -1      7157    3    0    1
 -2      1281      1400      1498      2427
 -1      7158    3    0    1
 -2      2628      1345      2382      2423
 -1      7159    3    0    1
 -2      1382       358      1482      2723
 -1      7160    3    0    1
 -2      1331      1307      2706      2445
 -1      7161    3    0    1
 -2      1672      2507      2338      2694
 -1      7162    3    0    1
 -2      1463      2642      2644      1372
 -1      7163    3    0    1
 -2      1257      1229      2592      2647
 -1      7164    3    0    1
 -2      1359      2654      2395      2396
 -1      7165    3    0    1
 -2      2619      1332      1461      1462
 -1      7166    3    0    1
 -2      1331      1308      1332      2619
 -1      7167    3    0    1
 -2      2517      2628      2675      2694
 -1      7168    3    0    1
 -2      2471      2474      2594      2647
 -1      7169    3    0    1
 -2       393       914        65        67
 -1      7170    3    0    1
 -2      2188      2208      2219      2620
 -1      7171    3    0    1
 -2      2266      2314      2398      2725
 -1      7172    3    0    1
 -2       109      1495      2705      2718
 -1      7173    3    0    1
 -2      2574      2506      2578      2621
 -1      7174    3    0    1
 -2      2506      2574      2578      2715
 -1      7175    3    0    1
 -2      2536      2578      1407      2715
 -1      7176    3    0    1
 -2      1232      1336      2720      2409
 -1      7177    3    0    1
 -2      2536      2183      1305      2621
 -1      7178    3    0    1
 -2      2506      2536      2578      2621
 -1      7179    3    0    1
 -2      2530      2178      2238      2297
 -1      7180    3    0    1
 -2      2463      2509      2550      2732
 -1      7181    3    0    1
 -2      2497      1228      2592      2647
 -1      7182    3    0    1
 -2      2168      2467      2607      2678
 -1      7183    3    0    1
 -2      2242      1360      2293      2349
 -1      7184    3    0    1
 -2      1289      1390      1394      2662
 -1      7185    3    0    1
 -2      1917      2056      2489      2689
 -1      7186    3    0    1
 -2      1287        84      1322      2281
 -1      7187    3    0    1
 -2       729        84      1287      2281
 -1      7188    3    0    1
 -2      2281       501       729       500
 -1      7189    3    0    1
 -2      2628      1299      2694      2702
 -1      7190    3    0    1
 -2       934       504      2197      2281
 -1      7191    3    0    1
 -2       729      2197       501      2281
 -1      7192    3    0    1
 -2       504       501      2197      2281
 -1      7193    3    0    1
 -2      2606      2239      2351      2364
 -1      7194    3    0    1
 -2      1357      2215      2265      2658
 -1      7195    3    0    1
 -2      2208      2620      1460      2389
 -1      7196    3    0    1
 -2        64       725       905      2283
 -1      7197    3    0    1
 -2        63        64       905      2283
 -1      7198    3    0    1
 -2      2535      1253      1297      2737
 -1      7199    3    0    1
 -2      1368      1382      1482      2723
 -1      7200    3    0    1
 -2      2698      1450      2423      2448
 -1      7201    3    0    1
 -2      2280      2652      2373      2625
 -1      7202    3    0    1
 -2      2283      1298      2295      2327
 -1      7203    3    0    1
 -2      1400      2626      2639      2705
 -1      7204    3    0    1
 -2      2669      1400      1494      1495
 -1      7205    3    0    1
 -2      2509      2573      2626      2627
 -1      7206    3    0    1
 -2      1384      1318      2604      2670
 -1      7207    3    0    1
 -2      2300      1403      2302      2303
 -1      7208    3    0    1
 -2      2515       915      1295      2623
 -1      7209    3    0    1
 -2      2550       973      2567      2696
 -1      7210    3    0    1
 -2      1246       918      2589      2623
 -1      7211    3    0    1
 -2       918      2483      2589      2623
 -1      7212    3    0    1
 -2      1246      2589      2599      2623
 -1      7213    3    0    1
 -2       492       915      1831      2623
 -1      7214    3    0    1
 -2       493       492      1831      2623
 -1      7215    3    0    1
 -2       492       493       915      2623
 -1      7216    3    0    1
 -2      1313      1312      2609      2660
 -1      7217    3    0    1
 -2      2483      2516      2589      2623
 -1      7218    3    0    1
 -2      2589      2516      2599      2623
 -1      7219    3    0    1
 -2      1295      1377      2695      2745
 -1      7220    3    0    1
 -2      2218      2605      1394      2672
 -1      7221    3    0    1
 -2      2697      2673      1512      2437
 -1      7222    3    0    1
 -2       881      2489      1254      2702
 -1      7223    3    0    1
 -2      2546      2611      2622      2661
 -1      7224    3    0    1
 -2      1373      1374      2641      1435
 -1      7225    3    0    1
 -2      2262      1328      2611      1457
 -1      7226    3    0    1
 -2      2334      2335      2664      1459
 -1      7227    3    0    1
 -2      1384      1318      1408      2366
 -1      7228    3    0    1
 -2      2569      2531      2592      2678
 -1      7229    3    0    1
 -2      2548      1247      2633      2726
 -1      7230    3    0    1
 -2      1409      1330      2631      2702
 -1      7231    3    0    1
 -2      1425      2630      1426      2681
 -1      7232    3    0    1
 -2      2243      2339      2340      2682
 -1      7233    3    0    1
 -2       363       350      2635      1423
 -1      7234    3    0    1
 -2       361       352      2681      2697
 -1      7235    3    0    1
 -2      2635       350      1422      1423
 -1      7236    3    0    1
 -2      2608       367      2308      2309
 -1      7237    3    0    1
 -2      1236      2687      2430      2447
 -1      7238    3    0    1
 -2      1226      1225      2509      2626
 -1      7239    3    0    1
 -2      1384      2604      2635      2670
 -1      7240    3    0    1
 -2      2558      2557      2603      2670
 -1      7241    3    0    1
 -2      2558      2603      2635      2670
 -1      7242    3    0    1
 -2      1280      1281      1399      2626
 -1      7243    3    0    1
 -2      1280      1226      1281      2626
 -1      7244    3    0    1
 -2      1399      1281      1400      2626
 -1      7245    3    0    1
 -2      1225      1226      1280      2626
 -1      7246    3    0    1
 -2      1318      1384      1408      2670
 -1      7247    3    0    1
 -2      2557      2558      1349      2670
 -1      7248    3    0    1
 -2      1343      2550      2732      1285
 -1      7249    3    0    1
 -2      2634      1259      2656      2730
 -1      7250    3    0    1
 -2      2337      2703      1509      2419
 -1      7251    3    0    1
 -2      2703      2710      1509      2419
 -1      7252    3    0    1
 -2      2703      1395      2710      2419
 -1      7253    3    0    1
 -2      1267      1326      2269      2420
 -1      7254    3    0    1
 -2      1388      2603      2290      2666
 -1      7255    3    0    1
 -2      2538      1275      2606      1402
 -1      7256    3    0    1
 -2       350       363      2635      2666
 -1      7257    3    0    1
 -2       350      1388      2290      2666
 -1      7258    3    0    1
 -2      2603      2234      2290      2294
 -1      7259    3    0    1
 -2      2272      1502      2430      2447
 -1      7260    3    0    1
 -2      1418      1352      1419      2348
 -1      7261    3    0    1
 -2      2292      1401      2328      2345
 -1      7262    3    0    1
 -2        81       367      2608      2309
 -1      7263    3    0    1
 -2      2569      2257      2608      2309
 -1      7264    3    0    1
 -2      2257      2569      2308      2309
 -1      7265    3    0    1
 -2      2673      2402      2435      2437
 -1      7266    3    0    1
 -2      2577      2582      2589      2640
 -1      7267    3    0    1
 -2      2588      1347      2597      1415
 -1      7268    3    0    1
 -2      2516      2482      2599      2695
 -1      7269    3    0    1
 -2      2546      2622      2653      2661
 -1      7270    3    0    1
 -2       238       369      2691      1501
 -1      7271    3    0    1
 -2      2469      2523      2694      2721
 -1      7272    3    0    1
 -2      1260      1261      2574      1413
 -1      7273    3    0    1
 -2      1296       937      2647      2739
 -1      7274    3    0    1
 -2      2579      2554      2587      1404
 -1      7275    3    0    1
 -2      2554      1290      1391      1404
 -1      7276    3    0    1
 -2      2569      2256      2257      2308
 -1      7277    3    0    1
 -2      1290      2579      1393      1404
 -1      7278    3    0    1
 -2      1290      2554      2579      1404
 -1      7279    3    0    1
 -2      2531      2569      2597      2308
 -1      7280    3    0    1
 -2      2569      2531      2256      2308
 -1      7281    3    0    1
 -2      2583      1418      2636      2638
 -1      7282    3    0    1
 -2      2600      2270      1389      2638
 -1      7283    3    0    1
 -2      2490      2183      2536      2728
 -1      7284    3    0    1
 -2      2469      1917      2523      2689
 -1      7285    3    0    1
 -2      2315      1338      2360      2361
 -1      7286    3    0    1
 -2      2586      2580      2630      2654
 -1      7287    3    0    1
 -2      2533      1232      2684      2720
 -1      7288    3    0    1
 -2      2630      1359      1426      2654
 -1      7289    3    0    1
 -2      2665      1250      2535      1066
 -1      7290    3    0    1
 -2      1389      1351      1417      2403
 -1      7291    3    0    1
 -2      2673      2681      1480      2697
 -1      7292    3    0    1
 -2      1438      1418      2348      2354
 -1      7293    3    0    1
 -2      1327      2321      2370      2397
 -1      7294    3    0    1
 -2      2635      1383      1422      2667
 -1      7295    3    0    1
 -2      1246       918      2623      2671
 -1      7296    3    0    1
 -2       194       184      2266      2311
 -1      7297    3    0    1
 -2      2603      2635      2666      2667
 -1      7298    3    0    1
 -2      1477       377      1506      2425
 -1      7299    3    0    1
 -2       378      1492      1505      2426
 -1      7300    3    0    1
 -2      2574      2578      2581      2699
 -1      7301    3    0    1
 -2       350      2635      1422      2667
 -1      7302    3    0    1
 -2      1465      2286      2366      2394
 -1      7303    3    0    1
 -2      1463      1331      2706      2445
 -1      7304    3    0    1
 -2      2333      2283      2336      1362
 -1      7305    3    0    1
 -2        70      1418      1419      2348
 -1      7306    3    0    1
 -2      1400      1399      2669      1494
 -1      7307    3    0    1
 -2      2290      2603      2294      2666
 -1      7308    3    0    1
 -2      2550      1285      2328      2696
 -1      7309    3    0    1
 -2       368      2664      1459      2668
 -1      7310    3    0    1
 -2      2251      2221      2254      2696
 -1      7311    3    0    1
 -2      1303      2577      2589      2640
 -1      7312    3    0    1
 -2      2226      2239      2606      2364
 -1      7313    3    0    1
 -2      1298        64      2283      2295
 -1      7314    3    0    1
 -2      2557      2558      2603      2667
 -1      7315    3    0    1
 -2       350      1388      2666      2667
 -1      7316    3    0    1
 -2      1383      1388      1422      2667
 -1      7317    3    0    1
 -2      1467      1312      2733      2447
 -1      7318    3    0    1
 -2       369       238      2691      2700
 -1      7319    3    0    1
 -2      1347      1262      2597      1415
 -1      7320    3    0    1
 -2      1400      2639      1498      2705
 -1      7321    3    0    1
 -2      1083      1085      2227      2731
 -1      7322    3    0    1
 -2      2254      2221      2292      2696
 -1      7323    3    0    1
 -2       134       351      2601      1411
 -1      7324    3    0    1
 -2      2601       351      1410      1411
 -1      7325    3    0    1
 -2      2425      1445      2744      2449
 -1      7326    3    0    1
 -2      2331      2196      2721      2722
 -1      7327    3    0    1
 -2      2536      2578      2621      1412
 -1      7328    3    0    1
 -2      2578      2536      2232      1412
 -1      7329    3    0    1
 -2      1305      2536      2621      1412
 -1      7330    3    0    1
 -2      2536      1305      2232      1412
 -1      7331    3    0    1
 -2      1329      2591      1395      2716
 -1      7332    3    0    1
 -2      2568      2486      2596      2656
 -1      7333    3    0    1
 -2      2493      2182      1376      2543
 -1      7334    3    0    1
 -2       354       213      2581      1474
 -1      7335    3    0    1
 -2      2573      2539      2729      2732
 -1      7336    3    0    1
 -2      2295      2283      2327      2745
 -1      7337    3    0    1
 -2      2539      2287      2324      2359
 -1      7338    3    0    1
 -2      2542      2616      2629      2646
 -1      7339    3    0    1
 -2      2501      1240      2548      2662
 -1      7340    3    0    1
 -2      1270      2633      2392      2395
 -1      7341    3    0    1
 -2      2659      1378      2661      2704
 -1      7342    3    0    1
 -2      1366      2584      2610      2631
 -1      7343    3    0    1
 -2      1330      2584      1366      2631
 -1      7344    3    0    1
 -2      2402      2298      2730      2742
 -1      7345    3    0    1
 -2      2089      2158      2515      2383
 -1      7346    3    0    1
 -2      2516      2546      2695      2383
 -1      7347    3    0    1
 -2      2539      2190      2607      2712
 -1      7348    3    0    1
 -2      1488      1511      2452      2457
 -1      7349    3    0    1
 -2      1454      1442      2452      2457
 -1      7350    3    0    1
 -2      1451      1413      1473      2450
 -1      7351    3    0    1
 -2      2286      1387      2347      2394
 -1      7352    3    0    1
 -2      2633      2654      2392      2395
 -1      7353    3    0    1
 -2      1315      2279      2306      2332
 -1      7354    3    0    1
 -2      2592      2588      2608      1416
 -1      7355    3    0    1
 -2      2588        81      2608      1416
 -1      7356    3    0    1
 -2      2569      2592      2608      1416
 -1      7357    3    0    1
 -2      2686       377      1477      2393
 -1      7358    3    0    1
 -2      2577      2549      2600      2636
 -1      7359    3    0    1
 -2      2600      2264      2270      1419
 -1      7360    3    0    1
 -2      2549      2264      2600      1419
 -1      7361    3    0    1
 -2      1240      1219      2548      2679
 -1      7362    3    0    1
 -2      2605      2512      2662      2672
 -1      7363    3    0    1
 -2      2213      2212      2277      2679
 -1      7364    3    0    1
 -2      1352      1304      2583      2636
 -1      7365    3    0    1
 -2      2549      2186      2264      1419
 -1      7366    3    0    1
 -2      2186      2549      1367      1419
 -1      7367    3    0    1
 -2      1304      2577      2583      2636
 -1      7368    3    0    1
 -2      2577      1304      2599      2636
 -1      7369    3    0    1
 -2      2054      2185      2594      2310
 -1      7370    3    0    1
 -2      2600      2549      1419      2636
 -1      7371    3    0    1
 -2      2289      2615      2629      1450
 -1      7372    3    0    1
 -2       351      2601      1410      2632
 -1      7373    3    0    1
 -2      1379       351      1410      2632
 -1      7374    3    0    1
 -2      2615      1345      2628      2675
 -1      7375    3    0    1
 -2       361       352      1426      2681
 -1      7376    3    0    1
 -2      2146      2062      2505      2633
 -1      7377    3    0    1
 -2      1027      1025      2062      2633
 -1      7378    3    0    1
 -2      1291      2542      1341      2680
 -1      7379    3    0    1
 -2      2633      2472      1766      2062
 -1      7380    3    0    1
 -2      2544      1456      2648      1392
 -1      7381    3    0    1
 -2      1331      2619      1461      2706
 -1      7382    3    0    1
 -2      2331      2268      2337      2721
 -1      7383    3    0    1
 -2      1027      2062      2472      2633
 -1      7384    3    0    1
 -2      2472      2633      1766      2548
 -1      7385    3    0    1
 -2      1027      2472      2548      2633
 -1      7386    3    0    1
 -2       376      2602      2646      2680
 -1      7387    3    0    1
 -2      2314      1269      2401      2725
 -1      7388    3    0    1
 -2      2358      2686      2393      2428
 -1      7389    3    0    1
 -2       376      2646      1452      2680
 -1      7390    3    0    1
 -2      1766      2062      2146      2633
 -1      7391    3    0    1
 -2      1235      2204      2682      2707
 -1      7392    3    0    1
 -2        32       713      2288      2300
 -1      7393    3    0    1
 -2       713        32       715      2300
 -1      7394    3    0    1
 -2      2561      2500      2245      2726
 -1      7395    3    0    1
 -2      2633      1439      2654      2726
 -1      7396    3    0    1
 -2      2601       134      1411      2655
 -1      7397    3    0    1
 -2      2344      2406      2407      2737
 -1      7398    3    0    1
 -2      1442      1454      1470      2457
 -1      7399    3    0    1
 -2      1366      1471      2368      1509
 -1      7400    3    0    1
 -2      1375      1278      2643      2650
 -1      7401    3    0    1
 -2      2582      2549      1354      2640
 -1      7402    3    0    1
 -2       363      2294      1431      2666
 -1      7403    3    0    1
 -2      2587      2554      2672      2683
 -1      7404    3    0    1
 -2      2674       378      1492      1505
 -1      7405    3    0    1
 -2      2288       715       465      2302
 -1      7406    3    0    1
 -2      2535      1253      2590      2717
 -1      7407    3    0    1
 -2       879       881       468      2302
 -1      7408    3    0    1
 -2       465       466       468      2302
 -1      7409    3    0    1
 -2       468       881       469      2302
 -1      7410    3    0    1
 -2       465       468       469      2302
 -1      7411    3    0    1
 -2       715      2288       465       713
 -1      7412    3    0    1
 -2      1403        30      2300      2302
 -1      7413    3    0    1
 -2       465      2302       715       466
 -1      7414    3    0    1
 -2       973      1217      2567      2696
 -1      7415    3    0    1
 -2       465       469      2288      2302
 -1      7416    3    0    1
 -2       469       881      2288      2302
 -1      7417    3    0    1
 -2      2542      2602      2616      2646
 -1      7418    3    0    1
 -2      1407      2590      2715      2741
 -1      7419    3    0    1
 -2      1409      1299      2631      2721
 -1      7420    3    0    1
 -2      2594      2185      2611      1453
 -1      7421    3    0    1
 -2      2674       378      2686      1492
 -1      7422    3    0    1
 -2      1341      2602      1447      2680
 -1      7423    3    0    1
 -2      2331      2337      2703      2721
 -1      7424    3    0    1
 -2      2218      2296      2672      2356
 -1      7425    3    0    1
 -2      2535      1297      2593      2737
 -1      7426    3    0    1
 -2      2629      2289      1450      2357
 -1      7427    3    0    1
 -2      2289      2629      1452      2357
 -1      7428    3    0    1
 -2      1353      2322      2352      2400
 -1      7429    3    0    1
 -2      2602      2542      2616      2680
 -1      7430    3    0    1
 -2      1341      2542      2602      2680
 -1      7431    3    0    1
 -2      2490      2535      2590      2734
 -1      7432    3    0    1
 -2      1119      1121      2209      2720
 -1      7433    3    0    1
 -2       480       900       481      2658
 -1      7434    3    0    1
 -2      2285      2585      2301      2658
 -1      7435    3    0    1
 -2      2549      2577      2599      2636
 -1      7436    3    0    1
 -2      1419      2599      2549      1367
 -1      7437    3    0    1
 -2      2599      1419      2549      2636
 -1      7438    3    0    1
 -2      1025      1027      2277      2679
 -1      7439    3    0    1
 -2      2257      2569      2608      2307
 -1      7440    3    0    1
 -2      2608      2569      1416      2307
 -1      7441    3    0    1
 -2      2257      2608      1416      2307
 -1      7442    3    0    1
 -2      2563       991      2612      2709
 -1      7443    3    0    1
 -2      2520      2617      2618      2651
 -1      7444    3    0    1
 -2      2520      2484      2617      2651
 -1      7445    3    0    1
 -2      2484      2153      1306      2651
 -1      7446    3    0    1
 -2      2256      2531      2597      2308
 -1      7447    3    0    1
 -2      2256      2597      1415      2308
 -1      7448    3    0    1
 -2       354       213      2291      2637
 -1      7449    3    0    1
 -2       354      2291      1412      2637
 -1      7450    3    0    1
 -2      2291      2232      1412      2637
 -1      7451    3    0    1
 -2      2635       350      2666      2667
 -1      7452    3    0    1
 -2      2321      1230      2665      2741
 -1      7453    3    0    1
 -2      2608      2257      1416      2309
 -1      7454    3    0    1
 -2        81      2608      1416      2309
 -1      7455    3    0    1
 -2      2141      2169      2541      2685
 -1      7456    3    0    1
 -2      2270      2600      1419      2638
 -1      7457    3    0    1
 -2      2583      1417      1418      2638
 -1      7458    3    0    1
 -2        70       379      2270      2638
 -1      7459    3    0    1
 -2       379        70      1418      2638
 -1      7460    3    0    1
 -2      2270       379      1389      2638
 -1      7461    3    0    1
 -2        70      2270      1419      2638
 -1      7462    3    0    1
 -2      1417       379      1418      2638
 -1      7463    3    0    1
 -2      2606      2538      1402      2639
 -1      7464    3    0    1
 -2      2627      1399      1496      2729
 -1      7465    3    0    1
 -2      2509      1226      2626      2639
 -1      7466    3    0    1
 -2      1226      2509      2538      2639
 -1      7467    3    0    1
 -2      2491      2524      2596      2730
 -1      7468    3    0    1
 -2      1349      2603      2670      1408
 -1      7469    3    0    1
 -2      2706      1463      2724      2736
 -1      7470    3    0    1
 -2      2551      2644      2651      2724
 -1      7471    3    0    1
 -2      2644      2619      2706      2724
 -1      7472    3    0    1
 -2       350      2290      2294      2666
 -1      7473    3    0    1
 -2      2635       363      1431      2666
 -1      7474    3    0    1
 -2      2577      1303      2583      2640
 -1      7475    3    0    1
 -2      2577      2582      2549      2516
 -1      7476    3    0    1
 -2      2582      2577      2549      2640
 -1      7477    3    0    1
 -2      2549      2577      2600      2640
 -1      7478    3    0    1
 -2      2549      2600      1389      2640
 -1      7479    3    0    1
 -2      1351      1389      1417      2640
 -1      7480    3    0    1
 -2      2583      1351      1417      2640
 -1      7481    3    0    1
 -2      2577      2583      2600      2640
 -1      7482    3    0    1
 -2      2583      1417      2638      2640
 -1      7483    3    0    1
 -2      1389      2600      2638      2640
 -1      7484    3    0    1
 -2      2600      2583      2638      2640
 -1      7485    3    0    1
 -2       379      1389      2638      2640
 -1      7486    3    0    1
 -2      1389       379      1417      2640
 -1      7487    3    0    1
 -2      1417       379      2638      2640
 -1      7488    3    0    1
 -2      2671      1328      2375      2745
 -1      7489    3    0    1
 -2      2461      1672      2338      2694
 -1      7490    3    0    1
 -2      2652      2280      2373      2399
 -1      7491    3    0    1
 -2      1249      2568      2596      2656
 -1      7492    3    0    1
 -2      1439      2633      2654      2392
 -1      7493    3    0    1
 -2       184      1356      2273      2311
 -1      7494    3    0    1
 -2      1363       194      2266      2311
 -1      7495    3    0    1
 -2      2521      2486      2568      2656
 -1      7496    3    0    1
 -2      2529      2521      2568      2656
 -1      7497    3    0    1
 -2      1249      1293      2568      2656
 -1      7498    3    0    1
 -2      2552      1260      2574      2715
 -1      7499    3    0    1
 -2      1393      1290      1404      2326
 -1      7500    3    0    1
 -2      1917      2469      2541      2689
 -1      7501    3    0    1
 -2      2489      2534      2591      2689
 -1      7502    3    0    1
 -2      2207      1310      1396      2313
 -1      7503    3    0    1
 -2      2369      2322      2400      2743
 -1      7504    3    0    1
 -2      1455      1443      1459      2411
 -1      7505    3    0    1
 -2      2322      2352      2400      2743
 -1      7506    3    0    1
 -2      2265      2215      2285      2658
 -1      7507    3    0    1
 -2       378       377      2674      2686
 -1      7508    3    0    1
 -2      2523      2591      2716      2722
 -1      7509    3    0    1
 -2      2554       167      2662      2683
 -1      7510    3    0    1
 -2      2580      1359      2630      2654
 -1      7511    3    0    1
 -2      2584      1329      1365      2716
 -1      7512    3    0    1
 -2       167      1394      2662      2683
 -1      7513    3    0    1
 -2      2554      2662      2672      2683
 -1      7514    3    0    1
 -2      1468      1467      2691      1500
 -1      7515    3    0    1
 -2       364      2554      1404      2683
 -1      7516    3    0    1
 -2      1137      1139       637      2317
 -1      7517    3    0    1
 -2       636      1137       637      2317
 -1      7518    3    0    1
 -2       637       629       636      2317
 -1      7519    3    0    1
 -2       637       630       629      2317
 -1      7520    3    0    1
 -2       272       789      1129      2317
 -1      7521    3    0    1
 -2       915      2623      2671      2745
 -1      7522    3    0    1
 -2      1248      2570      2642      2644
 -1      7523    3    0    1
 -2      2448      2698      1448      1342
 -1      7524    3    0    1
 -2       273       272      1129      2317
 -1      7525    3    0    1
 -2      1445      1477      1506      2425
 -1      7526    3    0    1
 -2       789       630      1129      2317
 -1      7527    3    0    1
 -2       629       630       789      2317
 -1      7528    3    0    1
 -2       630      1139      1129      2317
 -1      7529    3    0    1
 -2      1139       630       637      2317
 -1      7530    3    0    1
 -2      1274      2330      2707      2415
 -1      7531    3    0    1
 -2      2633      1247      2679      2392
 -1      7532    3    0    1
 -2      1280      1225      2627      2345
 -1      7533    3    0    1
 -2      2211      2199      2230      2693
 -1      7534    3    0    1
 -2      2618      2651      1469      2708
 -1      7535    3    0    1
 -2      1248      1372      2720      2414
 -1      7536    3    0    1
 -2      2544      2575      2625      2643
 -1      7537    3    0    1
 -2      2593      2529      2649      2692
 -1      7538    3    0    1
 -2      2575      1273      1373      2643
 -1      7539    3    0    1
 -2      2611      2334      2335      2664
 -1      7540    3    0    1
 -2      2261      2544      2625      2643
 -1      7541    3    0    1
 -2      2625      2575      2641      2643
 -1      7542    3    0    1
 -2      2575      1373      2641      2643
 -1      7543    3    0    1
 -2      2643      1373      1435      1441
 -1      7544    3    0    1
 -2      1254      2489      2559      2702
 -1      7545    3    0    1
 -2       351       134      2601      2657
 -1      7546    3    0    1
 -2      1374      2641      1435      1436
 -1      7547    3    0    1
 -2      2598      2260      1386      2365
 -1      7548    3    0    1
 -2      2254      2315      2360      2696
 -1      7549    3    0    1
 -2      2484      2187      2275      2644
 -1      7550    3    0    1
 -2      2473      2484      2570      2644
 -1      7551    3    0    1
 -2      2544      2541      2545      2685
 -1      7552    3    0    1
 -2      2187      2484      2530      2644
 -1      7553    3    0    1
 -2      1248      2187      2530      2644
 -1      7554    3    0    1
 -2      2659      1454      1455      2668
 -1      7555    3    0    1
 -2      2082      2461      2338      2694
 -1      7556    3    0    1
 -2      2473      1248      2530      2644
 -1      7557    3    0    1
 -2      2484      2473      2530      2644
 -1      7558    3    0    1
 -2      2546      2515      2594      2661
 -1      7559    3    0    1
 -2      2615      2517      2675      2694
 -1      7560    3    0    1
 -2      2187      1248      1372      2644
 -1      7561    3    0    1
 -2      2686      2358      1492      2428
 -1      7562    3    0    1
 -2      2542      1292      1342      2698
 -1      7563    3    0    1
 -2      1344      1336      2684      1492
 -1      7564    3    0    1
 -2      1491      1436      2386      2415
 -1      7565    3    0    1
 -2      1327       207      2274      2320
 -1      7566    3    0    1
 -2      1229      1453      2661      2739
 -1      7567    3    0    1
 -2      1044      2266      2273      2725
 -1      7568    3    0    1
 -2      2283      2671      2375      2745
 -1      7569    3    0    1
 -2      2330      1440      2386      2415
 -1      7570    3    0    1
 -2      1307      1243      2642      2412
 -1      7571    3    0    1
 -2      2311      2273      2725      2431
 -1      7572    3    0    1
 -2      2654      1439      2392      2396
 -1      7573    3    0    1
 -2      1273      2643      2650      2743
 -1      7574    3    0    1
 -2      1374      1274      2707      2415
 -1      7575    3    0    1
 -2      2640      1389      2719      2403
 -1      7576    3    0    1
 -2      2654      2630      2673      2681
 -1      7577    3    0    1
 -2      1321      2562      2601      2655
 -1      7578    3    0    1
 -2       352      1425      2681      1480
 -1      7579    3    0    1
 -2      2305      2376      2719      2403
 -1      7580    3    0    1
 -2      1425      2630      2681      1480
 -1      7581    3    0    1
 -2      2598      1283      1386      2655
 -1      7582    3    0    1
 -2      1407      2578      1451      2715
 -1      7583    3    0    1
 -2      1308      1332      2619      2708
 -1      7584    3    0    1
 -2      2522      2566      2620      2677
 -1      7585    3    0    1
 -2      2314      1478      2398      2401
 -1      7586    3    0    1
 -2      1263      1257      2592      2647
 -1      7587    3    0    1
 -2      1228      1263      2592      2647
 -1      7588    3    0    1
 -2      2605      1316      1394      2662
 -1      7589    3    0    1
 -2       934       937      2281      2647
 -1      7590    3    0    1
 -2      2197       934      2281      2647
 -1      7591    3    0    1
 -2      1412      1414      1474      2699
 -1      7592    3    0    1
 -2      1289      2554      1390      2662
 -1      7593    3    0    1
 -2      1580      2471      2515      2647
 -1      7594    3    0    1
 -2      1580       934      2471      2647
 -1      7595    3    0    1
 -2       937       934      1580      2647
 -1      7596    3    0    1
 -2       937      1580      2515      2647
 -1      7597    3    0    1
 -2      1228      2241      2258      2647
 -1      7598    3    0    1
 -2      1263      1228      2258      2647
 -1      7599    3    0    1
 -2      1257      1263      2258      2647
 -1      7600    3    0    1
 -2      1228      2197      2241      2647
 -1      7601    3    0    1
 -2       881      2288      2302      2663
 -1      7602    3    0    1
 -2      2634      2586      1480      2730
 -1      7603    3    0    1
 -2      1331      1497      2412      2445
 -1      7604    3    0    1
 -2      2222      2197      2281      2647
 -1      7605    3    0    1
 -2      2197      2222      2241      2647
 -1      7606    3    0    1
 -2      1229      1257      2241      2647
 -1      7607    3    0    1
 -2      1332      1331      2619      1461
 -1      7608    3    0    1
 -2      2642      1307      2414      2445
 -1      7609    3    0    1
 -2      1228       934      2197      2647
 -1      7610    3    0    1
 -2      2241      1257      2258      2647
 -1      7611    3    0    1
 -2      1372      2642      2414      2445
 -1      7612    3    0    1
 -2      2268      1409      2337      2721
 -1      7613    3    0    1
 -2      2573      2626      2669      2705
 -1      7614    3    0    1
 -2      1338      2251      2254      2360
 -1      7615    3    0    1
 -2      1242      2553      2701      2738
 -1      7616    3    0    1
 -2      2278      1479      2395      2396
 -1      7617    3    0    1
 -2      2558      2604      2614      2670
 -1      7618    3    0    1
 -2      2604      1318      2614      2670
 -1      7619    3    0    1
 -2      2604      2558      2635      2670
 -1      7620    3    0    1
 -2      2212      2278      2679      2392
 -1      7621    3    0    1
 -2      1373      1435      1441      2434
 -1      7622    3    0    1
 -2      1137      2468      2595      2650
 -1      7623    3    0    1
 -2      2468      1137      1234      2650
 -1      7624    3    0    1
 -2      1485      1473      2429      2450
 -1      7625    3    0    1
 -2      1291      1223      2585      2405
 -1      7626    3    0    1
 -2      1475      2387      2440      2441
 -1      7627    3    0    1
 -2      2504      1273      2643      2650
 -1      7628    3    0    1
 -2      2504      1234      1273      2650
 -1      7629    3    0    1
 -2      2468      1234      2504      2650
 -1      7630    3    0    1
 -2      2545      2504      2643      2650
 -1      7631    3    0    1
 -2      1321      1386      1283      2655
 -1      7632    3    0    1
 -2      2468      2504      2545      2650
 -1      7633    3    0    1
 -2      2468      2545      2595      2650
 -1      7634    3    0    1
 -2      2651      2275      1469      2724
 -1      7635    3    0    1
 -2      1234      1137      2317      2650
 -1      7636    3    0    1
 -2      2613      2540      2614      2693
 -1      7637    3    0    1
 -2      1272      2613      2614      2693
 -1      7638    3    0    1
 -2      2211      1011      2217      2693
 -1      7639    3    0    1
 -2      1333      1306      2275      2651
 -1      7640    3    0    1
 -2      1306      2153      2275      2651
 -1      7641    3    0    1
 -2      2199      2211      2217      2693
 -1      7642    3    0    1
 -2      2082      2518      2694      2702
 -1      7643    3    0    1
 -2       213      2581      1473      2715
 -1      7644    3    0    1
 -2      2641      1435      2652      1441
 -1      7645    3    0    1
 -2      2643      2641      2652      1441
 -1      7646    3    0    1
 -2      2641      2643      1435      1441
 -1      7647    3    0    1
 -2      2443      1280      2453      2458
 -1      7648    3    0    1
 -2      1222      2540      1301      2690
 -1      7649    3    0    1
 -2      1302      2374      2431      2451
 -1      7650    3    0    1
 -2       937      1296      2647      2653
 -1      7651    3    0    1
 -2      2515       937      2647      2653
 -1      7652    3    0    1
 -2      1343      2627      2328      2443
 -1      7653    3    0    1
 -2      1296      1377      1378      2653
 -1      7654    3    0    1
 -2      1296      1295      1377      2653
 -1      7655    3    0    1
 -2       937      1295      1296      2653
 -1      7656    3    0    1
 -2      1378      1377      1442      2659
 -1      7657    3    0    1
 -2      2280      2261      2625      2373
 -1      7658    3    0    1
 -2      2630      2673      2681      1480
 -1      7659    3    0    1
 -2      1312      1236      2609      2677
 -1      7660    3    0    1
 -2      2283      1298      2327      2375
 -1      7661    3    0    1
 -2      1443      2659      1454      1455
 -1      7662    3    0    1
 -2      2262      2611      2335      2664
 -1      7663    3    0    1
 -2      1289      1394      2332      2662
 -1      7664    3    0    1
 -2        69      1454      1511      2457
 -1      7665    3    0    1
 -2      1511      1454      2452      2457
 -1      7666    3    0    1
 -2      1445      2674      1505      1506
 -1      7667    3    0    1
 -2      2542      2517      2628      2675
 -1      7668    3    0    1
 -2      2615      2629      1450      2675
 -1      7669    3    0    1
 -2      2615      2616      2629      2675
 -1      7670    3    0    1
 -2      2653      1377      2659      2695
 -1      7671    3    0    1
 -2      1345      2615      1450      2675
 -1      7672    3    0    1
 -2      2654      1426      2681      1512
 -1      7673    3    0    1
 -2      1233      2252      2676      2744
 -1      7674    3    0    1
 -2      2208      2219      2620      2389
 -1      7675    3    0    1
 -2      2228      1475      2387      2440
 -1      7676    3    0    1
 -2      1351      1389      2640      2403
 -1      7677    3    0    1
 -2      2550      1285      1343      2328
 -1      7678    3    0    1
 -2      2570      1248      2642      2720
 -1      7679    3    0    1
 -2      1225      2550      2627      2328
 -1      7680    3    0    1
 -2      1401      1284      2292      2328
 -1      7681    3    0    1
 -2      2580      2524      2633      2654
 -1      7682    3    0    1
 -2      2524      2580      2586      2654
 -1      7683    3    0    1
 -2      2645      2358      2686      2393
 -1      7684    3    0    1
 -2      2562      1283      2598      2655
 -1      7685    3    0    1
 -2      1283      2562      1321      2655
 -1      7686    3    0    1
 -2      2553      1242      2731      2738
 -1      7687    3    0    1
 -2      2701      1486      1507      2404
 -1      7688    3    0    1
 -2      1394      2218      2672      2356
 -1      7689    3    0    1
 -2      2296      1404      2672      2356
 -1      7690    3    0    1
 -2      2591      2339      1238      2682
 -1      7691    3    0    1
 -2       109      1495      1498      2705
 -1      7692    3    0    1
 -2      2263      1286      1385      2329
 -1      7693    3    0    1
 -2      2682      2204      2381      2707
 -1      7694    3    0    1
 -2      2219      2188      2620      2404
 -1      7695    3    0    1
 -2      1257      2592      2594      2678
 -1      7696    3    0    1
 -2       434       376      2646      2357
 -1      7697    3    0    1
 -2      2512      2501      2605      2662
 -1      7698    3    0    1
 -2      2278      1270      2633      2392
 -1      7699    3    0    1
 -2      2647      1229      2661      2739
 -1      7700    3    0    1
 -2      2082      2111      2489      2338
 -1      7701    3    0    1
 -2       434      2602      2698      2646
 -1      7702    3    0    1
 -2      1469      2724      2433      2736
 -1      7703    3    0    1
 -2      1248      1372      2642      2720
 -1      7704    3    0    1
 -2      2528      2529      2547      2723
 -1      7705    3    0    1
 -2      1469      2708      2724      2736
 -1      7706    3    0    1
 -2      2724      1463      2433      2736
 -1      7707    3    0    1
 -2      1831      2483      2623      2383
 -1      7708    3    0    1
 -2      1672      2461      2507      2694
 -1      7709    3    0    1
 -2      2517      2461      2518      2694
 -1      7710    3    0    1
 -2      2507      2469      2338      2694
 -1      7711    3    0    1
 -2      1259      2528      1302      2656
 -1      7712    3    0    1
 -2      2652         1      1456      2399
 -1      7713    3    0    1
 -2       386         1      2652      2399
 -1      7714    3    0    1
 -2      2280      2652      1456      2399
 -1      7715    3    0    1
 -2      1294      1348      1369      2438
 -1      7716    3    0    1
 -2      1307      2412      2414      2445
 -1      7717    3    0    1
 -2      2491      2521      2528      2656
 -1      7718    3    0    1
 -2      2548      2500      2561      2726
 -1      7719    3    0    1
 -2      2649      1368      1482      2723
 -1      7720    3    0    1
 -2      1328      2623      2695      2745
 -1      7721    3    0    1
 -2      1289      1421      2306      2332
 -1      7722    3    0    1
 -2      1280      2627      1496      2458
 -1      7723    3    0    1
 -2      1289      1390      1421      2332
 -1      7724    3    0    1
 -2      1390       167      1421      2332
 -1      7725    3    0    1
 -2      2232      2578      2637      1451
 -1      7726    3    0    1
 -2      2628      2382      2422      2423
 -1      7727    3    0    1
 -2      1312      2609      2660      2677
 -1      7728    3    0    1
 -2      2536      2194      1407      1451
 -1      7729    3    0    1
 -2      2194      2536      2232      1451
 -1      7730    3    0    1
 -2      2578      2536      1407      1451
 -1      7731    3    0    1
 -2      2536      2578      2232      1451
 -1      7732    3    0    1
 -2      1278      2595      1406      2740
 -1      7733    3    0    1
 -2      2422      2698      2628      2423
 -1      7734    3    0    1
 -2      1308      2618      2687      2390
 -1      7735    3    0    1
 -2      2567      1285      1376      2732
 -1      7736    3    0    1
 -2      2691      1468      1500      1501
 -1      7737    3    0    1
 -2       368      1455      1459      2411
 -1      7738    3    0    1
 -2      1328      1367      2599      2671
 -1      7739    3    0    1
 -2      1443      2659      1455      2704
 -1      7740    3    0    1
 -2      1399      2627      2669      2729
 -1      7741    3    0    1
 -2      1119      1232      2532      2720
 -1      7742    3    0    1
 -2      2573      2626      2627      2729
 -1      7743    3    0    1
 -2      2570      2533      2684      2720
 -1      7744    3    0    1
 -2      1243      2570      2642      2720
 -1      7745    3    0    1
 -2       897       721      2299      2658
 -1      7746    3    0    1
 -2      2215       900      2285      2658
 -1      7747    3    0    1
 -2      1232      1336      2684      2720
 -1      7748    3    0    1
 -2       900      1223      2285      2658
 -1      7749    3    0    1
 -2       897       478       721      2658
 -1      7750    3    0    1
 -2      2265      2301      2304      2658
 -1      7751    3    0    1
 -2       721      1380      2299      2658
 -1      7752    3    0    1
 -2       478       897       480      2658
 -1      7753    3    0    1
 -2       477       721       478      2658
 -1      7754    3    0    1
 -2       481       900      2215      2658
 -1      7755    3    0    1
 -2       721       719      1357      2658
 -1      7756    3    0    1
 -2      1380      1357      2265      2658
 -1      7757    3    0    1
 -2       721        47      1380      2658
 -1      7758    3    0    1
 -2       719       477      2215      2658
 -1      7759    3    0    1
 -2       721       477       719      2658
 -1      7760    3    0    1
 -2       477       481      2215      2658
 -1      7761    3    0    1
 -2        47      1357      1380      2658
 -1      7762    3    0    1
 -2        47       721      1357      2658
 -1      7763    3    0    1
 -2      2625      2280      2652      1456
 -1      7764    3    0    1
 -2      2648      2625      2652      1456
 -1      7765    3    0    1
 -2      2641      2648      2652      1456
 -1      7766    3    0    1
 -2      1436      2641      2652      1456
 -1      7767    3    0    1
 -2      2641      1436      2648      1456
 -1      7768    3    0    1
 -2      1238      2682      2381      2707
 -1      7769    3    0    1
 -2      1299      2300      2663      2382
 -1      7770    3    0    1
 -2      1336      1444      2684      1492
 -1      7771    3    0    1
 -2      2684      2674      2686      1492
 -1      7772    3    0    1
 -2      2380      1464      2409      2426
 -1      7773    3    0    1
 -2      2204      2330      2381      2707
 -1      7774    3    0    1
 -2      1378      2653      2659      2661
 -1      7775    3    0    1
 -2      2489      2111      2523      2338
 -1      7776    3    0    1
 -2      2190      1275      2607      2712
 -1      7777    3    0    1
 -2      1225      2550      2328      2696
 -1      7778    3    0    1
 -2      1240      2501      2512      2662
 -1      7779    3    0    1
 -2      1390       167      1394      2662
 -1      7780    3    0    1
 -2      1341      1447      1452      2680
 -1      7781    3    0    1
 -2      1240      2332      1289      2306
 -1      7782    3    0    1
 -2      1262      1227      2606      2349
 -1      7783    3    0    1
 -2      1335      2606      2293      2349
 -1      7784    3    0    1
 -2      2518      1224      2694      2702
 -1      7785    3    0    1
 -2      2611      2622      1457      2695
 -1      7786    3    0    1
 -2      2546      2515      2695      2383
 -1      7787    3    0    1
 -2      2516      2482      2546      2383
 -1      7788    3    0    1
 -2      2622      2546      2653      2695
 -1      7789    3    0    1
 -2      2546      2515      2653      2695
 -1      7790    3    0    1
 -2      1295      1377      2653      2695
 -1      7791    3    0    1
 -2      1302      1293      2656      2723
 -1      7792    3    0    1
 -2      2523      2489      2694      2702
 -1      7793    3    0    1
 -2      1224      2302      2303      2663
 -1      7794    3    0    1
 -2      1224       879      2302      2663
 -1      7795    3    0    1
 -2       881      1254      2288      2663
 -1      7796    3    0    1
 -2      1278      2297      2685      2740
 -1      7797    3    0    1
 -2      1224       879      2663      2702
 -1      7798    3    0    1
 -2      2644      2275      2651      2724
 -1      7799    3    0    1
 -2      1400      1495      1498      2427
 -1      7800    3    0    1
 -2      2619      2551      2651      2724
 -1      7801    3    0    1
 -2      2205      2227      2247      2731
 -1      7802    3    0    1
 -2      2251      2254      2360      2696
 -1      7803    3    0    1
 -2      1335      1262      2606      2349
 -1      7804    3    0    1
 -2      1296      2647      2661      2739
 -1      7805    3    0    1
 -2       435      1461      1463      2445
 -1      7806    3    0    1
 -2      2659      2664      2668      2704
 -1      7807    3    0    1
 -2      1322      2222      2284      2410
 -1      7808    3    0    1
 -2      2281      2222      2647      2739
 -1      7809    3    0    1
 -2      2611      2334      2664      1459
 -1      7810    3    0    1
 -2      2611      1453      2334      1459
 -1      7811    3    0    1
 -2      2622      2659      2661      2704
 -1      7812    3    0    1
 -2      2659      2622      2664      2704
 -1      7813    3    0    1
 -2      2659      2622      2695      2711
 -1      7814    3    0    1
 -2      2443      2453      1401      2458
 -1      7815    3    0    1
 -2      2521      2528      2529      2717
 -1      7816    3    0    1
 -2      2569      2592      2307      2678
 -1      7817    3    0    1
 -2      2539      2164      2287      2732
 -1      7818    3    0    1
 -2      2592      2474      2594      2678
 -1      7819    3    0    1
 -2      1394       167      2356      2683
 -1      7820    3    0    1
 -2      2239      1252      1430      2364
 -1      7821    3    0    1
 -2      1248      2570      2644      2684
 -1      7822    3    0    1
 -2      2530      2473      2572      2684
 -1      7823    3    0    1
 -2      1402      2606      2639      2364
 -1      7824    3    0    1
 -2      1444      2674      2684      1505
 -1      7825    3    0    1
 -2      2319      2377      2380      2720
 -1      7826    3    0    1
 -2      1282      1320      2632      2363
 -1      7827    3    0    1
 -2      2239      1430      2351      2364
 -1      7828    3    0    1
 -2      2639      2606      2351      2364
 -1      7829    3    0    1
 -2      2570      2473      2644      2684
 -1      7830    3    0    1
 -2      2243      1334      1397      2339
 -1      7831    3    0    1
 -2      2335      2664      1459      2341
 -1      7832    3    0    1
 -2      2539      2324      2712      2713
 -1      7833    3    0    1
 -2       438      1462      1469      2708
 -1      7834    3    0    1
 -2      1457      2436      2745      2457
 -1      7835    3    0    1
 -2      1299      2268      2615      2721
 -1      7836    3    0    1
 -2      2618      2551      2651      2708
 -1      7837    3    0    1
 -2       493       488       492      2346
 -1      7838    3    0    1
 -2       488       489       492      2346
 -1      7839    3    0    1
 -2      1236      2566      2609      2677
 -1      7840    3    0    1
 -2       915       918       493      2346
 -1      7841    3    0    1
 -2       588      1064       589      2665
 -1      7842    3    0    1
 -2      1450      2628      2675      2698
 -1      7843    3    0    1
 -2      1064      1230      2590      2665
 -1      7844    3    0    1
 -2       203      1364      2274      2342
 -1      7845    3    0    1
 -2      2226      1252      2239      2364
 -1      7846    3    0    1
 -2      1461      1331      1463      2445
 -1      7847    3    0    1
 -2      1435       386      1441      2434
 -1      7848    3    0    1
 -2      2199      2248      2690      2693
 -1      7849    3    0    1
 -2      1364      1398      2343      2344
 -1      7850    3    0    1
 -2      2274      1364      2343      2344
 -1      7851    3    0    1
 -2      2602      2646      2675      2698
 -1      7852    3    0    1
 -2      1279      2585      2325      2439
 -1      7853    3    0    1
 -2      2312      2205      2731      2440
 -1      7854    3    0    1
 -2      1473      1413      2429      2450
 -1      7855    3    0    1
 -2      2673      2586      2388      2742
 -1      7856    3    0    1
 -2      2700       238      2446      2454
 -1      7857    3    0    1
 -2      1468      1501      2441      2442
 -1      7858    3    0    1
 -2      1507      1468      2441      2442
 -1      7859    3    0    1
 -2      2387      2441      2442      2738
 -1      7860    3    0    1
 -2       589      1066      2342      2665
 -1      7861    3    0    1
 -2      1230      2320      2321      2665
 -1      7862    3    0    1
 -2      1066      1250      2342      2665
 -1      7863    3    0    1
 -2      1230      1064      2320      2665
 -1      7864    3    0    1
 -2       583       589      2342      2665
 -1      7865    3    0    1
 -2       369      1501      1513      2441
 -1      7866    3    0    1
 -2      1064       588      2320      2665
 -1      7867    3    0    1
 -2      1056       583      2342      2665
 -1      7868    3    0    1
 -2       588       582      2320      2665
 -1      7869    3    0    1
 -2       583      2320       768       582
 -1      7870    3    0    1
 -2      1056      2320       583      2665
 -1      7871    3    0    1
 -2      2673      2402      2730      2742
 -1      7872    3    0    1
 -2      2266      1363      2311      2398
 -1      7873    3    0    1
 -2       493       492       915      2346
 -1      7874    3    0    1
 -2      1394      2605      2662      2672
 -1      7875    3    0    1
 -2      1393      2223      1404      2672
 -1      7876    3    0    1
 -2      2587      1393      1404      2672
 -1      7877    3    0    1
 -2      2346       489       905       488
 -1      7878    3    0    1
 -2       905      2295       489      2346
 -1      7879    3    0    1
 -2        63      1362      2283      2346
 -1      7880    3    0    1
 -2       492       489      2295      2346
 -1      7881    3    0    1
 -2       915       492      2295      2346
 -1      7882    3    0    1
 -2      2587      2223      1393      2672
 -1      7883    3    0    1
 -2      1385      2263      2329      2355
 -1      7884    3    0    1
 -2       991      1271      2612      2709
 -1      7885    3    0    1
 -2      2619      1332      1462      2708
 -1      7886    3    0    1
 -2      2236      2214      2263      2709
 -1      7887    3    0    1
 -2      2263      2276      2329      2709
 -1      7888    3    0    1
 -2      2214      2236      2253      2709
 -1      7889    3    0    1
 -2      2551      2619      2651      2708
 -1      7890    3    0    1
 -2      2400      1433      2432      2434
 -1      7891    3    0    1
 -2      1332      1308      1469      2708
 -1      7892    3    0    1
 -2      1462      1332      1469      2708
 -1      7893    3    0    1
 -2      2324      1498      2712      2417
 -1      7894    3    0    1
 -2       368        69      2341      2668
 -1      7895    3    0    1
 -2        69       368      1455      2668
 -1      7896    3    0    1
 -2      1454        69      1455      2668
 -1      7897    3    0    1
 -2      2538      1402      2639      2712
 -1      7898    3    0    1
 -2      2538      2463      2607      2712
 -1      7899    3    0    1
 -2      2335      2262      2664      1470
 -1      7900    3    0    1
 -2      2190      2539      2324      2712
 -1      7901    3    0    1
 -2      2509      2463      2538      2712
 -1      7902    3    0    1
 -2      2262      2611      2664      1470
 -1      7903    3    0    1
 -2      2611      2262      1457      1470
 -1      7904    3    0    1
 -2      2622      2659      2664      2711
 -1      7905    3    0    1
 -2      1275      2538      2607      2712
 -1      7906    3    0    1
 -2      2463      2539      2607      2712
 -1      7907    3    0    1
 -2      1328      2336      2671      2375
 -1      7908    3    0    1
 -2      2336      2283      2671      2375
 -1      7909    3    0    1
 -2      1384      2635      1423      2670
 -1      7910    3    0    1
 -2      1384      1423      1431      2670
 -1      7911    3    0    1
 -2      1431      2635      2666      2670
 -1      7912    3    0    1
 -2      2603      1431      2666      2670
 -1      7913    3    0    1
 -2      2635      2603      2666      2670
 -1      7914    3    0    1
 -2       363      2635      1431      2670
 -1      7915    3    0    1
 -2      2635       363      1423      2670
 -1      7916    3    0    1
 -2      1423       363      1431      2670
 -1      7917    3    0    1
 -2      1418        70      1438      2348
 -1      7918    3    0    1
 -2      2283      2295      2346      2671
 -1      7919    3    0    1
 -2      1262      1335      1415      2349
 -1      7920    3    0    1
 -2      1360      1405      2293      2349
 -1      7921    3    0    1
 -2      1405      1335      2293      2349
 -1      7922    3    0    1
 -2      1335      1405      1415      2349
 -1      7923    3    0    1
 -2      1355      1251      2288      2350
 -1      7924    3    0    1
 -2      1254      1355      2288      2350
 -1      7925    3    0    1
 -2      1469      2275      2372      2724
 -1      7926    3    0    1
 -2      2530      2572      2645      2684
 -1      7927    3    0    1
 -2      1226      1281      2639      2351
 -1      7928    3    0    1
 -2      2533      2473      2570      2684
 -1      7929    3    0    1
 -2      2572      2533      2624      2684
 -1      7930    3    0    1
 -2      1248      2530      1344      2684
 -1      7931    3    0    1
 -2      2099      2469      2507      2721
 -1      7932    3    0    1
 -2      2239      1226      2606      2351
 -1      7933    3    0    1
 -2      2606      1226      2639      2351
 -1      7934    3    0    1
 -2      2624      1336      1444      2684
 -1      7935    3    0    1
 -2      2645      2624      2674      2684
 -1      7936    3    0    1
 -2      1418      1352      2348      2354
 -1      7937    3    0    1
 -2      2586      2673      2730      2742
 -1      7938    3    0    1
 -2      1129       273      2317      2352
 -1      7939    3    0    1
 -2      1463      2644      2706      2724
 -1      7940    3    0    1
 -2      2317      1353      2322      2352
 -1      7941    3    0    1
 -2       272      1353      2317      2352
 -1      7942    3    0    1
 -2      1264      2252      1466      2352
 -1      7943    3    0    1
 -2      1264       273      2252      2352
 -1      7944    3    0    1
 -2       273      1129      2252      2352
 -1      7945    3    0    1
 -2      2599      1246      2623      2671
 -1      7946    3    0    1
 -2      1328      2599      2623      2671
 -1      7947    3    0    1
 -2       915       918      2346      2671
 -1      7948    3    0    1
 -2       918       915      2623      2671
 -1      7949    3    0    1
 -2      2599      1367      1419      2671
 -1      7950    3    0    1
 -2      2348      2336      2354      2671
 -1      7951    3    0    1
 -2      2295       915      2346      2671
 -1      7952    3    0    1
 -2      1352      1304      2636      2671
 -1      7953    3    0    1
 -2      2452      1442      2745      2457
 -1      7954    3    0    1
 -2      2599      1419      2636      2671
 -1      7955    3    0    1
 -2      1304      2599      2636      2671
 -1      7956    3    0    1
 -2      1419      2348      2354      2671
 -1      7957    3    0    1
 -2      1352      1419      2354      2671
 -1      7958    3    0    1
 -2      1419      1352      2636      2671
 -1      7959    3    0    1
 -2      1246      2333      2346      2671
 -1      7960    3    0    1
 -2      2254      2292      2328      2696
 -1      7961    3    0    1
 -2      2283      2333      2336      2671
 -1      7962    3    0    1
 -2      1367      1328      2336      2671
 -1      7963    3    0    1
 -2       918      1246      2346      2671
 -1      7964    3    0    1
 -2      1246      1304      2333      2671
 -1      7965    3    0    1
 -2      2333      1304      2354      2671
 -1      7966    3    0    1
 -2      1514      1401      2453      2458
 -1      7967    3    0    1
 -2      1367      2336      2348      2671
 -1      7968    3    0    1
 -2      1304      1352      2354      2671
 -1      7969    3    0    1
 -2      1419      1367      2348      2671
 -1      7970    3    0    1
 -2      2574      2581      1414      2699
 -1      7971    3    0    1
 -2      2624      1444      1445      2674
 -1      7972    3    0    1
 -2      2628      1345      1450      2675
 -1      7973    3    0    1
 -2      2542      2602      2646      2675
 -1      7974    3    0    1
 -2      2285      1371      2325      2405
 -1      7975    3    0    1
 -2      2517      2542      2616      2675
 -1      7976    3    0    1
 -2      2615      2517      2616      2675
 -1      7977    3    0    1
 -2       377      1477      1506      2735
 -1      7978    3    0    1
 -2      2528      2189      2200      2378
 -1      7979    3    0    1
 -2      1467      1313      1468      2691
 -1      7980    3    0    1
 -2      2493      1864      2543      2732
 -1      7981    3    0    1
 -2      2237      2225      2243      2682
 -1      7982    3    0    1
 -2       862      2201      2237      2682
 -1      7983    3    0    1
 -2       862       860      2534      2682
 -1      7984    3    0    1
 -2      2361      1420      2363      2391
 -1      7985    3    0    1
 -2      1139      1129      2317      2676
 -1      7986    3    0    1
 -2      1137      2317      2650      2676
 -1      7987    3    0    1
 -2      1139      1137      2650      2676
 -1      7988    3    0    1
 -2      1137      1139      2317      2676
 -1      7989    3    0    1
 -2      2551      2619      2644      2724
 -1      7990    3    0    1
 -2      1233      1139      2595      2676
 -1      7991    3    0    1
 -2      2595      1139      2650      2676
 -1      7992    3    0    1
 -2      2353      1466      2424      2425
 -1      7993    3    0    1
 -2      1278      2595      2650      2676
 -1      7994    3    0    1
 -2      1368      1382      2723      2456
 -1      7995    3    0    1
 -2      1129      1139      2252      2676
 -1      7996    3    0    1
 -2      1139      1233      2252      2676
 -1      7997    3    0    1
 -2      1382      1510      2451      2456
 -1      7998    3    0    1
 -2      2529      2547      2649      2692
 -1      7999    3    0    1
 -2      1249      1293      2725      2431
 -1      8000    3    0    1
 -2      2257      2569      2307      2678
 -1      8001    3    0    1
 -2      2594      2054      2310      2678
 -1      8002    3    0    1
 -2      2256      2168      2607      2678
 -1      8003    3    0    1
 -2      2531      2256      2607      2678
 -1      8004    3    0    1
 -2      1229      2594      2310      2678
 -1      8005    3    0    1
 -2      1229      1257      2594      2678
 -1      8006    3    0    1
 -2      2195      2307      2310      2678
 -1      8007    3    0    1
 -2      2195      2257      2307      2678
 -1      8008    3    0    1
 -2      2168      2195      2310      2678
 -1      8009    3    0    1
 -2      2195      2168      2256      2678
 -1      8010    3    0    1
 -2      2307      1257      2310      2678
 -1      8011    3    0    1
 -2      2195      2256      2257      2678
 -1      8012    3    0    1
 -2      2054      2168      2310      2678
 -1      8013    3    0    1
 -2      1257      1229      2310      2678
 -1      8014    3    0    1
 -2      2548      1316      2662      2679
 -1      8015    3    0    1
 -2      1240      2548      2662      2679
 -1      8016    3    0    1
 -2      1394      2332      2662      2679
 -1      8017    3    0    1
 -2      1316      1394      2662      2679
 -1      8018    3    0    1
 -2      2332      1240      2662      2679
 -1      8019    3    0    1
 -2      2252      1466      2352      2424
 -1      8020    3    0    1
 -2      1270      2277      2278      2679
 -1      8021    3    0    1
 -2      1027      1219      2213      2679
 -1      8022    3    0    1
 -2      1316      1247      2267      2679
 -1      8023    3    0    1
 -2      1270      1025      2277      2679
 -1      8024    3    0    1
 -2      2213      2277      1027      2679
 -1      8025    3    0    1
 -2      1316      2267      2279      2679
 -1      8026    3    0    1
 -2      2213      1219      2306      2679
 -1      8027    3    0    1
 -2      1219      1240      2306      2679
 -1      8028    3    0    1
 -2      1316      2279      2332      2679
 -1      8029    3    0    1
 -2      1394      1316      2332      2679
 -1      8030    3    0    1
 -2      1494      2669      1495      2718
 -1      8031    3    0    1
 -2      1388      1383      1422      2362
 -1      8032    3    0    1
 -2      1308      1332      1469      2416
 -1      8033    3    0    1
 -2      2329      1385      2355      2362
 -1      8034    3    0    1
 -2       350      1388      1422      2362
 -1      8035    3    0    1
 -2      1338      2254      2315      2360
 -1      8036    3    0    1
 -2      1385      1427      2355      2362
 -1      8037    3    0    1
 -2      1404      2587      2672      2683
 -1      8038    3    0    1
 -2      1317      1383      1388      2362
 -1      8039    3    0    1
 -2      2554       364      1404      1391
 -1      8040    3    0    1
 -2       350      1422      1427      2362
 -1      8041    3    0    1
 -2      1383      1317      2355      2362
 -1      8042    3    0    1
 -2      1422      1383      1427      2362
 -1      8043    3    0    1
 -2      1235       862      2534      2682
 -1      8044    3    0    1
 -2      2382      1487      2422      2423
 -1      8045    3    0    1
 -2      2534       860      2591      2682
 -1      8046    3    0    1
 -2       860      1255      2591      2682
 -1      8047    3    0    1
 -2      2591      1255      2340      2682
 -1      8048    3    0    1
 -2      2339      2591      2340      2682
 -1      8049    3    0    1
 -2      1308      2551      2618      2708
 -1      8050    3    0    1
 -2      1487      2303      2382      2422
 -1      8051    3    0    1
 -2      1255      2237      2243      2682
 -1      8052    3    0    1
 -2      2097      1708      2115      2734
 -1      8053    3    0    1
 -2      2201      1235      2204      2682
 -1      8054    3    0    1
 -2      1255       860      2237      2682
 -1      8055    3    0    1
 -2      1255      2243      2340      2682
 -1      8056    3    0    1
 -2       862      1235      2201      2682
 -1      8057    3    0    1
 -2      1379      1320      1410      2391
 -1      8058    3    0    1
 -2      2300      1403      2303      2382
 -1      8059    3    0    1
 -2      2178      2530      2685      2740
 -1      8060    3    0    1
 -2      1425      1358      1480      2401
 -1      8061    3    0    1
 -2      2473      1248      2644      2684
 -1      8062    3    0    1
 -2      1320      1379      2632      2391
 -1      8063    3    0    1
 -2      2624      1444      2674      2684
 -1      8064    3    0    1
 -2      1344      2530      2238      2684
 -1      8065    3    0    1
 -2      2238      2530      2645      2684
 -1      8066    3    0    1
 -2      2632      1379      2696      2391
 -1      8067    3    0    1
 -2      1326      2269      2313      2687
 -1      8068    3    0    1
 -2      2204      2225      2682      2381
 -1      8069    3    0    1
 -2      1376      2361      2696      2391
 -1      8070    3    0    1
 -2      2225      2339      2682      2381
 -1      8071    3    0    1
 -2      2261      2544      2643      2685
 -1      8072    3    0    1
 -2      1375      2261      2643      2685
 -1      8073    3    0    1
 -2      2141      2178      2530      2685
 -1      8074    3    0    1
 -2      2431      2723      2451      2456
 -1      8075    3    0    1
 -2      1278      2141      2244      2685
 -1      8076    3    0    1
 -2      1278      2244      1375      2685
 -1      8077    3    0    1
 -2      1293      1368      2723      2456
 -1      8078    3    0    1
 -2      2141      1278      2297      2685
 -1      8079    3    0    1
 -2      1375      2244      2261      2685
 -1      8080    3    0    1
 -2      2178      2141      2297      2685
 -1      8081    3    0    1
 -2      1101      1103      2269      2687
 -1      8082    3    0    1
 -2      1356      2273      2311      2431
 -1      8083    3    0    1
 -2      2207       778      1326      2687
 -1      8084    3    0    1
 -2      1326       778      2269      2687
 -1      8085    3    0    1
 -2      1244      1308      2618      2687
 -1      8086    3    0    1
 -2      2617      1244      2618      2687
 -1      8087    3    0    1
 -2      1306      2617      2618      2687
 -1      8088    3    0    1
 -2      1101      1244      2617      2687
 -1      8089    3    0    1
 -2      2566      1101      2617      2687
 -1      8090    3    0    1
 -2      1103      1101      2566      2687
 -1      8091    3    0    1
 -2      1236      1103      2566      2687
 -1      8092    3    0    1
 -2      2269      1236      2272      2687
 -1      8093    3    0    1
 -2      1244      2207      2323      2687
 -1      8094    3    0    1
 -2       351      1379      1410      2391
 -1      8095    3    0    1
 -2      1244      1101      2207      2687
 -1      8096    3    0    1
 -2      1278      2676      2424      2744
 -1      8097    3    0    1
 -2      1101       778      2207      2687
 -1      8098    3    0    1
 -2      1103      1236      2269      2687
 -1      8099    3    0    1
 -2      1308      1244      2323      2687
 -1      8100    3    0    1
 -2      1506      1445      2425      2449
 -1      8101    3    0    1
 -2      2352      1278      2676      2424
 -1      8102    3    0    1
 -2      1329      2559      2591      2716
 -1      8103    3    0    1
 -2      2560      2559      2584      2716
 -1      8104    3    0    1
 -2      1358      2634      1425      1480
 -1      8105    3    0    1
 -2      1469       438      2708      2736
 -1      8106    3    0    1
 -2      2565      2547      2649      2723
 -1      8107    3    0    1
 -2      2642      1372      1463      2445
 -1      8108    3    0    1
 -2      2630      2586      2673      1480
 -1      8109    3    0    1
 -2      2586      2630      2634      1480
 -1      8110    3    0    1
 -2      1044      1249      2596      2725
 -1      8111    3    0    1
 -2       438      1462      2708      2736
 -1      8112    3    0    1
 -2      2249      1268      2312      2367
 -1      8113    3    0    1
 -2      1261      2574      1414      2699
 -1      8114    3    0    1
 -2      2578      2574      2621      2699
 -1      8115    3    0    1
 -2      2621      1305      1412      2699
 -1      8116    3    0    1
 -2      1432      2249      2316      2367
 -1      8117    3    0    1
 -2      1268      2249      1432      2367
 -1      8118    3    0    1
 -2      2468      2056      2541      2689
 -1      8119    3    0    1
 -2      2056      2468      2534      2689
 -1      8120    3    0    1
 -2      2468      2541      2544      2689
 -1      8121    3    0    1
 -2      2521      2529      2593      2717
 -1      8122    3    0    1
 -2      2665      2590      2737      2741
 -1      8123    3    0    1
 -2      1409      1330      2368      1509
 -1      8124    3    0    1
 -2      2541      2192      2250      2689
 -1      8125    3    0    1
 -2      2504      2468      2544      2689
 -1      8126    3    0    1
 -2      2468      2504      2534      2689
 -1      8127    3    0    1
 -2      2544      2541      2250      2689
 -1      8128    3    0    1
 -2      2544      2250      1392      2689
 -1      8129    3    0    1
 -2      2544      1392      2648      2689
 -1      8130    3    0    1
 -2      2504      2544      2648      2689
 -1      8131    3    0    1
 -2      2534      2504      2648      2689
 -1      8132    3    0    1
 -2      1238      2534      1392      2689
 -1      8133    3    0    1
 -2      1392      2534      2648      2689
 -1      8134    3    0    1
 -2      2205      2247      2249      2731
 -1      8135    3    0    1
 -2      1238      2192      2196      2689
 -1      8136    3    0    1
 -2      2192      1238      2250      2689
 -1      8137    3    0    1
 -2      2250      1238      1392      2689
 -1      8138    3    0    1
 -2      2628      1224      2663      2702
 -1      8139    3    0    1
 -2      2230      2248      2271      2690
 -1      8140    3    0    1
 -2      2708      2619      2724      2736
 -1      8141    3    0    1
 -2      2540      1220      2579      2690
 -1      8142    3    0    1
 -2      1220      1241      2579      2690
 -1      8143    3    0    1
 -2      1343      2627      2443      2458
 -1      8144    3    0    1
 -2      2643      2261      1441      2373
 -1      8145    3    0    1
 -2      2089      2515      2546      2383
 -1      8146    3    0    1
 -2      2652      2625      1441      2373
 -1      8147    3    0    1
 -2      2625      2261      2643      2373
 -1      8148    3    0    1
 -2      1293      1368      2649      2723
 -1      8149    3    0    1
 -2      1409      1299      2663      2702
 -1      8150    3    0    1
 -2      1306      2313      2687      2390
 -1      8151    3    0    1
 -2      1301      2579      1393      2690
 -1      8152    3    0    1
 -2      2248      1350      2271      2690
 -1      8153    3    0    1
 -2      2631      2523      2694      2702
 -1      8154    3    0    1
 -2      1393      1290      2326      2690
 -1      8155    3    0    1
 -2      1429      1393      2326      2690
 -1      8156    3    0    1
 -2      1241      1290      2579      2690
 -1      8157    3    0    1
 -2      2579      1290      1393      2690
 -1      8158    3    0    1
 -2      1299      1409      2631      2702
 -1      8159    3    0    1
 -2      1220      2230      2271      2690
 -1      8160    3    0    1
 -2      1220      2211      2230      2690
 -1      8161    3    0    1
 -2      1220      1009      2211      2690
 -1      8162    3    0    1
 -2      2625      2643      1441      2373
 -1      8163    3    0    1
 -2      1222      1301      2248      2690
 -1      8164    3    0    1
 -2      1241      1220      2271      2690
 -1      8165    3    0    1
 -2      1241      2271      2326      2690
 -1      8166    3    0    1
 -2      1423      1384      1431      2394
 -1      8167    3    0    1
 -2      2248      1301      1393      2690
 -1      8168    3    0    1
 -2      1290      1241      2326      2690
 -1      8169    3    0    1
 -2      2271      1350      2326      2690
 -1      8170    3    0    1
 -2      2248      1393      1429      2690
 -1      8171    3    0    1
 -2      1350      1429      2326      2690
 -1      8172    3    0    1
 -2      1350      2248      1429      2690
 -1      8173    3    0    1
 -2      1439      2586      2654      2726
 -1      8174    3    0    1
 -2      1348      2565       204      2206
 -1      8175    3    0    1
 -2      2565      1348       204      2692
 -1      8176    3    0    1
 -2      1461       435      2706      2736
 -1      8177    3    0    1
 -2      2524      1766      2633      2726
 -1      8178    3    0    1
 -2      1358      1437      1480      2401
 -1      8179    3    0    1
 -2       352      1425      1480      2401
 -1      8180    3    0    1
 -2      2230      2199      2690      2693
 -1      8181    3    0    1
 -2      2211      2230      2690      2693
 -1      8182    3    0    1
 -2      1009      2211      2690      2693
 -1      8183    3    0    1
 -2      1009      1011      2211      2693
 -1      8184    3    0    1
 -2      1011      1009      2613      2693
 -1      8185    3    0    1
 -2      2282      2286      2347      2693
 -1      8186    3    0    1
 -2      2540      1009      2690      2693
 -1      8187    3    0    1
 -2      1009      2540      2613      2693
 -1      8188    3    0    1
 -2      1222      2540      2690      2693
 -1      8189    3    0    1
 -2      2540      1222      2614      2693
 -1      8190    3    0    1
 -2      1222      1349      2614      2693
 -1      8191    3    0    1
 -2      2248      1222      2690      2693
 -1      8192    3    0    1
 -2      2347      2286      2366      2693
 -1      8193    3    0    1
 -2      1318      1349      2366      2693
 -1      8194    3    0    1
 -2      1349      1318      2614      2693
 -1      8195    3    0    1
 -2      1349      2347      2366      2693
 -1      8196    3    0    1
 -2      2217      1272      2220      2693
 -1      8197    3    0    1
 -2      1011      1272      2217      2693
 -1      8198    3    0    1
 -2      2220      1272      2286      2693
 -1      8199    3    0    1
 -2      1272      1318      2286      2693
 -1      8200    3    0    1
 -2      2248      2199      2282      2693
 -1      8201    3    0    1
 -2      2286      1318      2366      2693
 -1      8202    3    0    1
 -2      1349      1222      2282      2693
 -1      8203    3    0    1
 -2      1222      2248      2282      2693
 -1      8204    3    0    1
 -2      1349      2282      2347      2693
 -1      8205    3    0    1
 -2      2461      2517      2576      2694
 -1      8206    3    0    1
 -2      2507      2461      2576      2694
 -1      8207    3    0    1
 -2      2576      2517      2615      2694
 -1      8208    3    0    1
 -2      2507      2576      2615      2694
 -1      8209    3    0    1
 -2      2517      1224      2628      2694
 -1      8210    3    0    1
 -2      1224      2517      2518      2694
 -1      8211    3    0    1
 -2      2483      2516      2623      2383
 -1      8212    3    0    1
 -2      2461      2082      2518      2694
 -1      8213    3    0    1
 -2      1409      2337      2721      1509
 -1      8214    3    0    1
 -2      1384      1408      1431      2394
 -1      8215    3    0    1
 -2      2515      2623      2695      2383
 -1      8216    3    0    1
 -2      2081      2482      2516      2383
 -1      8217    3    0    1
 -2      1345      2615      2628      2694
 -1      8218    3    0    1
 -2      1299      1345      2628      2694
 -1      8219    3    0    1
 -2      1345      1299      2615      2694
 -1      8220    3    0    1
 -2      2081      2089      2482      2383
 -1      8221    3    0    1
 -2      2482      2479      2546      2383
 -1      8222    3    0    1
 -2      1442      1470      2745      2457
 -1      8223    3    0    1
 -2      2599      2516      2695      2383
 -1      8224    3    0    1
 -2      2089      2479      2482      2383
 -1      8225    3    0    1
 -2      2623      2599      2695      2383
 -1      8226    3    0    1
 -2      1377      2659      2695      2711
 -1      8227    3    0    1
 -2      2516      2599      2623      2383
 -1      8228    3    0    1
 -2      2360      2361      2363      2696
 -1      8229    3    0    1
 -2       973       975      2221      2696
 -1      8230    3    0    1
 -2       973      2221      2251      2696
 -1      8231    3    0    1
 -2      1217      1282      2567      2696
 -1      8232    3    0    1
 -2      1376      2567      2632      2696
 -1      8233    3    0    1
 -2      2567      1282      2632      2696
 -1      8234    3    0    1
 -2      1444      1445      2674      1505
 -1      8235    3    0    1
 -2      1379      1376      2632      2696
 -1      8236    3    0    1
 -2      1354      2582      2640      2719
 -1      8237    3    0    1
 -2      1217       973      2360      2696
 -1      8238    3    0    1
 -2       973      2251      2360      2696
 -1      8239    3    0    1
 -2      2315      2254      2328      2696
 -1      8240    3    0    1
 -2      1285      2315      2328      2696
 -1      8241    3    0    1
 -2       975      1225      2292      2696
 -1      8242    3    0    1
 -2      1217      2360      2363      2696
 -1      8243    3    0    1
 -2      1285      1376      2315      2696
 -1      8244    3    0    1
 -2      2315      1376      2361      2696
 -1      8245    3    0    1
 -2      2221       975      2292      2696
 -1      8246    3    0    1
 -2      1282      1217      2363      2696
 -1      8247    3    0    1
 -2      2323      1308      1469      2416
 -1      8248    3    0    1
 -2      2602       434      2698      1448
 -1      8249    3    0    1
 -2       434      1448      1450      2698
 -1      8250    3    0    1
 -2      2646       434      1450      2698
 -1      8251    3    0    1
 -2      1261      2316      2714      2408
 -1      8252    3    0    1
 -2      1401      2328      2345      2443
 -1      8253    3    0    1
 -2      2585      2285      2325      2405
 -1      8254    3    0    1
 -2      1501      1468      1507      2727
 -1      8255    3    0    1
 -2      1474       354      1481      2379
 -1      8256    3    0    1
 -2      2490      2097      2183      2728
 -1      8257    3    0    1
 -2      1412       354      2637      2699
 -1      8258    3    0    1
 -2      2578      1412      2637      2699
 -1      8259    3    0    1
 -2      2578      2621      1412      2699
 -1      8260    3    0    1
 -2      2581      2578      2637      2699
 -1      8261    3    0    1
 -2      2574      1260      1413      2715
 -1      8262    3    0    1
 -2      1261      2552      2574      2699
 -1      8263    3    0    1
 -2      2574      2552      2621      2699
 -1      8264    3    0    1
 -2      1864      2550      2567      2732
 -1      8265    3    0    1
 -2      2691      1468      1501      2727
 -1      8266    3    0    1
 -2      2287      2359      2713      2729
 -1      8267    3    0    1
 -2      2705      2669      2713      2718
 -1      8268    3    0    1
 -2      2620      2660      2688      2701
 -1      8269    3    0    1
 -2      1495      2669      2705      2718
 -1      8270    3    0    1
 -2      1481      1474      2379      2408
 -1      8271    3    0    1
 -2      1312      2660      1467      2733
 -1      8272    3    0    1
 -2      2510      2491      2203      2730
 -1      8273    3    0    1
 -2        11        20      2710      2419
 -1      8274    3    0    1
 -2      2550      1285      2567      2732
 -1      8275    3    0    1
 -2      2669      2573      2713      2729
 -1      8276    3    0    1
 -2      1382      1368      1482      2456
 -1      8277    3    0    1
 -2      2595      2572      2624      2735
 -1      8278    3    0    1
 -2      1343      2627      1496      2729
 -1      8279    3    0    1
 -2      2626      2573      2669      2729
 -1      8280    3    0    1
 -2      2645      2684      2686      1492
 -1      8281    3    0    1
 -2      2358      2645      2686      1492
 -1      8282    3    0    1
 -2      2238      1344      2684      1492
 -1      8283    3    0    1
 -2      2645      2238      2684      1492
 -1      8284    3    0    1
 -2      2238      2645      2358      1492
 -1      8285    3    0    1
 -2      1274      1235      2648      2707
 -1      8286    3    0    1
 -2      1238      2534      2682      2707
 -1      8287    3    0    1
 -2      1276      2204      1440      2381
 -1      8288    3    0    1
 -2      1440      2204      2330      2381
 -1      8289    3    0    1
 -2      2534      1392      2648      2707
 -1      8290    3    0    1
 -2      2648      1392      1456      2707
 -1      8291    3    0    1
 -2      2303      1403      1487      2382
 -1      8292    3    0    1
 -2      2618      1333      2687      2390
 -1      8293    3    0    1
 -2      2313      2207      2687      2390
 -1      8294    3    0    1
 -2       881      1992      2489      2702
 -1      8295    3    0    1
 -2       881       879      1992      2702
 -1      8296    3    0    1
 -2      1992       879      2518      2702
 -1      8297    3    0    1
 -2      2489      2523      2559      2702
 -1      8298    3    0    1
 -2      2559      2523      2631      2702
 -1      8299    3    0    1
 -2      1254      2559      1330      2702
 -1      8300    3    0    1
 -2      1330      2559      2631      2702
 -1      8301    3    0    1
 -2      2663      1254      2350      2702
 -1      8302    3    0    1
 -2      2350      1254      2368      2702
 -1      8303    3    0    1
 -2      1409      2663      2350      2702
 -1      8304    3    0    1
 -2      1330      1409      2368      2702
 -1      8305    3    0    1
 -2      1254      1330      2368      2702
 -1      8306    3    0    1
 -2      2489      2694      2082      2338
 -1      8307    3    0    1
 -2      2694      2489      2082      2702
 -1      8308    3    0    1
 -2      2082      1992      2518      2702
 -1      8309    3    0    1
 -2      1992      2082      2489      2702
 -1      8310    3    0    1
 -2      1409      2350      2368      2702
 -1      8311    3    0    1
 -2      1479      2278      2392      2396
 -1      8312    3    0    1
 -2      1443      1378      2659      2704
 -1      8313    3    0    1
 -2      2284      2385      2410      2739
 -1      8314    3    0    1
 -2      1455      2659      2668      2704
 -1      8315    3    0    1
 -2      2611      2622      2661      2704
 -1      8316    3    0    1
 -2      2622      2611      2664      2704
 -1      8317    3    0    1
 -2      2664      2611      1459      2704
 -1      8318    3    0    1
 -2       368      1455      2668      2704
 -1      8319    3    0    1
 -2      1455       368      1459      2704
 -1      8320    3    0    1
 -2      1459       368      2668      2704
 -1      8321    3    0    1
 -2      1459      2661      2611      1453
 -1      8322    3    0    1
 -2      2661      1459      2611      2704
 -1      8323    3    0    1
 -2      2688      2620      1507      2404
 -1      8324    3    0    1
 -2      2686       377      2393      2428
 -1      8325    3    0    1
 -2      2424      2353      2425      2744
 -1      8326    3    0    1
 -2      1515      2351      2413      2427
 -1      8327    3    0    1
 -2      2639      1281      1498      2427
 -1      8328    3    0    1
 -2      2351      2639      2364      2413
 -1      8329    3    0    1
 -2      2627      1280      2443      2458
 -1      8330    3    0    1
 -2      1259      2528      2656      2730
 -1      8331    3    0    1
 -2      1399      1280      2627      1496
 -1      8332    3    0    1
 -2      1493      1455      2411      2444
 -1      8333    3    0    1
 -2      2642      1463      2706      2445
 -1      8334    3    0    1
 -2      1307      2642      2706      2445
 -1      8335    3    0    1
 -2      2642      1243      2720      2412
 -1      8336    3    0    1
 -2      1307      2551      1331      2706
 -1      8337    3    0    1
 -2      2688      2700      1503      2446
 -1      8338    3    0    1
 -2      2639      1402      2364      2413
 -1      8339    3    0    1
 -2      1430      2351      2364      2413
 -1      8340    3    0    1
 -2      1456      2415      1436      1374
 -1      8341    3    0    1
 -2      1224      1292      2663      2422
 -1      8342    3    0    1
 -2      1379      1376      2696      2391
 -1      8343    3    0    1
 -2      1332      1462      1469      2416
 -1      8344    3    0    1
 -2      2323      1469      2390      2416
 -1      8345    3    0    1
 -2      1436         1      1491      2386
 -1      8346    3    0    1
 -2      2303      1224      2663      2422
 -1      8347    3    0    1
 -2      1499      2323      2390      2416
 -1      8348    3    0    1
 -2      1374      2648      1456      2707
 -1      8349    3    0    1
 -2      1374      1274      2648      2707
 -1      8350    3    0    1
 -2      1392      1238      2381      2707
 -1      8351    3    0    1
 -2      1392      2381      2386      2707
 -1      8352    3    0    1
 -2      1235      1274      2330      2707
 -1      8353    3    0    1
 -2      2204      1235      2330      2707
 -1      8354    3    0    1
 -2      1456      1392      2386      2707
 -1      8355    3    0    1
 -2      2563      1258      2233      2709
 -1      8356    3    0    1
 -2      1218      2563      2233      2709
 -1      8357    3    0    1
 -2      1218      2233      2253      2709
 -1      8358    3    0    1
 -2      2233      2214      2253      2709
 -1      8359    3    0    1
 -2      1319      1258      2612      2709
 -1      8360    3    0    1
 -2      1271      1317      2612      2709
 -1      8361    3    0    1
 -2      1317      2355      2362      2709
 -1      8362    3    0    1
 -2      2355      2329      2362      2709
 -1      8363    3    0    1
 -2      2612      1317      2667      2709
 -1      8364    3    0    1
 -2      1319      2612      2667      2709
 -1      8365    3    0    1
 -2      1388      1317      2362      2709
 -1      8366    3    0    1
 -2      1388      1319      2667      2709
 -1      8367    3    0    1
 -2      1317      1388      2667      2709
 -1      8368    3    0    1
 -2      1271      2236      2263      2709
 -1      8369    3    0    1
 -2      1271       991      2236      2709
 -1      8370    3    0    1
 -2      1271      2263      2355      2709
 -1      8371    3    0    1
 -2       993      1218      2253      2709
 -1      8372    3    0    1
 -2      1317      1271      2355      2709
 -1      8373    3    0    1
 -2      2233      1258      2276      2709
 -1      8374    3    0    1
 -2      2214      2233      2276      2709
 -1      8375    3    0    1
 -2      2276      1319      2329      2709
 -1      8376    3    0    1
 -2      1258      1319      2276      2709
 -1      8377    3    0    1
 -2      2329      1319      2362      2709
 -1      8378    3    0    1
 -2      1319      1388      2362      2709
 -1      8379    3    0    1
 -2      1496      2359      2713      2421
 -1      8380    3    0    1
 -2      2493      1376      2732      2543
 -1      8381    3    0    1
 -2      2691      2688      2700      2733
 -1      8382    3    0    1
 -2      2660      2677      2688      2733
 -1      8383    3    0    1
 -2      2688      2620      1503      2733
 -1      8384    3    0    1
 -2      2374      2311      2725      2431
 -1      8385    3    0    1
 -2      2659      1454      2668      2711
 -1      8386    3    0    1
 -2      2622      2611      1457      2711
 -1      8387    3    0    1
 -2      1457      2611      1470      2711
 -1      8388    3    0    1
 -2      2664      2659      2668      2711
 -1      8389    3    0    1
 -2      2664      2668      1470      2711
 -1      8390    3    0    1
 -2      2611      2664      1470      2711
 -1      8391    3    0    1
 -2      2611      2622      2664      2711
 -1      8392    3    0    1
 -2        69      1454      1470      2711
 -1      8393    3    0    1
 -2      1454        69      2668      2711
 -1      8394    3    0    1
 -2      2668        69      1470      2711
 -1      8395    3    0    1
 -2      2639      1402      1498      2712
 -1      8396    3    0    1
 -2      2639      1498      2705      2712
 -1      8397    3    0    1
 -2      2573      2639      2705      2712
 -1      8398    3    0    1
 -2      2539      2509      2573      2712
 -1      8399    3    0    1
 -2      2509      2538      2639      2712
 -1      8400    3    0    1
 -2      2573      2509      2639      2712
 -1      8401    3    0    1
 -2      1242      2312      2714      2731
 -1      8402    3    0    1
 -2      1402      1275      2324      2712
 -1      8403    3    0    1
 -2      1275      2190      2324      2712
 -1      8404    3    0    1
 -2      1402      2324      1498      2712
 -1      8405    3    0    1
 -2      2524      2586      2634      2730
 -1      8406    3    0    1
 -2      2189      2491      2528      2730
 -1      8407    3    0    1
 -2      2205      2249      2312      2731
 -1      8408    3    0    1
 -2      2247      1085      2714      2731
 -1      8409    3    0    1
 -2      2227      1085      2247      2731
 -1      8410    3    0    1
 -2      2249      2247      2714      2731
 -1      8411    3    0    1
 -2      2552      1231      2553      2714
 -1      8412    3    0    1
 -2      2509      2463      2539      2732
 -1      8413    3    0    1
 -2      2627      2573      2729      2732
 -1      8414    3    0    1
 -2      2509      2573      2627      2732
 -1      8415    3    0    1
 -2      1864      2047      2550      2732
 -1      8416    3    0    1
 -2      1261      1231      2552      2714
 -1      8417    3    0    1
 -2      2621      1305      2699      2714
 -1      8418    3    0    1
 -2      2047      2463      2550      2732
 -1      8419    3    0    1
 -2      2072      2164      2539      2732
 -1      8420    3    0    1
 -2      2550      1343      2732      2627
 -1      8421    3    0    1
 -2      2550      2509      2627      2732
 -1      8422    3    0    1
 -2      2287      1343      2729      2732
 -1      8423    3    0    1
 -2      2488      1892      2522      2728
 -1      8424    3    0    1
 -2      2188      2488      2620      2728
 -1      8425    3    0    1
 -2      2552      2621      2699      2714
 -1      8426    3    0    1
 -2      1261      2552      2699      2714
 -1      8427    3    0    1
 -2      1412      1261      2699      2714
 -1      8428    3    0    1
 -2      1305      1412      2699      2714
 -1      8429    3    0    1
 -2      1892      2488      2490      2728
 -1      8430    3    0    1
 -2      1305      1242      2312      2714
 -1      8431    3    0    1
 -2      2247      1231      2249      2714
 -1      8432    3    0    1
 -2      2249      1231      2316      2714
 -1      8433    3    0    1
 -2      1305      2312      2367      2714
 -1      8434    3    0    1
 -2      1085      1231      2247      2714
 -1      8435    3    0    1
 -2      1343      2627      2729      2732
 -1      8436    3    0    1
 -2      1231      1261      2316      2714
 -1      8437    3    0    1
 -2      2539      2287      2729      2732
 -1      8438    3    0    1
 -2      1305      2367      2379      2714
 -1      8439    3    0    1
 -2      1412      1305      2379      2714
 -1      8440    3    0    1
 -2       377       378      2674      1506
 -1      8441    3    0    1
 -2      2674       378      1505      1506
 -1      8442    3    0    1
 -2      1382       358      1510      2456
 -1      8443    3    0    1
 -2      2624      2572      2645      2735
 -1      8444    3    0    1
 -2      2559      1329      2584      2716
 -1      8445    3    0    1
 -2      2703      2560      2710      2716
 -1      8446    3    0    1
 -2      1395      2703      2710      2716
 -1      8447    3    0    1
 -2      2584      2610      2710      2716
 -1      8448    3    0    1
 -2      2559      2523      2591      2716
 -1      8449    3    0    1
 -2      2523      2559      2560      2716
 -1      8450    3    0    1
 -2      1426      1359      2395      2396
 -1      8451    3    0    1
 -2      1330      1366      2368      1509
 -1      8452    3    0    1
 -2       361      1426      1479      2396
 -1      8453    3    0    1
 -2      1083      1237      2553      2731
 -1      8454    3    0    1
 -2      2654      2392      2395      2396
 -1      8455    3    0    1
 -2      2584      1365      2610      2716
 -1      8456    3    0    1
 -2      2610      1365      1395      2716
 -1      8457    3    0    1
 -2        11      1395      2710      2716
 -1      8458    3    0    1
 -2      2610        11      2710      2716
 -1      8459    3    0    1
 -2        11      2610      1395      2716
 -1      8460    3    0    1
 -2      1479      1426      2395      2396
 -1      8461    3    0    1
 -2      2620      2701      1507      2404
 -1      8462    3    0    1
 -2      2529      2528      2547      2717
 -1      8463    3    0    1
 -2      1445      2624      2674      2735
 -1      8464    3    0    1
 -2      1293      2723      2431      2456
 -1      8465    3    0    1
 -2      2674      2645      2686      2735
 -1      8466    3    0    1
 -2      2529      2547      2692      2717
 -1      8467    3    0    1
 -2      2593      2529      2692      2717
 -1      8468    3    0    1
 -2      2547      1348      2692      2717
 -1      8469    3    0    1
 -2      2547      2200      1348      2717
 -1      8470    3    0    1
 -2      1253      1297      2378      2717
 -1      8471    3    0    1
 -2      1492      1444      1505      2426
 -1      8472    3    0    1
 -2      1297      1348      2378      2717
 -1      8473    3    0    1
 -2      1348      2200      2378      2717
 -1      8474    3    0    1
 -2      2265      2299      2658      2719
 -1      8475    3    0    1
 -2      2299      2265      2304      2719
 -1      8476    3    0    1
 -2      2304      2265      2658      2719
 -1      8477    3    0    1
 -2      2585      2301      2658      2719
 -1      8478    3    0    1
 -2      2585      1256      2301      2719
 -1      8479    3    0    1
 -2      1223      2585      2658      2719
 -1      8480    3    0    1
 -2      2582      1223      2658      2719
 -1      8481    3    0    1
 -2      1223      2582      2585      2719
 -1      8482    3    0    1
 -2      2627      1343      1496      2458
 -1      8483    3    0    1
 -2      2654      1439      2396      1512
 -1      8484    3    0    1
 -2      1389      1354      2640      2719
 -1      8485    3    0    1
 -2      2304      1354      2305      2719
 -1      8486    3    0    1
 -2      1256      1354      2304      2719
 -1      8487    3    0    1
 -2      1245       897      2299      2719
 -1      8488    3    0    1
 -2      1245      2299      2376      2719
 -1      8489    3    0    1
 -2      2301      1256      2304      2719
 -1      8490    3    0    1
 -2      1303      1245      2376      2719
 -1      8491    3    0    1
 -2      2235      2209      2255      2720
 -1      8492    3    0    1
 -2      2255      2209      2318      2720
 -1      8493    3    0    1
 -2      1248      1344      2377      2720
 -1      8494    3    0    1
 -2      2377      1344      2380      2720
 -1      8495    3    0    1
 -2      1121      1243      2318      2720
 -1      8496    3    0    1
 -2      1232      1119      2235      2720
 -1      8497    3    0    1
 -2      1232      2235      2319      2720
 -1      8498    3    0    1
 -2      2627      2626      2669      2729
 -1      8499    3    0    1
 -2      2209      1121      2318      2720
 -1      8500    3    0    1
 -2      2196      2099      2268      2721
 -1      8501    3    0    1
 -2      2633      1270      2654      2395
 -1      8502    3    0    1
 -2      2610      1366      2631      1509
 -1      8503    3    0    1
 -2      2591      2523      2689      2722
 -1      8504    3    0    1
 -2      2196      1238      2689      2722
 -1      8505    3    0    1
 -2      2591      1370      2716      2722
 -1      8506    3    0    1
 -2      2703      2560      2716      2722
 -1      8507    3    0    1
 -2      2703      2331      2721      2722
 -1      8508    3    0    1
 -2      2560      2703      2721      2722
 -1      8509    3    0    1
 -2      1238      2591      2689      2722
 -1      8510    3    0    1
 -2      2591      1238      1370      2722
 -1      8511    3    0    1
 -2      1395      2703      2716      2722
 -1      8512    3    0    1
 -2      1370      1395      2716      2722
 -1      8513    3    0    1
 -2      2337      2331      2703      2722
 -1      8514    3    0    1
 -2      1395      2337      2703      2722
 -1      8515    3    0    1
 -2      1370      2196      2331      2722
 -1      8516    3    0    1
 -2      1238      2196      1370      2722
 -1      8517    3    0    1
 -2      1395      1370      2331      2722
 -1      8518    3    0    1
 -2      1395      2331      2337      2722
 -1      8519    3    0    1
 -2      2631      2337      2703      1509
 -1      8520    3    0    1
 -2      2317      2650      2676      2743
 -1      8521    3    0    1
 -2      2631      2703      2710      1509
 -1      8522    3    0    1
 -2      2610      2631      2710      1509
 -1      8523    3    0    1
 -2        20      2610      2710      1509
 -1      8524    3    0    1
 -2      1366        20      1471      1509
 -1      8525    3    0    1
 -2      2272      1502      2420      2430
 -1      8526    3    0    1
 -2      2149      2510      2203      2742
 -1      8527    3    0    1
 -2      2321      1476      2371      2397
 -1      8528    3    0    1
 -2      2687      2272      2420      2430
 -1      8529    3    0    1
 -2      2321      1327      1476      2397
 -1      8530    3    0    1
 -2      1243      2318      2720      2412
 -1      8531    3    0    1
 -2      2273      2266      2311      2725
 -1      8532    3    0    1
 -2      2586      2524      2654      2726
 -1      8533    3    0    1
 -2      2510      2149      2245      2726
 -1      8534    3    0    1
 -2      1449      1510      2431      2451
 -1      8535    3    0    1
 -2      1363      2314      1478      2398
 -1      8536    3    0    1
 -2      1044      1046      2266      2725
 -1      8537    3    0    1
 -2      1363      2266      2314      2398
 -1      8538    3    0    1
 -2      2311      2266      2398      2725
 -1      8539    3    0    1
 -2      1293      2568      2656      2723
 -1      8540    3    0    1
 -2      2568      1293      2649      2723
 -1      8541    3    0    1
 -2      2529      2568      2649      2723
 -1      8542    3    0    1
 -2       358      2565      2649      2723
 -1      8543    3    0    1
 -2      2565       358      1382      2723
 -1      8544    3    0    1
 -2      2528      1302      2656      2723
 -1      8545    3    0    1
 -2      2528      2547      1302      2723
 -1      8546    3    0    1
 -2      1503      1467      2733      2455
 -1      8547    3    0    1
 -2      2418      2688      2446      2454
 -1      8548    3    0    1
 -2      2372      1469      2724      2433
 -1      8549    3    0    1
 -2      2322      1433      2369      2400
 -1      8550    3    0    1
 -2      1463      2372      2724      2433
 -1      8551    3    0    1
 -2      1353      1433      2322      2400
 -1      8552    3    0    1
 -2      2619      2706      2724      2736
 -1      8553    3    0    1
 -2      1358      1425      1478      2401
 -1      8554    3    0    1
 -2      1425       352      1478      2401
 -1      8555    3    0    1
 -2      1269      1358      2314      2401
 -1      8556    3    0    1
 -2      1046      1044      2596      2725
 -1      8557    3    0    1
 -2      1269      2596      2634      2725
 -1      8558    3    0    1
 -2      2596      1249      2656      2725
 -1      8559    3    0    1
 -2      1302      1259      2656      2725
 -1      8560    3    0    1
 -2      2634      1437      2401      2725
 -1      8561    3    0    1
 -2      1358      2634      2401      2725
 -1      8562    3    0    1
 -2      1269      1358      2401      2725
 -1      8563    3    0    1
 -2      1358      1269      2634      2725
 -1      8564    3    0    1
 -2      2634      2596      2656      2725
 -1      8565    3    0    1
 -2      1259      2634      2656      2725
 -1      8566    3    0    1
 -2      1293      1302      2656      2725
 -1      8567    3    0    1
 -2      1249      1293      2656      2725
 -1      8568    3    0    1
 -2      2634      1259      1437      2725
 -1      8569    3    0    1
 -2      2266      1269      2314      2725
 -1      8570    3    0    1
 -2      1249      1044      2273      2725
 -1      8571    3    0    1
 -2      2311      1259      2374      2725
 -1      8572    3    0    1
 -2      1046      1269      2266      2725
 -1      8573    3    0    1
 -2      1259      1302      2374      2725
 -1      8574    3    0    1
 -2      1259      2311      2398      2725
 -1      8575    3    0    1
 -2      1437      2398      2401      2725
 -1      8576    3    0    1
 -2      1437      1259      2398      2725
 -1      8577    3    0    1
 -2      1351      1303      2376      2403
 -1      8578    3    0    1
 -2      1359      1426      2654      1512
 -1      8579    3    0    1
 -2      2586      2673      2388      1512
 -1      8580    3    0    1
 -2      2374      1449      2431      2451
 -1      8581    3    0    1
 -2      2586      2654      2673      1512
 -1      8582    3    0    1
 -2      2586      1439      2654      1512
 -1      8583    3    0    1
 -2      2673      2654      2681      1512
 -1      8584    3    0    1
 -2      2673      2681      2697      1512
 -1      8585    3    0    1
 -2      2274      2342      2344      2737
 -1      8586    3    0    1
 -2      2342      2274      2665      2737
 -1      8587    3    0    1
 -2      2343      2344      2407      2737
 -1      8588    3    0    1
 -2      1250      2342      2665      2737
 -1      8589    3    0    1
 -2      1250      2535      2593      2737
 -1      8590    3    0    1
 -2      1341      1291      2680      2405
 -1      8591    3    0    1
 -2      1250      2665      2535      2737
 -1      8592    3    0    1
 -2      1297      1348      2593      2737
 -1      8593    3    0    1
 -2      1486      2701      1507      2738
 -1      8594    3    0    1
 -2      2228      1277      1475      2440
 -1      8595    3    0    1
 -2      1490      1398      2406      2407
 -1      8596    3    0    1
 -2      1398      2344      2406      2407
 -1      8597    3    0    1
 -2      2731      1242      2440      2738
 -1      8598    3    0    1
 -2      2620      2688      1507      2727
 -1      8599    3    0    1
 -2      2688      2620      2701      2727
 -1      8600    3    0    1
 -2      2701      2620      1507      2727
 -1      8601    3    0    1
 -2      2691       369      2727      1501
 -1      8602    3    0    1
 -2      1313      2660      2701      2727
 -1      8603    3    0    1
 -2      2660      1313      2691      2727
 -1      8604    3    0    1
 -2       369      1501      1507      2727
 -1      8605    3    0    1
 -2      2700       369      1507      2727
 -1      8606    3    0    1
 -2      2379      1412      2714      2408
 -1      8607    3    0    1
 -2      2316      2379      2714      2408
 -1      8608    3    0    1
 -2      2379      2316      2714      2367
 -1      8609    3    0    1
 -2      1414      1261      2699      2408
 -1      8610    3    0    1
 -2      1412      1414      2699      2408
 -1      8611    3    0    1
 -2      1261      1412      2699      2408
 -1      8612    3    0    1
 -2      1432      1481      2379      2408
 -1      8613    3    0    1
 -2      2490      2506      2553      2728
 -1      8614    3    0    1
 -2      2553      2506      2621      2728
 -1      8615    3    0    1
 -2      2621      1242      2714      2728
 -1      8616    3    0    1
 -2      2553      2621      2714      2728
 -1      8617    3    0    1
 -2      1242      2553      2714      2728
 -1      8618    3    0    1
 -2      2536      2183      2621      2728
 -1      8619    3    0    1
 -2      1892      2067      2522      2728
 -1      8620    3    0    1
 -2      2067      2490      2553      2728
 -1      8621    3    0    1
 -2      2067      1892      2490      2728
 -1      8622    3    0    1
 -2      2097      2488      2188      2728
 -1      8623    3    0    1
 -2      2701      1486      2404      2728
 -1      8624    3    0    1
 -2      2620      2701      2404      2728
 -1      8625    3    0    1
 -2      2522      2553      2609      2728
 -1      8626    3    0    1
 -2      2609      2553      2701      2728
 -1      8627    3    0    1
 -2      2522      2609      2701      2728
 -1      8628    3    0    1
 -2      1305      1242      2621      2728
 -1      8629    3    0    1
 -2      2183      1305      2621      2728
 -1      8630    3    0    1
 -2      2470      2067      2553      2728
 -1      8631    3    0    1
 -2      2067      2470      2522      2728
 -1      8632    3    0    1
 -2      2522      2470      2553      2728
 -1      8633    3    0    1
 -2      1242      2183      2188      2728
 -1      8634    3    0    1
 -2      1242      2188      2404      2728
 -1      8635    3    0    1
 -2      2183      2097      2188      2728
 -1      8636    3    0    1
 -2      1486      1242      2404      2728
 -1      8637    3    0    1
 -2      2183      1242      1305      2728
 -1      8638    3    0    1
 -2      1496       357      2718      2729
 -1      8639    3    0    1
 -2      2287      1343      1496      2729
 -1      8640    3    0    1
 -2      2359      2287      1496      2729
 -1      8641    3    0    1
 -2      2596      2524      2634      2730
 -1      8642    3    0    1
 -2      2524      2491      2510      2730
 -1      8643    3    0    1
 -2      2491      2524      2510      2112
 -1      8644    3    0    1
 -2      2723      2431      1302      1293
 -1      8645    3    0    1
 -2      2491      2521      2656      2730
 -1      8646    3    0    1
 -2      2352      2322      2676      2743
 -1      8647    3    0    1
 -2      2432      2400      2434      2743
 -1      8648    3    0    1
 -2      2521      2491      2596      2730
 -1      8649    3    0    1
 -2      2596      2634      2656      2730
 -1      8650    3    0    1
 -2      2521      2596      2656      2730
 -1      8651    3    0    1
 -2      2586      2673      1480      2730
 -1      8652    3    0    1
 -2      1480      2673      2402      2730
 -1      8653    3    0    1
 -2      2203      1259      1437      2730
 -1      8654    3    0    1
 -2      2298      2203      1437      2730
 -1      8655    3    0    1
 -2      2189      1259      2203      2730
 -1      8656    3    0    1
 -2      2327      2375      2436      2745
 -1      8657    3    0    1
 -2      2298      1437      2402      2730
 -1      8658    3    0    1
 -2      1437      1480      2402      2730
 -1      8659    3    0    1
 -2      2415      1456      1436      2386
 -1      8660    3    0    1
 -2      1456      1374      2707      2415
 -1      8661    3    0    1
 -2      1498       109      2705      2417
 -1      8662    3    0    1
 -2      1440      1491      2386      2415
 -1      8663    3    0    1
 -2      1281      2639      2351      2413
 -1      8664    3    0    1
 -2      2351      1430      1515      2413
 -1      8665    3    0    1
 -2      2688      1503      2389      2446
 -1      8666    3    0    1
 -2      1502      2430      2447      2455
 -1      8667    3    0    1
 -2      2318      2720      2412      2414
 -1      8668    3    0    1
 -2      2318      2377      2720      2414
 -1      8669    3    0    1
 -2      2642      1307      2412      2414
 -1      8670    3    0    1
 -2       238      1500      1503      2455
 -1      8671    3    0    1
 -2      1372      2642      2720      2414
 -1      8672    3    0    1
 -2      2720      2642      2412      2414
 -1      8673    3    0    1
 -2      1434      2318      2412      2414
 -1      8674    3    0    1
 -2      2677      1460      1503      2455
 -1      8675    3    0    1
 -2      2620      2688      2389      2446
 -1      8676    3    0    1
 -2      1434      1309      2318      2414
 -1      8677    3    0    1
 -2      2620      2219      2418      2446
 -1      8678    3    0    1
 -2      1498      2705      2712      2417
 -1      8679    3    0    1
 -2      2712      2705      2713      2417
 -1      8680    3    0    1
 -2      2713      2705      2718      2417
 -1      8681    3    0    1
 -2      2473      2545      2685      2740
 -1      8682    3    0    1
 -2      2705       109      2718      2417
 -1      8683    3    0    1
 -2      2700      2688      1507      2418
 -1      8684    3    0    1
 -2      1507      2688      2404      2418
 -1      8685    3    0    1
 -2      2620      2219      2404      2418
 -1      8686    3    0    1
 -2      2688      2620      2404      2418
 -1      8687    3    0    1
 -2      1085      2553      2714      2731
 -1      8688    3    0    1
 -2      1085      1083      2553      2731
 -1      8689    3    0    1
 -2      1486      1242      2701      2738
 -1      8690    3    0    1
 -2      2627      1280      2345      2443
 -1      8691    3    0    1
 -2      2387      2228      2440      2738
 -1      8692    3    0    1
 -2      1237      2227      2228      2731
 -1      8693    3    0    1
 -2      1237      1083      2227      2731
 -1      8694    3    0    1
 -2      2228      2731      2440      2738
 -1      8695    3    0    1
 -2      1507      2700      2418      2454
 -1      8696    3    0    1
 -2      2228      1237      2731      2738
 -1      8697    3    0    1
 -2      2164      2181      1285      2732
 -1      8698    3    0    1
 -2      2164      1285      2287      2732
 -1      8699    3    0    1
 -2      1285      1343      2287      2732
 -1      8700    3    0    1
 -2      1285      2181      1376      2732
 -1      8701    3    0    1
 -2       238      2700      1503      2733
 -1      8702    3    0    1
 -2       238      2691      2733      1500
 -1      8703    3    0    1
 -2      1500       238      1503      2733
 -1      8704    3    0    1
 -2      1292      2628      2663      2422
 -1      8705    3    0    1
 -2      2663      2628      2382      2422
 -1      8706    3    0    1
 -2      2528      2378      2717      2734
 -1      8707    3    0    1
 -2      2097      2490      2179      2734
 -1      8708    3    0    1
 -2      2097      2115      2490      2734
 -1      8709    3    0    1
 -2      2179      2490      2536      2734
 -1      8710    3    0    1
 -2      1292      1342      2698      2422
 -1      8711    3    0    1
 -2      1708      2173      2491      2734
 -1      8712    3    0    1
 -2      2115      2133      2490      2734
 -1      8713    3    0    1
 -2      2378      1253      2717      2734
 -1      8714    3    0    1
 -2      2491      2528      2717      2734
 -1      8715    3    0    1
 -2      2491      2173      2189      2734
 -1      8716    3    0    1
 -2      2545      2595      2685      2740
 -1      8717    3    0    1
 -2      1487      1504      2422      2423
 -1      8718    3    0    1
 -2      2297      2178      2685      2740
 -1      8719    3    0    1
 -2      2530      2473      2685      2740
 -1      8720    3    0    1
 -2      2590      2535      2717      2734
 -1      8721    3    0    1
 -2      1253      2590      2717      2734
 -1      8722    3    0    1
 -2      1854      2491      2535      2734
 -1      8723    3    0    1
 -2      2490      1854      2535      2734
 -1      8724    3    0    1
 -2      2491      2189      2528      2734
 -1      8725    3    0    1
 -2      2528      2189      2378      2734
 -1      8726    3    0    1
 -2      2536      2490      2590      2734
 -1      8727    3    0    1
 -2      2521      2491      2717      2734
 -1      8728    3    0    1
 -2      2491      2521      2535      2734
 -1      8729    3    0    1
 -2      2535      2521      2717      2734
 -1      8730    3    0    1
 -2      2590      1253      1407      2734
 -1      8731    3    0    1
 -2      2536      2590      1407      2734
 -1      8732    3    0    1
 -2      2194      2536      1407      2734
 -1      8733    3    0    1
 -2      2194      2179      2536      2734
 -1      8734    3    0    1
 -2      2173      1708      2179      2734
 -1      8735    3    0    1
 -2      2173      2179      2378      2734
 -1      8736    3    0    1
 -2      1708      2097      2179      2734
 -1      8737    3    0    1
 -2      2189      2173      2378      2734
 -1      8738    3    0    1
 -2      2179      1253      2378      2734
 -1      8739    3    0    1
 -2      1253      2179      1407      2734
 -1      8740    3    0    1
 -2      2179      2194      1407      2734
 -1      8741    3    0    1
 -2      1466      2252      2353      2424
 -1      8742    3    0    1
 -2      1344      1336      1492      2426
 -1      8743    3    0    1
 -2      1464      1508      2409      2426
 -1      8744    3    0    1
 -2      1230      2590      2665      2741
 -1      8745    3    0    1
 -2      2321      2665      2370      2741
 -1      8746    3    0    1
 -2      1466      2353      1517      2425
 -1      8747    3    0    1
 -2      2371      2397      2429      2741
 -1      8748    3    0    1
 -2      1506       377      1517      2425
 -1      8749    3    0    1
 -2      2321      2370      2397      2741
 -1      8750    3    0    1
 -2      2371      2321      2397      2741
 -1      8751    3    0    1
 -2      1505      1444      1508      2426
 -1      8752    3    0    1
 -2       378      1505      1508      2426
 -1      8753    3    0    1
 -2      2351      1281      2413      2427
 -1      8754    3    0    1
 -2      1495      1400      1515      2427
 -1      8755    3    0    1
 -2      1400      2351      1515      2427
 -1      8756    3    0    1
 -2       109      1495      1515      2427
 -1      8757    3    0    1
 -2      1400      1281      2351      2427
 -1      8758    3    0    1
 -2      2510      2524      2730      2742
 -1      8759    3    0    1
 -2      2429      1413      2741      2450
 -1      8760    3    0    1
 -2      1413      1451      2741      2450
 -1      8761    3    0    1
 -2      1407      2397      2741      2450
 -1      8762    3    0    1
 -2      2524      2586      2730      2742
 -1      8763    3    0    1
 -2      2388      1439      2726      2742
 -1      8764    3    0    1
 -2      1451      1407      2741      2450
 -1      8765    3    0    1
 -2      2677      1236      2687      2430
 -1      8766    3    0    1
 -2      2545      2473      2595      2740
 -1      8767    3    0    1
 -2       434      1504      2423      2448
 -1      8768    3    0    1
 -2      1278      2595      2676      2744
 -1      8769    3    0    1
 -2      1234      1273      2650      2743
 -1      8770    3    0    1
 -2      2369      2400      2432      2743
 -1      8771    3    0    1
 -2      1278      2352      2676      2743
 -1      8772    3    0    1
 -2      2322      2317      2676      2743
 -1      8773    3    0    1
 -2      1449      1356      2374      2431
 -1      8774    3    0    1
 -2      1375      1278      2650      2743
 -1      8775    3    0    1
 -2      1356      2311      2374      2431
 -1      8776    3    0    1
 -2      1461      2619      1462      2736
 -1      8777    3    0    1
 -2       435       438      2433      2736
 -1      8778    3    0    1
 -2       438       435      1462      2736
 -1      8779    3    0    1
 -2      1463       435      2433      2736
 -1      8780    3    0    1
 -2       438      1469      2433      2736
 -1      8781    3    0    1
 -2       435      1461      1462      2736
 -1      8782    3    0    1
 -2      1433      1484      2432      2434
 -1      8783    3    0    1
 -2      1484      1435      2432      2434
 -1      8784    3    0    1
 -2       386      1435      1484      2434
 -1      8785    3    0    1
 -2      1435      1373      2432      2434
 -1      8786    3    0    1
 -2       369       238      2700      2454
 -1      8787    3    0    1
 -2      1348       204      1483      2438
 -1      8788    3    0    1
 -2      2436      2452      1488      2384
 -1      8789    3    0    1
 -2      1298      2327      2375      2436
 -1      8790    3    0    1
 -2      1496      2453      1494      1399
 -1      8791    3    0    1
 -2      2327      1488      2384      2436
 -1      8792    3    0    1
 -2      2327      1298      1488      2436
 -1      8793    3    0    1
 -2      2388      2673      2435      2437
 -1      8794    3    0    1
 -2      2673      2388      1512      2437
 -1      8795    3    0    1
 -2      1369      1348      1483      2438
 -1      8796    3    0    1
 -2      1369      1490      2406      2438
 -1      8797    3    0    1
 -2      1483       204      1490      2438
 -1      8798    3    0    1
 -2      1294      1369      2406      2438
 -1      8799    3    0    1
 -2      1369      1483      1490      2438
 -1      8800    3    0    1
 -2      2325      2585      2405      2439
 -1      8801    3    0    1
 -2       376      1447      1452      2439
 -1      8802    3    0    1
 -2      2585      1452      2680      2439
 -1      8803    3    0    1
 -2      2405      2680      2585      1291
 -1      8804    3    0    1
 -2      2680      2405      2585      2439
 -1      8805    3    0    1
 -2      1489      1371      2405      2439
 -1      8806    3    0    1
 -2      1341      1489      2405      2439
 -1      8807    3    0    1
 -2      1341      1447      1489      2439
 -1      8808    3    0    1
 -2      1447       376      1489      2439
 -1      8809    3    0    1
 -2      2665      2274      2370      2737
 -1      8810    3    0    1
 -2      2407      2406      2438      2737
 -1      8811    3    0    1
 -2      2406      1294      2438      2737
 -1      8812    3    0    1
 -2      1294      1348      2438      2737
 -1      8813    3    0    1
 -2      1253      2535      2590      2737
 -1      8814    3    0    1
 -2      2590      2535      2665      2737
 -1      8815    3    0    1
 -2      2429      2397      1476      2450
 -1      8816    3    0    1
 -2       213      1451      1473      2450
 -1      8817    3    0    1
 -2      1476      1485      2429      2450
 -1      8818    3    0    1
 -2      2342      1250      2344      2737
 -1      8819    3    0    1
 -2      2344      1250      2406      2737
 -1      8820    3    0    1
 -2      1297      2343      2407      2737
 -1      8821    3    0    1
 -2      1250      1294      2406      2737
 -1      8822    3    0    1
 -2      1297      1253      2343      2737
 -1      8823    3    0    1
 -2      2274      2343      2370      2737
 -1      8824    3    0    1
 -2      1297      2407      2438      2737
 -1      8825    3    0    1
 -2      2343      1253      2370      2737
 -1      8826    3    0    1
 -2      1348      1297      2438      2737
 -1      8827    3    0    1
 -2      2397      2429      2741      2450
 -1      8828    3    0    1
 -2      1513      1475      2441      2442
 -1      8829    3    0    1
 -2      1237      2553      2731      2738
 -1      8830    3    0    1
 -2      2553      1237      2701      2738
 -1      8831    3    0    1
 -2      1507      2701      2727      2738
 -1      8832    3    0    1
 -2      2701      1313      2727      2738
 -1      8833    3    0    1
 -2      1313      1468      2727      2738
 -1      8834    3    0    1
 -2      1507      1468      2442      2738
 -1      8835    3    0    1
 -2      1468      1507      2727      2738
 -1      8836    3    0    1
 -2      1242      1486      2440      2738
 -1      8837    3    0    1
 -2      2440      1486      2441      2738
 -1      8838    3    0    1
 -2      1313      2387      2442      2738
 -1      8839    3    0    1
 -2      1313      1237      2387      2738
 -1      8840    3    0    1
 -2      1237      2228      2387      2738
 -1      8841    3    0    1
 -2      1486      1507      2441      2738
 -1      8842    3    0    1
 -2      1468      1313      2442      2738
 -1      8843    3    0    1
 -2      2411      2385      2444      2739
 -1      8844    3    0    1
 -2      2241      1229      2647      2739
 -1      8845    3    0    1
 -2      2222      2241      2647      2739
 -1      8846    3    0    1
 -2      2661      1453      1459      2739
 -1      8847    3    0    1
 -2      1459      2411      2444      2739
 -1      8848    3    0    1
 -2      2661      1459      2704      2739
 -1      8849    3    0    1
 -2      1378      2661      2704      2739
 -1      8850    3    0    1
 -2      1443      1378      2704      2739
 -1      8851    3    0    1
 -2      1443      1459      2444      2739
 -1      8852    3    0    1
 -2      1459      1443      2704      2739
 -1      8853    3    0    1
 -2      2284      1296      2385      2739
 -1      8854    3    0    1
 -2      1296      1378      2385      2739
 -1      8855    3    0    1
 -2      2281      1296      2284      2739
 -1      8856    3    0    1
 -2      2385      1378      2444      2739
 -1      8857    3    0    1
 -2      1229      2222      2410      2739
 -1      8858    3    0    1
 -2      1453      1229      2410      2739
 -1      8859    3    0    1
 -2      1453      2410      2411      2739
 -1      8860    3    0    1
 -2       937      1296      2281      2739
 -1      8861    3    0    1
 -2      2222      1229      2241      2739
 -1      8862    3    0    1
 -2      1459      1453      2411      2739
 -1      8863    3    0    1
 -2      1378      1443      2444      2739
 -1      8864    3    0    1
 -2      2595      1406      2735      2744
 -1      8865    3    0    1
 -2      1337      1233      2595      2744
 -1      8866    3    0    1
 -2      1445      2425      2744      1477
 -1      8867    3    0    1
 -2      2595      1233      2676      2744
 -1      8868    3    0    1
 -2      2473      2572      2595      2740
 -1      8869    3    0    1
 -2      1406      2595      2735      2740
 -1      8870    3    0    1
 -2      2595      2572      2735      2740
 -1      8871    3    0    1
 -2      2530      2297      2645      2740
 -1      8872    3    0    1
 -2      2572      2530      2645      2740
 -1      8873    3    0    1
 -2      1477      1406      2735      2740
 -1      8874    3    0    1
 -2      2645      1477      2735      2740
 -1      8875    3    0    1
 -2      2572      2645      2735      2740
 -1      8876    3    0    1
 -2      1477      2645      2393      2740
 -1      8877    3    0    1
 -2      2645      2297      2393      2740
 -1      8878    3    0    1
 -2      1278      1406      2297      2740
 -1      8879    3    0    1
 -2      2297      1406      1477      2740
 -1      8880    3    0    1
 -2      2297      1477      2393      2740
 -1      8881    3    0    1
 -2      2224      2388      2726      2742
 -1      8882    3    0    1
 -2      1253      2370      2737      2741
 -1      8883    3    0    1
 -2      1451      1407      2715      2741
 -1      8884    3    0    1
 -2      1260      1413      2715      2741
 -1      8885    3    0    1
 -2      2524      2510      2726      2742
 -1      8886    3    0    1
 -2      1413      1451      2715      2741
 -1      8887    3    0    1
 -2      1230      2321      2371      2741
 -1      8888    3    0    1
 -2      1260      1230      2371      2741
 -1      8889    3    0    1
 -2      2370      1407      2397      2741
 -1      8890    3    0    1
 -2      1260      2371      2429      2741
 -1      8891    3    0    1
 -2      2510      2149      2726      2742
 -1      8892    3    0    1
 -2      1253      1407      2370      2741
 -1      8893    3    0    1
 -2      1413      1260      2429      2741
 -1      8894    3    0    1
 -2      2388      2586      1512      2742
 -1      8895    3    0    1
 -2      2586      1439      1512      2742
 -1      8896    3    0    1
 -2      2402      2673      2435      2742
 -1      8897    3    0    1
 -2      2224      2203      2298      2742
 -1      8898    3    0    1
 -2      2224      2298      2388      2742
 -1      8899    3    0    1
 -2      2149      2203      2224      2742
 -1      8900    3    0    1
 -2      2388      2298      2435      2742
 -1      8901    3    0    1
 -2      2298      2402      2435      2742
 -1      8902    3    0    1
 -2      1439      2388      1512      2742
 -1      8903    3    0    1
 -2      1375      2643      1441      2743
 -1      8904    3    0    1
 -2      2317      1234      2650      2743
 -1      8905    3    0    1
 -2      1273      1373      2643      2743
 -1      8906    3    0    1
 -2      2643      1373      1441      2743
 -1      8907    3    0    1
 -2      1373      2432      2434      2743
 -1      8908    3    0    1
 -2      1441      1373      2434      2743
 -1      8909    3    0    1
 -2      1273      2369      2432      2743
 -1      8910    3    0    1
 -2      1273      1234      2369      2743
 -1      8911    3    0    1
 -2      1278      1375      2400      2743
 -1      8912    3    0    1
 -2      1234      2322      2369      2743
 -1      8913    3    0    1
 -2      2352      1278      2400      2743
 -1      8914    3    0    1
 -2      2400      1375      2434      2743
 -1      8915    3    0    1
 -2      1373      1273      2432      2743
 -1      8916    3    0    1
 -2      1234      2317      2322      2743
 -1      8917    3    0    1
 -2      1375      1441      2434      2743
 -1      8918    3    0    1
 -2      2733      1467      2447      2455
 -1      8919    3    0    1
 -2      1500      1467      1503      2455
 -1      8920    3    0    1
 -2      2677      1503      2733      2455
 -1      8921    3    0    1
 -2      2447      2733      2677      1312
 -1      8922    3    0    1
 -2      2733      2447      2677      2455
 -1      8923    3    0    1
 -2      1516      1502      2447      2455
 -1      8924    3    0    1
 -2      1467      1516      2447      2455
 -1      8925    3    0    1
 -2      1500       238      1516      2455
 -1      8926    3    0    1
 -2      1467      1500      1516      2455
 -1      8927    3    0    1
 -2      1477      1445      2735      2744
 -1      8928    3    0    1
 -2      1445      1337      2735      2744
 -1      8929    3    0    1
 -2      1406      2424      2425      2744
 -1      8930    3    0    1
 -2      1477      1406      2425      2744
 -1      8931    3    0    1
 -2      2353      1337      2449      2744
 -1      8932    3    0    1
 -2      1233      1337      2353      2744
 -1      8933    3    0    1
 -2      1406      1278      2424      2744
 -1      8934    3    0    1
 -2      2252      1233      2353      2744
 -1      8935    3    0    1
 -2      1337      1445      2449      2744
 -1      8936    3    0    1
 -2      1457      2695      2711      2745
 -1      8937    3    0    1
 -2      1470      1457      2711      2745
 -1      8938    3    0    1
 -2       357      1494      1496      2458
 -1      8939    3    0    1
 -2      2384      2436      2452      2745
 -1      8940    3    0    1
 -2      1377      1442      2711      2745
 -1      8941    3    0    1
 -2      1442      1470      2711      2745
 -1      8942    3    0    1
 -2      1328      1457      2375      2745
 -1      8943    3    0    1
 -2      1295      2327      2384      2745
 -1      8944    3    0    1
 -2      1295      2295      2327      2745
 -1      8945    3    0    1
 -2      2375      1457      2436      2745
 -1      8946    3    0    1
 -2      1295       915      2295      2745
 -1      8947    3    0    1
 -2      1377      1295      2384      2745
 -1      8948    3    0    1
 -2      1280      1496      2453      2458
 -1      8949    3    0    1
 -2      1377      2384      2452      2745
 -1      8950    3    0    1
 -2      1442      1377      2452      2745
 -3
    1PSTEP                         1           1           1          
  100CL  101 1.000000000        2745                     0    1           1
 -4  DISP        4    1
 -5  D1          1    2    1    0
 -5  D2          1    2    2    0
 -5  D3          1    2    3    0
 -5  ALL         1    2    0    0    1ALL
 -1         1 1.47981E-04 2.05971E-05-5.03190E-03
 -1         2 9.39920E-04-1.02869E-04-5.05075E-03
 -1         3 9.44601E-04-1.32202E-04-5.16992E-03
 -1         4-4.15636E-04-1.75377E-05-8.16913E-03
 -1         5 2.66372E-04 5.43454E-06-7.91361E-03
 -1         6-4.18474E-04-4.07155E-05-8.22361E-03
 -1         7-1.37566E-03-1.80729E-05-5.42090E-03
 -1         8-4.71781E-04 1.10268E-05-8.18530E-03
 -1         9-1.38611E-03-7.13498E-05-5.48657E-03
 -1        10-7.75580E-05-3.12713E-05-8.01967E-03
 -1        11 1.48952E-04-5.99861E-05-5.02437E-03
 -1        12 3.03790E-04-4.22268E-05-7.99176E-03
 -1        13-5.27114E-04 1.10511E-05-5.44164E-03
 -1        14-4.77503E-05 2.75789E-05-8.06823E-03
 -1        15-4.94787E-04-5.30682E-05-8.25759E-03
 -1        16-2.21801E-04-1.48241E-05-8.30919E-03
 -1        17 2.68388E-04-7.06403E-05-7.99893E-03
 -1        18-2.68201E-04 7.05020E-05-8.23457E-03
 -1        19 2.34068E-04 1.59370E-05-7.94107E-03
 -1        20 1.58537E-04-7.39967E-05-5.00946E-03
 -1        21-1.39093E-04-7.81206E-04-7.75665E-03
 -1        22-1.04468E-03-8.46714E-04-4.94005E-03
 -1        23-1.27673E-04-7.82860E-04-8.01407E-03
 -1        24-2.55038E-04-7.17589E-04-7.40160E-03
 -1        25 5.44730E-04-5.49401E-04-7.06002E-03
 -1        26 4.52861E-04-6.08277E-04-7.83690E-03
 -1        27-1.72778E-04-6.76811E-04-7.22074E-03
 -1        28-3.96390E-04-3.06790E-04-4.88986E-03
 -1        29-1.08286E-03-8.67796E-04-5.12109E-03
 -1        30 1.09844E-03-4.41310E-04-4.41359E-03
 -1        31 1.54222E-05-2.16214E-04-7.12754E-03
 -1        32 1.15004E-03-4.54881E-04-5.02102E-03
 -1        33 4.92434E-04-6.09908E-04-7.58646E-03
 -1        34-8.57214E-06-1.64845E-04-7.64664E-03
 -1        35 5.00154E-04-5.52109E-04-6.82484E-03
 -1        36-1.95742E-04-2.45118E-04-7.85311E-03
 -1        37-1.00517E-04-3.04657E-04-7.24412E-03
 -1        38-1.64172E-04-2.96869E-04-7.47889E-03
 -1        39 4.81234E-04-9.55071E-04-5.43900E-03
 -1        40 4.86855E-04-9.94684E-04-6.14958E-03
 -1        41 5.15694E-04-9.82370E-04-6.50905E-03
 -1        42-2.04775E-04-1.18557E-03-4.06653E-03
 -1        43-1.39393E-04-3.96940E-04-3.64878E-03
 -1        44-1.82464E-04-1.13474E-03-3.65308E-03
 -1        45 7.48495E-05-3.33141E-04-5.50121E-03
 -1        46 1.87933E-04-2.56502E-04-5.19474E-03
 -1        47 1.44657E-03-5.65544E-04-3.10261E-03
 -1        48 1.48579E-03-5.72495E-04-4.22909E-03
 -1        49 1.02930E-03-8.13542E-04-5.99493E-03
 -1        50 4.11802E-05-3.47993E-04-6.18770E-03
 -1        51 1.00730E-03-8.29795E-04-6.49109E-03
 -1        52 9.28794E-04-7.37706E-04-4.68783E-03
 -1        53 9.95938E-04-6.95507E-04-5.11421E-03
 -1        54 5.17481E-04-9.19982E-04-5.10187E-03
 -1        55 7.42493E-05-3.04417E-04-6.44370E-03
 -1        56 1.17501E-04-2.24036E-04-6.55485E-03
 -1        57 1.03188E-04-3.37495E-04-5.12623E-03
 -1        58 2.20993E-04-2.38052E-04-4.68870E-03
 -1        59 1.14129E-03-6.32538E-04-2.28430E-03
 -1        60 1.12753E-03-7.09059E-04-3.62063E-03
 -1        61 1.13169E-03-6.39798E-04-2.74122E-03
 -1        62 1.50937E-03-5.31895E-04-3.63196E-03
 -1        63 1.93094E-03-4.35578E-04-2.78800E-03
 -1        64 1.91852E-03-4.30561E-04-1.30143E-03
 -1        65 5.23970E-04-8.23173E-04-1.86097E-03
 -1        66 2.95838E-04-1.81295E-04-2.77352E-03
 -1        67 1.31046E-04-2.45628E-04-1.94107E-03
 -1        68 1.49078E-03-5.11821E-04-2.49486E-03
 -1        69 3.70228E-04-7.66893E-05-1.14169E-03
 -1        70 3.12430E-04-1.12585E-04-2.87492E-03
 -1        71 5.62809E-04-8.40489E-04-2.38139E-03
 -1        72 3.10317E-04-1.88476E-04-3.67330E-03
 -1        73 1.14134E-03-7.02874E-04-4.08695E-03
 -1        74 1.48773E-03-5.66082E-04-4.21219E-03
 -1        75 1.46843E-03-5.01268E-04-1.92665E-03
 -1        76 1.46839E-03 5.75632E-06 3.26367E-04
 -1        77 9.64405E-04-4.86581E-05-4.02037E-04
 -1        78 1.66260E-03-1.71756E-06 4.58419E-04
 -1        79 1.44893E-03-3.24747E-05-6.49090E-04
 -1        80 1.00127E-03-3.26631E-05 1.61053E-04
 -1        81 3.83665E-04 1.79157E-05 7.91819E-04
 -1        82 3.96640E-04-6.57923E-06 4.59084E-04
 -1        83 2.13129E-03-1.81997E-05 6.84917E-04
 -1        84 2.13171E-03 8.01903E-06-9.66999E-04
 -1        85 2.78706E-04-5.66603E-05-3.59806E-04
 -1        86 3.85767E-04-4.25633E-05-6.58709E-04
 -1        87 1.67265E-03-2.06131E-05-7.77437E-04
 -1        88 3.94189E-04-2.39881E-05-7.83830E-04
 -1        89 3.96076E-04-7.43836E-05-1.43641E-03
 -1        90 3.87631E-04 1.60774E-05 1.10975E-03
 -1        91 3.69257E-04-9.38760E-05-1.09422E-03
 -1        92 3.98178E-04 1.00082E-05 3.11428E-04
 -1        93 1.65620E-03-3.07410E-05-1.37601E-03
 -1        94 1.46534E-03-4.38003E-05-1.16215E-03
 -1        95 4.28800E-04 1.99353E-05 7.41998E-04
 -1        96 1.48732E-03 1.71649E-05 8.11416E-04
 -1        97 1.64894E-03 7.07031E-06 1.05760E-03
 -1        98 2.01665E-03 4.48169E-04 9.77624E-04
 -1        99 2.03757E-03 4.27728E-04 2.55400E-03
 -1       100 1.50686E-03 5.12567E-04 2.20326E-03
 -1       101 1.17329E-03 6.06929E-04 2.00848E-03
 -1       102 1.54890E-03 5.19513E-04 3.39990E-03
 -1       103 1.52453E-03 5.58884E-04 3.99602E-03
 -1       104 1.13647E-03 6.68864E-04 3.35247E-03
 -1       105 1.15380E-03 6.97154E-04 3.79444E-03
 -1       106 1.47517E-04 2.23964E-04 1.70605E-03
 -1       107 5.48688E-04 7.39804E-04 1.67507E-03
 -1       108 5.66276E-04 7.01121E-04 2.10707E-03
 -1       109 3.36345E-04 9.80090E-05 2.59400E-03
 -1       110 3.17620E-04 1.58321E-04 3.41492E-03
 -1       111 3.56504E-04 1.28814E-04 2.24415E-03
 -1       112 1.15498E-03 6.31014E-04 2.46182E-03
 -1       113 3.11313E-04 2.21645E-04 2.49948E-03
 -1       114 1.48535E-03 4.96997E-04 1.62504E-03
 -1       115 3.02440E-04 2.23405E-04 3.36903E-03
 -1       116 2.84403E-04 1.91606E-04 4.03688E-03
 -1       117 1.60887E-03 6.09210E-04 3.97726E-03
 -1       118 9.80308E-04 7.21881E-04 4.88896E-03
 -1       119-1.90188E-04 1.13349E-03 3.40781E-03
 -1       120 3.02460E-05 3.36877E-04 5.91097E-03
 -1       121-1.54961E-04 1.19912E-03 3.86883E-03
 -1       122 4.99138E-04 1.00535E-03 5.80017E-03
 -1       123 1.01388E-03 7.47460E-04 5.82710E-03
 -1       124 1.54936E-03 6.31544E-04 2.80090E-03
 -1       125 4.30514E-04 9.25468E-04 5.07496E-03
 -1       126 1.06902E-04 3.36948E-04 5.16992E-03
 -1       127 2.08197E-04 2.18651E-04 4.97204E-03
 -1       128 1.30784E-04 2.08072E-04 6.35486E-03
 -1       129 9.49826E-04 8.03190E-04 6.28895E-03
 -1       130 4.90746E-04 8.88080E-04 4.77275E-03
 -1       131 1.82830E-04 3.16268E-04 4.83610E-03
 -1       132 5.52745E-04 9.63885E-04 6.15960E-03
 -1       133 9.58854E-04 7.22972E-04 4.45666E-03
 -1       134 2.22005E-04 9.52114E-05 4.03794E-03
 -1       135-1.02793E-03 8.24121E-04 4.88670E-03
 -1       136-1.85721E-04 7.18712E-04 7.07182E-03
 -1       137 5.40798E-04 5.25583E-04 6.78411E-03
 -1       138 4.36777E-04 5.79318E-04 7.56933E-03
 -1       139-4.38778E-05 7.26535E-04 7.77934E-03
 -1       140 1.16623E-03 3.92266E-04 4.78941E-03
 -1       141-3.97791E-04 3.36786E-04 4.85301E-03
 -1       142 1.14657E-03 3.71324E-04 4.17959E-03
 -1       143-1.06657E-03 7.94673E-04 4.72681E-03
 -1       144 5.91432E-05 1.78456E-04 6.89993E-03
 -1       145 4.99123E-04 5.70493E-04 7.32669E-03
 -1       146 2.31337E-05 1.16382E-04 7.41886E-03
 -1       147-1.17392E-04 6.91290E-04 6.88144E-03
 -1       148-1.22485E-04 2.61442E-04 7.18399E-03
 -1       149-8.77390E-05 1.87272E-04 7.81301E-03
 -1       150-9.23106E-05 7.63184E-04 7.53324E-03
 -1       151 4.98784E-04 5.30635E-04 6.54584E-03
 -1       152 2.88063E-04-2.84142E-05 7.68239E-03
 -1       153-3.93795E-04-7.91921E-05 7.97870E-03
 -1       154 2.68837E-04-4.79418E-05 7.69244E-03
 -1       155 3.27644E-04 1.82852E-05 7.72917E-03
 -1       156-4.38322E-04 7.87087E-06 8.01097E-03
 -1       157 2.83129E-04 3.02269E-05 7.75553E-03
 -1       158 9.85928E-04-4.08339E-06 4.89345E-03
 -1       159-1.28293E-03-1.59893E-05 5.35078E-03
 -1       160-1.36207E-03 4.58126E-05 5.40411E-03
 -1       161 9.60456E-04-3.50350E-05 4.93149E-03
 -1       162-4.83532E-05 2.75578E-05 7.78059E-03
 -1       163-3.32572E-04-5.95905E-05 8.05938E-03
 -1       164-2.13195E-04-4.12837E-05 8.05995E-03
 -1       165-3.94710E-04 4.06389E-05 8.02391E-03
 -1       166-3.20661E-05-8.30929E-05 7.73457E-03
 -1       167 2.04822E-04-7.25906E-05 4.79987E-03
 -1       168 1.13273E-03-3.98908E-04 4.83163E-03
 -1       169 5.31135E-04-4.67198E-04 6.87056E-03
 -1       170-1.00990E-04-7.22462E-04 7.62516E-03
 -1       171-2.14981E-04-6.58159E-04 7.24528E-03
 -1       172-7.03805E-05-7.15849E-04 7.86417E-03
 -1       173-1.10164E-03-7.01876E-04 4.93705E-03
 -1       174-1.12119E-03-6.84069E-04 4.87940E-03
 -1       175-1.36577E-04-2.59461E-04 7.30859E-03
 -1       176 1.14055E-03-3.63251E-04 4.23784E-03
 -1       177-7.32529E-06-1.47008E-04 7.45968E-03
 -1       178-1.60265E-04-2.17216E-04 7.72350E-03
 -1       179 5.05030E-04-5.40235E-04 7.31821E-03
 -1       180-6.04279E-06-1.24777E-04 7.67127E-03
 -1       181 5.11474E-04-4.66283E-04 6.65255E-03
 -1       182-1.67955E-04-6.15552E-04 7.07080E-03
 -1       183 3.61720E-04-5.60877E-04 7.60860E-03
 -1       184 1.53434E-03-5.01735E-04 2.90146E-03
 -1       185 9.84174E-04-7.02761E-04 5.96593E-03
 -1       186 9.56933E-04-7.19680E-04 6.41595E-03
 -1       187 4.73744E-04-9.17915E-04 5.38172E-03
 -1       188-1.32747E-04-4.09752E-04 3.69803E-03
 -1       189 7.49286E-05-3.52798E-04 5.47097E-03
 -1       190-2.22636E-04-1.12042E-03 3.70328E-03
 -1       191 9.70404E-04-6.52088E-04 5.13299E-03
 -1       192 1.97675E-04-2.59224E-04 5.17136E-03
 -1       193 1.41233E-04-2.21823E-04 6.07668E-03
 -1       194 1.53642E-03-5.20803E-04 4.02189E-03
 -1       195 4.63818E-04-9.59244E-04 6.08249E-03
 -1       196 4.17884E-05-3.17337E-04 6.17316E-03
 -1       197-1.67073E-04-1.12350E-03 4.10381E-03
 -1       198 2.38436E-04-2.30202E-04 4.69689E-03
 -1       199 7.40287E-07-3.31712E-04 6.40057E-03
 -1       200 5.31364E-04-9.12699E-04 6.41653E-03
 -1       201 5.14671E-04-8.81456E-04 5.07241E-03
 -1       202 8.90872E-04-6.93299E-04 4.73385E-03
 -1       203 2.02870E-03-4.09161E-04 2.60422E-03
 -1       204 3.23392E-04-1.19198E-04 2.67665E-03
 -1       205 1.58954E-03-5.61530E-04 4.19290E-03
 -1       206 1.18999E-03-7.32364E-04 3.58014E-03
 -1       207 2.01646E-03-4.09710E-04 1.05528E-03
 -1       208 1.55134E-03-5.36992E-04 2.38179E-03
 -1       209 1.60767E-03-5.29216E-04 3.61165E-03
 -1       210 1.19621E-03-6.80245E-04 2.66305E-03
 -1       211 6.06364E-04-8.76943E-04 1.75817E-03
 -1       212 1.53802E-03-5.21036E-04 1.79763E-03
 -1       213 4.06125E-04-6.75844E-05 9.25085E-04
 -1       214 6.48665E-04-9.06756E-04 2.33517E-03
 -1       215 3.71664E-04-1.39875E-04 1.77410E-03
 -1       216 3.34929E-04-2.37611E-04 2.71414E-03
 -1       217 1.21586E-03-6.47181E-04 2.20437E-03
 -1       218 2.49476E-04-2.84078E-04 4.00550E-03
 -1       219 2.97406E-04-2.08204E-04 4.27608E-03
 -1       220 1.23178E-03-6.90529E-04 4.06023E-03
 -1       221 2.16171E-03 6.76729E-06 7.26640E-04
 -1       222 2.16905E-03-2.09954E-05-9.04141E-04
 -1       223 1.50280E-03 1.00521E-05-5.54979E-04
 -1       224 1.51916E-03 2.58549E-05-1.07703E-03
 -1       225 8.37101E-04 9.78598E-06-2.10915E-04
 -1       226 2.42355E-04 9.54618E-06-1.66518E-04
 -1       227 4.30949E-04-1.66311E-08-5.60331E-04
 -1       228 1.80194E-03 3.14396E-06-7.26140E-04
 -1       229 8.65579E-04 6.89688E-06 2.58729E-04
 -1       230 4.16417E-04-3.47257E-05 6.03595E-04
 -1       231 1.77539E-03-3.83006E-05 1.24163E-03
 -1       232 1.79277E-03-2.11162E-05 5.77582E-04
 -1       233 1.78606E-03 1.72941E-05-1.37857E-03
 -1       234 1.48177E-03-4.58176E-06 4.48935E-04
 -1       235 1.49944E-03-3.73213E-05 9.61323E-04
 -1       236 4.32630E-04-9.05909E-06 4.46178E-04
 -1       237 3.97848E-04 2.99186E-05-1.42501E-03
 -1       238 4.00416E-04 4.72903E-05-1.11163E-03
 -1       239 1.17319E-03 6.85074E-04-4.10992E-03
 -1       240 5.86000E-04 7.29675E-04-2.37918E-03
 -1       241 1.53416E-03 5.27423E-04-4.22991E-03
 -1       242 1.17030E-03 6.42563E-04-2.73245E-03
 -1       243 1.19795E-03 6.11883E-04-2.28065E-03
 -1       244 1.32457E-04 2.44147E-04-1.97862E-03
 -1       245 5.69267E-04 7.77160E-04-1.93998E-03
 -1       246 1.17422E-03 6.99610E-04-3.65191E-03
 -1       247 3.02015E-04 2.49077E-04-3.67781E-03
 -1       248 2.01788E-03 3.92537E-04-2.80627E-03
 -1       249 1.54627E-03 5.06607E-04-3.64301E-03
 -1       250 2.00264E-03 4.13351E-04-1.24886E-03
 -1       251 3.72361E-04 1.28541E-04-2.52882E-03
 -1       252 1.48844E-03 5.12129E-04-1.92354E-03
 -1       253 1.50154E-03 4.88465E-04-2.48151E-03
 -1       254 3.25213E-04 1.88108E-04-2.36727E-03
 -1       255 3.07258E-04 2.12738E-04-2.77708E-03
 -1       256 3.66246E-04 8.82373E-05-1.90832E-03
 -1       257 9.77851E-04 7.12682E-04-5.13012E-03
 -1       258 1.55016E-03 5.90799E-04-4.25666E-03
 -1       259 9.93977E-04 7.36041E-04-6.05300E-03
 -1       260 4.66436E-04 9.37733E-04-6.02521E-03
 -1       261-1.90947E-04 1.07477E-03-3.61216E-03
 -1       262-1.51950E-04 1.10418E-03-4.06281E-03
 -1       263 1.53739E-03 5.79929E-04-3.06354E-03
 -1       264 1.89564E-04 2.28143E-04-5.20915E-03
 -1       265 4.22662E-04 9.10104E-04-5.39604E-03
 -1       266 2.55574E-04 2.07674E-04-4.67695E-03
 -1       267 9.09380E-04 7.44228E-04-4.71917E-03
 -1       268 9.63547E-04 7.68367E-04-6.49536E-03
 -1       269 4.64113E-04 8.71501E-04-5.07819E-03
 -1       270 4.79430E-04 9.44810E-04-6.38436E-03
 -1       271 1.33473E-04 1.96050E-04-6.54812E-03
 -1       272 1.09481E-03 3.96903E-04-5.04316E-03
 -1       273 1.06643E-03 3.64592E-04-4.42288E-03
 -1       274 4.79528E-04 5.75698E-04-7.48511E-03
 -1       275-2.52371E-04 6.77821E-04-7.26535E-03
 -1       276-1.09969E-03 7.08527E-04-4.92263E-03
 -1       277-1.12073E-03 6.91471E-04-4.86802E-03
 -1       278-1.78707E-04 7.22592E-04-7.65911E-03
 -1       279 5.38473E-04 4.79927E-04-7.02893E-03
 -1       280 5.35281E-05 1.96480E-04-7.08510E-03
 -1       281 4.98798E-04 4.69498E-04-6.82356E-03
 -1       282-1.68119E-04 2.52278E-04-7.35432E-03
 -1       283-1.35797E-04 7.03150E-04-7.91827E-03
 -1       284-2.04121E-04 6.42267E-04-7.07450E-03
 -1       285-1.62593E-04 1.91824E-04-7.91565E-03
 -1       286 4.58651E-04 5.80025E-04-7.78327E-03
 -1       287 0.00000E+00 0.00000E+00 0.00000E+00
 -1       288 0.00000E+00 0.00000E+00 0.00000E+00
 -1       289 0.00000E+00 0.00000E+00 0.00000E+00
 -1       290 0.00000E+00 0.00000E+00 0.00000E+00
 -1       291 0.00000E+00 0.00000E+00 0.00000E+00
 -1       292 0.00000E+00 0.00000E+00 0.00000E+00
 -1       293 0.00000E+00 0.00000E+00 0.00000E+00
 -1       294 0.00000E+00 0.00000E+00 0.00000E+00
 -1       295 0.00000E+00 0.00000E+00 0.00000E+00
 -1       296 0.00000E+00 0.00000E+00 0.00000E+00
 -1       297 0.00000E+00 0.00000E+00 0.00000E+00
 -1       298 0.00000E+00 0.00000E+00 0.00000E+00
 -1       299 0.00000E+00 0.00000E+00 0.00000E+00
 -1       300 0.00000E+00 0.00000E+00 0.00000E+00
 -1       301 0.00000E+00 0.00000E+00 0.00000E+00
 -1       302 0.00000E+00 0.00000E+00 0.00000E+00
 -1       303 0.00000E+00 0.00000E+00 0.00000E+00
 -1       304 0.00000E+00 0.00000E+00 0.00000E+00
 -1       305 0.00000E+00 0.00000E+00 0.00000E+00
 -1       306 0.00000E+00 0.00000E+00 0.00000E+00
 -1       307 0.00000E+00 0.00000E+00 0.00000E+00
 -1       308 0.00000E+00 0.00000E+00 0.00000E+00
 -1       309 0.00000E+00 0.00000E+00 0.00000E+00
 -1       310 0.00000E+00 0.00000E+00 0.00000E+00
 -1       311 0.00000E+00 0.00000E+00 0.00000E+00
 -1       312 0.00000E+00 0.00000E+00 0.00000E+00
 -1       313 0.00000E+00 0.00000E+00 0.00000E+00
 -1       314 0.00000E+00 0.00000E+00 0.00000E+00
 -1       315 0.00000E+00 0.00000E+00 0.00000E+00
 -1       316 0.00000E+00 0.00000E+00 0.00000E+00
 -1       317 0.00000E+00 0.00000E+00 0.00000E+00
 -1       318 0.00000E+00 0.00000E+00 0.00000E+00
 -1       319 0.00000E+00 0.00000E+00 0.00000E+00
 -1       320 0.00000E+00 0.00000E+00 0.00000E+00
 -1       321 0.00000E+00 0.00000E+00 0.00000E+00
 -1       322 0.00000E+00 0.00000E+00 0.00000E+00
 -1       323 0.00000E+00 0.00000E+00 0.00000E+00
 -1       324-1.26963E-04 2.24293E-04 7.60563E-03
 -1       325-1.89711E-04 6.78236E-05 8.18196E-03
 -1       326-5.17797E-04-2.90055E-05 5.37788E-03
 -1       327-2.47404E-04 2.46427E-05 8.13808E-03
 -1       328-4.31536E-04 3.39863E-04 4.70240E-03
 -1       329-4.63769E-04-2.17433E-04 4.93256E-03
 -1       330-2.12071E-04-2.20864E-04 7.92658E-03
 -1       331-2.36837E-04-5.16822E-05 8.00217E-03
 -1       332 0.00000E+00 0.00000E+00 0.00000E+00
 -1       333-5.22189E-04-3.33366E-05 5.38473E-03
 -1       334 0.00000E+00 0.00000E+00 0.00000E+00
 -1       335-1.65206E-04 3.92099E-04 3.78673E-03
 -1       336 0.00000E+00 0.00000E+00 0.00000E+00
 -1       337-2.15246E-05 5.54249E-05 7.69429E-03
 -1       338 7.66930E-06 9.00800E-05 7.63301E-03
 -1       339-1.55984E-04-2.84785E-04 7.12294E-03
 -1       340-1.58986E-04-4.33026E-04 4.07211E-03
 -1       341 0.00000E+00 0.00000E+00 0.00000E+00
 -1       342-3.55764E-04-2.48546E-04 4.83840E-03
 -1       343 9.36114E-05 1.96240E-04 6.58894E-03
 -1       344-4.03326E-06 3.32266E-04 6.15985E-03
 -1       345-1.04925E-04 2.81877E-04 6.94902E-03
 -1       346 3.04849E-04-2.49072E-04 3.65147E-03
 -1       347 8.48463E-05-1.85452E-04 6.72342E-03
 -1       348 2.67494E-04 3.01322E-04 3.75218E-03
 -1       349 2.31694E-04 2.12857E-04 4.45307E-03
 -1       350 1.79550E-04 3.75826E-05 4.76417E-03
 -1       351 2.39198E-04 9.91270E-05 4.00134E-03
 -1       352 2.21882E-04-1.27807E-04 4.04999E-03
 -1       353 1.46678E-04 2.16790E-04 5.87890E-03
 -1       354 4.12101E-04-4.61582E-05 8.54327E-04
 -1       355 3.96706E-04-8.58484E-05 1.28911E-03
 -1       356 3.69367E-04-1.74491E-04 2.41737E-03
 -1       357 3.16708E-04 1.12165E-04 2.65169E-03
 -1       358 3.05538E-04-1.29819E-04 2.73924E-03
 -1       359 3.43847E-04-1.89366E-04 3.64650E-03
 -1       360 1.19963E-04-1.96891E-04 6.47252E-03
 -1       361 1.96862E-04-1.27951E-04 4.09812E-03
 -1       362 3.25487E-05-1.74061E-04 6.97265E-03
 -1       363 1.75722E-04 2.62150E-05 4.78499E-03
 -1       364 2.02246E-04-5.78624E-05 4.81553E-03
 -1       365-3.94804E-05-4.44465E-05 7.75540E-03
 -1       366 9.88714E-05-3.32180E-04 5.14935E-03
 -1       367 3.76075E-04 3.87936E-05 8.56434E-04
 -1       368 3.77159E-04-5.53548E-05-1.07051E-03
 -1       369 4.07227E-04 2.43222E-05-1.04240E-03
 -1       370 4.10649E-04 3.54910E-06-7.31963E-04
 -1       371 3.75846E-04-1.23829E-04-1.88510E-03
 -1       372 3.55732E-04-1.64895E-04-2.52000E-03
 -1       373 2.78681E-04-2.67572E-04-3.64510E-03
 -1       374 2.77734E-04-2.31734E-04-4.03032E-03
 -1       375 1.62071E-04 1.95220E-04-6.10953E-03
 -1       376 2.20975E-04-1.37566E-04-4.24131E-03
 -1       377 2.07130E-04 9.62925E-05-4.30430E-03
 -1       378 2.24455E-04 9.96687E-05-4.26649E-03
 -1       379 2.92567E-04-1.25196E-04-2.93426E-03
 -1       380 2.65788E-04 2.36327E-04-4.09686E-03
 -1       381 2.84671E-04-1.99417E-04-4.26303E-03
 -1       382 8.01118E-05 3.22658E-04-5.16290E-03
 -1       383 1.08682E-04 2.53009E-04-2.32290E-03
 -1       384-4.04064E-05 6.83216E-05-7.96848E-03
 -1       385 3.24016E-06 1.43627E-04-7.58111E-03
 -1       386 1.53533E-04 3.32509E-05-5.01100E-03
 -1       387 8.04498E-05 2.00852E-04-6.80757E-03
 -1       388-1.38240E-04 2.70078E-04-7.07788E-03
 -1       389 5.26380E-05 3.14976E-04-6.35342E-03
 -1       390-9.93939E-06 1.02109E-04-7.85208E-03
 -1       391-2.31889E-04-5.56471E-05-8.23561E-03
 -1       392-2.45730E-04-2.25082E-04-8.02448E-03
 -1       393 7.85756E-05-2.80195E-04-2.31868E-03
 -1       394 0.00000E+00 0.00000E+00 0.00000E+00
 -1       395 0.00000E+00 0.00000E+00 0.00000E+00
 -1       396 3.14889E-04-2.04599E-04-2.36680E-03
 -1       397 0.00000E+00 0.00000E+00 0.00000E+00
 -1       398 3.07216E-04 3.50780E-05 1.01832E-04
 -1       399 3.37474E-04 1.98481E-04 2.06780E-03
 -1       400 3.68425E-04 8.30771E-05 1.60058E-03
 -1       401 0.00000E+00 0.00000E+00 0.00000E+00
 -1       402 0.00000E+00 0.00000E+00 0.00000E+00
 -1       403 1.02702E-04 2.78962E-04 2.08351E-03
 -1       404-1.17345E-04 3.47353E-04 3.45190E-03
 -1       405 0.00000E+00 0.00000E+00 0.00000E+00
 -1       406 0.00000E+00 0.00000E+00 0.00000E+00
 -1       407-1.62014E-04-4.05230E-04-3.96382E-03
 -1       408-4.48225E-04-3.12039E-04-5.13335E-03
 -1       409 0.00000E+00 0.00000E+00 0.00000E+00
 -1       410 0.00000E+00 0.00000E+00 0.00000E+00
 -1       411 0.00000E+00 0.00000E+00 0.00000E+00
 -1       412 0.00000E+00 0.00000E+00 0.00000E+00
 -1       413 0.00000E+00 0.00000E+00 0.00000E+00
 -1       414-5.68142E-04-4.98400E-06-5.45958E-03
 -1       415-4.26794E-04 2.47393E-04-4.92797E-03
 -1       416-3.63266E-04 2.75330E-04-4.85376E-03
 -1       417-2.99583E-04 3.15514E-05-8.31406E-03
 -1       418-1.59546E-04 2.22786E-04-7.69859E-03
 -1       419-1.56819E-04 3.18767E-04-4.00521E-03
 -1       420-1.25790E-04 3.46932E-04-3.69167E-03
 -1       421 5.31944E-05 3.06457E-04-6.09485E-03
 -1       422 4.44781E-05 3.28244E-04-5.45348E-03
 -1       423 4.04926E-04 1.45141E-05-9.92163E-04
 -1       424 0.00000E+00 0.00000E+00 0.00000E+00
 -1       425 1.34006E-04-2.99741E-04 1.78443E-03
 -1       426 2.12241E-04-2.70472E-05 1.96030E-04
 -1       427 4.26696E-04-6.09265E-05 9.03435E-04
 -1       428 3.51647E-04-2.29310E-04 2.27074E-03
 -1       429 8.66647E-05-3.17214E-04 2.25709E-03
 -1       430-2.73086E-05-7.98081E-05-7.99452E-03
 -1       431 5.51438E-06-1.19596E-04-7.89123E-03
 -1       432 5.71388E-05-2.28596E-04-6.79181E-03
 -1       433 1.47723E-04-2.29863E-04-6.11920E-03
 -1       434 2.01922E-04-1.36778E-04-4.28521E-03
 -1       435 3.09345E-04 9.85795E-05-2.92900E-03
 -1       436 2.85078E-04 1.76189E-04-4.30281E-03
 -1       437 3.20281E-04 1.62511E-04-3.68196E-03
 -1       438 3.31308E-04 8.43173E-05-2.87082E-03
 -1       439 0.00000E+00 0.00000E+00 0.00000E+00
 -1       440 0.00000E+00 0.00000E+00 0.00000E+00
 -1       441 0.00000E+00 0.00000E+00 0.00000E+00
 -1       442 0.00000E+00 0.00000E+00 0.00000E+00
 -1       443 0.00000E+00 0.00000E+00 0.00000E+00
 -1       444 0.00000E+00 0.00000E+00 0.00000E+00
 -1       445 0.00000E+00 0.00000E+00 0.00000E+00
 -1       446 0.00000E+00 0.00000E+00 0.00000E+00
 -1       447 0.00000E+00 0.00000E+00 0.00000E+00
 -1       448 0.00000E+00 0.00000E+00 0.00000E+00
 -1       449 7.35532E-04-7.23568E-05-6.67280E-03
 -1       450 7.91745E-04-1.23240E-04-6.81052E-03
 -1       451-6.24740E-05 4.65171E-05-8.41450E-03
 -1       452-6.83732E-05-4.57152E-05-8.46391E-03
 -1       453-1.12879E-03-5.05454E-05-7.12431E-03
 -1       454-1.11561E-03-1.02383E-04-7.22543E-03
 -1       455-4.50906E-04-1.88646E-05-7.24491E-03
 -1       456-6.17795E-06-3.95190E-05-6.76222E-03
 -1       457-7.45154E-06 2.74436E-05-6.84067E-03
 -1       458-4.24805E-04 2.81679E-05-7.26620E-03
 -1       459-1.42076E-04 9.80067E-05-8.48317E-03
 -1       460-1.40930E-04-7.72334E-05-8.53518E-03
 -1       461-7.47242E-04-8.16377E-04-6.69268E-03
 -1       462-8.44288E-04-7.69035E-04-6.45177E-03
 -1       463 1.87306E-04-7.04184E-04-8.12720E-03
 -1       464 1.83702E-04-6.00161E-04-7.21844E-03
 -1       465 9.59374E-04-4.45639E-04-6.47222E-03
 -1       466 9.35456E-04-4.15657E-04-5.92357E-03
 -1       467-3.29416E-04-2.84256E-04-6.50566E-03
 -1       468 6.24491E-05-1.73751E-04-5.93986E-03
 -1       469 4.16004E-05-1.22903E-04-6.54457E-03
 -1       470-3.52052E-04-2.59194E-04-6.79187E-03
 -1       471-1.25936E-04-1.89632E-04-8.24231E-03
 -1       472-2.02282E-05-2.68865E-04-7.23473E-03
 -1       473 2.52475E-05-1.14639E-03-5.25133E-03
 -1       474-1.61098E-06-1.11186E-03-4.75431E-03
 -1       475 7.63152E-04-8.64660E-04-6.63824E-03
 -1       476 7.44822E-04-7.98027E-04-5.09569E-03
 -1       477 1.29201E-03-6.28509E-04-5.24058E-03
 -1       478 1.29501E-03-5.84540E-04-4.24799E-03
 -1       479-7.15166E-06-3.73652E-04-4.80117E-03
 -1       480 2.28683E-04-2.03547E-04-4.26259E-03
 -1       481 1.48014E-04-1.79594E-04-5.35285E-03
 -1       482-6.95881E-05-3.90051E-04-5.32573E-03
 -1       483 5.10223E-05-2.73653E-04-6.71441E-03
 -1       484 1.63284E-04-3.14387E-04-5.12148E-03
 -1       485 1.33612E-03-5.58709E-04-2.19177E-03
 -1       486 7.65255E-04-7.89022E-04-3.08353E-03
 -1       487 7.66658E-04-7.67540E-04-2.44304E-03
 -1       488 1.81498E-03-4.66555E-04-3.34129E-03
 -1       489 1.79714E-03-4.54658E-04-1.93656E-03
 -1       490 1.32398E-03-6.13139E-04-4.26012E-03
 -1       491 2.24349E-04-2.52285E-04-2.48652E-03
 -1       492 3.75557E-04-1.46780E-04-1.94659E-03
 -1       493 3.13582E-04-1.73776E-04-3.42218E-03
 -1       494 2.12756E-04-2.79789E-04-3.10534E-03
 -1       495 2.78341E-04-2.33692E-04-4.27033E-03
 -1       496 3.18337E-04-1.73398E-04-2.21927E-03
 -1       497 1.54864E-03 2.19903E-05 9.39507E-04
 -1       498 1.14630E-03 1.87378E-06-5.35190E-04
 -1       499 1.14444E-03-3.30567E-05 2.36719E-04
 -1       500 1.97889E-03 9.44669E-06-8.93579E-04
 -1       501 1.98669E-03-2.77292E-05 6.23342E-04
 -1       502 1.55498E-03-5.47686E-05-1.27565E-03
 -1       503 2.73272E-04 2.11408E-05 2.31848E-04
 -1       504 4.00032E-04-6.68133E-06 6.24339E-04
 -1       505 3.89089E-04-2.35586E-05-9.31781E-04
 -1       506 3.14808E-04-3.27187E-05-5.21105E-04
 -1       507 3.57372E-04-5.15068E-05-1.27627E-03
 -1       508 3.99196E-04 2.26830E-05 9.17306E-04
 -1       509 1.35896E-03 5.65586E-04 1.89151E-03
 -1       510 1.86435E-03 4.58335E-04 1.60354E-03
 -1       511 1.89613E-03 4.35006E-04 3.13139E-03
 -1       512 7.60892E-04 7.31407E-04 2.14830E-03
 -1       513 7.61568E-04 7.25846E-04 2.80375E-03
 -1       514 1.34005E-03 6.21436E-04 3.99041E-03
 -1       515 1.85464E-04 2.14773E-04 2.83860E-03
 -1       516 3.18078E-04 1.35364E-04 3.15764E-03
 -1       517 3.66741E-04 1.11398E-04 1.62309E-03
 -1       518 2.28581E-04 2.13873E-04 2.19950E-03
 -1       519 3.84965E-04 1.77951E-04 1.93639E-03
 -1       520 2.95075E-04 2.14103E-04 4.01923E-03
 -1       521 6.10547E-05 1.09980E-03 4.52705E-03
 -1       522 1.16604E-04 1.14559E-03 5.16068E-03
 -1       523 7.44721E-04 8.31604E-04 4.80498E-03
 -1       524 7.68777E-04 9.00130E-04 6.50276E-03
 -1       525 1.35014E-03 6.08936E-04 3.96485E-03
 -1       526 1.44362E-03 6.10058E-04 5.10785E-03
 -1       527-7.04614E-05 3.54162E-04 5.16319E-03
 -1       528 1.97616E-04 1.47284E-04 5.10414E-03
 -1       529 2.21284E-04 1.89179E-04 4.01762E-03
 -1       530-3.43491E-05 3.47914E-04 4.55945E-03
 -1       531 1.58423E-04 2.70909E-04 4.87150E-03
 -1       532 6.80237E-05 2.54061E-04 6.51297E-03
 -1       533-7.93879E-04 8.01061E-04 6.24128E-03
 -1       534-6.81208E-04 8.53479E-04 6.59488E-03
 -1       535 2.12733E-04 6.26171E-04 6.95913E-03
 -1       536 1.94977E-04 6.39293E-04 7.92599E-03
 -1       537 1.01312E-03 3.99713E-04 5.67457E-03
 -1       538 9.45852E-04 4.82536E-04 6.31115E-03
 -1       539-2.92059E-04 2.81368E-04 6.67781E-03
 -1       540 5.26016E-05 1.00990E-04 6.35206E-03
 -1       541 1.04177E-04 1.38689E-04 5.74293E-03
 -1       542-2.76716E-04 3.01061E-04 6.35952E-03
 -1       543-3.40021E-05 2.64893E-04 7.07540E-03
 -1       544-8.57729E-05 1.57904E-04 7.97630E-03
 -1       545-1.02758E-03-7.95439E-05 7.08494E-03
 -1       546-1.06623E-03 5.11153E-06 7.12495E-03
 -1       547-2.94728E-05-4.98390E-05 8.15705E-03
 -1       548-1.25557E-05 3.84169E-05 8.20510E-03
 -1       549 7.84506E-04-5.36487E-05 6.52722E-03
 -1       550 7.88486E-04-4.46914E-07 6.54057E-03
 -1       551-4.24037E-04-5.92120E-05 7.12731E-03
 -1       552 4.11245E-05-4.61886E-05 6.57565E-03
 -1       553-2.05813E-06 6.52257E-06 6.60576E-03
 -1       554-3.52140E-04-4.01641E-06 7.24880E-03
 -1       555-1.32169E-04 3.96651E-05 8.26832E-03
 -1       556-1.09751E-04-8.44714E-05 8.22718E-03
 -1       557 9.66506E-04-3.86887E-04 5.70456E-03
 -1       558 9.52739E-04-4.27911E-04 6.31335E-03
 -1       559 2.35371E-04-5.95295E-04 7.12067E-03
 -1       560 2.09459E-04-6.32911E-04 8.01954E-03
 -1       561-8.56848E-04-7.00512E-04 6.39835E-03
 -1       562-7.57259E-04-7.48475E-04 6.63522E-03
 -1       563-2.49058E-04-2.65746E-04 6.48480E-03
 -1       564 1.00374E-04-1.61152E-04 5.77771E-03
 -1       565 7.48886E-05-1.21028E-04 6.36073E-03
 -1       566-2.95029E-04-2.55144E-04 6.68386E-03
 -1       567-8.65281E-05-1.82131E-04 8.07414E-03
 -1       568-2.99723E-05-2.48913E-04 7.20615E-03
 -1       569 1.37709E-03-5.51548E-04 4.13573E-03
 -1       570 1.38676E-03-5.80633E-04 5.22620E-03
 -1       571 7.23060E-04-7.92435E-04 5.08492E-03
 -1       572 7.14287E-04-8.41459E-04 6.62702E-03
 -1       573-1.16814E-05-1.07468E-03 4.83898E-03
 -1       574 5.08699E-05-1.09384E-03 5.33491E-03
 -1       575-1.60953E-05-4.06734E-04 4.92780E-03
 -1       576 2.52458E-04-1.82311E-04 4.20473E-03
 -1       577 1.84135E-04-1.81596E-04 5.28019E-03
 -1       578-3.08974E-05-3.96269E-04 5.33807E-03
 -1       579 6.38739E-05-2.42067E-04 6.66423E-03
 -1       580 1.70739E-04-2.88191E-04 5.16795E-03
 -1       581 1.36573E-03-6.42145E-04 4.25735E-03
 -1       582 1.88749E-03-4.43929E-04 1.74450E-03
 -1       583 1.91965E-03-4.24284E-04 3.25243E-03
 -1       584 8.20786E-04-8.17312E-04 2.37737E-03
 -1       585 8.35412E-04-8.60284E-04 3.13876E-03
 -1       586 1.39916E-03-5.85813E-04 2.15741E-03
 -1       587 2.09503E-04-2.81889E-04 2.44543E-03
 -1       588 3.69131E-04-1.38307E-04 1.77156E-03
 -1       589 3.41579E-04-1.54300E-04 3.27116E-03
 -1       590 1.80881E-04-3.15875E-04 3.17059E-03
 -1       591 2.92172E-04-2.33641E-04 4.29833E-03
 -1       592 3.83640E-04-1.96572E-04 2.18211E-03
 -1       593 1.66569E-03-4.49510E-05 1.11378E-03
 -1       594 2.02507E-03-1.75396E-05-8.78795E-04
 -1       595 2.01818E-03-4.20760E-06 7.08801E-04
 -1       596 1.08901E-03-5.60152E-06-3.95211E-04
 -1       597 1.10269E-03 4.48030E-05 3.42772E-04
 -1       598 1.65915E-03 2.70497E-05-1.22554E-03
 -1       599 3.03472E-04 1.43486E-06-3.99554E-04
 -1       600 4.02643E-04-1.04381E-06-8.84992E-04
 -1       601 3.89537E-04-2.05961E-05 7.38545E-04
 -1       602 3.11366E-04-1.64435E-05 3.44630E-04
 -1       603 4.50408E-04-6.50041E-05 1.10360E-03
 -1       604 4.05624E-04 2.22817E-05-1.22621E-03
 -1       605 1.33106E-03 6.15728E-04-4.29729E-03
 -1       606 8.22058E-04 7.70268E-04-3.16142E-03
 -1       607 8.10864E-04 7.55601E-04-2.45783E-03
 -1       608 1.87749E-03 4.16336E-04-3.36362E-03
 -1       609 1.81165E-03 4.33863E-04-1.91992E-03
 -1       610 1.35784E-03 5.36461E-04-2.18285E-03
 -1       611 2.14931E-04 2.37319E-04-3.20893E-03
 -1       612 3.21367E-04 1.22539E-04-3.40987E-03
 -1       613 3.55976E-04 1.09581E-04-1.91929E-03
 -1       614 2.39159E-04 2.33133E-04-2.48854E-03
 -1       615 3.49295E-04 1.39113E-04-2.20802E-03
 -1       616 2.46962E-04 1.93305E-04-4.34763E-03
 -1       617 1.36030E-03 6.29046E-04-5.34264E-03
 -1       618 1.34994E-03 5.93798E-04-4.26493E-03
 -1       619 7.22322E-04 8.44500E-04-6.61425E-03
 -1       620 6.97527E-04 7.76311E-04-5.09349E-03
 -1       621-2.46051E-07 1.06025E-03-5.25565E-03
 -1       622 1.27921E-06 1.03429E-03-4.77864E-03
 -1       623-1.02819E-04 3.53862E-04-5.31246E-03
 -1       624 1.48181E-04 1.65228E-04-5.40561E-03
 -1       625 2.19976E-04 1.63502E-04-4.27105E-03
 -1       626-2.77056E-05 3.31944E-04-4.80554E-03
 -1       627 1.38257E-04 2.63053E-04-5.11244E-03
 -1       628 5.73142E-05 2.36192E-04-6.67963E-03
 -1       629 9.31362E-04 4.55959E-04-6.49003E-03
 -1       630 9.54410E-04 3.91398E-04-5.93005E-03
 -1       631 1.16262E-04 6.38209E-04-8.04551E-03
 -1       632 1.67753E-04 5.54130E-04-7.24602E-03
 -1       633-7.72582E-04 7.60310E-04-6.61634E-03
 -1       634-8.82200E-04 7.03780E-04-6.39394E-03
 -1       635-3.22047E-04 2.32868E-04-6.71519E-03
 -1       636 2.20944E-05 9.73171E-05-6.58451E-03
 -1       637 7.70232E-05 1.40679E-04-5.95359E-03
 -1       638-2.96142E-04 2.60252E-04-6.40827E-03
 -1       639-2.99617E-05 2.51888E-04-7.28852E-03
 -1       640-1.18269E-04 1.63839E-04-8.15441E-03
 -1       641 0.00000E+00 0.00000E+00 0.00000E+00
 -1       642 0.00000E+00 0.00000E+00 0.00000E+00
 -1       643 0.00000E+00 0.00000E+00 0.00000E+00
 -1       644 0.00000E+00 0.00000E+00 0.00000E+00
 -1       645 0.00000E+00 0.00000E+00 0.00000E+00
 -1       646 0.00000E+00 0.00000E+00 0.00000E+00
 -1       647 0.00000E+00 0.00000E+00 0.00000E+00
 -1       648 0.00000E+00 0.00000E+00 0.00000E+00
 -1       649 0.00000E+00 0.00000E+00 0.00000E+00
 -1       650 0.00000E+00 0.00000E+00 0.00000E+00
 -1       651 0.00000E+00 0.00000E+00 0.00000E+00
 -1       652 0.00000E+00 0.00000E+00 0.00000E+00
 -1       653 0.00000E+00 0.00000E+00 0.00000E+00
 -1       654 0.00000E+00 0.00000E+00 0.00000E+00
 -1       655 0.00000E+00 0.00000E+00 0.00000E+00
 -1       656 0.00000E+00 0.00000E+00 0.00000E+00
 -1       657 0.00000E+00 0.00000E+00 0.00000E+00
 -1       658 0.00000E+00 0.00000E+00 0.00000E+00
 -1       659 0.00000E+00 0.00000E+00 0.00000E+00
 -1       660 0.00000E+00 0.00000E+00 0.00000E+00
 -1       661 0.00000E+00 0.00000E+00 0.00000E+00
 -1       662 0.00000E+00 0.00000E+00 0.00000E+00
 -1       663 0.00000E+00 0.00000E+00 0.00000E+00
 -1       664 0.00000E+00 0.00000E+00 0.00000E+00
 -1       665 0.00000E+00 0.00000E+00 0.00000E+00
 -1       666 0.00000E+00 0.00000E+00 0.00000E+00
 -1       667 0.00000E+00 0.00000E+00 0.00000E+00
 -1       668 0.00000E+00 0.00000E+00 0.00000E+00
 -1       669 0.00000E+00 0.00000E+00 0.00000E+00
 -1       670 0.00000E+00 0.00000E+00 0.00000E+00
 -1       671 0.00000E+00 0.00000E+00 0.00000E+00
 -1       672 0.00000E+00 0.00000E+00 0.00000E+00
 -1       673 0.00000E+00 0.00000E+00 0.00000E+00
 -1       674 0.00000E+00 0.00000E+00 0.00000E+00
 -1       675 0.00000E+00 0.00000E+00 0.00000E+00
 -1       676 0.00000E+00 0.00000E+00 0.00000E+00
 -1       677 0.00000E+00 0.00000E+00 0.00000E+00
 -1       678 0.00000E+00 0.00000E+00 0.00000E+00
 -1       679 0.00000E+00 0.00000E+00 0.00000E+00
 -1       680 0.00000E+00 0.00000E+00 0.00000E+00
 -1       681 0.00000E+00 0.00000E+00 0.00000E+00
 -1       682 0.00000E+00 0.00000E+00 0.00000E+00
 -1       683 0.00000E+00 0.00000E+00 0.00000E+00
 -1       684 0.00000E+00 0.00000E+00 0.00000E+00
 -1       685 0.00000E+00 0.00000E+00 0.00000E+00
 -1       686 0.00000E+00 0.00000E+00 0.00000E+00
 -1       687 0.00000E+00 0.00000E+00 0.00000E+00
 -1       688 0.00000E+00 0.00000E+00 0.00000E+00
 -1       689 0.00000E+00 0.00000E+00 0.00000E+00
 -1       690 0.00000E+00 0.00000E+00 0.00000E+00
 -1       691 0.00000E+00 0.00000E+00 0.00000E+00
 -1       692 0.00000E+00 0.00000E+00 0.00000E+00
 -1       693 0.00000E+00 0.00000E+00 0.00000E+00
 -1       694 0.00000E+00 0.00000E+00 0.00000E+00
 -1       695 0.00000E+00 0.00000E+00 0.00000E+00
 -1       696 0.00000E+00 0.00000E+00 0.00000E+00
 -1       697 0.00000E+00 0.00000E+00 0.00000E+00
 -1       698 0.00000E+00 0.00000E+00 0.00000E+00
 -1       699 0.00000E+00 0.00000E+00 0.00000E+00
 -1       700 0.00000E+00 0.00000E+00 0.00000E+00
 -1       701 0.00000E+00 0.00000E+00 0.00000E+00
 -1       702 0.00000E+00 0.00000E+00 0.00000E+00
 -1       703 0.00000E+00 0.00000E+00 0.00000E+00
 -1       704 0.00000E+00 0.00000E+00 0.00000E+00
 -1       705 5.12044E-04-1.93704E-05-7.25139E-03
 -1       706 8.91342E-04-1.00976E-04-5.83139E-03
 -1       707 5.75733E-04-1.03098E-04-7.35283E-03
 -1       708 1.01205E-04 3.25198E-05-8.12177E-03
 -1       709-8.08127E-04-1.83323E-05-7.57007E-03
 -1       710-1.26620E-03-5.69538E-05-6.30141E-03
 -1       711-1.75261E-05 2.39535E-05-7.51816E-03
 -1       712-1.21025E-04-4.97024E-05-8.30042E-03
 -1       713 1.09577E-03-4.50274E-04-5.72722E-03
 -1       714 7.57108E-04-5.24519E-04-7.01233E-03
 -1       715 1.06548E-03-4.20999E-04-5.09702E-03
 -1       716 1.86863E-05-1.69213E-04-7.23399E-03
 -1       717-8.11340E-05-2.71873E-04-7.35713E-03
 -1       718 3.91536E-05-2.34490E-04-7.12284E-03
 -1       719 1.41155E-03-5.91927E-04-4.70180E-03
 -1       720 1.11976E-03-6.55950E-04-5.63443E-03
 -1       721 1.36952E-03-5.39600E-04-3.67006E-03
 -1       722-1.31927E-04-4.07226E-04-4.76087E-03
 -1       723 1.11399E-04-3.26589E-04-5.21010E-03
 -1       724 2.23550E-04-3.02192E-04-4.96104E-03
 -1       725 1.88163E-03-4.31494E-04-1.59628E-03
 -1       726 1.41148E-03-5.88046E-04-4.22808E-03
 -1       727 1.21273E-03-6.52541E-04-4.18402E-03
 -1       728 3.43539E-04-1.66330E-04-2.08239E-03
 -1       729 2.07296E-03 4.77138E-07-9.62496E-04
 -1       730 1.83930E-03 1.08257E-05-8.74126E-04
 -1       731 2.07264E-03-1.27084E-05 6.72585E-04
 -1       732 1.49389E-03-6.36498E-05-1.20617E-03
 -1       733 9.52712E-04 7.02516E-04 3.08682E-03
 -1       734 1.20934E-03 6.39942E-04 3.85275E-03
 -1       735 1.42748E-03 5.86903E-04 3.98699E-03
 -1       736 1.96863E-04 2.40362E-04 1.97698E-03
 -1       737 2.43528E-04 2.29340E-04 3.92051E-03
 -1       738 2.95398E-04 1.99537E-04 4.05117E-03
 -1       739 1.50343E-03 6.05696E-04 3.32737E-03
 -1       740 1.17167E-03 6.61230E-04 4.39813E-03
 -1       741 1.55298E-03 6.04977E-04 4.51528E-03
 -1       742 2.41181E-04 2.09780E-04 4.58288E-03
 -1       743 4.95241E-05 2.91419E-04 6.43903E-03
 -1       744 9.18312E-05 2.56380E-04 6.45491E-03
 -1       745 1.11590E-03 3.75595E-04 4.89142E-03
 -1       746 7.75103E-04 4.93536E-04 6.19992E-03
 -1       747 1.10909E-03 4.07146E-04 5.53167E-03
 -1       748 1.00184E-04 1.54117E-04 6.40819E-03
 -1       749-7.90934E-05 1.95920E-04 7.94589E-03
 -1       750-5.59134E-05 1.46707E-04 7.85764E-03
 -1       751 9.31218E-04-6.31285E-05 5.68977E-03
 -1       752 5.45992E-04-6.57172E-05 7.07871E-03
 -1       753 9.39899E-04-2.00584E-05 5.65634E-03
 -1       754-1.31877E-05 1.25380E-05 7.34063E-03
 -1       755-1.56866E-04-7.63397E-05 8.26413E-03
 -1       756-5.64956E-05-7.01983E-05 8.03363E-03
 -1       757 1.09033E-03-3.77686E-04 4.95648E-03
 -1       758 7.41251E-04-4.42454E-04 6.89710E-03
 -1       759 3.32486E-04-6.18808E-04 7.85907E-03
 -1       760 5.05145E-05-6.81619E-04 7.90862E-03
 -1       761-9.81819E-04-7.20977E-04 5.77829E-03
 -1       762 6.51469E-05-1.51853E-04 7.05305E-03
 -1       763 1.47898E-03-5.13847E-04 3.48488E-03
 -1       764 1.18895E-03-6.47548E-04 5.52673E-03
 -1       765 8.48177E-04-7.57312E-04 6.51112E-03
 -1       766 5.56640E-04-8.79142E-04 6.48533E-03
 -1       767-1.27564E-04-1.10969E-03 4.68914E-03
 -1       768 1.96490E-03-4.09876E-04 1.37957E-03
 -1       769 1.77174E-03-4.86150E-04 3.40908E-03
 -1       770 1.48553E-03-5.54902E-04 1.94531E-03
 -1       771 3.45490E-04-1.71458E-04 3.50942E-03
 -1       772 3.60734E-04-1.82773E-04 1.99591E-03
 -1       773 2.10892E-03-1.76911E-05-8.93050E-04
 -1       774 1.88879E-03 2.55393E-06 6.54993E-04
 -1       775 1.29324E-03-3.37784E-06-4.76714E-04
 -1       776 9.21749E-04 1.89244E-05 2.67339E-04
 -1       777 4.23512E-04 2.01306E-05-1.34524E-03
 -1       778 1.97061E-03 4.01837E-04-3.08057E-03
 -1       779 1.64422E-03 4.55381E-04-2.18608E-03
 -1       780 1.43126E-03 5.09205E-04-2.05182E-03
 -1       781 1.26305E-03 5.77293E-04-2.21365E-03
 -1       782 3.51108E-04 1.16024E-04-2.26897E-03
 -1       783 1.48626E-03 6.16089E-04-4.77608E-03
 -1       784 1.18467E-03 6.63916E-04-4.65146E-03
 -1       785 8.51532E-04 8.08142E-04-6.52076E-03
 -1       786 2.41935E-04 1.01264E-03-5.58845E-03
 -1       787-1.09949E-04 1.06837E-03-4.18878E-03
 -1       788 2.24714E-04 1.92823E-04-4.80001E-03
 -1       789 1.04931E-03 3.78662E-04-5.73370E-03
 -1       790 7.44146E-04 4.71728E-04-6.42204E-03
 -1       791 2.94182E-04 6.12113E-04-7.93085E-03
 -1       792-4.96566E-04 7.43961E-04-7.11163E-03
 -1       793-1.01612E-03 6.96363E-04-5.63807E-03
 -1       794 3.46375E-05 1.84169E-04-6.59602E-03
 -1       795-1.81551E-04 1.84307E-04-8.12711E-03
 -1       796-6.65233E-05 1.22455E-04-8.17436E-03
 -1       797 0.00000E+00 0.00000E+00 0.00000E+00
 -1       798 0.00000E+00 0.00000E+00 0.00000E+00
 -1       799 0.00000E+00 0.00000E+00 0.00000E+00
 -1       800 0.00000E+00 0.00000E+00 0.00000E+00
 -1       801 0.00000E+00 0.00000E+00 0.00000E+00
 -1       802 0.00000E+00 0.00000E+00 0.00000E+00
 -1       803 0.00000E+00 0.00000E+00 0.00000E+00
 -1       804 0.00000E+00 0.00000E+00 0.00000E+00
 -1       805 0.00000E+00 0.00000E+00 0.00000E+00
 -1       806 0.00000E+00 0.00000E+00 0.00000E+00
 -1       807 0.00000E+00 0.00000E+00 0.00000E+00
 -1       808 0.00000E+00 0.00000E+00 0.00000E+00
 -1       809 0.00000E+00 0.00000E+00 0.00000E+00
 -1       810 0.00000E+00 0.00000E+00 0.00000E+00
 -1       811 0.00000E+00 0.00000E+00 0.00000E+00
 -1       812 0.00000E+00 0.00000E+00 0.00000E+00
 -1       813 0.00000E+00 0.00000E+00 0.00000E+00
 -1       814 0.00000E+00 0.00000E+00 0.00000E+00
 -1       815 0.00000E+00 0.00000E+00 0.00000E+00
 -1       816 0.00000E+00 0.00000E+00 0.00000E+00
 -1       817 0.00000E+00 0.00000E+00 0.00000E+00
 -1       818 0.00000E+00 0.00000E+00 0.00000E+00
 -1       819 0.00000E+00 0.00000E+00 0.00000E+00
 -1       820 0.00000E+00 0.00000E+00 0.00000E+00
 -1       821 0.00000E+00 0.00000E+00 0.00000E+00
 -1       822 0.00000E+00 0.00000E+00 0.00000E+00
 -1       823 0.00000E+00 0.00000E+00 0.00000E+00
 -1       824 0.00000E+00 0.00000E+00 0.00000E+00
 -1       825 0.00000E+00 0.00000E+00 0.00000E+00
 -1       826 0.00000E+00 0.00000E+00 0.00000E+00
 -1       827 0.00000E+00 0.00000E+00 0.00000E+00
 -1       828 0.00000E+00 0.00000E+00 0.00000E+00
 -1       829 0.00000E+00 0.00000E+00 0.00000E+00
 -1       830 0.00000E+00 0.00000E+00 0.00000E+00
 -1       831 0.00000E+00 0.00000E+00 0.00000E+00
 -1       832 0.00000E+00 0.00000E+00 0.00000E+00
 -1       833 0.00000E+00 0.00000E+00 0.00000E+00
 -1       834 0.00000E+00 0.00000E+00 0.00000E+00
 -1       835 0.00000E+00 0.00000E+00 0.00000E+00
 -1       836 0.00000E+00 0.00000E+00 0.00000E+00
 -1       837 0.00000E+00 0.00000E+00 0.00000E+00
 -1       838 0.00000E+00 0.00000E+00 0.00000E+00
 -1       839 0.00000E+00 0.00000E+00 0.00000E+00
 -1       840 0.00000E+00 0.00000E+00 0.00000E+00
 -1       841 0.00000E+00 0.00000E+00 0.00000E+00
 -1       842 0.00000E+00 0.00000E+00 0.00000E+00
 -1       843 0.00000E+00 0.00000E+00 0.00000E+00
 -1       844 0.00000E+00 0.00000E+00 0.00000E+00
 -1       845 0.00000E+00 0.00000E+00 0.00000E+00
 -1       846 0.00000E+00 0.00000E+00 0.00000E+00
 -1       847 0.00000E+00 0.00000E+00 0.00000E+00
 -1       848 0.00000E+00 0.00000E+00 0.00000E+00
 -1       849 0.00000E+00 0.00000E+00 0.00000E+00
 -1       850 0.00000E+00 0.00000E+00 0.00000E+00
 -1       851 0.00000E+00 0.00000E+00 0.00000E+00
 -1       852 9.22816E-04-1.44146E-04-5.93832E-03
 -1       853-2.62071E-04 4.60147E-05-8.29330E-03
 -1       854-2.86049E-04-4.77928E-05-8.31020E-03
 -1       855 1.27893E-04-3.85820E-05-8.16858E-03
 -1       856-1.27907E-03-9.03586E-06-6.28484E-03
 -1       857-8.38196E-04-1.33554E-04-7.74698E-03
 -1       858-3.24910E-04 1.46108E-05-7.84600E-03
 -1       859-5.02485E-04-1.35127E-07-6.36474E-03
 -1       860 5.29442E-05-6.13775E-05-5.94096E-03
 -1       861-3.46015E-05-2.30350E-05-7.49041E-03
 -1       862 4.65194E-05 2.62762E-05-5.99511E-03
 -1       863-4.80140E-04 1.62158E-05-6.40175E-03
 -1       864-3.39617E-04 2.89532E-05-7.98092E-03
 -1       865-1.52190E-04-4.44755E-05-8.52243E-03
 -1       866-2.03767E-04 5.81926E-05-8.46380E-03
 -1       867-1.13482E-04 6.24839E-05-8.29369E-03
 -1       868-5.38077E-04-7.47034E-04-6.87997E-03
 -1       869-9.69812E-04-8.40282E-04-5.94839E-03
 -1       870-4.62356E-04-8.21358E-04-7.22039E-03
 -1       871-1.00420E-03-7.87704E-04-5.74697E-03
 -1       872 1.49560E-05-7.37649E-04-8.07779E-03
 -1       873 3.34363E-04-6.63705E-04-8.00086E-03
 -1       874 3.79798E-04-5.83796E-04-6.99528E-03
 -1       875-9.79231E-06-6.69970E-04-7.20935E-03
 -1       876 7.53929E-04-4.27413E-04-6.50936E-03
 -1       877-2.13747E-04-3.09139E-04-7.10359E-03
 -1       878-3.64169E-04-3.08384E-04-5.82294E-03
 -1       879 1.24252E-04-1.75515E-04-5.16970E-03
 -1       880 4.63838E-05-1.87686E-04-6.64801E-03
 -1       881 9.44868E-05-1.11197E-04-5.79419E-03
 -1       882-3.89877E-04-3.09145E-04-6.08237E-03
 -1       883-2.24503E-04-2.92189E-04-7.40345E-03
 -1       884-2.00276E-04-2.06585E-04-8.29517E-03
 -1       885-5.96766E-05-1.59194E-04-8.19587E-03
 -1       886 6.22586E-04-9.18362E-04-6.56152E-03
 -1       887-9.86830E-05-1.17430E-03-4.69689E-03
 -1       888 2.57402E-04-1.08613E-03-5.65056E-03
 -1       889 1.71437E-04-1.02389E-03-5.10141E-03
 -1       890-1.20927E-04-1.14858E-03-4.20890E-03
 -1       891 8.80702E-04-8.40676E-04-6.60329E-03
 -1       892 9.08889E-04-7.87667E-04-4.89044E-03
 -1       893 6.02432E-04-8.63899E-04-5.09527E-03
 -1       894 1.14469E-03-5.77384E-04-4.71422E-03
 -1       895 5.31481E-05-3.45370E-04-5.24080E-03
 -1       896-1.09157E-04-3.88327E-04-4.28825E-03
 -1       897 2.61084E-04-1.82316E-04-3.66913E-03
 -1       898 1.80379E-04-2.03765E-04-4.76998E-03
 -1       899 1.67602E-04-2.27409E-04-5.73225E-03
 -1       900 1.80733E-04-1.82149E-04-4.80802E-03
 -1       901 3.13295E-06-3.73034E-04-5.83727E-03
 -1       902 5.57729E-05-2.99167E-04-6.70219E-03
 -1       903 9.72163E-05-2.59158E-04-6.72429E-03
 -1       904 1.66548E-03-4.99654E-04-3.46697E-03
 -1       905 1.88909E-03-4.37645E-04-3.07233E-03
 -1       906 1.40205E-03-5.23890E-04-2.04914E-03
 -1       907 1.23351E-03-5.92393E-04-2.24796E-03
 -1       908 6.29015E-04-8.01895E-04-2.75102E-03
 -1       909 9.37067E-04-7.46860E-04-3.35329E-03
 -1       910 9.32928E-04-7.26525E-04-2.58608E-03
 -1       911 6.29098E-04-8.14619E-04-2.19578E-03
 -1       912 1.62105E-03-4.82021E-04-2.21318E-03
 -1       913 2.50415E-04-2.31059E-04-2.68810E-03
 -1       914 1.69980E-04-2.83588E-04-2.27184E-03
 -1       915 3.72840E-04-1.25054E-04-1.61731E-03
 -1       916 3.48352E-04-1.58225E-04-2.26043E-03
 -1       917 3.13048E-04-1.74649E-04-3.55296E-03
 -1       918 2.98721E-04-1.48570E-04-3.14943E-03
 -1       919 1.71132E-04-2.87468E-04-2.79925E-03
 -1       920 2.41515E-04-2.55933E-04-3.44273E-03
 -1       921 3.45317E-04-2.02147E-04-2.31560E-03
 -1       922 2.70063E-04-2.39660E-04-4.27020E-03
 -1       923 3.06370E-04-2.26996E-04-4.28402E-03
 -1       924 1.62585E-03 2.05889E-05 9.93992E-04
 -1       925 1.48173E-03 2.71804E-05 8.94805E-04
 -1       926 1.03035E-03-2.39220E-05-4.90828E-04
 -1       927 1.33673E-03-1.04652E-05-6.03301E-04
 -1       928 1.32725E-03-2.46930E-05 2.82157E-04
 -1       929 1.02172E-03-4.45924E-05 1.46789E-04
 -1       930 1.85389E-03-2.30581E-05 5.47715E-04
 -1       931 1.63203E-03-4.47573E-05-1.32392E-03
 -1       932 4.47138E-04 3.47066E-05 2.84576E-04
 -1       933 2.93988E-04 2.30058E-05 1.21903E-04
 -1       934 3.88591E-04 6.01941E-06 6.78199E-04
 -1       935 3.92446E-04-1.17844E-05 5.51575E-04
 -1       936 4.09252E-04-8.10391E-06-8.77688E-04
 -1       937 3.84146E-04-4.78331E-05-9.80652E-04
 -1       938 3.37664E-04-5.14337E-05-4.82982E-04
 -1       939 4.28139E-04-2.26440E-05-6.05335E-04
 -1       940 1.69112E-03 4.77232E-04 1.91016E-03
 -1       941 3.67656E-04 2.06188E-05 1.00761E-03
 -1       942 4.17447E-04 2.59242E-05 8.94758E-04
 -1       943 4.02287E-04-7.22283E-05-1.20642E-03
 -1       944 3.88453E-04-6.50125E-05-1.32859E-03
 -1       945 1.96863E-03 4.45197E-04 1.26118E-03
 -1       946 1.23350E-03 5.78290E-04 1.96409E-03
 -1       947 1.41964E-03 5.24845E-04 1.76202E-03
 -1       948 1.99669E-03 4.26485E-04 2.83793E-03
 -1       949 1.76151E-03 4.64907E-04 3.26529E-03
 -1       950 6.26890E-04 7.52960E-04 1.92595E-03
 -1       951 9.46980E-04 7.00214E-04 2.30005E-03
 -1       952 6.25621E-04 7.07301E-04 2.44310E-03
 -1       953 2.63193E-04 2.05861E-04 3.17057E-03
 -1       954 1.89823E-04 2.59732E-04 2.45744E-03
 -1       955 3.49676E-04 1.15268E-04 2.87394E-03
 -1       956 3.29038E-04 1.41999E-04 3.31921E-03
 -1       957 3.46434E-04 1.29424E-04 1.99657E-03
 -1       958 3.71143E-04 1.06949E-04 1.28714E-03
 -1       959 2.57290E-04 2.03914E-04 2.40377E-03
 -1       960 3.20925E-04 1.87217E-04 2.02711E-03
 -1       961 3.31957E-04 1.41424E-04 1.80142E-03
 -1       962 6.26347E-04 8.80548E-04 4.76858E-03
 -1       963-9.46429E-05 1.10648E-03 3.96794E-03
 -1       964 2.79746E-04 1.07664E-03 4.83832E-03
 -1       965 3.22374E-04 1.10801E-03 5.52530E-03
 -1       966-7.02564E-05 1.16452E-03 4.46399E-03
 -1       967 8.66120E-04 7.69679E-04 4.59224E-03
 -1       968 9.06746E-04 8.37755E-04 6.36296E-03
 -1       969 6.06602E-04 9.41314E-04 6.34851E-03
 -1       970 1.24587E-03 6.71666E-04 5.42766E-03
 -1       971-1.37923E-05 3.43589E-04 5.58644E-03
 -1       972-1.14555E-04 3.78893E-04 4.50454E-03
 -1       973 1.94696E-04 1.21367E-04 4.59449E-03
 -1       974 1.83744E-04 1.96471E-04 5.55250E-03
 -1       975 2.57610E-04 1.64629E-04 3.37016E-03
 -1       976-1.06572E-04 3.74665E-04 4.07329E-03
 -1       977 2.75444E-05 3.35505E-04 4.99178E-03
 -1       978 1.54499E-04 2.94265E-04 4.89496E-03
 -1       979 1.74161E-04 2.35750E-04 4.71717E-03
 -1       980 3.78268E-05 6.89332E-04 6.87818E-03
 -1       981-9.55704E-04 7.86959E-04 5.48324E-03
 -1       982-4.71763E-04 7.67345E-04 6.56828E-03
 -1       983-3.80340E-04 8.53502E-04 6.98403E-03
 -1       984-9.10139E-04 8.32097E-04 5.68891E-03
 -1       985 3.79583E-04 5.85276E-04 6.71427E-03
 -1       986 3.59942E-04 6.41291E-04 7.73945E-03
 -1       987 6.98961E-05 7.44469E-04 7.82889E-03
 -1       988 7.60546E-04 5.53138E-04 6.82506E-03
 -1       989-1.97709E-04 2.70968E-04 7.15885E-03
 -1       990-3.67150E-04 3.10322E-04 5.76292E-03
 -1       991 1.03191E-04 9.26211E-05 5.62877E-03
 -1       992 5.90714E-05 1.19945E-04 7.00323E-03
 -1       993 1.53185E-04 1.18843E-04 4.95651E-03
 -1       994-3.98265E-04 2.98066E-04 5.57793E-03
 -1       995-2.03996E-04 2.70077E-04 6.77578E-03
 -1       996-6.68463E-05 2.46924E-04 7.04207E-03
 -1       997 7.15838E-06 1.96748E-04 6.87178E-03
 -1       998-2.09861E-04-5.90304E-05 8.03491E-03
 -1       999-1.17393E-03-4.64738E-05 6.19489E-03
 -1      1000-7.18532E-04-9.76365E-05 7.49811E-03
 -1      1001-7.70350E-04 3.18948E-05 7.52045E-03
 -1      1002-1.26374E-03 1.29318E-05 6.23994E-03
 -1      1003 1.24899E-04-3.89808E-05 7.87098E-03
 -1      1004 1.70498E-04 2.72985E-05 7.91611E-03
 -1      1005-2.21015E-04 2.00575E-05 8.11459E-03
 -1      1006 5.77630E-04 3.21896E-05 7.10947E-03
 -1      1007-3.33133E-04-2.04094E-05 7.72467E-03
 -1      1008-4.41942E-04-4.08805E-05 6.31439E-03
 -1      1009 6.84111E-05-7.17887E-05 5.76299E-03
 -1      1010-1.82540E-05-3.56257E-05 7.27061E-03
 -1      1011 8.89874E-05 2.80959E-05 5.77977E-03
 -1      1012-4.55008E-04-9.63549E-06 6.32857E-03
 -1      1013-2.76431E-04 4.17463E-06 7.80163E-03
 -1      1014-1.43374E-04 5.14941E-05 8.23982E-03
 -1      1015-1.02382E-04 5.48826E-05 8.04175E-03
 -1      1016 7.52654E-04-3.86186E-04 6.35252E-03
 -1      1017 1.08733E-03-4.28248E-04 5.55167E-03
 -1      1018 4.35365E-04-5.67741E-04 6.86200E-03
 -1      1019 3.51300E-05-6.37620E-04 7.09819E-03
 -1      1020-5.30978E-04-6.66472E-04 6.82366E-03
 -1      1021-1.04734E-03-6.71356E-04 5.65640E-03
 -1      1022-4.38769E-04-7.51258E-04 7.14821E-03
 -1      1023-2.32158E-04-2.28923E-04 7.06942E-03
 -1      1024-3.60256E-04-2.49120E-04 5.72262E-03
 -1      1025 1.57210E-04-1.48625E-04 5.03751E-03
 -1      1026 5.10223E-05-1.85423E-04 6.51507E-03
 -1      1027 1.09596E-04-1.13056E-04 5.62165E-03
 -1      1028-3.74199E-04-2.52189E-04 5.88591E-03
 -1      1029-2.30985E-04-2.34198E-04 7.34451E-03
 -1      1030-6.28709E-07-2.13519E-04 6.98951E-03
 -1      1031-5.89771E-05-2.60388E-04 7.25617E-03
 -1      1032-1.25851E-04-2.15678E-04 8.08271E-03
 -1      1033-3.83617E-05-1.50235E-04 7.96952E-03
 -1      1034 1.15865E-03-5.78924E-04 4.62843E-03
 -1      1035 1.50205E-03-5.21784E-04 4.58573E-03
 -1      1036 8.47573E-04-7.20052E-04 4.94929E-03
 -1      1037 5.74542E-04-8.19294E-04 5.07363E-03
 -1      1038 2.06445E-04-9.83447E-04 5.05441E-03
 -1      1039-1.70916E-04-1.10458E-03 4.29783E-03
 -1      1040 2.77080E-04-1.04619E-03 5.66941E-03
 -1      1041 1.59310E-04-2.23704E-04 5.68770E-03
 -1      1042 3.59810E-05-3.90017E-04 5.28754E-03
 -1      1043-8.06463E-05-3.94873E-04 4.36743E-03
 -1      1044 2.65307E-04-1.68480E-04 3.53325E-03
 -1      1045 2.41256E-04-2.02438E-04 4.74561E-03
 -1      1046 1.88091E-04-1.60831E-04 4.65827E-03
 -1      1047-1.27377E-04-3.96288E-04 4.75763E-03
 -1      1048-1.50916E-05-3.65761E-04 5.80690E-03
 -1      1049 1.74989E-04-2.64203E-04 5.05562E-03
 -1      1050 1.27043E-04-2.95550E-04 5.18024E-03
 -1      1051 4.65041E-05-2.90070E-04 6.60545E-03
 -1      1052 1.07858E-04-2.27927E-04 6.65874E-03
 -1      1053 1.72100E-03-4.85930E-04 2.08477E-03
 -1      1054 1.26709E-03-6.85578E-04 4.15609E-03
 -1      1055 1.46769E-03-5.87200E-04 4.22999E-03
 -1      1056 1.98421E-03-4.08061E-04 2.91972E-03
 -1      1057 6.94822E-04-8.69661E-04 2.70414E-03
 -1      1058 9.91739E-04-7.64452E-04 2.50244E-03
 -1      1059 6.93885E-04-8.77658E-04 2.06507E-03
 -1      1060 1.02116E-03-7.92451E-04 3.31249E-03
 -1      1061 1.27695E-03-6.15681E-04 2.16835E-03
 -1      1062 2.80635E-04-2.65553E-04 2.61281E-03
 -1      1063 1.46380E-04-2.95357E-04 2.12539E-03
 -1      1064 3.87672E-04-1.17824E-04 1.39793E-03
 -1      1065 3.77599E-04-1.64173E-04 2.14685E-03
 -1      1066 3.16565E-04-1.38193E-04 2.96693E-03
 -1      1067 1.49936E-04-3.14222E-04 2.72381E-03
 -1      1068 2.67732E-04-2.82169E-04 3.38940E-03
 -1      1069 3.53448E-04-1.94082E-04 2.23075E-03
 -1      1070 3.06253E-04-2.50530E-04 4.22745E-03
 -1      1071 3.04379E-04-2.31844E-04 4.30065E-03
 -1      1072 1.90236E-03-1.11802E-05-7.96971E-04
 -1      1073 1.56599E-03-4.15528E-05 1.04483E-03
 -1      1074 1.75381E-03-4.77657E-05 1.18180E-03
 -1      1075 2.10732E-03-5.25394E-07 7.33902E-04
 -1      1076 9.39778E-04-1.08752E-06-2.80742E-04
 -1      1077 1.31178E-03 4.55774E-05 3.83755E-04
 -1      1078 1.72592E-03 1.70552E-05-1.32683E-03
 -1      1079 1.58443E-03 1.95309E-05-1.15779E-03
 -1      1080 4.18034E-04-2.03162E-05 6.35818E-04
 -1      1081 3.78995E-04-1.54258E-05-4.82087E-04
 -1      1082 2.96487E-04-9.39684E-06-2.59742E-04
 -1      1083 3.97245E-04 1.75613E-05-9.12574E-04
 -1      1084 4.04323E-04-2.13746E-05-7.99952E-04
 -1      1085 4.03730E-04-3.46538E-05 7.43472E-04
 -1      1086 2.82677E-04-1.57826E-05 2.66361E-04
 -1      1087 3.95975E-04 6.56141E-06 3.68281E-04
 -1      1088 4.04038E-04 2.75992E-05-1.15182E-03
 -1      1089 4.01968E-04-4.86596E-05 1.03030E-03
 -1      1090 4.03449E-04-5.26362E-05 1.19935E-03
 -1      1091 1.71744E-03 4.46913E-04-3.52883E-03
 -1      1092 1.42261E-03 5.53095E-04-4.28804E-03
 -1      1093 1.26091E-03 6.61525E-04-4.21695E-03
 -1      1094 9.99430E-04 7.33436E-04-3.37316E-03
 -1      1095 6.37616E-04 7.34412E-04-2.76234E-03
 -1      1096 6.40428E-04 7.81975E-04-2.18062E-03
 -1      1097 9.88658E-04 7.28534E-04-2.56938E-03
 -1      1098 1.93897E-03 3.92404E-04-1.53810E-03
 -1      1099 2.76971E-04 2.47658E-04-3.45027E-03
 -1      1100 1.67209E-04 2.26864E-04-2.76927E-03
 -1      1101 3.38358E-04 1.15968E-04-3.13096E-03
 -1      1102 3.28334E-04 1.24106E-04-3.57832E-03
 -1      1103 3.80343E-04 9.45841E-05-1.55918E-03
 -1      1104 1.30352E-04 2.57032E-04-2.22319E-03
 -1      1105 2.84747E-04 2.40542E-04-2.65764E-03
 -1      1106 2.71362E-04 1.88122E-04-4.35122E-03
 -1      1107 2.72966E-04 2.33174E-04-4.27952E-03
 -1      1108 3.36870E-04 1.66736E-04-2.29937E-03
 -1      1109 3.36035E-04 1.29505E-04-2.10853E-03
 -1      1110 1.21652E-03 6.91923E-04-5.68081E-03
 -1      1111 1.48413E-03 5.58402E-04-3.60332E-03
 -1      1112 5.96483E-04 8.98185E-04-6.48821E-03
 -1      1113 5.67285E-04 8.45230E-04-5.03292E-03
 -1      1114 8.58445E-04 7.44102E-04-4.90317E-03
 -1      1115-8.24422E-05 1.10636E-03-4.63670E-03
 -1      1116 1.61693E-04 9.74554E-04-5.02459E-03
 -1      1117-2.79233E-05 3.46640E-04-5.76769E-03
 -1      1118-6.19386E-05 3.66595E-04-4.65606E-03
 -1      1119 1.67076E-04 1.46048E-04-4.84802E-03
 -1      1120 1.88341E-04 1.97657E-04-5.81071E-03
 -1      1121 2.59391E-04 1.53998E-04-3.65978E-03
 -1      1122-1.16033E-05 3.70599E-04-4.28620E-03
 -1      1123 2.12990E-06 3.25567E-04-5.15790E-03
 -1      1124 1.05276E-04 2.43947E-04-6.65063E-03
 -1      1125 4.13469E-05 2.65149E-04-6.63506E-03
 -1      1126 1.28393E-04 2.95590E-04-5.12911E-03
 -1      1127 1.84599E-04 2.41487E-04-4.99018E-03
 -1      1128 7.44655E-04 5.07084E-04-7.02237E-03
 -1      1129 1.03600E-03 3.58745E-04-5.14258E-03
 -1      1130-2.21365E-05 7.10914E-04-7.99714E-03
 -1      1131-7.40019E-06 6.49379E-04-7.13059E-03
 -1      1132 3.57827E-04 5.23529E-04-7.04206E-03
 -1      1133-9.85695E-04 7.30020E-04-5.77328E-03
 -1      1134-6.06624E-04 6.60698E-04-6.87304E-03
 -1      1135-2.34781E-04 2.28920E-04-7.35307E-03
 -1      1136-3.37160E-04 2.75543E-04-5.85051E-03
 -1      1137 6.01319E-05 7.01717E-05-5.82528E-03
 -1      1138 4.36720E-05 1.19073E-04-7.19870E-03
 -1      1139 1.01423E-04 1.16129E-04-5.18396E-03
 -1      1140-3.35464E-04 2.76788E-04-5.73370E-03
 -1      1141-2.35671E-04 2.44385E-04-7.05896E-03
 -1      1142-9.78009E-05 2.40239E-04-7.31227E-03
 -1      1143 2.96447E-05 2.41084E-04-7.18830E-03
 -1      1144 0.00000E+00 0.00000E+00 0.00000E+00
 -1      1145 0.00000E+00 0.00000E+00 0.00000E+00
 -1      1146 0.00000E+00 0.00000E+00 0.00000E+00
 -1      1147 0.00000E+00 0.00000E+00 0.00000E+00
 -1      1148 0.00000E+00 0.00000E+00 0.00000E+00
 -1      1149 0.00000E+00 0.00000E+00 0.00000E+00
 -1      1150 0.00000E+00 0.00000E+00 0.00000E+00
 -1      1151 0.00000E+00 0.00000E+00 0.00000E+00
 -1      1152 0.00000E+00 0.00000E+00 0.00000E+00
 -1      1153 0.00000E+00 0.00000E+00 0.00000E+00
 -1      1154 0.00000E+00 0.00000E+00 0.00000E+00
 -1      1155 0.00000E+00 0.00000E+00 0.00000E+00
 -1      1156 0.00000E+00 0.00000E+00 0.00000E+00
 -1      1157 0.00000E+00 0.00000E+00 0.00000E+00
 -1      1158 0.00000E+00 0.00000E+00 0.00000E+00
 -1      1159 0.00000E+00 0.00000E+00 0.00000E+00
 -1      1160 0.00000E+00 0.00000E+00 0.00000E+00
 -1      1161 0.00000E+00 0.00000E+00 0.00000E+00
 -1      1162 0.00000E+00 0.00000E+00 0.00000E+00
 -1      1163 0.00000E+00 0.00000E+00 0.00000E+00
 -1      1164 0.00000E+00 0.00000E+00 0.00000E+00
 -1      1165 0.00000E+00 0.00000E+00 0.00000E+00
 -1      1166 0.00000E+00 0.00000E+00 0.00000E+00
 -1      1167 0.00000E+00 0.00000E+00 0.00000E+00
 -1      1168 0.00000E+00 0.00000E+00 0.00000E+00
 -1      1169 0.00000E+00 0.00000E+00 0.00000E+00
 -1      1170 0.00000E+00 0.00000E+00 0.00000E+00
 -1      1171 0.00000E+00 0.00000E+00 0.00000E+00
 -1      1172 0.00000E+00 0.00000E+00 0.00000E+00
 -1      1173 0.00000E+00 0.00000E+00 0.00000E+00
 -1      1174 0.00000E+00 0.00000E+00 0.00000E+00
 -1      1175 0.00000E+00 0.00000E+00 0.00000E+00
 -1      1176 0.00000E+00 0.00000E+00 0.00000E+00
 -1      1177 0.00000E+00 0.00000E+00 0.00000E+00
 -1      1178 0.00000E+00 0.00000E+00 0.00000E+00
 -1      1179 0.00000E+00 0.00000E+00 0.00000E+00
 -1      1180 0.00000E+00 0.00000E+00 0.00000E+00
 -1      1181 0.00000E+00 0.00000E+00 0.00000E+00
 -1      1182 0.00000E+00 0.00000E+00 0.00000E+00
 -1      1183 0.00000E+00 0.00000E+00 0.00000E+00
 -1      1184 0.00000E+00 0.00000E+00 0.00000E+00
 -1      1185 0.00000E+00 0.00000E+00 0.00000E+00
 -1      1186 0.00000E+00 0.00000E+00 0.00000E+00
 -1      1187 0.00000E+00 0.00000E+00 0.00000E+00
 -1      1188 0.00000E+00 0.00000E+00 0.00000E+00
 -1      1189 0.00000E+00 0.00000E+00 0.00000E+00
 -1      1190 0.00000E+00 0.00000E+00 0.00000E+00
 -1      1191 0.00000E+00 0.00000E+00 0.00000E+00
 -1      1192 0.00000E+00 0.00000E+00 0.00000E+00
 -1      1193 0.00000E+00 0.00000E+00 0.00000E+00
 -1      1194 0.00000E+00 0.00000E+00 0.00000E+00
 -1      1195 0.00000E+00 0.00000E+00 0.00000E+00
 -1      1196 0.00000E+00 0.00000E+00 0.00000E+00
 -1      1197 0.00000E+00 0.00000E+00 0.00000E+00
 -1      1198 0.00000E+00 0.00000E+00 0.00000E+00
 -1      1199 0.00000E+00 0.00000E+00 0.00000E+00
 -1      1200 0.00000E+00 0.00000E+00 0.00000E+00
 -1      1201 0.00000E+00 0.00000E+00 0.00000E+00
 -1      1202 0.00000E+00 0.00000E+00 0.00000E+00
 -1      1203 0.00000E+00 0.00000E+00 0.00000E+00
 -1      1204 0.00000E+00 0.00000E+00 0.00000E+00
 -1      1205 0.00000E+00 0.00000E+00 0.00000E+00
 -1      1206 0.00000E+00 0.00000E+00 0.00000E+00
 -1      1207 0.00000E+00 0.00000E+00 0.00000E+00
 -1      1208 0.00000E+00 0.00000E+00 0.00000E+00
 -1      1209 0.00000E+00 0.00000E+00 0.00000E+00
 -1      1210 0.00000E+00 0.00000E+00 0.00000E+00
 -1      1211 0.00000E+00 0.00000E+00 0.00000E+00
 -1      1212 0.00000E+00 0.00000E+00 0.00000E+00
 -1      1213 0.00000E+00 0.00000E+00 0.00000E+00
 -1      1214 0.00000E+00 0.00000E+00 0.00000E+00
 -1      1215 0.00000E+00 0.00000E+00 0.00000E+00
 -1      1216 0.00000E+00 0.00000E+00 0.00000E+00
 -1      1217 2.25791E-04 1.06330E-04 4.32057E-03
 -1      1218 1.89216E-04 9.41187E-05 4.49051E-03
 -1      1219 1.46015E-04-8.13226E-05 5.22654E-03
 -1      1220 1.39867E-04-4.95439E-05 5.27237E-03
 -1      1221 5.09395E-04-3.04954E-05 4.91241E-03
 -1      1222 2.09259E-04-7.26748E-06 4.84477E-03
 -1      1223 2.14008E-04-1.68185E-04-4.53982E-03
 -1      1224 1.69579E-04-1.57674E-04-4.71681E-03
 -1      1225 2.87256E-04 1.50617E-04 3.06299E-03
 -1      1226 3.36805E-04 1.00025E-04 2.74060E-03
 -1      1227 3.72186E-04 7.23964E-05 1.09306E-03
 -1      1228 3.82125E-04 2.18116E-05 7.43754E-04
 -1      1229 4.17154E-04-1.68051E-05-1.42443E-04
 -1      1230 3.95718E-04-8.98035E-05 1.17599E-03
 -1      1231 4.13558E-04-4.19078E-05 8.15094E-04
 -1      1232 1.92607E-04 1.36126E-04-4.56621E-03
 -1      1233 1.56426E-04 1.22332E-04-4.73878E-03
 -1      1234 1.09719E-04 5.49334E-05-5.43313E-03
 -1      1235 9.83560E-05 2.08185E-05-5.48844E-03
 -1      1236 3.92507E-04 7.03101E-05-1.35996E-03
 -1      1237 4.15248E-04 1.68696E-05-9.82544E-04
 -1      1238 1.59791E-04-2.23124E-05-5.05099E-03
 -1      1239 6.35399E-04 2.08270E-04 4.14396E-03
 -1      1240 1.82106E-04-7.83556E-05 5.01797E-03
 -1      1241 1.71945E-04-5.52965E-05 5.05788E-03
 -1      1242 4.45896E-04-2.08289E-05-1.01229E-04
 -1      1243 2.84802E-04 1.34087E-04-3.32373E-03
 -1      1244 3.28711E-04 9.91825E-05-2.99743E-03
 -1      1245 2.80784E-04-1.63610E-04-3.32404E-03
 -1      1246 3.31383E-04-1.43536E-04-2.98498E-03
 -1      1247 2.21072E-04-1.07861E-04 4.47445E-03
 -1      1248 2.95273E-04 1.02906E-04-3.62227E-03
 -1      1249 2.91810E-04-1.51003E-04 3.13834E-03
 -1      1250 3.49674E-04-1.34864E-04 2.80072E-03
 -1      1251 6.35379E-04-3.23664E-04-5.01965E-03
 -1      1252 1.20930E-03 2.71748E-04 2.56590E-03
 -1      1253 4.03911E-04-1.12121E-04 1.80831E-03
 -1      1254 1.27953E-04-9.60095E-05-5.42638E-03
 -1      1255 1.05457E-04-6.20956E-05-5.45825E-03
 -1      1256 3.01431E-04-1.26310E-04-3.61800E-03
 -1      1257 4.13279E-04-3.48213E-06 3.29122E-04
 -1      1258 2.39935E-04 6.38810E-05 4.43200E-03
 -1      1259 2.96886E-04-1.46284E-04 3.41401E-03
 -1      1260 3.98600E-04-7.62270E-05 1.05583E-03
 -1      1261 4.12834E-04-4.16332E-05 8.29605E-04
 -1      1262 3.74629E-04 6.23003E-05 9.83327E-04
 -1      1263 3.81719E-04 1.97529E-05 7.64732E-04
 -1      1264 6.01722E-04 2.26290E-04-4.41884E-03
 -1      1265 5.40931E-04 3.02746E-06 4.89187E-03
 -1      1266 1.27377E-03-1.86286E-05 7.03042E-04
 -1      1267 1.18296E-03 2.63494E-04-1.22780E-03
 -1      1268 1.30403E-03 6.36789E-06 7.55035E-04
 -1      1269 2.13486E-04-1.49084E-04 4.36570E-03
 -1      1270 1.64568E-04-1.37271E-04 4.57075E-03
 -1      1271 1.36356E-04 6.57335E-05 5.20829E-03
 -1      1272 1.29308E-04 1.83616E-05 5.25451E-03
 -1      1273 1.35269E-04 4.39794E-05-5.22859E-03
 -1      1274 1.24051E-04 2.07288E-05-5.26679E-03
 -1      1275 3.94772E-04 8.23413E-05 1.74237E-03
 -1      1276 4.81628E-04-8.07209E-05-5.14946E-03
 -1      1277 1.30141E-03-3.03427E-05-9.36159E-04
 -1      1278 1.80559E-04 7.83625E-05-4.67572E-03
 -1      1279 2.70118E-04-1.51276E-04-3.94301E-03
 -1      1280 2.89995E-04 1.27506E-04 2.86696E-03
 -1      1281 3.42457E-04 9.76051E-05 2.66353E-03
 -1      1282 2.41212E-04 9.70309E-05 4.16249E-03
 -1      1283 2.03829E-04 8.40717E-05 4.27553E-03
 -1      1284 8.86629E-04 4.02117E-04 2.78247E-03
 -1      1285 3.02398E-04 1.35785E-04 3.35092E-03
 -1      1286 6.34250E-04 2.53117E-04 4.80437E-03
 -1      1287 2.13335E-03-3.77061E-06-1.40947E-04
 -1      1288 8.68861E-04-3.91705E-04-4.23247E-03
 -1      1289 1.99129E-04-8.26025E-05 4.91302E-03
 -1      1290 1.90666E-04-5.61391E-05 4.94113E-03
 -1      1291 2.19378E-04-1.57053E-04-4.39832E-03
 -1      1292 1.85016E-04-1.54721E-04-4.50792E-03
 -1      1293 3.04068E-04-1.41563E-04 2.95423E-03
 -1      1294 3.37883E-04-1.24753E-04 2.73198E-03
 -1      1295 3.66368E-04-1.01851E-04-1.39109E-03
 -1      1296 3.83679E-04-3.98653E-05-1.01962E-03
 -1      1297 3.81222E-04-1.20167E-04 2.23231E-03
 -1      1298 1.12963E-03-2.95023E-04-1.27041E-03
 -1      1299 1.92534E-04-1.29974E-04-4.66447E-03
 -1      1300 6.32373E-04-2.77857E-04 4.84160E-03
 -1      1301 2.05904E-04-2.56799E-05 4.84496E-03
 -1      1302 3.03930E-04-1.37167E-04 3.08683E-03
 -1      1303 2.95180E-04-1.45155E-04-3.13503E-03
 -1      1304 3.19987E-04-1.26494E-04-2.93188E-03
 -1      1305 4.49523E-04-2.52215E-05 3.73873E-04
 -1      1306 4.11255E-04 6.62372E-05-2.01153E-03
 -1      1307 2.87105E-04 1.14758E-04-3.13971E-03
 -1      1308 3.42188E-04 9.04803E-05-2.92420E-03
 -1      1309 8.65891E-04 3.69325E-04-3.04336E-03
 -1      1310 1.20538E-03 2.48898E-04-2.81708E-03
 -1      1311 1.14221E-03-3.74907E-04 4.52175E-03
 -1      1312 3.96160E-04 5.37614E-05-1.24576E-03
 -1      1313 4.07829E-04 2.23116E-05-1.01100E-03
 -1      1314 6.28439E-04-2.46658E-04 4.22476E-03
 -1      1315 4.11983E-04-2.05960E-04 4.82103E-03
 -1      1316 2.17161E-04-1.01476E-04 4.62725E-03
 -1      1317 1.62721E-04 4.61382E-05 4.99194E-03
 -1      1318 1.55120E-04 2.05917E-05 5.02653E-03
 -1      1319 2.05348E-04 6.57623E-05 4.59900E-03
 -1      1320 2.48797E-04 1.05595E-04 4.08626E-03
 -1      1321 2.14374E-04 8.98788E-05 4.15693E-03
 -1      1322 1.27256E-03 6.36505E-06-9.82647E-04
 -1      1323 4.24550E-04 1.10354E-04 4.12441E-03
 -1      1324 2.17558E-04 7.73222E-05 4.25687E-03
 -1      1325 1.54578E-03 5.84966E-04-3.65003E-03
 -1      1326 2.01502E-03 3.99726E-04-2.02169E-03
 -1      1327 1.18834E-03-2.82032E-04 1.03432E-03
 -1      1328 3.84267E-04-1.00569E-04-2.02243E-03
 -1      1329 1.29764E-04-5.92577E-05-5.25795E-03
 -1      1330 1.56433E-04-8.97827E-05-5.19627E-03
 -1      1331 2.96811E-04 1.00947E-04-3.03636E-03
 -1      1332 3.35455E-04 8.71175E-05-2.89906E-03
 -1      1333 3.87007E-04 7.76073E-05-2.43628E-03
 -1      1334 4.87041E-04-4.94515E-05-5.06689E-03
 -1      1335 3.95092E-04 7.51693E-05 1.30451E-03
 -1      1336 2.11206E-04 1.17044E-04-4.42335E-03
 -1      1337 1.78202E-04 1.02713E-04-4.52316E-03
 -1      1338 9.28504E-04 3.93998E-04 4.00071E-03
 -1      1339 1.18725E-03 2.88423E-04 9.60293E-04
 -1      1340 8.78779E-04 3.89019E-04-4.25635E-03
 -1      1341 2.27888E-04-1.49861E-04-4.32000E-03
 -1      1342 1.95431E-04-1.40185E-04-4.39847E-03
 -1      1343 3.04370E-04 1.39643E-04 3.03472E-03
 -1      1344 2.76620E-04 1.21196E-04-3.95959E-03
 -1      1345 1.98086E-04-1.39413E-04-4.47874E-03
 -1      1346 3.83276E-04 1.96848E-05 7.78469E-04
 -1      1347 3.78044E-04 4.33140E-05 9.03584E-04
 -1      1348 3.67071E-04-1.19858E-04 2.44572E-03
 -1      1349 1.89813E-04 1.84977E-06 4.81673E-03
 -1      1350 3.54869E-04 2.79808E-06 4.87412E-03
 -1      1351 2.89230E-04-1.27801E-04-3.03815E-03
 -1      1352 3.20584E-04-1.16652E-04-2.89681E-03
 -1      1353 5.88853E-04 2.59273E-04-5.04349E-03
 -1      1354 2.91289E-04-1.30481E-04-3.27619E-03
 -1      1355 4.27980E-04-2.32388E-04-5.02198E-03
 -1      1356 8.71894E-04-3.49963E-04 2.87055E-03
 -1      1357 1.47891E-03-5.72591E-04-3.66361E-03
 -1      1358 2.27411E-04-1.39800E-04 4.20568E-03
 -1      1359 1.86531E-04-1.21896E-04 4.33240E-03
 -1      1360 7.70760E-04 1.91718E-04 9.30649E-04
 -1      1361 8.28157E-04-8.84168E-06 7.30224E-04
 -1      1362 1.14900E-03-2.86611E-04-2.80925E-03
 -1      1363 8.92734E-04-3.60502E-04 4.01983E-03
 -1      1364 1.20900E-03-2.62968E-04 2.62075E-03
 -1      1365 1.48073E-04-5.59489E-05-5.13411E-03
 -1      1366 1.63989E-04-8.67493E-05-5.09757E-03
 -1      1367 3.59201E-04-1.06610E-04-2.44647E-03
 -1      1368 2.96122E-04-1.31426E-04 2.85116E-03
 -1      1369 3.38998E-04-1.23583E-04 2.70071E-03
 -1      1370 1.24339E-04-3.11727E-05-5.05206E-03
 -1      1371 5.73821E-04-2.80015E-04-4.22910E-03
 -1      1372 2.88139E-04 1.12560E-04-3.29756E-03
 -1      1373 1.54970E-04 4.30790E-05-5.11574E-03
 -1      1374 1.42112E-04 1.58537E-05-5.15097E-03
 -1      1375 1.82042E-04 5.65355E-05-4.84749E-03
 -1      1376 2.92646E-04 1.13826E-04 3.68844E-03
 -1      1377 3.62086E-04-8.40197E-05-1.26352E-03
 -1      1378 3.73704E-04-4.92761E-05-1.04413E-03
 -1      1379 2.74377E-04 1.14567E-04 3.84815E-03
 -1      1380 8.53070E-04-3.79662E-04-3.07985E-03
 -1      1381 5.33277E-04-2.66588E-04-3.03173E-03
 -1      1382 2.96455E-04-1.40689E-04 2.91650E-03
 -1      1383 1.76276E-04 4.32096E-05 4.88166E-03
 -1      1384 1.71555E-04 2.19075E-05 4.90257E-03
 -1      1385 3.95152E-04 1.76444E-04 4.79263E-03
 -1      1386 1.96823E-04 8.08605E-05 4.14904E-03
 -1      1387 3.04809E-04-3.16629E-05 4.87711E-03
 -1      1388 1.95808E-04 5.62831E-05 4.68650E-03
 -1      1389 2.80934E-04-1.31483E-04-3.12148E-03
 -1      1390 2.04017E-04-7.90840E-05 4.85936E-03
 -1      1391 2.02815E-04-4.84393E-05 4.87806E-03
 -1      1392 1.66802E-04-3.62422E-06-5.06303E-03
 -1      1393 1.98293E-04-3.44400E-05 4.83530E-03
 -1      1394 2.17908E-04-9.63906E-05 4.71315E-03
 -1      1395 1.33383E-04-4.63291E-05-5.03920E-03
 -1      1396 7.92067E-04 1.68760E-04-2.82710E-03
 -1      1397 2.97445E-04-2.73060E-05-5.07045E-03
 -1      1398 7.95165E-04-1.95821E-04 2.63224E-03
 -1      1399 3.04375E-04 1.21887E-04 2.76677E-03
 -1      1400 3.38156E-04 9.83318E-05 2.63169E-03
 -1      1401 5.72660E-04 2.58810E-04 2.75491E-03
 -1      1402 3.79750E-04 9.22540E-05 2.16968E-03
 -1      1403 6.00336E-04-2.91351E-04-4.39153E-03
 -1      1404 2.03170E-04-4.33944E-05 4.82768E-03
 -1      1405 5.73667E-04 1.30853E-04 9.09766E-04
 -1      1406 1.90286E-04 8.42623E-05-4.50251E-03
 -1      1407 4.18376E-04-1.01629E-04 1.36612E-03
 -1      1408 1.78495E-04 1.31344E-05 4.80275E-03
 -1      1409 1.80740E-04-1.21162E-04-4.85106E-03
 -1      1410 2.46079E-04 1.03518E-04 4.04491E-03
 -1      1411 2.18056E-04 9.05027E-05 4.09578E-03
 -1      1412 4.35983E-04-3.29203E-05 6.06176E-04
 -1      1413 4.02430E-04-6.99895E-05 9.95085E-04
 -1      1414 4.13006E-04-4.44384E-05 8.40331E-04
 -1      1415 3.89050E-04 5.54031E-05 1.07937E-03
 -1      1416 4.01589E-04 6.19231E-06 5.61460E-04
 -1      1417 2.91663E-04-1.25266E-04-2.98976E-03
 -1      1418 3.14966E-04-1.14287E-04-2.88781E-03
 -1      1419 3.42067E-04-1.09502E-04-2.65632E-03
 -1      1420 5.96594E-04 2.67421E-04 4.00319E-03
 -1      1421 3.24475E-04-1.60410E-04 4.81365E-03
 -1      1422 1.78497E-04 4.06265E-05 4.82465E-03
 -1      1423 1.75320E-04 2.11274E-05 4.84217E-03
 -1      1424 4.39807E-04 1.93408E-04 4.00731E-03
 -1      1425 2.29851E-04-1.34936E-04 4.12783E-03
 -1      1426 1.96130E-04-1.17914E-04 4.20995E-03
 -1      1427 2.95676E-04 1.35678E-04 4.78472E-03
 -1      1428 7.56633E-04-2.10442E-04-2.82776E-03
 -1      1429 2.59135E-04-5.14227E-07 4.85398E-03
 -1      1430 7.93096E-04 1.86008E-04 2.57419E-03
 -1      1431 1.74334E-04 2.01607E-05 4.79537E-03
 -1      1432 8.70382E-04 4.24908E-06 7.79609E-04
 -1      1433 3.63522E-04 1.79453E-04-5.03716E-03
 -1      1434 5.48437E-04 2.30192E-04-3.00701E-03
 -1      1435 1.58912E-04 3.88650E-05-5.06478E-03
 -1      1436 1.51808E-04 1.44596E-05-5.08533E-03
 -1      1437 2.69333E-04-1.51136E-04 3.73612E-03
 -1      1438 5.47546E-04-1.62722E-04-2.85054E-03
 -1      1439 1.88962E-04-1.20931E-04 4.31205E-03
 -1      1440 2.72367E-04-5.27572E-05-5.11647E-03
 -1      1441 1.80675E-04 4.97988E-05-4.91711E-03
 -1      1442 3.66674E-04-8.04019E-05-1.20610E-03
 -1      1443 3.77805E-04-5.07333E-05-1.05370E-03
 -1      1444 2.24942E-04 1.09845E-04-4.34483E-03
 -1      1445 1.97584E-04 9.79599E-05-4.41457E-03
 -1      1446 3.89192E-04-1.80981E-04-2.99486E-03
 -1      1447 2.26230E-04-1.44513E-04-4.28213E-03
 -1      1448 1.94801E-04-1.34340E-04-4.34131E-03
 -1      1449 5.64554E-04-2.37714E-04 2.83890E-03
 -1      1450 1.87673E-04-1.39610E-04-4.39997E-03
 -1      1451 4.16457E-04-8.39662E-05 1.15024E-03
 -1      1452 2.52400E-04-1.53408E-04-4.08768E-03
 -1      1453 4.15427E-04-2.68197E-05-6.03707E-04
 -1      1454 3.66157E-04-7.55425E-05-1.17473E-03
 -1      1455 3.76061E-04-5.45786E-05-1.06294E-03
 -1      1456 1.60571E-04 3.26103E-06-5.04523E-03
 -1      1457 3.77174E-04-1.02864E-04-1.58055E-03
 -1      1458 8.33331E-04 4.08141E-06-1.00634E-03
 -1      1459 3.99274E-04-3.84346E-05-8.30049E-04
 -1      1460 4.11627E-04 6.15321E-05-1.56955E-03
 -1      1461 3.04893E-04 9.98832E-05-2.98689E-03
 -1      1462 3.31648E-04 8.49500E-05-2.88603E-03
 -1      1463 2.91645E-04 1.11405E-04-3.11663E-03
 -1      1464 5.65177E-04 2.68808E-04-4.25226E-03
 -1      1465 2.19157E-04-2.26911E-05 4.84685E-03
 -1      1466 3.46248E-04 1.42096E-04-4.38967E-03
 -1      1467 3.95814E-04 4.82258E-05-1.18229E-03
 -1      1468 4.11854E-04 2.16823E-05-1.02196E-03
 -1      1469 3.69322E-04 8.47437E-05-2.64646E-03
 -1      1470 3.75385E-04-9.16901E-05-1.36471E-03
 -1      1471 2.92530E-04-1.75478E-04-5.01488E-03
 -1      1472 3.01910E-04 8.05480E-05 4.08794E-03
 -1      1473 4.03387E-04-6.69648E-05 9.61873E-04
 -1      1474 4.13069E-04-4.60398E-05 8.46642E-04
 -1      1475 8.65888E-04-2.94073E-05-9.64769E-04
 -1      1476 7.77462E-04-2.04077E-04 1.00995E-03
 -1      1477 2.05980E-04 8.64353E-05-4.40812E-03
 -1      1478 5.80538E-04-2.52802E-04 4.03156E-03
 -1      1479 3.87527E-04-1.58451E-04 4.18348E-03
 -1      1480 2.57109E-04-1.36930E-04 3.89336E-03
 -1      1481 6.42041E-04-1.55350E-05 8.09782E-04
 -1      1482 3.01609E-04-1.30995E-04 2.79563E-03
 -1      1483 3.32247E-04-1.22092E-04 2.68591E-03
 -1      1484 2.64989E-04 1.37570E-04-5.02959E-03
 -1      1485 5.72800E-04-1.38045E-04 9.78336E-04
 -1      1486 4.41108E-04-4.81225E-06-5.63135E-04
 -1      1487 3.71382E-04-2.04272E-04-4.36091E-03
 -1      1488 7.32421E-04-2.12094E-04-1.23387E-03
 -1      1489 4.17240E-04-2.16481E-04-4.23568E-03
 -1      1490 5.77410E-04-1.59564E-04 2.64381E-03
 -1      1491 1.94541E-04-4.63670E-05-5.08640E-03
 -1      1492 2.68606E-04 1.10932E-04-4.10243E-03
 -1      1493 6.02679E-04-1.56255E-05-1.03214E-03
 -1      1494 3.09541E-04 1.11767E-04 2.70923E-03
 -1      1495 3.35634E-04 9.77863E-05 2.61381E-03
 -1      1496 3.00977E-04 1.28785E-04 2.84372E-03
 -1      1497 4.13981E-04 1.49372E-04-2.97819E-03
 -1      1498 3.66481E-04 9.25244E-05 2.38078E-03
 -1      1499 5.74162E-04 1.27261E-04-2.84153E-03
 -1      1500 3.98443E-04 4.72703E-05-1.14985E-03
 -1      1501 4.09504E-04 2.43183E-05-1.03199E-03
 -1      1502 7.73394E-04 1.63567E-04-1.20107E-03
 -1      1503 4.00017E-04 6.51517E-05-1.35339E-03
 -1      1504 2.65630E-04-1.62398E-04-4.33178E-03
 -1      1505 2.29931E-04 1.06382E-04-4.30643E-03
 -1      1506 2.03245E-04 9.24204E-05-4.36085E-03
 -1      1507 4.31328E-04 9.21151E-06-7.97366E-04
 -1      1508 4.11022E-04 1.98830E-04-4.26071E-03
 -1      1509 1.80347E-04-1.00594E-04-4.92093E-03
 -1      1510 4.09939E-04-1.93435E-04 2.80499E-03
 -1      1511 5.30404E-04-1.47679E-04-1.19667E-03
 -1      1512 1.96498E-04-1.20292E-04 4.20662E-03
 -1      1513 6.35469E-04-1.05781E-05-9.95908E-04
 -1      1514 4.30980E-04 1.77674E-04 2.71335E-03
 -1      1515 5.73016E-04 1.38764E-04 2.58283E-03
 -1      1516 5.75788E-04 1.04575E-04-1.16668E-03
 -1      1517 2.51555E-04 1.00121E-04-4.35963E-03
 -1      1518-1.09939E-04 2.92792E-04 1.94664E-03
 -1      1519 1.99589E-04-4.17996E-04 3.41806E-03
 -1      1520-3.99952E-04-1.68723E-04 1.41517E-03
 -1      1521 1.20904E-04-3.82653E-04-2.95398E-03
 -1      1522-1.41436E-04-3.10782E-05 5.12559E-05
 -1      1523-2.44696E-04-3.43480E-08 8.29386E-03
 -1      1524-6.95202E-04 6.95374E-05-7.64993E-03
 -1      1525-4.89974E-04 2.48306E-04 2.05981E-03
 -1      1526-6.62464E-04-1.81999E-04 2.75374E-03
 -1      1527-4.49755E-04 1.18990E-04 2.81077E-03
 -1      1528 6.42508E-04 1.69447E-04-5.08880E-03
 -1      1529-6.88937E-04 1.46064E-05 2.31673E-03
 -1      1530 4.40829E-04-2.53413E-04 4.38840E-03
 -1      1531-2.09478E-04 2.63590E-04 1.55165E-03
 -1      1532 2.75500E-04 3.79345E-04-4.94155E-03
 -1      1533-3.83354E-04 3.77132E-04 2.35508E-03
 -1      1534-3.77635E-04-3.09884E-04 2.41762E-03
 -1      1535-3.37660E-04-1.65816E-04 1.97566E-03
 -1      1536 4.81713E-04-6.76865E-06-1.54657E-04
 -1      1537-2.66316E-04-4.14243E-04-1.64890E-03
 -1      1538-8.13950E-05-3.41701E-04-1.58783E-03
 -1      1539 1.35491E-05-2.16163E-04-9.66272E-04
 -1      1540 1.25045E-04-1.81873E-04-5.91123E-04
 -1      1541 9.73949E-05-4.16436E-05-6.88429E-05
 -1      1542-1.70460E-04-1.27532E-05-1.53614E-04
 -1      1543 1.17423E-04 1.33795E-04 5.73418E-04
 -1      1544 4.46779E-06 1.52382E-04 7.12215E-04
 -1      1545-9.39806E-05 2.45420E-04-1.19246E-03
 -1      1546-2.67835E-05 2.98018E-04 1.51287E-03
 -1      1547-5.86070E-04-3.27495E-04-2.12318E-03
 -1      1548-3.50595E-04-2.74383E-04-2.35412E-03
 -1      1549-3.40392E-04-8.94584E-05 1.52858E-03
 -1      1550-7.06402E-04 2.64625E-05-2.30939E-03
 -1      1551 1.64141E-05-3.15165E-04-1.53160E-03
 -1      1552-5.20966E-04 1.46071E-04-2.90189E-03
 -1      1553-5.20048E-04-1.24730E-04-2.90393E-03
 -1      1554-3.50211E-04 1.44528E-04-2.01979E-03
 -1      1555-5.00478E-04-1.91034E-04-6.59405E-03
 -1      1556-3.31712E-04 2.76821E-04-2.47006E-03
 -1      1557-1.90610E-04 3.31999E-04-1.66515E-03
 -1      1558-1.10430E-04 3.26909E-04-1.72208E-03
 -1      1559 2.43120E-05 1.55637E-04-8.87741E-04
 -1      1560 1.13771E-04 1.60302E-04-6.21624E-04
 -1      1561 1.05316E-04-1.19955E-05 3.68697E-05
 -1      1562 7.17114E-05-1.21309E-04 5.66200E-04
 -1      1563-9.53695E-06-2.56651E-04 8.32518E-04
 -1      1564-2.64780E-05-3.44416E-04 1.67133E-03
 -1      1565-3.33618E-04-3.84543E-04 1.71310E-03
 -1      1566-6.70622E-05-1.64364E-04 1.10176E-03
 -1      1567 6.00478E-04 1.47955E-04-2.11221E-03
 -1      1568-2.66397E-04-2.77794E-04 6.62190E-03
 -1      1569 5.49225E-04 1.65361E-04 4.93792E-03
 -1      1570-3.93684E-04-3.66213E-04-4.59391E-03
 -1      1571 6.39678E-05 1.95608E-04 9.79838E-04
 -1      1572 1.76715E-05-1.18112E-04 4.56641E-04
 -1      1573 9.13216E-05 3.30623E-04-2.03898E-03
 -1      1574 6.70374E-04-1.75034E-04 4.06192E-03
 -1      1575 3.57089E-04 2.66325E-04-2.22841E-03
 -1      1576-5.23190E-04 1.98301E-04-3.18663E-03
 -1      1577-6.10951E-05-1.81354E-04-6.96488E-04
 -1      1578 5.18639E-04-8.59268E-05 1.87258E-03
 -1      1579 2.58747E-04-2.16330E-04 7.59911E-03
 -1      1580-1.28693E-03-2.58678E-05 3.47690E-04
 -1      1581 3.33616E-05 1.51224E-04-7.85234E-04
 -1      1582 6.66739E-05-3.30518E-04 1.74603E-03
 -1      1583 1.99420E-04 1.35722E-04 1.02854E-03
 -1      1584 2.29634E-04-2.92804E-04-6.71002E-03
 -1      1585-3.19066E-05 2.84041E-04-1.69837E-03
 -1      1586 2.33499E-04-2.61874E-04 2.11408E-03
 -1      1587 3.82796E-04 3.51167E-04 4.29520E-03
 -1      1588 1.93248E-04-1.41175E-04 1.08045E-03
 -1      1589-1.11594E-04 2.74435E-04 2.05628E-03
 -1      1590-4.23291E-05 3.29062E-04-7.47372E-04
 -1      1591-6.10248E-04-1.32551E-04-4.94114E-03
 -1      1592-4.42884E-06 2.33086E-04-1.51246E-03
 -1      1593-7.10264E-04-1.78823E-04 3.52228E-03
 -1      1594-4.96310E-04 2.10745E-04 5.47923E-03
 -1      1595 3.08382E-04-3.68865E-04-2.52062E-03
 -1      1596 1.68789E-05 9.91959E-05 4.14943E-04
 -1      1597 3.35832E-04-1.44286E-04 1.92447E-03
 -1      1598-9.45206E-04-1.36614E-04 5.97937E-03
 -1      1599 3.77653E-04 8.43583E-05 1.94682E-03
 -1      1600-3.03055E-04 3.54288E-04 1.15294E-03
 -1      1601-3.38392E-04-3.86570E-04 4.73169E-03
 -1      1602 1.33724E-04-2.91678E-04 6.48008E-03
 -1      1603-3.74590E-05 5.57453E-05-1.75683E-04
 -1      1604 5.04961E-05 1.43212E-05 1.27754E-04
 -1      1605-3.71256E-04 4.86849E-05 1.54464E-03
 -1      1606 4.95355E-04-2.16561E-04-3.77002E-03
 -1      1607 1.10125E-04-2.46373E-04-1.25693E-03
 -1      1608-1.86515E-05 4.03249E-04-2.85804E-03
 -1      1609 2.75180E-05-2.47424E-04 9.17202E-04
 -1      1610-2.21391E-04-3.34631E-04 2.69644E-03
 -1      1611 1.91621E-04-2.65207E-04 1.43458E-03
 -1      1612 5.04740E-04-1.70585E-04 2.00109E-03
 -1      1613 7.62264E-05-2.11291E-04-1.11044E-03
 -1      1614 1.99905E-04-2.00160E-04-1.22505E-03
 -1      1615-2.71876E-04 3.29743E-04-2.74047E-03
 -1      1616 4.06909E-05-2.96814E-05-8.83298E-05
 -1      1617 1.50149E-04-8.94023E-05-4.07171E-04
 -1      1618 3.01589E-04 9.16017E-05 1.29170E-03
 -1      1619 1.68044E-04-2.34942E-04-2.14015E-03
 -1      1620-5.16060E-04-1.30468E-04 3.33012E-03
 -1      1621 1.64226E-04-1.95905E-04-1.04085E-03
 -1      1622 2.60704E-04-3.43925E-04 4.82853E-03
 -1      1623-1.18219E-04 3.54751E-04 6.07349E-03
 -1      1624-5.45240E-04-1.71753E-04 6.37679E-03
 -1      1625 5.58867E-05-3.98528E-04-5.25995E-03
 -1      1626-3.60644E-04 1.62551E-04 7.26388E-03
 -1      1627-3.97031E-04-2.91899E-04 2.95343E-03
 -1      1628 3.96393E-04-3.15805E-04-2.27075E-03
 -1      1629 5.35537E-04-1.10625E-04-2.09091E-03
 -1      1630 5.72564E-04-3.55542E-05-3.50652E-03
 -1      1631 1.48782E-04-3.78035E-04-3.88787E-03
 -1      1632 4.11163E-04-2.56312E-04 6.14744E-03
 -1      1633 2.10858E-04 3.40004E-04-1.45043E-03
 -1      1634 1.95957E-04 1.80308E-05-3.09222E-04
 -1      1635-7.67988E-05-3.24545E-04 2.44409E-03
 -1      1636-5.39050E-04-2.63464E-04-3.24458E-03
 -1      1637-3.00987E-04 3.84506E-04-4.66480E-03
 -1      1638-1.27505E-04 1.66485E-04-8.77133E-04
 -1      1639 4.76791E-04-3.41701E-04-4.54194E-03
 -1      1640 4.31492E-04 3.68439E-04 1.86477E-03
 -1      1641-9.20137E-05-3.77698E-04-4.27470E-03
 -1      1642-1.74486E-04-3.54605E-04-2.19212E-03
 -1      1643-3.86754E-04-5.29152E-05 1.59530E-03
 -1      1644 6.72771E-06-3.37581E-04-1.10585E-03
 -1      1645-2.39436E-05 1.82886E-04-4.02739E-04
 -1      1646-9.24505E-05-1.62546E-04-6.56445E-04
 -1      1647 3.43901E-05-9.74355E-05 5.23168E-04
 -1      1648 3.31582E-05 2.06258E-04-5.20765E-04
 -1      1649-3.21518E-04 3.96390E-04 2.62146E-03
 -1      1650 2.68958E-04 1.40038E-04-1.48555E-03
 -1      1651 2.45756E-05 2.21068E-04-7.76865E-03
 -1      1652-4.86995E-04 2.52042E-05 3.60229E-03
 -1      1653-2.36566E-04-2.01054E-04-2.24020E-03
 -1      1654 7.21858E-05-1.29144E-04-5.27449E-04
 -1      1655-8.71248E-05 1.21204E-04 6.54013E-04
 -1      1656-3.47838E-05-3.63743E-04-2.77037E-03
 -1      1657-3.31918E-04-9.37581E-05-1.30802E-03
 -1      1658-9.24958E-05-2.32279E-04 7.41127E-03
 -1      1659 2.40827E-04-3.77947E-04 2.55288E-03
 -1      1660-9.31960E-04-1.86543E-04-4.80230E-03
 -1      1661-3.98060E-04 2.74430E-04 3.19047E-03
 -1      1662 3.20361E-04 1.69068E-05-1.31963E-03
 -1      1663 9.71297E-05-2.18209E-04 1.00077E-03
 -1      1664-4.25201E-06-1.06456E-04-2.34794E-04
 -1      1665 1.78421E-04-2.55225E-04 7.02159E-03
 -1      1666 4.43882E-04-2.54894E-04-5.68163E-03
 -1      1667 6.27440E-05-1.47253E-04 6.92197E-04
 -1      1668 2.94537E-04 1.82297E-04-1.18449E-03
 -1      1669 4.08223E-04 2.59482E-04-6.01135E-03
 -1      1670-1.31232E-04-2.49953E-04 9.95822E-04
 -1      1671-1.57588E-03-3.48814E-05 5.11157E-05
 -1      1672-1.31220E-03 7.59027E-05-4.14502E-03
 -1      1673-2.43323E-05-2.62599E-04 7.92206E-04
 -1      1674 1.24588E-05-4.16449E-04 3.18380E-03
 -1      1675-9.13737E-04 1.03846E-04 5.87009E-03
 -1      1676-1.07486E-03 9.45599E-07 9.23049E-04
 -1      1677 3.13177E-05-2.98482E-04 1.52186E-03
 -1      1678-1.51693E-03-4.83619E-05 2.48119E-03
 -1      1679 7.85318E-05-4.46800E-05 1.78639E-04
 -1      1680-9.96777E-05 1.34266E-04 8.43908E-04
 -1      1681-2.25893E-04-1.79356E-04 1.79137E-03
 -1      1682-1.10630E-03-1.55733E-04 3.70396E-03
 -1      1683 3.96570E-05 1.18381E-04-4.67423E-04
 -1      1684 1.87419E-04-1.31031E-04 7.78934E-04
 -1      1685 3.64412E-04-3.79468E-04-4.38736E-03
 -1      1686 3.33664E-04-2.36179E-04-1.98509E-03
 -1      1687-1.72242E-04 3.47899E-04-2.23077E-03
 -1      1688-2.59205E-04 7.01396E-05-1.45579E-03
 -1      1689-4.26787E-04 2.19531E-04-3.30126E-03
 -1      1690-3.67733E-04 6.48036E-05-1.03341E-03
 -1      1691-3.79180E-04 5.64989E-05-1.51908E-03
 -1      1692-5.03422E-04-1.66632E-04 7.39944E-03
 -1      1693-4.34065E-04 4.32388E-06-1.57849E-03
 -1      1694-5.62396E-04 1.59654E-04-5.51300E-03
 -1      1695-4.50325E-04 1.09383E-04-1.43825E-03
 -1      1696 3.16739E-04-1.48606E-05 1.53209E-03
 -1      1697 5.92405E-04-1.52684E-04-5.85028E-03
 -1      1698-8.11984E-04-1.97452E-04 5.75545E-03
 -1      1699-2.81300E-04-1.26059E-04-1.33964E-03
 -1      1700-2.11986E-04-2.28883E-04-1.21297E-03
 -1      1701 5.84603E-04-1.97122E-04 3.89735E-03
 -1      1702 5.26225E-04-1.78365E-04 5.65366E-03
 -1      1703 2.98556E-04-3.74828E-04-1.14937E-03
 -1      1704-1.55615E-04-1.36436E-04 8.12722E-03
 -1      1705-2.55467E-04-2.84220E-04-2.76317E-03
 -1      1706-2.88084E-05 1.80729E-04 7.16354E-04
 -1      1707 4.65213E-06 3.10676E-04 2.99198E-03
 -1      1708 4.69751E-04-3.52361E-05 1.38334E-03
 -1      1709 4.54753E-04 1.70375E-05 1.76809E-03
 -1      1710-1.35764E-03-1.03510E-04 1.95284E-03
 -1      1711-1.64267E-04-2.07908E-04 1.10606E-03
 -1      1712-2.22959E-04 1.81112E-04 1.42658E-03
 -1      1713 1.77588E-04 1.98077E-04 1.15515E-03
 -1      1714 2.08883E-04-3.82077E-04 2.28790E-03
 -1      1715 1.49894E-04 3.55235E-04 1.42078E-03
 -1      1716 5.50384E-04 1.82250E-04-3.61770E-03
 -1      1717 2.48435E-04 3.62467E-04 3.59228E-03
 -1      1718 9.68324E-05 5.33790E-05-1.52406E-04
 -1      1719 6.56927E-04 5.34098E-05 1.85309E-03
 -1      1720 1.99514E-05 4.03686E-04 3.33815E-03
 -1      1721-8.04532E-04-3.13434E-05-4.17959E-04
 -1      1722 1.24180E-04 2.38499E-04 7.29962E-03
 -1      1723-5.20262E-04-2.45190E-04 6.69637E-03
 -1      1724 2.10531E-04 8.37694E-06-9.74118E-04
 -1      1725 7.63402E-05-3.18191E-04-1.90255E-03
 -1      1726-7.87110E-04-1.76958E-04 6.57570E-03
 -1      1727 3.00714E-04-3.51385E-04-5.67048E-03
 -1      1728 1.43840E-05-4.33497E-04 3.59324E-03
 -1      1729 1.34006E-04 1.95717E-04-1.08517E-03
 -1      1730-1.04175E-04 1.45337E-04-6.29110E-04
 -1      1731-4.85894E-04 2.22408E-04 4.71439E-03
 -1      1732-9.25330E-05-3.55983E-04-2.72769E-03
 -1      1733-2.59341E-04 7.86335E-05 1.43963E-03
 -1      1734 3.26126E-04-2.83451E-04 5.70974E-03
 -1      1735-5.79756E-04-2.04078E-04-3.56565E-03
 -1      1736-1.53940E-03-9.64375E-07-9.55730E-04
 -1      1737-1.35178E-04-1.68927E-04-8.40116E-04
 -1      1738 1.50812E-04 3.25788E-04 2.31200E-03
 -1      1739-5.50380E-04-3.39105E-05 1.61304E-05
 -1      1740 2.40425E-04-9.26942E-05 1.04581E-03
 -1      1741 1.50654E-05-2.89835E-04-1.69990E-03
 -1      1742-2.39964E-04-3.69797E-04-6.04344E-03
 -1      1743 3.86570E-04 3.95161E-04-2.96419E-03
 -1      1744-1.91364E-05-1.93153E-04-5.72328E-04
 -1      1745-2.29258E-05 1.51936E-05 4.53791E-05
 -1      1746 5.83033E-04-2.49175E-04-3.59801E-03
 -1      1747 3.45309E-04 6.27591E-05-1.30294E-03
 -1      1748 6.62228E-04-3.55596E-05 4.10117E-03
 -1      1749-3.50754E-04 3.93451E-04 4.14933E-03
 -1      1750-2.51637E-04-1.70302E-04-1.00642E-03
 -1      1751 3.44767E-04 3.34586E-05 7.48031E-03
 -1      1752-5.77750E-05-8.55141E-05-2.08396E-04
 -1      1753-6.18906E-05-2.57573E-04 6.81903E-03
 -1      1754 4.79404E-04-2.56934E-05-6.75292E-04
 -1      1755-3.67456E-04-2.84353E-04 3.40767E-03
 -1      1756 4.01420E-04-1.40112E-04 1.18576E-03
 -1      1757-5.19314E-04-2.73732E-05 3.59680E-03
 -1      1758-1.28094E-03-1.11578E-04-1.73023E-03
 -1      1759-9.72316E-04-1.24605E-04-2.22547E-03
 -1      1760 3.36324E-04-3.38612E-04 3.37263E-03
 -1      1761-3.41044E-04 2.27788E-04 6.79504E-03
 -1      1762 2.81992E-05 1.69830E-04 7.81392E-04
 -1      1763 3.29474E-05-1.32583E-05 8.21059E-03
 -1      1764-1.71718E-04-3.99306E-04 6.21142E-03
 -1      1765 3.08424E-05 3.58657E-04-4.00523E-03
 -1      1766-1.25161E-03 3.67009E-05 4.39389E-03
 -1      1767-3.98244E-05 6.44578E-05 2.15145E-04
 -1      1768 4.38608E-04 3.34663E-04-4.12700E-03
 -1      1769 3.45985E-04 1.45363E-04-1.40885E-03
 -1      1770 1.17590E-04 3.82434E-04-3.88648E-03
 -1      1771 6.07347E-04 2.07831E-04-5.35529E-03
 -1      1772-5.13133E-04-2.76566E-04 5.36215E-03
 -1      1773 1.27805E-04 3.28256E-04 3.96632E-03
 -1      1774-2.88338E-04 3.82769E-05 9.91850E-04
 -1      1775-1.06511E-04 2.23683E-04 9.74434E-04
 -1      1776 2.20484E-04 2.31992E-04-1.06757E-03
 -1      1777-1.25985E-03-6.26048E-05 4.80592E-03
 -1      1778 2.33410E-04-1.34896E-04 1.50461E-03
 -1      1779 4.08278E-04-3.55644E-04-3.71118E-03
 -1      1780-1.46639E-04-8.93171E-05-2.23865E-04
 -1      1781-1.10874E-03-4.39990E-05-1.09533E-03
 -1      1782-3.57624E-04-2.02858E-04 2.30001E-03
 -1      1783-2.28624E-04-9.17936E-05 7.74688E-04
 -1      1784 1.90952E-04 3.41684E-05 2.79696E-04
 -1      1785-6.45194E-04-1.53041E-04 4.74896E-03
 -1      1786 2.78289E-05 8.89032E-05 4.16365E-04
 -1      1787 1.45318E-04 3.60490E-04-2.83266E-03
 -1      1788-8.60125E-05-7.81490E-05 2.59260E-04
 -1      1789-9.88594E-04-1.68558E-04 5.21664E-03
 -1      1790-3.12843E-04 2.71956E-04-1.18624E-03
 -1      1791-3.91621E-04-9.08334E-05 2.50878E-04
 -1      1792 5.43714E-04 3.28543E-05-6.33776E-03
 -1      1793-1.63691E-05-8.47439E-05-3.54803E-04
 -1      1794 5.97259E-05-2.67916E-04-1.54422E-03
 -1      1795-6.59238E-04-1.21119E-04 1.72925E-03
 -1      1796 9.16548E-06-2.34293E-05-8.53939E-03
 -1      1797 1.12811E-04 3.82268E-04 3.25059E-03
 -1      1798-4.60767E-04-2.00799E-04-1.20920E-03
 -1      1799 4.69782E-04 2.91061E-04 5.28420E-03
 -1      1800-4.49809E-04-6.78880E-05 7.88595E-03
 -1      1801-9.67070E-04-1.92356E-04 4.04438E-03
 -1      1802-2.76795E-04 1.09877E-05-3.48680E-04
 -1      1803-1.87049E-04 2.70683E-04-2.41283E-03
 -1      1804-9.74164E-05 1.99513E-04-8.08771E-04
 -1      1805-7.56708E-05 2.34003E-04-1.82660E-03
 -1      1806 2.69321E-04 1.72700E-04-1.23832E-03
 -1      1807 6.21636E-04-1.14634E-04 6.03400E-03
 -1      1808-2.67151E-04 2.95648E-04 3.45421E-03
 -1      1809-1.71440E-04 1.98082E-04 1.35988E-03
 -1      1810 3.35815E-04 1.46647E-04-7.29430E-03
 -1      1811-2.46800E-04-3.24945E-04 5.00298E-03
 -1      1812 2.70288E-04 3.14002E-04-2.79008E-03
 -1      1813-3.05052E-04 2.69695E-04-6.09457E-03
 -1      1814-1.97295E-04-8.85233E-05 3.62736E-04
 -1      1815 4.84946E-05 3.05855E-04 1.85103E-03
 -1      1816 3.71289E-04 4.05918E-04-4.10715E-03
 -1      1817-3.11035E-05-3.72266E-04 5.64729E-03
 -1      1818-2.95337E-05-8.90918E-05-2.55397E-04
 -1      1819-4.99160E-05 3.65299E-04 3.01770E-03
 -1      1820-6.23463E-04 1.17456E-04 1.69331E-03
 -1      1821 6.05751E-04 8.20676E-05 5.76470E-03
 -1      1822 3.98832E-04 1.29691E-04 7.20884E-03
 -1      1823 5.35508E-04 2.19136E-04 3.40055E-03
 -1      1824-5.41915E-05-2.39743E-04-1.24198E-03
 -1      1825-1.27426E-03-2.66547E-05 5.68973E-04
 -1      1826-3.93568E-04 3.11634E-04 3.70030E-03
 -1      1827-9.86201E-04-4.26126E-05-4.91283E-04
 -1      1828-2.04283E-04 3.22781E-04 4.81342E-03
 -1      1829 5.85595E-04 1.02966E-04 3.13381E-03
 -1      1830 5.33869E-04 1.82731E-04 5.90003E-03
 -1      1831-1.20070E-03 9.68515E-05-2.69996E-03
 -1      1832-1.55732E-03-2.93210E-05 2.84658E-04
 -1      1833-3.86935E-04-2.73275E-04-5.43772E-03
 -1      1834-1.30798E-04 3.65846E-04-4.25275E-03
 -1      1835-3.33164E-04 1.55847E-04 1.11747E-03
 -1      1836 5.01351E-04 9.22054E-05-6.46823E-03
 -1      1837 3.57746E-04 6.84409E-05-7.76849E-03
 -1      1838 2.86539E-04 1.05805E-04 1.48513E-03
 -1      1839 2.74980E-04 3.01305E-04 6.20418E-03
 -1      1840 3.66691E-04 2.21425E-04 6.55633E-03
 -1      1841 1.56309E-04 3.51443E-04 5.38407E-03
 -1      1842-3.62145E-04 1.23215E-04-2.17729E-03
 -1      1843-6.94543E-04 1.72503E-04 5.36537E-03
 -1      1844-2.90432E-04 1.23960E-04 7.86820E-03
 -1      1845 2.64474E-04-6.70170E-05-9.96465E-04
 -1      1846-1.06358E-04 2.55549E-04 6.86497E-03
 -1      1847-2.60125E-04-3.16412E-04-4.40257E-03
 -1      1848-1.38223E-04 2.06078E-04-1.54129E-03
 -1      1849-7.76506E-04 2.71732E-05 6.97329E-03
 -1      1850-2.45364E-04 6.55650E-05-8.39087E-03
 -1      1851-1.26265E-03-9.79727E-05-4.63699E-03
 -1      1852-2.40436E-05 6.18875E-05-1.34287E-04
 -1      1853 1.60361E-05 1.75690E-04-8.80230E-04
 -1      1854-1.41661E-03 3.59405E-05 2.39947E-03
 -1      1855-8.82131E-04 5.58671E-05 1.26235E-03
 -1      1856-9.80598E-04 8.02097E-06 5.84259E-03
 -1      1857-7.31786E-04-9.75948E-05 7.16219E-03
 -1      1858-1.60861E-04-3.14313E-04 3.45347E-03
 -1      1859 5.51044E-04-2.10360E-04-5.35359E-03
 -1      1860-5.52709E-04-2.11848E-04 3.13643E-03
 -1      1861 2.60252E-04-1.93839E-04-7.57914E-03
 -1      1862-1.28802E-04-4.01783E-04 2.42295E-03
 -1      1863-1.01507E-03-6.93347E-05 1.38732E-03
 -1      1864-1.25746E-03-1.42346E-04 4.13986E-03
 -1      1865-1.03776E-03 1.04814E-05-1.52824E-03
 -1      1866-7.55851E-04 1.80085E-04-4.96262E-03
 -1      1867 2.92190E-04-3.77119E-04-3.75350E-03
 -1      1868 2.77320E-04-1.87118E-04 1.44755E-03
 -1      1869-3.20077E-04-2.33207E-04 1.27425E-03
 -1      1870 3.80742E-04-3.74071E-04-2.98751E-03
 -1      1871 3.38711E-05-3.32085E-04 2.58953E-03
 -1      1872-1.62283E-05-3.22931E-04-6.51960E-03
 -1      1873 6.56510E-04 1.16539E-04-4.67560E-03
 -1      1874 7.00958E-05-3.72955E-04 4.19677E-03
 -1      1875 4.88587E-05-4.06648E-04 2.13412E-03
 -1      1876 6.54313E-04 1.04641E-04 3.41684E-03
 -1      1877-7.24691E-04-1.34361E-04-1.37773E-03
 -1      1878 4.32692E-04 4.04200E-04 3.30617E-03
 -1      1879 1.19063E-04 1.56329E-04 7.73720E-04
 -1      1880 1.36844E-04-2.36142E-04 9.76710E-04
 -1      1881-2.38896E-04 1.87318E-04 1.03177E-03
 -1      1882 4.61691E-04 8.31401E-06-1.32903E-03
 -1      1883-9.61102E-05 1.92251E-04 6.14519E-04
 -1      1884-4.13917E-04 1.87897E-04-7.28532E-03
 -1      1885 6.15986E-04-8.49781E-05-3.68424E-03
 -1      1886-1.05207E-03-1.13571E-04-2.99556E-03
 -1      1887 1.84246E-04-1.92141E-04-8.61659E-04
 -1      1888-4.37139E-04 2.43387E-04 5.87702E-03
 -1      1889-2.20535E-04-1.51381E-04-9.46702E-04
 -1      1890-1.14261E-03 8.35225E-05 4.49646E-03
 -1      1891-5.48686E-04 1.63275E-05-3.52756E-03
 -1      1892-1.51787E-03-2.86894E-05-7.91901E-05
 -1      1893 3.51423E-04 3.36713E-04 2.83589E-03
 -1      1894 3.35675E-04-2.64898E-05-1.34716E-03
 -1      1895 3.56626E-05 6.90411E-05 2.59989E-04
 -1      1896 9.46763E-05-1.63796E-04 5.48715E-04
 -1      1897-8.32685E-06 2.47379E-05-1.84626E-05
 -1      1898-7.69349E-05 1.76749E-05 3.09286E-04
 -1      1899-5.20835E-04 1.79792E-04 3.31277E-03
 -1      1900 3.29218E-04-1.41632E-04-1.59264E-03
 -1      1901 4.28038E-04-8.29445E-05-7.40747E-03
 -1      1902-2.86463E-04 1.07439E-04-1.09473E-03
 -1      1903-2.98924E-04-6.98005E-05-1.05955E-03
 -1      1904-6.88299E-04-7.79814E-05-3.56446E-03
 -1      1905-3.50190E-04-3.16749E-04 5.78412E-03
 -1      1906 8.27478E-05-3.86326E-04-4.14634E-03
 -1      1907 5.31047E-05 3.49305E-04-2.45164E-03
 -1      1908 2.74119E-04-2.05005E-04-1.22591E-03
 -1      1909 3.67535E-05 6.78147E-05-2.37700E-04
 -1      1910 6.65489E-05 2.16924E-04-1.13016E-03
 -1      1911-2.60472E-04 1.59237E-04-8.03443E-03
 -1      1912 1.11801E-04-7.63906E-05 3.70529E-04
 -1      1913-3.60195E-04 2.61478E-04 4.28446E-03
 -1      1914-6.19563E-04-2.53077E-04-4.68732E-03
 -1      1915-9.84587E-04 2.01612E-05-6.28343E-03
 -1      1916-4.51161E-04-2.56447E-04-6.95586E-03
 -1      1917-1.33139E-03-3.87533E-05-4.66890E-03
 -1      1918 2.97437E-05 4.02310E-05 8.22461E-03
 -1      1919 1.17395E-04-2.10932E-04-7.99498E-04
 -1      1920-2.44601E-04-3.23885E-04-3.61970E-03
 -1      1921-4.41160E-04-2.91659E-04-3.10781E-03
 -1      1922-3.65570E-04-4.78399E-05-2.50040E-04
 -1      1923-1.45749E-04 2.00400E-04 7.43426E-03
 -1      1924-5.30298E-05 3.31234E-04 5.93700E-03
 -1      1925-3.44249E-04-1.41699E-04 7.55860E-03
 -1      1926-6.72712E-04 1.44318E-04 6.45243E-03
 -1      1927-8.86977E-04-1.70160E-04-3.68956E-03
 -1      1928-1.46432E-03-7.99547E-05-2.60076E-03
 -1      1929 1.09970E-05 3.39781E-04-3.13332E-03
 -1      1930-1.19543E-04-4.03728E-04-3.04428E-03
 -1      1931 1.10306E-04 1.62779E-04-6.95059E-04
 -1      1932 1.57805E-04 3.37061E-04-6.71490E-03
 -1      1933 3.53191E-04-9.66502E-05 7.66263E-03
 -1      1934-1.13093E-03-1.72765E-04-3.97475E-03
 -1      1935-7.93541E-04 1.40016E-04 3.34380E-03
 -1      1936 2.40600E-04 1.97649E-04 1.10798E-03
 -1      1937-1.01410E-05-7.65059E-05 3.12574E-04
 -1      1938-7.31715E-04 1.40153E-04-2.85385E-03
 -1      1939-5.28271E-04 2.50856E-04-4.69383E-03
 -1      1940-1.00977E-04-3.30949E-04-5.13033E-03
 -1      1941-1.53586E-04 3.27813E-04-6.10709E-03
 -1      1942-9.62143E-05 3.72957E-04-3.23937E-03
 -1      1943-4.01651E-04 2.68804E-04-3.19466E-03
 -1      1944-2.96728E-04 2.69005E-04-5.09035E-03
 -1      1945-5.82570E-04 7.45255E-05-2.00210E-03
 -1      1946 7.46642E-05 2.44882E-04 7.87780E-04
 -1      1947-3.97284E-04 1.60799E-04-7.37506E-03
 -1      1948-9.43827E-04 1.37795E-04-3.52353E-03
 -1      1949-7.90990E-04-1.29224E-04 2.09435E-03
 -1      1950-1.39069E-05 3.40530E-04-5.44044E-03
 -1      1951-1.00309E-03 1.34082E-04-5.25550E-03
 -1      1952-9.21675E-04 1.11681E-04-2.82531E-03
 -1      1953-4.95668E-04-3.02674E-04 4.37113E-03
 -1      1954-2.66363E-04 6.75350E-05 7.07939E-04
 -1      1955 2.03755E-06 2.50601E-04 1.54952E-03
 -1      1956 4.27263E-04-2.61713E-04-3.05232E-03
 -1      1957-8.38401E-04-1.33906E-04-6.47989E-03
 -1      1958-6.06798E-04-1.33787E-04-2.26672E-03
 -1      1959-2.33486E-05 8.56699E-05 2.81886E-04
 -1      1960 2.43825E-06-6.88945E-05 2.43242E-04
 -1      1961 9.32705E-05 3.03906E-04-1.55067E-03
 -1      1962-9.63266E-05 3.06122E-04 3.91450E-03
 -1      1963 1.37912E-04 8.05906E-05-8.27038E-03
 -1      1964 4.63892E-04-1.45371E-04 6.87478E-03
 -1      1965-1.39889E-06 3.79298E-04 4.35903E-03
 -1      1966 1.45428E-04-1.33237E-04 7.94457E-04
 -1      1967-7.44440E-04-2.03505E-04-6.12293E-03
 -1      1968-1.94108E-05-2.29688E-04-1.09521E-03
 -1      1969 5.49798E-04 1.15600E-05 6.56580E-03
 -1      1970 5.77979E-04 4.01717E-05-2.71164E-03
 -1      1971-5.11153E-04-1.42068E-04 2.11740E-03
 -1      1972 3.31595E-04-2.52691E-04-6.86654E-03
 -1      1973 6.25324E-04-6.48876E-05-5.23446E-03
 -1      1974-2.28352E-04-1.02256E-04 1.20482E-03
 -1      1975-1.61165E-04 1.41983E-04-7.74967E-04
 -1      1976-1.95213E-04 1.50870E-04-8.69816E-04
 -1      1977-9.50528E-04 5.33758E-05 6.17378E-03
 -1      1978-1.95960E-04 2.42484E-04 2.31143E-03
 -1      1979-2.99198E-04-1.90501E-04-1.53795E-03
 -1      1980-5.01284E-04-1.34383E-05 7.78477E-03
 -1      1981-2.09784E-04-2.82942E-04 2.67071E-03
 -1      1982 3.29829E-04 1.65889E-04-1.49198E-03
 -1      1983-2.08461E-05-4.05534E-04 4.64554E-03
 -1      1984 2.01682E-04 3.45079E-04-2.48183E-03
 -1      1985 2.72557E-04 2.38000E-04-7.17380E-03
 -1      1986-1.22112E-04-3.36833E-04-5.89848E-03
 -1      1987-3.58269E-04-1.70297E-04-2.52487E-03
 -1      1988-3.86107E-04 1.76740E-04 1.68510E-03
 -1      1989-3.19054E-04-2.10486E-04-7.51711E-03
 -1      1990-5.20946E-04 2.37179E-04-5.80775E-03
 -1      1991-9.63297E-04-9.52876E-05-6.25471E-03
 -1      1992-1.00350E-03 6.74790E-05-5.80248E-03
 -1      1993-7.45046E-04 1.41564E-04-6.89345E-03
 -1      1994 1.09370E-04 3.97069E-04 2.34666E-03
 -1      1995-5.18084E-04 1.49094E-04 2.30251E-03
 -1      1996-7.11443E-04 1.68880E-04-4.11869E-03
 -1      1997-3.89036E-04-2.60088E-06-8.33050E-03
 -1      1998 3.62741E-04-1.69329E-04-1.79904E-03
 -1      1999-1.91079E-04 7.65249E-05-8.31626E-04
 -1      2000-1.12783E-03-1.14366E-04 2.39778E-03
 -1      2001-1.05882E-05-2.47400E-04-7.56302E-03
 -1      2002-7.03641E-04-1.01859E-04-7.58662E-03
 -1      2003 2.32359E-05-3.38271E-04 1.69415E-03
 -1      2004-7.23140E-04-1.68810E-05 2.26732E-04
 -1      2005-1.14212E-04-3.11577E-04 6.19725E-03
 -1      2006-1.13546E-04 3.02645E-05-4.07990E-05
 -1      2007-6.61901E-05-1.42111E-04 6.47899E-04
 -1      2008 5.11637E-04 3.52864E-04 3.62242E-03
 -1      2009-1.05367E-03 8.31912E-05 3.46558E-03
 -1      2010-6.88980E-04 2.00036E-04 4.59507E-03
 -1      2011-2.52520E-04 2.80059E-04 5.37279E-03
 -1      2012 1.74888E-04-1.14254E-04-8.17378E-03
 -1      2013-5.00074E-04-2.50903E-04-6.01208E-03
 -1      2014-5.73869E-04-1.75213E-04-7.53479E-03
 -1      2015-4.11954E-04 6.54569E-05 6.77140E-04
 -1      2016-2.33548E-04 2.90157E-04 6.45098E-03
 -1      2017-1.70074E-04-1.24896E-04-8.26458E-03
 -1      2018-1.44034E-04 2.50480E-04-7.27363E-03
 -1      2019-9.70505E-04 9.72402E-05 2.33422E-03
 -1      2020 2.68345E-04 1.09738E-04 1.37846E-03
 -1      2021-5.28949E-04 1.09981E-04-1.07908E-03
 -1      2022-2.63933E-04 3.23217E-04-4.20611E-03
 -1      2023-3.17137E-06 1.68581E-04 4.98937E-04
 -1      2024-5.53816E-05-1.60862E-04 5.79030E-04
 -1      2025 4.65674E-05 3.56504E-04-6.43903E-03
 -1      2026-1.64714E-05 3.73399E-04-4.48231E-03
 -1      2027-6.04884E-04 1.01424E-04 7.30943E-03
 -1      2028 1.67949E-04-3.98174E-04 4.56991E-03
 -1      2029-3.44570E-04 4.50269E-05 7.99686E-03
 -1      2030-2.60428E-04-3.08872E-04-6.63418E-03
 -1      2031-4.12696E-04-2.12667E-04-3.40907E-03
 -1      2032-3.68113E-04 2.59608E-04-6.63984E-03
 -1      2033-6.79497E-04 1.77651E-04-6.29729E-03
 -1      2034-5.15224E-04 1.44838E-04-7.79214E-03
 -1      2035-3.54266E-04 1.75117E-04 2.55966E-03
 -1      2036-1.45634E-05-3.00214E-04-7.16370E-03
 -1      2037-5.93161E-04 5.82007E-05 7.83006E-04
 -1      2038-9.18725E-04 1.18273E-04 5.03189E-03
 -1      2039-2.57910E-04-2.14639E-04-7.78309E-03
 -1      2040-3.83086E-04-1.32281E-04-8.04377E-03
 -1      2041 5.34426E-04 2.26395E-04 2.59029E-03
 -1      2042-9.55679E-04 1.30226E-04 3.77772E-03
 -1      2043 2.13034E-04 3.17738E-04-5.91935E-03
 -1      2044-8.37546E-04-4.89000E-05 7.77582E-04
 -1      2045-1.52152E-03-2.44607E-05 2.69619E-03
 -1      2046 4.23921E-04-1.45481E-05 2.77479E-03
 -1      2047-1.26525E-03-1.43148E-04 3.20465E-03
 -1      2048-6.93882E-04-2.34811E-04 4.45377E-03
 -1      2049-6.09634E-04-1.32165E-04-7.67594E-03
 -1      2050-1.52169E-03-4.12796E-05 9.28795E-04
 -1      2051 4.54011E-04 2.41650E-05 1.29903E-03
 -1      2052-1.15799E-03-4.46803E-05 9.45398E-04
 -1      2053-1.42404E-03-1.01151E-04-1.53525E-03
 -1      2054 4.77176E-04-2.58039E-05-7.78527E-05
 -1      2055-8.96050E-04 1.44311E-04-4.78386E-03
 -1      2056-1.13478E-03-2.99828E-05-5.51022E-03
 -1      2057-1.42887E-03-2.88411E-05 2.43387E-04
 -1      2058 4.40108E-04-4.39290E-05-2.59727E-03
 -1      2059 4.23974E-04 5.79947E-07-2.81425E-03
 -1      2060-1.54780E-03-1.38731E-05-2.46531E-03
 -1      2061-5.88256E-04-1.04889E-04-7.89506E-03
 -1      2062-1.05202E-03 5.74322E-05 5.37064E-03
 -1      2063 4.09250E-04 3.58419E-05 3.36774E-03
 -1      2064-9.85394E-04-1.71050E-04-3.88508E-03
 -1      2065-1.13629E-03 1.36956E-04-4.70088E-03
 -1      2066-8.93041E-04 3.47114E-05 6.33329E-03
 -1      2067-1.42706E-03-3.19935E-05-5.64887E-04
 -1      2068-1.51957E-03-4.83206E-06 2.60465E-03
 -1      2069-1.21104E-03 7.97210E-05 3.38321E-03
 -1      2070-1.13391E-03 6.97694E-06 5.15580E-03
 -1      2071-1.30614E-03-9.20465E-05 1.11384E-03
 -1      2072-1.48574E-03-5.77157E-05 2.16646E-03
 -1      2073 9.81980E-06-9.82836E-05-7.59323E-03
 -1      2074-3.43976E-04-1.51473E-04 7.86269E-03
 -1      2075-6.22870E-04-1.81824E-04-6.93966E-03
 -1      2076-1.03127E-03-1.60303E-04 5.08168E-03
 -1      2077-1.55888E-03-4.76257E-05-1.09721E-03
 -1      2078 3.95970E-04-1.27448E-04 1.48924E-03
 -1      2079-1.39405E-03 4.36484E-05 1.23968E-03
 -1      2080 1.20462E-04 1.97249E-04 6.25435E-03
 -1      2081-1.38753E-03 8.88374E-05-2.69213E-03
 -1      2082-1.13620E-03 9.69178E-05-4.97542E-03
 -1      2083-1.48979E-03-8.95902E-06 3.40617E-03
 -1      2084-8.14918E-04-2.06966E-04-4.65936E-03
 -1      2085 3.06644E-04 1.87504E-04 4.06887E-03
 -1      2086-8.70594E-04-3.63728E-05 6.44794E-03
 -1      2087-9.07492E-04 1.78892E-05-1.57052E-03
 -1      2088-6.45816E-05 1.58984E-04 7.82031E-03
 -1      2089-1.41965E-03 4.85915E-05-1.25413E-03
 -1      2090-1.25466E-03-2.72048E-05-7.39718E-04
 -1      2091-9.22068E-04-8.45255E-05-1.39384E-03
 -1      2092-1.01893E-03-1.15287E-04-2.20353E-03
 -1      2093 1.57633E-04 4.86797E-05 8.02385E-03
 -1      2094-1.06143E-03-1.24670E-04 5.69645E-03
 -1      2095-8.77512E-04-2.03414E-04 3.66483E-03
 -1      2096-6.85924E-04-1.90238E-04 6.48454E-03
 -1      2097 4.67403E-04-1.46388E-05 1.29953E-04
 -1      2098-1.21068E-03 6.88171E-05 2.08986E-03
 -1      2099 3.87757E-04-5.48854E-05-3.64263E-03
 -1      2100-1.05628E-03 1.50055E-04-4.06838E-03
 -1      2101-1.21140E-03 1.33805E-04-3.60278E-03
 -1      2102-1.23521E-03 2.38297E-05-1.29489E-03
 -1      2103-8.08034E-04 1.64581E-04 4.57929E-03
 -1      2104-6.20718E-04-1.40760E-04 7.52803E-03
 -1      2105-6.19029E-04 2.96659E-05 7.44596E-03
 -1      2106-1.29417E-03-1.44614E-04-4.01725E-03
 -1      2107-1.26824E-03 8.70010E-05 3.48952E-03
 -1      2108 2.53103E-05 8.19013E-05 7.35919E-03
 -1      2109 4.04341E-04 5.69939E-05 1.31477E-03
 -1      2110 3.90701E-04-9.05659E-05-1.60948E-03
 -1      2111-1.18770E-03 3.58388E-05-5.36182E-03
 -1      2112-1.29224E-03 6.30075E-05 3.91833E-03
 -1      2113-1.01786E-03 9.53590E-05 5.45570E-03
 -1      2114-8.94654E-04 6.03377E-05-6.82141E-03
 -1      2115-1.56113E-03-2.06660E-05 1.12901E-03
 -1      2116-4.03830E-04 1.59846E-04 7.24076E-03
 -1      2117-7.32055E-04 1.10924E-04 6.62116E-03
 -1      2118-1.51746E-03-4.47395E-05-2.84567E-03
 -1      2119 3.92712E-04 3.50530E-05-2.84310E-03
 -1      2120-6.53113E-04 2.03760E-04-4.99491E-03
 -1      2121-1.21105E-03-1.29406E-04-2.94434E-03
 -1      2122-1.29122E-03-1.16054E-04-2.85815E-03
 -1      2123-8.81843E-04 1.51790E-04-4.28400E-03
 -1      2124-1.01356E-03-1.59639E-04-5.29785E-03
 -1      2125 1.37843E-04 2.01887E-04-6.35754E-03
 -1      2126-1.33705E-03-8.17085E-05 3.84421E-03
 -1      2127-4.43923E-04 4.26441E-05-8.19340E-03
 -1      2128-8.61426E-04 1.60480E-04-6.01756E-03
 -1      2129-8.29069E-04 1.64810E-04-4.24170E-03
 -1      2130-7.30997E-04 1.55831E-04-6.59908E-03
 -1      2131-7.19258E-06 8.47590E-05-7.51191E-03
 -1      2132-5.92597E-04-9.03600E-05 7.60090E-03
 -1      2133-1.48732E-03 2.25371E-05 9.88369E-04
 -1      2134-5.18809E-04 6.23466E-05 7.64825E-03
 -1      2135-9.74189E-04 1.14152E-04 4.31274E-03
 -1      2136-9.05373E-04-7.26416E-05 1.48845E-03
 -1      2137-1.16146E-03-1.44046E-04-4.90180E-03
 -1      2138-1.22119E-03-1.12658E-04 1.55455E-03
 -1      2139 2.71282E-04-1.91157E-04-4.25501E-03
 -1      2140-1.47816E-03-7.99027E-05-3.49421E-03
 -1      2141 3.62987E-04 1.55023E-05-3.69661E-03
 -1      2142 3.67948E-04-9.07574E-05-3.55332E-03
 -1      2143 2.55134E-04 1.81843E-04-4.33838E-03
 -1      2144-1.47530E-03-3.62261E-05 3.79667E-03
 -1      2145-6.03544E-04 1.02764E-04-7.88558E-03
 -1      2146-1.11969E-03 7.56927E-05 4.77481E-03
 -1      2147-1.04430E-03 1.07478E-04-5.48427E-03
 -1      2148-1.45110E-03 3.81064E-06-3.80249E-03
 -1      2149 4.29265E-04-4.86900E-05 2.96254E-03
 -1      2150-5.89448E-04-2.30652E-04-6.55751E-03
 -1      2151-7.36963E-04-1.59504E-04-6.53432E-03
 -1      2152 4.61551E-04 2.24485E-05-1.23173E-03
 -1      2153 4.49373E-04 2.27431E-05-2.25257E-03
 -1      2154 4.37047E-04-6.76944E-05-2.42495E-03
 -1      2155-1.40461E-03-1.61517E-06 4.26988E-03
 -1      2156-7.12879E-04 6.94812E-05-1.65231E-03
 -1      2157-1.01821E-03-4.05828E-05-1.36484E-03
 -1      2158-1.29477E-03 5.65240E-05-1.43452E-03
 -1      2159 4.60036E-04-5.72042E-05-1.29365E-03
 -1      2160-1.14363E-03-1.30226E-04-1.94313E-03
 -1      2161-1.01053E-03 3.78218E-05 1.30791E-03
 -1      2162-1.14057E-03-1.81991E-06 1.36817E-03
 -1      2163 3.73603E-05-9.77714E-05 7.33991E-03
 -1      2164 4.20465E-04 5.67280E-05 2.54199E-03
 -1      2165-9.71175E-04 5.94562E-05-2.00448E-03
 -1      2166-1.22113E-03-1.20208E-04 2.58896E-03
 -1      2167-1.02315E-03-1.54896E-04-3.99763E-03
 -1      2168 4.62588E-04 1.22678E-05 7.67989E-04
 -1      2169-1.47021E-03-4.83207E-05-4.16877E-03
 -1      2170-8.05067E-04 1.25757E-04 6.08852E-03
 -1      2171-9.65702E-04 5.51534E-05-6.24974E-03
 -1      2172-4.34782E-04 1.93884E-04 6.81247E-03
 -1      2173 4.42229E-04-5.55064E-05 2.07888E-03
 -1      2174-5.60628E-04 1.86021E-04-6.82690E-03
 -1      2175 7.21417E-05-2.04199E-04-6.39787E-03
 -1      2176 1.02904E-04-2.12363E-04 6.28907E-03
 -1      2177 3.06257E-04-1.95542E-04 4.24996E-03
 -1      2178 3.64604E-04 3.97220E-05-3.66856E-03
 -1      2179 4.64530E-04-6.65365E-05 1.18560E-03
 -1      2180 3.77618E-04-2.73880E-05 3.82833E-03
 -1      2181 3.56108E-04 7.60089E-05 3.31791E-03
 -1      2182 3.02203E-04 8.56690E-05 3.68098E-03
 -1      2183 4.76632E-04-2.66262E-05 3.58047E-04
 -1      2184 3.98667E-04 7.89222E-05-1.60552E-03
 -1      2185 4.55299E-04-4.23153E-05-7.19936E-04
 -1      2186 3.82801E-04-9.98443E-05-2.64979E-03
 -1      2187 3.79414E-04 8.33835E-05-2.92990E-03
 -1      2188 4.66866E-04 9.58032E-06-5.80987E-04
 -1      2189 3.99279E-04-8.68892E-05 2.38596E-03
 -1      2190 4.22116E-04 4.43933E-05 2.08302E-03
 -1      2191 3.75077E-04 1.33018E-05 3.89700E-03
 -1      2192 3.18748E-04-1.49018E-05-4.23287E-03
 -1      2193 3.05650E-04-4.57738E-05 4.29527E-03
 -1      2194 4.57033E-04-5.93761E-05 9.15565E-04
 -1      2195 4.38193E-04 9.56094E-06 5.71097E-04
 -1      2196 3.14929E-04-4.38638E-05-4.29438E-03
 -1      2197 1.26219E-03-8.27203E-06 6.79453E-04
 -1      2198 3.27711E-04 4.47312E-05 4.09835E-03
 -1      2199 5.15093E-04-9.10520E-06 4.90980E-03
 -1      2200 3.72476E-04-1.08398E-04 2.53704E-03
 -1      2201 4.86263E-04-7.93709E-05-5.71204E-03
 -1      2202 1.20149E-03 2.77621E-04 2.76059E-03
 -1      2203 3.69972E-04-9.16262E-05 3.26148E-03
 -1      2204 3.44251E-04-5.71723E-05-5.41741E-03
 -1      2205 1.27488E-03-8.49284E-06-8.55158E-05
 -1      2206 3.54196E-04-1.18018E-04 2.61413E-03
 -1      2207 8.87080E-04 1.91610E-04-2.92306E-03
 -1      2208 4.42663E-04 4.38999E-05-1.25798E-03
 -1      2209 8.89551E-04 3.74682E-04-3.44307E-03
 -1      2210 3.00918E-04 2.71174E-05 4.32036E-03
 -1      2211 5.27885E-04-1.64635E-05 5.46575E-03
 -1      2212 6.25119E-04-2.48948E-04 4.51623E-03
 -1      2213 4.25419E-04-1.95752E-04 5.09627E-03
 -1      2214 6.31122E-04 2.27526E-04 4.48142E-03
 -1      2215 8.71389E-04-3.85311E-04-4.58975E-03
 -1      2216 2.62150E-04 3.93676E-05 4.40930E-03
 -1      2217 4.98936E-04-3.50961E-05 5.49895E-03
 -1      2218 2.63057E-04-7.50531E-05 4.48227E-03
 -1      2219 4.48422E-04 2.09818E-05-8.95696E-04
 -1      2220 3.79475E-04-2.78121E-05 5.19089E-03
 -1      2221 8.92479E-04 4.06763E-04 3.16431E-03
 -1      2222 1.23365E-03-7.89523E-06-1.38541E-04
 -1      2223 2.55328E-04-2.96501E-05 4.57630E-03
 -1      2224 3.06111E-04-9.47460E-05 3.77836E-03
 -1      2225 4.75920E-04-5.80280E-05-5.10351E-03
 -1      2226 1.16828E-03 2.67347E-04 1.76566E-03
 -1      2227 1.27154E-03-1.69271E-05-9.00334E-04
 -1      2228 9.84651E-04-1.62431E-05-9.35583E-04
 -1      2229 2.71213E-04 9.00322E-05 3.83235E-03
 -1      2230 4.08125E-04-6.14601E-06 5.17196E-03
 -1      2231 3.23353E-04-1.16476E-04-3.79000E-03
 -1      2232 4.46882E-04-5.23590E-05 8.37026E-04
 -1      2233 4.53596E-04 1.31142E-04 4.30581E-03
 -1      2234 2.48175E-04 2.75770E-05 4.52468E-03
 -1      2235 8.86111E-04 3.88519E-04-4.64361E-03
 -1      2236 6.04515E-04 2.56895E-04 5.37846E-03
 -1      2237 4.60524E-04-5.08708E-05-5.63754E-03
 -1      2238 3.15591E-04 7.14873E-05-3.85498E-03
 -1      2239 8.96226E-04 2.05943E-04 2.67148E-03
 -1      2240 1.16973E-03 2.85154E-04 1.19579E-03
 -1      2241 8.92038E-04-1.10014E-05 2.24145E-04
 -1      2242 8.81765E-04 2.06692E-04 1.07419E-03
 -1      2243 3.58159E-04-2.81601E-05-5.35050E-03
 -1      2244 2.80988E-04 1.47648E-05-4.37219E-03
 -1      2245 3.71082E-04-5.35389E-05 3.96682E-03
 -1      2246 3.45903E-04-4.43119E-06 4.18351E-03
 -1      2247 1.28119E-03-4.77617E-06 7.37476E-04
 -1      2248 3.63080E-04-8.90098E-06 4.88282E-03
 -1      2249 9.90342E-04-4.39836E-06 7.62335E-04
 -1      2250 2.47010E-04-2.89896E-06-4.61433E-03
 -1      2251 9.08538E-04 3.93275E-04 4.38328E-03
 -1      2252 4.22411E-04 1.68763E-04-4.64398E-03
 -1      2253 6.40779E-04 2.24951E-04 4.71068E-03
 -1      2254 8.90464E-04 3.86757E-04 3.38246E-03
 -1      2255 8.53297E-04 3.63745E-04-3.64208E-03
 -1      2256 4.21858E-04 4.19768E-05 9.65306E-04
 -1      2257 4.18217E-04 2.51320E-05 7.54302E-04
 -1      2258 6.75408E-04-1.28345E-06 4.77020E-04
 -1      2259 2.52071E-04 9.49531E-05 3.91559E-03
 -1      2260 3.30054E-04 1.19177E-04 4.19546E-03
 -1      2261 2.29329E-04 2.26469E-05-4.71130E-03
 -1      2262 4.27064E-04-6.82025E-05-1.30886E-03
 -1      2263 4.65146E-04 1.99961E-04 5.09138E-03
 -1      2264 3.49115E-04-1.05746E-04-2.76985E-03
 -1      2265 8.32730E-04-3.78222E-04-3.64952E-03
 -1      2266 8.89831E-04-3.56755E-04 4.42336E-03
 -1      2267 3.84415E-04-1.79367E-04 4.57589E-03
 -1      2268 2.99894E-04-8.65421E-05-4.32397E-03
 -1      2269 1.20144E-03 2.53487E-04-1.44577E-03
 -1      2270 3.29139E-04-1.13690E-04-2.83277E-03
 -1      2271 3.09425E-04-2.76191E-06 5.04563E-03
 -1      2272 8.86858E-04 1.79083E-04-1.31517E-03
 -1      2273 8.98703E-04-3.34634E-04 3.32223E-03
 -1      2274 1.17173E-03-2.63754E-04 1.82786E-03
 -1      2275 4.06112E-04 5.27811E-05-2.56999E-03
 -1      2276 3.85022E-04 1.49869E-04 4.54713E-03
 -1      2277 6.21754E-04-2.44942E-04 4.78025E-03
 -1      2278 4.86637E-04-1.91345E-04 4.48530E-03
 -1      2279 3.45154E-04-1.72877E-04 4.68532E-03
 -1      2280 2.09667E-04 1.06379E-05-4.79164E-03
 -1      2281 1.24861E-03-9.69390E-07-9.66296E-04
 -1      2282 3.36638E-04-6.59688E-06 4.87825E-03
 -1      2283 1.11466E-03-2.85271E-04-2.04314E-03
 -1      2284 9.47782E-04-6.75814E-06-9.86505E-04
 -1      2285 5.87172E-04-2.78181E-04-4.43228E-03
 -1      2286 2.76615E-04-2.77984E-05 5.03611E-03
 -1      2287 3.70559E-04 9.41524E-05 2.53206E-03
 -1      2288 6.23771E-04-3.12482E-04-5.52662E-03
 -1      2289 2.72132E-04-1.27532E-04-4.04605E-03
 -1      2290 2.28622E-04 3.67945E-05 4.57922E-03
 -1      2291 4.37713E-04-5.56967E-05 8.62722E-04
 -1      2292 6.38070E-04 2.72796E-04 2.98650E-03
 -1      2293 7.76541E-04 1.85405E-04 1.54324E-03
 -1      2294 2.17252E-04 3.04731E-05 4.63578E-03
 -1      2295 1.12692E-03-2.86058E-04-1.52668E-03
 -1      2296 2.55378E-04-5.22630E-05 4.60081E-03
 -1      2297 2.73041E-04 7.24590E-05-4.14409E-03
 -1      2298 3.05757E-04-1.07938E-04 3.68626E-03
 -1      2299 5.85273E-04-2.73431E-04-3.27576E-03
 -1      2300 6.08168E-04-2.95924E-04-4.71094E-03
 -1      2301 5.62377E-04-2.77310E-04-3.78192E-03
 -1      2302 5.93555E-04-2.96121E-04-4.92283E-03
 -1      2303 4.52132E-04-2.28683E-04-4.64246E-03
 -1      2304 5.15378E-04-2.71743E-04-3.48186E-03
 -1      2305 4.52536E-04-2.40671E-04-3.23825E-03
 -1      2306 3.20234E-04-1.52571E-04 4.94977E-03
 -1      2307 4.22576E-04 8.33018E-06 5.44256E-04
 -1      2308 4.08431E-04 4.06710E-05 9.31979E-04
 -1      2309 4.03257E-04 2.91008E-05 8.18746E-04
 -1      2310 4.57301E-04-1.87527E-05 2.27855E-05
 -1      2311 7.08939E-04-3.09695E-04 3.30205E-03
 -1      2312 8.69143E-04-6.56919E-06 1.34394E-04
 -1      2313 9.55766E-04 2.09954E-04-2.21144E-03
 -1      2314 6.54393E-04-2.81013E-04 4.23057E-03
 -1      2315 5.67119E-04 2.68826E-04 3.52963E-03
 -1      2316 7.42422E-04-1.73400E-05 7.91136E-04
 -1      2317 5.89743E-04 2.58121E-04-5.53254E-03
 -1      2318 6.27139E-04 2.49536E-04-3.24821E-03
 -1      2319 6.23925E-04 2.88964E-04-4.46291E-03
 -1      2320 1.16530E-03-2.72731E-04 1.30470E-03
 -1      2321 8.89294E-04-2.12793E-04 1.15497E-03
 -1      2322 4.75421E-04 2.17625E-04-5.28654E-03
 -1      2323 6.50266E-04 1.46750E-04-2.89541E-03
 -1      2324 3.86219E-04 7.27426E-05 2.27776E-03
 -1      2325 4.88615E-04-2.45750E-04-4.00835E-03
 -1      2326 2.54437E-04-7.84531E-06 4.96480E-03
 -1      2327 8.53806E-04-2.21905E-04-1.37845E-03
 -1      2328 6.02660E-04 2.54690E-04 3.16346E-03
 -1      2329 3.31075E-04 1.42359E-04 4.65755E-03
 -1      2330 2.44993E-04-4.72338E-05-5.26501E-03
 -1      2331 2.50236E-04-6.01119E-05-4.59107E-03
 -1      2332 3.02119E-04-1.47411E-04 4.72638E-03
 -1      2333 6.58009E-04-1.96060E-04-2.88674E-03
 -1      2334 4.24431E-04-5.46522E-05-9.78043E-04
 -1      2335 4.03853E-04-6.19915E-05-1.07056E-03
 -1      2336 6.42671E-04-1.91328E-04-2.53861E-03
 -1      2337 2.08463E-04-6.65988E-05-4.79506E-03
 -1      2338-1.25002E-03 7.59291E-05-4.77455E-03
 -1      2339 2.99619E-04-1.75846E-05-5.07157E-03
 -1      2340 2.65932E-04-4.64552E-05-5.23229E-03
 -1      2341 3.88062E-04-6.39140E-05-1.08723E-03
 -1      2342 1.19020E-03-2.65919E-04 2.83889E-03
 -1      2343 8.41158E-04-2.13883E-04 2.15603E-03
 -1      2344 7.85518E-04-1.96479E-04 2.73510E-03
 -1      2345 5.17992E-04 2.11833E-04 2.86474E-03
 -1      2346 1.12543E-03-2.93887E-04-3.02020E-03
 -1      2347 2.48152E-04-1.12977E-05 4.84549E-03
 -1      2348 5.18476E-04-1.59467E-04-2.67446E-03
 -1      2349 6.72297E-04 1.47983E-04 9.91135E-04
 -1      2350 4.43447E-04-2.41227E-04-4.82111E-03
 -1      2351 6.58992E-04 1.57873E-04 2.63657E-03
 -1      2352 4.47962E-04 2.01746E-04-4.64786E-03
 -1      2353 3.08938E-04 1.21066E-04-4.51505E-03
 -1      2354 5.16006E-04-1.62312E-04-2.88014E-03
 -1      2355 2.96403E-04 1.32920E-04 4.93085E-03
 -1      2356 2.33106E-04-5.78081E-05 4.69605E-03
 -1      2357 2.48611E-04-1.35439E-04-4.14997E-03
 -1      2358 2.78732E-04 8.01813E-05-4.08107E-03
 -1      2359 3.58762E-04 9.38603E-05 2.52479E-03
 -1      2360 6.21899E-04 2.75096E-04 4.21512E-03
 -1      2361 4.93114E-04 2.30614E-04 3.76324E-03
 -1      2362 2.71715E-04 1.20720E-04 4.69959E-03
 -1      2363 4.44505E-04 1.95602E-04 4.10918E-03
 -1      2364 8.45636E-04 1.95808E-04 2.09407E-03
 -1      2365 2.73460E-04 1.05467E-04 4.12372E-03
 -1      2366 2.17375E-04-6.95695E-06 4.97232E-03
 -1      2367 7.49733E-04-6.37590E-06 4.66128E-04
 -1      2368 3.17574E-04-1.89063E-04-4.89180E-03
 -1      2369 3.24316E-04 1.57199E-04-5.19930E-03
 -1      2370 7.77336E-04-1.97740E-04 1.60918E-03
 -1      2371 6.69344E-04-1.53484E-04 1.07354E-03
 -1      2372 3.54817E-04 7.13522E-05-2.75975E-03
 -1      2373 1.89178E-04 3.28272E-05-4.85018E-03
 -1      2374 5.19440E-04-2.37625E-04 3.08759E-03
 -1      2375 7.42971E-04-2.02025E-04-1.82562E-03
 -1      2376 4.14379E-04-1.92540E-04-3.11739E-03
 -1      2377 5.46001E-04 2.59235E-04-3.78724E-03
 -1      2378 4.02287E-04-9.84233E-05 2.16062E-03
 -1      2379 6.18156E-04-1.71684E-05 6.18463E-04
 -1      2380 4.77705E-04 2.26705E-04-4.02118E-03
 -1      2381 2.18187E-04-3.00679E-05-5.09105E-03
 -1      2382 3.21689E-04-1.88382E-04-4.46135E-03
 -1      2383-1.35359E-03 9.70860E-05-2.09781E-03
 -1      2384 6.29342E-04-1.60885E-04-1.28874E-03
 -1      2385 6.97601E-04-1.59958E-05-1.01553E-03
 -1      2386 1.76796E-04-2.62537E-05-5.07238E-03
 -1      2387 7.35032E-04-7.03768E-06-9.71999E-04
 -1      2388 2.47985E-04-1.08099E-04 3.97481E-03
 -1      2389 4.35751E-04 4.64901E-05-1.19282E-03
 -1      2390 6.71769E-04 1.45819E-04-2.52234E-03
 -1      2391 4.08608E-04 1.83391E-04 3.86297E-03
 -1      2392 4.10820E-04-1.65409E-04 4.38303E-03
 -1      2393 2.40446E-04 8.16392E-05-4.23356E-03
 -1      2394 2.12296E-04-7.01221E-06 4.83594E-03
 -1      2395 3.54764E-04-1.58338E-04 4.33833E-03
 -1      2396 3.32296E-04-1.54175E-04 4.26206E-03
 -1      2397 6.69404E-04-1.73658E-04 1.30269E-03
 -1      2398 6.38817E-04-2.80433E-04 3.65376E-03
 -1      2399 1.81824E-04 2.24555E-05-4.89171E-03
 -1      2400 2.95281E-04 1.49708E-04-4.91289E-03
 -1      2401 4.79747E-04-2.10223E-04 3.80094E-03
 -1      2402 2.73726E-04-1.20089E-04 3.84032E-03
 -1      2403 3.78130E-04-1.85378E-04-3.11662E-03
 -1      2404 4.47057E-04 5.74226E-06-6.95917E-04
 -1      2405 4.20326E-04-2.18583E-04-4.33287E-03
 -1      2406 6.14029E-04-1.66974E-04 2.70019E-03
 -1      2407 6.43963E-04-1.73252E-04 2.35881E-03
 -1      2408 6.00586E-04-2.73748E-05 8.12090E-04
 -1      2409 4.11031E-04 2.07850E-04-4.35823E-03
 -1      2410 7.09700E-04-8.14448E-06-6.92614E-04
 -1      2411 5.77226E-04-1.63549E-05-8.42439E-04
 -1      2412 4.90085E-04 1.91791E-04-3.12943E-03
 -1      2413 6.42360E-04 1.52542E-04 2.29511E-03
 -1      2414 4.68862E-04 1.92917E-04-3.21403E-03
 -1      2415 1.89480E-04-3.63022E-05-5.17310E-03
 -1      2416 4.88290E-04 1.11735E-04-2.87135E-03
 -1      2417 3.67119E-04 8.89153E-05 2.44365E-03
 -1      2418 4.38810E-04 2.19561E-05-9.12811E-04
 -1      2419 1.86134E-04-6.95554E-05-4.89168E-03
 -1      2420 8.59049E-04 1.92549E-04-1.70106E-03
 -1      2421 3.46546E-04 1.01275E-04 2.55846E-03
 -1      2422 2.83158E-04-1.73372E-04-4.46425E-03
 -1      2423 2.59592E-04-1.64615E-04-4.39611E-03
 -1      2424 2.82776E-04 1.37604E-04-4.49318E-03
 -1      2425 2.34685E-04 1.09623E-04-4.41855E-03
 -1      2426 3.84466E-04 1.85986E-04-4.11204E-03
 -1      2427 5.19121E-04 1.29621E-04 2.42186E-03
 -1      2428 2.48978E-04 8.96196E-05-4.17927E-03
 -1      2429 5.48055E-04-1.21620E-04 1.02279E-03
 -1      2430 6.57097E-04 1.27991E-04-1.47872E-03
 -1      2431 4.35249E-04-1.83998E-04 2.93342E-03
 -1      2432 2.54875E-04 1.23223E-04-5.12585E-03
 -1      2433 3.44661E-04 8.44569E-05-2.82510E-03
 -1      2434 2.38081E-04 1.27636E-04-4.94494E-03
 -1      2435 2.69944E-04-1.10235E-04 3.87287E-03
 -1      2436 6.30597E-04-1.83895E-04-1.51765E-03
 -1      2437 2.44247E-04-1.23219E-04 3.95772E-03
 -1      2438 5.28028E-04-1.51882E-04 2.48365E-03
 -1      2439 3.88134E-04-2.10872E-04-4.09561E-03
 -1      2440 7.45361E-04-1.78115E-05-6.50124E-04
 -1      2441 6.12236E-04-1.03299E-05-8.05785E-04
 -1      2442 5.94462E-04 1.23099E-06-9.95665E-04
 -1      2443 4.92699E-04 2.14032E-04 2.95491E-03
 -1      2444 5.57930E-04-2.67829E-05-1.03307E-03
 -1      2445 3.95397E-04 1.55656E-04-3.09973E-03
 -1      2446 4.30757E-04 3.98403E-05-1.09922E-03
 -1      2447 6.13173E-04 1.12900E-04-1.24360E-03
 -1      2448 2.45784E-04-1.48488E-04-4.38025E-03
 -1      2449 2.49189E-04 1.03278E-04-4.43804E-03
 -1      2450 5.53295E-04-1.39413E-04 1.15069E-03
 -1      2451 4.24767E-04-1.92901E-04 2.96582E-03
 -1      2452 5.07720E-04-1.30161E-04-1.23704E-03
 -1      2453 4.19749E-04 1.67318E-04 2.78643E-03
 -1      2454 4.26504E-04 2.88541E-05-1.00885E-03
 -1      2455 5.53395E-04 1.06073E-04-1.33002E-03
 -1      2456 3.79901E-04-1.57518E-04 2.85234E-03
 -1      2457 5.12870E-04-1.49551E-04-1.36438E-03
 -1      2458 4.16673E-04 1.79944E-04 2.82482E-03
 -1      2459-2.08516E-04 3.32928E-05 6.66212E-03
 -1      2460-3.83944E-04-1.90244E-05 4.49868E-03
 -1      2461-5.23659E-04-1.00789E-05-4.54786E-03
 -1      2462-1.97498E-04-5.60286E-05 1.58033E-03
 -1      2463-6.62587E-04-1.95396E-05 2.60978E-03
 -1      2464-2.49320E-04-1.93837E-05-8.15073E-03
 -1      2465-3.29693E-04-1.07349E-05 4.19839E-03
 -1      2466-1.72412E-04 2.10019E-05 4.35045E-03
 -1      2467-5.50706E-04-1.59049E-05 7.07165E-04
 -1      2468-4.02973E-04-1.98099E-05-5.55798E-03
 -1      2469-5.38898E-04-2.06967E-05-4.48761E-03
 -1      2470-4.29145E-04-1.01911E-05-1.18984E-03
 -1      2471-3.60575E-04-4.10499E-06 9.29291E-04
 -1      2472-3.77621E-04-2.51909E-05 5.36555E-03
 -1      2473-6.45661E-04-1.61489E-05-4.21627E-03
 -1      2474-3.15721E-04-1.23336E-06 8.29868E-04
 -1      2475-2.60321E-04-2.56781E-05 7.88390E-03
 -1      2476-3.73983E-04-1.83608E-05 1.01469E-03
 -1      2477-2.40263E-04-4.06581E-06-4.62691E-03
 -1      2478-4.08386E-04-3.19390E-05 6.23311E-03
 -1      2479-4.81251E-04-2.23670E-05-1.03594E-03
 -1      2480-2.29884E-04 9.18544E-06-1.72794E-03
 -1      2481-4.69017E-04-2.35880E-05 5.32587E-03
 -1      2482-4.94277E-04-2.23456E-05-2.70571E-03
 -1      2483-4.28671E-04-2.05398E-06-3.18545E-03
 -1      2484-5.02840E-04-1.58647E-05-2.70045E-03
 -1      2485-4.01664E-04-1.87038E-05-3.17860E-03
 -1      2486-4.49462E-04-2.56242E-05 3.00679E-03
 -1      2487-2.25406E-04-3.65808E-05 4.63574E-03
 -1      2488-5.59053E-04-1.87184E-05-9.81595E-04
 -1      2489-3.60591E-04-1.21060E-05-5.56447E-03
 -1      2490-5.30610E-04-1.60185E-05 8.52147E-04
 -1      2491-5.21485E-04-2.90864E-05 2.45308E-03
 -1      2492-5.98413E-04-5.52980E-06 4.54578E-03
 -1      2493-4.54473E-04 7.64278E-06 3.45148E-03
 -1      2494-2.00473E-04-2.93133E-05-4.57062E-03
 -1      2495-2.50278E-04-1.25674E-05-8.21396E-03
 -1      2496-2.30050E-04-5.18822E-05 7.89641E-03
 -1      2497 3.95464E-05 1.87076E-05 8.76543E-04
 -1      2498-1.92184E-04-6.30515E-06 1.40377E-03
 -1      2499-3.49620E-04-3.21092E-05 4.41199E-03
 -1      2500-5.69478E-04-2.38311E-05 4.58766E-03
 -1      2501-1.03730E-04-4.35222E-05 5.08932E-03
 -1      2502-3.40647E-04 2.79810E-06 1.06692E-03
 -1      2503-2.60294E-04 1.36099E-06 4.93165E-03
 -1      2504-1.41892E-04-6.13088E-06-5.28075E-03
 -1      2505-4.10698E-04-3.85498E-05 4.52859E-03
 -1      2506-1.36241E-04-2.43654E-05 9.34348E-04
 -1      2507-4.30292E-04-4.67458E-05-3.96931E-03
 -1      2508-9.83991E-05 2.56465E-05 4.24620E-03
 -1      2509-1.70160E-04 3.66399E-05 2.77719E-03
 -1      2510-5.92044E-04-4.18437E-05 3.57036E-03
 -1      2511-2.20650E-04 2.29411E-05-6.85989E-03
 -1      2512 5.28025E-05-5.02879E-05 4.95368E-03
 -1      2513-1.38138E-04-3.84175E-05-1.69751E-03
 -1      2514-3.64025E-04 4.85168E-07-1.33374E-03
 -1      2515-3.87642E-04-2.50208E-05-1.22409E-03
 -1      2516-2.37122E-04-4.34290E-05-2.97874E-03
 -1      2517-1.24970E-04-8.35107E-05-4.48066E-03
 -1      2518-2.18390E-04-7.55434E-05-4.89641E-03
 -1      2519-3.97518E-04-3.35525E-05 1.18275E-03
 -1      2520-1.99576E-04 1.15377E-05-2.94853E-03
 -1      2521-2.75716E-04-5.10631E-05 2.74420E-03
 -1      2522-2.60788E-04-1.34808E-06-1.07894E-03
 -1      2523-3.17421E-04-1.90314E-05-5.03931E-03
 -1      2524-3.64523E-04-4.74141E-05 4.08988E-03
 -1      2525-3.91068E-04-6.54437E-06-3.69425E-03
 -1      2526-2.02594E-04-3.64382E-05 6.78435E-03
 -1      2527-2.18649E-04-6.55611E-05-6.82507E-03
 -1      2528 1.11009E-05-7.64328E-05 2.57915E-03
 -1      2529 3.84121E-05-8.63375E-05 2.73707E-03
 -1      2530-1.21721E-04 2.54554E-05-4.02058E-03
 -1      2531 3.45993E-05 1.55444E-05 8.19269E-04
 -1      2532-4.29740E-04-4.39173E-06-4.93182E-03
 -1      2533-2.18516E-04 2.79161E-05-4.48560E-03
 -1      2534-8.72469E-05-9.24893E-06-5.42464E-03
 -1      2535-8.20185E-05-6.21488E-05 2.25069E-03
 -1      2536 3.10543E-05-2.81504E-05 8.46929E-04
 -1      2537-1.24606E-04 4.20009E-05 2.98848E-03
 -1      2538 3.81606E-05 3.82134E-05 2.19601E-03
 -1      2539-1.36862E-04 2.31385E-05 2.50473E-03
 -1      2540-4.65737E-05-3.18250E-05 5.21743E-03
 -1      2541-3.58371E-04-2.44869E-05-4.64272E-03
 -1      2542 4.42759E-05-1.10460E-04-4.38076E-03
 -1      2543-1.55327E-04 3.75274E-05 3.87467E-03
 -1      2544-1.49801E-04-3.54761E-06-4.93391E-03
 -1      2545-5.88009E-04-2.36636E-05-4.96176E-03
 -1      2546-2.50864E-04-3.12812E-05-1.11752E-03
 -1      2547 1.65653E-04-9.85979E-05 2.65121E-03
 -1      2548-2.39092E-05-7.18097E-05 4.86922E-03
 -1      2549 1.21438E-06-6.35244E-05-2.80741E-03
 -1      2550-1.81975E-05 6.39683E-05 3.42612E-03
 -1      2551 8.42455E-05 5.02115E-05-2.98779E-03
 -1      2552 9.04785E-05-3.57230E-05 9.44855E-04
 -1      2553-1.03602E-04-1.70025E-05-8.25543E-05
 -1      2554 1.33334E-04-5.64061E-05 4.88363E-03
 -1      2555-2.22970E-04-1.85901E-05 4.88010E-03
 -1      2556 2.02649E-04 2.37983E-05 8.51557E-04
 -1      2557-7.24805E-05 7.70809E-06 4.56834E-03
 -1      2558-2.78223E-05 1.12383E-05 4.81463E-03
 -1      2559-6.59860E-05-4.67111E-05-5.27645E-03
 -1      2560-6.56988E-05-4.72137E-05-4.99859E-03
 -1      2561-1.03157E-04-4.68410E-05 4.52684E-03
 -1      2562 6.79721E-05 5.78259E-05 4.13956E-03
 -1      2563-2.32492E-05 2.40525E-05 4.63611E-03
 -1      2564-9.07286E-05 1.97394E-05 5.15843E-03
 -1      2565 2.53215E-04-1.12157E-04 2.67937E-03
 -1      2566-8.97023E-05 3.18314E-05-1.89385E-03
 -1      2567 1.39932E-05 5.83144E-05 3.82287E-03
 -1      2568-1.54376E-05-8.94677E-05 2.89212E-03
 -1      2569 2.16551E-04 2.34679E-05 8.22768E-04
 -1      2570-1.44500E-04 4.77016E-05-3.72148E-03
 -1      2571 5.45656E-05 6.16334E-05 3.95092E-03
 -1      2572-7.33255E-05 4.07093E-05-4.31074E-03
 -1      2573 2.16965E-05 5.44449E-05 2.64772E-03
 -1      2574 1.60708E-04-4.46166E-05 9.27706E-04
 -1      2575 5.35998E-06 1.00079E-05-5.15894E-03
 -1      2576-2.15859E-04-7.26879E-05-4.00385E-03
 -1      2577 5.08673E-05-7.90919E-05-2.95536E-03
 -1      2578 1.92489E-04-4.01296E-05 8.80491E-04
 -1      2579 6.58154E-05-4.09767E-05 5.03985E-03
 -1      2580-7.14311E-05-8.92214E-05 4.30568E-03
 -1      2581 2.70447E-04-4.72218E-05 9.02031E-04
 -1      2582-7.77683E-05-9.70740E-05-3.64927E-03
 -1      2583 1.88917E-04-1.00446E-04-2.94533E-03
 -1      2584 3.80842E-05-5.84529E-05-5.13644E-03
 -1      2585 1.00380E-04-1.23297E-04-4.16966E-03
 -1      2586-5.44177E-05-7.75036E-05 4.05540E-03
 -1      2587-4.88197E-06-3.71436E-05 4.81428E-03
 -1      2588 2.85009E-04 2.48311E-05 8.36496E-04
 -1      2589 5.65195E-06-9.11254E-05-3.07966E-03
 -1      2590 1.87319E-05-5.75969E-05 1.58618E-03
 -1      2591-3.11288E-05-2.82023E-05-5.28928E-03
 -1      2592 2.08026E-04 6.28017E-06 5.38705E-04
 -1      2593 1.49507E-04-9.09943E-05 2.51537E-03
 -1      2594-2.07333E-04-1.78839E-05 9.99448E-05
 -1      2595-1.46044E-04 4.61701E-05-4.90265E-03
 -1      2596-1.87465E-04-7.73166E-05 3.75206E-03
 -1      2597 2.22196E-04 4.99950E-05 1.15336E-03
 -1      2598 8.66109E-05 4.76872E-05 4.34757E-03
 -1      2599 1.45363E-04-8.63668E-05-2.67011E-03
 -1      2600 1.87718E-04-9.13312E-05-2.85641E-03
 -1      2601 1.50831E-04 7.32627E-05 4.08130E-03
 -1      2602 1.32399E-04-1.18935E-04-4.32263E-03
 -1      2603 7.94155E-05 2.27292E-05 4.66658E-03
 -1      2604 3.49545E-05 1.51024E-05 4.97010E-03
 -1      2605 2.31639E-05-6.08148E-05 4.72169E-03
 -1      2606 4.10277E-04 1.00634E-04 1.70658E-03
 -1      2607-1.56674E-04 7.03795E-06 1.40243E-03
 -1      2608 3.05836E-04 2.49824E-05 8.22607E-04
 -1      2609-3.58587E-05 9.95012E-06-1.12562E-03
 -1      2610 1.03213E-04-6.44656E-05-5.07615E-03
 -1      2611 4.01926E-05-4.20990E-05-1.06534E-03
 -1      2612-8.36266E-05 2.00943E-05 4.88097E-03
 -1      2613-1.83333E-04-2.33956E-05 5.59219E-03
 -1      2614-9.31759E-06-5.62577E-07 5.15319E-03
 -1      2615-1.07658E-04-7.91143E-05-4.26310E-03
 -1      2616 1.46363E-05-9.69893E-05-4.11194E-03
 -1      2617-9.67309E-05 1.94622E-05-2.58898E-03
 -1      2618 1.90480E-04 6.07265E-05-2.66526E-03
 -1      2619 2.07592E-04 6.85258E-05-2.94595E-03
 -1      2620 6.40409E-05 1.71619E-05-1.04998E-03
 -1      2621 1.57633E-04-2.67368E-05 5.56151E-04
 -1      2622 6.62388E-05-4.57189E-05-1.11100E-03
 -1      2623-1.02712E-04-7.36861E-05-2.64063E-03
 -1      2624 6.21159E-05 7.49668E-05-4.40607E-03
 -1      2625 1.90953E-05 1.05685E-05-4.97759E-03
 -1      2626 1.28945E-04 7.46203E-05 2.72061E-03
 -1      2627 1.30597E-04 9.28706E-05 3.05385E-03
 -1      2628 6.96341E-05-1.21503E-04-4.57434E-03
 -1      2629 1.10554E-04-1.07350E-04-4.18339E-03
 -1      2630 6.70414E-05-9.70174E-05 4.17411E-03
 -1      2631 3.46214E-05-7.42375E-05-4.96746E-03
 -1      2632 1.75961E-04 7.62016E-05 3.96847E-03
 -1      2633-3.27533E-05-8.78146E-05 4.68764E-03
 -1      2634 2.65371E-05-1.01682E-04 3.87184E-03
 -1      2635 8.63532E-05 1.99973E-05 4.79730E-03
 -1      2636 2.34712E-04-9.66820E-05-2.77238E-03
 -1      2637 3.23097E-04-5.02787E-05 8.80564E-04
 -1      2638 2.25578E-04-1.03072E-04-2.89899E-03
 -1      2639 2.08863E-04 6.04610E-05 2.38686E-03
 -1      2640 2.06739E-04-1.10666E-04-3.13238E-03
 -1      2641 8.39205E-05 1.56489E-05-5.08985E-03
 -1      2642 1.34449E-04 8.09229E-05-3.32406E-03
 -1      2643 2.65227E-05 2.49154E-05-4.99844E-03
 -1      2644-1.28169E-05 5.34887E-05-3.07373E-03
 -1      2645 7.99205E-05 7.11012E-05-4.27874E-03
 -1      2646 1.47178E-04-1.16423E-04-4.24711E-03
 -1      2647 3.54138E-04-5.64261E-06 7.89252E-05
 -1      2648 3.01019E-05 1.62650E-06-5.18401E-03
 -1      2649 2.16482E-04-1.05036E-04 2.74517E-03
 -1      2650 5.92720E-05 5.35982E-05-5.12765E-03
 -1      2651 1.81931E-05 2.66350E-05-2.74463E-03
 -1      2652 9.45772E-05 1.54298E-05-4.99834E-03
 -1      2653-2.11451E-05-3.72417E-05-1.14313E-03
 -1      2654 7.14403E-05-1.02972E-04 4.40434E-03
 -1      2655 1.41750E-04 6.72178E-05 4.19380E-03
 -1      2656 7.30828E-05-9.68781E-05 3.17608E-03
 -1      2657 1.52434E-04 7.65495E-05 3.98706E-03
 -1      2658 6.37561E-04-3.06773E-04-3.97458E-03
 -1      2659 2.20434E-04-5.47587E-05-1.11958E-03
 -1      2660 1.24851E-04 1.77620E-05-1.10375E-03
 -1      2661 1.98535E-04-2.86299E-05-7.65513E-04
 -1      2662 1.37825E-04-6.83702E-05 4.83735E-03
 -1      2663 3.01859E-04-1.93047E-04-4.95420E-03
 -1      2664 2.46062E-04-5.78219E-05-1.09475E-03
 -1      2665 7.21909E-04-1.89112E-04 2.07105E-03
 -1      2666 1.30464E-04 2.87361E-05 4.72272E-03
 -1      2667 9.86388E-05 3.37695E-05 4.81123E-03
 -1      2668 2.80521E-04-5.97391E-05-1.10806E-03
 -1      2669 1.93349E-04 8.34635E-05 2.67277E-03
 -1      2670 1.03328E-04 1.42048E-05 4.88423E-03
 -1      2671 5.19224E-04-1.59032E-04-2.56685E-03
 -1      2672 1.16102E-04-4.97771E-05 4.73424E-03
 -1      2673 8.78574E-05-1.01244E-04 4.05198E-03
 -1      2674 1.33490E-04 7.95903E-05-4.33837E-03
 -1      2675 1.65344E-05-1.07694E-04-4.38712E-03
 -1      2676 2.92095E-04 1.43879E-04-4.90257E-03
 -1      2677 2.14101E-04 3.92342E-05-1.51067E-03
 -1      2678 3.57600E-05-3.03980E-06 4.69822E-04
 -1      2679 2.59759E-04-1.39219E-04 4.91960E-03
 -1      2680 1.55740E-04-1.27205E-04-4.20987E-03
 -1      2681 1.46917E-04-1.12594E-04 4.13026E-03
 -1      2682 2.40755E-04-2.03621E-05-5.41937E-03
 -1      2683 1.48364E-04-5.57599E-05 4.80045E-03
 -1      2684 8.00007E-05 7.25231E-05-4.16594E-03
 -1      2685-1.60572E-04 3.83035E-06-4.59693E-03
 -1      2686 1.64879E-04 8.31944E-05-4.26720E-03
 -1      2687 6.41875E-04 1.48783E-04-2.38750E-03
 -1      2688 2.04133E-04 2.50208E-05-1.07556E-03
 -1      2689-2.77972E-04-1.11410E-05-4.96757E-03
 -1      2690 2.49797E-04-1.58420E-05 5.06896E-03
 -1      2691 2.85618E-04 3.06098E-05-1.09235E-03
 -1      2692 2.57059E-04-1.05602E-04 2.57810E-03
 -1      2693 2.76607E-04-5.48760E-06 5.20989E-03
 -1      2694-3.04031E-04-4.59773E-05-4.63339E-03
 -1      2695 6.79267E-05-6.86861E-05-1.45011E-03
 -1      2696 3.93030E-04 1.94611E-04 3.86007E-03
 -1      2697 1.55660E-04-1.14156E-04 4.06890E-03
 -1      2698 1.29076E-04-1.26418E-04-4.43701E-03
 -1      2699 3.16119E-04-3.78858E-05 7.01851E-04
 -1      2700 3.11962E-04 2.95364E-05-1.07630E-03
 -1      2701 2.31379E-04 8.15079E-07-7.40670E-04
 -1      2702 1.06023E-05-9.37410E-05-5.15482E-03
 -1      2703 6.89499E-05-5.77794E-05-4.92427E-03
 -1      2704 2.78908E-04-4.28454E-05-9.20968E-04
 -1      2705 2.51271E-04 7.71308E-05 2.50513E-03
 -1      2706 2.13831E-04 8.73280E-05-3.13789E-03
 -1      2707 1.77724E-04-1.47061E-05-5.28120E-03
 -1      2708 2.59366E-04 6.48051E-05-2.76707E-03
 -1      2709 2.72336E-04 1.16744E-04 4.90442E-03
 -1      2710 1.05694E-04-6.33576E-05-4.99666E-03
 -1      2711 2.58369E-04-7.60085E-05-1.33128E-03
 -1      2712 1.28169E-04 4.50864E-05 2.24466E-03
 -1      2713 2.10450E-04 7.59411E-05 2.57873E-03
 -1      2714 4.00425E-04-2.70853E-05 3.75394E-04
 -1      2715 2.88601E-04-6.36909E-05 1.11988E-03
 -1      2716 3.49431E-05-4.77026E-05-5.08309E-03
 -1      2717 1.16662E-04-8.77189E-05 2.30936E-03
 -1      2718 2.42163E-04 8.84005E-05 2.62563E-03
 -1      2719 3.98852E-04-2.18098E-04-3.60223E-03
 -1      2720 1.75600E-04 1.25379E-04-4.06423E-03
 -1      2721-9.48121E-05-5.27429E-05-4.59756E-03
 -1      2722-8.78332E-05-3.07836E-05-4.74860E-03
 -1      2723 2.26543E-04-1.16256E-04 2.93174E-03
 -1      2724 2.03006E-04 5.66973E-05-2.85112E-03
 -1      2725 4.90966E-04-2.30461E-04 3.65024E-03
 -1      2726-2.39424E-04-5.76434E-05 4.15950E-03
 -1      2727 3.18906E-04 1.29750E-05-8.88406E-04
 -1      2728-1.78347E-04-8.41902E-06-3.42730E-04
 -1      2729 1.44948E-04 8.21837E-05 2.81374E-03
 -1      2730-2.80682E-05-8.81743E-05 3.59079E-03
 -1      2731 7.50551E-04-1.53456E-05-2.91530E-04
 -1      2732-1.95035E-04 3.38299E-05 3.14838E-03
 -1      2733 2.98228E-04 4.37642E-05-1.31657E-03
 -1      2734-1.49666E-04-5.79081E-05 1.74950E-03
 -1      2735 1.26005E-04 8.00392E-05-4.45947E-03
 -1      2736 2.43109E-04 7.20169E-05-2.89546E-03
 -1      2737 5.72793E-04-1.60628E-04 2.28337E-03
 -1      2738 5.77645E-04-8.22317E-07-6.18788E-04
 -1      2739 5.39111E-04-1.64978E-05-6.67099E-04
 -1      2740-1.83545E-05 4.50630E-05-4.39287E-03
 -1      2741 5.46408E-04-1.30494E-04 1.40566E-03
 -1      2742-4.33536E-05-7.21315E-05 3.83187E-03
 -1      2743 2.27980E-04 1.09755E-04-5.07022E-03
 -1      2744 2.38689E-04 1.18071E-04-4.66343E-03
 -1      2745 5.10822E-04-1.39877E-04-1.61445E-03
 -3
    1PSTEP                         2           1           1          
  100CL  101 1.000000000        2745                     0    1           1
 -4  STRESS      6    1
 -5  SXX         1    4    1    1
 -5  SYY         1    4    2    2
 -5  SZZ         1    4    3    3
 -5  SXY         1    4    1    2
 -5  SYZ         1    4    2    3
 -5  SZX         1    4    3    1
 -1         1-2.63870E+00-3.03625E+00-2.58504E+00-1.73570E-01-2.69007E-01-8.66655E-01
 -1         2-1.40675E-01 2.51085E-02-7.85024E-03-2.15519E-02-1.64877E-02-1.04793E-01
 -1         3-7.18392E-02 3.67131E-02-5.56906E-02 7.33629E-03 1.17286E-02-1.00403E-01
 -1         4-4.44227E-01-3.59296E-01 7.68038E-02 4.09583E-02 1.31611E-01 1.07817E-01
 -1         5-5.93816E-01-2.55485E-01 2.12022E-02 6.06667E-03 2.81607E-02-1.36565E-01
 -1         6-5.74899E-01-4.67728E-01-2.20251E-01-1.32881E-01-2.13464E-01 8.28087E-02
 -1         7-4.15379E-01-1.69589E-01-1.18601E-01-1.05640E-02-8.38695E-03 3.51676E-01
 -1         8-7.08170E-01-2.49914E-01 7.19441E-02 1.29907E-02 2.78636E-02 1.16192E-01
 -1         9-3.52325E-01-1.12008E-02-7.07985E-02-1.59184E-03-8.84557E-03 3.30262E-01
 -1        10-2.52530E-01-3.59616E-01-1.87541E-01 7.60699E-03-3.58128E-02-8.42044E-02
 -1        11-2.64897E+00-2.91035E+00-2.12225E+00 2.86655E-01 1.79284E-01-6.18031E-01
 -1        12-5.72629E-01-1.61799E-01-4.85936E-02 2.99578E-02-7.87677E-02-9.11354E-02
 -1        13-1.94886E-01-1.20198E-01-6.31071E-02-2.89397E-02-4.28493E-02 3.29054E-01
 -1        14-3.34682E-02-1.13751E-01-8.88357E-02-6.24072E-03-6.73285E-03-8.88398E-02
 -1        15-5.81024E-01-1.11228E-01 6.00929E-02-8.16818E-02-8.12175E-02 6.39456E-02
 -1        16-2.86984E-01-2.76791E-01-6.90484E-02 5.49845E-02 4.24252E-02 5.77828E-02
 -1        17-4.91883E-01-6.93458E-02-9.57744E-02 9.63081E-02-1.09539E-01-5.70331E-02
 -1        18-6.18561E-01-5.20943E-01-3.78863E-01-1.07367E-01-8.69025E-02 4.06182E-03
 -1        19-3.86191E-01-2.45365E-02 1.71578E-01-3.87417E-02 3.23759E-02-8.60393E-02
 -1        20-3.06493E+00-3.44888E+00-2.37828E+00 2.74484E-01 1.44962E-02-5.91707E-01
 -1        21-5.48987E-01-2.30040E-01 3.42199E-02-1.23802E-01 1.05966E-02 1.35665E-01
 -1        22-3.70831E-01-2.18377E-01-2.10401E-01 9.07405E-05 1.03545E-01 3.22805E-01
 -1        23-2.54071E-01-5.86991E-02 2.06418E-01-1.15704E-01 4.48132E-02 1.71840E-01
 -1        24-7.18542E-01-2.04420E-01-2.70693E-02-1.32335E-01 4.38045E-02 6.41244E-02
 -1        25-4.34311E-01-1.91068E-01 3.22051E-02-9.00600E-02-1.90704E-02-1.48958E-01
 -1        26-4.34725E-01-3.28980E-01-1.52583E-02-1.58382E-02-1.30765E-01-7.12160E-02
 -1        27-5.05233E-01 1.31207E-02 4.68498E-02 5.91324E-02-6.73704E-03-8.77667E-02
 -1        28-2.35717E-01-1.59068E-01-1.76794E-01 1.47421E-02 1.93141E-01 2.87177E-01
 -1        29-3.35014E-01-1.16800E-01-5.90609E-03-5.17676E-02 1.16216E-01 3.15138E-01
 -1        30-6.51255E-02-1.86339E-02-6.76980E-02-5.23572E-02-3.70177E-02-9.75658E-02
 -1        31-2.42626E-02-1.63661E-01-2.09761E-01 5.71110E-02 3.06800E-02-6.94627E-02
 -1        32-1.27251E-01 2.98412E-02-1.78793E-02-4.37878E-02-1.39742E-02-8.93530E-02
 -1        33-4.95476E-01-1.92009E-01 7.58652E-02-7.73621E-02-6.19898E-02-8.32661E-02
 -1        34-1.35067E-01-2.28448E-01-1.28309E-01 1.53355E-02 2.16229E-02-8.43232E-02
 -1        35-1.95793E-01-1.24195E-01 5.59929E-03-1.49522E-01-5.80608E-03-1.11587E-01
 -1        36-3.61908E-01-4.61839E-01-2.94345E-01 1.70618E-02 5.29103E-02 1.15496E-01
 -1        37-2.93817E-01-2.10258E-01-2.11076E-01 7.79174E-02 5.02693E-02-2.55645E-02
 -1        38-1.42964E-01-1.06491E-01-9.60585E-02 2.85530E-02 3.36979E-02 5.91433E-02
 -1        39-3.83059E-01-2.17833E-01 3.10931E-02-1.45254E-01 6.05394E-02 6.99975E-02
 -1        40-1.59152E-01-1.65711E-01 8.24951E-02-1.40969E-01 7.72830E-02 1.64145E-01
 -1        41-6.36189E-02-1.73094E-01 1.21293E-02-1.03348E-01 3.60612E-02 1.19082E-01
 -1        42-2.48707E-01-8.66631E-02-5.68216E-02-5.90705E-02 1.61338E-01 2.46232E-01
 -1        43-1.48674E-01-1.05242E-01-1.23669E-01-1.66276E-02 2.08476E-01 1.65739E-01
 -1        44-2.97766E-01-4.08638E-02-1.55340E-01-6.74285E-02 7.84249E-02 1.59416E-01
 -1        45-1.77859E-01-1.76087E-01-1.48526E-01-5.49097E-03 9.70480E-02-1.43225E-02
 -1        46-9.75168E-02-1.46239E-01-6.17714E-02-1.82609E-02-1.87833E-02-1.24688E-01
 -1        47-9.20289E-02-3.68419E-03-1.57106E-01-1.13037E-01-4.97015E-02-1.92739E-01
 -1        48-6.54066E-02 9.25857E-03 9.10132E-02-5.95380E-02 6.50588E-03-9.63821E-02
 -1        49-3.62401E-01-2.31816E-01 5.03711E-02-1.63082E-01-7.27193E-02-5.31391E-02
 -1        50 9.92644E-03-1.34594E-01-1.05225E-01-3.56555E-03 8.87141E-02 5.27733E-02
 -1        51-2.52489E-01-3.39225E-02 1.53650E-01-8.59496E-02 1.49646E-02-3.83206E-02
 -1        52-2.29948E-01-3.11104E-01-7.73795E-02-4.47727E-02-6.73113E-03-1.67274E-01
 -1        53-7.07601E-02-1.49791E-01 1.46183E-01-2.71547E-01-4.30553E-02-9.92593E-02
 -1        54-2.46873E-01 1.33309E-03 1.03224E-01-7.69992E-02-2.11309E-02-1.48242E-02
 -1        55-2.16939E-01-2.99944E-01-2.66960E-01 3.75664E-02 3.50918E-02 3.40469E-02
 -1        56-1.91651E-01-2.28389E-01-2.30550E-01 7.99908E-02 4.15788E-02-4.79133E-02
 -1        57-2.42265E-01-1.10154E-01-9.43115E-02 8.33808E-03 5.64518E-02-3.77302E-02
 -1        58-3.15955E-01-1.87422E-01-2.64561E-01 3.61404E-02 6.19820E-02-2.12166E-01
 -1        59-1.09639E-01-1.73337E-02 1.27052E-01-5.55015E-02-1.11000E-01-2.44860E-02
 -1        60-2.00346E-01-2.00731E-01-2.74358E-02-1.43254E-01 1.06344E-01 8.89624E-02
 -1        61-2.20199E-01-1.55560E-01 1.95283E-02-1.53277E-01 1.40214E-03-1.43297E-02
 -1        62-1.60092E-01-1.15419E-01 2.22562E-02-1.01177E-01-8.47568E-03-1.47840E-02
 -1        63-4.18706E-02-2.18844E-02 3.53545E-02-4.77538E-02-1.05369E-02-6.42051E-02
 -1        64-2.75079E-02-2.29563E-02-5.82050E-02-4.83440E-02-3.86673E-02-6.56223E-02
 -1        65-1.64830E-01-8.79312E-02-4.69397E-02-1.17557E-01 1.34947E-01 1.57269E-01
 -1        66-1.23772E-01-1.21994E-01-8.23897E-03-3.65075E-02 1.14093E-02-6.09765E-02
 -1        67 7.03689E-03 1.38128E-01 4.77806E-02-2.29122E-02 1.20625E-01-2.27664E-03
 -1        68-1.41223E-01-1.47701E-01-3.71402E-02-1.26167E-01-7.04013E-02-6.16497E-02
 -1        69-1.28102E+00-8.35763E-01-1.22158E+00-5.36315E-01-1.13176E-01-7.79826E-01
 -1        70-1.60925E+00-7.70066E-01-5.32916E-01-4.43527E-02 1.23268E-01-4.82228E-01
 -1        71-1.13114E-01-1.34986E-01-1.25938E-01-1.40343E-01 1.84652E-01 1.79927E-01
 -1        72 1.03330E-02-1.10228E-02 2.27572E-02 5.36201E-02 3.60791E-02-8.49090E-02
 -1        73-9.08520E-03-9.63543E-02-5.12226E-04-5.13055E-02 1.48445E-01 8.30560E-02
 -1        74-1.48393E-01-3.71793E-02 8.03545E-02-9.96522E-02 8.58510E-02 1.35809E-02
 -1        75-5.77052E-02-1.62123E-01-1.04865E-01-1.21143E-01-1.09962E-01-1.19305E-01
 -1        76-4.13817E-02 2.08895E-02 2.40999E-02-7.59866E-02-3.68520E-02 2.96572E-02
 -1        77-1.51015E-02-2.11265E-02-6.99687E-03-8.75816E-02 3.36465E-02 1.02280E-01
 -1        78 2.02510E-02-1.90177E-02-1.08257E-02-8.94951E-02-9.45770E-03-3.90786E-02
 -1        79-4.96848E-02-1.68992E-02-4.35234E-02-1.08725E-01 1.14428E-01 4.73031E-02
 -1        80 2.19389E-02 1.35383E-01 1.91064E-01-2.24755E-02-7.45711E-02 1.21700E-01
 -1        81 3.60893E-01-2.21155E-01-3.79907E-01-4.96378E-01-2.41620E-01-5.80780E-01
 -1        82 3.98306E-02 1.82518E-02 3.57923E-03 6.49041E-03-2.15740E-02-1.22864E-01
 -1        83-1.27668E-02 5.37299E-03-6.64192E-02-3.51920E-02-3.66263E-02-4.25871E-02
 -1        84 1.19956E-02-4.37523E-03 5.73028E-02-3.54125E-02 2.34493E-02-4.63835E-02
 -1        85-9.51195E-02-1.00569E-01-9.10290E-02-8.97922E-02 2.95586E-02 1.61772E-02
 -1        86-6.77073E-03 6.58760E-02 2.34238E-02-3.06458E-02 2.44020E-03-3.84352E-02
 -1        87-8.21284E-02-9.94789E-02-3.72395E-02-9.53680E-02 1.35353E-01-3.40144E-02
 -1        88-4.23271E-02-6.09875E-02-6.37504E-03-3.67803E-03 9.19256E-02-8.41092E-02
 -1        89-3.71880E-02 6.82363E-03 6.17288E-04-3.75015E-02 7.33898E-02-1.36520E-01
 -1        90 1.45893E-01 5.54773E-02 1.08213E-02-8.05483E-02-8.14756E-02-1.88642E-01
 -1        91-1.52395E-01-1.39189E-01-1.31221E-01-5.29659E-02 1.36196E-02-1.06720E-04
 -1        92-2.58603E-01-1.07929E-01-7.23520E-02 4.73516E-02-5.16577E-02-4.88295E-02
 -1        93-3.35815E-02-6.12951E-05 1.65119E-01-5.59718E-02 1.18081E-01-3.68582E-03
 -1        94 3.44231E-02 1.72743E-02-1.79879E-01-6.46940E-02 1.13559E-01 1.35312E-02
 -1        95-2.09436E-02-2.38899E-02-4.09452E-04 3.47811E-03-1.69228E-02-3.92574E-02
 -1        96 6.11612E-03 6.17399E-02 2.34631E-01-1.73761E-02-1.18949E-01 3.60647E-02
 -1        97 3.07135E-02 8.10394E-03-1.38471E-01-5.15013E-02-9.79269E-02-3.78376E-03
 -1        98 2.10522E-02 4.45495E-02 4.58569E-02-3.65887E-02 3.02610E-02-4.96091E-02
 -1        99 3.44895E-02 1.95484E-02-1.77599E-02-4.26420E-02 6.09957E-03-4.59639E-02
 -1       100 1.23534E-01 1.44051E-01-1.79547E-03-1.29175E-01 8.17266E-02-5.51145E-02
 -1       101 6.88829E-02-2.58390E-02-1.40189E-01-5.46932E-02 8.90608E-02-2.48418E-02
 -1       102 1.89661E-01 1.62251E-01 1.27876E-02-1.52795E-01-2.83559E-02-2.89829E-03
 -1       103 1.85628E-01 2.02813E-02-6.92093E-02-1.24537E-01-1.05531E-01 2.30789E-02
 -1       104 1.60084E-01 1.35805E-01-5.54676E-03-1.24523E-01-7.67430E-02 7.57094E-02
 -1       105 4.72862E-02 2.19463E-01 7.44613E-02-1.26961E-01-9.74946E-02 1.27223E-01
 -1       106 3.14183E-02-1.47127E-02-1.34553E-05-2.71425E-02-8.46487E-02 3.75975E-02
 -1       107 5.61292E-02 1.38543E-02-6.25200E-02-4.06827E-02-2.47982E-02 8.61170E-02
 -1       108 3.08351E-01 2.00683E-01 1.92770E-01-9.54781E-02-1.21560E-01 2.15751E-01
 -1       109 1.75355E+00 7.83204E-01 6.30878E-01-1.40400E-01 4.12659E-02-4.14345E-01
 -1       110 9.28202E-02 4.59514E-02-1.48299E-02-5.88554E-03-3.56785E-02-1.19611E-01
 -1       111-7.24215E-02-3.58763E-02-2.71887E-02 2.17372E-02 1.93211E-03-1.20037E-01
 -1       112 2.28279E-01 1.59908E-01-6.72722E-03-1.15582E-01 9.95986E-03-5.89132E-03
 -1       113 2.66092E-02-6.30464E-03 3.13091E-03 3.29412E-02-2.72326E-02-7.41121E-02
 -1       114 6.19440E-02 1.79728E-01 7.95779E-02-1.38515E-01 1.45670E-01-1.16546E-01
 -1       115 3.43564E-02-2.28648E-02 4.35638E-02-1.47984E-02-4.21349E-02-1.26524E-02
 -1       116 3.27242E-01 6.71531E-02 4.57486E-03-5.65347E-03-1.14475E-01-1.36183E-01
 -1       117 7.82580E-02 1.32832E-02-3.83907E-02-5.30532E-02 1.69599E-02-5.93464E-02
 -1       118 3.62450E-01 2.36862E-01-2.14992E-02-1.37998E-01 6.02881E-02-1.07416E-01
 -1       119 2.36207E-01 8.64392E-02 8.82761E-02-1.10654E-01-1.27594E-01 2.56863E-01
 -1       120 2.84359E-01 2.08057E-01 2.00168E-02-9.66454E-02-5.74128E-02 4.19018E-02
 -1       121 2.32477E-01 1.02109E-01 2.02530E-01-1.65407E-01-1.49780E-01 2.91198E-01
 -1       122 3.46520E-01 2.47807E-01-7.86748E-02-2.74053E-01-4.56915E-02 9.66130E-02
 -1       123 3.83244E-01 2.15115E-01 2.71397E-02-1.40224E-01 8.08380E-03 2.69623E-02
 -1       124 2.04085E-02 3.92231E-02 7.48725E-02-4.84816E-02 5.02610E-02-5.82833E-02
 -1       125 4.61517E-01 1.85342E-01-4.95992E-02-1.49152E-01 8.45200E-03-3.82302E-02
 -1       126 3.67613E-01 1.71408E-01 3.30712E-02 3.56221E-02-3.89676E-02-8.08179E-02
 -1       127 1.33164E-01 1.05625E-01 8.91016E-02 1.98064E-02-1.39292E-02-1.32301E-01
 -1       128 2.85032E-01 2.64542E-01 2.03569E-01-1.29069E-03-7.28680E-02-1.50438E-02
 -1       129 3.94091E-01 3.79318E-03-2.81184E-02-6.34296E-02-2.56870E-02 6.25308E-02
 -1       130 3.13902E-01-6.70102E-02-1.77651E-01-3.16984E-02 1.06706E-01-3.70611E-02
 -1       131 2.86415E-01 1.93204E-01 1.41815E-01 2.93103E-02-7.53335E-04-3.59748E-02
 -1       132 4.13154E-01 4.19589E-01 1.51140E-01-3.73434E-02-2.90249E-02 2.74156E-01
 -1       133 1.50609E-01 1.41527E-01-5.71086E-02-1.39935E-01 6.78813E-02-1.29562E-01
 -1       134 2.50131E+00 1.96798E+00 1.86236E+00 3.31058E-01-5.04915E-02-7.77800E-01
 -1       135 3.24989E-01 1.59057E-01 1.18886E-01-1.10454E-01-9.51618E-02 3.39945E-01
 -1       136 6.07371E-01 2.15849E-01-3.58443E-02-1.34883E-01-6.34157E-02 1.06275E-01
 -1       137 5.50018E-01 2.60195E-01-4.73469E-02-8.26883E-02 3.30608E-02-1.62918E-01
 -1       138 4.37902E-01 2.85868E-01 3.35640E-02 9.66787E-03 1.30585E-01 9.91392E-03
 -1       139 5.46060E-02 1.64157E-01-1.28614E-01-6.80752E-02 4.21979E-02 9.80023E-04
 -1       140 1.82830E-01 1.02972E-02-1.69387E-03-3.31654E-02 2.22087E-02-1.11824E-01
 -1       141 1.12761E-02 6.99492E-02 6.35968E-02-3.47788E-02-1.11211E-01 2.80649E-01
 -1       142 5.03713E-02-3.94409E-02 5.53875E-02-5.33357E-02 6.30943E-02-1.30633E-01
 -1       143 2.46687E-01 6.62239E-02 2.74037E-02-1.19401E-01-8.85004E-02 3.20097E-01
 -1       144 1.44634E-01 1.92974E-01 5.47812E-02 4.89959E-02-2.25100E-02-5.85564E-02
 -1       145 5.51833E-01 2.22972E-01-3.60224E-02-7.08136E-02 7.08045E-02-4.55329E-02
 -1       146 1.90891E-01 2.19128E-01 8.39265E-02 1.21309E-02 1.87156E-02-3.47053E-02
 -1       147 4.43829E-01-1.20949E-02-1.61798E-01 4.08554E-02 3.30919E-02-5.47729E-02
 -1       148-9.51517E-03 1.12805E-02-1.04935E-01 1.23346E-02-6.41866E-02 1.13879E-02
 -1       149 2.94960E-01 4.61634E-01 3.59790E-01 1.30309E-02-4.08318E-02 3.52768E-02
 -1       150 5.36658E-01 2.51511E-01-6.63888E-03-1.65542E-01-1.52158E-02 6.55267E-02
 -1       151 2.83988E-01 1.40419E-01-1.19065E-01-1.71545E-01 1.23176E-02-8.50730E-02
 -1       152 5.32169E-01 2.20584E-01-2.07175E-02-1.85734E-02-2.62585E-02-1.22256E-01
 -1       153 6.62581E-01 2.33036E-01-8.73658E-02 3.59149E-02 1.93828E-04 7.94258E-02
 -1       154 4.36608E-01 3.76352E-02-5.65414E-02-4.82523E-02-8.08355E-02-9.56921E-02
 -1       155 4.34387E-01 1.31790E-01 4.58697E-02 1.31914E-02 4.46885E-02-7.74665E-02
 -1       156 6.99351E-01 1.22671E-01 7.95470E-02-3.63255E-02 6.20730E-02 1.26366E-01
 -1       157 2.89944E-01 4.65299E-02-1.66791E-03 9.12217E-02 5.19756E-02-3.66984E-02
 -1       158 1.49276E-01-3.26109E-03 4.29625E-02 4.47264E-03 1.21092E-02-1.15961E-01
 -1       159 4.75163E-01 1.91404E-01 1.23603E-01 2.15878E-02 6.70938E-03 3.67571E-01
 -1       160 3.60657E-01-1.49430E-02 6.38150E-02 6.01679E-02 1.06391E-02 3.15235E-01
 -1       161 1.00251E-01-2.52879E-02 4.37494E-02-1.54298E-02 1.87765E-02-1.13359E-01
 -1       162 1.25870E-01 2.18078E-01 1.37844E-01-1.96386E-02-7.04823E-05-8.49485E-02
 -1       163 1.81060E-01 3.22359E-02-3.96264E-01 1.24025E-01 5.36323E-02-8.61035E-02
 -1       164 3.58343E-01 2.33833E-01 1.72253E-02-3.72417E-02 1.80412E-02 5.58259E-02
 -1       165 5.53010E-01 5.54664E-02 6.64967E-02-1.27646E-01 7.00171E-02 1.29439E-01
 -1       166 4.36586E-01 6.10613E-01 4.45214E-01-2.22323E-02-9.00889E-03-5.62397E-02
 -1       167 2.39464E+00 2.78329E+00 1.77478E+00-5.54310E-02-3.89404E-02-5.27764E-01
 -1       168 1.79270E-01-1.68426E-02 9.20121E-03 6.05605E-02 9.12794E-03-1.07769E-01
 -1       169 4.97459E-01 2.42582E-01-5.74343E-02 1.15261E-01-1.63740E-02-8.28121E-02
 -1       170 5.72037E-01 2.02575E-01-3.08025E-02 1.19389E-01 3.51861E-02 1.05724E-01
 -1       171 8.39202E-01 2.36137E-01 7.87832E-02 1.59239E-01 4.20207E-02 6.15415E-02
 -1       172 2.56095E-01 8.93832E-02-2.05581E-01 1.37270E-01 3.84680E-02 9.33765E-02
 -1       173 3.53326E-01 1.55324E-01 1.20100E-01 1.99427E-02 8.14645E-02 3.22630E-01
 -1       174 1.04009E-01 4.57724E-03 8.29277E-03 5.27210E-02 3.67275E-02 2.45550E-01
 -1       175 4.13295E-01 3.21671E-01 2.33641E-01 3.17049E-02 4.42854E-02 3.44915E-02
 -1       176 1.14856E-01 2.79582E-03 3.11728E-02 3.59180E-02-5.79188E-02-1.18283E-01
 -1       177 3.88378E-01 3.02479E-01 1.86625E-01 3.28813E-02-1.16129E-02-6.40881E-02
 -1       178 2.78412E-01 2.36021E-01 2.05566E-01-4.04814E-02 7.02698E-02 4.63188E-02
 -1       179 6.84278E-01 2.58658E-01-2.29702E-02 1.05394E-01-6.27205E-02-4.69261E-02
 -1       180 1.94249E-01 3.61384E-01 2.94493E-01-3.18513E-02-9.56079E-05-6.44297E-02
 -1       181 2.61545E-01 1.52217E-01-1.20241E-01 1.67125E-01-1.41744E-02-3.91827E-02
 -1       182 6.60774E-01 2.32024E-02-2.39159E-02 2.15634E-02 2.84733E-02-1.08070E-03
 -1       183 3.19588E-01 1.89506E-01-8.86526E-02-5.52826E-02-5.51948E-02-7.42042E-02
 -1       184 7.25672E-02-1.18197E-02 3.23856E-02 4.34031E-02-3.99128E-02-9.42221E-02
 -1       185 3.44402E-01 1.97633E-01-7.32596E-02 1.14408E-01-8.00307E-02-9.29442E-02
 -1       186 2.18347E-01 2.92787E-02-1.98815E-01 7.71640E-02 1.37267E-02-1.63940E-02
 -1       187 3.96308E-01 2.45458E-01-5.95251E-02 1.36071E-01 5.07809E-02 5.25028E-02
 -1       188 2.25656E-01 1.53105E-01 8.23346E-02 5.48510E-02 1.80956E-01 1.34541E-01
 -1       189 2.47112E-01 2.15230E-01 1.24137E-01-2.77878E-03 4.75377E-02-3.63835E-02
 -1       190 1.21310E-01 1.33679E-01 1.22943E-01 9.90228E-02 1.25427E-01 1.56522E-01
 -1       191 2.03341E-01 1.83665E-01-1.00883E-02 1.62417E-01-8.28025E-02-2.37723E-01
 -1       192 2.59907E-01 1.76730E-01 1.28618E-01 1.14702E-03-3.61209E-02-1.04629E-01
 -1       193 1.07973E-02 9.36881E-02 9.33179E-02-7.88052E-02 5.77540E-04-6.46517E-02
 -1       194 1.10528E-01 6.63438E-03 5.95116E-02 3.90267E-02-1.15832E-02-8.43392E-02
 -1       195 1.63490E-01 1.64349E-01-1.30740E-01 1.34808E-01 2.16561E-02 1.74266E-01
 -1       196-7.23011E-02-1.36979E-02-8.12011E-02-3.79227E-02 5.14207E-02-6.63302E-03
 -1       197 2.78135E-01 2.32522E-01 1.83783E-01 6.09531E-02 1.74669E-01 2.27632E-01
 -1       198 5.24976E-01 3.37677E-01 2.76984E-01 4.26787E-02 1.16319E-02-2.14723E-01
 -1       199 3.10787E-01 2.92560E-01 1.66743E-01 3.16906E-02-1.37608E-03 7.56494E-02
 -1       200 6.20158E-02 4.34091E-01 2.56247E-01 9.06421E-02-1.82931E-02 1.01100E-01
 -1       201 2.30427E-01-3.10785E-04-1.75567E-01 8.49670E-02-6.22954E-02-1.56328E-02
 -1       202 9.18885E-02 4.35841E-01 3.31882E-01 1.28688E-01-7.33828E-02-1.52892E-01
 -1       203 3.96870E-02 2.40461E-02-1.21979E-02 4.20228E-02-2.06420E-02-5.90842E-02
 -1       204 1.77616E+00 8.29101E-01 4.91307E-01-4.90288E-02 2.65927E-01-5.99721E-01
 -1       205 2.49507E-01 9.28408E-02-4.25793E-02 1.02351E-01 8.13326E-02 5.41008E-02
 -1       206 2.16105E-01 2.08472E-01-1.24979E-02 1.40184E-01 9.37090E-02 1.18507E-01
 -1       207 1.15271E-02 1.58152E-02 3.25599E-02 5.67653E-02-3.76572E-02-4.73619E-02
 -1       208 1.31837E-01 1.68867E-01 4.61688E-03 1.23635E-01-6.97548E-02-6.28079E-02
 -1       209 2.01915E-01 2.03733E-01 4.14485E-03 1.73802E-01 3.62437E-03-1.63949E-02
 -1       210 2.16405E-01 1.98435E-01-1.78885E-02 1.35090E-01-1.18003E-02-1.59104E-02
 -1       211 1.38988E-01 1.08321E-01 6.74671E-02 1.01328E-01 1.19330E-01 1.55885E-01
 -1       212 4.08036E-02 1.33075E-01 3.30246E-02 1.04956E-01-1.38019E-01-9.18829E-02
 -1       213 9.18779E-01 5.95396E-01 9.47681E-01 5.44987E-01-1.69084E-01-7.81311E-01
 -1       214 1.17662E-01 1.72196E-01 2.08734E-01 1.26240E-01 1.62847E-01 2.04617E-01
 -1       215 1.67004E-01 1.77377E-01 1.57407E-01 6.36113E-02-1.42340E-02-1.77484E-01
 -1       216 1.09693E-01 1.16281E-01 2.19592E-02 1.37197E-02 4.24662E-02-7.60568E-02
 -1       217 1.37749E-01 5.41707E-02-1.10328E-01 1.08971E-01-1.00212E-01-2.10351E-02
 -1       218 4.52962E-01 2.78557E-01 1.03610E-01 6.42581E-02 7.86069E-02 9.06529E-02
 -1       219 5.25623E-01 2.30172E-01 1.05244E-01-1.88037E-02 9.70097E-02-1.77750E-01
 -1       220 4.05795E-02 2.56572E-01 2.87573E-01-1.92376E-03 1.03831E-01 9.90259E-02
 -1       221 7.47088E-03 7.13467E-03-5.06626E-02 4.17348E-02 6.96551E-03-4.25813E-02
 -1       222-3.11131E-02-2.76311E-02 4.09853E-02 3.75367E-02-2.56299E-02-4.22618E-02
 -1       223-2.38345E-02-5.13791E-02-3.14990E-02 9.77567E-02-1.59695E-02 2.49061E-02
 -1       224 3.66643E-02-2.60745E-02-1.30359E-01 7.96491E-02-1.65591E-01 4.72206E-02
 -1       225 7.57729E-03 9.71757E-03-1.50507E-02 1.07485E-01 5.75687E-03 1.22016E-01
 -1       226-8.20521E-02-1.18688E-01-9.77350E-02 5.48054E-02 1.33884E-03-5.91471E-02
 -1       227-2.35436E-02-1.59795E-02-8.14054E-03-4.60224E-02 1.04423E-02-7.42929E-02
 -1       228-1.34144E-02 1.60533E-02 2.15994E-02 6.34643E-02-1.00248E-02-2.35058E-02
 -1       229 3.02857E-02 1.24295E-01 1.59590E-01 8.80228E-02 8.87501E-02 1.57163E-01
 -1       230 6.84282E-03-2.72028E-02-2.56466E-02 2.75688E-02 4.06414E-02-9.28244E-02
 -1       231-5.07864E-02-1.05909E-01-1.56053E-01 7.33067E-02 1.20139E-01-4.44626E-02
 -1       232 1.13915E-01 1.18277E-01 2.05357E-02 9.93148E-02 9.86542E-02-8.74556E-03
 -1       233-3.89503E-02 4.50355E-02 9.88216E-02 5.51952E-02-9.97181E-02-3.34638E-02
 -1       234 5.98512E-03-4.37273E-02 3.10459E-02 1.03974E-01 1.42925E-01 1.44058E-02
 -1       235-5.42269E-02 3.48797E-02 9.93299E-02 1.01291E-01 1.62432E-01 3.83083E-02
 -1       236 1.85726E-02-3.69053E-02 7.34125E-02 1.00356E-03 5.90107E-02-6.63540E-02
 -1       237-1.57685E-01 1.63650E-02 3.10441E-02 7.88933E-02-9.76603E-02-1.19787E-01
 -1       238-1.04986E+00-6.46848E-01-1.00277E+00 5.09695E-01 1.03393E-01-8.23995E-01
 -1       239-2.64430E-01-2.36271E-01-1.36167E-01-5.51774E-03-9.90422E-02 1.33892E-01
 -1       240-3.64166E-01-3.23446E-01-3.00090E-01 4.56598E-02-1.39761E-01 2.84974E-01
 -1       241-1.95827E-01-6.28026E-02 6.43068E-02 9.78319E-02-5.46681E-02 1.03560E-02
 -1       242-1.45114E-01-1.31493E-01 5.71533E-02 1.18742E-01 5.72045E-03 5.57891E-03
 -1       243-1.36714E-01-3.36433E-03 1.96831E-01 1.03421E-01 1.41218E-01-1.68320E-02
 -1       244-1.42649E-02 7.30266E-03-1.56611E-02-8.79950E-03-1.00684E-01 2.50978E-02
 -1       245-3.90827E-02-1.85703E-02 9.04077E-02 2.80904E-02-4.48345E-02 9.62455E-02
 -1       246-1.86538E-01-1.86061E-01 2.23945E-03 1.35781E-01-1.07526E-01 7.66858E-02
 -1       247-9.21521E-02-1.21343E-01-1.02264E-01-8.51336E-04-1.15736E-01 1.07085E-02
 -1       248 5.03016E-03 2.62161E-02 9.57276E-02 4.10415E-02-1.87862E-03-5.02771E-02
 -1       249-2.13295E-01-1.65146E-01 4.46682E-04 1.25513E-01 2.70695E-02-2.87344E-02
 -1       250-1.75589E-02 3.21459E-03-7.76941E-02 2.07576E-02 3.55342E-02-5.27615E-02
 -1       251-1.43833E-01-1.11785E-01-4.17371E-02 7.72451E-02 6.40251E-02-4.40219E-02
 -1       252-9.32127E-02-6.28649E-02 2.21604E-02 7.64479E-02 1.15085E-01-8.86967E-02
 -1       253-9.37642E-02-1.01228E-01 5.83529E-02 1.60347E-01 9.01887E-02-6.17658E-02
 -1       254-5.74396E-02 1.18128E-02 2.92979E-02 2.25325E-02 1.35221E-02-7.34764E-02
 -1       255-9.86117E-03-4.61630E-02 1.00336E-02-1.05055E-02-5.80039E-02-5.69070E-02
 -1       256-4.11804E-02-2.39025E-02 9.69899E-03 1.01257E-01-1.18645E-02-1.49064E-01
 -1       257-3.43584E-01-2.27423E-01 1.84647E-02 1.29078E-01 5.14721E-02-1.29315E-01
 -1       258-8.30601E-02-8.44158E-03 4.67699E-02 6.43362E-02 1.45795E-02-8.47438E-02
 -1       259-3.20534E-01-1.46601E-01 6.28546E-02 1.38291E-01-9.51280E-04 3.11616E-02
 -1       260-3.45984E-01-2.19643E-01 3.18193E-02 1.64123E-01-6.09457E-02 9.72150E-02
 -1       261-3.43162E-01-1.17119E-01-1.04113E-01 7.18774E-02-1.11082E-01 2.10665E-01
 -1       262-2.06023E-01-1.77978E-02-1.50983E-01 1.07528E-01-1.35130E-01 2.20834E-01
 -1       263-6.16356E-02 2.29696E-03-6.48841E-02 3.47390E-02 4.10746E-02-8.04921E-02
 -1       264-9.45092E-02-1.17489E-01-1.05656E-01-4.51340E-02-1.42030E-02-1.03538E-01
 -1       265-3.67858E-01-1.36691E-01 3.46975E-02 1.60767E-01 5.03748E-02-3.89924E-02
 -1       266-5.37113E-01-3.32232E-01-3.52342E-01 1.56837E-02-3.22266E-02-2.04609E-01
 -1       267-8.13844E-02-2.92775E-01-2.82845E-01 1.07574E-01 1.00743E-01-1.38939E-01
 -1       268-3.06398E-01-5.89952E-02 1.17229E-01 1.15088E-01-3.32372E-02 7.05727E-02
 -1       269-3.35513E-01 1.06782E-02 1.31732E-01 9.63287E-02 1.16999E-01-1.04726E-01
 -1       270-1.04450E-01-1.13740E-01 8.01758E-02 1.30793E-01-9.01448E-02 1.42500E-01
 -1       271-3.32396E-01-2.19882E-01-2.27897E-01-2.90981E-02-5.47653E-02-8.13605E-02
 -1       272-1.38814E-01 1.55629E-02-5.36431E-02 3.06557E-02 1.91628E-02-1.01893E-01
 -1       273-1.68234E-01 3.70951E-03-1.17368E-01 1.54802E-02 1.17736E-02-1.43817E-01
 -1       274-5.54326E-01-2.65365E-01 3.11536E-02 8.06027E-02 6.28764E-02-1.27207E-01
 -1       275-6.60084E-01-2.25470E-01-9.09977E-03 1.18011E-01-5.17257E-02 8.82161E-02
 -1       276-3.71651E-01-1.68270E-01-9.62451E-02 3.25810E-02-7.45118E-02 3.04905E-01
 -1       277-2.08036E-01-2.38398E-02 2.31443E-02 5.86445E-02-4.22726E-02 2.47405E-01
 -1       278-4.53211E-01-1.92025E-01 3.11442E-02 1.16503E-01-3.54272E-02 1.02954E-01
 -1       279-5.70768E-01-2.52389E-01-4.14484E-02 1.39746E-01 1.78949E-02-1.86021E-01
 -1       280-1.37166E-01-1.66927E-01-9.43085E-02 9.94212E-03 1.48943E-02-1.19846E-01
 -1       281-3.16287E-01-1.44373E-01-6.09005E-04 2.01295E-01 2.89988E-02-1.68676E-01
 -1       282-2.50416E-01-1.90392E-01-1.21653E-01-1.55938E-02-3.60702E-02 5.20507E-02
 -1       283-3.71224E-02-6.68518E-02 1.45247E-01 9.60694E-02-6.32073E-02 6.52179E-02
 -1       284-5.47080E-01-2.79603E-02 3.25802E-02 9.47520E-03-5.81201E-02 3.85040E-02
 -1       285-1.77887E-01-2.69750E-01-2.93407E-01 1.40598E-03-7.93780E-02 1.66835E-02
 -1       286-3.28929E-01-1.97600E-02 3.16737E-01 5.36938E-02 2.30175E-02-1.20580E-01
 -1       287-1.75809E+00-1.27826E+00-1.27831E+00-1.22410E-02-1.72672E-03 9.88174E-01
 -1       288 2.40866E-01 2.83951E-01 2.47591E-01-7.28302E-04 2.52743E-01 1.28830E-01
 -1       289-2.98528E-01-4.12138E-01-2.99190E-01-7.36075E-03 1.99389E-01 3.30447E-02
 -1       290 5.95908E-01 7.69050E-01 5.74647E-01 2.83982E-02 3.74327E-01 1.25504E-01
 -1       291-9.29749E-01-9.86831E-01-8.06880E-01-1.51331E-01 4.98875E-01 4.97491E-01
 -1       292 3.20503E-02 2.81376E-01 2.39018E-01 2.35074E-02 3.46076E-01 5.04484E-01
 -1       293 4.09840E-01 2.18610E-01 2.59163E-01 2.41247E-03-2.80877E-01 7.45590E-01
 -1       294 2.78686E-01 3.50351E-01 2.59378E-01-5.69296E-02-3.96901E-01 4.08382E-01
 -1       295-8.68989E-01-9.79463E-01-7.78198E-01-1.35183E-01 4.29697E-01 2.86045E-01
 -1       296-2.49581E-01-3.65834E-01-2.23568E-01-1.69634E-02 3.38840E-01 9.66734E-02
 -1       297-1.20394E-01-1.17217E-01-1.49186E-01-1.56093E-02 5.96873E-03 2.27661E-02
 -1       298 1.57297E+00 1.14378E+00 1.14375E+00-1.03887E-02-1.54711E-03 1.03807E+00
 -1       299 1.05556E+00 1.12225E+00 9.16859E-01-1.70183E-01-5.55520E-01 5.19188E-01
 -1       300-1.16733E-01-3.81941E-01-1.71581E-01 1.42133E-02-3.60685E-01 4.09012E-01
 -1       301 1.22355E+00 1.14584E+00 9.97516E-01-1.84494E-01-4.42223E-01 6.17406E-01
 -1       302-1.03011E-01-1.10675E-01-1.61633E-01 2.50474E-03-2.04951E-01 1.11832E-01
 -1       303 5.85747E-01 5.65996E-01 7.18748E-01 1.71821E-02 1.07022E-01 7.03422E-01
 -1       304 3.58259E-01 4.01761E-01 5.32859E-01-1.43356E-02-1.35729E-01 6.86728E-01
 -1       305 3.50174E-01 5.03765E-01 3.59509E-01-1.86102E-02-4.11416E-01 1.70419E-01
 -1       306 4.26051E-02 1.09938E-02 1.65835E-02 3.38852E-02-1.68484E-01 6.22377E-02
 -1       307 4.88725E-02-1.20023E-02 1.47717E-01 2.08822E-02-2.07214E-01 1.88666E-01
 -1       308 2.06521E-01 3.22296E-01 1.71001E-01-2.99675E-02-4.54485E-01 2.77566E-01
 -1       309 1.44687E-01 1.04217E-01 9.59414E-02 1.57485E-02 1.33967E-02 3.47602E-02
 -1       310-7.81237E-01-9.52570E-01-7.29933E-01-1.12834E-01 4.00697E-01 2.68200E-01
 -1       311 3.19592E-02 2.81051E-03-1.08757E-02 3.49343E-03 3.42833E-01 7.93813E-01
 -1       312-1.31818E+00-1.07467E+00-1.00739E+00-1.45517E-01 3.56846E-01 8.58313E-01
 -1       313-1.51369E-01-1.69306E-01-1.90782E-02 6.74349E-02-3.49999E-01 2.13612E-01
 -1       314 8.39095E-02 5.19433E-02 1.09376E-01 1.10663E-04 1.17187E-01 9.40057E-03
 -1       315 4.27650E-02 5.88697E-02 4.27882E-02-1.21251E-02 2.40155E-02 2.29400E-05
 -1       316-1.01638E-01-1.39727E-01-1.01614E-01 6.44911E-03 1.42221E-02-2.59536E-05
 -1       317 7.99647E-02 1.04458E-01 6.30442E-02-3.97408E-02 1.52364E-01 5.00464E-02
 -1       318 2.32233E-01 2.32588E-01 1.86147E-01 4.95007E-02-2.16666E-01 3.87892E-02
 -1       319-5.67608E-02-3.46431E-02-1.05940E-01 9.05005E-03 2.41238E-01 2.21476E-01
 -1       320 1.03776E+00 1.18310E+00 9.34982E-01-1.60614E-01-4.15597E-01 2.97833E-01
 -1       321 1.52265E+00 1.38787E+00 1.22533E+00 2.21053E-01 4.55587E-01 6.84594E-01
 -1       322 1.48321E+00 1.10870E+00 1.09119E+00 8.29661E-02 2.01989E-01 1.01043E+00
 -1       323 1.06602E+00 1.10307E+00 9.13188E-01 1.75792E-01 5.31386E-01 4.96782E-01
 -1       324 6.14222E-02 1.27726E-01-1.03412E-02-6.46920E-02-6.40740E-02 2.45810E-02
 -1       325 2.00493E-01 2.98750E-01 2.77007E-01 4.65964E-02 2.34713E-02-9.70280E-03
 -1       326 1.85617E-01 9.51578E-02 7.09018E-02 2.10398E-02-6.34258E-02 3.16946E-01
 -1       327 2.18238E-01 2.81827E-01 8.73936E-02 4.94293E-02 5.62438E-02 2.40761E-02
 -1       328 1.31335E-01 1.00460E-01 1.71414E-01-4.84463E-02-1.20899E-01 2.71036E-01
 -1       329 1.40188E-01 7.30620E-02 4.87872E-02-6.89977E-02 1.26638E-01 3.43549E-01
 -1       330 3.33812E-01 2.96615E-01 3.43883E-01-4.51353E-02 6.46068E-02 3.27192E-02
 -1       331 5.85139E-01 4.51448E-01 2.17194E-01 3.60230E-02 2.71477E-02 9.77856E-02
 -1       332-4.83800E-02-5.17885E-02 8.16169E-02-6.13589E-02 2.36993E-01 4.11620E-01
 -1       333 2.51161E-01 1.27246E-01 1.05972E-01 1.00550E-02 1.19706E-02 3.46960E-01
 -1       334 5.19371E-03 1.36190E-01 3.18247E-01-1.53089E-03 1.19655E-02 6.89851E-01
 -1       335 2.70159E-01 1.00961E-01 1.65030E-01-1.76483E-02-1.81361E-01 1.21043E-01
 -1       336-1.52783E-01-3.07264E-01-4.72279E-02 9.26340E-02-3.67045E-01 5.52262E-01
 -1       337 7.33214E-01 7.26495E-01 4.68009E-01 8.19875E-02-1.80266E-02-6.29883E-02
 -1       338 5.09420E-01 5.32993E-01 4.11896E-01 2.75164E-02 4.86567E-02-1.55657E-02
 -1       339 4.48003E-01 3.55547E-01 2.77488E-01 2.37961E-02 1.67010E-02 5.83072E-03
 -1       340 2.10817E-01 1.51638E-01 2.07164E-01-2.02458E-02 1.51165E-01 1.55645E-01
 -1       341 1.58750E-01 2.05267E-01 3.98055E-01-3.77471E-02 3.68088E-01 3.43464E-01
 -1       342-3.30686E-02 5.64051E-02 4.04527E-02-2.53496E-02 1.50664E-01 3.36199E-01
 -1       343 5.87441E-01 4.85056E-01 2.77706E-01 5.85299E-02-3.37677E-02-4.96292E-02
 -1       344 4.75951E-01 3.80686E-01 3.20293E-01-4.32681E-03-4.18253E-02 6.58275E-02
 -1       345 2.11493E-01 2.04009E-01 6.85846E-02 4.05083E-02-3.58198E-02-4.91997E-02
 -1       346 1.10992E-02-1.94264E-02-7.54722E-02-6.38147E-03 7.99038E-02-2.83327E-02
 -1       347 2.40697E-01 2.32730E-01 2.51690E-01-7.60794E-02 1.24746E-02-8.31508E-02
 -1       348 2.83323E-01 2.39657E-01 2.45372E-01-5.84738E-02-2.76517E-02 3.95317E-02
 -1       349 4.46691E-01 2.42328E-01 1.54889E-01-2.04149E-02-6.71813E-02-1.85687E-01
 -1       350 2.18809E+00 2.25949E+00 1.49441E+00 1.00856E-01 3.25534E-02-5.37850E-01
 -1       351 2.10893E+00 1.76458E+00 1.28067E+00 4.10824E-01 1.17087E-01-4.21701E-01
 -1       352 2.34723E+00 1.62489E+00 1.05094E+00-3.75325E-01 1.85669E-01-5.69048E-01
 -1       353 1.65678E-01 1.36446E-01 3.83739E-02 1.27986E-02-6.05779E-02-7.39507E-02
 -1       354 4.47716E-01-1.37157E-01-3.55667E-01 4.50651E-01 2.03200E-01-6.56127E-01
 -1       355 1.00921E-01-9.57635E-02-6.59153E-02 1.13773E-01 8.45120E-02-1.77756E-01
 -1       356 1.17431E-01 1.31385E-01 1.11361E-01 2.05842E-02-3.79044E-02-1.14990E-01
 -1       357 2.53738E+00 1.44366E+00 1.81335E+00-2.20123E-01 1.14272E-01-8.50383E-01
 -1       358 2.41973E+00 1.50205E+00 1.86022E+00 1.13852E-01 9.07197E-02-9.93815E-01
 -1       359 5.30463E-02 2.07311E-02-6.62614E-02-4.03162E-03 4.57279E-02-8.97609E-02
 -1       360 2.59973E-01 3.46841E-01 3.22049E-01-1.24963E-01 1.74576E-02-7.92914E-02
 -1       361 3.06366E+00 2.27618E+00 2.33294E+00-3.07606E-01 2.58938E-01-9.65813E-01
 -1       362 2.16714E-01 2.39780E-01 2.24366E-01-4.49231E-02 2.19014E-02-7.96287E-02
 -1       363 2.43037E+00 2.47739E+00 1.98664E+00 1.84352E-01-2.86264E-01-6.57656E-01
 -1       364 3.23947E+00 3.65306E+00 2.62314E+00-1.37264E-01 2.58469E-01-7.37096E-01
 -1       365 1.60273E-01 2.90602E-01 1.62882E-01 1.70498E-02-2.43475E-03-7.82670E-02
 -1       366 2.31713E-01 1.53296E-01 8.57107E-02 3.77907E-02 8.67483E-03-3.54710E-02
 -1       367 1.09972E+00 7.36754E-01 1.01200E+00-6.25707E-01 5.90677E-02-7.41451E-01
 -1       368-2.13966E-01 2.99905E-01 5.22100E-01-4.65573E-01 2.22548E-01-5.71414E-01
 -1       369-2.50625E-01 3.88313E-01 5.84473E-01 4.39681E-01-3.16127E-01-6.30405E-01
 -1       370-1.43758E-01-6.42711E-02-8.05165E-02 1.57607E-02-6.53355E-02-1.23253E-01
 -1       371-3.39091E-01-2.84530E-01-2.48758E-01-1.07333E-01-5.53755E-03-1.84645E-01
 -1       372-2.89164E-02-1.45548E-02-3.32907E-03-2.54236E-03-2.31110E-02-9.21269E-02
 -1       373 4.28205E-02-2.00630E-02 8.09352E-03 1.90442E-02 8.63141E-02 1.91030E-02
 -1       374 2.56922E-02 2.96847E-03 4.04851E-02 7.76068E-02 9.12024E-02 1.44203E-02
 -1       375-6.81326E-02-1.14903E-01-1.08957E-01-4.77753E-02-3.80838E-02-6.19172E-02
 -1       376-2.24066E+00-1.79384E+00-1.17421E+00 3.12887E-01 9.76112E-02-4.58778E-01
 -1       377-2.71838E+00-2.07585E+00-1.78270E+00-1.21443E-01-1.17681E-01-8.54560E-01
 -1       378-2.54423E+00-2.06926E+00-1.25864E+00-3.48272E-01-7.58014E-02-5.37737E-01
 -1       379-2.59772E+00-1.75748E+00-2.15710E+00-1.18924E-01-6.02655E-03-9.97115E-01
 -1       380-3.12999E-01-2.17849E-01-1.55999E-01-1.47322E-02-1.00258E-01-1.01604E-02
 -1       381-2.87935E-01-1.30385E-01-1.28004E-01 2.75913E-02 9.96351E-02-1.37125E-01
 -1       382-1.87341E-01-8.37547E-02-8.40636E-02-1.54427E-02 2.14256E-02-5.15888E-02
 -1       383-2.71678E-01-1.68047E-01-1.96422E-01 3.56306E-02-1.77483E-01 4.84974E-02
 -1       384-4.94269E-01-6.37080E-01-4.52748E-01-7.34813E-02-5.97100E-02-1.18104E-01
 -1       385-4.21725E-01-4.16981E-01-2.06242E-01-3.25141E-02 3.43256E-02-1.25463E-01
 -1       386-2.35703E+00-2.57589E+00-1.86123E+00-1.12791E-01 1.17672E-01-6.99420E-01
 -1       387-3.17577E-01-2.45992E-01-2.18287E-01-3.79294E-02-5.48674E-03-1.32095E-01
 -1       388-4.27614E-01-3.03183E-01-1.31057E-01-1.51519E-02-1.04972E-01 1.51273E-02
 -1       389-1.23738E-01-2.33478E-01-1.58549E-01 3.40056E-02-6.98658E-02 8.42183E-02
 -1       390-2.83199E-01-3.70481E-01-2.73922E-01-7.53651E-02-3.34053E-02-1.50581E-01
 -1       391-5.73623E-01-6.83980E-01-3.41609E-01-5.22215E-02 7.22839E-02 6.10733E-02
 -1       392-3.52646E-01-3.88928E-01-4.03408E-01 4.47918E-03 3.29133E-02 7.04517E-02
 -1       393-2.22784E-01-1.56332E-01-1.09358E-01-6.89628E-02 1.68578E-01 3.18672E-02
 -1       394-5.54629E-02-1.01103E-02-1.24367E-01 2.89672E-02 2.59378E-01 1.69687E-01
 -1       395 4.69266E-02 4.97451E-02-1.64104E-04 8.01548E-03 2.87154E-01 1.07286E-01
 -1       396-1.86725E-02 2.55940E-02 4.85078E-02 4.31666E-02-1.62169E-02-6.01216E-02
 -1       397 2.06513E-01 2.97030E-01 1.55104E-01-1.98408E-02 1.33903E-01 1.30095E-02
 -1       398 7.42185E-05 9.08945E-03 2.03313E-02-3.63397E-02-1.60731E-02-1.44930E-02
 -1       399 1.23950E-01 2.68280E-03 2.82266E-02-3.89702E-02 2.14996E-02-6.68293E-02
 -1       400 1.58704E-01 8.26062E-02 9.10056E-02-1.27881E-01-3.20246E-02-2.32213E-01
 -1       401-3.70056E-01-5.13012E-01-3.71772E-01 2.71821E-02-3.30070E-01 1.36723E-01
 -1       402 1.82481E-01 1.20377E-01 9.85583E-02 7.96036E-02-1.95990E-01 4.47477E-02
 -1       403 1.23261E-01 2.38909E-02 2.04662E-02-2.17676E-02-1.55795E-01 3.56253E-02
 -1       404-4.70476E-02-1.42004E-01-2.95484E-02 3.28426E-02-1.74097E-01 1.14170E-01
 -1       405-1.47069E-01-3.10636E-02-5.35552E-02 6.39186E-02-3.12689E-01 2.20099E-01
 -1       406-6.96168E-02-1.56599E-01-4.01013E-01 5.93826E-02 1.82458E-01 5.54559E-01
 -1       407-2.25604E-01-2.42570E-01-1.77702E-01 1.13997E-02 1.83937E-01 1.98847E-01
 -1       408-2.60846E-01-1.74825E-01-1.47794E-01-1.70089E-02 1.11195E-01 3.04660E-01
 -1       409 1.92291E+00 1.43862E+00 1.41521E+00 1.09421E-01 1.77741E-01 8.99790E-01
 -1       410 1.49219E+00 1.32720E+00 1.18696E+00 2.06907E-01 4.38502E-01 6.55131E-01
 -1       411-1.83002E-01-2.97435E-01-5.23570E-01-1.27576E-02-4.53724E-04 6.79525E-01
 -1       412 1.87900E+00 1.42851E+00 1.39246E+00-1.39294E-01-1.83641E-01 9.29663E-01
 -1       413-2.27113E-01-2.03183E-01-4.47759E-01 4.50330E-02 2.85950E-01 3.72591E-01
 -1       414-1.07727E-01-4.37278E-02-1.85217E-02-4.97934E-02-4.37239E-03 2.72699E-01
 -1       415-2.12630E-01-1.07626E-01-5.20832E-02-4.93269E-02-1.21588E-01 3.31848E-01
 -1       416-5.08942E-02-4.08139E-02-2.81530E-02-2.49314E-02-1.32054E-01 2.81975E-01
 -1       417-3.58725E-01-2.91851E-01-2.01883E-01 5.31601E-03-2.89385E-02 6.10689E-02
 -1       418-2.93205E-01-3.07995E-01-2.26794E-01 2.52528E-02-4.59296E-02 9.15980E-02
 -1       419-2.06412E-01-7.65829E-02-5.56939E-02 1.97404E-02-1.85342E-01 1.26701E-01
 -1       420 5.92235E-02 2.59098E-02 1.32519E-01 6.61265E-03-2.56809E-01 1.18375E-01
 -1       421-1.34486E-01-1.88175E-01-1.42639E-01 2.27955E-02-7.35349E-02 5.59496E-02
 -1       422-2.51317E-02-1.21383E-02 3.24106E-02-4.50868E-03 1.51915E-03-1.07118E-02
 -1       423-2.26270E-01-1.37262E-01-1.35741E-01 8.97009E-02-4.94584E-02-1.93020E-02
 -1       424 2.81268E-01 4.19034E-01 2.94827E-01 2.11490E-02-2.17681E-01 4.38461E-02
 -1       425-1.76184E-02-5.23635E-02-5.75617E-02 2.65144E-02 1.25570E-01 2.27121E-02
 -1       426 7.11452E-02 1.19847E-01 1.53885E-02 7.90995E-02 6.06066E-02-1.05098E-02
 -1       427 4.30861E-02 8.13354E-02 5.91832E-02 3.65407E-03 2.17649E-02-3.92419E-02
 -1       428 1.54487E-01 1.26304E-01 6.69350E-02 4.38621E-02-5.41092E-02-7.65862E-02
 -1       429 2.11788E-01 1.47150E-01 1.83949E-01 5.85530E-02 1.46910E-01 6.92463E-02
 -1       430-4.78475E-01-5.59376E-01-2.69488E-01 1.29787E-01-1.34518E-02-7.69290E-02
 -1       431-5.89479E-01-6.35255E-01-4.31253E-01 8.48728E-02 6.34320E-03-1.13453E-01
 -1       432-5.91367E-01-4.84710E-01-4.76334E-01 8.09560E-02 3.57548E-02-1.00550E-01
 -1       433 2.19106E-02-7.08891E-02-6.46440E-02 8.96607E-02 2.06619E-02-7.65300E-02
 -1       434-2.51456E+00-1.75725E+00-1.84274E+00 1.53459E-01 1.99974E-01-8.50541E-01
 -1       435-2.68504E+00-1.63224E+00-1.92557E+00 1.72866E-01 7.65649E-02-1.00568E+00
 -1       436-1.71525E-01-5.30150E-02-6.90009E-02-9.84365E-03-5.06728E-02-1.22812E-01
 -1       437-2.12042E-01-1.34474E-01-6.44241E-02 1.88167E-02-4.36116E-02-8.28000E-02
 -1       438-1.94824E+00-8.79457E-01-5.89852E-01 5.86063E-03-9.00995E-02-4.99190E-01
 -1       439-7.19911E-01-8.74704E-01-8.00844E-01 1.84389E-01-2.90901E-01 6.96041E-01
 -1       440 4.47243E-01 1.10873E-01 2.47470E-01 2.28402E-01-1.46756E-01 8.33630E-01
 -1       441-1.69279E-01-4.96286E-01-2.97443E-01 4.15129E-01-1.70384E-01 7.70247E-01
 -1       442 4.42834E-01 4.20312E-01 5.36904E-01-6.92705E-03-3.10444E-01 4.82992E-01
 -1       443 1.41386E+00 1.27770E+00 1.13315E+00-2.01995E-01-4.16702E-01 6.25390E-01
 -1       444-4.53446E-01-4.34470E-01-1.96105E-01 1.15556E-01-3.48173E-01 3.61154E-01
 -1       445 4.95150E-01 1.20353E-01 2.67203E-01 1.08814E-01-3.13479E-01 8.38919E-01
 -1       446-1.39489E-01-4.51888E-01-2.38809E-01 2.37198E-01-2.44253E-01 6.56854E-01
 -1       447-2.99495E-01-9.26063E-02 8.43040E-02-5.33106E-02 8.46171E-02 4.80686E-01
 -1       448 4.10171E-01 3.30697E-01 3.55628E-01 3.38663E-02 3.56925E-01 7.62437E-01
 -1       449-4.98134E-01-1.73663E-01 3.65467E-02-9.05008E-03 1.70178E-02-1.83241E-01
 -1       450-4.64731E-01-6.77888E-02-1.55716E-02-1.87466E-02-5.13443E-03-1.81022E-01
 -1       451-5.38179E-01-2.47156E-01 2.75058E-02 6.78325E-03-1.35264E-02-4.74311E-02
 -1       452-5.73413E-01-1.20852E-01-5.68698E-02-1.44587E-03-1.01886E-01-2.84275E-02
 -1       453-6.62426E-01-2.12371E-01 2.46108E-02-1.04986E-02 1.20158E-02 2.79405E-01
 -1       454-5.12861E-01-1.75911E-02 8.52714E-02 6.87271E-03-1.82394E-02 3.17208E-01
 -1       455-2.28545E-01-2.10141E-01 5.67029E-02-1.98429E-02 1.07346E-02 2.03744E-01
 -1       456-2.12661E-01-2.68487E-01 2.66430E-02 5.14537E-02 3.29731E-02-1.21830E-01
 -1       457-2.42217E-01-2.33775E-01-1.47602E-01-3.74575E-02-1.60649E-02-1.62539E-01
 -1       458-2.51986E-01-1.62760E-01-1.27077E-01-4.77128E-02-2.99367E-02 2.49032E-01
 -1       459-1.38956E-01-1.59635E-01-1.20882E-01-4.25403E-02-9.59188E-03-5.17424E-02
 -1       460 3.49669E-03-1.47721E-01-7.33070E-02 1.90850E-02 2.70871E-02-6.48673E-02
 -1       461-6.32965E-01-2.06766E-01 3.22453E-02-1.52520E-01 5.49621E-02 1.95204E-01
 -1       462-5.32464E-01-1.34860E-01 2.82910E-02-1.68798E-01 6.85753E-02 1.62059E-01
 -1       463-5.71961E-01-2.68000E-01 6.56836E-03-7.51696E-02-8.55655E-03-3.39448E-02
 -1       464-5.72508E-01-1.73177E-01-8.54163E-02-1.31387E-01 3.49505E-02-1.21754E-01
 -1       465-4.38224E-01-1.87063E-01-6.11652E-03-8.82970E-02-6.24378E-02-1.84234E-01
 -1       466-3.09131E-01-2.43063E-02 6.18850E-02-9.45074E-02-6.96401E-02-2.27761E-01
 -1       467-2.74370E-01-1.56444E-01-1.11770E-01-3.12087E-02 9.62673E-02 1.37011E-01
 -1       468-2.02842E-01-1.42556E-01-7.07318E-02 4.00588E-02 3.67271E-02-1.40769E-01
 -1       469-1.27936E-01-2.06190E-01 4.98170E-02 1.03095E-02-1.04961E-02-1.51833E-01
 -1       470-4.76895E-01-3.03381E-01-1.80898E-01-6.27695E-03 9.00418E-02 1.38039E-01
 -1       471-5.27134E-01-4.29481E-01-1.34938E-01 1.00295E-03 2.15296E-02-8.92731E-02
 -1       472-3.82338E-01-2.21305E-01-1.35334E-01-2.37312E-02 1.64732E-02-2.99810E-02
 -1       473-4.42115E-01-2.16324E-01-5.23395E-03-1.71214E-01 9.14390E-02 1.27188E-01
 -1       474-2.69372E-01-1.21398E-01 6.73637E-02-1.95300E-01 6.33738E-02 8.03534E-02
 -1       475-4.33880E-01-2.64072E-01-4.92397E-02-1.03468E-01-2.83292E-03 3.83322E-03
 -1       476-3.66156E-01-1.72037E-01-5.06933E-02-1.60864E-01-3.00370E-02-1.02070E-01
 -1       477-3.68074E-01-1.86858E-01-4.43415E-02-1.17694E-01-8.64714E-02-1.38933E-01
 -1       478-2.56822E-01-1.01552E-01-6.65901E-02-1.24420E-01-1.00558E-01-2.07855E-01
 -1       479-2.91425E-01-1.54494E-01-3.20741E-02-5.68744E-02 1.25258E-01 7.30605E-02
 -1       480-9.95534E-02-6.24752E-02 3.55329E-02 2.66749E-02-2.25570E-02-1.44272E-01
 -1       481-9.45663E-02-1.00432E-01 5.40120E-02 5.73358E-02 1.79390E-02-1.07126E-01
 -1       482-4.05827E-01-2.56011E-01-1.40107E-01-6.70648E-02 1.22182E-01 6.64312E-02
 -1       483-2.14734E-01-1.81793E-01-8.55124E-02-7.64138E-03 9.41244E-03-4.80924E-02
 -1       484-2.01565E-01-6.70080E-02-2.27044E-02-3.67055E-02-3.12353E-03-8.60010E-02
 -1       485-1.68262E-01-1.21370E-01 5.59474E-03-9.82222E-02-2.43489E-02-1.53713E-02
 -1       486-2.06563E-01-1.61406E-01-9.07153E-03-1.34321E-01 7.04264E-02 9.28897E-02
 -1       487-2.19787E-01-1.71981E-01 4.17469E-02-1.72937E-01 3.50624E-02 3.00086E-02
 -1       488-1.23669E-01-7.56919E-02 5.67147E-02-1.00151E-01 2.32130E-02-4.02803E-02
 -1       489-1.90588E-01-1.60703E-01-4.13186E-02-1.28263E-01-6.62702E-02-5.70271E-02
 -1       490-1.19453E-01-7.11400E-02 4.03927E-02-1.10993E-01 5.46783E-02 3.51023E-02
 -1       491-4.93170E-02-5.51389E-02 3.45626E-02-3.70914E-02 5.22102E-02-3.63415E-02
 -1       492-8.65214E-02-7.10098E-02-5.46843E-02-1.09611E-02 2.53934E-04-1.38854E-01
 -1       493-2.48818E-01-1.57555E-01-9.08930E-02 2.37017E-02 3.54341E-02-1.65737E-01
 -1       494-2.33106E-01-2.07360E-01-1.34657E-01-6.50995E-02 3.34059E-02-3.48305E-02
 -1       495-1.01930E-01-4.37403E-02-8.87073E-02-4.58600E-03 3.36633E-02-3.30633E-02
 -1       496-1.28086E-01-5.82358E-02-2.19297E-02-2.60739E-02 1.50174E-02-8.64508E-02
 -1       497 2.44661E-03 3.33842E-03 1.13654E-02-8.22813E-02 7.15942E-03 5.84574E-03
 -1       498 3.88283E-02-1.23132E-02 6.56551E-03-1.64939E-01-2.66154E-02 2.88596E-02
 -1       499 3.42296E-03-2.18525E-02 1.61429E-02-1.15169E-01-1.61323E-01 2.37658E-02
 -1       500-3.40347E-02-1.57574E-02-3.68918E-02-7.04245E-02 9.59585E-03-2.78892E-02
 -1       501-2.73760E-02-2.72256E-02-1.50722E-02-6.60709E-02-4.21581E-02-4.18472E-02
 -1       502-1.41928E-02-3.93533E-02-1.79608E-02-8.55666E-02 8.93042E-02 1.40924E-02
 -1       503 1.89157E-02-7.89295E-04 3.61839E-03-7.21855E-02-7.11112E-03-5.06197E-02
 -1       504 3.43382E-02 6.86563E-03 1.95381E-02-5.04727E-02-1.73613E-03-7.77088E-02
 -1       505-7.27996E-02-3.99671E-02-1.10419E-01 1.76089E-03 4.25718E-02-1.32676E-01
 -1       506 2.71087E-02-4.42674E-02-8.11372E-02-6.06126E-02 8.02337E-02-1.04314E-01
 -1       507 4.93385E-03 9.34289E-03 4.55914E-03 4.30249E-03-5.73842E-03-5.62539E-02
 -1       508-2.10711E-02-1.32799E-02 2.14420E-02 1.59979E-02-9.25424E-04-9.28896E-02
 -1       509 2.04349E-01 1.38530E-01-4.92580E-03-1.04606E-01 6.32792E-04-1.03457E-02
 -1       510 1.29212E-01 1.02918E-01-1.63298E-02-1.03481E-01 6.21242E-02-6.40610E-02
 -1       511 5.92401E-02 7.72949E-02-3.18452E-02-9.45797E-02-4.83704E-03-5.19795E-02
 -1       512 2.30031E-01 1.63611E-01-1.42113E-02-1.29569E-01-5.28883E-02 2.61743E-02
 -1       513 2.11075E-01 1.43346E-01 2.00024E-02-1.17427E-01-1.04067E-01 1.14771E-01
 -1       514 1.49391E-01 8.79251E-02-4.07740E-02-1.22279E-01-1.06831E-01 5.98462E-02
 -1       515 1.35900E-01 1.61478E-01 6.23398E-02-4.31028E-02-1.23851E-01-1.47684E-02
 -1       516 1.09415E-01 6.51939E-02 4.44254E-02 3.96897E-03-3.95121E-02-1.61507E-01
 -1       517 2.49319E-01 1.76583E-01 1.80241E-01-4.84667E-03-2.38989E-03-1.25471E-01
 -1       518 9.49194E-02 1.11107E-01 2.75211E-02-2.71962E-02-9.13153E-02-6.23413E-02
 -1       519 6.54363E-02 5.79679E-02 2.74372E-02-1.77061E-02-1.85485E-02-1.16039E-01
 -1       520 1.00197E-01 7.47300E-02 1.58736E-02 3.14891E-04-5.14715E-02-5.45909E-02
 -1       521 4.25362E-01 2.02899E-01 7.19466E-02-1.62296E-01-1.20380E-01 1.68428E-01
 -1       522 3.16513E-01 1.41453E-01 1.13612E-01-2.17648E-01-1.83664E-01 2.10819E-01
 -1       523 3.45208E-01 2.19894E-01 1.45983E-02-1.08628E-01 9.95229E-03-2.27441E-02
 -1       524 3.05824E-01 1.70850E-01 5.01252E-02-1.54438E-01-1.03398E-02 6.98921E-02
 -1       525 2.82079E-01 2.12310E-01-5.83883E-03-1.39760E-01 9.81167E-02-1.32730E-01
 -1       526 2.40004E-01 1.96710E-01 1.00751E-01-1.58802E-01 5.21612E-02-1.05481E-01
 -1       527 1.14928E-01 1.00994E-01 8.27593E-02-5.38188E-02-1.31774E-01 9.75042E-02
 -1       528 1.93484E-01 2.07979E-01 5.42032E-02 1.27730E-02 3.84633E-02-1.39932E-01
 -1       529 2.91589E-01 2.09166E-01 1.72677E-01 2.63426E-02 5.03775E-02-1.84972E-01
 -1       530 4.52282E-01 2.45124E-01 7.83531E-02-4.90821E-02-1.12635E-01 1.21211E-03
 -1       531 1.43006E-01 1.08154E-01-1.61938E-02-5.15541E-04-3.83523E-02-7.91121E-02
 -1       532 1.17954E-01 1.21744E-01 1.34649E-01 2.64102E-02-3.48949E-02-5.01558E-02
 -1       533 5.13992E-01 1.21781E-01-5.25297E-02-1.55868E-01-1.09754E-01 2.41534E-01
 -1       534 6.99876E-01 1.85514E-01-1.42507E-02-2.20935E-01-8.88445E-02 1.57900E-01
 -1       535 3.76742E-01 2.18260E-01-7.33328E-02-6.67836E-02 1.59552E-03-4.07349E-02
 -1       536 5.19506E-01 2.95957E-01 2.29536E-02-9.55337E-02 2.51997E-02-3.38417E-03
 -1       537 4.81582E-01 1.71355E-01 3.46855E-02-7.11424E-02 4.24687E-02-1.96984E-01
 -1       538 5.92096E-01 1.95735E-01-7.89003E-03-1.02498E-01 6.43053E-02-1.74057E-01
 -1       539 2.00931E-02 1.07657E-03-8.12373E-02-5.00899E-02-1.12002E-01 1.37684E-01
 -1       540 2.72120E-01 3.29451E-01 1.47295E-01 1.15257E-02 1.08388E-02-1.44755E-01
 -1       541 2.86359E-01 2.17915E-01 1.49006E-01 2.06360E-02-3.56860E-02-1.73951E-01
 -1       542 1.38446E-01 9.67453E-02 5.33161E-03-2.01701E-02-9.09022E-02 1.23093E-01
 -1       543-6.46289E-02 3.58906E-02 6.48710E-02 3.30063E-02-2.77412E-02-2.76908E-02
 -1       544 1.09397E-01 2.38159E-01 8.30800E-02-1.41850E-03-4.02387E-02-1.80589E-02
 -1       545 6.26982E-01 1.68704E-01-3.67789E-02 4.52482E-02 1.42327E-02 2.55157E-01
 -1       546 5.87032E-01-3.16542E-03 3.55055E-02 5.58169E-02 1.71865E-02 2.37403E-01
 -1       547 5.21031E-01 2.42341E-01-2.46968E-02-2.41895E-03-6.07789E-03-4.24591E-02
 -1       548 5.61985E-01 1.22397E-01 5.71707E-02-4.66943E-03 8.83168E-02-5.59729E-02
 -1       549 5.43450E-01 1.75988E-01-8.01981E-03-1.82086E-02 5.44141E-03-2.02528E-01
 -1       550 4.80249E-01 2.08271E-02-3.48190E-02-2.36269E-02 2.22168E-02-2.24847E-01
 -1       551 3.08652E-01 2.40791E-01 1.52551E-01 1.54530E-02 2.06708E-02 1.95653E-01
 -1       552 2.07728E-01 2.65430E-01 1.24082E-01-4.78672E-02 4.53296E-02-1.52142E-01
 -1       553 3.32702E-01 3.37465E-01 1.48825E-01 9.00718E-03 4.63435E-05-1.68258E-01
 -1       554-1.31894E-03 4.80612E-02-1.45107E-02 5.20248E-02-9.25633E-03 1.86968E-01
 -1       555 1.31462E-02 7.85218E-02 5.03744E-02 4.13646E-02-3.02366E-02-2.93658E-02
 -1       556 3.02825E-01 3.32911E-01 2.05863E-01-2.42023E-02 1.05014E-02-7.88871E-02
 -1       557 4.78943E-01 2.00315E-01 5.38748E-02 7.05487E-02-3.76121E-02-2.36430E-01
 -1       558 5.18049E-01 1.91145E-01 2.49037E-02 8.21990E-02-5.35874E-02-2.28839E-01
 -1       559 4.12737E-01 2.02118E-01-2.10065E-02 6.31438E-02-2.06316E-02-6.46367E-02
 -1       560 5.89513E-01 3.16951E-01 6.28268E-02 7.89304E-02-1.76444E-02 9.40215E-03
 -1       561 5.06403E-01 1.28041E-01-2.44144E-02 1.21936E-01 9.17199E-02 2.18268E-01
 -1       562 6.58566E-01 1.49657E-01-5.89326E-02 2.05329E-01 8.45993E-02 2.40045E-01
 -1       563 3.14017E-01 2.78115E-01 2.26040E-01 7.63973E-02 8.80496E-02 2.11120E-01
 -1       564 3.60928E-01 2.99507E-01 1.64795E-01-2.01253E-02 1.62083E-02-1.58088E-01
 -1       565 1.98224E-01 2.49023E-01 9.28832E-02 2.24369E-02-1.99380E-02-1.75568E-01
 -1       566 3.22846E-01 1.82159E-01 1.02411E-01 2.64769E-02 1.13345E-01 1.44574E-01
 -1       567 3.11646E-01 3.40611E-01 2.41646E-01 2.76319E-02-1.22990E-02-4.52363E-02
 -1       568 8.21938E-02 4.17587E-02 8.75854E-02 1.59754E-04 7.14315E-03-8.60733E-02
 -1       569 3.62198E-01 1.96379E-01-2.62357E-02 1.28333E-01-7.97279E-02-1.24031E-01
 -1       570 2.86146E-01 1.56723E-01-6.77883E-02 1.70746E-01-1.79707E-02-7.18237E-02
 -1       571 4.07681E-01 2.74086E-01 1.01640E-02 1.07039E-01 4.60568E-03 1.35030E-02
 -1       572 3.24601E-01 1.96427E-01-3.45742E-02 1.47771E-01 1.54780E-02 8.45426E-02
 -1       573 3.81988E-01 2.26440E-01-1.00818E-02 1.55121E-01 9.08904E-02 1.43048E-01
 -1       574 2.83868E-01 1.51142E-01 2.55928E-02 2.08449E-01 1.39184E-01 2.13149E-01
 -1       575 1.53785E-01 1.01568E-01 9.39133E-02 1.45894E-02 1.06150E-01 7.16472E-02
 -1       576 1.21014E-01 1.19984E-01 6.90969E-02-1.85444E-02 4.27879E-03-1.65569E-01
 -1       577 1.33944E-01 1.35460E-01 5.72223E-02-1.83417E-02-2.30315E-02-1.04250E-01
 -1       578 1.04544E-01 1.17671E-01 1.97384E-02 5.32725E-02 1.02569E-01 8.00283E-02
 -1       579 3.00270E-01 2.21074E-01 1.29267E-01 1.66559E-02 2.95083E-02-4.31490E-02
 -1       580 1.77407E-01 1.25989E-01 6.71376E-02-2.61685E-02 8.01099E-02-7.69884E-02
 -1       581 1.70360E-01 1.18781E-01-1.35239E-02 6.85195E-02 7.60089E-02 4.44142E-02
 -1       582 1.13422E-01 1.45342E-01-2.69923E-02 8.59464E-02-7.68873E-02-7.07989E-02
 -1       583 5.96937E-02 1.27197E-01-1.86838E-02 9.11668E-02-2.85120E-02-5.86140E-02
 -1       584 2.23877E-01 1.82075E-01-2.44731E-02 1.89604E-01 3.24398E-02 2.02266E-02
 -1       585 1.98273E-01 1.57413E-01 1.71378E-02 1.77497E-01 1.25387E-01 1.08631E-01
 -1       586 2.10168E-01 1.55238E-01 6.65357E-03 1.09007E-01-2.93162E-02-2.95306E-02
 -1       587 1.14189E-01 7.45178E-02 2.15873E-03 5.64598E-02 6.86194E-02-1.20536E-01
 -1       588 9.80805E-02 1.27442E-01 8.89834E-02 1.17748E-02-2.74445E-02-1.53263E-01
 -1       589 1.98106E-01 1.45110E-01 9.60392E-02-2.48801E-02 3.40574E-02-1.34025E-01
 -1       590 6.05087E-02 3.68884E-02 2.85786E-02 2.84841E-02 9.91951E-02-3.43006E-02
 -1       591 6.36928E-02 3.81191E-02 5.94695E-02-5.58615E-02 6.46961E-02-5.32325E-02
 -1       592 6.88456E-02 2.04357E-02 4.48126E-02-3.58909E-03 4.00247E-02-7.78708E-02
 -1       593-1.84901E-02-1.89017E-02 6.77998E-05 1.05389E-01-6.17641E-03-2.21685E-03
 -1       594 2.23839E-02 1.77359E-02 2.16699E-02 7.83821E-02 3.83693E-03-4.70848E-02
 -1       595 1.33158E-02-1.04020E-04-1.95240E-02 6.93415E-02 8.17656E-02-7.16454E-02
 -1       596-1.73141E-02 4.57135E-03 2.28761E-03 1.33061E-01-1.24747E-02 2.71943E-02
 -1       597-5.35364E-03 5.76493E-02 3.14684E-02 1.13067E-01 1.24389E-01 5.64156E-03
 -1       598-2.56634E-02-2.53764E-02-1.12560E-02 9.56939E-02-1.26529E-01 1.33921E-02
 -1       599-6.46611E-02-8.80448E-02-1.40228E-01 5.81983E-02-1.12198E-02-6.84991E-02
 -1       600-3.55951E-02 5.83363E-03-4.79093E-02 3.08489E-02-1.57457E-02-1.41569E-01
 -1       601 4.86036E-02 1.49277E-02 2.66022E-02-5.89609E-03 3.55495E-02-1.62603E-01
 -1       602 7.09048E-02 9.18951E-02 6.92334E-02 4.82397E-02 6.99176E-02-7.49468E-02
 -1       603 1.07980E-01 5.58364E-02 1.13379E-01 3.58531E-02 1.71249E-02-7.19329E-02
 -1       604-1.61848E-01-1.11716E-01-8.06054E-02 5.60205E-02-7.64602E-02-3.65792E-02
 -1       605-1.87318E-01-1.61428E-01-9.89382E-03 7.67385E-02-7.02715E-02 3.88669E-02
 -1       606-1.84495E-01-8.66470E-02 8.92227E-03 1.46888E-01-1.13292E-01 8.69797E-02
 -1       607-2.45657E-01-1.63784E-01-1.24235E-02 1.83426E-01-3.40660E-02-7.80457E-04
 -1       608-8.17610E-02-9.35698E-02 1.86646E-02 1.09475E-01 2.19811E-02-6.12926E-02
 -1       609-1.10875E-01-1.48070E-01-1.01474E-02 1.60887E-01 9.92117E-02-6.41970E-02
 -1       610-2.03974E-01-1.67701E-01-9.64856E-03 1.08643E-01 1.60442E-02-1.72258E-02
 -1       611-1.04252E-01-5.31002E-02-5.72897E-02 1.19531E-02-1.40361E-01-2.97539E-03
 -1       612-8.16355E-02-4.93486E-02-3.84747E-02-5.06371E-02-6.46954E-02-1.70504E-01
 -1       613-1.11869E-01-1.36275E-01-1.22132E-01-6.57173E-03 1.78854E-02-1.45982E-01
 -1       614-1.11690E-01-4.56887E-03 9.55277E-03 3.68413E-02-1.13345E-01-4.16695E-02
 -1       615-9.54997E-03-6.18038E-03 9.65909E-02 3.50703E-02-3.68318E-02-9.94268E-02
 -1       616-2.02113E-01-1.48043E-01-9.04455E-02-1.48855E-02-4.29566E-03-6.06583E-02
 -1       617-3.15724E-01-1.56102E-01 2.43973E-02 1.18904E-01 8.90565E-02-1.19438E-01
 -1       618-2.48361E-01-1.07479E-01 3.74609E-02 1.54706E-01 1.24066E-01-1.77829E-01
 -1       619-3.55336E-01-2.19905E-01-1.09359E-03 1.10821E-01 8.15723E-03 4.50967E-03
 -1       620-3.09707E-01-1.81337E-01-4.26424E-02 1.59896E-01 1.61254E-02-7.62585E-02
 -1       621-3.34212E-01-1.61295E-01 2.41938E-02 1.14423E-01-1.05796E-01 1.38228E-01
 -1       622-1.75736E-01-6.34518E-02 1.10455E-01 1.19553E-01-5.79488E-02 6.37791E-02
 -1       623-1.92226E-01-1.86090E-01-2.44402E-01-2.45683E-02-1.22204E-01 6.53763E-02
 -1       624-6.37081E-02-9.39613E-02-2.41623E-02-2.81298E-02 1.48711E-02-1.25514E-01
 -1       625-2.09721E-01-1.88041E-01-9.65687E-02-2.69733E-02 2.00985E-02-1.66419E-01
 -1       626-1.58013E-02-5.67796E-02-3.73246E-02 1.52447E-02-7.95640E-02 1.50847E-02
 -1       627-2.18010E-01-1.17143E-01-6.49843E-02 8.62718E-03-3.07950E-02-5.36863E-02
 -1       628-2.95560E-01-2.76937E-01-2.87673E-01-1.61339E-02-5.21533E-02-3.48120E-02
 -1       629-4.51257E-01-2.10602E-01 2.55339E-02 8.12848E-02 4.34298E-02-1.50196E-01
 -1       630-3.71205E-01-9.97777E-02-1.13761E-02 1.16186E-01 3.16925E-02-1.82124E-01
 -1       631-5.86874E-01-2.77029E-01 1.96996E-02 5.67687E-02 6.45840E-03 1.37188E-02
 -1       632-5.26209E-01-1.35395E-01 2.78994E-02 9.72935E-02-4.04503E-02-2.44076E-02
 -1       633-5.17147E-01-1.33421E-01 6.11137E-02 1.58883E-01-1.04025E-01 2.17380E-01
 -1       634-5.15136E-01-1.38555E-01-7.20844E-02 1.55095E-01-8.60976E-02 1.85031E-01
 -1       635-2.77202E-01-2.01576E-01-1.27407E-01-4.54422E-02-1.11543E-01 2.05206E-01
 -1       636-2.82244E-01-4.10642E-01-2.39675E-01-1.82473E-02 7.51381E-03-1.36851E-01
 -1       637-2.72156E-01-2.59257E-01-1.44169E-01-3.52879E-02-9.72577E-03-1.75299E-01
 -1       638-2.08077E-01-1.45318E-01-1.07527E-01 4.23528E-02-1.17172E-01 1.80919E-01
 -1       639-3.65907E-01-2.43456E-01-2.42446E-01-7.77622E-03-1.67978E-02-4.66122E-02
 -1       640-4.50913E-01-3.70848E-01-1.20641E-01 1.46789E-02 3.67737E-04-3.68107E-02
 -1       641 9.96212E-01 1.06365E+00 8.67203E-01 1.59210E-01 4.88495E-01 4.00888E-01
 -1       642 1.47168E-01 1.23662E-01 3.26135E-01-4.56334E-02 3.03987E-01 2.78030E-01
 -1       643 7.83473E-01 6.32766E-01 6.06185E-01-4.06854E-01-8.86261E-02 9.58504E-01
 -1       644 1.03313E-01 1.70711E-01 1.33128E-01-5.94354E-01-7.89145E-02 8.70564E-01
 -1       645-1.74154E-02-1.61547E-02-2.12818E-02-7.06409E-02 2.71362E-01 8.30747E-02
 -1       646 1.63108E-01 2.45347E-01 1.59753E-01-1.00053E-01 2.51856E-01 7.91192E-02
 -1       647 1.74695E-01 8.07722E-01 4.02875E-01 6.13947E-02 4.56081E-01 5.56913E-01
 -1       648-4.12794E-01 5.49441E-01 3.96365E-02-1.37900E-02 4.10280E-01 5.05098E-01
 -1       649 3.39993E-02 4.96439E-02 2.58506E-02 4.98515E-02-2.69983E-01 8.41419E-02
 -1       650 3.13718E-01 4.29201E-01 3.62940E-01 5.20953E-02-2.27933E-01 7.47291E-02
 -1       651-4.65841E-01-4.26212E-01-3.77659E-01 7.07660E-02-3.55277E-01 7.08927E-01
 -1       652-1.28938E+00-1.13808E+00-1.02196E+00 1.80088E-01-4.57311E-01 8.55536E-01
 -1       653 2.57230E-01 4.10209E-01 2.89281E-01-3.01724E-02-4.51445E-01 3.69387E-01
 -1       654-4.73184E-01-3.28395E-01-3.67167E-01 1.10047E-01-4.42498E-01 3.29071E-01
 -1       655-3.79900E-01-2.39445E-01-2.63208E-01-1.10450E-02 3.95504E-01 6.64493E-01
 -1       656-1.28880E+00-9.49829E-01-9.42463E-01-9.94544E-02 4.28290E-01 8.01244E-01
 -1       657 2.45300E-01 4.06936E-01 2.50440E-01-2.29525E-02 3.93960E-01 2.13561E-01
 -1       658-1.14389E-01-5.24716E-02-7.87227E-02-9.96538E-02 3.25635E-01 1.63575E-01
 -1       659-9.66448E-02-8.77802E-02-5.42070E-02 5.13050E-03 7.89636E-02 1.02402E-02
 -1       660-1.96753E-01-2.12141E-01-1.35364E-01 2.37746E-02 7.98048E-02 1.23791E-02
 -1       661-4.15675E-01-3.80458E-01-4.44694E-01 1.97591E-02-4.97357E-02 7.39564E-01
 -1       662-1.85868E+00-1.36268E+00-1.35619E+00 5.76905E-02-1.02947E-01 1.04531E+00
 -1       663 1.43984E+00 1.32166E+00 1.16259E+00-2.10678E-01-4.72808E-01 5.76132E-01
 -1       664-3.69390E-02-8.88587E-02 1.29113E-01 7.02974E-02-3.08551E-01 4.12483E-01
 -1       665-1.53933E-01 3.67710E-02-5.19863E-02 1.83760E-01-3.79292E-01 2.12021E-01
 -1       666 9.14165E-02 4.76622E-01 2.34979E-01 2.38034E-01-3.50682E-01 2.02239E-01
 -1       667-2.69822E-02-5.30966E-02-3.37132E-02-3.32182E-02-8.64558E-02 8.51456E-03
 -1       668 1.37588E-01 1.38081E-01 1.45435E-01 1.43097E-02-5.68793E-02 3.64484E-02
 -1       669-7.64653E-01-8.25665E-01-6.69524E-01 1.22028E-01-4.90700E-01 4.02698E-01
 -1       670 2.12721E-03 3.88791E-02-7.91503E-02-2.87717E-02-3.34538E-01 3.06145E-01
 -1       671 5.26728E-01 4.04426E-01 4.03138E-01 3.47107E-01 8.57580E-02 9.24902E-01
 -1       672-1.34357E-01-5.74387E-02-6.09352E-02 5.27143E-01 7.73093E-02 8.42437E-01
 -1       673 1.60618E-01 2.54811E-01 1.74895E-01 6.85499E-02-1.14085E-01 1.12356E-02
 -1       674 6.99054E-02 4.93297E-02 1.26562E-01 1.59654E-02-6.58198E-02 8.96853E-02
 -1       675-6.47002E-01-5.46748E-01-6.20988E-01 3.15766E-02-2.40695E-01 7.55882E-01
 -1       676-1.89128E+00-1.44007E+00-1.40250E+00 1.36064E-01-2.79324E-01 9.20795E-01
 -1       677 3.53152E-01 5.22878E-01 3.68808E-01 2.43764E-03-3.04168E-01 9.22698E-02
 -1       678 3.47333E-02 7.84814E-04 9.64393E-02 1.30000E-02-1.76299E-01 1.26362E-01
 -1       679-2.26182E-01-1.92876E-01-2.31147E-01 3.14428E-02-3.34930E-01 2.12606E-01
 -1       680-8.22009E-01-9.75332E-01-7.56681E-01 1.19546E-01-4.46507E-01 2.38672E-01
 -1       681-1.22774E-01-1.93715E-01-1.33242E-01 5.01676E-02 1.20892E-01 1.19060E-02
 -1       682 1.76918E-01 1.49298E-01 9.68982E-02-1.44303E-02 9.74937E-02 4.68816E-02
 -1       683-3.70712E-01-1.98842E-01-2.44674E-01-9.33535E-02 4.70495E-01 3.92878E-01
 -1       684-2.70192E-03 3.29883E-01 1.28170E-01-5.16246E-02 4.17718E-01 3.57925E-01
 -1       685 2.70118E-01 4.18976E-01 3.79459E-01 9.15749E-02 3.47674E-01 6.62742E-01
 -1       686-8.69882E-01-4.10478E-01-5.52774E-01 1.40231E-02 3.71027E-01 6.95626E-01
 -1       687-5.50891E-01-4.86768E-01-5.97088E-01-1.56706E-02 7.57758E-02 7.83089E-01
 -1       688-1.93706E+00-1.42065E+00-1.41359E+00-6.15863E-02 1.06324E-01 1.07960E+00
 -1       689-4.89193E-01-1.65571E-01-2.87479E-01 1.23670E-01 2.52790E-01 8.22909E-01
 -1       690-3.87960E-01-9.78020E-02-1.64711E-01-3.09939E-02-4.17596E-01 7.11123E-01
 -1       691-4.76669E-01-5.79043E-01-3.28947E-01 1.33871E-01-3.84810E-01 4.91182E-01
 -1       692 1.24261E-01 1.24778E-01 1.67062E-01 1.84659E-03 2.25379E-01 7.93213E-02
 -1       693 6.91646E-01 9.57505E-01 6.94293E-01 6.78719E-02 3.89506E-01 2.08203E-01
 -1       694-2.75233E-01-2.74468E-01-3.46283E-01-2.86415E-03 3.79972E-01 4.65064E-01
 -1       695 1.06714E-01-1.49420E-01-4.06457E-02-1.78300E-01 2.57687E-01 9.09582E-01
 -1       696 4.84888E-01 1.79850E-01 1.32349E-01 4.00785E-02-2.91105E-01 8.27188E-01
 -1       697-1.23104E+00-1.23844E+00-1.03965E+00-1.99648E-01 5.28778E-01 6.44333E-01
 -1       698 1.72681E-01 4.59873E-01 2.46829E-01 2.67693E-01 2.33353E-01 7.56027E-01
 -1       699 3.99552E-01 5.30188E-01 3.91421E-01 3.44498E-02 2.90494E-01 8.81217E-02
 -1       700-9.67549E-02 5.27423E-02-2.26890E-02-3.34450E-02-2.30869E-01 7.68499E-01
 -1       701-6.20783E-01-8.29189E-01-6.42461E-01-3.34027E-01 2.33810E-01 8.60629E-01
 -1       702 3.29063E-01 6.46751E-01 3.82193E-01-2.10168E-01-4.15903E-01 7.33506E-01
 -1       703 4.37089E-01 2.60630E-01 2.04361E-01-8.01175E-02-3.98967E-01 4.16829E-01
 -1       704 1.87483E-01 1.70729E-01 3.05393E-01-1.54502E-02 2.48579E-01 2.23378E-01
 -1       705-1.07086E+00-4.01598E-01-1.97696E-02 7.60552E-03 6.78011E-03-2.36145E-01
 -1       706-3.41122E-01-3.45155E-02-8.95550E-03-1.76332E-02-8.68626E-03-1.38799E-01
 -1       707-1.03928E+00-2.51294E-01-5.25498E-02-7.70918E-03-1.72888E-02-1.91846E-01
 -1       708-7.43680E-01-3.17203E-01 2.01171E-02 8.55089E-03 6.02919E-03-9.18138E-02
 -1       709-1.51131E+00-5.19575E-01-9.82418E-02-1.65757E-02 6.98232E-02 1.98222E-01
 -1       710-5.65767E-01-1.62527E-01-2.89828E-02 7.99666E-03-3.71150E-03 3.31629E-01
 -1       711-3.53821E-01-2.52015E-01-1.49132E-01-2.22185E-02-1.05341E-02-1.57377E-01
 -1       712-4.25239E-01-4.07771E-01-1.38379E-01 5.67425E-02-1.93017E-03-5.85643E-02
 -1       713-2.37692E-01-1.00092E-02 1.25687E-02-6.88556E-02-2.05780E-02-9.07135E-02
 -1       714-1.01033E+00-4.26774E-01-4.56004E-02-2.04468E-01-6.30791E-02-1.72781E-01
 -1       715-2.60676E-01-5.13716E-02-6.55543E-03-6.48336E-02-3.45221E-02-1.14177E-01
 -1       716-2.57355E-01-2.94767E-01-1.59584E-01 1.75026E-02-2.16807E-02-1.21564E-01
 -1       717-4.00799E-01-2.11301E-01-9.08374E-02-1.26084E-02 2.65919E-02-3.16862E-02
 -1       718-3.20084E-01-2.32768E-01-7.27235E-02-2.49442E-02 3.05807E-02-6.10381E-02
 -1       719-2.43771E-01-1.18196E-01 1.44881E-02-1.44848E-01-3.69759E-02-1.11899E-01
 -1       720-4.20105E-01-2.47324E-01-2.12657E-02-1.81739E-01-8.41947E-02-1.14100E-01
 -1       721-1.90036E-01-5.08727E-02-1.13310E-01-1.31839E-01-7.31588E-02-1.93544E-01
 -1       722-1.80030E-01-8.98141E-02-8.60370E-02-1.91746E-02 1.45455E-01 1.30190E-01
 -1       723-2.56867E-01-1.54097E-01-7.40482E-02-2.65163E-02 1.93238E-02-4.30092E-02
 -1       724-2.04744E-01-1.49683E-01-4.34453E-02-2.30178E-02 1.90019E-02-1.08207E-01
 -1       725-7.70648E-02-4.46796E-02-1.05469E-02-7.17417E-02-5.58304E-02-5.68349E-02
 -1       726-2.50858E-01-1.95632E-01-4.11698E-02-1.55926E-01-1.49095E-02-2.48177E-02
 -1       727-2.52296E-01-2.24922E-01 3.91955E-02-1.66221E-01 1.29049E-02 1.02154E-03
 -1       728-1.74869E-01-1.25345E-01-4.40690E-02-9.68541E-02-1.90559E-02-1.40894E-01
 -1       729-1.71374E-02-3.32637E-02-8.35168E-03-8.00525E-02-5.65825E-03-1.98830E-02
 -1       730 3.56190E-03-1.15106E-02-1.58544E-03-2.01229E-01-6.36101E-03-2.30789E-02
 -1       731-1.83321E-02-3.24441E-02-2.29224E-02-7.13467E-02-3.62035E-02-3.69343E-02
 -1       732 6.42927E-03 1.74442E-03-2.12615E-02-1.12929E-01 3.32189E-02 3.39026E-03
 -1       733 3.53373E-01 2.47326E-01-1.94319E-02-2.48741E-01-8.06631E-02 7.04642E-02
 -1       734 2.45566E-01 1.75583E-01-1.98028E-02-1.64137E-01 1.46160E-02 3.58638E-02
 -1       735 2.63220E-01 2.22577E-01 3.50317E-02-1.66994E-01 1.43355E-02-1.86422E-02
 -1       736 5.55921E-02 3.14024E-02-3.56108E-02-4.38828E-02-7.75166E-02 2.75495E-02
 -1       737 2.02647E-01 1.82127E-01 9.09900E-02-5.50153E-02-3.14485E-02-4.08370E-03
 -1       738 1.77117E-01 1.27093E-01 2.40675E-02-2.92889E-02-3.11520E-02-7.97299E-02
 -1       739 1.16094E-01 6.54178E-02 3.72844E-02-8.53880E-02 4.76646E-02-7.01861E-02
 -1       740 6.65974E-01 4.37844E-01 5.21185E-03-2.34164E-01 1.42528E-01-1.76509E-01
 -1       741 1.66376E-01 7.41091E-02-2.48923E-02-1.05495E-01 5.07615E-02-7.91918E-02
 -1       742 1.56003E-01 1.13794E-01 6.57649E-02 1.60148E-02 1.77816E-02-1.46166E-01
 -1       743 2.44363E-01 2.38876E-01 1.39213E-01-3.80611E-02-3.79723E-02 1.84712E-02
 -1       744 3.53869E-01 2.62137E-01 5.79056E-02-4.55683E-02-1.76540E-02-3.89353E-02
 -1       745 2.17539E-01 6.19129E-03-4.42711E-02-4.75049E-02 4.97669E-02-1.41900E-01
 -1       746 9.88631E-01 3.99478E-01 1.90216E-03-1.38967E-01 4.29376E-02-2.10100E-01
 -1       747 3.63287E-01 7.08169E-02-1.66248E-02-7.45305E-02 2.89340E-02-1.21289E-01
 -1       748 3.90087E-01 3.13908E-01 1.51651E-01 2.26229E-03 7.56409E-03-1.43492E-01
 -1       749 3.01979E-01 3.07659E-01 1.57237E-01-4.77665E-02-1.95105E-02 2.19620E-02
 -1       750 4.63378E-01 4.09872E-01 1.28739E-01-2.38385E-02 2.98457E-02 3.88490E-03
 -1       751 2.25438E-01-9.33124E-03 4.18280E-03-1.11309E-03 3.97027E-03-1.11979E-01
 -1       752 1.11458E+00 3.94415E-01 7.38196E-03-3.15572E-02 1.61890E-02-1.70846E-01
 -1       753 3.45779E-01 4.56507E-02 5.22208E-03-1.29364E-02 3.50201E-04-1.56972E-01
 -1       754 2.17721E-01 2.77554E-01 2.29684E-01 8.98038E-03-1.04118E-02-1.15553E-01
 -1       755 3.58514E-01 1.98317E-01 2.15584E-02-2.60074E-02-8.00288E-03 4.20066E-02
 -1       756 3.41119E-01 2.86031E-01 1.01405E-01 4.57747E-03-6.35104E-03-6.58553E-02
 -1       757 2.54672E-01-6.35487E-04-3.06316E-02 7.68040E-02-4.64941E-02-1.32939E-01
 -1       758 8.18991E-01 3.64189E-01 3.58180E-02 1.64414E-01-3.15723E-02-1.51808E-01
 -1       759 3.63503E-01 1.85052E-01-1.14874E-01 3.39560E-02-6.88323E-02-7.90090E-02
 -1       760 6.19298E-01 2.83891E-01-1.17409E-01 1.36006E-01 2.64117E-02 8.03967E-02
 -1       761 5.48691E-01 1.25298E-01 1.34431E-02 1.13603E-01 1.11174E-01 2.70601E-01
 -1       762 3.18640E-02 1.29178E-01 7.58323E-02-2.05579E-03-1.16636E-02-9.79675E-02
 -1       763 2.43962E-01 1.29775E-01-1.59459E-02 1.15365E-01-8.27284E-02-9.87450E-02
 -1       764 7.11797E-01 3.70119E-01 2.96445E-02 2.47575E-01-8.08883E-02-1.17293E-01
 -1       765 5.76521E-01 3.60267E-01-2.96592E-03 1.74563E-01-3.39190E-02-1.36324E-02
 -1       766 4.04922E-01 3.51346E-01 2.23378E-02 1.60447E-01-1.82136E-03 6.73504E-02
 -1       767 2.66048E-01 1.65705E-01 3.23691E-02 1.09812E-01 1.52818E-01 2.01102E-01
 -1       768 5.08394E-02 6.50346E-02 2.99984E-04 8.20470E-02-5.00307E-02-3.10862E-02
 -1       769 2.67862E-01 2.59360E-01-3.04634E-02 2.07812E-01-4.91165E-02-7.03454E-02
 -1       770 1.94943E-01 1.54574E-01-2.68641E-02 1.31776E-01-1.13455E-01-7.21708E-02
 -1       771 1.21280E-01 8.89351E-02 2.36100E-02-1.57835E-03 2.60682E-02-1.08087E-01
 -1       772 1.25436E-01 9.20846E-02 2.98099E-02 8.29468E-02-4.96283E-02-1.41169E-01
 -1       773-1.37638E-02-5.29017E-03-1.26955E-02 6.63991E-02-1.00029E-02-2.60515E-02
 -1       774-4.53758E-02-2.73467E-02-6.59326E-03 1.28324E-01-8.43850E-03-4.72504E-02
 -1       775-2.95900E-02 3.05500E-02 3.13457E-02 2.38170E-01-8.03914E-02 1.26216E-02
 -1       776 2.13410E-03-2.58828E-03-1.90346E-02 1.51759E-01-3.64978E-02 5.22993E-02
 -1       777-4.32078E-02 4.51251E-03 1.84528E-02 1.97531E-02-2.87145E-02-5.88433E-02
 -1       778-7.96364E-02-5.81373E-02 2.14969E-02 9.02376E-02-4.97830E-03-5.71734E-02
 -1       779-2.30468E-01-1.90458E-01 1.81900E-02 1.72740E-01 9.18942E-02-6.06952E-02
 -1       780-1.54124E-01-9.05839E-02 6.28406E-02 1.02098E-01 8.70393E-02-3.66982E-02
 -1       781-2.77540E-01-2.09620E-01 2.18853E-02 1.64181E-01 6.76741E-02-2.05282E-02
 -1       782-1.47860E-01-1.00740E-01-9.25060E-02 5.44229E-04 4.20793E-02-1.12788E-01
 -1       783-2.64863E-01-8.33873E-02 3.34790E-03 1.22102E-01 3.05122E-02-9.08703E-02
 -1       784-7.00587E-01-4.17652E-01-5.19508E-02 2.44309E-01 7.68814E-02-1.52400E-01
 -1       785-5.00975E-01-2.97233E-01 7.05282E-03 1.70826E-01-4.13085E-03 4.64822E-03
 -1       786-7.93898E-01-4.60758E-01-6.43183E-02 3.21798E-01-1.35380E-01 1.31414E-01
 -1       787-4.21514E-01-2.18930E-01-7.31300E-02 1.23390E-01-1.62823E-01 1.80192E-01
 -1       788-2.02970E-01-1.66362E-01-3.34281E-02 3.77910E-02 1.44844E-02-1.48258E-01
 -1       789-2.98191E-01-5.73981E-02 2.84125E-02 9.56369E-02 3.11385E-02-1.16851E-01
 -1       790-8.67551E-01-3.96446E-01-1.28914E-02 1.25210E-01 2.25086E-02-1.99407E-01
 -1       791-7.06499E-01-2.78557E-01 1.92631E-01 9.01178E-02 6.62808E-03-5.10063E-02
 -1       792-1.13250E+00-4.05552E-01 3.23746E-03 2.55488E-01-4.44881E-02 1.46758E-01
 -1       793-3.87481E-01-8.01903E-02 6.51460E-02 7.43056E-02-6.76401E-02 2.37140E-01
 -1       794-3.19949E-01-3.35993E-01-1.68443E-01-8.57927E-03-3.05615E-02-1.34522E-01
 -1       795-2.51213E-01-2.65183E-01-1.59726E-01 3.87795E-02-4.78212E-02 4.35193E-02
 -1       796-1.94780E-01-2.62606E-01-5.34754E-02 2.97855E-04 4.46739E-03-6.26613E-02
 -1       797-6.57265E-03-5.86775E-02-1.84505E-01 4.40997E-02 4.23059E-01 3.18315E-01
 -1       798-1.62112E-02-1.07495E-01 2.32377E-02 8.96274E-03 2.13441E-01 6.45427E-02
 -1       799 2.52519E-01 2.68989E-01 2.81203E-01 6.66188E-02 4.11389E-01 4.89025E-01
 -1       800-1.77061E-01-2.28089E-01-1.89493E-01-4.41261E-02-2.16936E-01 6.24654E-02
 -1       801 1.83982E-01-4.21204E-01-8.36105E-02-1.83318E-01-4.27553E-01 3.57157E-01
 -1       802 3.43645E-01 2.84813E-01 1.30723E-01 1.38464E-01 3.66331E-01 5.97019E-01
 -1       803-4.64515E-02-3.17563E-03-5.06995E-02 3.61621E-03 2.69050E-01 1.97962E-01
 -1       804 3.56632E-02-1.03486E-01-2.56701E-02 4.59955E-02 3.96440E-01 2.12771E-01
 -1       805-5.17244E-01-6.64578E-01-4.97547E-01-6.30661E-02 4.33655E-01 2.31802E-01
 -1       806 1.40590E+00 1.30119E+00 1.13968E+00-1.89223E-01-4.81295E-01 5.78283E-01
 -1       807-1.57921E-01-1.60310E-01-3.94236E-03 6.20665E-02-3.65179E-01 4.57487E-01
 -1       808-2.84416E-01-5.58557E-01-3.53197E-01-1.45201E-03-3.31701E-01 1.76969E-01
 -1       809-4.42503E-01-6.24528E-01-4.49220E-01 3.88137E-02-3.71970E-01 1.55759E-01
 -1       810 2.04364E-01 2.74032E-01 2.25275E-01-2.77998E-02-3.63791E-01 1.84203E-01
 -1       811-1.99683E-01-2.93845E-01-2.07775E-01-4.29623E-02-1.79188E-01-2.39871E-02
 -1       812-9.96268E-02-9.90488E-02-1.14228E-01-3.08880E-02-3.81043E-02-2.28376E-02
 -1       813-1.27402E-02 1.88629E-03-2.46848E-02-9.99729E-03-1.08239E-01-3.63522E-03
 -1       814 1.63827E-02 1.05578E-01 6.31852E-02 9.33754E-03-4.32015E-01 3.08146E-01
 -1       815-5.47631E-02-1.55695E-01-7.14375E-02 1.10957E-02-3.51258E-01 2.65332E-01
 -1       816 2.46504E-01 3.82538E-01 2.03326E-01-5.71610E-02-4.49613E-01 3.43231E-01
 -1       817 1.47018E-01-1.13198E-02-2.17758E-01-6.27765E-02 1.18308E-01 7.64489E-01
 -1       818-8.36918E-01-6.84278E-01-5.64859E-01-1.79072E-01 1.07490E-01 8.88345E-01
 -1       819 7.64804E-02 1.05615E-01 7.66621E-02 7.41404E-02-4.06038E-02-3.63022E-02
 -1       820 5.19287E-02 4.71763E-02-5.59651E-02-4.20478E-02-1.66960E-01 6.10091E-01
 -1       821 3.22739E-01 4.96167E-01 3.44759E-01-7.55039E-03-3.88250E-01 6.42397E-02
 -1       822 2.81013E-01 4.43009E-01 3.04813E-01 1.42159E-02-2.57815E-01 4.88946E-02
 -1       823 8.24693E-02 6.73107E-02 1.46724E-01 1.27773E-02-2.38010E-01 8.48702E-02
 -1       824 1.40541E-01 2.80855E-01 9.74737E-02-2.00899E-02-2.85283E-01 1.61374E-01
 -1       825-8.22009E-01-9.75332E-01-7.56681E-01 1.19546E-01-4.46507E-01 2.38672E-01
 -1       826-1.63154E-01-1.55524E-01-1.36562E-01 4.68352E-02 4.65246E-02 4.09084E-03
 -1       827 7.78238E-02 1.10126E-02 1.12500E-02 7.42975E-03 1.25022E-01 1.86430E-02
 -1       828-9.51604E-02-7.29532E-02-9.08957E-02 8.90916E-03 5.06409E-02 3.61223E-03
 -1       829 1.45948E-01 9.89188E-02 2.25567E-01-3.10830E-02 4.11787E-01 3.07613E-01
 -1       830 5.30862E-01 2.23931E-01 1.34372E-01-2.71808E-02 1.19573E-01 6.84944E-01
 -1       831-1.54121E+00-1.23070E+00-1.16698E+00-1.72998E-01 2.90832E-01 8.99526E-01
 -1       832 1.60422E-03 8.38917E-02 2.53120E-01-5.80807E-02 1.96508E-01 5.94275E-01
 -1       833-5.13997E-01-8.13678E-01-4.04146E-01 1.97747E-01-4.18385E-01 6.41884E-01
 -1       834-5.61981E-01-3.43150E-01-3.16098E-01 8.27573E-02-4.00427E-01 5.29314E-01
 -1       835 1.99660E-01 1.57236E-01 3.09916E-01 2.37028E-02-3.12849E-01 4.35983E-01
 -1       836 7.31474E-03-7.29148E-02 7.25539E-02-4.38645E-03 1.33680E-01 3.38286E-02
 -1       837-1.33850E-02-7.79275E-02 5.48831E-02-1.44550E-02 1.92821E-01 7.49211E-02
 -1       838 6.91646E-01 9.57505E-01 6.94293E-01 6.78719E-02 3.89506E-01 2.08203E-01
 -1       839 2.28028E-01 2.15335E-01 1.53044E-01 1.19691E-01 3.83310E-01 2.20356E-01
 -1       840 4.92848E-01 3.06069E-01 3.95424E-01 6.06269E-02 4.17208E-01 5.21529E-01
 -1       841 3.00304E-01 3.87779E-01 8.30600E-02 1.10249E-01 3.36919E-01 5.17144E-01
 -1       842 4.31925E-01 4.04754E-01 3.05904E-01 1.71534E-01 2.24763E-01 7.50667E-01
 -1       843 4.97670E-01 6.13980E-01 4.60711E-01-1.84899E-01-1.90396E-01 7.14067E-01
 -1       844-1.87221E-01-7.14608E-02-9.42032E-02-2.96488E-02 4.51869E-01 5.72412E-01
 -1       845 1.86216E+00 1.41244E+00 1.37861E+00 1.38292E-01 2.60588E-01 9.14379E-01
 -1       846 3.99552E-01 5.30188E-01 3.91421E-01 3.44498E-02 2.90494E-01 8.81217E-02
 -1       847-5.01059E-01-2.80971E-01-3.29064E-01-2.29436E-02-2.04943E-01 8.23194E-01
 -1       848-1.07784E-01-1.14562E-01-1.96183E-01-1.01295E-02 2.09854E-01 7.14066E-01
 -1       849 5.04102E-01 4.85492E-01 4.51191E-01-4.44567E-02-4.32130E-01 7.79909E-01
 -1       850 2.42925E-01 2.94638E-01 1.64212E-01-6.49498E-02-3.72897E-01 5.25099E-01
 -1       851-2.20700E-02-9.58552E-02 9.89289E-04 6.32184E-03 1.86603E-01 1.82687E-01
 -1       852-2.22685E-01 4.09463E-03-2.95056E-02-1.72016E-02-5.80038E-03-1.07434E-01
 -1       853-9.15081E-01-4.13493E-01 3.11378E-02 3.35700E-03 1.03582E-02 5.60166E-02
 -1       854-9.20640E-01-2.99537E-01-5.77596E-02-3.49915E-02-1.00568E-01 5.05000E-02
 -1       855-7.84335E-01-2.11403E-01-4.78228E-02 2.32003E-02-6.93960E-02-5.83340E-02
 -1       856-4.86186E-01-4.96690E-02 1.15736E-02 7.57559E-03 8.96844E-03 3.30313E-01
 -1       857-1.32691E+00-2.79698E-01 1.80555E-02-1.78664E-02-2.44174E-02 1.80544E-01
 -1       858-9.10409E-01-5.86200E-01-1.34329E-01-9.11845E-05 1.10639E-01 8.69718E-02
 -1       859-4.57681E-01-2.91708E-01-1.18441E-01-1.68505E-02-5.28185E-03 2.75883E-01
 -1       860-4.90505E-01-4.43245E-01-1.16239E-02 5.59679E-02 3.49890E-02-1.65895E-01
 -1       861-3.78717E-01-4.88038E-01-2.32497E-01 4.48922E-02-2.60601E-02-1.29474E-01
 -1       862-4.81953E-01-4.35340E-01-1.49136E-01 4.21063E-03-4.15276E-02-1.98761E-01
 -1       863-3.09022E-01-1.33350E-01-1.05695E-01-1.90555E-02-1.45254E-02 2.70871E-01
 -1       864-5.22053E-01-2.07712E-01-7.02567E-02 1.35908E-02 1.60860E-02 1.31867E-01
 -1       865-4.01754E-01-4.15456E-01-1.66438E-01 9.03974E-03 4.92792E-02 2.52674E-02
 -1       866-5.81329E-01-3.83672E-01-2.11001E-01-2.95643E-02-6.34788E-02 6.60129E-03
 -1       867-5.08287E-01-3.41864E-01-2.32370E-01-3.42094E-02 2.13209E-03-2.43229E-02
 -1       868-1.07821E+00-4.12379E-01-1.19010E-02-2.39128E-01 6.94703E-02 1.84686E-01
 -1       869-5.23025E-01-1.63213E-01 3.99198E-02-1.50589E-01 1.00316E-01 2.28530E-01
 -1       870-1.07603E+00-2.93561E-01-3.32148E-02-2.99658E-01 7.00749E-02 2.60297E-01
 -1       871-3.61107E-01-6.12262E-02 4.77282E-02-1.25138E-01 9.74655E-02 2.14749E-01
 -1       872-6.40158E-01-2.47097E-01 1.89096E-01-1.24539E-01 1.13801E-02 5.96387E-02
 -1       873-6.44777E-01-3.01992E-01 1.00205E-01-9.08300E-02-1.39328E-02-1.50472E-02
 -1       874-7.07507E-01-2.57885E-01-2.77614E-02-1.47841E-01 4.17541E-02-7.81755E-02
 -1       875-8.56213E-01-2.80309E-01-3.98136E-02-1.70176E-01 1.42275E-02-6.25137E-02
 -1       876-7.78865E-01-2.18357E-01-8.27564E-03-2.30941E-01-9.18725E-03-1.71564E-01
 -1       877-5.10888E-01-2.69043E-01-1.40386E-01-4.20398E-02 4.47181E-02 9.85790E-02
 -1       878-3.11558E-01-1.69859E-01-1.67364E-01-4.15356E-02 1.34089E-01 2.08187E-01
 -1       879-5.72960E-01-4.35686E-01-2.06789E-01 8.39330E-03 7.42738E-02-2.02211E-01
 -1       880-3.29985E-01-2.17881E-01-1.54242E-01-2.48215E-02 1.81079E-02-1.52922E-01
 -1       881-3.71989E-01-3.40442E-01 3.15622E-02 1.76175E-02 1.16147E-02-1.38107E-01
 -1       882-2.40612E-01-1.25663E-01-8.99696E-02-4.18719E-02 9.06790E-02 1.73571E-01
 -1       883-6.45701E-01-4.32293E-01-2.38450E-01-7.81979E-02 6.59322E-02 1.79376E-01
 -1       884-2.63440E-01-2.85460E-01-1.65458E-01-2.34717E-02 3.18150E-02 3.63672E-02
 -1       885-2.99100E-01-3.32341E-01-6.14200E-02 5.54946E-03 5.31306E-03-5.25768E-02
 -1       886-5.23139E-01-3.65596E-01 1.78443E-02-2.04500E-01-7.29490E-04 4.28944E-02
 -1       887-3.07668E-01-1.21388E-01 9.26937E-03-1.64943E-01 1.40628E-01 2.15677E-01
 -1       888-8.18731E-01-4.73816E-01-4.61231E-02-3.42262E-01 1.20519E-01 1.23571E-01
 -1       889-6.46043E-01-3.52128E-01-6.47526E-03-3.87401E-01 4.82559E-02 5.13751E-02
 -1       890-3.14867E-01-1.06518E-01 9.63163E-03-1.22751E-01 1.34419E-01 1.82190E-01
 -1       891-3.80223E-01-2.11505E-01 3.98539E-02-1.07809E-01-3.65623E-03-2.40006E-02
 -1       892-2.80012E-01-2.09523E-01 5.80204E-03-1.41212E-01-1.15066E-02-5.83271E-02
 -1       893-4.81412E-01-2.84462E-01 1.84486E-02-2.06240E-01 2.92648E-02-3.16524E-02
 -1       894-4.32963E-01-2.17197E-01-5.53548E-02-2.26221E-01-9.09288E-02-1.56092E-01
 -1       895-2.77368E-01-1.71567E-01-6.38879E-02-1.11428E-01 8.93916E-02 3.57482E-02
 -1       896-2.57178E-01-1.16447E-01-3.89523E-02-6.16071E-02 1.50151E-01 1.06885E-01
 -1       897-3.41558E-01-2.24736E-01-2.66500E-01-1.01781E-02-1.99865E-02-2.25497E-01
 -1       898-2.14979E-01-8.22996E-02-7.55070E-02-3.02915E-02 1.87493E-02-1.63949E-01
 -1       899-3.20626E-01-3.08727E-01-1.66655E-01-3.76707E-03-1.29487E-02-1.01199E-01
 -1       900-2.13399E-01-1.23706E-01-1.21114E-03 1.84999E-02 4.16429E-02-1.18341E-01
 -1       901-3.48716E-01-2.37038E-01-5.30164E-02-7.14749E-02 1.07415E-01 5.61824E-02
 -1       902-8.93980E-02-1.89751E-01-1.44063E-01-1.60230E-02 8.48053E-03 4.92992E-03
 -1       903-1.54996E-01-1.61333E-01-1.13940E-01 8.63020E-03 2.52235E-02-3.93023E-02
 -1       904-2.72249E-01-1.98874E-01 1.09126E-02-2.16897E-01-3.09410E-02-4.38539E-02
 -1       905-7.92602E-02-5.57647E-02 5.27254E-03-8.19581E-02-4.75028E-02-4.26942E-02
 -1       906-9.63297E-02-1.04783E-01 1.40116E-02-1.45479E-01-6.32728E-02-8.47050E-02
 -1       907-2.88831E-01-2.28225E-01-1.69003E-02-1.63494E-01-5.04215E-02-5.79901E-02
 -1       908-1.49704E-01-1.02668E-01 6.99614E-02-1.49070E-01 1.11306E-01 1.09298E-01
 -1       909-3.85114E-01-2.78693E-01 9.72367E-04-2.65288E-01 6.93814E-02 8.36618E-02
 -1       910-3.99591E-01-3.18188E-01 6.55912E-04-2.95471E-01 5.53723E-02-1.00127E-02
 -1       911-2.08968E-01-1.36011E-01 8.05361E-02-1.66536E-01 6.90657E-02 4.13828E-02
 -1       912-2.04197E-01-1.77272E-01-2.03296E-02-2.40058E-01-1.24140E-01-3.18120E-02
 -1       913-2.03264E-01-1.87193E-01-5.72630E-02-1.02987E-01 6.14358E-02-2.35616E-02
 -1       914-1.41169E-01-1.02108E-01-4.36192E-02-7.27660E-02 7.30801E-02-2.00870E-04
 -1       915-1.67095E-01-1.81520E-01-1.53765E-01-3.72819E-02-4.56053E-02-1.95031E-01
 -1       916-1.18532E-01-7.75066E-02-5.38461E-02-5.30513E-02-4.08226E-02-9.34769E-02
 -1       917-1.70791E-01-6.37650E-02 2.51173E-02-6.12448E-03 4.29275E-02-1.01692E-01
 -1       918-3.88530E-01-2.37989E-01-1.21645E-01-3.46167E-03 5.05939E-02-2.11376E-01
 -1       919-1.05242E-01-5.82300E-02-5.82903E-02-4.43166E-02 1.05118E-01 2.40361E-02
 -1       920-8.48828E-02-7.52065E-02-2.45151E-02-5.09103E-02 6.97652E-02-1.28359E-02
 -1       921-1.53864E-01-1.11685E-01-2.34567E-02-3.97574E-02-2.76148E-02-6.14387E-02
 -1       922-6.39435E-02-5.34989E-02-3.59019E-02-5.22399E-03 3.66678E-02-2.04078E-02
 -1       923-1.45321E-01-8.60326E-02-4.56177E-03-4.96608E-02 3.26867E-02-4.75036E-02
 -1       924 7.49355E-02 5.55238E-02 1.35274E-02-9.87885E-02-7.96805E-02-1.43144E-04
 -1       925-7.26063E-02-3.78338E-02 5.12557E-03-6.29179E-02-1.12486E-01 3.45067E-02
 -1       926 7.83177E-02-4.70756E-02 3.84456E-02-1.51529E-01 6.82903E-02 5.68645E-02
 -1       927 2.11210E-02 6.88558E-02 3.86314E-02-2.27630E-01 9.09518E-03-6.09257E-02
 -1       928-2.04393E-02-5.93883E-02-4.07881E-02-2.06489E-01-7.16632E-02-1.52315E-02
 -1       929 1.31771E-02-1.06445E-02 7.49398E-02-9.23012E-02-5.13442E-02 4.06487E-02
 -1       930-5.59111E-02-4.24981E-03-3.67846E-02-1.68573E-01-7.67604E-02-7.60815E-02
 -1       931-5.65120E-02-3.74998E-02 1.85838E-03-1.00480E-01 6.72666E-02-1.51864E-02
 -1       932-2.73092E-02 2.69051E-02 4.65702E-03-9.29364E-02 9.72419E-03-4.29530E-02
 -1       933-1.88254E-02-2.12759E-02-3.87069E-02-3.58901E-02-1.23312E-02 5.31045E-03
 -1       934 4.77193E-02-4.60936E-02-2.25336E-02-1.05613E-01-7.02611E-02-1.98653E-01
 -1       935 5.70534E-02 1.94738E-02 1.73079E-02-5.15217E-02-7.35370E-02-1.06621E-01
 -1       936-5.56010E-02-4.63180E-02-9.12990E-02-6.32386E-02 2.17692E-02-8.69905E-02
 -1       937-8.07646E-02-3.53179E-02 7.01330E-03-8.33734E-02 5.74029E-02-2.02616E-01
 -1       938-4.16625E-02-1.27080E-01-2.06188E-01-9.39275E-02 4.84217E-02-2.26259E-02
 -1       939 2.06968E-02 3.43566E-02 4.75531E-02-7.62113E-02 3.91095E-02-6.07573E-02
 -1       940 2.27443E-01 1.86369E-01-4.37062E-02-2.45139E-01 9.91429E-02-1.75275E-02
 -1       941-1.92434E-02-3.72172E-02-6.64089E-02-5.39757E-02-5.40573E-02-1.02441E-01
 -1       942 4.06934E-02 1.79236E-02 6.59797E-02-2.07382E-02-2.59064E-02-5.10567E-02
 -1       943-6.33022E-02-4.79060E-02-3.58943E-02-4.06399E-02 2.68395E-02-9.49903E-03
 -1       944-2.31532E-02-4.53830E-03-2.09326E-02-8.19398E-02 4.38761E-02-7.30424E-02
 -1       945 7.24475E-02 7.17287E-02 5.33709E-03-7.94544E-02 3.39300E-02-3.26521E-02
 -1       946 2.33672E-01 1.37278E-01-3.08992E-02-1.53345E-01 7.64297E-02-2.12288E-02
 -1       947 7.98305E-02 9.56242E-02-4.30731E-02-1.46623E-01 8.84195E-02-7.97336E-02
 -1       948 3.30608E-02 4.00166E-02-8.18953E-03-6.67612E-02 1.41502E-02-3.07829E-02
 -1       949 1.86005E-01 2.24076E-01 1.25964E-02-2.40457E-01-2.13981E-02-4.10938E-02
 -1       950 1.59567E-01 6.96809E-02-4.00771E-02-8.30117E-02-3.85164E-02 2.12884E-02
 -1       951 4.27240E-01 3.23588E-01 8.21865E-03-2.74829E-01-6.72171E-02-1.72830E-02
 -1       952 1.03134E-01-5.87463E-03-4.68430E-02-7.67235E-02-8.19215E-02 1.14406E-01
 -1       953 1.28765E-01 5.53149E-02 5.03959E-02-4.83515E-02-1.12633E-01-2.90330E-04
 -1       954 2.01095E-01 1.41890E-01 9.69513E-02-5.84795E-02-1.19389E-01 6.54018E-02
 -1       955 2.46166E-01 1.22255E-01-3.10627E-02-4.10142E-02-6.11389E-02-1.87951E-01
 -1       956 1.60315E-01 1.30757E-01 1.13585E-01-3.86245E-02-2.08507E-02-1.12469E-01
 -1       957 5.74273E-02 2.86312E-02 2.43093E-02-2.12563E-02 4.95731E-02-9.78057E-02
 -1       958 1.23547E-01 1.16608E-01 6.42328E-02-7.31114E-02-3.18336E-03-2.00986E-01
 -1       959 1.31715E-01 7.57716E-02 5.62845E-02-8.61512E-02-6.98261E-02-4.32048E-02
 -1       960 1.37252E-01 5.94413E-02-2.18387E-02-6.41540E-02 5.68068E-02-6.85814E-02
 -1       961 1.01623E-01 9.99688E-02 7.27437E-03-8.76087E-02 2.16394E-02-1.60329E-01
 -1       962 4.65023E-01 2.29630E-01-4.45223E-02-1.79230E-01-3.72760E-03 8.20635E-03
 -1       963 3.75265E-01 1.33345E-01-2.44072E-03-1.65678E-01-9.93109E-02 1.98230E-01
 -1       964 5.16261E-01 2.86365E-01-3.14921E-03-2.33157E-01-3.28345E-02 1.07803E-01
 -1       965 5.18445E-01 3.10283E-01 1.30548E-01-2.56187E-01-5.39354E-02 1.62739E-01
 -1       966 3.56547E-01 1.15870E-01 7.85088E-02-2.16062E-01-1.57346E-01 2.10782E-01
 -1       967 4.35688E-01 2.96498E-01-2.34348E-02-1.83468E-01 6.19263E-02-7.39923E-02
 -1       968 4.48110E-01 2.45640E-01 3.20111E-02-1.69561E-01 3.53592E-02 3.50799E-02
 -1       969 3.12771E-01 2.37020E-01-5.72974E-02-1.33449E-01-5.47038E-02 9.16170E-02
 -1       970 5.66667E-01 3.95260E-01 3.44043E-02-3.11697E-01 7.87370E-02-8.68880E-02
 -1       971 1.99838E-01 1.12549E-01 1.01917E-01-5.19348E-02-5.32587E-02 5.99439E-02
 -1       972 2.31376E-01 1.31951E-01 1.00355E-01-9.28126E-02-1.76208E-01 1.51115E-01
 -1       973 2.21200E-01 1.76915E-01-3.41281E-02 1.44701E-02-4.96806E-02-1.36460E-01
 -1       974 4.48763E-01 3.52189E-01 1.38703E-01-5.92624E-02 3.88623E-02-1.18608E-01
 -1       975 5.76253E-01 3.93866E-01 2.35726E-01-1.19400E-02 2.24417E-02-1.93369E-01
 -1       976 8.35966E-02 6.53124E-03-1.29878E-02-2.44264E-02-1.42675E-01 1.20900E-01
 -1       977 4.26020E-01 2.12281E-01 9.96734E-02-2.60151E-02-6.35703E-02 1.09015E-02
 -1       978 1.23173E-01 7.31199E-02-5.97733E-02-2.34525E-02-3.35046E-02-3.73180E-02
 -1       979 3.20653E-01 1.80145E-01 3.92983E-02-3.86674E-02-1.11640E-02-1.77028E-01
 -1       980 7.96562E-01 3.79691E-01 4.84683E-02-1.49925E-01-2.20951E-03 1.10783E-02
 -1       981 4.31665E-01 7.98464E-02-4.11815E-02-1.17654E-01-6.28997E-02 2.99318E-01
 -1       982 1.16003E+00 4.65358E-01 1.07146E-01-2.80123E-01-5.58128E-02 1.06244E-01
 -1       983 1.12309E+00 3.78868E-01 1.13390E-01-3.31197E-01-7.70353E-02 2.22516E-01
 -1       984 6.18539E-01 1.44327E-01 1.01495E-01-1.58264E-01-1.36342E-01 3.43145E-01
 -1       985 7.19357E-01 3.59556E-01 2.00298E-02-1.33651E-01 2.59065E-02-5.05551E-02
 -1       986 6.49444E-01 2.77918E-01 3.95970E-02-7.81661E-02 9.48400E-02 2.00042E-03
 -1       987 5.96631E-01 3.50830E-01 5.15669E-02-1.62321E-01 4.67133E-02 4.03905E-02
 -1       988 9.53674E-01 3.01196E-01-5.83322E-04-1.65002E-01 1.17217E-01-1.79711E-01
 -1       989 6.82909E-01 3.84797E-01 1.22848E-01-1.43713E-01-1.05545E-01 1.20206E-01
 -1       990 4.03138E-01 2.00215E-01 7.03342E-02-9.91105E-02-1.31912E-01 2.93415E-01
 -1       991 4.05986E-01 4.28163E-01 1.33544E-01 2.44553E-02-2.89654E-02-1.32860E-01
 -1       992 3.31867E-01 2.52561E-01 1.41814E-01-1.22929E-02 3.11747E-02-1.13612E-01
 -1       993 3.18886E-01 2.66533E-01 1.24256E-01-3.81149E-03-4.07024E-02-1.66657E-01
 -1       994 2.91938E-01 1.51159E-01 8.02822E-02-6.99747E-02-1.15733E-01 2.39622E-01
 -1       995 6.38219E-01 3.52968E-01 1.26071E-01-9.73114E-02-4.57328E-02 2.13101E-02
 -1       996 3.73775E-01 2.58539E-01 9.01080E-02-3.15154E-02-1.75434E-02-4.07899E-02
 -1       997 4.81413E-01 3.29622E-01 7.39207E-02-2.70495E-02-2.65110E-02-1.54127E-02
 -1       998 8.10302E-01 3.78575E-01-4.19890E-02 4.55386E-02-1.63429E-02 3.12378E-02
 -1       999 5.92083E-01 2.18825E-01 3.24851E-02-2.80497E-04-8.14723E-03 3.57414E-01
 -1      1000 1.39128E+00 4.26186E-01 1.15746E-02 6.00576E-02 4.25916E-03 1.39690E-01
 -1      1001 1.32874E+00 2.45819E-01 5.66866E-02 5.25313E-02 2.23974E-02 1.39644E-01
 -1      1002 5.49468E-01 3.38879E-02 2.45977E-02 4.70441E-02 5.64588E-03 2.99225E-01
 -1      1003 7.33769E-01 3.21541E-01 5.93289E-04-1.51271E-02-2.18167E-02-7.92385E-02
 -1      1004 7.21840E-01 2.08495E-01 4.28036E-02 2.04595E-03 6.46463E-02-6.88279E-02
 -1      1005 8.49439E-01 1.80430E-01-1.03084E-02-4.48991E-03 6.49947E-02 6.29699E-02
 -1      1006 1.01940E+00 2.14920E-01 4.13191E-02-4.41781E-02 3.73027E-02-1.62879E-01
 -1      1007 7.80799E-01 3.57482E-01 1.38464E-01 5.92722E-02 2.47133E-02 1.09953E-01
 -1      1008 3.22989E-01 1.50247E-01 8.45154E-02-1.58417E-02 3.01242E-03 2.80115E-01
 -1      1009 4.94449E-01 4.53042E-01 9.42668E-02-2.27099E-02 8.27761E-02-1.30784E-01
 -1      1010 4.37314E-01 3.31496E-01 1.42951E-01-2.40120E-02 1.96362E-02-1.50576E-01
 -1      1011 5.33618E-01 5.78924E-01 1.22769E-01-2.16810E-02-2.72636E-02-1.79733E-01
 -1      1012 4.00560E-01 2.68490E-01 5.99061E-02-2.02799E-03-2.89035E-02 2.77480E-01
 -1      1013 3.87717E-01 2.69245E-01 1.21341E-01 6.07202E-02 1.94401E-02 8.48527E-02
 -1      1014 4.57954E-01 4.15641E-01 1.73010E-01 3.63050E-02-1.46012E-02-1.48209E-02
 -1      1015 4.85814E-01 4.11681E-01 2.22068E-01 1.90061E-02-3.11689E-02-4.53318E-02
 -1      1016 8.98150E-01 2.82074E-01 1.43546E-02 1.58912E-01 6.76740E-02-2.28107E-01
 -1      1017 2.87632E-01 3.61993E-02 3.89119E-02 5.49209E-02-5.92897E-02-1.53860E-01
 -1      1018 6.27650E-01 3.03320E-01 1.59619E-03 1.45749E-01-2.72641E-02-2.05262E-02
 -1      1019 8.55136E-01 2.72589E-01 5.81743E-03 1.58886E-01 4.14263E-02 3.63690E-03
 -1      1020 1.11492E+00 3.51094E-01-5.35852E-02 2.62687E-01 3.26158E-02 1.60691E-01
 -1      1021 3.94088E-01 2.77024E-02-1.89898E-02 1.18595E-01 6.47949E-02 2.14065E-01
 -1      1022 1.14889E+00 2.83196E-01 2.02162E-02 3.14589E-01 5.06198E-02 2.20843E-01
 -1      1023 3.87752E-01 3.05913E-01 2.28763E-01 9.50202E-02 4.66218E-02 8.89775E-02
 -1      1024 3.16905E-01 1.76085E-01 1.33121E-01 1.30061E-03 9.65967E-02 2.60059E-01
 -1      1025 2.46421E-01 2.35066E-01 1.86674E-01-1.93924E-02 6.78452E-02-1.44905E-01
 -1      1026 1.74641E-01 1.72011E-01 1.08470E-01 1.60727E-02 1.97544E-02-1.29866E-01
 -1      1027 3.21943E-01 3.21423E-01 9.28615E-02 7.21167E-03 1.07091E-02-1.36741E-01
 -1      1028 3.65254E-01 1.31845E-01 8.80145E-02 3.02612E-02 1.15739E-01 2.40998E-01
 -1      1029 5.77048E-01 2.93553E-01 2.05699E-01 8.80029E-02 8.39417E-02 9.93593E-02
 -1      1030 4.27988E-01 2.95930E-01 1.55825E-01 1.20900E-02-8.57437E-03-5.40832E-02
 -1      1031 4.10668E-01 2.39685E-01 1.28359E-01 3.03113E-02 1.72233E-02 4.81860E-03
 -1      1032 3.14764E-01 2.39525E-01 1.61752E-01 3.13621E-02 2.35394E-02-2.62733E-03
 -1      1033 8.25540E-02 1.68585E-01 1.54906E-01 7.52407E-03-5.75941E-03-6.36992E-02
 -1      1034 6.23693E-01 2.76775E-01 3.12628E-02 3.10512E-01-1.63664E-01-1.78879E-01
 -1      1035 2.22292E-01 1.26428E-01-1.31034E-02 1.22448E-01-5.69043E-02-6.00041E-02
 -1      1036 2.67783E-01 2.95040E-01 6.37477E-03 1.84433E-01-2.66080E-02-1.84687E-01
 -1      1037 4.47142E-01 2.39674E-01-2.73287E-02 1.65179E-01-6.17589E-04-4.13963E-02
 -1      1038 9.14297E-01 5.88093E-01 8.24265E-02 3.26912E-01 3.40712E-02 5.66011E-02
 -1      1039 1.93585E-01 1.25312E-01 1.72076E-03 1.40030E-01 1.33648E-01 1.70991E-01
 -1      1040 6.92346E-01 4.07820E-01 5.50418E-02 3.55899E-01 6.79596E-02 1.37902E-01
 -1      1041 3.94896E-01 3.01484E-01 1.47049E-01 9.26681E-03-9.21478E-03-7.35982E-02
 -1      1042 4.54618E-01 3.67228E-01 2.16280E-01 8.19906E-02 2.63877E-02-8.79442E-03
 -1      1043 2.47501E-01 1.74279E-01 1.61499E-01 1.73624E-02 1.38244E-01 1.24170E-01
 -1      1044 4.13735E-01 2.85024E-01 2.71832E-01 2.91998E-02 7.55371E-03-2.50244E-01
 -1      1045 2.77627E-01 1.68532E-01 2.49105E-02 6.21668E-02-2.33368E-02-1.59001E-01
 -1      1046 3.22704E-01 2.68114E-01 1.17051E-01-2.19380E-02 3.61452E-02-1.25568E-01
 -1      1047 4.77195E-01 3.23566E-01 2.81472E-01 4.30619E-02 1.60820E-01 1.47318E-01
 -1      1048 4.22567E-01 3.18315E-01 8.64546E-02 1.08616E-01 7.77478E-02 7.72123E-02
 -1      1049 3.56480E-01 2.64286E-01 1.58493E-01 4.04815E-02 1.62364E-02-1.28869E-01
 -1      1050 2.50320E-01 1.49371E-01 2.41519E-03 3.12435E-02 2.91763E-02-3.32240E-02
 -1      1051 3.15575E-01 2.92522E-01 1.49322E-01 4.84724E-02 1.01430E-02 3.32959E-02
 -1      1052 2.53067E-01 2.13557E-01 1.15087E-01-1.54817E-02 1.31622E-02-3.07448E-02
 -1      1053 1.93427E-01 2.43995E-01-9.88962E-05 2.49428E-01-1.37240E-01-5.72743E-02
 -1      1054 2.25156E-01 2.38336E-01 3.67385E-02 1.41883E-01 3.84834E-02 6.11773E-02
 -1      1055 2.77123E-01 2.37090E-01 6.74135E-03 1.84993E-01 5.46265E-03 4.20014E-03
 -1      1056 3.54996E-02 4.74135E-02 8.72718E-03 6.47169E-02-3.56006E-02-5.17517E-02
 -1      1057 1.83225E-01 1.33158E-01 2.65513E-02 1.46924E-01 1.34854E-01 1.42602E-01
 -1      1058 4.47168E-01 3.92148E-01 6.54616E-02 2.91097E-01 6.18741E-02 2.76083E-02
 -1      1059 1.99535E-01 1.38735E-01-3.66500E-02 1.69799E-01 1.13569E-01 5.95207E-02
 -1      1060 3.70979E-01 3.62572E-01 8.05234E-02 2.91740E-01 3.57335E-02 7.51875E-02
 -1      1061 2.61130E-01 1.89578E-01 4.51481E-03 1.70633E-01-5.09503E-02-2.97234E-02
 -1      1062 1.68253E-01 1.31525E-01 1.55474E-02 1.08791E-01 4.30488E-02-5.93096E-02
 -1      1063 6.70053E-02 2.94039E-02-3.09761E-02 8.74973E-02 1.29453E-01 3.94617E-03
 -1      1064 1.75224E-01 1.41852E-01 8.73282E-02 7.90203E-02-3.83913E-02-1.93097E-01
 -1      1065 1.25166E-01 1.23935E-01 5.43152E-02 5.45842E-02-5.11590E-02-1.21992E-01
 -1      1066 3.43440E-01 1.49399E-01 2.28523E-02 4.64877E-03 8.95025E-02-1.87144E-01
 -1      1067 1.47435E-01 1.05244E-01 9.66497E-02 5.97570E-02 1.47611E-01 3.88603E-02
 -1      1068 3.62110E-01 2.73291E-01 5.87514E-02 1.69395E-01 3.03647E-02 6.31687E-03
 -1      1069 1.72250E-01 1.15387E-01 6.09847E-02 7.91812E-02-3.26022E-02-8.48200E-02
 -1      1070 1.94354E-01 1.36145E-01 2.38154E-02 4.26955E-02 4.43082E-02 3.99403E-04
 -1      1071 2.20034E-01 1.58045E-01 2.69070E-02 4.19129E-02 3.71740E-02-5.94752E-02
 -1      1072 5.23838E-02-5.25913E-03 2.86865E-02 1.34370E-01-9.16448E-02-3.61303E-02
 -1      1073 6.36186E-04-2.06103E-02 1.44276E-02 1.56500E-01 5.46548E-02 4.30232E-02
 -1      1074 2.10050E-02 1.57975E-02-1.61992E-02 9.50320E-02 6.40440E-02-1.59452E-02
 -1      1075 5.16050E-03 1.60167E-02-1.27786E-02 7.06113E-02 7.17018E-03-2.22191E-02
 -1      1076-2.61588E-02-8.65349E-02-1.09782E-01 1.46739E-01-1.14816E-01 6.76414E-02
 -1      1077-3.41619E-02-4.03735E-02 1.45545E-02 2.28802E-01 2.27916E-02 2.09070E-03
 -1      1078-4.36671E-02-1.61349E-02 2.94783E-02 1.34434E-01-4.19996E-02-1.31489E-02
 -1      1079 4.87068E-02 1.67404E-02 9.83634E-03 1.45663E-01-5.42552E-02 1.56278E-02
 -1      1080 9.54589E-02 8.42140E-02 5.13975E-02 3.93885E-02 2.24189E-02-1.32302E-01
 -1      1081-4.92111E-02 8.37218E-03 2.61700E-03 3.98843E-02-3.97639E-02-7.27327E-02
 -1      1082-1.64812E-02-4.47822E-02-5.68583E-02 5.79447E-02-6.14592E-02-8.36676E-03
 -1      1083-9.45979E-02 1.75391E-02 6.28469E-02 1.42431E-01-8.69013E-02-2.43600E-01
 -1      1084-1.30561E-01-9.87847E-02-8.19184E-02 4.20896E-02-6.77292E-02-1.16535E-01
 -1      1085 5.12914E-02-2.61072E-02-6.75664E-02 1.14877E-01 5.52629E-02-1.71109E-01
 -1      1086 7.75898E-02 5.41436E-02 4.33428E-02 6.52465E-02 1.67282E-02 7.10318E-04
 -1      1087 1.30493E-02 2.67341E-02-1.20780E-02 1.27393E-01-1.01199E-02-6.07258E-02
 -1      1088-1.05762E-02 2.29359E-02-2.89995E-03 3.88951E-02-1.73592E-02-3.66444E-02
 -1      1089 1.06327E-02-7.30519E-03 8.55308E-02 3.42248E-02 3.69732E-02-2.04539E-02
 -1      1090 2.75328E-02-2.69340E-02-5.98152E-02 4.47189E-02 5.94962E-02-9.99611E-02
 -1      1091-9.28002E-02-1.68420E-01 3.69274E-02 2.43068E-01-1.83910E-02-4.43526E-02
 -1      1092-2.48343E-01-2.13807E-01-2.04726E-02 1.79160E-01 1.11187E-02-2.35726E-03
 -1      1093-2.42105E-01-2.33050E-01-1.43072E-02 1.63800E-01-2.84580E-02 6.04756E-02
 -1      1094-3.92526E-01-2.87803E-01-4.42769E-02 2.48969E-01-6.89698E-02 5.59992E-02
 -1      1095-5.65045E-02 1.02118E-02 5.81889E-02 5.14323E-02-8.49454E-02 1.25160E-01
 -1      1096-1.88863E-01-9.17387E-02 5.31406E-03 9.54312E-02-6.74252E-02 3.89831E-02
 -1      1097-3.87631E-01-3.24693E-01-3.78933E-02 2.71871E-01-7.40793E-02-2.81812E-02
 -1      1098-6.31787E-02-7.87636E-02-3.77448E-02 1.20373E-01 3.92140E-02-5.05050E-02
 -1      1099-8.01909E-02-5.14848E-02 2.25221E-03 3.78219E-02-9.53498E-02-2.92658E-03
 -1      1100-1.38926E-01-7.23868E-02-1.07282E-01 4.43020E-02-1.54652E-01 8.83033E-02
 -1      1101-3.17276E-01-1.78953E-01-3.41558E-02 2.17122E-02-7.67345E-02-1.85948E-01
 -1      1102-2.08224E-01-1.58082E-01-1.06492E-01 2.95019E-02-3.60145E-02-1.16033E-01
 -1      1103-1.75354E-01-1.42778E-01-1.53083E-01 6.88908E-02-3.48993E-03-1.95416E-01
 -1      1104-1.27602E-01-4.80199E-02-2.87786E-02 5.06297E-02-9.43868E-02 5.81522E-03
 -1      1105-2.36324E-01-1.85855E-01-5.11888E-02 1.13977E-01-8.16835E-02-2.06068E-02
 -1      1106-1.89072E-01-1.15414E-01-6.58326E-02 4.06717E-02-1.45876E-02-7.16965E-02
 -1      1107-5.76816E-02-9.46025E-02 5.14100E-03 2.49027E-02-2.22641E-02-2.72538E-02
 -1      1108-1.22675E-01-7.95662E-02 4.80080E-02 6.62433E-02 3.60275E-02-5.25342E-02
 -1      1109-7.72245E-02-1.79005E-02-1.77256E-03 2.29327E-02-1.08875E-02-8.50630E-02
 -1      1110-6.04101E-01-3.40648E-01-1.21368E-02 2.71616E-01 1.17037E-01-7.64998E-02
 -1      1111-2.66860E-01-5.30406E-02-2.40065E-02 1.32943E-01 4.40721E-02-9.17557E-02
 -1      1112-4.79658E-01-2.99035E-01 4.79433E-02 1.74346E-01-5.39563E-02 6.41551E-02
 -1      1113-5.02867E-01-2.88002E-01-4.74118E-02 2.07684E-01-6.37365E-03-4.64793E-02
 -1      1114-2.79117E-01-1.90359E-01-1.60848E-02 1.77919E-01 5.33396E-02-1.56384E-01
 -1      1115-1.90716E-01-6.95863E-02-5.21215E-02 1.41225E-01-1.36181E-01 1.87622E-01
 -1      1116-6.87108E-01-4.11660E-01-6.68733E-02 3.33641E-01-8.61130E-02 5.98664E-02
 -1      1117-4.61993E-01-3.11497E-01-2.43553E-01 8.00386E-02-1.07925E-01 3.79420E-02
 -1      1118-1.74833E-01-8.90215E-02-1.08119E-01 4.02387E-02-1.23701E-01 1.32523E-01
 -1      1119-4.22383E-01-3.03690E-01-1.44404E-01-1.82029E-02-2.97676E-02-1.44523E-01
 -1      1120-2.28980E-01-1.89591E-01-1.65660E-01 3.59591E-02 8.18053E-03-8.23854E-02
 -1      1121-5.15737E-01-3.05225E-01-1.91273E-01-5.66778E-04 6.23751E-04-2.16837E-01
 -1      1122-2.88319E-01-1.92902E-01-1.18681E-01 1.05963E-02-1.25244E-01 1.05253E-01
 -1      1123-3.93123E-01-2.49947E-01-1.60691E-01 9.14925E-02-8.89737E-02 2.73916E-02
 -1      1124-2.47935E-01-1.75649E-01-1.14697E-02 2.37708E-02-6.03832E-02-4.01210E-02
 -1      1125-1.54378E-01-2.42159E-01-1.27397E-01 2.12122E-02-6.19916E-02 4.22082E-02
 -1      1126-4.00935E-01-2.43065E-01-5.70131E-02 7.41483E-02 2.72465E-02-4.87873E-02
 -1      1127-2.82260E-01-1.42770E-01-1.40088E-02 7.70216E-02-4.94291E-04-1.23208E-01
 -1      1128-8.82393E-01-2.54057E-01 4.49963E-02 1.68954E-01 1.16596E-01-1.62015E-01
 -1      1129-1.59172E-01-3.53222E-03-3.62185E-02 3.84997E-02 2.35044E-02-1.98993E-01
 -1      1130-5.44508E-01-2.28354E-01 6.04400E-02 1.39951E-01 3.56936E-02 7.83067E-02
 -1      1131-8.23681E-01-3.32682E-01 8.61624E-03 1.33508E-01 2.13207E-03 5.04970E-02
 -1      1132-7.57732E-01-2.34489E-01 1.63916E-02 1.57124E-01-3.73755E-02-9.67458E-02
 -1      1133-5.10922E-01-7.39749E-02-1.69641E-02 1.29677E-01-1.11382E-01 2.64310E-01
 -1      1134-1.00034E+00-2.08355E-01 4.30059E-02 3.15642E-01-3.63331E-02 7.82311E-02
 -1      1135-3.17650E-01-2.37422E-01-1.57957E-01 5.10656E-02-6.21822E-02 1.10693E-01
 -1      1136-3.53722E-01-1.47810E-01-8.44532E-02 3.46124E-02-8.25073E-02 2.41278E-01
 -1      1137-4.92681E-01-4.74949E-01-1.45620E-01-4.52258E-03-2.42869E-02-1.48330E-01
 -1      1138-1.69474E-01-1.59863E-01-3.20834E-02 1.42227E-02 1.88678E-02-1.07790E-01
 -1      1139-5.04455E-01-4.11658E-01-1.69398E-01-1.89183E-02-2.37841E-02-2.01560E-01
 -1      1140-2.31020E-01-1.56860E-01-1.24674E-01 2.06099E-02-6.53221E-02 2.03529E-01
 -1      1141-3.56839E-01-2.14048E-01-1.06951E-01 7.06538E-02-6.06375E-02 9.12192E-02
 -1      1142-3.85163E-01-2.14316E-01-9.09255E-02-6.89293E-04-3.81609E-02 2.88193E-02
 -1      1143-3.68775E-01-2.33828E-01-1.12502E-01 1.99785E-02-1.05529E-02-7.78898E-02
 -1      1144-8.67822E-02 4.32828E-02-1.12411E-01 5.12041E-03 3.95246E-01 2.94655E-01
 -1      1145 8.60554E-02 1.45052E-01 2.35938E-01-2.92469E-02 3.97181E-01 2.54645E-01
 -1      1146 7.95404E-02-5.40956E-02 7.51907E-02 1.77659E-03 4.67798E-01 3.68582E-01
 -1      1147 8.33021E-01 4.80502E-01 5.83156E-01 5.55133E-02-1.37602E-01 7.84827E-01
 -1      1148 2.64035E-01 1.12566E-01-3.04215E-02 7.63455E-02-1.10356E-01 8.05173E-01
 -1      1149-1.70558E-01-9.57705E-02-1.03908E-01 1.04223E-01-7.01043E-02 7.74826E-01
 -1      1150-8.06757E-01-6.53320E-01-5.34381E-01 1.43354E-01-1.12191E-01 9.28348E-01
 -1      1151-1.57489E-01-1.90515E-01-1.49592E-01 4.56251E-03 1.98417E-01 3.60724E-02
 -1      1152-8.19024E-02-6.04111E-02-5.19501E-02 4.14445E-02 2.03667E-01 4.34707E-02
 -1      1153 3.96776E-01 5.15978E-01 3.84269E-01 4.05910E-02 3.08419E-01 9.35593E-02
 -1      1154-1.29397E-01-1.52796E-01-2.62652E-01 2.00921E-02 2.86474E-01 4.01797E-01
 -1      1155-1.26864E+00-1.30472E+00-1.08339E+00-2.18045E-01 5.10851E-01 5.74904E-01
 -1      1156-2.88724E-01-4.37822E-01-3.19978E-01-9.25623E-02 3.82455E-01 4.79928E-01
 -1      1157-2.23948E-01-3.45576E-01-2.44534E-01-2.67674E-02-2.58728E-01 7.83815E-02
 -1      1158 1.67026E-01 1.55673E-01 1.74491E-01-5.69005E-02-2.69959E-01 8.00353E-02
 -1      1159-7.24760E-02-9.95932E-02-3.06785E-02-4.72373E-02-2.41492E-01 6.99367E-02
 -1      1160 5.41928E-01 5.87777E-01 4.65948E-01-1.24227E-01-3.64719E-01 6.88195E-01
 -1      1161 5.09639E-01 1.20643E-01 3.50211E-01 2.12351E-02-3.79102E-01 6.32249E-01
 -1      1162-4.01112E-01-5.91643E-01-4.31358E-01 1.19227E-01-4.16314E-01 7.45073E-01
 -1      1163-6.41081E-01-4.75339E-01-5.00382E-01 6.72227E-02-3.27122E-01 5.78434E-01
 -1      1164 1.24504E-01-6.06265E-01-2.21754E-01-4.83725E-02-4.60437E-01 4.05025E-01
 -1      1165-2.80754E-01-7.90076E-01-4.61188E-01 2.66129E-02-5.07235E-01 4.34150E-01
 -1      1166-2.77862E-01-7.31580E-01-4.13684E-01-5.85045E-02-4.57596E-01 3.80541E-01
 -1      1167 8.19240E-01 6.34369E-01 6.15203E-01 6.43322E-02 4.04726E-01 5.94440E-01
 -1      1168-2.26043E-01-1.61136E-01-7.95663E-02-7.59899E-02 4.03505E-01 6.68687E-01
 -1      1169-4.39037E-01-3.61373E-01-3.29035E-01 5.09506E-02 4.17858E-01 7.17934E-01
 -1      1170 3.57144E-02-1.03434E-01-2.55996E-02 4.59955E-02 3.95795E-01 2.12449E-01
 -1      1171-5.19339E-02-4.14181E-02-5.84741E-02-2.29950E-03 6.75495E-02 2.18804E-02
 -1      1172 1.80825E-02 2.46726E-02-3.91154E-02-3.24088E-02 4.20116E-02 3.01634E-03
 -1      1173 4.36361E-02 1.69740E-02 6.73888E-02-4.36097E-03 3.88244E-02 7.92405E-03
 -1      1174-2.78348E-01-3.92833E-01-2.82567E-01 1.59896E-02 1.19631E-01 1.17818E-02
 -1      1175 4.18723E-01 3.43830E-01 3.12211E-01-1.43362E-01-9.02529E-02 8.78804E-01
 -1      1176 1.45430E-01 1.59762E-02-5.58764E-02-1.70598E-02-9.93036E-02 6.54283E-01
 -1      1177-1.95169E+00-1.42775E+00-1.42274E+00 5.46914E-02-1.22266E-01 9.93917E-01
 -1      1178-4.40212E-01-2.18576E-01-1.51961E-01-4.46921E-02-1.19924E-01 8.42605E-01
 -1      1179 1.92154E-01 4.45332E-02 1.48714E-01-5.26788E-02-3.32577E-01 4.67100E-01
 -1      1180 2.93363E-01 2.83331E-01 4.04590E-01 3.17085E-02-3.58560E-01 4.47343E-01
 -1      1181-1.18859E-01-1.21746E-01-1.84843E-01-1.19114E-02-2.36516E-01 1.38691E-01
 -1      1182-1.84787E-03-1.87874E-02 6.14172E-02-6.69402E-03-2.91721E-02-7.15574E-03
 -1      1183 1.47089E-01 8.84083E-02 3.21143E-02-5.75932E-02-3.94896E-01 2.72235E-01
 -1      1184 7.81922E-01 4.30141E-01 5.41973E-01-1.03733E-01 1.35272E-01 7.60256E-01
 -1      1185-1.82387E-01-1.09162E-01-1.07772E-01-1.00782E-01 7.94397E-02 7.55539E-01
 -1      1186-8.39804E-02-5.84969E-02-5.70965E-02 3.90520E-02-1.27722E-01 5.69481E-03
 -1      1187-1.29816E-01-1.43340E-01-6.43186E-02-6.85628E-03-1.08475E-01 3.90091E-02
 -1      1188 1.04535E-01 6.89966E-02 1.11909E-01 1.90774E-02-2.39579E-02 1.88677E-02
 -1      1189 7.81317E-01 6.40367E-01 4.74311E-01-1.37219E-01-2.08471E-01 7.47678E-01
 -1      1190-9.02406E-01-5.70359E-01-6.05042E-01-2.78001E-02-2.37018E-01 8.00289E-01
 -1      1191-1.66850E+00-1.27756E+00-1.24029E+00 1.56446E-01-2.79018E-01 9.62120E-01
 -1      1192 4.97127E-02 3.98662E-02 7.40428E-02 1.17909E-02-1.74466E-01 6.41110E-02
 -1      1193 3.07621E-02 1.57796E-01-4.63421E-02-5.55341E-02-2.79431E-01 1.81740E-01
 -1      1194-1.44366E-01-2.47934E-01-8.49633E-02 3.96561E-02-2.96930E-01 2.27010E-01
 -1      1195-3.69044E-02-4.37992E-03-2.56396E-02 3.21701E-03 1.36204E-01 5.40775E-03
 -1      1196-8.98630E-01-1.08995E+00-8.37192E-01-1.49719E-01 4.95868E-01 3.14658E-01
 -1      1197-1.42245E-01-1.65736E-01-2.31052E-01 2.12984E-02 3.09352E-01 2.51218E-01
 -1      1198 1.06244E+00 1.14284E+00 9.28420E-01 1.69633E-01 5.30606E-01 4.35447E-01
 -1      1199 4.12777E-01-4.83375E-02 2.62638E-01-6.24499E-02 3.56758E-01 6.15984E-01
 -1      1200 1.41779E+00 1.15693E+00 1.08396E+00 1.57482E-01 4.58324E-01 8.57432E-01
 -1      1201-4.15641E-02-1.90183E-02-1.52667E-02-1.91523E-02 3.19983E-01 5.80923E-01
 -1      1202-3.91830E-01-6.12815E-01-3.50888E-01-1.31034E-01 3.89180E-01 6.93370E-01
 -1      1203 5.51582E-01 2.79870E-01 1.43430E-01 5.26062E-02 2.09814E-02 6.88842E-01
 -1      1204-4.61319E-01-2.09592E-01-9.73756E-02 1.78419E-02 1.23253E-01 8.35722E-01
 -1      1205-4.18524E-01-3.33417E-01-2.63506E-01-9.95488E-02 9.05080E-02 9.08445E-01
 -1      1206-1.33568E-01-6.30075E-02-2.94102E-02 3.17219E-02-3.99673E-01 7.32821E-01
 -1      1207 1.56912E+00 1.21753E+00 1.17318E+00 1.33156E-01 3.11263E-01 1.02608E+00
 -1      1208 4.64766E-01 3.82314E-01 1.73399E-01-1.35555E-01-1.24214E-01 7.94138E-01
 -1      1209-2.00392E-01-2.90316E-01-9.45377E-02-6.37812E-02 3.82772E-01 5.06368E-01
 -1      1210-2.48655E-01-2.92757E-01-4.03600E-01-9.68221E-04 1.42322E-01 6.21948E-01
 -1      1211 4.23206E-01 5.78028E-01 4.21520E-01 3.52005E-02 2.41027E-01 5.61401E-02
 -1      1212-2.38188E+00-1.87630E+00-1.79269E+00 2.27169E-01-2.99739E-01 9.88094E-01
 -1      1213-3.89116E-01-2.07304E-01-2.56337E-01 7.70729E-02 2.71335E-01 8.63075E-01
 -1      1214 6.70127E-02-2.23456E-01-5.70575E-02 3.62547E-02-4.15545E-01 6.01234E-01
 -1      1215 1.28822E+00 1.22439E+00 1.05781E+00-1.96038E-01-4.54619E-01 5.53968E-01
 -1      1216 9.64657E-02 4.00005E-02 1.03990E-01 4.99414E-02 2.93812E-01 2.15379E-01
 -1      1217 6.49296E-01 5.71892E-01 1.48473E-01 4.91666E-02-2.26843E-02-1.62153E-01
 -1      1218 8.17110E-01 7.35626E-01 5.88855E-01 1.72035E-02-6.78129E-02-3.04467E-01
 -1      1219 8.48950E-01 7.81944E-01 2.10513E-01 1.97832E-02 2.07375E-02-1.41857E-01
 -1      1220 1.00151E+00 8.62348E-01 3.73709E-01-7.30748E-03 1.44073E-01-1.65153E-01
 -1      1221 1.44806E-01 6.61104E-02 4.00592E-01-4.68613E-02-2.00396E-02-2.44768E-01
 -1      1222 1.38895E+00 1.09165E+00 8.47809E-01-3.38881E-03-4.63408E-02-3.96359E-01
 -1      1223-6.65692E-01-5.14086E-01-1.84123E-01 2.09663E-02 6.20821E-02-1.31574E-01
 -1      1224-7.74085E-01-6.25795E-01-4.52851E-01 3.44985E-02 6.55240E-02-2.69790E-01
 -1      1225 6.75801E-01 4.16452E-01 4.17895E-01-7.34777E-02-2.19911E-02-3.56389E-01
 -1      1226 6.17518E-01 2.50533E-01 1.32814E-01-4.23913E-02-6.88366E-02-2.26633E-01
 -1      1227 2.42924E-01 2.36880E-01 2.88339E-01-1.70600E-01 3.51659E-02-3.20349E-01
 -1      1228-2.49743E-02-1.74004E-01-3.42940E-01-1.37120E-01-1.16166E-01-2.57375E-01
 -1      1229 7.28908E-02 1.15724E-01 8.08745E-02-1.34957E-01 1.49198E-02-1.60368E-01
 -1      1230 3.68603E-01 3.41088E-01 3.55233E-01 1.41288E-01-8.70103E-02-2.81644E-01
 -1      1231 1.85279E-01-3.28853E-02-2.62738E-01 1.29019E-01 1.24290E-01-2.62984E-01
 -1      1232-7.97052E-01-6.31406E-01-2.60551E-01-4.07075E-02-7.13441E-02-1.69271E-01
 -1      1233-1.05904E+00-8.86165E-01-5.90035E-01-2.65774E-02-1.13233E-01-3.11512E-01
 -1      1234-9.03236E-01-8.09335E-01-3.49911E-01-2.20377E-02 2.44083E-02-1.90279E-01
 -1      1235-1.02004E+00-9.44102E-01-6.24517E-01-2.95837E-03-1.34669E-01-2.69671E-01
 -1      1236-3.15161E-01-2.84377E-01-2.66749E-01 1.58446E-01 3.20928E-02-3.15346E-01
 -1      1237-1.14505E-01 8.47771E-02 3.11492E-01 1.27970E-01-1.50077E-01-2.69337E-01
 -1      1238-1.39934E+00-1.07731E+00-8.51780E-01-3.84635E-03-2.05157E-02-4.59994E-01
 -1      1239 2.10822E-01 1.78797E-01 4.82261E-01-8.11524E-02 1.26111E-01-2.93402E-01
 -1      1240 9.89134E-01 8.59308E-01 2.64795E-01-7.75250E-03-2.46512E-03-2.07530E-01
 -1      1241 1.44574E+00 1.35090E+00 7.59774E-01-5.59379E-02 2.52160E-01-2.57111E-01
 -1      1242 9.06780E-02 1.42103E-01 2.06220E-01 7.46010E-02-6.16204E-02-1.66265E-01
 -1      1243-7.91943E-01-5.45469E-01-4.46659E-01 5.45897E-02-5.10345E-02-3.74817E-01
 -1      1244-6.24561E-01-2.99949E-01 1.23423E-02 2.04291E-02-9.78135E-02-2.33932E-01
 -1      1245-7.72763E-01-5.55142E-01-5.64047E-01-7.89477E-02 1.81837E-02-3.53485E-01
 -1      1246-5.68127E-01-2.70208E-01 1.39144E-01-6.06198E-03 1.16095E-01-1.91336E-01
 -1      1247 1.24388E+00 1.00147E+00 7.78022E-01 1.49471E-01-7.11801E-02-3.21269E-01
 -1      1248-9.88385E-01-8.10612E-01-5.72878E-01 1.56035E-01 4.96081E-02-3.14437E-01
 -1      1249 6.55013E-01 4.81381E-01 4.73326E-01 7.87825E-02 2.48865E-02-3.23302E-01
 -1      1250 5.10173E-01 2.53120E-01-1.95839E-02 9.86530E-03 9.34901E-02-1.37889E-01
 -1      1251-2.55551E-01-8.40451E-02-2.19490E-01-1.35565E-02-5.44590E-02-2.36542E-01
 -1      1252 1.09513E-01 4.78557E-02 5.48020E-03-3.66735E-02 3.50779E-02-6.06427E-02
 -1      1253 4.41249E-01 3.25583E-01 2.13894E-01 7.19787E-02-3.76659E-02-1.79047E-01
 -1      1254-7.74063E-01-7.53912E-01-2.71770E-01 5.81453E-02-5.11850E-02-1.60580E-01
 -1      1255-7.98020E-01-7.50724E-01-2.67359E-01 3.25119E-02 5.27733E-02-2.41394E-01
 -1      1256-1.10410E+00-9.17375E-01-6.95343E-01-1.87296E-01-7.38965E-02-2.97685E-01
 -1      1257 6.46792E-03-6.71129E-02-2.49915E-01-1.67532E-01-8.19359E-02-1.75020E-01
 -1      1258 1.14036E+00 8.74300E-01 7.45691E-01-5.54215E-02 3.72441E-02-2.85241E-01
 -1      1259 8.55005E-01 6.87696E-01 5.81241E-01 9.69022E-02-8.57882E-02-3.17251E-01
 -1      1260 4.26245E-01 3.44922E-01 4.44299E-01 1.95407E-01-1.10142E-01-3.77913E-01
 -1      1261 2.67439E-01-7.45702E-02-3.68770E-01 1.74330E-01 1.12193E-01-3.56612E-01
 -1      1262 4.06048E-01 4.58445E-01 4.90584E-01-2.54589E-01 9.15333E-02-3.93199E-01
 -1      1263 6.27248E-03-1.72514E-01-4.47315E-01-1.77373E-01-1.48039E-01-2.85681E-01
 -1      1264 1.14839E-02 1.16516E-01-1.31310E-01 2.63515E-04 2.95571E-02-1.10549E-01
 -1      1265 2.08618E-01 1.23150E-01 2.93228E-01 1.16168E-02 3.97079E-02-2.51607E-01
 -1      1266-3.69336E-02-4.06433E-02-1.95138E-01-3.69889E-02-5.38802E-02-4.97411E-02
 -1      1267-6.85057E-02-5.06753E-02-2.90275E-01 2.17807E-02 9.46634E-02-5.17049E-02
 -1      1268 1.73224E-02-1.91261E-02-2.36866E-01 1.15992E-02 4.52553E-02-7.42792E-02
 -1      1269 5.77926E-01 4.23804E-01 8.18152E-02-5.48651E-02 1.02947E-01-1.73440E-01
 -1      1270 9.00488E-01 8.04597E-01 6.34238E-01-3.75830E-02 1.34795E-01-3.46179E-01
 -1      1271 8.80281E-01 8.56852E-01 3.86220E-01-5.83817E-03 1.96261E-02-1.40907E-01
 -1      1272 9.26353E-01 9.20257E-01 5.27983E-01-5.18932E-02-1.72146E-01-2.61209E-01
 -1      1273-1.12160E+00-1.04519E+00-4.46229E-01-6.38075E-02 5.73584E-02-2.05977E-01
 -1      1274-1.49780E+00-1.46140E+00-9.76382E-01-3.37248E-02-2.27606E-01-3.14787E-01
 -1      1275 4.71653E-01 4.69797E-01 2.73643E-01-1.13202E-01 1.12184E-01-2.02473E-01
 -1      1276-1.10052E-01-4.51956E-02-3.57921E-01 4.39993E-02-2.80535E-02-2.20310E-01
 -1      1277 1.15384E-02 3.08844E-02 3.01436E-01 2.09759E-04-7.99532E-02-7.48319E-02
 -1      1278-1.19125E+00-1.00593E+00-7.34274E-01 7.99368E-02 7.95126E-02-3.79735E-01
 -1      1279-1.25376E+00-1.01683E+00-6.59527E-01-1.59848E-01-1.46017E-01-2.20326E-01
 -1      1280 1.38232E+00 8.76623E-01 1.17200E+00-1.64993E-01 3.87167E-02-5.87365E-01
 -1      1281 1.02083E+00 3.98992E-01 2.64150E-01 2.94920E-02-6.21350E-02-1.82452E-01
 -1      1282 1.11096E+00 8.65443E-01 4.67503E-01 1.57386E-01-1.89070E-02-1.79450E-01
 -1      1283 1.59189E+00 1.33420E+00 1.39805E+00 1.62945E-01-1.00328E-01-5.13878E-01
 -1      1284 9.13885E-02 1.43421E-01 3.62980E-01-4.77563E-02 1.88985E-01-1.52183E-01
 -1      1285 9.28021E-01 8.33845E-01 5.54584E-01-9.12106E-02 1.52451E-01-2.97785E-01
 -1      1286 2.07425E-01 5.36383E-02 2.10602E-01-4.46232E-03 6.35524E-02-2.31722E-01
 -1      1287 1.44201E-03 1.97623E-03-6.67290E-03-4.20380E-02-3.85436E-03-4.86890E-02
 -1      1288-1.69407E-01-4.67604E-02-1.26740E-01-1.65291E-02-3.74097E-02-1.61633E-01
 -1      1289 1.73975E+00 1.78085E+00 1.09866E+00 1.99766E-03-5.80972E-02-3.01666E-01
 -1      1290 2.00969E+00 1.96075E+00 1.32129E+00-3.37776E-02 3.14940E-01-3.91841E-01
 -1      1291-1.11192E+00-8.48175E-01-3.48787E-01 1.26891E-01 1.21567E-01-1.45852E-01
 -1      1292-1.35944E+00-1.14214E+00-9.67443E-01 5.85702E-02 1.47169E-01-3.61308E-01
 -1      1293 1.09927E+00 9.43816E-01 1.08325E+00 5.91512E-02 7.44107E-02-5.69707E-01
 -1      1294 9.25180E-01 5.04743E-01 2.00802E-01-5.07603E-02 1.59199E-01-2.97505E-01
 -1      1295-3.58589E-01-3.81650E-01-4.63418E-01-1.47735E-01-1.16811E-01-3.29513E-01
 -1      1296-7.84954E-02 8.29435E-02 2.38627E-01-1.24741E-01 1.27152E-01-2.58157E-01
 -1      1297 5.20555E-01 3.53942E-01 1.40081E-01 1.63588E-02-2.55121E-02-1.45705E-01
 -1      1298-2.65652E-02-8.95209E-02-3.93247E-01-1.23840E-02-1.21671E-01-1.27440E-01
 -1      1299-9.77486E-01-8.12790E-01-6.33318E-01-6.14592E-02-5.34662E-02-3.27997E-01
 -1      1300 1.81880E-01 1.15230E-02 2.36201E-01 6.24164E-03-1.00371E-02-1.85849E-01
 -1      1301 1.44685E+00 1.17475E+00 7.15263E-01 3.19816E-02 6.79726E-02-4.26567E-01
 -1      1302 9.10063E-01 8.11979E-01 9.21890E-01 8.72018E-02-9.99760E-02-4.77219E-01
 -1      1303-8.74989E-01-7.24483E-01-7.12404E-01-1.09327E-01 8.64650E-02-5.19765E-01
 -1      1304-7.23881E-01-4.49638E-01 2.70835E-02-1.44829E-02 1.67488E-01-2.73308E-01
 -1      1305 1.18892E-01 3.55087E-03-1.38775E-01 9.41751E-02 3.66422E-02-1.62173E-01
 -1      1306-4.13885E-01-3.89768E-01-1.65750E-01 6.19344E-02 3.39238E-02-2.09900E-01
 -1      1307-1.39713E+00-9.24802E-01-9.73320E-01 1.01951E-01-2.69236E-02-6.33792E-01
 -1      1308-1.03415E+00-5.59711E-01-1.17278E-01-1.94828E-02-1.15691E-01-2.55372E-01
 -1      1309-9.72536E-02-1.31001E-01-3.87574E-01 2.59404E-02 1.58214E-01-1.44538E-01
 -1      1310-1.22964E-02 2.99397E-03 3.99970E-02 2.40013E-02 1.14423E-02-7.91383E-02
 -1      1311 1.42353E-01-8.42222E-03 3.65523E-02 5.31341E-02-2.79345E-02-1.30387E-01
 -1      1312-4.63672E-01-3.65483E-01-5.60849E-01 2.40594E-01 3.64803E-02-5.58496E-01
 -1      1313-2.34501E-01 8.52102E-02 2.74505E-01 1.98965E-01-1.63562E-01-4.40280E-01
 -1      1314 1.39770E-01 1.87462E-01 4.24103E-01 4.30460E-02-1.18338E-01-2.26600E-01
 -1      1315 4.00312E-01 1.76106E-01 5.14473E-01 3.21740E-02-2.44355E-02-4.18386E-01
 -1      1316 1.13801E+00 9.07140E-01 6.52913E-01 9.17635E-02-1.76034E-01-3.75779E-01
 -1      1317 1.14392E+00 1.11056E+00 5.45971E-01-2.55536E-03 8.73297E-02-2.37729E-01
 -1      1318 1.40035E+00 1.31161E+00 9.59980E-01-2.43389E-02-2.04366E-01-3.81906E-01
 -1      1319 1.33525E+00 1.00038E+00 7.33242E-01-6.22548E-03 1.59829E-01-4.22902E-01
 -1      1320 1.51694E+00 1.36211E+00 8.90708E-01 2.86728E-01 1.02822E-01-1.84289E-01
 -1      1321 2.15184E+00 1.87238E+00 1.74422E+00 2.88399E-01-1.07360E-01-5.69479E-01
 -1      1322 4.85184E-02 4.08217E-02 2.00479E-01-1.88170E-02 5.69760E-02-3.96538E-02
 -1      1323 4.44657E-01 3.23067E-01 8.24837E-01-9.38662E-02 4.55240E-02-4.04584E-01
 -1      1324 1.47736E+00 1.18417E+00 1.23216E+00-4.21833E-02-2.86667E-02-4.75396E-01
 -1      1325-8.36055E-02-3.61075E-04-1.52899E-02 5.42123E-02 2.92661E-02-9.44014E-02
 -1      1326-1.92821E-02 8.20462E-04-2.53845E-02 3.63848E-02 2.46601E-02-7.26313E-02
 -1      1327 2.92201E-02 4.84270E-02 2.72891E-01 3.61994E-02-1.04625E-01-9.69146E-02
 -1      1328-3.89848E-01-3.58458E-01-1.68420E-01-8.80778E-02-1.54556E-02-1.87660E-01
 -1      1329-1.39807E+00-1.41527E+00-8.63164E-01 1.40175E-01 1.08858E-01-3.78020E-01
 -1      1330-1.35649E+00-1.47022E+00-9.01411E-01 7.96203E-02-1.35728E-01-2.85511E-01
 -1      1331-2.07392E+00-1.32432E+00-1.45152E+00 1.30186E-01-5.75037E-02-7.53944E-01
 -1      1332-1.43952E+00-6.69197E-01-2.39130E-01-1.30464E-01-2.33719E-01-3.90068E-01
 -1      1333-6.39028E-01-4.93824E-01-7.56492E-02 1.19130E-01 7.99307E-02-1.61876E-01
 -1      1334-1.65754E-01-9.58901E-02-1.52345E-01-2.45056E-02-6.27280E-02-2.60789E-01
 -1      1335 5.19977E-01 5.29810E-01 6.82433E-01-1.84976E-01 1.66940E-01-2.81109E-01
 -1      1336-1.17575E+00-9.34811E-01-3.33800E-01-3.90526E-02 4.32746E-02-1.68568E-01
 -1      1337-1.52414E+00-1.25455E+00-8.99115E-01-2.34359E-02-1.41230E-01-4.04128E-01
 -1      1338 1.02003E-01 4.78149E-02 3.58685E-02-2.53954E-02 7.83320E-02-1.25690E-01
 -1      1339 2.43446E-02 8.54207E-02 2.80656E-01-1.25197E-02 1.04125E-01-1.00759E-01
 -1      1340-1.62260E-01-3.69690E-02-1.35224E-01 2.52491E-02 5.57974E-02-1.45562E-01
 -1      1341-1.39813E+00-1.30114E+00-6.38065E-01 1.69935E-01 3.81053E-02-1.71786E-01
 -1      1342-2.07136E+00-1.85651E+00-1.56322E+00 1.82479E-01 2.85023E-01-5.56397E-01
 -1      1343 1.18528E+00 9.89790E-01 9.63581E-01-2.06120E-01 1.43828E-01-4.99800E-01
 -1      1344-8.94226E-01-7.24856E-01-2.58986E-01 8.65389E-02 2.26990E-01-2.09367E-01
 -1      1345-1.27640E+00-1.06621E+00-9.65284E-01-1.39297E-01-7.79827E-02-4.06247E-01
 -1      1346 1.48957E-02-2.23257E-01-5.39847E-01-1.96572E-01-1.91241E-01-2.99426E-01
 -1      1347 4.31697E-01 3.86593E-01 5.13465E-01-3.35631E-01 6.61186E-02-4.74307E-01
 -1      1348 9.58568E-01 5.21363E-01 1.14320E-01-2.15098E-02 4.11641E-02-2.38295E-01
 -1      1349 1.43018E+00 1.23422E+00 1.03559E+00-4.29035E-02-1.33322E-01-5.17251E-01
 -1      1350 3.43579E-02 2.67731E-02 2.94762E-01-9.43406E-03 7.32837E-02-3.66178E-01
 -1      1351-1.73911E+00-1.38859E+00-1.67878E+00-1.40014E-01 5.71794E-02-8.04015E-01
 -1      1352-7.73311E-01-3.15390E-01 1.60134E-01 9.98588E-02 2.02806E-01-2.52679E-01
 -1      1353-1.22324E-01-4.26679E-02-1.49875E-01 1.15770E-02 3.84631E-02-1.85070E-01
 -1      1354-1.00365E+00-1.03259E+00-1.05174E+00-1.97302E-01-1.82616E-01-4.71605E-01
 -1      1355-3.89154E-01-2.40650E-01-2.60325E-01 8.84193E-04-1.67783E-01-2.65783E-01
 -1      1356 3.81508E-02-2.50305E-02 3.92384E-01-1.39688E-03-9.88766E-02-2.25257E-01
 -1      1357-9.32416E-02-8.83506E-04-3.92991E-02-6.63554E-02-2.72835E-02-1.27171E-01
 -1      1358 9.69173E-01 8.10282E-01 3.11793E-01-9.73494E-02 7.31880E-02-2.04267E-01
 -1      1359 1.91536E+00 1.59799E+00 1.44091E+00-1.18444E-01 2.40854E-01-5.62281E-01
 -1      1360 7.83317E-02 1.14817E-01 5.66034E-01-3.30488E-03 1.92934E-01-1.39242E-01
 -1      1361-1.87874E-01-3.44287E-01-7.68784E-01-3.99209E-02-1.92236E-01-7.45189E-02
 -1      1362 9.84671E-03 1.19863E-02 1.72329E-01-9.14268E-03 1.24252E-02-7.68374E-02
 -1      1363 1.38854E-01 7.12315E-02 6.57305E-02 2.17351E-02-5.02375E-02-1.59231E-01
 -1      1364 2.44231E-02-1.21165E-02-9.04919E-02 5.48847E-03 1.11933E-02-5.88163E-02
 -1      1365-1.61067E+00-1.85581E+00-1.18661E+00 2.16430E-01 1.21605E-01-3.73701E-01
 -1      1366-1.71297E+00-2.08102E+00-1.31837E+00 1.54612E-01-1.11444E-01-3.02511E-01
 -1      1367-4.19647E-01-2.40205E-01 1.26993E-01-3.42060E-02-2.27921E-02-1.27727E-01
 -1      1368 2.39394E+00 1.83707E+00 2.24591E+00-1.81964E-02 1.10563E-01-9.56891E-01
 -1      1369 1.18070E+00 5.91817E-01 1.99380E-01-1.41936E-01 1.87809E-01-3.33203E-01
 -1      1370-1.42825E+00-1.30149E+00-9.22637E-01 5.30736E-02 8.50961E-02-5.34194E-01
 -1      1371-2.73986E-01-9.12949E-02-1.42727E-01-3.59943E-03-6.65394E-02-1.58368E-01
 -1      1372-1.52425E+00-1.41271E+00-1.24264E+00 2.17198E-01 1.16261E-01-5.44167E-01
 -1      1373-1.50064E+00-1.61137E+00-8.86142E-01-6.50238E-02 7.29545E-02-2.65262E-01
 -1      1374-2.11844E+00-2.09316E+00-1.46548E+00-4.85663E-02-3.15301E-01-4.00869E-01
 -1      1375-1.28295E+00-1.09741E+00-7.39922E-01 1.20279E-01 2.05763E-01-3.46748E-01
 -1      1376 9.11246E-01 7.45025E-01 5.14100E-01 1.43765E-02 1.19341E-01-2.03992E-01
 -1      1377-5.62766E-01-4.86835E-01-7.22271E-01-2.19171E-01-8.34148E-02-4.25471E-01
 -1      1378-1.82173E-01 1.40152E-01 2.50807E-01-2.07687E-01 1.56532E-01-3.53586E-01
 -1      1379 1.51098E+00 1.26028E+00 7.92078E-01 1.48068E-01 2.93222E-01-2.48312E-01
 -1      1380-1.14803E-01-7.41561E-02-3.80531E-01-6.49153E-02-8.88481E-02-2.14241E-01
 -1      1381-2.35863E-01-2.20237E-01-1.00206E+00-1.14195E-01-2.84571E-01-3.33016E-01
 -1      1382 1.78229E+00 1.39107E+00 1.76932E+00 1.14462E-01-1.40854E-01-8.19310E-01
 -1      1383 1.43412E+00 1.53668E+00 1.02952E+00 4.86122E-02 1.22593E-01-3.27429E-01
 -1      1384 1.80658E+00 1.93690E+00 1.72083E+00 5.41145E-02-2.50243E-01-4.79477E-01
 -1      1385 2.65670E-01 9.12096E-02 3.95845E-01-2.35743E-02 4.23978E-02-3.68663E-01
 -1      1386 1.96742E+00 1.63334E+00 1.43404E+00 1.63803E-01-6.81001E-02-7.09452E-01
 -1      1387 1.39490E-01 1.24024E-01 7.98239E-01-6.55829E-02-2.54998E-02-3.73692E-01
 -1      1388 1.59483E+00 1.44543E+00 8.84046E-01 2.41878E-02 2.05452E-01-4.44736E-01
 -1      1389-1.83254E+00-1.46481E+00-1.52844E+00-1.61814E-01-1.22157E-01-6.99043E-01
 -1      1390 1.76787E+00 2.14971E+00 1.34078E+00-2.13991E-02-7.38617E-02-3.54975E-01
 -1      1391 2.32182E+00 2.79433E+00 2.06616E+00-1.05291E-01 3.93987E-01-5.20106E-01
 -1      1392-1.46461E+00-1.17079E+00-9.82795E-01 4.37458E-02-1.11344E-01-4.12627E-01
 -1      1393 1.61202E+00 1.41209E+00 1.08025E+00 1.46759E-02 2.40161E-01-6.11386E-01
 -1      1394 2.03330E+00 1.95516E+00 1.39650E+00 6.03707E-02-1.97314E-01-5.27907E-01
 -1      1395-1.32374E+00-1.27347E+00-8.53512E-01 1.53566E-01 1.40449E-01-5.32385E-01
 -1      1396-6.72440E-02-3.11697E-03 1.78003E-01 1.67212E-02 9.28088E-03-6.36351E-02
 -1      1397-4.46913E-01-6.24058E-01-7.16787E-01-3.66836E-03 9.78627E-02-4.07771E-01
 -1      1398 2.67814E-02-3.05849E-02-1.98938E-01-4.94102E-03 1.27204E-02-3.84909E-02
 -1      1399 1.58481E+00 9.76171E-01 1.11051E+00-1.48036E-01-5.23585E-02-5.84023E-01
 -1      1400 1.02916E+00 3.74511E-01 2.11187E-01 1.82768E-02-1.26791E-01-2.63167E-01
 -1      1401 1.68692E-01 3.03225E-01 9.95009E-01 4.61745E-04 2.25076E-01-3.47266E-01
 -1      1402 6.36817E-01 4.92940E-01 2.94224E-01-3.86929E-02 1.26607E-01-1.64441E-01
 -1      1403-1.08165E-01-1.26776E-01-4.04994E-01-7.27229E-02-9.66434E-02-2.32289E-01
 -1      1404 1.91725E+00 1.81963E+00 1.25619E+00-5.21698E-02 2.88000E-01-5.96742E-01
 -1      1405 4.88179E-01 4.45928E-01 1.25142E+00-6.09101E-02 3.25779E-01-2.64470E-01
 -1      1406-1.56623E+00-1.23415E+00-1.08366E+00 6.77939E-02 4.88936E-03-5.12098E-01
 -1      1407 4.61849E-01 3.36636E-01 5.32929E-01 1.71738E-01-1.21222E-01-2.61653E-01
 -1      1408 1.72540E+00 1.63082E+00 1.45790E+00-2.13587E-02-1.79588E-01-6.51607E-01
 -1      1409-1.38084E+00-1.24983E+00-8.87090E-01-4.54718E-02-1.75537E-01-3.58576E-01
 -1      1410 1.50492E+00 1.48109E+00 9.83200E-01 3.70060E-01 1.71873E-01-1.96091E-01
 -1      1411 2.03038E+00 1.70934E+00 1.72671E+00 3.31415E-01-1.13291E-01-6.68620E-01
 -1      1412 2.20399E-01-8.71163E-02-3.81147E-01 1.64003E-01 1.24437E-01-2.71827E-01
 -1      1413 5.78847E-01 4.88531E-01 7.44042E-01 2.59904E-01-1.51835E-01-5.20546E-01
 -1      1414 3.03944E-01-2.24465E-01-4.60195E-01 2.28355E-01 2.10755E-01-5.26053E-01
 -1      1415 6.34638E-01 6.55682E-01 9.56129E-01-3.22806E-01 1.77102E-01-4.06151E-01
 -1      1416 1.33275E-01-1.47544E-01-3.71356E-01-2.53742E-01-1.50181E-01-2.67790E-01
 -1      1417-1.73317E+00-1.23361E+00-1.61169E+00-3.04973E-02 6.49926E-02-8.34098E-01
 -1      1418-1.04392E+00-4.69565E-01-1.62177E-01 8.81147E-02 2.14199E-01-3.66980E-01
 -1      1419-7.50355E-01-3.62732E-01 3.96490E-02-1.72474E-03 1.25508E-02-2.07684E-01
 -1      1420 1.44011E-01 1.09433E-01 9.28423E-02-2.39119E-02 1.27750E-01-2.02693E-01
 -1      1421 6.56423E-01 5.16391E-01 6.18768E-01 7.61585E-02-2.05698E-01-4.32450E-01
 -1      1422 1.53883E+00 1.83343E+00 1.39490E+00 6.52520E-02 1.54170E-01-3.92237E-01
 -1      1423 1.73965E+00 1.94669E+00 1.98809E+00 9.09830E-02-3.53626E-01-5.76008E-01
 -1      1424 2.37423E-01 3.16659E-01 2.05353E-01 3.94093E-02 2.51626E-01-9.32330E-02
 -1      1425 1.31999E+00 1.17839E+00 5.85223E-01-2.83336E-01 1.54391E-01-2.39607E-01
 -1      1426 1.52947E+00 1.26781E+00 1.26962E+00-2.22050E-01 2.55827E-01-5.85533E-01
 -1      1427 6.48489E-01 5.56674E-01 7.80426E-01-7.48610E-02 3.32335E-01-4.61192E-01
 -1      1428-2.21818E-02-4.90455E-02 3.68473E-01 5.52381E-02 2.33118E-02-3.09354E-02
 -1      1429 1.02776E+00 1.20561E+00 1.55052E+00-4.61041E-02 3.15652E-01-6.77484E-01
 -1      1430 1.82208E-01 4.29671E-02-7.68615E-03-3.40625E-02 3.42997E-02-2.67719E-02
 -1      1431 2.04161E+00 1.85139E+00 1.80307E+00 5.95865E-02-1.93700E-01-7.14229E-01
 -1      1432 4.56250E-02-3.30806E-02-5.61448E-01 4.10572E-02 1.54594E-01-9.18227E-02
 -1      1433-5.72560E-02-5.19818E-02-3.06777E-01-1.48359E-03 6.03033E-02-2.82245E-01
 -1      1434-2.46320E-01-2.89887E-01-7.88743E-01 8.57805E-03 2.36494E-01-3.37059E-01
 -1      1435-1.66835E+00-2.11495E+00-1.34920E+00-1.20475E-01 4.85493E-02-3.52529E-01
 -1      1436-1.85679E+00-2.14036E+00-1.86359E+00-9.97460E-02-3.03979E-01-5.96440E-01
 -1      1437 1.08657E+00 9.28485E-01 5.00702E-01 2.15418E-02-1.05384E-01-2.39628E-01
 -1      1438 4.83981E-02 6.68191E-02 6.40614E-01 1.05439E-01 3.35993E-02 7.38161E-02
 -1      1439 1.46952E+00 1.11916E+00 9.94335E-01 1.06931E-01-2.18054E-02-4.74045E-01
 -1      1440-9.69993E-02-7.36865E-02-8.08597E-01-9.81874E-03-5.83086E-02-3.66588E-01
 -1      1441-1.70697E+00-1.58900E+00-1.11082E+00-2.51825E-02 1.82870E-01-4.56275E-01
 -1      1442-6.53779E-01-5.93306E-01-9.55432E-01-2.59898E-01-1.45208E-01-5.10245E-01
 -1      1443-2.01548E-01 2.45192E-01 4.47648E-01-2.31323E-01 2.32542E-01-3.94020E-01
 -1      1444-1.46279E+00-1.17120E+00-4.73041E-01-1.18424E-01-2.50169E-03-1.94935E-01
 -1      1445-1.84129E+00-1.55026E+00-1.24532E+00-6.00548E-02-1.91712E-01-5.21162E-01
 -1      1446-9.23036E-01-8.96583E-01-1.87503E+00-1.90996E-01-2.74608E-01-7.19181E-01
 -1      1447-1.38613E+00-1.41295E+00-7.32073E-01 2.90700E-01 1.01058E-02-2.13448E-01
 -1      1448-2.08735E+00-1.63307E+00-1.63745E+00 2.62858E-01 2.78447E-01-7.87138E-01
 -1      1449 2.49391E-01 1.94146E-01 7.65123E-01 2.77098E-02-8.86041E-02-2.78379E-01
 -1      1450-2.08642E+00-1.43886E+00-1.47438E+00-3.00001E-03 3.30995E-02-6.52155E-01
 -1      1451 5.61182E-01 4.49615E-01 7.21319E-01 2.81198E-01-1.93926E-01-3.52331E-01
 -1      1452-1.50237E+00-1.31349E+00-5.98549E-01 4.99902E-02-1.89125E-01-2.53888E-01
 -1      1453-9.95110E-03 1.94056E-01 2.70608E-01-1.72038E-01 1.21560E-01-1.66110E-01
 -1      1454-7.87323E-01-5.91802E-01-1.07373E+00-3.06218E-01-1.49030E-01-6.38438E-01
 -1      1455-2.77016E-01 2.78820E-01 4.58208E-01-2.76415E-01 2.79160E-01-5.11429E-01
 -1      1456-1.62253E+00-1.48996E+00-1.16809E+00 5.86756E-04-2.14614E-01-5.84973E-01
 -1      1457-4.92340E-01-5.56884E-01-7.26109E-01-1.47454E-01-1.18853E-01-3.19664E-01
 -1      1458-8.06731E-02-2.00499E-02 4.58040E-01-7.00107E-02 1.51705E-01-5.49113E-02
 -1      1459-2.52844E-01 1.38718E-01 3.71963E-01-2.46692E-01 1.72243E-01-2.64090E-01
 -1      1460-5.23995E-01-6.32082E-01-5.65463E-01 1.31114E-01 1.45878E-01-3.14063E-01
 -1      1461-1.90110E+00-1.10077E+00-1.39248E+00 8.47851E-02-1.13052E-02-8.55560E-01
 -1      1462-1.65268E+00-7.09945E-01-4.28822E-01-5.26228E-02-1.85756E-01-5.26196E-01
 -1      1463-1.88543E+00-1.30538E+00-1.28203E+00 1.68513E-01 1.29942E-01-7.34793E-01
 -1      1464-3.53515E-01-1.61259E-01-2.11086E-01 6.53892E-02 8.31915E-02-2.14225E-01
 -1      1465 1.06009E+00 1.12339E+00 1.97977E+00-8.06354E-02-3.07346E-01-7.00693E-01
 -1      1466-7.02867E-02-5.17442E-02-6.95281E-01 1.42591E-02 4.09012E-02-2.89675E-01
 -1      1467-7.92160E-01-6.82264E-01-9.74451E-01 2.93468E-01 1.18467E-01-6.49052E-01
 -1      1468-1.93907E-01 2.42322E-01 5.82306E-01 2.12998E-01-2.60127E-01-4.32227E-01
 -1      1469-9.50045E-01-5.70155E-01-5.48966E-02-2.19270E-02 2.05736E-02-1.93451E-01
 -1      1470-6.62947E-01-6.17109E-01-8.09946E-01-2.77189E-01-1.53247E-01-3.88637E-01
 -1      1471-9.78169E-01-8.90271E-01-9.52694E-01 7.78068E-02-4.15200E-01-3.71712E-01
 -1      1472 1.09037E+00 5.43864E-01 1.80318E+00-8.12171E-02-7.79164E-02-7.83421E-01
 -1      1473 6.73323E-01 5.13198E-01 9.94571E-01 2.76650E-01-2.18445E-01-6.43355E-01
 -1      1474 2.49104E-01-2.11088E-01-5.48577E-01 2.29441E-01 2.25320E-01-5.09378E-01
 -1      1475-3.08995E-02 3.14988E-02 6.17853E-01 4.40056E-02-1.74189E-01-8.64206E-02
 -1      1476 5.19177E-02-6.90719E-03 6.46538E-01 4.26020E-02-2.35023E-01-1.94593E-01
 -1      1477-1.88948E+00-1.52653E+00-1.24198E+00 5.84705E-02-3.71521E-02-6.49491E-01
 -1      1478 1.92597E-01 9.88826E-02-2.94866E-02-1.52219E-02-9.35633E-02-1.37577E-01
 -1      1479 3.43116E-01 5.23820E-01 1.09551E+00 6.76340E-02-2.71657E-02-4.08068E-01
 -1      1480 1.19902E+00 1.00324E+00 5.05607E-01-1.35036E-01-3.57362E-03-2.50483E-01
 -1      1481-1.73011E-01-4.07752E-01-1.14171E+00 3.12680E-02 3.09486E-01-1.16022E-01
 -1      1482 2.32088E+00 1.63634E+00 2.01626E+00-1.91091E-02 9.84516E-02-9.27290E-01
 -1      1483 1.41130E+00 7.90166E-01 4.08138E-01-2.49673E-01 2.67832E-01-4.05777E-01
 -1      1484-1.92897E-01-4.06081E-01-5.10984E-01 4.15100E-02 2.68565E-01-3.50162E-01
 -1      1485 4.74371E-01 5.29718E-01 1.41337E+00 1.47912E-01-4.19270E-01-4.21853E-01
 -1      1486 1.68456E-01 2.58007E-01 4.63677E-01 1.36734E-01-1.47298E-01-1.88301E-01
 -1      1487-7.81037E-02-2.51385E-01-6.88809E-01-7.02747E-02-9.92605E-02-3.39275E-01
 -1      1488-2.17749E-02-1.28806E-02-7.94275E-01-3.29214E-02-2.25369E-01-1.77406E-01
 -1      1489-1.90671E-01-3.02923E-01 2.37907E-02 1.52657E-02-1.17877E-01-5.56088E-02
 -1      1490-3.83366E-02-1.61526E-01-5.47670E-01-1.01298E-01 7.11535E-02 6.92050E-02
 -1      1491-5.87952E-01-4.98962E-01-1.44023E+00-1.08718E-01-3.06818E-01-6.49920E-01
 -1      1492-1.70626E+00-1.31406E+00-5.42994E-01-4.26577E-02 1.36667E-01-3.20562E-01
 -1      1493 1.57605E-01 3.84743E-01 9.95150E-01-9.28753E-02 3.62962E-01-1.06336E-01
 -1      1494 1.70623E+00 1.00049E+00 1.29507E+00-1.40415E-01 4.62912E-02-7.10523E-01
 -1      1495 1.30735E+00 4.84592E-01 3.61554E-01 1.15443E-02-6.64068E-02-3.62244E-01
 -1      1496 1.75260E+00 1.23894E+00 1.34191E+00-2.79083E-01 1.86172E-01-7.19837E-01
 -1      1497-1.05816E+00-8.86552E-01-1.65021E+00 1.80839E-01 2.80063E-01-6.52994E-01
 -1      1498 1.04127E+00 6.47854E-01 3.88068E-01-1.04774E-03 8.37738E-02-1.59346E-01
 -1      1499-2.47861E-01-3.49826E-02 3.14617E-01-4.99560E-02-1.52880E-02-2.53507E-02
 -1      1500-9.19329E-01-6.44430E-01-1.12375E+00 2.73744E-01 1.35454E-01-7.24554E-01
 -1      1501-1.99440E-01 3.07828E-01 6.60665E-01 2.31257E-01-3.18742E-01-4.99853E-01
 -1      1502-7.36840E-02-1.60395E-01-6.61130E-01 8.63951E-04 1.83323E-01-1.66274E-01
 -1      1503-8.25677E-01-7.18695E-01-8.59248E-01 2.57365E-01 1.94687E-01-5.31676E-01
 -1      1504-3.83124E-01-5.47423E-01-1.34863E+00-8.85088E-02-8.58835E-02-5.76418E-01
 -1      1505-1.64199E+00-1.47153E+00-7.04457E-01-2.41456E-01 6.59982E-03-2.50136E-01
 -1      1506-1.78724E+00-1.53192E+00-1.47638E+00-1.82785E-01-2.12073E-01-7.00003E-01
 -1      1507-1.68545E-01 1.59032E-01 4.00852E-01 2.01506E-01-2.01001E-01-3.04993E-01
 -1      1508-3.39041E-01-3.22754E-01-4.48493E-02 4.33880E-02 2.02678E-01-1.87689E-01
 -1      1509-1.71705E+00-1.74600E+00-1.10268E+00 3.32384E-02-1.88436E-01-4.36158E-01
 -1      1510 5.05213E-01 4.78901E-01 1.59737E+00-1.00936E-01-1.22567E-01-5.78344E-01
 -1      1511-4.86780E-01-5.44003E-01-1.51406E+00-1.49391E-01-3.90052E-01-4.03643E-01
 -1      1512 1.80858E+00 1.34144E+00 1.25424E+00-3.80281E-02 1.00265E-01-6.60540E-01
 -1      1513 1.90593E-01 4.38476E-01 1.18709E+00 3.65207E-02-3.73561E-01-1.13083E-01
 -1      1514 7.46643E-01 7.21029E-01 1.77026E+00-2.05296E-01 3.56191E-01-5.26622E-01
 -1      1515 1.05637E-01-2.79773E-02-2.31696E-01 8.24310E-03 1.24093E-02 3.55677E-02
 -1      1516-5.83058E-01-8.04486E-01-1.60532E+00 1.57283E-01 3.83426E-01-3.76486E-01
 -1      1517-7.39568E-01-6.08365E-01-1.48248E+00-7.23837E-03-5.02325E-02-6.81527E-01
 -1      1518-1.26226E-01-2.10471E-02-4.02675E-02-1.42090E-02 1.47360E-01-1.93299E-02
 -1      1519-1.32873E-01-1.08166E-01 9.28176E-03 3.38537E-03-1.75197E-01 9.67761E-02
 -1      1520 1.42046E-02-6.42699E-03-7.86864E-03 4.54901E-02-4.29776E-03-6.08486E-02
 -1      1521 6.03812E-02-8.68931E-03 1.69275E-02 2.06692E-02-1.52766E-01 3.61139E-02
 -1      1522-1.13840E-02-3.47406E-03-4.57285E-03-2.61653E-02-2.86434E-03-6.46458E-02
 -1      1523-5.07940E-01-3.40112E-01-2.75158E-01-3.91281E-03-2.88467E-03-5.32396E-02
 -1      1524 3.93798E-01 1.63230E-01 6.63679E-02 6.45100E-02-2.17531E-02-9.60011E-02
 -1      1525-3.11629E-01-3.48327E-01-2.26846E-01 6.12050E-02-2.00742E-01 3.28995E-01
 -1      1526-6.81532E-02 3.00197E-02 6.94945E-02 2.95800E-02 1.31802E-01 3.69148E-01
 -1      1527-1.92892E-01-1.53956E-01-3.71086E-01 3.98068E-02-6.25679E-02 5.34913E-01
 -1      1528 2.96395E-01 2.62202E-01 1.83837E-01 2.19201E-02 8.78527E-02 2.83886E-01
 -1      1529-1.84677E-01-1.44766E-01-1.44511E-01-2.74000E-02-1.77281E-02 4.20575E-01
 -1      1530-8.81860E-02-5.62481E-02 8.62581E-03-7.57902E-02-1.49088E-01 2.71984E-01
 -1      1531 2.69775E-02-8.78767E-02-3.53570E-03 1.73670E-02-2.71137E-01 2.36773E-01
 -1      1532 1.68196E-01 1.47269E-01 1.60510E-01 2.39350E-03 1.65600E-01 1.91000E-01
 -1      1533-6.60050E-02-1.71255E-02-6.78711E-02 1.97484E-02-2.25689E-01 3.87448E-01
 -1      1534 9.73963E-02 6.63254E-02-4.45889E-02-5.31737E-02 1.86601E-01 3.16945E-01
 -1      1535-3.27355E-01-2.37759E-01-3.85776E-01-4.37619E-02 2.38245E-01 4.74132E-01
 -1      1536 8.46362E-03 8.41078E-03-3.02979E-03-1.28644E-02 3.92338E-03-2.47239E-01
 -1      1537 7.73510E-02 9.78453E-02 1.34485E-02 5.08594E-02 2.28097E-01 2.20859E-01
 -1      1538-1.11467E-02 5.77427E-02 2.21120E-02 5.63154E-03 2.37482E-01 1.05946E-01
 -1      1539 1.03758E-01 3.29040E-01 1.08158E-01-9.89359E-03 1.87802E-01 1.01166E-01
 -1      1540-5.09693E-02 3.26377E-03 3.05195E-02-1.77387E-02 5.84553E-02-2.10135E-03
 -1      1541 3.72213E-02 4.88835E-02 1.82388E-02-5.09788E-02-1.32928E-02 1.04817E-02
 -1      1542-1.39981E-01-1.07756E-01-1.52523E-01 2.70794E-02 2.38484E-02-3.24826E-02
 -1      1543 1.16266E-01 6.14899E-02 6.16722E-02-3.29570E-02-7.44490E-02-7.23310E-03
 -1      1544-5.45203E-02-1.29523E-01-1.55341E-01-1.90797E-02-2.08329E-01 7.41796E-02
 -1      1545 2.54807E-03-2.48667E-02-3.14067E-02 2.32609E-02 7.29017E-02 6.64949E-03
 -1      1546-8.47717E-02-1.02361E-01-1.44186E-01 3.52367E-03-2.56328E-01 1.30716E-01
 -1      1547 2.30570E-01 1.73562E-01 4.90683E-02 6.22827E-02 1.42846E-01 3.83312E-01
 -1      1548 2.39577E-01 2.11575E-01 2.06348E-01 8.33876E-02 2.13042E-01 3.21687E-01
 -1      1549-5.78007E-01-5.29997E-01-4.91772E-01-1.03933E-01 1.79413E-01 5.48216E-01
 -1      1550 4.71380E-01 2.84377E-01 1.64380E-01 5.65007E-02 2.87003E-02 4.43482E-01
 -1      1551-2.56812E-02-1.41984E-02 2.21326E-02-2.38026E-02 1.99650E-01 1.29413E-01
 -1      1552 1.91108E-01 9.37378E-02 1.71870E-01-4.10037E-03-1.20090E-01 4.30976E-01
 -1      1553 2.05613E-01 9.61821E-02 1.84753E-01 5.54773E-02 9.89358E-02 4.36398E-01
 -1      1554 2.57931E-01 2.70858E-01 2.99436E-01-3.84860E-02-2.28841E-01 5.21835E-01
 -1      1555-1.47922E-01-1.72512E-01-5.96720E-02 4.89198E-02 3.98214E-02 1.66425E-01
 -1      1556 8.21011E-02 6.72072E-02 9.69414E-02-5.40607E-02-2.24693E-01 3.17543E-01
 -1      1557 1.13426E-01 1.46021E-01 1.98450E-01-5.59353E-02-3.15908E-01 2.32724E-01
 -1      1558 1.65939E-02 5.83919E-02 5.12724E-02-2.01729E-02-2.34817E-01 1.18880E-01
 -1      1559 5.05127E-02 6.08453E-02 1.07555E-01 1.25457E-02-2.07784E-01 9.65591E-02
 -1      1560-3.65642E-02 1.34062E-02 4.84222E-02 3.79220E-02-9.44585E-02 9.90412E-03
 -1      1561 5.34569E-02 2.91301E-02 5.23482E-02 1.74363E-02 1.77608E-03-3.28029E-03
 -1      1562 1.22793E-03-8.02901E-02-7.46306E-02 4.34786E-02 1.09715E-01 1.04626E-02
 -1      1563-8.57111E-02-1.63759E-01-4.16772E-02 8.34256E-03 1.29259E-01 6.22938E-02
 -1      1564-2.81236E-02-1.36257E-01-9.61636E-02-3.68634E-02 2.16953E-01 2.00583E-01
 -1      1565-1.06979E-01-1.54469E-01-4.38258E-02-5.56344E-02 2.28147E-01 2.40685E-01
 -1      1566 1.30368E-02 8.71227E-02 8.81365E-02 2.86252E-02-7.98415E-02-1.08980E-02
 -1      1567-2.13758E-01-7.88147E-02 5.26874E-02-5.00260E-02 1.05960E-01 4.27099E-01
 -1      1568-4.08976E-01-2.29162E-01-2.60552E-02 4.61694E-02 4.17234E-03-6.07569E-02
 -1      1569-8.32559E-02-1.80086E-01-8.68339E-02 2.07991E-02 1.09761E-01 3.09226E-01
 -1      1570-9.66404E-03 3.91811E-02 1.01537E-01 3.39464E-02 1.58688E-01 2.02702E-01
 -1      1571-5.61509E-03 9.41207E-03-6.69667E-02-1.29768E-02-1.24825E-01 2.95763E-02
 -1      1572-1.08129E-01-1.43710E-01-1.15139E-01-1.03855E-02 1.55789E-01 4.50983E-02
 -1      1573 1.59244E-01 9.48514E-02 1.96718E-01-1.05616E-02 2.19550E-01 8.95638E-02
 -1      1574-9.49347E-03-5.42171E-02-1.56254E-01-8.35258E-03-7.13851E-02 3.90349E-01
 -1      1575-7.83740E-02-9.51170E-02-7.90887E-02-3.75317E-02 2.73036E-01 3.80524E-01
 -1      1576-3.23084E-02 1.08124E-02 5.31754E-02-4.91232E-02-1.74751E-01 4.04546E-01
 -1      1577 2.04755E-01 2.99530E-01 1.85624E-01 1.05121E-02 2.63281E-01 1.45963E-01
 -1      1578 3.77477E-01 1.16009E-01-2.67418E-02-3.20123E-02-6.38530E-02 4.92441E-01
 -1      1579-3.18378E-01-1.42299E-01-1.04033E-01-3.46452E-02-7.51829E-02 2.03909E-02
 -1      1580-2.79873E-02-3.31307E-03 1.20362E-02 1.19684E-01-3.09868E-02-2.05405E-01
 -1      1581-7.12060E-02-7.58006E-02-8.37835E-02-3.16449E-02 2.68939E-01 1.73480E-01
 -1      1582-9.05196E-02 6.85239E-02-1.07213E-01-3.92808E-02-1.91518E-01 1.23706E-01
 -1      1583 3.88286E-02 3.01872E-02-8.49997E-03-4.10167E-02-5.85864E-02-2.48885E-02
 -1      1584 5.45500E-01 3.13286E-01 1.42370E-01-1.97838E-03-6.60393E-02 9.26214E-02
 -1      1585-1.44229E-01-1.22650E-02-5.45564E-02 5.83893E-02-2.06578E-01 6.12984E-02
 -1      1586 1.64337E-01 1.35742E-01 8.95558E-02-6.95233E-02-2.20857E-01 3.22005E-01
 -1      1587-1.53137E-01-1.03757E-01-7.91456E-02-3.84904E-02 1.44841E-01 2.45463E-01
 -1      1588-3.98787E-03-6.61993E-02-6.98045E-02 4.63457E-02 8.96318E-02-4.53122E-02
 -1      1589 2.13998E-02 9.91247E-03-9.25771E-02 1.58400E-02-2.43737E-01 1.67521E-01
 -1      1590 1.05175E-01 1.94389E-01 8.28686E-02-2.45361E-02-2.09446E-01 1.28704E-01
 -1      1591-8.97208E-02-1.54161E-01-1.83475E-02 3.57304E-02 5.91411E-02 2.56547E-01
 -1      1592-2.77003E-02-8.04446E-02-3.64757E-02-2.48637E-02 1.75585E-01 7.23085E-02
 -1      1593-3.14057E-01-1.32415E-01-1.36836E-01 1.12313E-01-4.14216E-02-1.16422E-01
 -1      1594 2.52728E-03 8.96118E-02-8.15930E-02 2.77977E-02-8.32232E-02 2.58273E-01
 -1      1595-2.88086E-02-1.27315E-01 4.17590E-03 8.16660E-03-2.81147E-01 1.71247E-01
 -1      1596-1.99134E-02-7.31078E-02-2.02487E-02 3.50038E-03-1.69962E-01 4.90741E-02
 -1      1597 4.01058E-02-1.70805E-02 1.72608E-02-1.14388E-04-2.33603E-01 4.46918E-01
 -1      1598-4.34527E-01-3.07595E-01-2.11798E-01 1.89962E-02-4.41380E-02-1.26469E-01
 -1      1599 1.65605E-01 1.17247E-01 1.54686E-01 4.33545E-02 1.41482E-01 5.53422E-01
 -1      1600-3.94557E-01-4.38593E-01-1.37158E-01 1.64049E-01-2.05208E-01 2.79861E-01
 -1      1601 1.51371E-01 1.32048E-01 6.80714E-02-5.02491E-02 1.40385E-01 2.29714E-01
 -1      1602-3.17492E-01-1.76076E-01-1.35682E-01 1.36226E-02-4.57031E-02 5.05678E-02
 -1      1603 5.12474E-02 3.19873E-02-6.26442E-03 3.52485E-02 3.14889E-02 1.24280E-02
 -1      1604 2.23829E-02-5.42470E-03 1.50799E-02-2.58208E-02-7.48587E-02-1.54605E-02
 -1      1605-5.17554E-01-4.20759E-01-5.11449E-01 2.18554E-02-7.91319E-02 6.92894E-01
 -1      1606-1.17713E-01-2.43063E-02 3.54539E-03 6.97020E-03-1.83068E-01 4.19476E-01
 -1      1607-2.35853E-02-7.73604E-02 3.64165E-02 3.22772E-02-2.35886E-01 1.37696E-01
 -1      1608-1.31116E-01-1.98110E-02 6.21128E-03 2.92508E-02-1.30552E-01 4.05212E-02
 -1      1609 4.59668E-02 1.45664E-01-9.23791E-02-2.41820E-02-1.59118E-01 5.86656E-02
 -1      1610 1.63169E-02 1.15651E-01 1.76744E-02 1.50224E-02 1.96859E-01 2.74917E-01
 -1      1611 3.31297E-01 3.41606E-01 2.56263E-01-5.06486E-02-3.18411E-01 2.79648E-01
 -1      1612 4.26368E-01 2.79915E-01 8.86488E-02-2.27961E-03-8.05554E-02 4.71570E-01
 -1      1613 1.20128E-02 7.38112E-02 3.07150E-02-2.56178E-02 1.34906E-01 2.04987E-02
 -1      1614-2.59333E-02 3.37697E-02 1.99635E-02-2.84357E-02 5.09539E-02-3.08190E-02
 -1      1615-3.40093E-02 3.28685E-02 4.71639E-02-1.29828E-02-1.95933E-01 2.26410E-01
 -1      1616-4.05912E-04 4.79778E-02 8.31236E-03-3.51965E-02 5.34679E-02 4.48727E-03
 -1      1617 8.27212E-03 1.34850E-02-7.66072E-02-1.62696E-02 6.47508E-02 7.14863E-03
 -1      1618 7.51261E-02 3.04004E-02-2.01245E-02-2.97314E-02-4.51146E-02-6.30066E-02
 -1      1619 6.85205E-03-4.41879E-02-6.53632E-02 2.81749E-02-2.96797E-01 1.53859E-01
 -1      1620-6.65876E-02-1.28821E-01-6.66619E-02-1.02669E-01 1.29471E-01 3.86078E-01
 -1      1621-1.58024E-01-3.07776E-01-1.98931E-01 3.61412E-02-3.31717E-01 2.83982E-01
 -1      1622-1.67306E-01-1.38658E-01-9.99329E-02-3.01566E-02-1.41500E-01 1.49825E-01
 -1      1623 1.68701E-02 3.10486E-02 4.74964E-02 1.74228E-02-8.21648E-02 7.34320E-02
 -1      1624 3.53823E-01 2.71961E-01 1.37617E-01-1.90402E-02 7.15781E-02 1.50213E-01
 -1      1625 3.04542E-01 1.69117E-01 4.40994E-02-3.72808E-02-9.45690E-02 1.85822E-02
 -1      1626 2.89000E-01 3.32834E-01 7.39370E-02-5.84909E-03-7.24630E-02 1.08846E-01
 -1      1627 5.75254E-03-6.37928E-02-1.31582E-01 7.35843E-02 1.90667E-01 4.00630E-01
 -1      1628-2.46405E-02-7.39164E-04 3.01168E-02 4.15117E-02-2.13182E-01 3.45481E-01
 -1      1629-2.48185E-01-1.15903E-01-1.27874E-01 6.68037E-02-1.52773E-01 4.28034E-01
 -1      1630-2.97866E-01-4.65429E-02-2.61074E-02-5.46801E-02-2.62939E-02 4.20088E-01
 -1      1631 2.81203E-01 1.60717E-01 1.91553E-01-6.45377E-03-1.45384E-01 6.33343E-02
 -1      1632-2.02832E-01-1.50924E-01-3.12324E-02-6.60940E-02-9.44967E-02 1.99486E-01
 -1      1633-4.79047E-02-1.06636E-01 5.35845E-02-3.95943E-02 2.31221E-01 1.28776E-01
 -1      1634 3.65328E-02-6.79616E-03-1.44296E-02 3.12655E-02-3.49708E-02-1.72478E-02
 -1      1635-2.22342E-01-1.44663E-01-1.67017E-01 4.68121E-02-1.18712E-01-2.54183E-02
 -1      1636 2.08007E-02-1.09785E-01 1.03957E-01-1.27430E-02 1.09094E-01 4.35634E-01
 -1      1637-6.30525E-02 8.22970E-03 6.92180E-02-1.90471E-02-1.29006E-01 1.70579E-01
 -1      1638 2.87280E-01 2.27122E-01 1.34919E-01-6.19023E-02-3.34782E-01 2.99454E-01
 -1      1639 1.79077E-01 1.29453E-01 6.90954E-02 4.44228E-02-1.77632E-01 2.31685E-01
 -1      1640 2.26265E-01 1.59832E-01-3.85330E-02 5.87576E-02 1.79735E-01 2.96370E-01
 -1      1641 2.57033E-01 1.19875E-01 5.73638E-02-3.83614E-02-5.86312E-02-2.04520E-03
 -1      1642-6.39986E-02 9.70925E-02-1.11825E-02-2.11775E-03 2.68139E-01 1.43720E-01
 -1      1643-3.67489E-01-2.97528E-01-4.04473E-01-1.58925E-02 7.73846E-02 5.39891E-01
 -1      1644-2.56193E-02-8.79933E-02 2.82741E-02 3.95116E-02-1.63525E-01 6.45748E-02
 -1      1645-7.71416E-02-1.56820E-01-5.06595E-02 3.13094E-02 4.67697E-02 4.07342E-03
 -1      1646 1.38829E-02-7.98791E-02-3.81209E-02-4.89308E-03-9.18817E-02 2.46471E-02
 -1      1647 6.43659E-02 1.51957E-01 8.49372E-02 7.08646E-03-1.75873E-01 4.82713E-02
 -1      1648-6.43052E-02-8.36746E-02-1.07539E-02-2.42982E-02 1.47374E-01 4.80651E-02
 -1      1649-1.39353E-02-1.84487E-01-1.31864E-01 3.19262E-02-2.00137E-01 2.52660E-01
 -1      1650-3.46884E-01-3.23224E-01-4.11519E-01-3.38888E-02 2.57437E-01 5.27909E-01
 -1      1651 4.30602E-01 2.12059E-01 1.36786E-02 1.35373E-02 3.54578E-02 3.45955E-02
 -1      1652-5.97890E-02-7.39139E-02-2.24830E-01 4.95495E-02-9.37914E-02 4.76613E-01
 -1      1653 1.91940E-01 1.85043E-01 1.22594E-01-7.56668E-02-8.79794E-02-6.62290E-02
 -1      1654-1.39687E-01-1.33704E-01-1.17517E-01 1.71932E-02-3.08595E-01 1.69909E-01
 -1      1655 5.44149E-02 1.29489E-02-3.66773E-02-2.60074E-02 8.75354E-02 2.45656E-02
 -1      1656-7.72413E-02 2.34490E-02 2.80314E-02 3.57466E-04 1.95338E-01 3.47739E-02
 -1      1657 4.92019E-01 4.20946E-01 4.01422E-01 1.02667E-01 1.84516E-01 5.68381E-01
 -1      1658-3.68815E-01-2.16221E-01-8.50953E-02 3.54470E-02-3.86531E-02-3.80264E-02
 -1      1659 8.93062E-02-2.41209E-02-1.20400E-02-3.65160E-02-2.46637E-01 1.84924E-01
 -1      1660 1.90221E-01 5.15225E-02-1.22600E-02-6.26719E-02-4.03099E-02-1.06037E-01
 -1      1661-4.64775E-02 2.26980E-02-8.22531E-02-4.88530E-03-1.30251E-01 3.76740E-01
 -1      1662-4.38168E-01-2.79811E-01-3.69623E-01-2.87590E-02 1.79759E-02 5.91019E-01
 -1      1663-2.03036E-02-1.50228E-01-8.81851E-02 4.67735E-02 9.06003E-02 7.49708E-02
 -1      1664 1.05824E-01 1.66618E-01 1.48891E-01-1.66504E-02 1.15903E-01-3.04780E-03
 -1      1665-3.55266E-01-2.58631E-01-2.06006E-01-3.13917E-02-8.23889E-02 2.35676E-02
 -1      1666 1.28237E-01 1.53469E-01 3.11606E-02 3.53263E-03-8.44036E-02 2.38401E-01
 -1      1667 1.15650E-01 1.98980E-01 1.26484E-01 8.84566E-03-2.52563E-01 1.24700E-01
 -1      1668-3.41836E-01-2.86989E-01-1.95934E-01-8.14547E-02 2.87161E-01 3.56801E-01
 -1      1669 8.90501E-02 1.22831E-01-5.17003E-02-2.49985E-02 1.30452E-01 1.33030E-01
 -1      1670-2.54252E-01-3.31343E-01-3.30167E-01-4.95974E-02 3.31119E-01 2.43232E-01
 -1      1671-1.48154E-02-1.00229E-02-3.62734E-03 6.27015E-03-6.93268E-03-2.35909E-01
 -1      1672 6.51406E-01 3.83133E-01-5.50255E-02 1.15303E-01 3.54724E-02-1.40726E-01
 -1      1673-9.35399E-02-2.06268E-01-3.30798E-02-2.90675E-02 1.77137E-01 1.74435E-01
 -1      1674 8.26227E-02 5.14510E-02 3.59732E-02-9.59995E-03 1.14416E-01 5.88206E-02
 -1      1675-2.81882E-01-1.55721E-01-8.94393E-02-8.14010E-02 2.69385E-02-8.53426E-02
 -1      1676 4.41303E-02-4.06800E-04 3.77323E-02-5.30786E-02-1.14844E-04-1.60635E-01
 -1      1677-9.98747E-03 3.50276E-02-1.85315E-02 3.62128E-02-1.43239E-01 1.03836E-02
 -1      1678-2.01455E-01-1.35834E-01-8.42823E-02 2.75804E-02 1.57935E-02-2.49145E-01
 -1      1679-5.07417E-02-9.59039E-02-7.02033E-02 1.76322E-02 7.78949E-02 2.08273E-05
 -1      1680-6.42933E-02-1.10475E-01-1.49123E-01 1.12477E-02-3.64752E-01 2.42092E-01
 -1      1681-1.23216E-01-4.69726E-02-8.62062E-02 5.48905E-02-9.38123E-02-2.56515E-02
 -1      1682-3.07488E-01-1.65255E-01-1.49440E-01 6.13338E-02-6.66361E-02-1.55366E-01
 -1      1683 9.16841E-02 1.38256E-01 1.56157E-01 1.39405E-02-2.00754E-01 5.44352E-02
 -1      1684 2.38664E-01 2.34389E-01 3.37762E-01 2.18244E-02-3.01788E-01 3.97286E-01
 -1      1685-7.06825E-02-3.51207E-02-9.70291E-02-4.54520E-03-1.46223E-01 9.11986E-02
 -1      1686-5.86513E-01-3.47884E-01-3.45339E-01 8.08362E-02-2.49407E-01 4.90214E-01
 -1      1687 5.43726E-02 1.32779E-01 9.20129E-02 4.06041E-03-2.72811E-01 1.62193E-01
 -1      1688 3.85692E-01 3.64454E-01 3.69301E-01-8.30493E-02-3.32579E-01 5.22513E-01
 -1      1689 3.22222E-01 1.83419E-01 1.43844E-01 1.17012E-01 4.25783E-02-8.77478E-02
 -1      1690 6.31168E-02-2.54101E-02 3.03131E-03 6.35614E-02 1.63275E-02-5.24466E-02
 -1      1691 6.09736E-01 4.04579E-01 4.51752E-01 1.72500E-01 1.07350E-01 6.25163E-01
 -1      1692-6.01091E-01-3.95130E-01-3.54988E-01 1.57533E-02-3.90235E-02-1.83102E-02
 -1      1693 4.81480E-01 3.89055E-01 4.52317E-01-1.80063E-01-8.45685E-02 5.76756E-01
 -1      1694-1.51524E-01-1.41959E-01 7.34536E-02-9.78202E-03-9.75229E-02 2.42506E-01
 -1      1695 5.48164E-01 3.70122E-01 1.65211E-01-5.80611E-02-1.55685E-01 4.16000E-01
 -1      1696 3.24236E-01 2.03261E-01 2.15625E-01-3.50807E-03-2.14476E-02 6.15842E-01
 -1      1697 6.86598E-02 6.39949E-02 4.44144E-02-5.30509E-03-6.55934E-02 2.34278E-01
 -1      1698-4.12679E-01-2.45592E-01-7.03798E-02 8.46694E-02-5.60308E-02-9.26093E-02
 -1      1699 5.59254E-01 4.91406E-01 4.05627E-01 1.47217E-01 3.23499E-01 4.21644E-01
 -1      1700 3.30780E-01 4.72424E-01 4.16125E-01 4.68424E-02 2.97292E-01 3.71445E-01
 -1      1701 2.28159E-04 7.17936E-03 3.26601E-02-5.54272E-02-1.34018E-01 3.34610E-01
 -1      1702-8.54526E-02-7.68580E-02-9.43393E-02-6.74101E-04-1.23606E-01 2.19554E-01
 -1      1703-2.57319E-01-2.26938E-01-8.81492E-03 8.10412E-02-2.38605E-01 2.62392E-01
 -1      1704-3.83010E-01-1.53242E-01 4.18105E-02-2.16863E-03-3.50411E-02-4.06413E-03
 -1      1705 1.42182E-01 1.48607E-01 2.88344E-01 5.40724E-02 2.15394E-01 3.03903E-01
 -1      1706-2.14471E-01-2.21221E-01-1.94075E-01 7.53746E-02-2.73645E-01 1.16432E-01
 -1      1707-4.69719E-02-5.06615E-02-6.25582E-02 8.22283E-03-1.82251E-01 5.92176E-02
 -1      1708 4.26109E-02 6.68590E-02 5.22066E-03 2.47404E-02-2.70042E-02-2.13995E-01
 -1      1709 1.73736E-01 1.47262E-01 3.98887E-02-2.57070E-02 2.60535E-02-2.53762E-01
 -1      1710-2.41664E-01-1.55484E-01-4.66685E-03 1.61472E-01-5.88385E-02-2.65032E-01
 -1      1711-3.35828E-01-3.31704E-01-3.29093E-01-5.28354E-02 2.97853E-01 4.11878E-01
 -1      1712-2.39060E-01-3.21722E-01-2.42087E-01 8.16158E-02-3.21940E-01 5.87766E-01
 -1      1713 1.90949E-01 2.82421E-01 2.63172E-01 6.72217E-02 2.93568E-01 3.35395E-01
 -1      1714 1.43405E-01 2.79063E-01 1.40066E-01-8.50618E-03-2.24330E-01 1.43877E-01
 -1      1715 5.64382E-02 3.37650E-02-4.52542E-02 3.59860E-02 2.60853E-01 2.14444E-01
 -1      1716-2.26665E-01-1.59397E-01-1.65226E-02-9.91036E-02 9.53254E-02 4.25956E-01
 -1      1717-4.44699E-02 5.47846E-03 3.87385E-02 4.17166E-02 1.65323E-01 1.39169E-01
 -1      1718 2.70273E-03 2.51529E-02 8.25870E-02 3.78409E-02-6.83063E-02 2.15166E-02
 -1      1719 4.59920E-01 1.43340E-01-9.44518E-02 7.29590E-03 5.72183E-02 3.50372E-01
 -1      1720-3.17464E-01-1.57598E-01-1.35634E-01-5.45654E-02 1.08933E-01 7.09779E-02
 -1      1721 9.88715E-02 8.75889E-02 9.47929E-02 8.48559E-02 2.07317E-02-1.07132E-01
 -1      1722-4.10640E-01-2.27914E-01-3.63641E-02 2.76266E-02 5.74858E-02 4.49315E-02
 -1      1723-3.74872E-01-2.45757E-01-5.55335E-02 8.13707E-02-3.66963E-02-3.42324E-02
 -1      1724-2.57960E-01-1.61614E-01-1.02149E-01-1.31911E-02 3.65739E-01 5.27944E-01
 -1      1725 8.43112E-03-2.28787E-02 3.83399E-03 2.53958E-02-1.94771E-01 4.58250E-02
 -1      1726-5.02500E-01-3.01067E-01-1.88886E-01 4.66497E-02-1.29429E-02-7.95791E-02
 -1      1727 2.80861E-01 1.74906E-01 8.40069E-02-4.29147E-02-1.13891E-01 1.23030E-01
 -1      1728-1.15766E-01-6.12399E-02-3.75477E-02 2.77647E-02-1.23000E-01 5.91370E-02
 -1      1729-2.73461E-01-2.79187E-01-3.06806E-01-4.18603E-02 3.26309E-01 3.01884E-01
 -1      1730 2.98079E-02-1.47375E-02-2.78648E-02 7.33009E-02 5.52805E-02 2.64777E-02
 -1      1731-3.03125E-01-2.04737E-01-1.05580E-01-9.94523E-02 5.50271E-02-8.60335E-02
 -1      1732 9.35406E-02 4.69301E-02 2.46183E-03-3.98603E-02-1.29013E-01-2.68030E-04
 -1      1733-2.35376E-01-2.04815E-01-3.24559E-01 7.02759E-02-1.33182E-01 6.96263E-01
 -1      1734-2.73695E-01-2.36271E-01-2.33384E-01-8.42701E-03-1.12457E-01 1.81190E-01
 -1      1735 1.85511E-01 4.40679E-02 1.16392E-02-8.65077E-02-4.66048E-02-1.09121E-01
 -1      1736 3.79697E-02 5.50862E-02 3.05631E-02 5.30691E-02-1.66295E-02-2.29020E-01
 -1      1737 2.31308E-01 3.25576E-01 2.55160E-01 4.24374E-02 3.33236E-01 2.10046E-01
 -1      1738 3.72439E-02 5.02754E-02-1.35547E-02 6.88367E-02 2.45168E-01 2.19774E-01
 -1      1739-1.15292E-01-4.72138E-02-2.82518E-02 1.11169E-01-2.21164E-03-1.23925E-01
 -1      1740 4.16091E-01 1.67234E-01 1.53493E-01 5.19553E-02-9.13878E-02 6.63418E-01
 -1      1741 1.82628E-01 1.18374E-01 8.32001E-02-4.82705E-02-1.43968E-01-1.49005E-02
 -1      1742-2.19269E-01-2.00645E-01 4.20606E-02 1.69685E-03 8.10772E-02 2.03360E-02
 -1      1743-1.39956E-02-3.78926E-02 1.39812E-02-2.43145E-03 1.95265E-01 3.14767E-01
 -1      1744-9.13388E-02-1.99287E-01-6.83715E-03-7.09105E-03-9.99156E-02 5.58266E-02
 -1      1745 1.07120E-02 1.64837E-02 4.41520E-02-2.28574E-02 1.20055E-02-1.32787E-02
 -1      1746-3.10148E-02 3.10941E-02 3.24831E-02 1.65286E-02-1.98252E-01 4.10509E-01
 -1      1747-4.60910E-01-3.18014E-01-2.00526E-01 1.01506E-01 7.19954E-02 6.07403E-01
 -1      1748 7.66039E-02-1.53116E-01-5.60412E-02 1.48727E-02-8.76738E-02 3.81993E-01
 -1      1749 1.95124E-01 9.88371E-02-6.58954E-02 3.82319E-03-1.52063E-01 2.04909E-01
 -1      1750-5.68407E-02-8.77430E-02-1.31155E-01-2.24195E-02-2.66833E-02-7.08261E-02
 -1      1751-4.06267E-01-2.95915E-01-1.49450E-01-1.11913E-02 1.12366E-02 1.10851E-01
 -1      1752-4.03689E-02-1.29597E-01 2.19238E-02-3.52151E-02-6.21940E-02 5.41673E-02
 -1      1753-3.87771E-01-2.65348E-01-2.15011E-01 3.17302E-02-2.56342E-02-2.40222E-02
 -1      1754-4.44198E-02-3.13423E-02 8.27690E-03-2.56490E-02 1.65562E-03-2.08392E-01
 -1      1755-8.23749E-02-5.05289E-02 1.75044E-02 4.83778E-02-5.13002E-02-5.68108E-02
 -1      1756 4.11093E-01 3.52699E-01 3.40602E-01-6.09702E-02-1.86487E-01 4.65678E-01
 -1      1757-3.38719E-01-1.62396E-01-3.38248E-01-2.72582E-02 1.00176E-01 3.77160E-01
 -1      1758 3.47035E-01 1.57260E-01 4.29552E-02-1.59484E-01-6.74693E-02-1.89253E-01
 -1      1759 6.89400E-05-6.37538E-02-1.47620E-01-6.10770E-02 3.44136E-03-7.89711E-02
 -1      1760 4.35042E-02 9.38086E-02-2.49952E-02-6.30611E-02-1.59014E-01 2.90256E-01
 -1      1761-3.03977E-02-9.75426E-02 6.59800E-02-4.57510E-02 1.18354E-02-6.35795E-02
 -1      1762 4.80275E-02 1.01655E-01 7.63395E-02-1.67742E-02 1.99985E-01 7.54153E-02
 -1      1763-4.49368E-01-3.40349E-01-2.04929E-01 1.55266E-02 2.67968E-02-1.43857E-02
 -1      1764 3.03098E-01 2.67020E-01 1.67412E-01-4.14219E-02 7.48519E-02 8.64797E-02
 -1      1765-1.59264E-01-1.34021E-01-1.46733E-01-3.41225E-03-6.58180E-02 2.21249E-02
 -1      1766-6.78056E-01-3.64186E-01 3.75954E-03-7.90588E-02 6.34150E-02-1.42344E-01
 -1      1767-5.72334E-04 3.52854E-03-2.55757E-02-9.91395E-03 7.66805E-02-4.67790E-03
 -1      1768-2.76875E-02 5.86204E-02-1.47326E-02-7.67379E-02 2.26284E-01 3.13059E-01
 -1      1769-4.50758E-01-3.06354E-01-3.56579E-01 9.87600E-03 1.62202E-01 5.66661E-01
 -1      1770 2.15586E-01 5.62716E-02-2.28041E-02-5.98315E-03 1.76517E-01 1.08286E-01
 -1      1771 2.00854E-01 1.36734E-01 1.00680E-01-2.37057E-02 5.94411E-02 2.28825E-01
 -1      1772-4.02154E-01-2.65632E-01-1.92267E-01 4.39642E-02-4.58832E-02-1.00703E-01
 -1      1773 1.64692E-01 6.06849E-02 9.51997E-02 1.91064E-03-7.54539E-02 5.45188E-03
 -1      1774-4.14095E-01-4.61863E-01-4.20715E-01 1.56970E-01-1.06527E-01 6.61495E-01
 -1      1775-1.12191E-02 4.68024E-02 1.17035E-02-1.72135E-02 1.00789E-01 4.58856E-02
 -1      1776-2.41543E-01-2.83425E-02-9.82260E-02-5.49946E-02 3.05614E-01 3.88755E-01
 -1      1777-8.83544E-01-4.93270E-01-7.00260E-02 5.80774E-02-5.58815E-02-6.94078E-02
 -1      1778 3.31798E-01 2.15332E-01 2.29811E-01-6.20452E-02-2.52394E-01 4.62439E-01
 -1      1779 1.13461E-01 1.23363E-01 9.58241E-02 1.43955E-02-1.69726E-01 2.71486E-01
 -1      1780-4.46222E-02-1.09420E-01-5.13765E-02-8.23679E-02-5.91508E-02-4.14771E-02
 -1      1781 2.20796E-02-2.06750E-02-3.97194E-02-8.69143E-02-7.71042E-03-1.93584E-01
 -1      1782-2.04148E-01-1.47040E-01-1.09033E-01 8.04466E-02-8.67497E-02-5.94032E-02
 -1      1783 2.76673E-02 6.11628E-02 4.22745E-02 1.31252E-02-3.83458E-02-5.76212E-02
 -1      1784 6.16532E-02 5.82437E-02 1.57202E-02-5.29282E-02-5.91182E-02-1.04901E-02
 -1      1785 3.38623E-02 7.25433E-02-2.99095E-02 1.43480E-02 1.30932E-01 2.53236E-01
 -1      1786 1.40182E-01 2.24044E-01 1.95577E-01-3.20967E-02 1.99152E-01 5.08774E-02
 -1      1787 1.79873E-01 1.18353E-01 7.78038E-02 3.53144E-02 2.21480E-01 7.21400E-02
 -1      1788-4.13265E-02-7.55675E-03-3.84871E-02 2.54818E-02-5.64753E-02-1.22855E-02
 -1      1789-2.55905E-01-1.07869E-01-1.19877E-01 4.23923E-02-2.92272E-02-1.38922E-01
 -1      1790 3.71450E-01 4.11724E-01 3.11665E-01-4.91465E-02-2.07027E-01 3.26275E-01
 -1      1791-1.15079E-01-6.25462E-02-6.33122E-02 6.45392E-02 3.23060E-02-9.93923E-02
 -1      1792 1.67996E-01 2.20569E-01 9.21312E-02-3.27209E-02-5.41428E-03 2.00432E-01
 -1      1793 8.78959E-02 1.46364E-01 1.41067E-01 2.20508E-03 2.38994E-01 4.29562E-02
 -1      1794-1.23959E-01 4.24261E-02-1.15416E-03-6.48926E-02 1.67468E-01 7.28538E-02
 -1      1795-7.76711E-02-8.54798E-02-1.98341E-02 5.61695E-02-1.57766E-02-1.17522E-01
 -1      1796 3.40015E-01 2.61897E-01 1.38206E-01 7.65481E-03 3.47238E-03-1.01268E-02
 -1      1797-1.55686E-01-9.95694E-02-8.91205E-02 2.25653E-02 1.49357E-01 1.13348E-01
 -1      1798-1.16698E-02 1.67385E-02-1.55268E-02-6.28756E-02 1.99725E-02-9.74392E-02
 -1      1799-2.17513E-01-2.35139E-01-8.93210E-02 4.75117E-03 1.21388E-01 2.54880E-01
 -1      1800-7.29869E-01-6.04135E-01-2.36074E-01-6.28723E-02 2.24948E-02-1.64877E-02
 -1      1801-1.49606E-01-9.15335E-02 9.96062E-02 8.45803E-02-4.40374E-02-1.27267E-01
 -1      1802 3.56195E-02 1.10502E-02-5.04322E-02 4.37381E-02 1.25860E-02-7.37660E-02
 -1      1803 2.06385E-01 5.83047E-02 5.52553E-02 7.42617E-02 4.23683E-02-6.32028E-02
 -1      1804 1.62507E-01 1.40554E-01 1.32782E-01-8.42501E-02-3.17739E-01 2.07427E-01
 -1      1805 1.27100E-01 7.65823E-02 3.31892E-02 1.47202E-02 1.04685E-01-2.57464E-02
 -1      1806-7.95654E-02-3.13653E-02-4.44953E-02 3.49473E-02-2.28064E-03-4.23366E-02
 -1      1807-2.32324E-01-1.91518E-01-2.23218E-01-2.41393E-03-7.17666E-02 2.40779E-01
 -1      1808-1.42498E-01-1.25836E-01-1.34324E-01-4.87187E-02 6.41849E-02-7.99284E-02
 -1      1809-1.65897E-02 3.74323E-03-2.22943E-02-3.46398E-02 6.17827E-02-1.33992E-02
 -1      1810 3.92284E-01 3.54170E-01 1.86959E-01 6.40771E-03 3.72270E-02 1.10309E-01
 -1      1811-1.70144E-01-1.19904E-01-5.56518E-02 5.34826E-02-4.46721E-02-1.99095E-02
 -1      1812 2.92388E-02-5.93372E-02 1.00369E-01-4.09926E-02 2.54561E-01 2.61558E-01
 -1      1813 4.91188E-01 1.78346E-01 6.98584E-02 3.82926E-02 5.77014E-02-6.69977E-02
 -1      1814-4.18616E-02 5.27263E-03-7.66029E-02 2.35490E-02-5.78118E-02-1.63692E-02
 -1      1815 3.43514E-02 1.25226E-01 1.01666E-01 1.44687E-02 1.88332E-01 1.10009E-01
 -1      1816 1.02298E-01 4.36845E-02 2.84829E-02 2.71017E-02 1.51869E-01 1.51876E-01
 -1      1817-3.71611E-01-2.69048E-01-6.50927E-02 4.35260E-02-6.54453E-02 4.83308E-02
 -1      1818-7.98269E-02-1.42329E-01-5.27456E-02 1.53751E-02-9.95414E-02 4.70572E-02
 -1      1819 4.55674E-03 1.31616E-02 6.26927E-02-1.97322E-02 1.19927E-01-1.45656E-02
 -1      1820-1.19982E-01-1.01674E-01 5.27057E-02-8.37379E-02 2.59076E-02-7.71727E-02
 -1      1821-8.51137E-02-7.17249E-02-5.21794E-02-3.19031E-02 7.01580E-03 2.38504E-01
 -1      1822-3.21270E-01-2.35996E-01-1.18174E-01-4.78562E-02 5.68273E-02 1.00829E-01
 -1      1823 1.03367E-01 1.93748E-02 8.83290E-04-1.26163E-02 1.55993E-01 4.33544E-01
 -1      1824-3.99574E-03 6.10049E-03-1.33454E-02-3.82946E-02-6.11394E-02-4.69117E-02
 -1      1825-1.44764E-01-6.71063E-02-7.25822E-02-1.42497E-01 5.70846E-02-2.01184E-01
 -1      1826-3.69146E-02-4.77998E-04-3.34653E-02 1.13723E-03-1.91102E-01 3.28683E-01
 -1      1827-8.25111E-03 3.32091E-02 1.05037E-02-7.95171E-02-1.61044E-02-1.38664E-01
 -1      1828-8.79299E-02-4.90370E-02 7.16851E-02-2.76430E-02 4.67872E-02-2.14108E-02
 -1      1829 3.75157E-02-1.05355E-01-1.43196E-01-6.84272E-02-8.23141E-04 4.05728E-01
 -1      1830-1.44681E-01-2.17434E-01-1.85281E-01-2.00146E-02 1.06406E-01 2.37667E-01
 -1      1831 3.25173E-01 8.33184E-02 9.77194E-02 1.47016E-01 3.41117E-02-2.14961E-01
 -1      1832-2.86288E-02-1.90087E-02-4.77668E-02-3.34952E-03 6.02322E-03-2.46554E-01
 -1      1833 2.59546E-01 1.87079E-01 1.51470E-01-7.22888E-02-7.47868E-03-6.18054E-02
 -1      1834 3.04135E-01 2.06724E-01 1.53726E-01 7.38535E-02 4.72264E-02 2.04973E-02
 -1      1835-7.40543E-01-5.82899E-01-5.87938E-01 5.71308E-02-1.67449E-01 5.21251E-01
 -1      1836 3.24759E-01 2.28919E-01 2.62254E-01 1.43946E-02 2.19245E-02 1.91598E-01
 -1      1837 2.40508E-01 1.69031E-01 2.29106E-01 1.46888E-02 1.88097E-02 8.67065E-02
 -1      1838 4.52844E-01 2.69252E-01 1.91565E-01 1.00295E-02 2.10243E-01 6.44006E-01
 -1      1839-2.31178E-01-1.29484E-01-4.72107E-02-1.51454E-02 1.03469E-01 1.52526E-01
 -1      1840-2.90732E-01-2.16487E-01-6.80742E-02 8.89807E-02 1.03505E-01 1.82568E-01
 -1      1841-1.78031E-01-1.26126E-01-7.08046E-02-1.65091E-02 1.06824E-01 6.66970E-02
 -1      1842 9.62332E-02 6.84669E-02 9.26109E-02 8.09468E-02 2.76226E-02-5.61533E-02
 -1      1843-5.72483E-01-3.54080E-01-9.81869E-02-8.92770E-02 2.33126E-02-1.04368E-01
 -1      1844-6.24841E-01-4.78593E-01-3.01250E-01 1.40239E-02 3.25973E-02-8.16862E-02
 -1      1845-6.50814E-01-4.55408E-01-5.27359E-01 3.80340E-02-2.08063E-01 6.48976E-01
 -1      1846-1.77913E-01-1.06777E-01-7.62336E-02-9.31145E-03 2.07759E-02-1.03205E-02
 -1      1847 2.48522E-01 1.72582E-01 1.41154E-01-5.42325E-02-2.53097E-02-6.55510E-02
 -1      1848 9.14041E-02 1.08473E-01 8.59320E-02 5.09318E-02 4.58770E-02-4.61192E-02
 -1      1849-4.46448E-01-1.56060E-01-1.16209E-01-4.18658E-02 7.43778E-03-1.06869E-01
 -1      1850 3.66368E-01 1.55653E-01 4.94147E-02 2.72630E-02 2.32263E-02-4.47593E-02
 -1      1851 1.01442E+00 5.91202E-01-3.12674E-02-1.20076E-01-8.15691E-02-2.72705E-02
 -1      1852-6.43583E-02-6.94966E-02-4.19761E-02-8.68371E-04 7.02197E-02 1.46896E-02
 -1      1853-1.16577E-01-6.96225E-02-1.36058E-01-1.10899E-02 2.35794E-01 9.02600E-02
 -1      1854-4.66683E-01-2.58161E-01-1.69011E-02-1.29683E-01 1.03499E-01-1.82359E-01
 -1      1855-5.23860E-02-4.42445E-02-1.67712E-02-1.00965E-01 7.47268E-03-1.27198E-01
 -1      1856-8.47351E-01-6.17210E-01-3.03833E-01-4.21702E-02 1.02083E-02-4.86260E-02
 -1      1857-4.46132E-01-2.18489E-01-6.72230E-02 3.62499E-02-4.05361E-02-5.30952E-02
 -1      1858-1.52924E-01-1.17894E-01-9.22990E-02 3.49099E-02-1.30237E-01-4.74653E-02
 -1      1859 1.03636E-01 1.03366E-01 1.11702E-01 2.70915E-02-1.19884E-01 2.89885E-01
 -1      1860-2.30575E-01-1.27638E-01-1.13952E-01 8.82390E-02-2.72803E-02-1.24863E-01
 -1      1861 1.78942E-01 1.77786E-01 5.37556E-02-4.21780E-02-7.68867E-02 9.23833E-02
 -1      1862 1.15337E-02-1.52502E-01-1.23609E-01-2.87846E-02 2.13922E-01 1.69367E-01
 -1      1863-5.97612E-02-8.30527E-02 8.50472E-03 7.17416E-02-5.20770E-02-1.44860E-01
 -1      1864-4.22754E-01-2.29107E-01 1.61214E-01 1.30734E-01-6.48941E-02-1.41975E-01
 -1      1865 8.37848E-02 5.87603E-02-1.44334E-02 6.56202E-02 2.11851E-02-1.23618E-01
 -1      1866 5.13888E-01 2.93124E-01 1.16654E-01 1.07585E-01 3.98581E-02-1.41723E-01
 -1      1867 3.62013E-01 2.20537E-01 1.95791E-01 4.04954E-02-1.87210E-01 1.35572E-01
 -1      1868 2.88509E-02-9.40201E-03-3.65208E-03 3.86267E-02 3.14624E-02-9.65826E-02
 -1      1869-4.78001E-01-4.30266E-01-3.09510E-01-8.20753E-02 2.65449E-01 4.76057E-01
 -1      1870 7.05260E-03 5.61441E-03 1.66728E-02 6.62327E-02-1.86662E-01 2.44273E-01
 -1      1871-3.74291E-01-2.83488E-01-2.87670E-01 2.78253E-02-2.06252E-01 4.08711E-02
 -1      1872 1.99732E-01 8.91160E-02 5.26134E-02-1.58288E-02-6.33113E-02 2.64900E-02
 -1      1873 1.06870E-01 1.63682E-01 7.29927E-02-4.18931E-04 1.35051E-02 3.19873E-01
 -1      1874 9.19855E-02 7.80835E-02 8.67007E-02-2.28359E-02 9.03855E-02-4.89691E-03
 -1      1875 1.37961E-02-9.23654E-03 3.04667E-02-5.19567E-03 1.25414E-01 8.11010E-02
 -1      1876-2.62181E-01-1.58185E-01-2.54801E-01 8.86397E-02 1.60822E-01 3.61201E-01
 -1      1877 1.15810E-01 1.38654E-01 8.44537E-02-6.70922E-02-1.54967E-02-6.33652E-02
 -1      1878-2.81057E-02 3.60481E-02-1.32560E-02 4.30714E-03 1.67303E-01 2.23398E-01
 -1      1879 2.81001E-01 3.92746E-01 3.37015E-01 2.83828E-02 3.70841E-01 2.96239E-01
 -1      1880 2.31487E-01 2.92980E-01 8.17979E-02-5.52735E-02-2.56429E-01 1.86134E-01
 -1      1881-6.31570E-01-4.86502E-01-2.65234E-01 1.51032E-01-3.06218E-01 4.28891E-01
 -1      1882-1.25802E-01-9.40713E-02-5.25063E-02 2.01627E-02-9.59863E-03-2.27755E-01
 -1      1883-1.46296E-01-2.54538E-01-1.51973E-01 4.33582E-02-2.83190E-01 1.50212E-01
 -1      1884 2.18218E-01 1.32615E-01-3.32182E-02 1.73056E-02 4.11797E-02-2.58433E-02
 -1      1885-3.48186E-02-9.70630E-05 7.89907E-02 3.43979E-02-1.15312E-01 4.27515E-01
 -1      1886 4.16284E-01 2.28347E-01 1.84699E-01-1.19798E-01-6.70646E-02-1.89101E-01
 -1      1887-3.42384E-01-3.00827E-01-2.17984E-01 9.24058E-02-3.06379E-01 4.11574E-01
 -1      1888-3.61307E-01-2.00263E-01-1.75546E-01-3.80657E-02 5.21535E-02-8.95187E-02
 -1      1889 3.88055E-01 4.11765E-01 4.35250E-01 4.52373E-02 3.22702E-01 4.19787E-01
 -1      1890-5.39868E-01-2.90337E-01-1.99050E-01-3.76102E-02 5.25699E-02-1.07880E-01
 -1      1891-5.95914E-02 1.05485E-02 1.23770E-01-1.07212E-01-7.54860E-02 3.83197E-01
 -1      1892 7.35767E-02 2.67888E-02 8.90233E-02-1.46130E-01-1.28381E-02-2.10334E-01
 -1      1893 2.54800E-01 1.98536E-01 7.63814E-02 4.77854E-02 2.00979E-01 3.17266E-01
 -1      1894-3.22628E-01-1.92982E-01-7.19291E-02-1.11780E-01-8.22857E-02 6.34772E-01
 -1      1895-2.34675E-02-8.26051E-02-2.64263E-02-1.68051E-03-1.36980E-01-7.87308E-03
 -1      1896 2.61941E-01 3.37423E-01 2.43033E-01-2.33302E-02-2.83634E-01 1.86402E-01
 -1      1897-1.42076E-02-2.45921E-02-3.05895E-02 1.31904E-02-5.96273E-03-6.43890E-03
 -1      1898-1.84261E-01-7.52209E-02-8.41432E-02-3.79682E-02 4.66969E-02-7.32220E-02
 -1      1899-2.53801E-01-1.41285E-01-8.60893E-02-8.40861E-02 5.53047E-02-1.09375E-01
 -1      1900-9.25690E-02-6.21724E-02-3.00941E-02-2.09677E-02 4.09810E-02-5.67630E-02
 -1      1901 3.81339E-01 3.31382E-01 7.62612E-02-1.74599E-02-2.88534E-02 1.85693E-01
 -1      1902 4.89322E-01 3.98490E-01 4.64724E-01-1.23660E-02-1.38907E-01 6.57346E-01
 -1      1903 6.94934E-01 5.31490E-01 7.06000E-01-5.97234E-03 1.30272E-01 6.62972E-01
 -1      1904 1.52513E-02 1.78374E-02 1.14723E-01 4.66483E-02 3.33374E-02 4.15878E-01
 -1      1905-4.21298E-01-2.49941E-01-2.56999E-01 8.28088E-03-5.68255E-02-7.24259E-02
 -1      1906-1.76675E-01-1.11438E-01-6.03358E-02 2.46962E-03 5.24418E-02 3.23011E-03
 -1      1907 9.50288E-02-2.86556E-02 6.76081E-02 3.32114E-03 1.50248E-01-5.81198E-03
 -1      1908-3.46522E-01-2.65136E-01-1.44378E-01 3.31010E-02-3.54466E-01 4.98214E-01
 -1      1909 9.89795E-02 1.69357E-01 1.05160E-01 4.92630E-02-1.55037E-01 3.88858E-02
 -1      1910 5.75290E-03 4.53144E-02 9.96019E-02 1.27633E-02-1.19553E-01 6.74293E-04
 -1      1911 4.55637E-01 3.47403E-01 3.12853E-01-9.50684E-03 7.06615E-02-5.26714E-02
 -1      1912-1.20967E-01-3.94453E-02-2.75416E-02 3.73424E-02 5.69331E-02-6.36957E-02
 -1      1913-1.55593E-01-1.42228E-01-1.49712E-01-3.92442E-02 4.61117E-02-4.70361E-02
 -1      1914 2.36641E-01 1.24689E-01-4.44051E-02-9.10323E-02-2.81322E-02-8.44519E-02
 -1      1915 3.87602E-01 3.10382E-01 2.00526E-01 2.00249E-02 1.21410E-04-7.59250E-02
 -1      1916 4.68764E-01 3.37582E-01 1.01626E-01-8.12453E-02-7.80065E-02-3.67149E-02
 -1      1917 6.68505E-01 3.79080E-01-1.47114E-01 6.43956E-02 3.99733E-02-8.30879E-03
 -1      1918-2.24206E-01-9.24731E-02-7.83938E-02-7.67753E-03 2.14762E-04-1.90255E-02
 -1      1919-2.44729E-01-3.57105E-01-2.84815E-01-4.23340E-04-3.26527E-01 2.53221E-01
 -1      1920 1.47698E-01 1.07494E-01 7.26156E-02-6.23759E-02-8.12861E-02-4.51856E-03
 -1      1921 1.27256E-02 1.13440E-01 1.14196E-02 2.91746E-02 2.64399E-01 3.78656E-01
 -1      1922 7.57723E-02 6.90685E-02 3.32791E-02-7.57141E-02-4.22295E-02-8.50845E-02
 -1      1923-4.26560E-01-3.08822E-01-1.76306E-01-2.96814E-02 2.80024E-02-3.10893E-02
 -1      1924-3.30632E-01-1.97996E-01-1.87901E-01-2.39810E-02 4.78787E-02-2.90191E-02
 -1      1925 2.34999E-01 2.87820E-01 1.33046E-01-4.57620E-02 4.02247E-02 5.14422E-02
 -1      1926-6.76451E-01-3.70494E-01-5.00566E-02-1.51864E-01 1.25079E-02-8.73394E-02
 -1      1927 2.11256E-01 1.22523E-01 5.86886E-02-7.91546E-02-4.77415E-02-1.02680E-01
 -1      1928 3.22916E-01 2.43917E-01-4.99012E-02-1.85892E-01-3.84417E-02-2.02384E-01
 -1      1929 5.11776E-02 7.03562E-02 9.19401E-02 1.98503E-02 1.18228E-01 3.16978E-02
 -1      1930 1.03549E-02 5.14510E-02 6.24667E-03 2.53854E-02 1.85142E-01 5.06218E-02
 -1      1931-1.99049E-01-2.78233E-01-2.07744E-01-3.04229E-02 2.97339E-01 1.68110E-01
 -1      1932 2.51058E-01 2.21131E-01 1.31425E-01 2.45684E-02 7.30574E-02 6.02395E-02
 -1      1933-3.71122E-01-2.39321E-01-2.71770E-02 6.67828E-02-1.48309E-02 6.98097E-02
 -1      1934 3.83558E-01 2.19108E-01 1.90668E-01-5.92509E-02-6.24936E-02-1.56413E-01
 -1      1935-3.06862E-01-1.75056E-01-1.35026E-01-1.12507E-01 3.56825E-02-1.02103E-01
 -1      1936 4.38462E-01 2.80028E-01 3.61012E-01 2.51582E-02 2.77427E-01 4.56918E-01
 -1      1937 1.37570E-01 1.71865E-01 1.40527E-01 1.16090E-02-1.37491E-01 2.51874E-02
 -1      1938 1.11437E-01 3.98564E-02 3.00929E-02 8.74545E-02 2.30061E-02-1.02097E-01
 -1      1939 3.09137E-01 2.41384E-01 5.78158E-02 1.03830E-01 1.38485E-02-7.91528E-02
 -1      1940 3.85120E-01 3.03124E-01 1.86425E-01-6.74137E-02-5.71394E-02-2.67027E-02
 -1      1941-9.23351E-02-1.14621E-01-8.67858E-02-4.84928E-02-1.02289E-01 5.63688E-02
 -1      1942 1.75843E-01 8.97651E-02 4.07662E-02 6.09291E-02 3.26964E-02-4.97383E-02
 -1      1943 9.38763E-02 1.46535E-01 1.27914E-01 2.59088E-04-2.23766E-01 3.44653E-01
 -1      1944 2.23399E-01 1.98701E-01 6.65810E-02 6.02246E-02 7.46765E-02-4.35199E-03
 -1      1945 6.93413E-02 2.59218E-02 4.94123E-02 4.57676E-02-7.49329E-03-5.14500E-02
 -1      1946 1.35475E-01 1.90499E-01 1.07954E-01 5.97392E-02 2.39088E-01 2.16621E-01
 -1      1947-1.74912E-01-1.89931E-01-1.34725E-01-2.73664E-02-6.74020E-02 1.19171E-01
 -1      1948 1.63800E-01 1.35026E-01 1.31210E-01 1.00141E-01 6.48152E-02-1.69475E-01
 -1      1949-2.74419E-01-1.32809E-01-4.29749E-02 1.53665E-01-4.31191E-02-1.26109E-01
 -1      1950 1.65011E-01 9.77047E-02 2.88130E-02-3.58933E-02 1.29168E-01 3.62067E-02
 -1      1951 4.93810E-01 3.30560E-01 3.40885E-01 9.04485E-02 4.84518E-02-9.81485E-02
 -1      1952 2.74572E-01 1.60214E-01 9.03531E-02 1.29917E-01 3.05028E-02-7.62060E-02
 -1      1953-1.54915E-01-7.99265E-02-4.85923E-02 6.09630E-02-2.84317E-02-7.84875E-02
 -1      1954-4.51094E-04 1.66001E-02-2.82520E-03-5.51718E-02 4.46154E-02-7.64324E-02
 -1      1955-7.27881E-03-4.29431E-02-8.62509E-02-3.78921E-02-2.23028E-01 6.18534E-02
 -1      1956-1.26621E-01-6.19546E-02-1.04844E-01 4.63355E-02-2.52008E-01 3.63117E-01
 -1      1957 3.17260E-01 1.29664E-01 5.87372E-02-6.79541E-02-5.38115E-02-1.05012E-01
 -1      1958 1.78793E-01 1.12613E-01 1.17214E-01-6.89277E-02-8.09348E-03-7.62200E-02
 -1      1959 3.43244E-02 9.67263E-02 3.05631E-02-1.40737E-02 1.21144E-01 1.95924E-02
 -1      1960-8.84420E-02-1.42863E-01-1.09560E-01 8.77103E-03 1.30764E-01 1.59691E-02
 -1      1961 1.43768E-02-7.28176E-02 3.08976E-03-3.93245E-02 2.28605E-01 1.27503E-01
 -1      1962-5.56033E-01-3.75665E-01-2.59939E-01-1.07286E-01 8.87003E-02-1.63521E-02
 -1      1963 3.65046E-01 1.64573E-01 8.44283E-02-2.42338E-03 3.07262E-02 2.66615E-02
 -1      1964-6.25194E-01-4.17926E-01-3.59956E-01 1.21658E-03-7.95544E-02 1.78973E-01
 -1      1965-1.15366E-01-9.77268E-02 2.65273E-02-3.62135E-02 1.29621E-01 7.35876E-02
 -1      1966 3.87116E-01 2.87535E-01 4.47098E-01 2.21814E-04-3.25648E-01 4.35748E-01
 -1      1967 5.13534E-01 3.50467E-01 1.00897E-01-8.98391E-02-4.53462E-02-9.84641E-02
 -1      1968 2.26160E-02-9.63705E-02 4.71788E-02-1.06480E-02-1.12994E-01 1.51588E-02
 -1      1969-2.60028E-01-3.13296E-01-9.17270E-02 5.58192E-02-1.32324E-02 2.28781E-01
 -1      1970-1.93096E-01-5.37913E-02-4.07029E-02 8.01606E-02 7.70665E-02 5.01034E-01
 -1      1971-2.13147E-02-6.10547E-02-3.32971E-02 6.82452E-02-4.77552E-03-7.39886E-02
 -1      1972 3.65299E-01 2.64412E-01 1.52318E-01-3.28907E-02-9.20066E-02 1.83547E-01
 -1      1973 1.29253E-01 2.39233E-01 2.75776E-02-2.10356E-02-5.56862E-02 2.95880E-01
 -1      1974-9.95520E-02-3.40712E-02-8.66768E-02 6.91582E-02-6.69398E-02-8.59365E-02
 -1      1975 2.73461E-01 2.90746E-01 3.41381E-01-2.83499E-02-3.21877E-01 3.62255E-01
 -1      1976 3.33510E-01 2.42690E-01 3.47464E-01-1.63353E-02-3.27196E-01 4.68255E-01
 -1      1977-5.24509E-01-3.69241E-01-2.64877E-01 2.27223E-02-2.45729E-03-9.33639E-02
 -1      1978-1.95118E-01-1.17055E-01-1.01350E-01-4.56814E-02 1.17346E-01-9.91303E-02
 -1      1979-5.16166E-03 1.33487E-02-1.94404E-02-3.61317E-02-1.64090E-02-8.55110E-02
 -1      1980-6.83804E-01-4.10726E-01-2.69139E-01 1.95764E-02-4.60907E-03-4.26586E-02
 -1      1981-3.31559E-01-1.66191E-01-1.95609E-01 6.32683E-02-1.34911E-01-5.22009E-02
 -1      1982-1.81777E-01-8.18058E-02-8.68069E-02 5.82150E-02 5.94397E-03-8.05992E-02
 -1      1983-2.00611E-01-1.59472E-01-1.08578E-01 2.21556E-02-1.20445E-01 4.21811E-02
 -1      1984 2.72445E-02 1.41933E-02 3.19563E-02-5.39634E-02 2.62131E-01 1.52391E-01
 -1      1985 2.16714E-01 1.93847E-01 8.89982E-02-7.94308E-03 4.51523E-02 8.25281E-02
 -1      1986 3.58317E-01 2.16278E-01 8.47789E-02-5.20916E-02-8.10322E-02-3.19011E-02
 -1      1987 7.49077E-03 9.01081E-03-2.71913E-03-4.70301E-02-6.71615E-02-7.68075E-02
 -1      1988-1.44524E-01-9.26432E-02-8.03998E-02-6.61801E-02-1.55968E-02-4.78000E-02
 -1      1989-4.20189E-01-3.66806E-01-1.75233E-01-5.52397E-03 3.95642E-02 6.67912E-02
 -1      1990 3.53551E-01 1.86368E-01 1.80526E-01 2.74493E-02 3.04966E-02-1.08202E-01
 -1      1991 4.23203E-01 2.38030E-01 1.23973E-01-2.09234E-02-6.94246E-02-7.69736E-02
 -1      1992 4.56301E-01 3.14910E-01 3.16456E-01-2.83782E-02 9.01906E-02-9.75696E-02
 -1      1993 4.48453E-01 2.28386E-01 3.30719E-02 4.95575E-02 3.93557E-02-5.82661E-02
 -1      1994-3.86490E-02 5.56972E-03-4.01796E-02-5.86848E-03 1.71037E-01 1.54361E-01
 -1      1995-1.88017E-01-1.51645E-01-1.19066E-01-6.96609E-02 1.45467E-03-4.83594E-02
 -1      1996 3.18429E-01 1.59212E-01 9.87496E-02 1.14986E-01 4.02344E-02-7.12748E-02
 -1      1997 6.34527E-01 4.40721E-01 2.27350E-01-5.90029E-03-6.77287E-03-5.79568E-02
 -1      1998-3.48641E-01-3.17039E-01-3.28425E-01 8.17795E-02-2.04122E-01 5.75583E-01
 -1      1999 1.50482E-02-2.48490E-02-8.03126E-02 3.31586E-02 4.07908E-02-2.47290E-02
 -1      2000-2.10454E-01-7.43917E-02-2.94979E-02 1.35858E-01-5.85534E-02-1.56220E-01
 -1      2001 4.10386E-01 2.27930E-01-3.02570E-03-6.13871E-03-3.78779E-02 2.04559E-02
 -1      2002 2.59539E-01 6.63272E-02-5.83354E-02-4.84790E-02-1.75394E-02-7.70800E-02
 -1      2003-4.74785E-02 5.03544E-02-8.87963E-02-2.47329E-03-1.85794E-01 5.93312E-02
 -1      2004 4.54331E-02 3.61517E-02 6.67556E-02-1.17897E-01 9.40299E-03-1.06754E-01
 -1      2005-4.11167E-01-3.03009E-01-2.05286E-01-7.28019E-03-5.01693E-02 1.19009E-02
 -1      2006-2.37870E-02-1.40615E-02-1.47440E-01 4.91646E-02-1.75374E-02-8.21225E-03
 -1      2007 1.06847E-02 8.27960E-02 7.76282E-02 2.28134E-02-7.16347E-02 7.62998E-03
 -1      2008-2.21054E-01-1.65493E-01-2.19509E-01 1.06119E-01 1.53743E-01 3.19794E-01
 -1      2009-2.37380E-01-1.37769E-01-1.16728E-01-9.26459E-02 5.82702E-02-1.82246E-01
 -1      2010-3.65406E-01-1.94224E-01-3.04074E-02-1.03283E-01 7.85214E-02-1.27281E-01
 -1      2011-4.36541E-01-3.06903E-01-1.99839E-01-6.49336E-02 1.67439E-02-1.18773E-01
 -1      2012 3.63013E-01 2.32694E-01 1.13226E-01-4.39512E-02-5.14263E-02-2.00735E-03
 -1      2013 3.34113E-01 1.98008E-01 1.56655E-01-3.87634E-02-3.75531E-02-8.50596E-02
 -1      2014 6.24440E-01 3.66316E-01 2.93687E-01-1.20953E-02-1.66437E-02-8.75504E-02
 -1      2015 2.47152E-02 5.57901E-02-1.72318E-02-4.53694E-02-1.06024E-02-1.09112E-01
 -1      2016-4.09430E-01-2.83004E-01-1.46633E-01-4.63596E-02 2.87254E-03-6.87022E-02
 -1      2017 1.85025E-01 4.63484E-02-1.48226E-01-4.54261E-02-2.40443E-02 5.75226E-03
 -1      2018 3.55502E-01 2.53019E-01-5.01230E-03 1.31553E-01 3.07906E-02-4.06428E-02
 -1      2019-1.62933E-01-9.64098E-02-1.09282E-02-9.86243E-02-1.12679E-02-1.12034E-01
 -1      2020 2.99358E-01 2.81932E-01 2.16771E-01 7.69572E-02 2.79269E-01 5.27571E-01
 -1      2021 7.85470E-03 1.71554E-02-4.42863E-02 8.61722E-02-2.56343E-02-5.92527E-02
 -1      2022 3.16472E-01 2.49634E-01 2.11074E-01 8.17613E-02 3.90159E-02-4.21579E-02
 -1      2023 2.24112E-01 2.80743E-01 2.63547E-01 1.85663E-02 2.71348E-01 1.82050E-01
 -1      2024-1.78481E-01-3.15626E-01-2.93033E-01 1.38752E-02 2.91025E-01 2.25351E-01
 -1      2025 4.29297E-01 2.45762E-01 2.28556E-01 4.78663E-02 3.44226E-02-1.17102E-02
 -1      2026 2.59341E-01 1.99518E-01 1.87017E-01 3.09116E-02 1.34646E-01 2.34824E-02
 -1      2027-5.54168E-01-3.74689E-01-1.51273E-01-2.62971E-02 4.07369E-02-3.57066E-02
 -1      2028-4.31263E-01-2.48962E-01-9.74355E-02 5.37632E-04-1.60038E-01 1.14585E-01
 -1      2029-5.34469E-01-3.46797E-01-1.71787E-01 3.78751E-03-6.44507E-03-3.24767E-02
 -1      2030 4.21282E-01 1.81811E-01 4.77195E-02-3.65811E-02-6.13532E-02-2.86866E-02
 -1      2031 2.43158E-01 7.73049E-02 4.77912E-02-8.69005E-02-1.03667E-01-1.02569E-01
 -1      2032 3.92809E-01 2.82663E-01 7.88644E-02 7.59220E-02 9.16112E-03-3.19371E-02
 -1      2033 5.08555E-01 2.78533E-01 7.49698E-02 1.14726E-01 6.11848E-02-2.39920E-02
 -1      2034 7.62480E-01 4.84214E-01 2.59894E-01 3.65712E-02 9.91214E-02-4.25209E-02
 -1      2035-2.14538E-01-1.77750E-01-1.02269E-01-7.49317E-02 6.44265E-02-1.00769E-01
 -1      2036 3.21593E-01 2.29576E-01 1.46044E-01-4.35367E-02-5.26854E-02-1.62201E-02
 -1      2037-3.44550E-02-2.87813E-02 7.74939E-02-1.54034E-01 3.55655E-02-5.70954E-02
 -1      2038-4.08484E-01-2.52989E-01-1.70430E-01-5.66412E-02 2.09198E-02-1.06312E-01
 -1      2039 4.17798E-01 3.10934E-01 2.43797E-01-3.63989E-03-3.86273E-02-5.16450E-03
 -1      2040 8.86280E-01 5.81922E-01 1.44038E-01-1.15982E-01-1.87660E-02-6.32571E-03
 -1      2041 1.78816E-01 1.30374E-01-4.32250E-03 7.21696E-02 1.63954E-01 4.39681E-01
 -1      2042-4.02521E-01-2.40116E-01-6.23781E-02-9.32027E-02 4.90027E-02-1.12820E-01
 -1      2043 3.66538E-01 2.48884E-01 3.55434E-01 8.99063E-03 9.36786E-02 3.98139E-02
 -1      2044-1.45749E-02 7.34908E-03 4.05999E-03 1.20827E-01-2.85435E-02-1.32843E-01
 -1      2045-2.24073E-01-1.43405E-01-1.76243E-01 1.60427E-03-2.70624E-02-2.18847E-01
 -1      2046 3.05412E-01 2.86916E-01 1.41215E-01-2.50747E-02-1.19839E-02-2.24329E-01
 -1      2047-4.94936E-01-2.33593E-01 3.03551E-02 1.72241E-01-5.61123E-02-1.72558E-01
 -1      2048-7.12409E-01-3.52643E-01-2.52126E-02 1.43748E-01-3.13009E-02-8.34291E-02
 -1      2049 5.55342E-01 4.15518E-01 2.63379E-01-8.69808E-02-1.51412E-02-1.00940E-01
 -1      2050-1.19131E-01-1.08154E-01-5.51098E-02 7.06727E-02 4.75807E-03-2.46235E-01
 -1      2051 2.05475E-01 1.57708E-01 7.57847E-02-5.77178E-02 3.19799E-02-2.00448E-01
 -1      2052 1.21954E-02 1.48770E-02 7.56813E-03 7.38129E-02-1.39000E-02-1.39461E-01
 -1      2053 3.09251E-01 1.53439E-01 1.07262E-02-1.76950E-01-2.07863E-02-2.36570E-01
 -1      2054 3.85353E-02 4.06973E-02 4.44402E-02-1.01622E-01-1.14808E-02-1.87269E-01
 -1      2055 1.31684E-01 1.37006E-01 9.16450E-02 6.13632E-02 4.61490E-02-1.35416E-01
 -1      2056 7.77986E-01 4.13030E-01-5.10873E-02-8.03051E-04-3.31279E-02-3.25114E-02
 -1      2057-1.41529E-01-7.99349E-02-5.04180E-02 1.55081E-01-1.75308E-02-2.83480E-01
 -1      2058-3.32253E-01-2.30764E-01-1.42954E-02-5.75320E-02 1.17011E-02-1.95542E-01
 -1      2059-3.48275E-01-2.61147E-01-1.20662E-01 1.40792E-02 5.86499E-03-2.50144E-01
 -1      2060 1.56783E-01 1.14673E-01 2.24648E-02 3.03337E-02 1.14445E-02-2.37508E-01
 -1      2061 8.10517E-01 4.35324E-01 1.72687E-01-5.90820E-02-5.91054E-03-1.11970E-01
 -1      2062-6.52089E-01-4.05010E-01-2.10069E-01 1.78169E-02 6.97118E-02-3.64961E-02
 -1      2063 5.08655E-01 4.18814E-01 2.05689E-01-6.05866E-02 5.77672E-02-1.89410E-01
 -1      2064 2.27692E-01 1.82062E-01 1.29330E-01-8.97419E-02-6.43652E-02-1.60301E-01
 -1      2065 5.10624E-01 3.44203E-01 1.72752E-01 4.37610E-02 8.23001E-02-8.90235E-02
 -1      2066-5.06785E-01-2.94511E-01-2.70424E-01-3.43925E-02 3.65495E-02-8.04598E-02
 -1      2067 1.62019E-01 9.17014E-02 8.06379E-02-1.78269E-01-1.85866E-02-1.90984E-01
 -1      2068-2.18387E-01-1.35273E-01-2.34497E-03-4.31096E-02-6.80157E-03-2.16166E-01
 -1      2069-2.43368E-01-1.08978E-01-1.65326E-02-7.00517E-02 7.27690E-02-2.06776E-01
 -1      2070-7.70712E-01-3.80802E-01 4.60160E-02-3.25658E-02 1.55663E-02-4.06369E-02
 -1      2071-4.72238E-01-2.25253E-01-1.25892E-01 1.96854E-01-7.08758E-02-2.49079E-01
 -1      2072-2.27498E-01-2.12206E-01-1.94182E-02 9.49418E-02-2.18799E-02-2.23287E-01
 -1      2073-4.61721E-01-6.57378E-01-5.05916E-01 1.32433E-01-1.00751E-02-8.29627E-02
 -1      2074-4.94712E-01-2.30939E-01-1.30447E-01 5.85184E-02-5.58596E-02-1.19009E-03
 -1      2075 6.45286E-01 4.86610E-01 2.32751E-01-7.13343E-02-1.10887E-02-1.07163E-01
 -1      2076-2.72770E-01-1.70961E-01-7.85858E-02 4.07890E-02-8.69145E-02-1.03624E-01
 -1      2077 1.49385E-01 1.21823E-01 7.60049E-02-6.37256E-02 5.03375E-03-2.29400E-01
 -1      2078 9.97735E-02 3.90513E-02 1.55037E-01 5.70880E-02-2.77602E-03-1.63540E-01
 -1      2079-2.04625E-01-9.64049E-02 4.37885E-02-1.76537E-01 5.69371E-03-1.75051E-01
 -1      2080 1.70098E-01 2.60165E-01 2.81688E-01 6.49620E-02-4.58358E-02-7.72038E-02
 -1      2081 3.92383E-01 2.39895E-01-1.11438E-01 1.12903E-01 1.74959E-02-2.30051E-01
 -1      2082 7.51762E-01 4.31695E-01 1.26205E-01 3.13873E-02 8.00053E-02-3.83534E-02
 -1      2083-3.82440E-01-2.05810E-01-8.99240E-02-5.85600E-02-2.22548E-02-2.03858E-01
 -1      2084 1.92890E-01 9.75717E-02-1.27171E-01-1.11750E-01-3.19155E-02-9.70282E-02
 -1      2085 3.95995E-01 1.85620E-01 1.59135E-01-1.81030E-02-4.89853E-02-1.45526E-01
 -1      2086-6.92609E-01-5.52269E-01-2.14710E-01-1.97502E-02-2.60134E-02-1.04696E-01
 -1      2087 9.62055E-02 3.39833E-02 3.76743E-02 1.80281E-01 7.76324E-02-7.21313E-02
 -1      2088-5.19230E-01-4.29535E-01-3.12523E-02-2.79958E-02 8.81165E-02-3.89623E-03
 -1      2089 2.42945E-01 1.45665E-01-2.93453E-02 2.05305E-01 5.01579E-04-2.83915E-01
 -1      2090 1.32939E-01 5.66503E-02 1.95636E-02-1.80694E-01-2.67127E-02-1.99452E-01
 -1      2091 1.82003E-01 2.43588E-01 1.14683E-01-1.79344E-01-1.81210E-02-1.10688E-01
 -1      2092 2.52137E-01 1.65412E-01 8.78506E-02-1.21290E-01 2.00396E-02-1.30212E-01
 -1      2093-3.90126E-01-2.56368E-01-2.71848E-01-1.44272E-02-1.20415E-02 3.73565E-02
 -1      2094-7.36980E-01-4.70560E-01-1.73128E-01 3.55169E-02-5.45649E-02-6.78209E-02
 -1      2095-2.93661E-01-1.30117E-01-2.94378E-02 1.29721E-01-3.41013E-02-1.06702E-01
 -1      2096-4.17719E-01-2.19787E-01-6.19719E-02 5.50565E-02-2.81907E-02-7.44999E-02
 -1      2097 1.09453E-02 1.35601E-02 2.13347E-02 1.49568E-02 3.13078E-03-2.06040E-01
 -1      2098-1.99631E-01-5.64031E-02-7.73176E-02-1.15478E-01 5.25643E-02-2.01499E-01
 -1      2099-6.01619E-01-4.71636E-01-1.61625E-01-5.01121E-02 4.82645E-03-2.36779E-01
 -1      2100 2.29188E-01 1.24745E-01 9.98867E-02 9.10868E-02 8.76376E-03-1.85882E-01
 -1      2101 5.31824E-01 3.03385E-01-2.22412E-02 1.15631E-01 5.70601E-02-1.44495E-01
 -1      2102 9.68929E-02 2.08047E-03-4.88075E-02 6.38183E-02 4.94518E-02-2.00808E-01
 -1      2103-9.49423E-01-5.46902E-01-1.19178E-01-9.61892E-02 1.99786E-02-1.20804E-01
 -1      2104-5.69668E-01-3.97556E-01-1.67302E-01 2.44134E-02-1.13864E-02-1.16158E-02
 -1      2105-2.19578E-01-3.30665E-02 2.34493E-02-3.21015E-02-4.03290E-03-6.94795E-02
 -1      2106 6.85181E-01 4.10146E-01 6.17269E-02-1.44096E-01-7.60788E-02-6.87373E-02
 -1      2107-7.57188E-01-4.32180E-01-2.33767E-01-8.39054E-02 5.67847E-02-1.47077E-01
 -1      2108 3.86278E-01 5.25316E-01 5.06460E-01 4.53225E-02-2.06295E-02-1.01544E-02
 -1      2109 1.13710E-01-6.00297E-02 8.59312E-02-8.33461E-02-7.22471E-02-1.43879E-01
 -1      2110-1.23552E-01-4.04925E-02-1.64622E-01-7.03893E-02 4.86613E-02-1.16541E-01
 -1      2111 8.68735E-01 6.46859E-01-1.81570E-03 5.81341E-02 5.41532E-02 9.93135E-03
 -1      2112-7.65773E-01-4.42765E-01-7.72173E-02-9.29749E-02 6.71003E-02-1.60316E-01
 -1      2113-4.14665E-01-2.77670E-01-2.05338E-01-3.25248E-02 4.36121E-02-9.45336E-02
 -1      2114 4.27771E-01 1.50269E-01 1.56447E-01 4.68755E-02 2.29381E-02-1.06288E-01
 -1      2115-1.41620E-01-1.06113E-01 4.28542E-02-7.68947E-02 2.09978E-02-2.13668E-01
 -1      2116-6.20233E-01-4.18926E-01-2.34879E-01-4.13756E-02 1.52655E-02-4.81999E-02
 -1      2117-6.35437E-01-3.30246E-01-7.86531E-02-4.96513E-02 1.07516E-02-4.67548E-02
 -1      2118 2.37745E-02-1.81502E-04 1.56450E-02-5.77534E-03 4.96802E-03-2.28726E-01
 -1      2119-4.52508E-01-3.46103E-01-1.36908E-01 4.62139E-02 7.30765E-03-2.23348E-01
 -1      2120 4.88950E-01 3.26121E-01 2.23902E-01 6.97023E-02 3.80800E-02-9.54876E-02
 -1      2121 2.21648E-01 8.92160E-02 7.57437E-02-8.88781E-02-1.00750E-01-2.04677E-01
 -1      2122 3.04423E-01 1.59519E-01-2.13856E-02-1.65130E-01-1.04491E-01-1.78573E-01
 -1      2123 2.12116E-01 1.71085E-01 1.03792E-01 8.27361E-02 7.07767E-02-1.55875E-01
 -1      2124 5.50601E-01 3.08171E-01 1.08865E-01-4.35643E-02-4.99650E-02-9.47837E-02
 -1      2125-5.39694E-01-3.90970E-01-4.57163E-01-1.02527E-01-4.82013E-02-1.11210E-01
 -1      2126-4.97363E-01-3.08839E-01 7.26736E-02 1.26745E-01-7.29284E-02-1.47758E-01
 -1      2127 8.73185E-01 6.76410E-01 3.85940E-01 1.43770E-02-3.79775E-02-5.53973E-02
 -1      2128 3.50055E-01 1.66745E-01 1.26218E-01 8.99337E-02 5.75445E-02-1.00104E-01
 -1      2129 4.19317E-01 2.59963E-01 1.14751E-01 1.27806E-01 7.38968E-02-9.08435E-02
 -1      2130 3.71303E-01 2.14225E-01 5.50759E-02 9.40481E-02 3.83591E-02-6.21583E-02
 -1      2131-6.31524E-01-6.50582E-01-4.79269E-01-8.65259E-02-5.15293E-02-8.33489E-02
 -1      2132-3.19324E-01-1.42745E-01 1.03595E-02-4.57603E-03 1.19040E-02-2.22370E-02
 -1      2133-5.07513E-01-4.22610E-01-7.45382E-02-2.34765E-01 7.54317E-02-1.83775E-01
 -1      2134-7.46293E-01-4.85102E-01-1.89855E-01 4.51105E-02 4.59496E-02-5.35785E-02
 -1      2135-4.84471E-01-2.98964E-01-1.61593E-01-6.42885E-02 5.82721E-02-1.57727E-01
 -1      2136-4.56199E-02-3.95250E-02 1.68323E-02 1.10797E-01-3.91548E-02-1.74049E-01
 -1      2137 9.16627E-01 5.12597E-01 1.76255E-02-6.71774E-02-6.74591E-02 1.82365E-02
 -1      2138-1.55151E-01-5.49007E-02-4.53939E-02 9.83634E-02-5.01755E-02-2.13589E-01
 -1      2139-3.83113E-01-1.66173E-01-1.79436E-01 1.02050E-01 8.33776E-02-1.55364E-01
 -1      2140 5.81998E-01 4.20848E-01 1.10663E-01-1.04296E-01-2.27761E-02-1.87372E-01
 -1      2141-5.96073E-01-4.93644E-01-1.19681E-01 1.42337E-02 2.26774E-02-2.84163E-01
 -1      2142-1.23213E+00-8.42037E-01-2.74345E-01-1.34299E-01-3.71620E-02-3.10905E-01
 -1      2143-2.43968E-01-1.64881E-01-2.27312E-01-5.03245E-02-8.13443E-02-1.23070E-01
 -1      2144-1.56696E-01-5.71833E-02 7.76329E-03 1.67861E-02 5.24359E-03-2.08372E-01
 -1      2145 4.46041E-01 3.07925E-01 1.78953E-01 8.36029E-02 6.08250E-02-9.43241E-02
 -1      2146-7.66311E-01-4.73181E-01-1.64418E-01-2.64633E-02 1.46842E-02-7.66344E-02
 -1      2147 2.39154E-01 2.61071E-01 1.22425E-01 1.89010E-02 9.70775E-02-1.14644E-01
 -1      2148 7.63036E-01 4.69620E-01 6.31904E-02 1.05457E-01 5.19526E-02-2.22568E-01
 -1      2149 4.96356E-01 3.91168E-01 7.57751E-02 7.25283E-02-3.46969E-03-2.26776E-01
 -1      2150 7.62384E-01 5.65897E-01 3.50850E-01-1.30160E-01-9.25319E-02-8.14930E-02
 -1      2151 2.30502E-01 2.00538E-01 3.56750E-02-8.82707E-02-4.81002E-02-1.26398E-01
 -1      2152-1.64036E-01-1.55973E-01-4.67120E-02 3.89065E-02 2.48939E-02-1.88158E-01
 -1      2153-5.66022E-01-4.06634E-01-1.84168E-01 9.30642E-02 3.10498E-02-1.60735E-01
 -1      2154-7.05088E-01-5.61114E-01-2.74291E-01-1.36019E-01-4.59956E-02-2.11300E-01
 -1      2155-8.25889E-01-4.26056E-01-6.17851E-02-4.76896E-02-4.23862E-02-1.53608E-01
 -1      2156 1.14484E-01 1.11862E-01 5.21190E-02 9.42226E-02 1.67047E-02-8.92485E-02
 -1      2157-1.27300E-02-9.17721E-04-1.95078E-02-2.58869E-02-3.71657E-02-1.78361E-01
 -1      2158 1.79467E-01-5.96677E-02-4.13551E-02 1.93006E-01-1.15439E-02-2.54375E-01
 -1      2159-2.89393E-01-2.16347E-01-9.08728E-02-1.23166E-01-1.62642E-02-1.61393E-01
 -1      2160 2.34783E-01 3.57590E-02 1.65841E-02-2.07012E-01-5.56545E-03-2.02371E-01
 -1      2161-4.58569E-02-9.80436E-02-1.30390E-02-6.51584E-02 1.24464E-02-1.50800E-01
 -1      2162-7.40836E-03 4.89772E-02 5.83005E-02-9.35286E-02 4.21018E-02-2.10649E-01
 -1      2163 6.41474E-01 8.42895E-01 6.06213E-01-8.79605E-02 3.02555E-04-6.07405E-02
 -1      2164 5.74627E-01 4.09707E-01 1.79226E-01-1.06000E-01 2.79632E-02-2.76831E-01
 -1      2165 5.39125E-02 3.47252E-02-6.37073E-02 7.45071E-02 1.14095E-02-1.19570E-01
 -1      2166-3.40750E-01-1.78041E-01-1.32981E-01 8.98379E-02-8.64683E-02-2.28002E-01
 -1      2167 2.88086E-01 1.39965E-01 1.20459E-01-8.69242E-02-7.42064E-02-1.82933E-01
 -1      2168 2.56966E-01 2.34402E-01 5.30104E-02-1.87388E-01 1.02999E-02-1.99477E-01
 -1      2169 6.78252E-01 3.55336E-01 1.22811E-01-3.18929E-02-1.13086E-02-1.46748E-01
 -1      2170-3.98034E-01-2.03678E-01-5.32613E-02-1.04824E-01 2.42095E-02-6.22468E-02
 -1      2171 4.23074E-01 2.78744E-01 3.97005E-01 4.37977E-02 6.73802E-02-7.12323E-02
 -1      2172-5.58422E-01-4.52382E-01-1.71849E-01-1.20326E-01 3.46198E-02-5.37228E-02
 -1      2173 4.29799E-01 3.58808E-01 6.22519E-02 9.19204E-02-9.13501E-03-1.71442E-01
 -1      2174 9.25172E-01 4.88921E-01 1.41093E-01 8.75616E-02 3.12471E-02 3.89735E-02
 -1      2175-2.71159E-01-3.31688E-01-3.67419E-01 4.32249E-02 5.99310E-02-9.79696E-02
 -1      2176 3.55332E-01 3.98537E-01 4.79801E-01-1.09125E-01 3.83691E-02-5.74504E-02
 -1      2177 5.73698E-01 3.53747E-01 2.57854E-01 9.21333E-04 3.79535E-02-1.53453E-01
 -1      2178-8.70662E-01-6.60759E-01-1.72911E-01 1.19805E-01 2.27467E-02-2.91056E-01
 -1      2179 3.59386E-01 2.47962E-01 3.22245E-02 1.31861E-01-1.22279E-02-1.91840E-01
 -1      2180 5.37497E-01 4.45345E-01 2.72188E-01 2.93678E-02-3.74032E-02-1.93891E-01
 -1      2181 9.58952E-01 6.99978E-01 2.31605E-01-1.05680E-01 6.10704E-02-2.39769E-01
 -1      2182 1.57591E+00 1.16433E+00 6.53566E-01-6.32709E-03 3.78769E-02-2.85148E-01
 -1      2183 8.41700E-02 3.48019E-02-1.25621E-02 1.24213E-01 8.99015E-04-2.11736E-01
 -1      2184-4.00340E-02-2.61085E-03-6.05469E-02 5.17295E-03-6.78800E-03-1.70232E-01
 -1      2185-1.52521E-01-4.99978E-02 4.20085E-03-1.85851E-01 1.53852E-02-1.65038E-01
 -1      2186-1.29343E+00-8.92913E-01-4.29748E-01-2.70095E-01-1.26535E-01-3.04275E-01
 -1      2187-1.24834E+00-9.06252E-01-5.26258E-01 2.34537E-01 1.05862E-01-3.33719E-01
 -1      2188-1.27618E-01-3.40118E-02 2.69834E-02 1.21895E-01 2.40613E-02-1.98867E-01
 -1      2189 8.35083E-01 6.98677E-01 2.17846E-01 1.73127E-01-5.01531E-02-2.23535E-01
 -1      2190 5.67318E-01 4.45524E-01 1.68438E-01-1.55420E-01 7.74307E-02-1.99969E-01
 -1      2191 9.66029E-01 7.35682E-01 3.23113E-01-5.83025E-03 2.26788E-02-2.35858E-01
 -1      2192-9.77502E-01-6.10097E-01-1.68482E-01 2.52427E-02-1.28325E-02-2.87800E-01
 -1      2193 1.35695E+00 1.06781E+00 1.61361E-01 4.68571E-02 1.54927E-02-4.01274E-01
 -1      2194 5.14030E-01 3.67761E-01 2.11077E-01 2.52431E-01-6.21367E-02-2.19026E-01
 -1      2195 2.63066E-01 1.79566E-01 3.19319E-02-2.99923E-01-1.37228E-02-1.79126E-01
 -1      2196-1.25367E+00-8.51140E-01-2.65658E-01-1.10295E-02-6.61133E-02-3.48418E-01
 -1      2197-1.80258E-02-5.13487E-02-1.24440E-01-5.27547E-02-6.49590E-02-6.58633E-02
 -1      2198 1.51174E+00 1.06333E+00 5.22281E-01-1.14034E-01 9.36202E-02-2.43218E-01
 -1      2199 1.02679E-01 5.98450E-02 2.02473E-01-1.58958E-02 2.92617E-03-2.41216E-01
 -1      2200 1.23874E+00 8.90009E-01 3.01287E-01 2.05061E-01-3.50494E-02-3.30813E-01
 -1      2201-3.08723E-01-1.05575E-01-1.49899E-01 8.24626E-03-5.41672E-02-2.35983E-01
 -1      2202 7.69234E-02 6.00115E-02-5.42531E-02-5.69223E-02 2.98099E-02-4.88672E-02
 -1      2203 1.00569E+00 7.22055E-01 1.51893E-01 1.72444E-01-5.04239E-02-2.23803E-01
 -1      2204-2.32109E-01-1.60370E-01-5.32326E-01 4.61744E-02-9.94394E-02-3.70273E-01
 -1      2205-5.55490E-03 1.58374E-02 2.43998E-02 3.23343E-02-1.82625E-02-6.98675E-02
 -1      2206 2.12580E+00 1.13396E+00 4.99525E-01 2.95700E-01-8.82066E-02-6.51922E-01
 -1      2207-3.57733E-02 1.04474E-02 1.50047E-01 2.75365E-02 8.36393E-03-5.14242E-02
 -1      2208-4.30180E-01-3.88907E-01-1.93507E-01 1.32024E-01 6.98918E-02-2.10178E-01
 -1      2209-2.51555E-01-1.24787E-01-7.87219E-02 6.68196E-02 9.88726E-02-1.54649E-01
 -1      2210 1.64440E+00 9.95055E-01 2.03864E-01-2.36174E-02-1.14448E-02-3.53169E-01
 -1      2211 4.30393E-01 2.63773E-01 1.26887E-01 9.08990E-03 3.42660E-02-2.75503E-01
 -1      2212 2.36092E-01 1.44840E-01 3.25193E-01 1.23257E-02-9.18649E-02-2.20189E-01
 -1      2213 1.67409E-01 2.50671E-02 8.91829E-02 2.36172E-02-1.12701E-01-2.57203E-01
 -1      2214 1.88095E-01 3.77858E-02 1.47492E-01-2.31379E-02 6.99517E-02-2.09888E-01
 -1      2215-1.06462E-01-1.94536E-02 1.04216E-01-5.25596E-02-3.60957E-02-1.17524E-01
 -1      2216 1.82310E+00 1.24291E+00 2.48902E-01-1.29231E-01 1.51958E-01-4.09249E-01
 -1      2217 3.20204E-01 1.10377E-01 1.14266E-01-4.05506E-02-4.26455E-02-2.63006E-01
 -1      2218 1.87463E+00 1.63081E+00 6.99879E-01 1.56287E-01-6.52653E-02-4.72219E-01
 -1      2219-2.28192E-01-7.05018E-02 2.18224E-02 2.35084E-01 3.34341E-02-1.97961E-01
 -1      2220 1.98821E-01 1.52651E-01 5.08180E-01-8.37943E-02-6.70321E-02-3.65176E-01
 -1      2221 2.32403E-01 1.71980E-01 9.27670E-02-7.04120E-02 1.16736E-01-1.44932E-01
 -1      2222 1.56933E-02 4.46408E-02 7.73555E-02-3.98960E-02 2.44011E-02-7.39581E-02
 -1      2223 2.11174E+00 1.65209E+00 7.63422E-01-1.71819E-02 5.95287E-02-6.53212E-01
 -1      2224 1.58463E+00 1.08770E+00 4.32396E-01 2.29193E-01-7.57379E-02-3.84110E-01
 -1      2225-2.12427E-01-8.21842E-02-2.22308E-01 4.01299E-03-3.82412E-02-2.19402E-01
 -1      2226 5.29371E-02 5.32232E-02 6.67210E-02-3.86964E-02 6.79800E-02-8.63344E-02
 -1      2227 7.55879E-03 4.34403E-02 1.22258E-01 6.54038E-02-4.84873E-02-6.02278E-02
 -1      2228 3.72708E-02 1.10444E-01 4.59453E-01 4.00319E-02-1.40499E-01-1.14851E-01
 -1      2229 2.04817E+00 1.49720E+00 5.70833E-01 1.42763E-01 8.13653E-02-4.56397E-01
 -1      2230 2.21767E-01 1.54658E-01 2.55913E-01 4.86517E-02 7.04087E-02-3.33668E-01
 -1      2231-1.23565E+00-8.24541E-01-2.86589E-01-1.18381E-01-1.22763E-01-3.48391E-01
 -1      2232 3.78406E-01 1.49274E-01 6.36217E-02 3.02427E-01-4.88296E-02-2.60340E-01
 -1      2233 8.94115E-01 7.25203E-01 8.64233E-01-6.11305E-02 1.93270E-02-4.41250E-01
 -1      2234 2.07429E+00 1.33907E+00 3.41627E-01-2.60541E-02-5.91227E-03-5.13836E-01
 -1      2235-2.37949E-01-1.05353E-01-3.14378E-02 4.90451E-02 7.29557E-02-1.11186E-01
 -1      2236 3.61904E-01 1.41701E-01 2.82436E-02-2.66428E-02 5.91399E-02-2.18684E-01
 -1      2237-3.86716E-01-2.02916E-01-7.09019E-02-4.82525E-03 7.48803E-03-2.71129E-01
 -1      2238-1.28491E+00-1.07083E+00-3.65319E-01 1.21492E-01 8.11497E-02-2.84028E-01
 -1      2239 1.22545E-01 1.36982E-02-7.97188E-02-3.71034E-02 6.08043E-02-4.62008E-02
 -1      2240 1.22680E-01 1.28347E-01 6.45276E-02-6.04907E-02 8.16476E-02-9.39906E-02
 -1      2241-6.58365E-02-8.43567E-02-2.73696E-01-7.32180E-02-6.93081E-02-1.30674E-01
 -1      2242 1.04215E-01 1.73977E-01 3.32434E-01-4.64043E-02 1.74638E-01-1.83511E-01
 -1      2243-3.91671E-01-3.22689E-01-3.08607E-01-2.19624E-02 4.12338E-02-3.47808E-01
 -1      2244-1.32580E+00-9.82096E-01-2.44183E-01 9.35870E-02 4.49453E-02-3.59429E-01
 -1      2245 1.21416E+00 9.60683E-01 5.15331E-01 1.67835E-01-2.98650E-02-1.97092E-01
 -1      2246 1.15791E+00 8.66072E-01 4.25674E-01 4.00212E-03-2.03397E-02-3.35505E-01
 -1      2247 1.26583E-03-9.34349E-03-1.11501E-01 6.22621E-02 5.00956E-02-5.75284E-02
 -1      2248 3.91125E-01 3.95575E-01 6.33859E-01-5.25085E-03 5.19519E-02-4.48092E-01
 -1      2249-1.46544E-02-7.30610E-02-3.70475E-01 4.37805E-02 8.58189E-02-9.81324E-02
 -1      2250-1.52832E+00-1.09230E+00-5.28114E-01 5.70627E-02-2.17307E-02-3.03459E-01
 -1      2251 1.01836E-01 5.12565E-03-1.20541E-01-5.92851E-02 7.45164E-02-1.00401E-01
 -1      2252-2.31613E-01-1.54638E-01-4.07784E-01 2.67469E-02 3.93882E-03-3.23009E-01
 -1      2253 3.15761E-01 1.69207E-01 2.15960E-01-6.22887E-02 4.79949E-02-2.77383E-01
 -1      2254 1.51580E-01 8.66183E-02 1.28772E-01-5.08512E-02 1.00576E-01-1.20556E-01
 -1      2255-1.99913E-01-1.06714E-01-2.43816E-01 3.98184E-02 1.15485E-01-1.83522E-01
 -1      2256 6.03319E-01 5.43813E-01 4.25560E-01-3.04830E-01 4.33878E-02-2.69278E-01
 -1      2257 2.51644E-01 8.30608E-02 9.63928E-02-3.50763E-01-2.20969E-02-2.50885E-01
 -1      2258-7.08285E-02-2.46586E-01-6.32186E-01-8.93876E-02-1.84770E-01-1.36466E-01
 -1      2259 2.81738E+00 2.06741E+00 1.06927E+00 1.50755E-01 1.99483E-01-7.66768E-01
 -1      2260 1.19924E+00 1.03516E+00 1.43486E+00-2.80250E-02-5.16336E-02-6.20431E-01
 -1      2261-1.64960E+00-1.32362E+00-6.79118E-01 8.12251E-02 1.36857E-01-2.89547E-01
 -1      2262-5.45821E-01-4.51158E-01-2.07206E-01-2.92593E-01-2.25739E-02-1.83369E-01
 -1      2263 2.13327E-01 7.01175E-02 1.98546E-01 8.67891E-03 1.15776E-01-2.87973E-01
 -1      2264-1.62720E+00-9.20334E-01-4.47592E-01-2.23922E-01-8.14795E-02-4.52650E-01
 -1      2265-2.19669E-01-1.18690E-01-2.89816E-01-1.88208E-02-6.83156E-02-1.90977E-01
 -1      2266 2.15978E-01 1.02079E-01 2.44605E-02 4.27708E-02-9.38967E-02-1.49917E-01
 -1      2267 4.58990E-01 2.65990E-01 5.40116E-01 1.03413E-02-9.53626E-02-3.66711E-01
 -1      2268-1.40176E+00-9.95192E-01-3.18936E-01-1.24204E-01-4.59574E-02-2.82095E-01
 -1      2269-1.22474E-01-9.89827E-02-1.03405E-01 6.48872E-02 7.13048E-02-9.61783E-02
 -1      2270-2.29967E+00-1.36531E+00-9.43208E-01-2.88961E-01-9.73196E-02-6.70203E-01
 -1      2271 3.87304E-01 2.56351E-01 3.02478E-01 6.36281E-02 1.55949E-01-4.09499E-01
 -1      2272-1.99894E-01-1.68515E-01-4.28780E-01 4.36868E-02 1.60286E-01-1.78006E-01
 -1      2273 2.27968E-01 1.44545E-01 2.59309E-01 4.87195E-02-1.04751E-01-2.44357E-01
 -1      2274 3.70470E-02 2.26320E-02 6.53862E-02 3.81651E-02-3.98930E-02-7.01647E-02
 -1      2275-1.20068E+00-6.93135E-01-2.70813E-01 2.22425E-01 1.00189E-01-2.39548E-01
 -1      2276 4.35705E-01 2.63563E-01 5.50946E-01 2.14516E-02 1.16806E-01-3.99441E-01
 -1      2277 3.16776E-01 1.46750E-01 8.77812E-02 3.62198E-02-6.56322E-02-2.16629E-01
 -1      2278 3.98407E-01 4.66972E-01 6.30762E-01 2.41246E-02-4.66409E-02-3.20954E-01
 -1      2279 4.58069E-01 2.57610E-01 5.27120E-01 7.07996E-02-1.15267E-01-4.34928E-01
 -1      2280-2.11030E+00-1.75216E+00-7.90543E-01 6.12393E-02 8.15091E-02-4.83067E-01
 -1      2281 1.21129E-02 3.01194E-02 8.66911E-02-4.63163E-02 4.32132E-02-4.50500E-02
 -1      2282 2.92844E-01 3.03194E-01 7.92884E-01-7.57588E-02-5.78959E-02-4.56161E-01
 -1      2283-6.26224E-02-4.36903E-02-1.25696E-01-3.27196E-02-5.19121E-02-9.70500E-02
 -1      2284 7.30621E-02 1.12185E-01 4.00325E-01-3.85705E-02 1.04336E-01-5.95857E-02
 -1      2285-1.90007E-01-7.40181E-02 4.74824E-02-2.55798E-02-8.69173E-02-1.33715E-01
 -1      2286 3.35699E-01 2.85787E-01 8.43310E-01-9.64151E-02-1.44585E-01-5.01296E-01
 -1      2287 1.22478E+00 8.80412E-01 5.99614E-01-2.70946E-01 1.95376E-01-4.45788E-01
 -1      2288-2.93092E-01-9.66821E-02-4.81346E-02-3.69744E-02-7.73590E-02-1.83370E-01
 -1      2289-1.91965E+00-1.23164E+00-5.00132E-01-1.05324E-01-1.64244E-01-4.86961E-01
 -1      2290 2.13515E+00 1.44051E+00 2.52517E-01-1.23136E-01 2.00987E-01-5.63349E-01
 -1      2291 6.20530E-01 2.09539E-01 1.29827E-01 6.09544E-01-2.98116E-02-5.11341E-01
 -1      2292 4.06339E-01 3.44958E-01 4.61326E-01-7.46274E-02 1.60618E-01-3.03006E-01
 -1      2293 1.58464E-01 1.92291E-01 4.49269E-01-3.77788E-02 1.94050E-01-1.99300E-01
 -1      2294 2.83437E+00 1.99409E+00 6.98858E-01 3.44924E-02-2.72901E-02-7.65764E-01
 -1      2295-9.53760E-02-1.20670E-01-1.65573E-01-5.34903E-02-1.21034E-01-1.27126E-01
 -1      2296 1.93892E+00 1.67427E+00 3.43898E-01 2.33416E-02 1.26700E-01-5.17836E-01
 -1      2297-1.84453E+00-1.25776E+00-6.01499E-01 1.50253E-01 5.71732E-02-4.50432E-01
 -1      2298 1.60634E+00 1.11530E+00 3.64792E-01 1.17593E-01-8.09543E-02-3.18161E-01
 -1      2299-2.84687E-01-2.60720E-01-6.42344E-01-6.31020E-02-1.41225E-01-2.95691E-01
 -1      2300-2.34792E-01-1.18148E-01-2.38714E-01-6.29797E-02-5.36519E-02-2.13012E-01
 -1      2301-7.49566E-01-6.24080E-01-5.68272E-01-8.28348E-02-1.41431E-01-2.63808E-01
 -1      2302-3.32383E-01-1.95407E-01-9.94185E-02-4.46464E-02-5.30146E-02-2.33575E-01
 -1      2303-2.65188E-01-2.57521E-01-4.48297E-01-5.19556E-02-4.18226E-02-3.46446E-01
 -1      2304-3.53032E-01-3.64860E-01-6.95003E-01-5.68742E-02-1.60552E-01-3.24971E-01
 -1      2305-4.43354E-01-4.35669E-01-1.12637E+00-1.11655E-01-2.50968E-01-3.98796E-01
 -1      2306 4.43916E-01 2.28659E-01 2.35221E-01 5.48864E-02-1.79370E-01-3.94859E-01
 -1      2307 2.02590E-01 1.98180E-02-2.29086E-02-2.99193E-01-3.67941E-02-2.29858E-01
 -1      2308 8.23724E-01 7.12506E-01 7.82966E-01-4.49460E-01 7.23054E-02-4.00411E-01
 -1      2309 6.11171E-01 2.03630E-01 2.41815E-01-5.83426E-01-5.72986E-02-4.97934E-01
 -1      2310 7.46171E-02 6.88524E-02-1.78604E-02-2.09380E-01 3.78386E-04-1.53031E-01
 -1      2311 1.62233E-01 1.00851E-01 3.54941E-01 2.17650E-02-8.20440E-02-2.26960E-01
 -1      2312-2.41851E-02-2.84936E-02-1.42387E-01 2.15191E-02 3.49514E-02-1.25453E-01
 -1      2313-9.80795E-02-9.35086E-02-7.17478E-02 3.51270E-02 6.38979E-02-1.31383E-01
 -1      2314 2.31081E-01 1.08482E-01-4.69877E-02-3.03976E-03-1.03896E-01-1.61713E-01
 -1      2315 3.45404E-01 2.52676E-01 3.21395E-01-1.04928E-02 1.49550E-01-2.34957E-01
 -1      2316-1.74508E-02-1.95788E-01-6.62045E-01 8.30098E-02 1.79578E-01-1.25270E-01
 -1      2317-3.27943E-01-1.77107E-01-7.90854E-02 2.55427E-02 7.67406E-02-2.13289E-01
 -1      2318-4.19619E-01-3.39556E-01-5.08041E-01 3.88109E-02 1.54757E-01-3.19408E-01
 -1      2319-2.55770E-01-1.03194E-01-9.35332E-02 1.97539E-02 1.12538E-01-1.60008E-01
 -1      2320 8.32372E-02 1.21359E-01 1.12347E-01 6.09901E-02-9.00500E-02-8.71173E-02
 -1      2321 1.10430E-01 1.26533E-01 4.23606E-01 5.43625E-02-1.62487E-01-1.76219E-01
 -1      2322-1.47373E-01-6.00833E-02-1.54922E-01-2.39473E-02 9.29008E-02-2.63581E-01
 -1      2323-1.20045E-01-1.13848E-02 2.96647E-01 5.43168E-02 2.24172E-02-2.16887E-02
 -1      2324 8.90200E-01 6.31532E-01 2.07085E-01-2.07384E-01 1.50355E-01-2.25194E-01
 -1      2325-6.19315E-01-4.70101E-01-3.53135E-01-6.57906E-02-1.53782E-01-1.52329E-01
 -1      2326 1.14444E+00 1.10237E+00 1.22523E+00 3.94503E-02 4.02374E-01-6.31191E-01
 -1      2327-3.97406E-02-1.23348E-01-5.31411E-01-2.16224E-02-1.72164E-01-1.58683E-01
 -1      2328 6.07146E-01 4.82251E-01 6.12044E-01-6.89331E-02 1.31449E-01-3.60058E-01
 -1      2329 3.81852E-01 2.14611E-01 4.99726E-01-1.92399E-02 1.31899E-01-4.00447E-01
 -1      2330-3.90910E-01-3.65820E-01-9.03406E-01 2.11000E-02-1.94693E-01-5.04586E-01
 -1      2331-1.74640E+00-1.23535E+00-3.73806E-01 2.38253E-02 2.14228E-02-3.78427E-01
 -1      2332 1.32423E+00 1.18392E+00 1.09455E+00 8.60748E-02-2.56428E-01-4.97067E-01
 -1      2333-1.40512E-02 8.41982E-02 3.53186E-01 6.28675E-03 1.47618E-02-5.44660E-02
 -1      2334-2.95835E-01-5.03003E-02 1.03365E-01-3.07919E-01 2.64624E-02-1.51936E-01
 -1      2335-5.25514E-01-3.03447E-01-7.33574E-02-3.82616E-01-5.50805E-03-2.28296E-01
 -1      2336-1.10316E-01-5.97907E-02 1.07475E-01 3.29164E-02-1.11037E-02-7.99449E-02
 -1      2337-2.11349E+00-1.76521E+00-9.03531E-01 2.09291E-02-2.48046E-02-4.09102E-01
 -1      2338 8.21349E-01 5.13192E-01 5.69403E-02 7.97583E-02 5.19719E-02-3.46203E-02
 -1      2339-7.74242E-01-7.16234E-01-7.55735E-01-4.11725E-03 4.33917E-02-4.38300E-01
 -1      2340-7.73056E-01-7.99487E-01-5.78826E-01 5.64587E-02 1.52471E-01-4.41852E-01
 -1      2341-8.89996E-01-2.79478E-01-2.44390E-01-7.59512E-01 5.62847E-02-7.57222E-01
 -1      2342 4.40314E-02 2.12763E-03-1.12574E-01 3.90165E-02-1.35067E-02-4.69050E-02
 -1      2343 1.54234E-01 8.08491E-02 7.41069E-02 1.77783E-03-3.64670E-02-1.01826E-01
 -1      2344 4.04295E-02-4.62141E-02-1.80209E-01-1.63986E-03 2.43247E-03-4.63811E-02
 -1      2345 4.91728E-01 4.34257E-01 7.84070E-01-8.26909E-02 1.30566E-01-4.83500E-01
 -1      2346-1.11020E-01-3.45452E-02 8.39381E-02-5.51935E-02-4.81914E-02-7.34095E-02
 -1      2347 4.33917E-01 4.90400E-01 1.10213E+00-8.19711E-02-1.51875E-01-5.91015E-01
 -1      2348-3.31062E-01-1.29933E-01 2.13909E-01 1.23522E-01 2.01070E-02-9.42305E-03
 -1      2349 3.09738E-01 3.42571E-01 7.29637E-01-1.07055E-01 2.78379E-01-2.84419E-01
 -1      2350-6.55407E-01-4.32337E-01-4.45121E-01-2.37939E-02-1.45887E-01-3.09586E-01
 -1      2351 2.63611E-01 4.34971E-02-1.18001E-01 3.56826E-03 3.73229E-02-2.06441E-02
 -1      2352-2.37219E-01-1.59967E-01-3.74944E-01 1.46234E-02 4.28524E-02-2.37222E-01
 -1      2353-2.29869E-01-2.14945E-01-7.01951E-01 3.69772E-02-2.51847E-02-4.95648E-01
 -1      2354-1.25139E-01 4.71402E-02 4.70672E-01 8.86054E-02 2.38569E-02 1.06403E-02
 -1      2355 4.53366E-01 3.11482E-01 3.96183E-01-2.49810E-02 2.36083E-01-3.86373E-01
 -1      2356 2.99083E+00 2.76506E+00 1.33253E+00 7.12978E-02 5.82975E-02-7.42518E-01
 -1      2357-2.64568E+00-1.68506E+00-9.44905E-01 4.47403E-02-7.35366E-02-6.83876E-01
 -1      2358-1.97098E+00-1.44379E+00-5.20103E-01 7.48149E-02 7.08945E-02-4.05789E-01
 -1      2359 1.59084E+00 1.07709E+00 8.04772E-01-2.98945E-01 1.97597E-01-4.51918E-01
 -1      2360 1.33948E-01 1.02559E-01 8.32527E-03-1.45788E-02 1.37093E-01-1.37357E-01
 -1      2361 2.42821E-01 2.28149E-01 1.72414E-01-3.11052E-02 1.88590E-01-2.18918E-01
 -1      2362 9.71163E-01 8.99701E-01 9.47528E-01 6.86878E-03 3.54099E-01-5.12668E-01
 -1      2363 4.07747E-01 3.34641E-01 1.22922E-01 4.72928E-02 2.28287E-01-1.48784E-01
 -1      2364 2.96299E-01 1.94478E-01 1.64506E-01-3.72523E-02 1.16042E-01-8.92099E-02
 -1      2365 1.81554E+00 1.40979E+00 1.97122E+00 1.16308E-01-1.11606E-01-8.42783E-01
 -1      2366 8.07374E-01 8.81161E-01 1.29418E+00-6.92211E-02-3.04395E-01-6.76142E-01
 -1      2367-3.50388E-02-1.31345E-01-4.70111E-01 3.45507E-02 1.22694E-01-1.09315E-01
 -1      2368-1.13788E+00-1.03697E+00-8.91584E-01 2.00399E-03-3.14824E-01-3.70782E-01
 -1      2369-3.06271E-01-2.10290E-01-2.02386E-01-4.22951E-02 1.99528E-01-3.03999E-01
 -1      2370 2.39015E-01 1.93783E-01 4.27426E-01 5.15977E-02-1.29500E-01-1.95375E-01
 -1      2371 2.11047E-01 2.39944E-01 7.21042E-01 7.41757E-02-2.61468E-01-2.97556E-01
 -1      2372-1.83061E+00-1.11860E+00-5.22416E-01 2.72589E-01 1.70786E-01-4.85374E-01
 -1      2373-2.57882E+00-2.12116E+00-1.29821E+00 9.97582E-02 1.91252E-01-5.86407E-01
 -1      2374 3.57852E-01 2.70702E-01 7.58188E-01 2.76349E-02-1.22610E-01-3.63477E-01
 -1      2375-1.57204E-01-1.75126E-01-4.49452E-01-1.86402E-02-1.19013E-01-1.92661E-01
 -1      2376-4.73972E-01-4.49664E-01-1.12815E+00-1.50806E-01-2.16221E-01-5.51244E-01
 -1      2377-5.40814E-01-3.83421E-01-4.21352E-01 1.11552E-01 1.53416E-01-3.00617E-01
 -1      2378 6.25017E-01 5.42204E-01 7.70812E-02 1.09302E-01 2.23237E-02-1.33774E-01
 -1      2379 1.58302E-03-2.76324E-01-7.74061E-01 7.63416E-02 2.62343E-01-1.82332E-01
 -1      2380-3.71569E-01-2.31054E-01-1.62020E-01 6.83085E-02 1.68979E-01-2.29442E-01
 -1      2381-3.57065E-01-3.35935E-01-7.96267E-01 3.55914E-02-9.25142E-02-4.82060E-01
 -1      2382-6.70612E-01-6.47963E-01-8.98495E-01-9.03921E-02-4.97345E-02-4.52368E-01
 -1      2383 2.66076E-01 1.15671E-01 3.43974E-02 1.52314E-01 4.06691E-02-2.32631E-01
 -1      2384-2.35214E-01-3.16052E-01-9.03402E-01-7.04332E-02-2.64224E-01-2.84281E-01
 -1      2385 5.27433E-02 1.74101E-01 5.70394E-01-9.11535E-02 1.97617E-01-9.37608E-02
 -1      2386-6.71202E-01-7.72942E-01-1.43559E+00-4.06704E-02-2.85962E-01-7.15627E-01
 -1      2387 7.15899E-02 1.81533E-01 7.16768E-01 6.07138E-02-2.24062E-01-1.28915E-01
 -1      2388 2.08329E+00 1.34372E+00 7.47373E-01 7.79668E-02-1.77028E-02-5.36802E-01
 -1      2389-6.32547E-01-4.54567E-01-2.19192E-01 2.83797E-01 1.14744E-01-3.19630E-01
 -1      2390-2.94416E-01-1.79507E-01 1.06892E-01 4.56933E-02 5.23882E-02-8.73616E-02
 -1      2391 8.33166E-01 8.23140E-01 5.72687E-01 5.95569E-02 2.91681E-01-1.82596E-01
 -1      2392 8.62610E-01 7.64293E-01 8.91774E-01 4.02933E-02-2.72944E-02-4.27520E-01
 -1      2393-2.73896E+00-2.00137E+00-1.18279E+00 1.32939E-01 6.87190E-02-6.68190E-01
 -1      2394 8.94572E-01 9.91376E-01 1.67684E+00-6.73811E-02-2.74618E-01-6.59009E-01
 -1      2395 8.96055E-01 8.11338E-01 9.73601E-01-1.04779E-02 5.12943E-02-5.14541E-01
 -1      2396 1.15175E+00 1.01964E+00 1.31576E+00-9.66408E-03 7.05076E-02-5.99293E-01
 -1      2397 1.30808E-01 1.02261E-01 6.62062E-01 5.71502E-02-2.02614E-01-2.45342E-01
 -1      2398 2.50924E-01 2.04584E-01 1.95699E-01-1.50244E-02-1.11555E-01-2.18862E-01
 -1      2399-3.14010E+00-2.71746E+00-1.45340E+00 6.38192E-02 1.00481E-01-8.94056E-01
 -1      2400-3.11555E-01-2.92369E-01-5.61336E-01-1.40450E-02 1.41773E-01-3.28790E-01
 -1      2401 5.97024E-01 4.99780E-01 2.35267E-01-4.48843E-02-1.04597E-01-1.77053E-01
 -1      2402 1.68447E+00 1.20499E+00 4.53237E-01 7.06421E-02-1.98488E-01-3.44625E-01
 -1      2403-1.31462E+00-1.19180E+00-1.80028E+00-1.74927E-01-2.23654E-01-7.43982E-01
 -1      2404-4.65261E-02 1.51685E-01 1.34149E-01 2.05617E-01-8.40191E-02-2.44350E-01
 -1      2405-5.26290E-01-4.23800E-01-5.32290E-02 6.10658E-02-9.60740E-02-9.16852E-02
 -1      2406 1.32108E-01-2.10853E-02-2.86127E-01-2.13853E-02 2.09523E-02-9.02068E-03
 -1      2407 1.31814E-01 3.58866E-02-1.00884E-01-1.40639E-02-2.00118E-02-5.96305E-02
 -1      2408 7.34286E-02-2.71540E-01-7.65932E-01 9.58381E-02 2.48684E-01-2.00187E-01
 -1      2409-4.97353E-01-3.22828E-01-4.01490E-02 2.01182E-02 2.12538E-01-1.68874E-01
 -1      2410 7.06648E-02 1.28255E-01 4.25760E-01-7.23829E-02 1.13997E-01-1.02691E-01
 -1      2411-3.26669E-02 2.45361E-01 6.60732E-01-1.30804E-01 2.97276E-01-1.60860E-01
 -1      2412-7.46745E-01-5.78690E-01-7.95938E-01 3.98668E-02 1.34869E-01-5.21639E-01
 -1      2413 3.91939E-01 1.67648E-01 5.73463E-02 1.53443E-02 6.74026E-02-3.50682E-02
 -1      2414-8.98018E-01-7.67145E-01-8.89273E-01 9.82539E-02 1.44698E-01-4.71633E-01
 -1      2415-7.47768E-01-7.35920E-01-1.17655E+00 2.29744E-02-3.58771E-01-7.03555E-01
 -1      2416-4.56030E-01-1.25844E-01 3.36419E-01-8.26036E-02-4.76422E-02 3.44992E-02
 -1      2417 1.27994E+00 7.18549E-01 3.29761E-01-2.02931E-01 1.52934E-01-2.58329E-01
 -1      2418-2.90294E-01-3.41228E-02 1.95028E-02 3.07577E-01-1.05975E-02-2.48253E-01
 -1      2419-2.86865E+00-2.52687E+00-1.34929E+00 1.91507E-01 1.20377E-02-7.38967E-01
 -1      2420-1.72384E-01-1.48009E-01-3.63814E-01 6.58951E-02 1.23642E-01-1.71012E-01
 -1      2421 2.20802E+00 1.16190E+00 8.70567E-01-3.25366E-01 1.54033E-01-5.82959E-01
 -1      2422-6.93967E-01-6.73227E-01-8.90518E-01-3.78666E-03 4.31332E-02-5.44440E-01
 -1      2423-1.65584E+00-1.26462E+00-1.65036E+00-5.55478E-02 1.60559E-02-7.37138E-01
 -1      2424-3.79340E-01-3.99457E-01-8.92246E-01 1.61824E-02 4.79044E-03-4.78298E-01
 -1      2425-9.37911E-01-8.59606E-01-1.45411E+00-2.48239E-03-9.30433E-02-8.08416E-01
 -1      2426-9.18922E-01-7.71196E-01-4.27924E-01-3.30375E-02 3.03005E-01-2.52081E-01
 -1      2427 5.96532E-01 3.12155E-01 1.11636E-01 4.46269E-02 5.85356E-02-5.07927E-02
 -1      2428-3.18672E+00-2.32955E+00-1.07251E+00 2.35324E-02 3.16805E-02-7.55790E-01
 -1      2429 2.43638E-01 2.46260E-01 9.06911E-01 1.07905E-01-2.90331E-01-3.74535E-01
 -1      2430-3.63069E-01-3.91823E-01-5.92769E-01 5.98772E-02 1.75956E-01-2.61451E-01
 -1      2431 3.61125E-01 3.55519E-01 8.80174E-01 3.75836E-02-1.09541E-01-4.58338E-01
 -1      2432-3.77645E-01-4.08321E-01-4.37622E-01-1.59340E-02 2.72629E-01-3.33499E-01
 -1      2433-2.32624E+00-1.40735E+00-8.79026E-01 2.25757E-01 1.64148E-01-7.07492E-01
 -1      2434-8.53633E-01-9.54295E-01-1.09758E+00-3.26078E-02 3.71625E-01-4.75220E-01
 -1      2435 1.81628E+00 1.17161E+00 3.85500E-01 3.07728E-02-3.87860E-02-3.84463E-01
 -1      2436-1.24518E-01-1.56428E-01-8.08171E-01-3.59516E-02-1.97750E-01-2.28649E-01
 -1      2437 3.16148E+00 2.15014E+00 1.49259E+00 1.55393E-02-1.47165E-01-8.18016E-01
 -1      2438 4.49017E-01 1.97426E-01-1.33094E-01-9.46644E-02 4.14205E-02-9.37475E-03
 -1      2439-9.38452E-01-9.92058E-01-5.34497E-01 4.00860E-02-1.99343E-01-1.17054E-01
 -1      2440 2.25284E-02 6.87421E-02 4.23201E-01 4.31669E-02-1.39642E-01-1.26386E-01
 -1      2441 4.54383E-02 2.64939E-01 8.40607E-01 8.47259E-02-3.13957E-01-1.78141E-01
 -1      2442 8.77140E-03 2.18444E-01 8.14185E-01 9.75609E-02-2.97811E-01-1.65647E-01
 -1      2443 7.29470E-01 6.17315E-01 1.04978E+00-9.00186E-02 1.28609E-01-5.24888E-01
 -1      2444-3.70892E-02 2.02249E-01 6.43669E-01-1.37839E-01 2.89919E-01-1.47593E-01
 -1      2445-1.71830E+00-1.32393E+00-1.65014E+00 1.62725E-01 1.64794E-01-7.69221E-01
 -1      2446-7.11132E-01-4.59053E-01-3.78536E-01 3.93464E-01 1.29847E-01-3.32447E-01
 -1      2447-3.57282E-01-3.86519E-01-7.48989E-01 1.26841E-01 2.14725E-01-3.64587E-01
 -1      2448-1.80945E+00-1.38713E+00-1.79007E+00 4.08765E-02 1.27952E-01-8.58572E-01
 -1      2449-6.54267E-01-5.16429E-01-9.85610E-01 2.82486E-02-1.69837E-01-6.96030E-01
 -1      2450 4.78264E-01 4.68975E-01 1.23891E+00 1.45933E-01-3.60259E-01-4.88083E-01
 -1      2451 6.20525E-01 6.05439E-01 1.36497E+00 3.71555E-02-1.51337E-01-6.20712E-01
 -1      2452-2.31519E-01-2.57498E-01-1.02238E+00-1.08393E-01-2.66630E-01-3.63785E-01
 -1      2453 8.60345E-01 6.67303E-01 1.29542E+00-1.58031E-01 2.02640E-01-5.74097E-01
 -1      2454-5.39990E-01 3.44600E-04-1.03113E-01 5.18945E-01-3.73957E-02-4.48329E-01
 -1      2455-8.42405E-01-9.88660E-01-1.38080E+00 1.87339E-01 3.28313E-01-4.73212E-01
 -1      2456 1.54554E+00 1.32538E+00 2.18605E+00 5.40262E-02-9.81288E-02-9.00101E-01
 -1      2457-5.44279E-01-5.62184E-01-1.36108E+00-1.31922E-01-3.40693E-01-4.69130E-01
 -1      2458 1.23554E+00 9.38518E-01 1.54880E+00-1.94938E-01 2.24488E-01-6.63456E-01
 -1      2459-2.43657E-01-1.60793E-01-1.69487E-01 6.20729E-02-5.95141E-02-5.05744E-02
 -1      2460-5.66582E-02 2.61987E-02 6.47633E-02 7.35369E-02-9.15466E-02-1.30776E-01
 -1      2461 2.96128E-01 1.12513E-01-9.01876E-02 9.96927E-02 9.77484E-02-6.56525E-02
 -1      2462 1.66343E-02-5.00575E-03 1.09251E-03 1.63257E-02 1.69530E-02-1.41000E-01
 -1      2463-1.54410E-01-5.43356E-02 1.10325E-01 1.19866E-01-8.23118E-02-1.95745E-01
 -1      2464 1.95941E-01-3.64551E-02-1.37528E-01-5.46977E-02 3.48329E-03-7.77621E-02
 -1      2465-2.80783E-02-3.26325E-02 7.68368E-02 3.92377E-02-5.69287E-02-1.25061E-01
 -1      2466-1.53046E-01-1.08714E-01-3.02615E-02 8.42148E-02-6.72597E-02-1.50633E-01
 -1      2467-2.49533E-02-1.60263E-02 3.24455E-02 2.18129E-02-8.54158E-03-2.61947E-01
 -1      2468-1.19462E-01-2.01969E-01-1.33323E-01-9.97923E-03-6.80890E-02-1.07849E-01
 -1      2469-1.91228E-03-5.87271E-02-1.45953E-01 4.29910E-02 2.12722E-02-1.55733E-01
 -1      2470-3.21137E-02-7.77270E-02-1.19050E-01-2.13948E-02-5.10588E-02-2.58434E-01
 -1      2471-4.86958E-02-1.51538E-03 2.31310E-02 7.64099E-03-5.47283E-02-2.76547E-01
 -1      2472 1.75240E-02 1.57492E-01 1.01617E-01 3.92790E-03 9.16482E-02-4.34604E-02
 -1      2473 5.54006E-02-7.63161E-02-2.53831E-01-4.62158E-02-8.47797E-02-1.00505E-01
 -1      2474 7.24914E-03 5.79042E-02 8.02762E-02 1.95764E-03-3.71838E-02-3.06569E-01
 -1      2475-1.27216E-01-1.32201E-02 1.00262E-02 5.41724E-02 4.55251E-03 1.34075E-02
 -1      2476-9.78247E-03 1.87518E-02-1.76223E-02-2.23088E-02 5.59770E-02-2.46486E-01
 -1      2477 6.92568E-02 6.18912E-02-4.98870E-02-5.10983E-02-3.07170E-02-1.41706E-01
 -1      2478-1.40305E-01 4.49563E-02 1.42707E-02 1.32937E-03-2.86035E-02-9.67441E-02
 -1      2479-4.44514E-02-1.59232E-02 5.32768E-03-2.70112E-02 1.45675E-02-2.21851E-01
 -1      2480-6.11418E-02 5.88479E-02-2.00839E-02-3.98935E-02-4.02096E-02-1.05655E-01
 -1      2481 5.39026E-02 2.37825E-01 2.21136E-01 2.63370E-02-5.46055E-02-5.53175E-02
 -1      2482-1.92638E-01-1.33992E-01-1.75088E-01-2.51595E-04 1.82628E-02-2.12693E-01
 -1      2483 8.49209E-02-6.50593E-03-1.26270E-01 7.24281E-02 6.11454E-02-2.07947E-01
 -1      2484-1.43701E-01-1.12453E-01-1.39159E-01-3.43816E-02-1.51742E-02-1.95783E-01
 -1      2485-1.58332E-01-1.03418E-01-1.44112E-01-5.70113E-02-9.05668E-02-2.08262E-01
 -1      2486-6.43130E-02 1.28374E-02 9.26279E-02-3.32426E-02 8.38624E-02-2.29248E-01
 -1      2487-6.95778E-02-6.11480E-02 5.20503E-02-6.22196E-02 4.65633E-02-1.58907E-01
 -1      2488-3.98185E-02-5.99834E-02-3.79419E-02-4.95512E-02 1.48599E-02-2.31466E-01
 -1      2489 1.64783E-01 3.82858E-03 5.24751E-03 4.52476E-02 4.13806E-02-6.42201E-02
 -1      2490-3.48277E-03-2.54542E-02 4.86649E-02-3.71300E-02 1.03535E-02-2.08183E-01
 -1      2491 3.03109E-02 5.79595E-02 8.55269E-02-3.11376E-02 5.46576E-02-2.02077E-01
 -1      2492 2.99561E-01 3.44246E-01 3.77729E-01 2.07070E-02-3.86554E-02-9.91296E-02
 -1      2493 3.44933E-01 2.68795E-01 1.84865E-01-1.35751E-03 3.39004E-03-2.09328E-01
 -1      2494 2.51780E-02 2.54760E-02-7.76170E-02 6.53280E-02 6.43855E-02-1.30467E-01
 -1      2495 2.68168E-01 4.36443E-02 7.77642E-02 4.06673E-02 9.62402E-03-5.50271E-02
 -1      2496-3.32692E-01-1.07926E-01-5.72934E-03-2.06744E-02 7.24437E-03-6.42425E-02
 -1      2497 7.95321E-02 1.36436E-02-1.72372E-02-1.34250E-01-5.13193E-02-3.66770E-01
 -1      2498-6.44460E-02-1.13183E-01-9.84269E-02-1.65902E-02-7.51041E-02-2.19971E-01
 -1      2499-1.03040E-01-9.32099E-02 2.12792E-02-3.71646E-02 4.24759E-02-1.32994E-01
 -1      2500 6.49340E-02 2.27879E-01 2.74962E-01-1.09325E-02 2.57418E-02-1.45228E-01
 -1      2501 7.57020E-01 7.36003E-01 3.12843E-01-2.22079E-02 1.48612E-01-1.00529E-01
 -1      2502-4.60248E-02-1.76312E-02-2.48050E-02 2.70052E-02-3.45537E-02-1.79967E-01
 -1      2503 5.92808E-01 5.56639E-01 3.95640E-01 1.06288E-02-3.78231E-02-4.51672E-02
 -1      2504-7.45706E-01-7.56807E-01-4.65420E-01-3.09763E-02-8.15013E-02-1.29551E-01
 -1      2505-8.88229E-02 4.61873E-02 1.07109E-01-6.04035E-02 1.14762E-01-1.28599E-01
 -1      2506 3.85774E-02-1.97084E-02-5.44099E-02 5.25081E-02-1.02667E-02-2.44617E-01
 -1      2507-2.23065E-01-2.02896E-01-1.90133E-01 8.13591E-03 8.77733E-03-2.05999E-01
 -1      2508 8.49898E-01 7.56095E-01 5.57140E-01 1.17179E-01-1.08311E-01-2.48245E-01
 -1      2509 4.42985E-01 3.21559E-01 3.18314E-01-1.25811E-02-9.79530E-02-2.41130E-01
 -1      2510 1.25112E-01 1.48334E-01 1.16755E-01 8.06439E-03 2.22677E-02-2.03485E-01
 -1      2511 1.34558E-01 1.02856E-01-3.47171E-02-8.71039E-02-7.84911E-02-9.38524E-02
 -1      2512 1.33495E+00 1.26895E+00 6.97836E-01-6.03663E-02 1.80527E-01-2.14205E-01
 -1      2513 6.31808E-02 4.27978E-02 3.17531E-02 6.52219E-02 5.10836E-02-1.31108E-01
 -1      2514 1.71938E-02-1.71315E-02-4.88371E-02-3.55001E-02-4.66648E-03-2.20342E-01
 -1      2515 1.26306E-02-3.26280E-02-9.54598E-04 5.77101E-02-8.09093E-03-2.69840E-01
 -1      2516-5.01778E-02-4.02272E-02-1.27081E-01 2.96622E-02 7.90437E-02-1.97295E-01
 -1      2517-6.91955E-01-5.52506E-01-3.96592E-01 7.10725E-02 1.14349E-01-1.50954E-01
 -1      2518-1.99773E-01-1.95705E-01-1.37127E-01 9.60428E-03 1.14750E-01-1.29128E-01
 -1      2519-9.00219E-02-4.92421E-02-5.73855E-02 1.22746E-02 3.65692E-02-2.43449E-01
 -1      2520-3.22279E-01-1.89352E-01-2.63696E-01-5.61998E-02-4.53688E-02-2.28658E-01
 -1      2521 1.40760E-01 1.39060E-01 1.98543E-01-1.73110E-02 8.61017E-02-2.10597E-01
 -1      2522-6.80732E-02-6.38542E-02-1.20529E-01-9.39582E-03-2.42196E-02-2.80075E-01
 -1      2523-2.81526E-01-3.76602E-01-4.27934E-01 4.45154E-02 2.47899E-02-1.01840E-01
 -1      2524 1.71768E-01 2.15076E-01 2.92101E-01-5.02945E-02 7.74170E-02-1.71664E-01
 -1      2525 1.35595E-02-8.36950E-03 3.17279E-02-5.94940E-02-8.65110E-02-1.88179E-01
 -1      2526-1.63232E-01-1.95039E-02 1.23879E-01-8.98330E-02 2.68347E-02-5.34126E-02
 -1      2527 1.09151E-01-1.03017E-01-2.33820E-01 7.40890E-02 5.10728E-02-6.95523E-03
 -1      2528 6.72069E-01 5.21276E-01 3.15053E-01 7.01504E-02 1.32010E-02-2.67291E-01
 -1      2529 6.91012E-01 4.95169E-01 4.94720E-01 3.49262E-02 1.09355E-01-3.20387E-01
 -1      2530-6.54784E-01-5.46670E-01-2.32295E-01 6.11123E-02 1.89660E-02-2.58770E-01
 -1      2531 2.07198E-01 1.51526E-01 1.06100E-01-1.99815E-01-8.59167E-03-2.72555E-01
 -1      2532 1.01208E-01-9.34917E-03-3.73179E-02-6.22530E-02-1.03807E-01-8.89996E-02
 -1      2533-4.44190E-01-4.10915E-01-2.25920E-01-4.79639E-02-1.48129E-01-1.10131E-01
 -1      2534-5.53699E-01-4.69835E-01-2.58348E-01 2.76132E-02-1.39740E-02-1.69690E-01
 -1      2535 1.87571E-01 1.02218E-01 3.34036E-02-1.16159E-02 4.68742E-02-1.86877E-01
 -1      2536 2.92223E-01 1.39705E-01 1.23072E-01 1.76051E-01-2.18796E-02-2.29802E-01
 -1      2537 7.36859E-02 2.19455E-02 5.12594E-03 4.65969E-02-8.75060E-02-2.32032E-01
 -1      2538 1.36260E-01 1.22709E-01 5.15456E-02 2.74963E-02-4.45169E-02-2.12850E-01
 -1      2539 5.95133E-01 3.85709E-01 2.40647E-01-1.09287E-01 3.03000E-02-2.67299E-01
 -1      2540 6.35628E-01 5.15399E-01 1.90021E-01 2.98332E-02 1.95263E-03-1.08020E-01
 -1      2541-2.78318E-01-2.80154E-01-1.61357E-01 1.32503E-02 3.24522E-03-1.74529E-01
 -1      2542-1.24144E+00-9.58518E-01-6.75517E-01 1.44879E-02 1.28702E-01-2.43191E-01
 -1      2543 5.20032E-01 4.72169E-01 5.85749E-01 1.25573E-01-4.97696E-02-1.85250E-01
 -1      2544-8.95302E-01-7.96623E-01-5.12873E-01-2.53465E-02-2.46053E-02-1.92065E-01
 -1      2545 2.68716E-01 1.09364E-02-1.03445E-01-3.96857E-02-6.16594E-02-4.70031E-02
 -1      2546 1.74114E-03 2.87134E-02 2.45244E-03 7.23767E-03 5.17247E-02-2.67208E-01
 -1      2547 1.06327E+00 6.71110E-01 4.88132E-01 9.16029E-02-7.97492E-03-4.21817E-01
 -1      2548 5.90843E-01 5.73560E-01 2.63504E-01 5.25861E-02 3.99814E-02-1.36427E-01
 -1      2549-8.96166E-01-6.24477E-01-4.47556E-01-1.13796E-01-1.74963E-02-3.02086E-01
 -1      2550 2.82360E-01 2.78983E-01 2.45016E-01 2.40548E-02-1.60426E-02-2.16298E-01
 -1      2551-8.61021E-01-5.08626E-01-3.70107E-01 4.47167E-02-1.01573E-01-3.81272E-01
 -1      2552 1.64608E-01 1.61315E-02-8.51301E-02 1.03667E-01 2.38267E-02-2.91049E-01
 -1      2553-3.91229E-02-3.63014E-02-4.82063E-02 7.07259E-03-7.02236E-03-2.02191E-01
 -1      2554 1.81472E+00 1.99761E+00 1.23020E+00-8.14200E-02 1.78768E-01-3.45603E-01
 -1      2555 5.93522E-01 5.93183E-01 3.81250E-01-8.78076E-03 9.06246E-03-1.57979E-01
 -1      2556 1.76576E-01 8.60955E-02 2.16616E-02-2.30278E-01-7.09638E-02-4.07221E-01
 -1      2557 1.35482E+00 1.04464E+00 5.79755E-01-1.21691E-02 4.14106E-03-2.86621E-01
 -1      2558 1.21123E+00 1.10840E+00 8.63052E-01 2.79431E-02-3.22696E-02-2.24478E-01
 -1      2559-8.27178E-01-9.23696E-01-4.79080E-01 6.83662E-02 1.61220E-02-1.99945E-01
 -1      2560-1.01910E+00-1.07181E+00-7.86916E-01 2.92547E-02-1.80497E-03-2.86049E-01
 -1      2561 1.14080E+00 9.51677E-01 4.73235E-01 9.05254E-02 1.02982E-02-2.23955E-01
 -1      2562 1.40105E+00 1.18034E+00 9.60567E-01 2.26663E-01-9.59392E-02-3.10791E-01
 -1      2563 5.95260E-01 5.15660E-01 5.45656E-01 8.72395E-03-3.43925E-02-1.96759E-01
 -1      2564 9.35609E-01 9.56864E-01 4.68885E-01-5.12086E-02-1.12236E-01-7.67885E-02
 -1      2565 1.74494E+00 8.83496E-01 8.05284E-01 1.41524E-01 3.46171E-02-6.82358E-01
 -1      2566-6.44121E-02-1.15500E-01-7.69894E-02-9.44911E-03-4.61236E-02-2.32673E-01
 -1      2567 4.74179E-01 4.77253E-01 2.31604E-01 5.51198E-02-2.87602E-02-1.74582E-01
 -1      2568 6.59924E-01 4.60630E-01 3.64514E-01 5.17628E-02 1.39120E-01-2.95993E-01
 -1      2569 3.10403E-01 1.53763E-01 1.82380E-01-3.35918E-01-2.34125E-02-2.98153E-01
 -1      2570-1.57372E-01-1.33120E-01-8.29844E-02-2.08553E-02-7.15676E-02-1.63560E-01
 -1      2571 1.46228E+00 1.14485E+00 9.72699E-01 1.51747E-01-2.04778E-03-3.59795E-01
 -1      2572-8.73916E-01-7.47493E-01-5.84316E-01-1.41308E-02-5.25640E-02-1.89338E-01
 -1      2573 9.42423E-01 6.59968E-01 6.99360E-01-7.60495E-02-7.80305E-02-3.50526E-01
 -1      2574 2.01791E-01-9.77414E-03-9.17789E-02 1.79867E-01 2.92081E-02-3.89342E-01
 -1      2575-1.36469E+00-1.37656E+00-8.25415E-01-8.29326E-02-1.35466E-01-1.75909E-01
 -1      2576-2.77267E-01-2.60052E-01-1.81186E-01-4.05997E-03 3.76573E-02-1.63611E-01
 -1      2577-6.66408E-01-5.01693E-01-3.25082E-01-8.87860E-02 1.11569E-01-3.23820E-01
 -1      2578 3.49487E-01 1.82510E-01 1.35981E-01 2.18433E-01-4.43690E-02-2.98187E-01
 -1      2579 9.97178E-01 8.52217E-01 3.41476E-01-2.67761E-02 1.13945E-01-2.20615E-01
 -1      2580 8.81578E-01 7.60147E-01 4.83941E-01-6.61280E-02 1.87385E-01-2.50573E-01
 -1      2581 5.95006E-01 2.23962E-01 2.09432E-01 3.43847E-01 2.59654E-02-6.29460E-01
 -1      2582-3.53242E-01-2.98809E-01-2.36186E-01-5.24582E-02 5.52233E-02-1.89770E-01
 -1      2583-1.16291E+00-7.73046E-01-5.89761E-01-5.45644E-02 2.16618E-01-5.42776E-01
 -1      2584-1.41982E+00-1.60475E+00-9.38828E-01 1.11268E-01 1.67165E-02-2.73339E-01
 -1      2585-6.72180E-01-5.52590E-01-2.26490E-01-1.17241E-02 2.67077E-03-1.23017E-01
 -1      2586 9.91470E-01 7.44673E-01 5.63608E-01-7.18416E-02 8.13034E-02-3.19281E-01
 -1      2587 1.29739E+00 1.11783E+00 6.07685E-01-1.37867E-02 1.30766E-01-4.03988E-01
 -1      2588 2.10848E-01-3.02869E-02-6.33528E-02-3.55327E-01-1.12589E-01-4.57977E-01
 -1      2589-5.95826E-01-4.18426E-01-2.31358E-01-4.22376E-02 1.28545E-01-2.62931E-01
 -1      2590 2.19914E-01 1.60069E-01 1.67916E-01 7.97664E-02-3.38059E-02-2.01550E-01
 -1      2591-7.25912E-01-6.91669E-01-4.26627E-01 2.76883E-02 2.10111E-02-3.10708E-01
 -1      2592 6.64725E-02-4.85581E-02-1.72682E-01-1.43693E-01-7.09778E-02-2.43494E-01
 -1      2593 5.11837E-01 2.47437E-01-2.78240E-02-2.10701E-02 1.00569E-01-2.27548E-01
 -1      2594 6.47798E-02 1.02634E-01 9.34153E-02-7.86249E-02 8.70494E-03-2.26639E-01
 -1      2595-6.45730E-01-5.49356E-01-2.87969E-01 9.07194E-03-4.71054E-02-1.70194E-01
 -1      2596 1.98375E-01 2.25019E-01 2.19228E-01-1.52127E-02 5.64392E-02-1.80680E-01
 -1      2597 3.23295E-01 3.42058E-01 3.56989E-01-2.03818E-01 1.99936E-02-3.08954E-01
 -1      2598 1.21508E+00 1.10850E+00 1.14268E+00 6.68925E-02-5.02820E-02-4.71932E-01
 -1      2599-3.49103E-01-2.57410E-01 7.64023E-02 1.13735E-02 1.05488E-01-1.60609E-01
 -1      2600-1.19609E+00-7.40392E-01-5.31663E-01-1.14128E-01-8.60543E-03-4.72948E-01
 -1      2601 1.86578E+00 1.56430E+00 1.19982E+00 3.54425E-01-6.21590E-02-4.11870E-01
 -1      2602-1.74377E+00-1.37686E+00-9.86323E-01 1.75479E-01 2.08826E-01-4.24248E-01
 -1      2603 1.91256E+00 1.56889E+00 8.89964E-01 6.54230E-03 1.98118E-02-5.01497E-01
 -1      2604 1.37509E+00 1.28470E+00 8.16927E-01 3.83747E-03-7.80594E-02-1.92004E-01
 -1      2605 9.10857E-01 9.04134E-01 5.37079E-01 2.24190E-02 1.85222E-02-3.00926E-01
 -1      2606 2.47612E-01 2.37812E-01 1.84405E-01-6.57096E-02 9.71269E-02-1.84233E-01
 -1      2607 2.25518E-01 2.14422E-01 1.30369E-01-6.12734E-02 1.35752E-02-2.40296E-01
 -1      2608 5.18121E-01 2.03036E-01 2.54492E-01-4.79645E-01-5.46859E-02-4.58224E-01
 -1      2609-1.47026E-01-6.52703E-02 2.40431E-03 1.40876E-01-4.67657E-02-3.70428E-01
 -1      2610-1.58374E+00-1.96674E+00-1.17170E+00 1.78880E-01 8.26286E-02-3.40274E-01
 -1      2611-3.08687E-01-1.81763E-01-1.03361E-01-2.10515E-01 2.60309E-02-2.32077E-01
 -1      2612 5.56757E-01 4.88811E-01 2.88927E-01 2.93866E-02-3.35979E-02-1.06458E-01
 -1      2613 1.01693E-01 2.20193E-01 1.39824E-01-1.83147E-02-4.55725E-03-8.81048E-02
 -1      2614 7.52551E-01 6.89415E-01 4.55105E-01-2.91817E-02-6.95703E-02-1.60136E-01
 -1      2615-9.22947E-01-6.44152E-01-3.44568E-01-3.49924E-02-4.03104E-02-2.68948E-01
 -1      2616-1.01482E+00-7.42267E-01-3.00292E-01-3.49750E-03-8.08724E-03-2.26308E-01
 -1      2617-6.04047E-02-6.90190E-02 7.43340E-02-7.29187E-02-1.06329E-01-2.14632E-01
 -1      2618-6.22020E-01-4.34711E-01-1.62572E-02 8.29769E-03-8.73474E-03-2.06029E-01
 -1      2619-1.46644E+00-8.09509E-01-6.70438E-01 6.12630E-02-1.24260E-01-5.53472E-01
 -1      2620-2.77936E-01-1.41151E-01-1.51030E-01 1.46057E-01 1.31298E-02-2.96922E-01
 -1      2621 1.46945E-01 6.00612E-02-8.00178E-02 7.53619E-02-2.97149E-03-2.27234E-01
 -1      2622-2.58458E-01-1.01338E-01-1.84186E-01-1.90553E-01 3.91616E-02-3.36284E-01
 -1      2623-2.21876E-01-2.15030E-01-7.61410E-02 3.17956E-02 2.55472E-02-1.78860E-01
 -1      2624-1.41151E+00-1.15770E+00-6.96121E-01-4.82802E-02-1.51588E-01-2.23060E-01
 -1      2625-1.67265E+00-1.47104E+00-9.69283E-01-2.81344E-02-5.71670E-03-3.63586E-01
 -1      2626 1.10757E+00 5.82219E-01 6.31581E-01-9.87136E-02-1.42263E-01-3.67029E-01
 -1      2627 7.98785E-01 6.23948E-01 7.29860E-01-1.28681E-01 1.82820E-02-4.45194E-01
 -1      2628-9.48151E-01-8.04541E-01-7.70553E-01-3.80730E-02-6.06639E-03-3.36035E-01
 -1      2629-1.57519E+00-9.84241E-01-5.00559E-01-2.32006E-03-5.12615E-02-4.21070E-01
 -1      2630 1.32752E+00 1.09596E+00 7.24967E-01-1.61789E-01 1.82963E-01-3.19417E-01
 -1      2631-1.09643E+00-1.14511E+00-7.38903E-01 3.14145E-02-3.97253E-02-2.85724E-01
 -1      2632 9.98681E-01 7.87936E-01 5.19768E-01 1.77070E-01 9.39393E-02-1.89886E-01
 -1      2633 3.73577E-01 4.17574E-01 3.98098E-01 2.21235E-02 2.63661E-02-1.98121E-01
 -1      2634 6.06939E-01 4.95844E-01 1.92974E-01-4.91594E-02 4.63916E-02-1.91477E-01
 -1      2635 1.77093E+00 1.90040E+00 1.52784E+00 1.05212E-01-1.18492E-01-3.93347E-01
 -1      2636-6.07735E-01-3.10503E-01 9.09998E-02 3.81324E-03 1.25572E-01-2.87112E-01
 -1      2637 5.57894E-01 2.15887E-01 1.82461E-01 4.39014E-01-2.44743E-02-4.87279E-01
 -1      2638-1.74756E+00-1.03133E+00-9.78236E-01-1.14781E-01 6.47720E-02-6.85661E-01
 -1      2639 5.83176E-01 2.72754E-01 1.20434E-01-6.63974E-03 3.07777E-03-1.53867E-01
 -1      2640-1.04096E+00-9.23868E-01-9.89929E-01-1.14167E-01-2.15667E-02-5.36794E-01
 -1      2641-1.71594E+00-1.76683E+00-1.04062E+00-7.73455E-02-1.31478E-01-2.58734E-01
 -1      2642-8.26342E-01-6.57477E-01-6.42562E-01 7.46868E-02 2.74099E-02-4.32470E-01
 -1      2643-1.18011E+00-1.04109E+00-5.32820E-01 5.82335E-03 2.13858E-02-2.00999E-01
 -1      2644-8.22779E-01-5.00747E-01-4.66257E-01 9.52230E-02 2.30921E-02-3.07876E-01
 -1      2645-1.56902E+00-1.12772E+00-6.20824E-01 1.04687E-02 8.98081E-03-3.53439E-01
 -1      2646-2.00093E+00-1.37786E+00-1.07037E+00 6.87668E-02 4.37693E-02-4.94781E-01
 -1      2647 1.27145E-02-5.48453E-03-2.87937E-02-5.52705E-02-3.16583E-02-1.90462E-01
 -1      2648-1.12629E+00-9.79255E-01-6.46816E-01-1.84593E-02-9.36299E-02-2.29845E-01
 -1      2649 1.48473E+00 8.89695E-01 8.92658E-01-1.43328E-02 2.18784E-01-6.44807E-01
 -1      2650-5.26877E-01-4.37800E-01-2.57826E-02 2.24055E-02 4.16796E-02-1.67558E-01
 -1      2651-6.40335E-01-4.22299E-01-1.76149E-01 4.41345E-02-8.24336E-03-2.23085E-01
 -1      2652-2.08841E+00-2.09909E+00-1.30038E+00-7.05430E-02-4.29491E-02-5.30913E-01
 -1      2653-2.03114E-01-5.31918E-02-2.34410E-02-1.59560E-01 3.04787E-02-3.72249E-01
 -1      2654 1.00533E+00 7.87209E-01 8.09438E-01-9.05302E-03 9.99754E-02-3.99554E-01
 -1      2655 1.28996E+00 1.14516E+00 1.04778E+00 1.91107E-01-2.19682E-02-4.99343E-01
 -1      2656 5.24878E-01 4.55765E-01 4.48389E-01 4.04392E-02 1.89114E-02-2.57756E-01
 -1      2657 2.16912E+00 1.64573E+00 1.19281E+00 2.61165E-01 6.98854E-02-5.55171E-01
 -1      2658-2.56408E-01-1.44015E-01-8.93206E-02-6.10212E-02-7.20398E-02-1.71296E-01
 -1      2659-4.37265E-01-1.33576E-01-2.05749E-01-2.61444E-01 6.32092E-02-4.88889E-01
 -1      2660-2.12464E-01-7.19278E-02-1.50542E-01 1.55330E-01-4.28634E-02-4.73352E-01
 -1      2661-1.77302E-01 2.95066E-02 7.72299E-02-1.21460E-01 7.07409E-02-2.58911E-01
 -1      2662 1.16612E+00 1.12505E+00 6.29141E-01 3.55821E-03-3.87411E-02-3.11616E-01
 -1      2663-5.68364E-01-4.60741E-01-3.82754E-01-3.84118E-02-4.05754E-02-3.63580E-01
 -1      2664-5.35839E-01-2.07063E-01-1.55389E-01-3.97352E-01 2.69919E-02-4.25235E-01
 -1      2665 1.57096E-01 1.22016E-01 6.38924E-02 6.08221E-02-7.97136E-02-1.03373E-01
 -1      2666 2.45604E+00 2.11732E+00 1.44159E+00 8.41911E-02-1.66584E-02-6.50869E-01
 -1      2667 1.10764E+00 1.08114E+00 6.43499E-01 5.93728E-02 6.01847E-02-2.70119E-01
 -1      2668-6.43941E-01-1.51257E-01-2.64767E-01-4.66214E-01 7.31411E-02-6.75805E-01
 -1      2669 1.39184E+00 7.87669E-01 7.69761E-01-1.03806E-01-9.36599E-02-5.07401E-01
 -1      2670 1.22233E+00 1.17221E+00 1.00978E+00 2.91120E-02-8.98674E-02-3.68791E-01
 -1      2671-2.53351E-01-1.40535E-01 1.50516E-01-7.23754E-03-2.06303E-02-1.00353E-01
 -1      2672 1.74176E+00 1.54325E+00 7.43949E-01 6.01542E-03 1.09837E-01-5.03036E-01
 -1      2673 1.50032E+00 1.12928E+00 7.19311E-01-5.39990E-02-2.70273E-02-3.90301E-01
 -1      2674-1.82266E+00-1.40791E+00-7.84531E-01-1.96137E-01-1.70228E-01-3.35447E-01
 -1      2675-8.36081E-01-6.10799E-01-6.44096E-01 1.88360E-02 4.14196E-02-2.51327E-01
 -1      2676-4.83262E-01-3.84417E-01-3.09162E-01 2.45253E-02 5.04709E-02-3.18275E-01
 -1      2677-3.89651E-01-4.27628E-01-5.61131E-01 1.14720E-01 1.02536E-01-3.73174E-01
 -1      2678 1.27322E-01 1.02044E-01 2.35513E-02-2.04511E-01-1.10836E-02-1.99112E-01
 -1      2679 6.38575E-01 4.76997E-01 3.42237E-01 5.31471E-02-1.14548E-01-3.35750E-01
 -1      2680-9.70883E-01-9.00737E-01-2.08023E-01 1.21677E-01-1.71989E-02-1.39204E-01
 -1      2681 1.67420E+00 1.28386E+00 1.03856E+00-3.10538E-01 2.53107E-01-4.60906E-01
 -1      2682-6.01563E-01-4.73779E-01-3.75541E-01 1.66076E-02-1.67170E-02-3.69167E-01
 -1      2683 2.52141E+00 2.48674E+00 1.61266E+00-4.39212E-02 8.58880E-02-6.07398E-01
 -1      2684-8.26738E-01-6.10077E-01-1.62541E-01-3.50013E-03-4.86882E-02-1.65043E-01
 -1      2685-7.87659E-01-6.71401E-01-3.01382E-01 4.32154E-02 2.59894E-02-2.26106E-01
 -1      2686-2.49872E+00-1.80954E+00-1.04882E+00-3.14767E-02-8.99892E-03-5.59705E-01
 -1      2687-2.61367E-01-2.02371E-01-4.55617E-02 7.18150E-02 4.94566E-02-1.59763E-01
 -1      2688-3.68049E-01-1.08014E-01-1.47470E-01 2.40932E-01-1.74333E-02-3.83374E-01
 -1      2689-5.28786E-01-4.45969E-01-3.85145E-01 2.99220E-02-1.83486E-02-1.54273E-01
 -1      2690 7.96370E-01 6.69254E-01 5.44921E-01 2.60966E-02 1.49600E-01-4.05672E-01
 -1      2691-5.59242E-01-1.72219E-01-1.71252E-01 3.44074E-01-1.11679E-01-6.93620E-01
 -1      2692 8.71743E-01 4.01404E-01 1.47800E-01-8.09829E-02 1.62756E-01-3.70798E-01
 -1      2693 6.36880E-01 5.38751E-01 5.32671E-01-3.93410E-02-6.90742E-02-4.22516E-01
 -1      2694-1.66537E-01-2.61395E-01-2.80167E-01 3.14329E-02 2.67298E-02-1.13256E-01
 -1      2695-2.22538E-01-2.33926E-01-2.67095E-01-8.80209E-02 3.46679E-03-2.58814E-01
 -1      2696 5.52446E-01 4.37411E-01 2.42478E-01-2.87643E-02 1.53997E-01-2.10984E-01
 -1      2697 3.06002E+00 2.22367E+00 1.85163E+00-1.22747E-01-2.46187E-02-7.27992E-01
 -1      2698-1.67263E+00-1.26737E+00-1.40811E+00-7.97276E-03 1.20527E-01-5.84869E-01
 -1      2699 2.31905E-01-1.02040E-01-3.84121E-01 1.22120E-01 9.43476E-02-3.09603E-01
 -1      2700-6.11698E-01-1.88661E-01-2.32580E-01 4.21551E-01-4.64552E-02-5.43880E-01
 -1      2701-5.62854E-02 1.12831E-01 2.16541E-01 1.20260E-01-9.36076E-02-2.65238E-01
 -1      2702-4.72232E-01-4.79121E-01-2.33133E-01-8.00409E-03-1.83333E-02-2.02720E-01
 -1      2703-1.57043E+00-1.37440E+00-7.28188E-01 6.34092E-02 1.63801E-02-4.73909E-01
 -1      2704-3.23935E-01 7.63452E-02 2.35994E-01-2.09054E-01 1.18355E-01-3.34281E-01
 -1      2705 1.00834E+00 4.86407E-01 3.10329E-01-7.51328E-02-1.49735E-02-3.00504E-01
 -1      2706-1.29263E+00-8.21517E-01-9.23046E-01 1.36890E-01 4.86495E-02-6.31216E-01
 -1      2707-1.06221E+00-8.84858E-01-8.95463E-01 3.40712E-02-2.05553E-01-5.39250E-01
 -1      2708-8.35390E-01-3.99093E-01 6.26881E-03-5.67633E-02-9.51821E-02-3.52138E-01
 -1      2709 6.64290E-01 4.84182E-01 3.80626E-01-1.79638E-02 1.30023E-01-3.38041E-01
 -1      2710-2.05512E+00-2.05345E+00-1.40528E+00 1.47261E-01 3.04952E-02-5.77047E-01
 -1      2711-3.55726E-01-3.20964E-01-5.34153E-01-2.36966E-01-4.45209E-02-3.58562E-01
 -1      2712 6.55645E-01 4.79889E-01 2.54952E-01-7.99038E-02 4.32061E-02-2.02892E-01
 -1      2713 1.28821E+00 8.17062E-01 5.90347E-01-2.13910E-01 1.20806E-01-4.21682E-01
 -1      2714 7.02891E-02-8.43930E-02-3.26332E-01 6.35991E-02 9.14679E-02-1.56101E-01
 -1      2715 2.90173E-01 2.23625E-01 3.59834E-01 2.09535E-01-1.12314E-01-2.82712E-01
 -1      2716-9.45826E-01-1.01560E+00-7.04597E-01 6.97582E-02 4.37288E-02-3.91693E-01
 -1      2717 5.41124E-01 3.60289E-01 1.85491E-01 2.00799E-02 5.85861E-02-2.37926E-01
 -1      2718 1.87972E+00 9.23292E-01 8.62630E-01-1.96101E-01 5.51859E-02-6.21139E-01
 -1      2719-7.07452E-01-6.55920E-01-7.48173E-01-1.09998E-01-1.37097E-01-3.80297E-01
 -1      2720-5.84886E-01-4.34573E-01-2.05612E-01 7.34115E-02 6.08328E-02-2.55747E-01
 -1      2721-9.35732E-01-8.21623E-01-3.47503E-01-3.67864E-02-3.92295E-02-2.50041E-01
 -1      2722-1.08651E+00-8.87788E-01-4.56487E-01 5.73617E-02 3.09237E-02-3.40607E-01
 -1      2723 9.89194E-01 8.54835E-01 1.20493E+00 8.05493E-02-3.69586E-02-6.35302E-01
 -1      2724-1.36676E+00-8.49357E-01-5.37604E-01 1.25875E-01 8.45636E-02-4.52203E-01
 -1      2725 4.56360E-01 3.44547E-01 3.02568E-01 3.12778E-02-8.08597E-02-2.76354E-01
 -1      2726 8.94907E-01 7.30304E-01 5.34426E-01 1.12867E-01 7.14879E-03-2.29581E-01
 -1      2727-1.93202E-01 1.47408E-01 3.76810E-01 1.85045E-01-1.51785E-01-3.55536E-01
 -1      2728-1.53771E-02 5.40357E-03-2.88960E-02 3.46903E-02-3.45538E-02-2.10844E-01
 -1      2729 1.11553E+00 7.89146E-01 8.06525E-01-1.83884E-01 7.65050E-02-5.27237E-01
 -1      2730 7.86098E-01 6.38160E-01 3.42073E-01 3.19890E-02-3.00105E-02-2.34795E-01
 -1      2731-1.61446E-02 3.76137E-02 1.09163E-01 7.30139E-02-4.96526E-02-1.21556E-01
 -1      2732 4.42405E-01 3.88518E-01 3.63804E-01-1.37364E-02 5.47263E-03-2.38293E-01
 -1      2733-5.03360E-01-4.63606E-01-7.59282E-01 2.00120E-01 1.18166E-01-5.44503E-01
 -1      2734 2.04855E-01 1.62107E-01 6.16481E-02 2.98818E-02 3.37482E-02-1.89942E-01
 -1      2735-1.28256E+00-9.46988E-01-6.17812E-01 1.93352E-02-7.96318E-02-3.22787E-01
 -1      2736-1.95936E+00-1.06635E+00-9.65641E-01 1.14304E-01 2.39374E-02-7.31850E-01
 -1      2737 2.54875E-01 1.33287E-01-2.04208E-02 2.17015E-02-2.59250E-02-1.01397E-01
 -1      2738-5.70997E-03 1.40543E-01 4.95134E-01 1.03320E-01-1.82725E-01-1.80847E-01
 -1      2739 1.71820E-02 1.81326E-01 3.80471E-01-1.12077E-01 1.52682E-01-1.54061E-01
 -1      2740-1.40378E+00-1.07522E+00-7.23808E-01 9.94458E-02 7.29033E-03-3.19349E-01
 -1      2741 3.72852E-01 3.42301E-01 6.48685E-01 1.26028E-01-1.96231E-01-2.99461E-01
 -1      2742 1.26177E+00 8.28638E-01 3.38442E-01 6.19732E-02-1.82409E-02-3.45380E-01
 -1      2743-7.43636E-01-6.09429E-01-4.80741E-01-1.18005E-02 2.35788E-01-3.44965E-01
 -1      2744-9.31839E-01-7.81153E-01-8.08921E-01 4.35433E-02-5.37921E-02-5.51080E-01
 -1      2745-3.26696E-01-3.87737E-01-6.80390E-01-9.44047E-02-1.77440E-01-2.84779E-01
 -3
 9999
